temperature_C,x_mm,y_mm,region,von_mises_strain,E_xx,E_yy,E_xy,severity
25,0.0,2.5316455696202533,anode,0.0100169929722363,0.0105762167668755,0.0093425683853691,5.547213599634213e-05,high
25,10.0,2.5316455696202533,anode,0.0100276303430765,0.0105557467585317,0.0093955731436526,0.0001001277934577,high
25,0.0,2.632911392405063,anode,0.0100007709575092,0.0105040285308487,0.0094069948460615,-1.4078191464585144e-05,high
25,10.0,2.7341772151898733,anode,0.0100426936124707,0.0106074695197631,0.0093616172757358,1.2613114288483484e-05,high
25,0.0,2.835443037974684,anode,0.0100159557683968,0.0103526924713494,0.0096412841540527,2.4687891081966377e-06,high
25,10.0,3.037974683544304,anode-electrolyte interface,0.0101832842685779,0.0106578806735937,0.0096304900815863,-3.231588023339093e-05,high
25,0.0,3.1392405063291138,anode-electrolyte interface,0.0100143949267335,0.0105498759914843,0.0093746991884789,-4.143804347756768e-05,high
25,0.0,3.240506329113924,anode-electrolyte interface,0.0100148722105766,0.010561518035383,0.009358099074542,6.761667987737271e-05,high
25,10.0,3.240506329113924,anode-electrolyte interface,0.0100156108630171,0.0104667603241882,0.0094930782467255,-2.9605315808874384e-05,high
25,0.0,3.3417721518987342,anode-electrolyte interface,0.0100253973636017,0.0105672111420853,0.009372043715499,0.0001208336956421,high
25,10.0,3.4430379746835444,anode-electrolyte interface,0.0100043244794586,0.0106117373969543,0.0092584847368447,-4.692833932226721e-05,high
25,10.0,4.556962025316456,electrolyte,0.0100254273993785,0.0104603666296279,0.0095244904147341,3.496928228417867e-05,high
25,0.0,4.759493670886076,electrolyte,0.0100576045859414,0.0105203729515567,0.0095176447004038,8.321496827389355e-05,high
25,10.0,4.759493670886076,electrolyte,0.0100151004701414,0.0104524772808305,0.0095112117368028,1.3316788306822828e-05,high
25,10.0,4.860759493670886,electrolyte,0.0100002080940233,0.0104875740740961,0.0094284926219061,-1.2827341715378666e-05,high
25,10.0,4.962025316455696,electrolyte,0.0100000507469284,0.0104430664793335,0.0094884667575406,-1.88430036079074e-05,high
400,0.0,2.5316455696202533,anode,0.0156021082240328,0.016348521755517,0.0147293550432684,-1.7309176455974032e-05,critical
400,0.101010101010101,2.5316455696202533,anode,0.0155128196731124,0.0163040736965671,0.0145770221368482,2.8239990104735037e-06,critical
400,0.202020202020202,2.5316455696202533,anode,0.0153285118269131,0.0161864488772721,0.0142950002477522,1.1636134340629568e-05,critical
400,0.303030303030303,2.5316455696202533,anode,0.0150053994929984,0.0158052934935325,0.0140513447346287,-4.090069539508127e-06,critical
400,0.404040404040404,2.5316455696202533,anode,0.0150088782539668,0.0157441981859403,0.0141453147188326,3.346523176177197e-05,critical
400,0.5050505050505051,2.5316455696202533,anode,0.0147174468894956,0.0154374029117642,0.0138714292005388,6.358131315447817e-05,high
400,0.6060606060606061,2.5316455696202533,anode,0.0146790136160893,0.0154584728305437,0.0137500092413185,1.222877726838631e-05,high
400,0.7070707070707071,2.5316455696202533,anode,0.0145835266145388,0.0152004468830097,0.0138759961104612,-3.5293257820579965e-05,high
400,0.8080808080808081,2.5316455696202533,anode,0.0144008474145227,0.0151541121998299,0.0135056192411634,2.006583181908371e-05,high
400,0.9090909090909092,2.5316455696202533,anode,0.0143285091360205,0.0150873205079303,0.0134241381640325,4.367886014494588e-05,high
400,1.0101010101010102,2.5316455696202533,anode,0.0141842246473482,0.014959889111549,0.013254146500851,2.6514596822248605e-05,high
400,1.1111111111111112,2.5316455696202533,anode,0.0140850861770037,0.0147179633416645,0.0133525723133499,-2.9945108729441512e-05,high
400,1.2121212121212122,2.5316455696202533,anode,0.0140094306680599,0.0146063793304409,0.013324189351433,2.564217396771108e-05,high
400,1.3131313131313131,2.5316455696202533,anode,0.0139870929064042,0.0146962034615007,0.0131488999314191,-4.363130042664887e-05,high
400,1.414141414141414,2.5316455696202533,anode,0.0138090959983643,0.0145443585432206,0.0129314757641932,-5.692517242054221e-05,high
400,1.5151515151515151,2.5316455696202533,anode,0.0136728705509241,0.0141978152062728,0.0130784249175467,-5.566062459589574e-05,high
400,1.616161616161616,2.5316455696202533,anode,0.0136828169496892,0.0141841250630289,0.0131174301922678,-8.635465383623569e-05,high
400,1.7171717171717171,2.5316455696202533,anode,0.0135937183890327,0.0143283569470763,0.0127149993286453,-2.006549868326367e-05,high
400,1.818181818181818,2.5316455696202533,anode,0.0134462403681492,0.0141619919371192,0.0125927250542834,-1.539267530517393e-05,high
400,1.9191919191919191,2.5316455696202533,anode,0.0135906387705154,0.0142047909509078,0.0128735071324329,0.0001501865107945,high
400,2.0202020202020203,2.5316455696202533,anode,0.0134786825649761,0.0141545641635834,0.0126811403928251,5.128587037698605e-05,high
400,2.121212121212121,2.5316455696202533,anode,0.0133986379973697,0.0140387425615295,0.0126500026083854,3.988109535462994e-05,high
400,2.2222222222222223,2.5316455696202533,anode,0.0133286281613634,0.0139594996814097,0.0125901487387124,-9.134066758908104e-05,high
400,2.323232323232323,2.5316455696202533,anode,0.0131778169904859,0.0137596963541656,0.0125061680679681,2.8590797112004457e-05,high
400,2.4242424242424243,2.5316455696202533,anode,0.0132165300379193,0.013776001817291,0.0125750247736774,1.5877124807517207e-05,high
400,2.525252525252525,2.5316455696202533,anode,0.013118714786992,0.0137008521398021,0.0124463157035963,2.3698469753937987e-05,high
400,2.6262626262626263,2.5316455696202533,anode,0.0131470954256978,0.0137532400019729,0.0124427601006673,-1.284016134376472e-05,high
400,2.727272727272727,2.5316455696202533,anode,0.0130566807713883,0.0137688626352909,0.0122032828366436,-1.3510275840226436e-05,high
400,2.8282828282828283,2.5316455696202533,anode,0.0129667802424919,0.0135898788691343,0.0122377065476399,4.839132980576029e-06,high
400,2.929292929292929,2.5316455696202533,anode,0.012955693592484,0.0136476001448333,0.0121281245483338,8.445123164009981e-05,high
400,3.0303030303030303,2.5316455696202533,anode,0.0129898665278341,0.0136958331936185,0.0121445161714614,1.61266464140501e-05,high
400,3.131313131313131,2.5316455696202533,anode,0.0128816903893021,0.0133916254472675,0.0123023408980751,3.196365178296504e-05,high
400,3.2323232323232323,2.5316455696202533,anode,0.0128704054839636,0.0134217246936725,0.0122369414019508,-3.0371498215459727e-05,high
400,3.333333333333333,2.5316455696202533,anode,0.012866967956492,0.0134877330788949,0.0121392426165937,5.649092526605372e-05,high
400,3.4343434343434343,2.5316455696202533,anode,0.012699949140522,0.0132343259567546,0.0120870921323504,-5.178666217458337e-05,high
400,3.5353535353535355,2.5316455696202533,anode,0.0126978417281869,0.0133097860769793,0.0119809320254013,-4.354768561168933e-05,high
400,3.636363636363636,2.5316455696202533,anode,0.0126816532402247,0.0132188464684421,0.0120651399581941,-4.493501188948152e-05,high
400,3.7373737373737375,2.5316455696202533,anode,0.0127210238125536,0.0132732436662537,0.0120854475175272,1.2876759000589736e-05,high
400,3.8383838383838382,2.5316455696202533,anode,0.0127282534996103,0.0133102233047851,0.0120522187879992,5.2084545669688747e-05,high
400,3.939393939393939,2.5316455696202533,anode,0.0127789273386895,0.0133304675218112,0.0121443743442473,-3.6419467940826216e-05,high
400,4.040404040404041,2.5316455696202533,anode,0.0125887599008148,0.0130592085762699,0.0120585893403331,1.1036363943166791e-06,high
400,4.141414141414141,2.5316455696202533,anode,0.0126623969465043,0.0132305431282909,0.012004802437792,-3.558928058157974e-05,high
400,4.242424242424242,2.5316455696202533,anode,0.0126532886396566,0.0134027413414146,0.0117392815727885,-4.492308493142133e-06,high
400,4.343434343434343,2.5316455696202533,anode,0.012612642711267,0.0132160299980796,0.0119070254505186,-2.3506840068246277e-05,high
400,4.444444444444445,2.5316455696202533,anode,0.0126105427798532,0.0131866050868376,0.0119409783840606,6.642544382946393e-05,high
400,4.545454545454545,2.5316455696202533,anode,0.0125569566202528,0.0132447616497755,0.0117320626935659,-1.3258887470380418e-05,high
400,4.646464646464646,2.5316455696202533,anode,0.0126665871933514,0.013389090563404,0.0117915987058018,6.23643390904815e-05,high
400,4.747474747474747,2.5316455696202533,anode,0.0126936234985046,0.0132800832141542,0.0120116747544495,-3.254341045094902e-05,high
400,4.848484848484849,2.5316455696202533,anode,0.012655410837616,0.0133667945099616,0.0117961350078288,-7.289155368506029e-05,high
400,4.94949494949495,2.5316455696202533,anode,0.0125472158114939,0.0132690696484019,0.0116688820046634,-0.0001107791890311,high
400,5.05050505050505,2.5316455696202533,anode,0.0126225400454367,0.0131652864530208,0.0119983374852889,-4.162271621192261e-05,high
400,5.151515151515151,2.5316455696202533,anode,0.0126261628530798,0.0132294689835397,0.0119209100895314,-1.0827871191947457e-05,high
400,5.252525252525253,2.5316455696202533,anode,0.012704619172571,0.0132553184858516,0.0120702028782083,5.31224280445978e-05,high
400,5.353535353535354,2.5316455696202533,anode,0.0125865246326367,0.0130881431720528,0.0120156012775999,-5.274591006675195e-05,high
400,5.454545454545454,2.5316455696202533,anode,0.0126280332795373,0.0131274627865845,0.012060948171971,-6.397589249902339e-06,high
400,5.555555555555555,2.5316455696202533,anode,0.012624816886024,0.0132629534530676,0.0118647990309604,-0.000151534748435,high
400,5.656565656565657,2.5316455696202533,anode,0.012759185614344,0.013377638977761,0.0120344006624795,-1.484355375486205e-05,high
400,5.757575757575758,2.5316455696202533,anode,0.0125992146674877,0.013148683418557,0.0119663958901731,4.2901692707257e-06,high
400,5.858585858585858,2.5316455696202533,anode,0.0126365455736812,0.0132496332316225,0.0119179615976002,1.0241388239845638e-05,high
400,5.959595959595959,2.5316455696202533,anode,0.0126444600161481,0.0132462166903633,0.0119408582786027,-4.903158684365495e-05,high
400,6.0606060606060606,2.5316455696202533,anode,0.0127683180914942,0.0134819524131244,0.0119087441180056,2.477261069161344e-05,high
400,6.161616161616162,2.5316455696202533,anode,0.0126258586829786,0.0132803157893763,0.0118494945379,3.0887466141518985e-06,high
400,6.262626262626262,2.5316455696202533,anode,0.0126733014552411,0.0132644165378356,0.0119850196478388,2.1760439689518357e-05,high
400,6.363636363636363,2.5316455696202533,anode,0.0126802332556216,0.0132677003851824,0.0119948005666323,9.05931763684874e-05,high
400,6.4646464646464645,2.5316455696202533,anode,0.0128572871771072,0.0134595799823581,0.0121556175394908,-1.7315181190856857e-06,high
400,6.565656565656566,2.5316455696202533,anode,0.0127419123795882,0.0134603850491646,0.0118749828672991,-1.815823743220627e-05,high
400,6.666666666666667,2.5316455696202533,anode,0.012854021276881,0.0134818242453838,0.0121173523080718,4.661257942197368e-06,high
400,6.767676767676767,2.5316455696202533,anode,0.0127654242148172,0.0133447840768756,0.0120900210425049,-0.0001195893176778,high
400,6.8686868686868685,2.5316455696202533,anode,0.0128420129764254,0.0133846747421261,0.0122199479068945,-1.5061943905871898e-05,high
400,6.96969696969697,2.5316455696202533,anode,0.0129147232379378,0.0134967741183673,0.0122381388646165,0.0001008591850114,high
400,7.070707070707071,2.5316455696202533,anode,0.0129995511156301,0.0137074811080202,0.0121498651122761,7.770698416317167e-05,high
400,7.171717171717171,2.5316455696202533,anode,0.0128867678515795,0.0134462415898881,0.0122428741751581,-4.0254147479389045e-06,high
400,7.272727272727272,2.5316455696202533,anode,0.0131232642092635,0.0137438952194969,0.0123988621911487,2.7609555466719227e-05,high
400,7.373737373737374,2.5316455696202533,anode,0.013019956923834,0.0136196082039214,0.0123184031077571,0.000134560482792,high
400,7.474747474747475,2.5316455696202533,anode,0.013083051721762,0.0137594431442425,0.0122807835999099,3.19614170936332e-05,high
400,7.575757575757575,2.5316455696202533,anode,0.0132296089036924,0.0139521420722706,0.0123627203389607,-5.732867057955297e-05,high
400,7.6767676767676765,2.5316455696202533,anode,0.013229279982812,0.0138858303470861,0.0124564161470682,3.131856491350802e-05,high
400,7.777777777777778,2.5316455696202533,anode,0.0131604865680528,0.0138347582325233,0.012361517528288,5.586335805707811e-05,high
400,7.878787878787879,2.5316455696202533,anode,0.0133648605116954,0.0139992949891728,0.0126240658454754,-8.555034553540112e-06,high
400,7.979797979797979,2.5316455696202533,anode,0.0132930666391675,0.014007970610901,0.0124386546486248,2.9208028629544816e-05,high
400,8.080808080808081,2.5316455696202533,anode,0.0134030858268888,0.0140939447905737,0.0125828107528233,-7.690587834098342e-05,high
400,8.181818181818182,2.5316455696202533,anode,0.0134988556936774,0.014208113698554,0.0126545456716689,5.2623562369386025e-05,high
400,8.282828282828282,2.5316455696202533,anode,0.0135111452554882,0.0141236560195106,0.012796865314192,-0.0001318442433669,high
400,8.383838383838384,2.5316455696202533,anode,0.0136155596361028,0.01441279992246,0.0126455986149651,2.569698964308996e-05,high
400,8.484848484848484,2.5316455696202533,anode,0.0137319906728226,0.0144034101223688,0.0129439759369075,-8.673012599497176e-06,high
400,8.585858585858587,2.5316455696202533,anode,0.0137185119278718,0.0143277242258969,0.0130149031286812,-6.5173450685425744e-06,high
400,8.686868686868687,2.5316455696202533,anode,0.0139051439282311,0.0146253177195861,0.0130507914574182,2.5319016332378917e-05,high
400,8.787878787878787,2.5316455696202533,anode,0.0139473182999441,0.0145422822806333,0.0132641793574901,-3.0001334622926007e-05,high
400,8.88888888888889,2.5316455696202533,anode,0.0141819664569632,0.0148798625215457,0.0133612223818382,5.401404430723364e-05,high
400,8.98989898989899,2.5316455696202533,anode,0.0141672080867232,0.0149394053384922,0.013242067929844,-8.373966203861496e-06,high
400,9.09090909090909,2.5316455696202533,anode,0.0143229108447124,0.0150033345772674,0.0135281595469902,-2.6644558416462716e-05,high
400,9.191919191919192,2.5316455696202533,anode,0.0144151763579423,0.0150527285167738,0.0136792870006808,1.1170021914999768e-05,high
400,9.292929292929292,2.5316455696202533,anode,0.0146106584624688,0.0153854723113735,0.0136873468558416,-2.1714645357844915e-05,high
400,9.393939393939394,2.5316455696202533,anode,0.0147651252553607,0.0154463401650298,0.0139732774226829,3.1694755133430393e-05,high
400,9.494949494949497,2.5316455696202533,anode,0.0146890828079713,0.0153248347052,0.0139571978264134,-4.821296387442016e-05,high
400,9.595959595959595,2.5316455696202533,anode,0.014969904413345,0.015715036327317,0.0140924706331062,-2.33150290898042e-05,high
400,9.696969696969695,2.5316455696202533,anode,0.0150982120092829,0.015798403882076,0.0142837460641204,-2.181972940438992e-05,critical
400,9.797979797979798,2.5316455696202533,anode,0.0152990662758034,0.0160799775945009,0.0143751151788904,-3.338193291075339e-05,critical
400,9.8989898989899,2.5316455696202533,anode,0.0154690885455093,0.0161393805575954,0.0146978597910896,-1.1041708309257636e-05,critical
400,10.0,2.5316455696202533,anode,0.015705474155513,0.0165886532816378,0.0146404315820724,2.0874628059066997e-05,critical
400,0.0,2.632911392405063,anode,0.0156805405757241,0.0165030287957039,0.0147019146939635,5.5435226408312326e-05,critical
400,0.101010101010101,2.632911392405063,anode,0.015502087649427,0.0163197255404754,0.0145288139696904,-1.9155696925540554e-05,critical
400,0.202020202020202,2.632911392405063,anode,0.0152545637177542,0.016017411625377,0.0143531961966077,0.0001017343023224,critical
400,0.303030303030303,2.632911392405063,anode,0.015055560099221,0.0157863982750879,0.0141982941755973,5.127893523388806e-05,critical
400,0.404040404040404,2.632911392405063,anode,0.0150133144284701,0.015670999624462,0.0142552472258667,2.066680761249113e-05,critical
400,0.5050505050505051,2.632911392405063,anode,0.0149290838928005,0.0155386899169323,0.014233664751407,2.550974935918572e-05,high
400,0.6060606060606061,2.632911392405063,anode,0.0146965620078532,0.0154042623421118,0.0138681886635743,8.085402020950993e-06,high
400,0.7070707070707071,2.632911392405063,anode,0.0146465263216799,0.0153153177652071,0.0138706559053608,-7.801707495598365e-06,high
400,0.8080808080808081,2.632911392405063,anode,0.0144393273628833,0.0151928742734379,0.0135420325251953,-9.398342525975665e-05,high
400,0.9090909090909092,2.632911392405063,anode,0.0143761212214686,0.0150648009153484,0.0135706158833261,2.3422805609574056e-05,high
400,1.0101010101010102,2.632911392405063,anode,0.0143227738103086,0.0149730235238646,0.0135689922868917,-2.384114161909543e-05,high
400,1.1111111111111112,2.632911392405063,anode,0.0141533262268118,0.0148686523034016,0.0133072925001089,-7.59244436643807e-05,high
400,1.2121212121212122,2.632911392405063,anode,0.0139829045697592,0.014766735469394,0.013037652538008,5.2682232125638265e-05,high
400,1.3131313131313131,2.632911392405063,anode,0.0139432919743857,0.0146258315935158,0.0131405291247324,7.767803458046934e-05,high
400,1.414141414141414,2.632911392405063,anode,0.0136690001661583,0.0144140423176755,0.0127741389544064,9.183870079927592e-05,high
400,1.5151515151515151,2.632911392405063,anode,0.0139491998787208,0.0147327659960439,0.0130045877541016,3.107216611035458e-06,high
400,1.616161616161616,2.632911392405063,anode,0.0135150771803927,0.0141374983403756,0.0127908133397572,6.744958169113214e-05,high
400,1.7171717171717171,2.632911392405063,anode,0.0135173941318828,0.0141731955286914,0.0127487604139294,9.212770672501816e-06,high
400,1.818181818181818,2.632911392405063,anode,0.0135844689555002,0.0142909280663629,0.0127453991343928,4.3030673943762416e-05,high
400,1.9191919191919191,2.632911392405063,anode,0.0134287000267359,0.0140277688251193,0.0127352913325944,6.261949960907983e-05,high
400,2.0202020202020203,2.632911392405063,anode,0.0134506796574695,0.0141639557595077,0.0126007815677667,-1.0909217354228168e-05,high
400,2.121212121212121,2.632911392405063,anode,0.0133517835855405,0.0140743711553842,0.0124862970240574,-6.15543000571558e-05,high
400,2.2222222222222223,2.632911392405063,anode,0.0131162176720718,0.0137485267564477,0.0123755801721671,-3.7365644990437015e-05,high
400,2.323232323232323,2.632911392405063,anode,0.0131576478784196,0.0137512978695645,0.0124685916595447,-7.967548115231597e-05,high
400,2.4242424242424243,2.632911392405063,anode,0.0131341271226486,0.0136969215548173,0.0124874871952996,-2.8467953373944e-05,high
400,2.525252525252525,2.632911392405063,anode,0.0131382925528174,0.0137273413188219,0.0124568986011618,-1.4231800767659528e-05,high
400,2.6262626262626263,2.632911392405063,anode,0.0129876906412246,0.0135616274984939,0.0123247124146639,-4.827170948791836e-05,high
400,2.727272727272727,2.632911392405063,anode,0.0130261929606515,0.0135726345623992,0.0124005136660387,-8.067987395665289e-06,high
400,2.8282828282828283,2.632911392405063,anode,0.013043632672285,0.0136234901497364,0.0123735880737016,2.968080667624e-05,high
400,2.929292929292929,2.632911392405063,anode,0.0128733730238167,0.0135826226790421,0.0120213013866727,-4.166527773477632e-05,high
400,3.0303030303030303,2.632911392405063,anode,0.0128680127387576,0.0134479713341567,0.0121964563560236,-2.4944272816969557e-05,high
400,3.131313131313131,2.632911392405063,anode,0.0128224073310757,0.0134546808955498,0.0120789737048256,-3.0674339163921474e-05,high
400,3.2323232323232323,2.632911392405063,anode,0.0127593786852997,0.0133802850457273,0.0120303233384057,5.8287687410959344e-05,high
400,3.333333333333333,2.632911392405063,anode,0.0128213353366676,0.0134629653376565,0.0120607314995086,-0.0001253926549771,high
400,3.4343434343434343,2.632911392405063,anode,0.0127661264469627,0.0134016656302091,0.0120176347908484,2.6582968359685272e-05,high
400,3.5353535353535355,2.632911392405063,anode,0.0126883432858927,0.0132582948970263,0.0120274837429126,7.125753958509644e-05,high
400,3.636363636363636,2.632911392405063,anode,0.0125191889889398,0.0130696019675567,0.0118843844008187,-1.9820125697322546e-05,high
400,3.7373737373737375,2.632911392405063,anode,0.0127633213087881,0.0133544705219839,0.0120758647604589,1.589724236953419e-05,high
400,3.8383838383838382,2.632911392405063,anode,0.0126072169401855,0.0132484631494109,0.0118491191329485,1.94689037731235e-05,high
400,3.939393939393939,2.632911392405063,anode,0.0125252732396827,0.013125554850732,0.011822037505511,-6.457691388977785e-05,high
400,4.040404040404041,2.632911392405063,anode,0.0125931221711389,0.0132100997132665,0.0118685071435632,2.995874975311651e-05,high
400,4.141414141414141,2.632911392405063,anode,0.0125991746969309,0.0132391293859927,0.0118425626663388,-3.456896466478579e-05,high
400,4.242424242424242,2.632911392405063,anode,0.0127175005475716,0.0133110097794668,0.0120252119493346,6.789761840866824e-05,high
400,4.343434343434343,2.632911392405063,anode,0.0126506268411063,0.013207868164007,0.0120075771030837,-3.248330497356525e-05,high
400,4.444444444444445,2.632911392405063,anode,0.012568324623266,0.0131799931828985,0.0118510438779874,1.398388050277712e-07,high
400,4.545454545454545,2.632911392405063,anode,0.0126043407292476,0.0132530696516379,0.0118347187820102,-6.146463500551567e-05,high
400,4.646464646464646,2.632911392405063,anode,0.0126523796619698,0.0133276015329162,0.0118465204672279,-3.36929702725402e-05,high
400,4.747474747474747,2.632911392405063,anode,0.0125611998548845,0.0131862310277664,0.0118249994050224,-3.471889862832648e-05,high
400,4.848484848484849,2.632911392405063,anode,0.0127130323216224,0.0134089317522683,0.0118777216195551,5.48566952324977e-05,high
400,4.94949494949495,2.632911392405063,anode,0.0126120924782559,0.0131189166358005,0.0120319480499942,0.0001114338957903,high
400,5.05050505050505,2.632911392405063,anode,0.0126034106531511,0.0132512136357042,0.0118360109819194,2.346220170800588e-05,high
400,5.151515151515151,2.632911392405063,anode,0.0126181119999472,0.0132131479051404,0.0119240519746844,1.5489299598925354e-05,high
400,5.252525252525253,2.632911392405063,anode,0.0125000378817769,0.0131246662008769,0.0117630488499536,6.015417766220519e-05,high
400,5.353535353535354,2.632911392405063,anode,0.0125423816965179,0.0131833937494317,0.0117822195085084,7.83376129704425e-05,high
400,5.454545454545454,2.632911392405063,anode,0.0126422198495579,0.0132190383074622,0.0119731391964749,4.9136211491548e-06,high
400,5.555555555555555,2.632911392405063,anode,0.0126261968864508,0.0131819846690978,0.0119851817982605,-3.054109523917753e-06,high
400,5.656565656565657,2.632911392405063,anode,0.0126204643250733,0.0131783815029198,0.0119749084314374,7.715908815028625e-05,high
400,5.757575757575758,2.632911392405063,anode,0.0127233307057723,0.0133401747809418,0.0120004665820069,-1.22927236445349e-06,high
400,5.858585858585858,2.632911392405063,anode,0.0126206010397313,0.0131686020845692,0.0119893846651521,4.313153365122184e-05,high
400,5.959595959595959,2.632911392405063,anode,0.0126871515657062,0.0133079019958985,0.0119585348681718,-2.0948863098307443e-06,high
400,6.0606060606060606,2.632911392405063,anode,0.0126542973556061,0.013278296263475,0.0119206192094477,-2.852527504015204e-05,high
400,6.161616161616162,2.632911392405063,anode,0.0126969559052872,0.0133177943862186,0.0119679368915766,-3.674804171023273e-05,high
400,6.262626262626262,2.632911392405063,anode,0.0126719404806239,0.0132363041191029,0.0120178818660948,-8.403076969091362e-05,high
400,6.363636363636363,2.632911392405063,anode,0.0128132547737166,0.0134749669501039,0.0120287619363498,1.6526860805475254e-05,high
400,6.4646464646464645,2.632911392405063,anode,0.0127906344827407,0.0134387813073824,0.0120248644183372,2.3426003995313102e-05,high
400,6.565656565656566,2.632911392405063,anode,0.0128213753527531,0.0135166230257991,0.0119890839304871,2.8061452916538544e-05,high
400,6.666666666666667,2.632911392405063,anode,0.0127583426195172,0.0133843436706034,0.0120229294946133,3.075470187840036e-05,high
400,6.767676767676767,2.632911392405063,anode,0.0128028795807559,0.0134992877370656,0.0119663514135364,9.418225801285177e-05,high
400,6.8686868686868685,2.632911392405063,anode,0.0129198723729119,0.0135211313839839,0.0122196998871526,-4.1675509767342206e-05,high
400,6.96969696969697,2.632911392405063,anode,0.0128743379263105,0.0135231325586368,0.0121087151232255,8.956061150782648e-06,high
400,7.070707070707071,2.632911392405063,anode,0.0129419744911264,0.0135406245459189,0.0122456819728374,3.485952030635353e-05,high
400,7.171717171717171,2.632911392405063,anode,0.0130736679966471,0.0136205877495032,0.0124442092298844,-0.0001147238369803,high
400,7.272727272727272,2.632911392405063,anode,0.0131053536207921,0.013709118172383,0.0124032291186279,-5.037723983042468e-05,high
400,7.373737373737374,2.632911392405063,anode,0.0130495198500231,0.0136776938196876,0.0123142894834971,2.2927371729159258e-06,high
400,7.474747474747475,2.632911392405063,anode,0.013104928303077,0.013700387921365,0.0124108363726358,-0.0001196242704764,high
400,7.575757575757575,2.632911392405063,anode,0.0131070714462324,0.0138495076131637,0.0122103996095807,-1.442794249024862e-05,high
400,7.6767676767676765,2.632911392405063,anode,0.0132135906107513,0.0137790092059657,0.012564134991921,2.39843970748481e-05,high
400,7.777777777777778,2.632911392405063,anode,0.0132342163412575,0.0138639730366458,0.0124985593260807,-1.20840460333965e-05,high
400,7.878787878787879,2.632911392405063,anode,0.0132735289530777,0.0140068471866459,0.0123920276942918,4.355314253904065e-05,high
400,7.979797979797979,2.632911392405063,anode,0.0135101303397447,0.0141042737116048,0.0128246399413674,-3.618114211089844e-05,high
400,8.080808080808081,2.632911392405063,anode,0.0134378086560926,0.0141601991001475,0.0125745829500611,-2.532935160848339e-05,high
400,8.181818181818182,2.632911392405063,anode,0.0135883216030224,0.0142435385193655,0.0128211795997514,-1.1741638115801129e-05,high
400,8.282828282828282,2.632911392405063,anode,0.0135902286611333,0.0142442852980553,0.0128246956661231,1.2334366744710194e-05,high
400,8.383838383838384,2.632911392405063,anode,0.0135391390582885,0.0140772210332565,0.0129277574106103,-6.358364698106298e-06,high
400,8.484848484848484,2.632911392405063,anode,0.0138553339291399,0.0145008661586885,0.0131039106730775,-1.569324154722033e-05,high
400,8.585858585858587,2.632911392405063,anode,0.0139469631963224,0.0146374229730628,0.0131305129764409,0.0001292702236871,high
400,8.686868686868687,2.632911392405063,anode,0.0139446826951408,0.0146251658760833,0.0131462149648782,-2.0857983365902237e-05,high
400,8.787878787878787,2.632911392405063,anode,0.0138805391475963,0.014527217167969,0.0131272134532961,4.9919870920100016e-05,high
400,8.88888888888889,2.632911392405063,anode,0.0140907064906146,0.0147171268725424,0.0133669271026381,-2.71288312126294e-05,high
400,8.98989898989899,2.632911392405063,anode,0.0141369756164128,0.0148122278822355,0.0133468429226104,-5.844547614774483e-05,high
400,9.09090909090909,2.632911392405063,anode,0.0142235758730888,0.014890836814732,0.0134459919093292,-1.2416156397462344e-05,high
400,9.191919191919192,2.632911392405063,anode,0.014568890753474,0.0152389373275266,0.0137905500583747,2.178725566344354e-05,high
400,9.292929292929292,2.632911392405063,anode,0.0146472673946119,0.0154407678314895,0.0136977373205989,-1.5329527819219777e-05,high
400,9.393939393939394,2.632911392405063,anode,0.0146399340109429,0.0153300644750972,0.0138341992628054,6.0245196958098326e-05,high
400,9.494949494949497,2.632911392405063,anode,0.0147820779990425,0.0155318688672556,0.013895857795869,3.939822588679671e-05,high
400,9.595959595959595,2.632911392405063,anode,0.0149254795282233,0.0156668049631271,0.0140526909099079,-3.56243267864067e-05,high
400,9.696969696969695,2.632911392405063,anode,0.015092363530794,0.0157920973353644,0.0142781952191639,4.03677009298742e-05,critical
400,9.797979797979798,2.632911392405063,anode,0.0151768125287941,0.0159305635021498,0.0142895351999989,-2.778924200209917e-05,critical
400,9.8989898989899,2.632911392405063,anode,0.0153687484052667,0.0161107798990494,0.0144996386304391,-2.6862403777625066e-05,critical
400,10.0,2.632911392405063,anode,0.0156400470347014,0.0163605307724061,0.0148021213967339,-6.289901253774074e-05,critical
400,0.0,2.7341772151898733,anode,0.0155456517842631,0.0162130827585913,0.0147785107404145,3.68548466103252e-05,critical
400,0.101010101010101,2.7341772151898733,anode,0.0155845116774819,0.0163613583376451,0.0146687561851593,6.144337781441876e-05,critical
400,0.202020202020202,2.7341772151898733,anode,0.0152560274358116,0.0159740496307326,0.0144188189869735,1.5282369835600415e-05,critical
400,0.303030303030303,2.7341772151898733,anode,0.0151227788226588,0.0158261561639364,0.0143043032946016,-9.405786897260872e-06,critical
400,0.404040404040404,2.7341772151898733,anode,0.0149445652144917,0.0155989592262929,0.0141896400597991,5.840150845700922e-05,high
400,0.5050505050505051,2.7341772151898733,anode,0.0148231596416869,0.0154730068859266,0.014072861265923,-7.342736411567798e-05,high
400,0.6060606060606061,2.7341772151898733,anode,0.0147526705687616,0.0154982898462972,0.0138714726985652,5.958299782248077e-05,high
400,0.7070707070707071,2.7341772151898733,anode,0.0145655089675573,0.0152415456548992,0.0137791120163972,-1.1172213771709646e-05,high
400,0.8080808080808081,2.7341772151898733,anode,0.0144964336572104,0.0152536094855325,0.013596352528266,4.7032831411448e-05,high
400,0.9090909090909092,2.7341772151898733,anode,0.0144014980351646,0.0151490592173364,0.0135141885128272,-3.215266355757136e-05,high
400,1.0101010101010102,2.7341772151898733,anode,0.0142017381194763,0.0148780214814127,0.013408558891371,-0.0001113823595387,high
400,1.1111111111111112,2.7341772151898733,anode,0.0140295221207307,0.0147353395441868,0.0131938477056594,-0.0001087321029649,high
400,1.2121212121212122,2.7341772151898733,anode,0.0140925664134234,0.0147572547652312,0.0133171860527304,-2.2530600678423515e-05,high
400,1.3131313131313131,2.7341772151898733,anode,0.0139068392611713,0.0145426690408323,0.0131690635831695,4.20376908128119e-06,high
400,1.414141414141414,2.7341772151898733,anode,0.013606939301216,0.0142279159987982,0.01288632820754,3.338700096208389e-05,high
400,1.5151515151515151,2.7341772151898733,anode,0.0136961567507548,0.0143196777769198,0.0129731692706001,-2.638384932326098e-06,high
400,1.616161616161616,2.7341772151898733,anode,0.0136340226578279,0.0142164411926772,0.0129586080641635,-0.0001624193870265,high
400,1.7171717171717171,2.7341772151898733,anode,0.013470186289158,0.0141068263227116,0.0127272796908921,-2.037641827888664e-05,high
400,1.818181818181818,2.7341772151898733,anode,0.0135804592366288,0.0142765486281439,0.0127562885472751,-2.5223034735635824e-05,high
400,1.9191919191919191,2.7341772151898733,anode,0.01345042678239,0.0141242046712641,0.0126562146054689,-2.604104175348552e-06,high
400,2.0202020202020203,2.7341772151898733,anode,0.0134196371646869,0.0141214403868793,0.0125856951822741,-1.1625346679658168e-06,high
400,2.121212121212121,2.7341772151898733,anode,0.0132840782602714,0.0139497297141887,0.0124983855973624,-6.11951323132033e-05,high
400,2.2222222222222223,2.7341772151898733,anode,0.013287863834018,0.0138913717457026,0.0125881823975438,2.5176094862471672e-05,high
400,2.323232323232323,2.7341772151898733,anode,0.0131635096342621,0.013901091230005,0.0122744273299473,-3.658933312026512e-05,high
400,2.4242424242424243,2.7341772151898733,anode,0.0132069767914871,0.0138244395317841,0.0124874152980306,-4.116824559744027e-05,high
400,2.525252525252525,2.7341772151898733,anode,0.0131331793807671,0.0138670789408345,0.0122486800564841,-5.090001391753712e-05,high
400,2.6262626262626263,2.7341772151898733,anode,0.0131358437522957,0.0137912445791805,0.012361774856064,-8.707644663855905e-05,high
400,2.727272727272727,2.7341772151898733,anode,0.0129017578075019,0.0135347674292561,0.0121581553303254,2.880328563922607e-05,high
400,2.8282828282828283,2.7341772151898733,anode,0.0129856612058019,0.013657413263765,0.0121887370668691,-3.5439596197884306e-05,high
400,2.929292929292929,2.7341772151898733,anode,0.0129617048033665,0.0135451947175544,0.0122855537217263,5.440158541022556e-05,high
400,3.0303030303030303,2.7341772151898733,anode,0.012896016645296,0.0135194163556718,0.0121658273715334,7.225666822423897e-06,high
400,3.131313131313131,2.7341772151898733,anode,0.0128631202837998,0.0135006533763768,0.0121129211886343,2.3891891811686248e-05,high
400,3.2323232323232323,2.7341772151898733,anode,0.0128870017121883,0.0135262196474322,0.0121347962827101,-1.6675863486480562e-05,high
400,3.333333333333333,2.7341772151898733,anode,0.0127994652105665,0.013343891744358,0.0121746964813868,-2.2062377523813307e-05,high
400,3.4343434343434343,2.7341772151898733,anode,0.0128869284891921,0.0134828295185032,0.0121940612684323,2.2752748581649517e-05,high
400,3.5353535353535355,2.7341772151898733,anode,0.0127444836308107,0.0134484339070592,0.0118988221216021,3.805966994444885e-06,high
400,3.636363636363636,2.7341772151898733,anode,0.012792429696679,0.0133679519762008,0.0121261606187771,-2.756181896155344e-05,high
400,3.7373737373737375,2.7341772151898733,anode,0.0126836655884226,0.0131491671104843,0.0121602729350019,-2.1384882848933041e-07,high
400,3.8383838383838382,2.7341772151898733,anode,0.0128048152660329,0.0134171181319909,0.0120873859475804,-7.57653159865873e-05,high
400,3.939393939393939,2.7341772151898733,anode,0.012687048551299,0.0133050957844673,0.0119619799360807,2.550777268650156e-05,high
400,4.040404040404041,2.7341772151898733,anode,0.0126404917165458,0.0132968209220072,0.0118615773603498,-1.670071533451417e-05,high
400,4.141414141414141,2.7341772151898733,anode,0.0126611634738572,0.0132641245940988,0.0119562475325758,4.227352877350151e-05,high
400,4.242424242424242,2.7341772151898733,anode,0.0125884702760207,0.0131051300346314,0.0119980748636556,5.060133471298044e-05,high
400,4.343434343434343,2.7341772151898733,anode,0.0125339207662696,0.0130625544371841,0.0119276527996083,-4.302729922675755e-05,high
400,4.444444444444445,2.7341772151898733,anode,0.0126918337941769,0.0132435109433097,0.0120564261269634,-3.680284484368642e-05,high
400,4.545454545454545,2.7341772151898733,anode,0.0125980126051082,0.0132157004593964,0.0118724462069046,3.1074216960887984e-05,high
400,4.646464646464646,2.7341772151898733,anode,0.0126490835000443,0.0133081205726314,0.0118661270326297,3.70528509456515e-05,high
400,4.747474747474747,2.7341772151898733,anode,0.0124895426115276,0.0130944988874446,0.0117806561136141,1.5312715084499503e-05,high
400,4.848484848484849,2.7341772151898733,anode,0.0127252467810786,0.0133300806961958,0.0120178474107583,-6.075542215847049e-05,high
400,4.94949494949495,2.7341772151898733,anode,0.0126230611978218,0.0131798921612163,0.0119805633026921,1.5831750362155716e-05,high
400,5.05050505050505,2.7341772151898733,anode,0.0126283813606631,0.0130555328021123,0.01215270313153,1.7320587333299936e-05,high
400,5.151515151515151,2.7341772151898733,anode,0.0125803018728992,0.013211648056261,0.0118352983309275,-4.419825704552723e-05,high
400,5.252525252525253,2.7341772151898733,anode,0.0126070197068483,0.0131726975719786,0.0119525734879544,-1.4228431294182746e-05,high
400,5.353535353535354,2.7341772151898733,anode,0.0125218422833497,0.0130450058108695,0.0119231734411746,7.291073559966453e-06,high
400,5.454545454545454,2.7341772151898733,anode,0.0126205169098385,0.0131696763845509,0.0119881974147816,1.7069746416838387e-05,high
400,5.555555555555555,2.7341772151898733,anode,0.0126082365007846,0.0131858067293235,0.0119376590221424,2.639630177303995e-05,high
400,5.656565656565657,2.7341772151898733,anode,0.0126310168757124,0.0131913167742372,0.0119830396500512,-5.939069408072875e-05,high
400,5.757575757575758,2.7341772151898733,anode,0.0126289052519744,0.0133388346756542,0.0117728782455185,-1.3561571759050085e-05,high
400,5.858585858585858,2.7341772151898733,anode,0.0126834369903355,0.0132832900379154,0.0119812349728182,8.945639329841972e-05,high
400,5.959595959595959,2.7341772151898733,anode,0.0126736361429982,0.0133428809787162,0.0118753134067538,7.394848559891576e-05,high
400,6.0606060606060606,2.7341772151898733,anode,0.012722047204047,0.013386176118429,0.0119331140253235,-1.0482227883296874e-05,high
400,6.161616161616162,2.7341772151898733,anode,0.0126505623585778,0.0132564804946366,0.0119394533478877,9.493341542798152e-05,high
400,6.262626262626262,2.7341772151898733,anode,0.0127143290048781,0.0132602581202241,0.0120869287492391,-2.355939870000761e-05,high
400,6.363636363636363,2.7341772151898733,anode,0.0127026891004199,0.0133093770189035,0.0119934423337871,2.14515856617934e-05,high
400,6.4646464646464645,2.7341772151898733,anode,0.0127385786651747,0.0133486549613301,0.0120241603870937,-5.98117175113159e-05,high
400,6.565656565656566,2.7341772151898733,anode,0.0127563477825258,0.013362121429615,0.0120478251606706,-6.46305050204401e-05,high
400,6.666666666666667,2.7341772151898733,anode,0.0128641791439399,0.0134928202262899,0.0121237587505636,9.84520776744242e-05,high
400,6.767676767676767,2.7341772151898733,anode,0.0129481778326479,0.0135940361019963,0.0121872820424998,-2.582073463268168e-05,high
400,6.8686868686868685,2.7341772151898733,anode,0.0126919411016769,0.0133694691636571,0.0118835201021611,1.7969914977277064e-05,high
400,6.96969696969697,2.7341772151898733,anode,0.0129533784753001,0.0136205632948098,0.0121628196762378,1.3443998991651483e-05,high
400,7.070707070707071,2.7341772151898733,anode,0.012946164713492,0.0136332328119987,0.0121273404245157,-1.430044754621002e-05,high
400,7.171717171717171,2.7341772151898733,anode,0.0129393487023539,0.0135745836495162,0.0121929915203559,-3.24792181643977e-05,high
400,7.272727272727272,2.7341772151898733,anode,0.0131084449309777,0.0137659766531891,0.0123330662870232,-2.155474899823421e-05,high
400,7.373737373737374,2.7341772151898733,anode,0.0131547637691252,0.0138935726553539,0.0122640453729446,1.8665653038923547e-05,high
400,7.474747474747475,2.7341772151898733,anode,0.0129760561367319,0.013659978236455,0.012161878796719,-3.017313758593812e-05,high
400,7.575757575757575,2.7341772151898733,anode,0.0131556812106016,0.0137756746975155,0.0124322512916911,3.8781935464648486e-05,high
400,7.6767676767676765,2.7341772151898733,anode,0.0132471147000993,0.0139038058725635,0.0124743934358476,2.0682144837591217e-05,high
400,7.777777777777778,2.7341772151898733,anode,0.0132219782811531,0.0138839584628046,0.0124414516265682,3.3096296016301114e-05,high
400,7.878787878787879,2.7341772151898733,anode,0.0134644376833099,0.0140220901893959,0.0128269716351159,2.463496522247764e-05,high
400,7.979797979797979,2.7341772151898733,anode,0.0133798376106967,0.013999653886188,0.0126572704350826,-8.297775560473772e-05,high
400,8.080808080808081,2.7341772151898733,anode,0.0135029157952029,0.0141736858752334,0.0127132898347774,2.4507267148894445e-05,high
400,8.181818181818182,2.7341772151898733,anode,0.0135029127481499,0.0142708949949854,0.0125742869492523,-3.580099489584263e-05,high
400,8.282828282828282,2.7341772151898733,anode,0.0135626015652783,0.0142606299570091,0.0127335213695329,8.95624176578535e-05,high
400,8.383838383838384,2.7341772151898733,anode,0.01358204063859,0.0141823020970667,0.012889247995869,1.449273680329521e-05,high
400,8.484848484848484,2.7341772151898733,anode,0.0138419031779523,0.0145534198186718,0.0129984595979248,5.273447656882954e-05,high
400,8.585858585858587,2.7341772151898733,anode,0.0138903089239178,0.0146710728389007,0.0129484821273349,-4.178835149500273e-05,high
400,8.686868686868687,2.7341772151898733,anode,0.0139777175911009,0.0144611968577116,0.0134378116819246,-2.8470858683836184e-05,high
400,8.787878787878787,2.7341772151898733,anode,0.0139335499324587,0.014649723037951,0.0130853304547695,2.741262962985091e-06,high
400,8.88888888888889,2.7341772151898733,anode,0.0140925773188035,0.0147798176538619,0.0132862005097489,2.7218048730990427e-05,high
400,8.98989898989899,2.7341772151898733,anode,0.0142936079508395,0.0149509233922979,0.0135295770157426,-4.9441000507802015e-05,high
400,9.09090909090909,2.7341772151898733,anode,0.0143081589524966,0.0149634930775011,0.0135469564654316,-4.846766922435337e-05,high
400,9.191919191919192,2.7341772151898733,anode,0.0143900282305163,0.0150903629682818,0.0135687369197046,1.1568691630921908e-05,high
400,9.292929292929292,2.7341772151898733,anode,0.0145622796689375,0.0152777684996682,0.013720871507971,6.261629479591913e-05,high
400,9.393939393939394,2.7341772151898733,anode,0.0146561538433986,0.0152746738851754,0.0139473270397226,6.422138310341019e-06,high
400,9.494949494949497,2.7341772151898733,anode,0.0147443016769436,0.0154176844746444,0.0139629739742429,2.252582366099873e-05,high
400,9.595959595959595,2.7341772151898733,anode,0.0149715044911709,0.0156680294623057,0.0141606172924219,3.952356737803579e-05,high
400,9.696969696969695,2.7341772151898733,anode,0.0150128500131691,0.0155834089868607,0.0143667190591255,8.731597788146832e-05,critical
400,9.797979797979798,2.7341772151898733,anode,0.0153361130176081,0.0161291906955594,0.0143956286003203,2.0704860818268504e-05,critical
400,9.8989898989899,2.7341772151898733,anode,0.0153497733078873,0.0160213891971498,0.014572278381997,-0.0001257974585726,critical
400,10.0,2.7341772151898733,anode,0.0155853859066762,0.0162876656529133,0.0147714242699833,-6.644848102790147e-05,critical
400,0.0,2.835443037974684,anode,0.0157910772098587,0.0166377137626633,0.0147800799512528,1.3861844510834836e-05,critical
400,0.101010101010101,2.835443037974684,anode,0.0153889477185745,0.0161121040880693,0.0145452544802476,-5.7850434409171405e-05,critical
400,0.202020202020202,2.835443037974684,anode,0.0153589948395194,0.0161840423366383,0.0143724350232751,6.5075661827072e-05,critical
400,0.303030303030303,2.835443037974684,anode,0.0151203557497296,0.0158545568733342,0.0142594856003307,3.204266680069637e-05,critical
400,0.404040404040404,2.835443037974684,anode,0.0150235594810724,0.0157359339237129,0.0141902370692014,-8.471094478515966e-05,critical
400,0.5050505050505051,2.835443037974684,anode,0.0146010816062818,0.0152799761614231,0.0138107395254586,4.146106691183077e-05,high
400,0.6060606060606061,2.835443037974684,anode,0.0147307059071062,0.01544841850681,0.013888903465106,-2.311327844472086e-06,high
400,0.7070707070707071,2.835443037974684,anode,0.0144797405384773,0.0150941709766293,0.0137748165391414,3.029805496191697e-05,high
400,0.8080808080808081,2.835443037974684,anode,0.0145508009485377,0.0152040708118358,0.013794838603368,2.6894008821708985e-05,high
400,0.9090909090909092,2.835443037974684,anode,0.0143580944970633,0.0150679073078721,0.0135229035777131,4.465951978085115e-05,high
400,1.0101010101010102,2.835443037974684,anode,0.0142889179989419,0.0148330517321136,0.0136738539384492,3.853660280712506e-05,high
400,1.1111111111111112,2.835443037974684,anode,0.0142536700703773,0.014917758493742,0.0134805189885037,-2.784743525870787e-05,high
400,1.2121212121212122,2.835443037974684,anode,0.0139633689044102,0.0146566738550967,0.0131461243012343,-7.177479646936184e-05,high
400,1.3131313131313131,2.835443037974684,anode,0.0139714836038754,0.0145944989541004,0.0132493381966996,9.209447296804676e-05,high
400,1.414141414141414,2.835443037974684,anode,0.0139907839104808,0.0147421191907715,0.0130933278382784,-6.374688665567094e-06,high
400,1.5151515151515151,2.835443037974684,anode,0.0138348502540513,0.0145111555075551,0.0130409163945102,3.0070698541117398e-05,high
400,1.616161616161616,2.835443037974684,anode,0.013660352553748,0.0143675682587957,0.0128214149144521,2.6380363481621285e-05,high
400,1.7171717171717171,2.835443037974684,anode,0.013602154139815,0.0142235238216236,0.012880661692976,-4.802818065730845e-05,high
400,1.818181818181818,2.835443037974684,anode,0.0135760001454099,0.0142131785944697,0.0128325490542975,-5.868131431782992e-05,high
400,1.9191919191919191,2.835443037974684,anode,0.0134125165797772,0.0140557902360628,0.0126598495458393,-3.033675298424187e-05,high
400,2.0202020202020203,2.835443037974684,anode,0.0134968034345155,0.0140466946619193,0.0128685074772922,-7.207084426534151e-05,high
400,2.121212121212121,2.835443037974684,anode,0.0134851409543194,0.0141900301043432,0.0126461215580379,7.422341671470285e-05,high
400,2.2222222222222223,2.835443037974684,anode,0.0132595721553601,0.0139243258051082,0.0124735771695451,9.206822779641168e-05,high
400,2.323232323232323,2.835443037974684,anode,0.013252937203555,0.0138143769161412,0.0126085946804176,-4.67419270910886e-05,high
400,2.4242424242424243,2.835443037974684,anode,0.0131162990418301,0.0137679716448804,0.0123489706116311,-3.395780692545484e-05,high
400,2.525252525252525,2.835443037974684,anode,0.0130995337773766,0.0136811912709016,0.0124277386075986,-1.114525553344821e-05,high
400,2.6262626262626263,2.835443037974684,anode,0.0131884415645816,0.0138059357416608,0.0124688829898848,-2.99082637079316e-05,high
400,2.727272727272727,2.835443037974684,anode,0.0130604146233398,0.0137156912307957,0.0122842984064728,0.0001123992673288,high
400,2.8282828282828283,2.835443037974684,anode,0.0129474479102994,0.0135760612025798,0.0122088800215907,-7.899497916066788e-05,high
400,2.929292929292929,2.835443037974684,anode,0.0129289780599925,0.013415943788989,0.0123796393464888,-6.265702719086298e-07,high
400,3.0303030303030303,2.835443037974684,anode,0.0128977839416054,0.0134245602712078,0.012296758735316,2.7781991909767336e-05,high
400,3.131313131313131,2.835443037974684,anode,0.0128416008385114,0.0133867760399539,0.0122160437305234,2.9757018848480407e-05,high
400,3.2323232323232323,2.835443037974684,anode,0.0128796771311212,0.0134209200665504,0.0122592592950266,-4.504878896883711e-05,high
400,3.333333333333333,2.835443037974684,anode,0.0126775333737295,0.0132518141691539,0.0120117448372294,-3.945488473076117e-05,high
400,3.4343434343434343,2.835443037974684,anode,0.0127099191455653,0.0133840814653928,0.0119065889906629,1.0060615332109885e-05,high
400,3.5353535353535355,2.835443037974684,anode,0.0126132226911001,0.0132356785710292,0.0118814773988384,-6.05641661457926e-06,high
400,3.636363636363636,2.835443037974684,anode,0.0127627030570454,0.0133344532484741,0.0121002835747423,-6.518925799938932e-05,high
400,3.7373737373737375,2.835443037974684,anode,0.0127745697554441,0.0134096205557647,0.0120270093279435,1.1359592795925124e-05,high
400,3.8383838383838382,2.835443037974684,anode,0.0126655553717579,0.0132959890120328,0.0119232628282872,-1.0710540608473929e-05,high
400,3.939393939393939,2.835443037974684,anode,0.0126454476897892,0.0132975257109746,0.0118725424872376,2.1064255529485785e-05,high
400,4.040404040404041,2.835443037974684,anode,0.0126101482216079,0.0132079237236415,0.0119123413637411,-1.6750487852800129e-06,high
400,4.141414141414141,2.835443037974684,anode,0.0127017869527872,0.0133948458610434,0.0118699170177433,6.898062727864359e-05,high
400,4.242424242424242,2.835443037974684,anode,0.0127628644795342,0.0133238135027233,0.0121160520862041,-1.110233989506495e-06,high
400,4.343434343434343,2.835443037974684,anode,0.0125970379695256,0.0132780243996193,0.0117825021066853,-1.1947327082815555e-05,high
400,4.444444444444445,2.835443037974684,anode,0.0126220613080597,0.0131359206631078,0.0120360686499234,2.5260855091518777e-05,high
400,4.545454545454545,2.835443037974684,anode,0.0125648784017238,0.0131933592093908,0.0118235037538646,5.142354439702598e-05,high
400,4.646464646464646,2.835443037974684,anode,0.0125803420878395,0.0131814166627879,0.0118773819155024,3.5498984207384704e-05,high
400,4.747474747474747,2.835443037974684,anode,0.0124988034337997,0.0131379667650932,0.0117419248266628,-4.522555320888476e-05,high
400,4.848484848484849,2.835443037974684,anode,0.0127375544183369,0.0133714100125467,0.0119909606193642,-3.464653487373566e-05,high
400,4.94949494949495,2.835443037974684,anode,0.0125116474427034,0.0130923384974693,0.0118349850277591,-6.520196011890201e-05,high
400,5.05050505050505,2.835443037974684,anode,0.0126001169553942,0.013167558859907,0.0119429884977093,-3.351969997592531e-05,high
400,5.151515151515151,2.835443037974684,anode,0.012573710289123,0.0131178829639432,0.0119477271229862,-3.635849770871635e-06,high
400,5.252525252525253,2.835443037974684,anode,0.0124840280996783,0.0130842583567476,0.0117814935484685,2.349490263557693e-05,high
400,5.353535353535354,2.835443037974684,anode,0.0125832240297454,0.0131723197794545,0.011896978574609,8.671791768299369e-06,high
400,5.454545454545454,2.835443037974684,anode,0.0126396307701611,0.0132429569543847,0.0119340537650585,4.032428958626767e-05,high
400,5.555555555555555,2.835443037974684,anode,0.0126033980550034,0.0132028893150884,0.0119001096418885,-0.0001042068722769,high
400,5.656565656565657,2.835443037974684,anode,0.0125442493678197,0.0131419987490773,0.0118443242512105,7.334531695343526e-05,high
400,5.757575757575758,2.835443037974684,anode,0.0125950213965095,0.0132184992656236,0.0118614351467412,-2.9264195039060585e-05,high
400,5.858585858585858,2.835443037974684,anode,0.0127035183773938,0.0132928147459917,0.0120178537298825,3.027813528573802e-05,high
400,5.959595959595959,2.835443037974684,anode,0.012654929166319,0.0131707347021943,0.012066791938746,3.01373425468745e-06,high
400,6.0606060606060606,2.835443037974684,anode,0.0127103454379846,0.0132807694069041,0.0120503715713931,1.6291225458427342e-05,high
400,6.161616161616162,2.835443037974684,anode,0.012749809657191,0.0132821402255098,0.0121406442448139,-1.7262029691831742e-05,high
400,6.262626262626262,2.835443037974684,anode,0.0127018180386539,0.0133343474619885,0.0119568946186685,-2.1738903670391515e-05,high
400,6.363636363636363,2.835443037974684,anode,0.012762339516295,0.0133788196849827,0.0120403549294038,5.3067118948226135e-06,high
400,6.4646464646464645,2.835443037974684,anode,0.0126883251043785,0.0132041035065432,0.0120970385150574,0.0001117323939439,high
400,6.565656565656566,2.835443037974684,anode,0.0128024316438402,0.0133830434784503,0.0121288769134092,-5.175308494845677e-05,high
400,6.666666666666667,2.835443037974684,anode,0.0127426213940848,0.0135016981122226,0.0118156528134876,9.556098539531144e-06,high
400,6.767676767676767,2.835443037974684,anode,0.0126323396881527,0.0132099095180687,0.0119621428311752,9.306806089949853e-06,high
400,6.8686868686868685,2.835443037974684,anode,0.0128118292372463,0.0133380775462484,0.0122109025713771,-2.874934012056491e-05,high
400,6.96969696969697,2.835443037974684,anode,0.0129197277667783,0.0136285986184951,0.0120690876443237,2.9096925236101524e-05,high
400,7.070707070707071,2.835443037974684,anode,0.0130091935793323,0.0136724959172037,0.0122245921075257,2.586157274671132e-05,high
400,7.171717171717171,2.835443037974684,anode,0.0129633128220368,0.0135625340741937,0.0122655115746424,-6.780680677995517e-05,high
400,7.272727272727272,2.835443037974684,anode,0.0131629227874637,0.0138638032769885,0.0123270031008681,-2.334910522881495e-05,high
400,7.373737373737374,2.835443037974684,anode,0.0129689349657788,0.0136514236842878,0.0121550010893191,-8.351409181011264e-05,high
400,7.474747474747475,2.835443037974684,anode,0.0131385679324191,0.0137945681439473,0.0123656163633891,-2.39899767351552e-05,high
400,7.575757575757575,2.835443037974684,anode,0.0132076754076926,0.0138343304953817,0.0124757216938176,3.4711758834219325e-05,high
400,7.6767676767676765,2.835443037974684,anode,0.0132198288883158,0.0138608094599867,0.0124686464053944,8.675956353517279e-06,high
400,7.777777777777778,2.835443037974684,anode,0.0131735406572731,0.0137822056330821,0.0124660700523545,-2.5615108648444177e-06,high
400,7.878787878787879,2.835443037974684,anode,0.0134127656522656,0.0141164319888041,0.0125759481087124,-2.363391916516128e-05,high
400,7.979797979797979,2.835443037974684,anode,0.0133522185250011,0.013965192169414,0.012640401231748,-1.8585038810183195e-05,high
400,8.080808080808081,2.835443037974684,anode,0.013500730842763,0.0141366382327989,0.0127587859698615,4.047585538259669e-05,high
400,8.181818181818182,2.835443037974684,anode,0.0134851065843047,0.014223219611468,0.0125982515695582,8.140364136522378e-05,high
400,8.282828282828282,2.835443037974684,anode,0.0136920973783827,0.0142923748011891,0.0130001540616713,-1.4397417198668209e-05,high
400,8.383838383838384,2.835443037974684,anode,0.013689636439769,0.0143846310513093,0.0128680592403038,3.592249506327973e-05,high
400,8.484848484848484,2.835443037974684,anode,0.0135425180558804,0.0142186154213645,0.0127458375138923,-2.920442817063669e-05,high
400,8.585858585858587,2.835443037974684,anode,0.0138683278753416,0.0145227197359396,0.0131050132357986,7.999544814372248e-06,high
400,8.686868686868687,2.835443037974684,anode,0.0140284769588435,0.0147644222457314,0.0131519723042668,-7.505221896340229e-05,high
400,8.787878787878787,2.835443037974684,anode,0.0139230949659488,0.0146194087761728,0.0131018722585789,5.173672851945679e-05,high
400,8.88888888888889,2.835443037974684,anode,0.0142157120943642,0.0148408200402543,0.0134944732602935,3.9881089517916585e-05,high
400,8.98989898989899,2.835443037974684,anode,0.0141570996374039,0.0147597272547688,0.0134649962831131,4.989732521620639e-05,high
400,9.09090909090909,2.835443037974684,anode,0.0143369383500335,0.0150187146376547,0.0135406443384091,-3.469611380174692e-06,high
400,9.191919191919192,2.835443037974684,anode,0.0143541299664015,0.0149737007769089,0.0136395393232598,9.430402354305418e-05,high
400,9.292929292929292,2.835443037974684,anode,0.0145585271835838,0.0152773124970139,0.0137117573302945,-8.356465955119805e-05,high
400,9.393939393939394,2.835443037974684,anode,0.0146165369573018,0.0153012105253177,0.0138188935468213,5.46542353424886e-06,high
400,9.494949494949497,2.835443037974684,anode,0.0148288872804716,0.0156046076804395,0.0139061262475981,-6.168292793208032e-05,high
400,9.595959595959595,2.835443037974684,anode,0.0150505062352125,0.0157501522074314,0.0142361463130075,3.675509348011951e-05,critical
400,9.696969696969695,2.835443037974684,anode,0.0149852690285287,0.0156154549817275,0.0142629864525038,4.506987455670925e-05,high
400,9.797979797979798,2.835443037974684,anode,0.0154208416965457,0.0162235453736603,0.0144672509086285,5.061894822405384e-05,critical
400,9.8989898989899,2.835443037974684,anode,0.015443990422915,0.0162458552509111,0.0144921431825911,3.6849896724058336e-05,critical
400,10.0,2.835443037974684,anode,0.0155956683058495,0.0163987945487274,0.0146441204632353,-4.688154194561825e-06,critical
400,0.0,2.9367088607594938,anode,0.0156548416064726,0.016450343431805,0.0147142293338269,-4.415007268922401e-05,critical
400,0.101010101010101,2.9367088607594938,anode,0.0155056321216377,0.0162450355371543,0.0146415203522207,-2.119829755040577e-05,critical
400,0.202020202020202,2.9367088607594938,anode,0.0153090056573167,0.0160736500858252,0.0144073585938101,-5.855533417804353e-05,critical
400,0.303030303030303,2.9367088607594938,anode,0.0151912121974432,0.0159683960206001,0.0142715276073101,-7.324917973612186e-06,critical
400,0.404040404040404,2.9367088607594938,anode,0.0149724471295906,0.0157866936766067,0.0139959839751507,7.576299689572425e-05,high
400,0.5050505050505051,2.9367088607594938,anode,0.0148932599196457,0.015626044125617,0.0140322764484478,6.446162530546903e-06,high
400,0.6060606060606061,2.9367088607594938,anode,0.0146663893285409,0.0153615102927812,0.0138544445745315,4.66759209231644e-05,high
400,0.7070707070707071,2.9367088607594938,anode,0.0145283286513858,0.015274019862643,0.0136453771057151,-5.634034597252815e-06,high
400,0.8080808080808081,2.9367088607594938,anode,0.0143741204554233,0.0150153409495054,0.0136305948602947,9.964597923194572e-05,high
400,0.9090909090909092,2.9367088607594938,anode,0.0143472662306709,0.0150276828688011,0.0135527811566222,-2.4603666249739363e-05,high
400,1.0101010101010102,2.9367088607594938,anode,0.0142941500159054,0.0148635313457709,0.0136467858777563,3.068919581917125e-05,high
400,1.1111111111111112,2.9367088607594938,anode,0.014125195047809,0.0148281811806654,0.0132975051061803,-1.081555025944347e-05,high
400,1.2121212121212122,2.9367088607594938,anode,0.0139981370865015,0.0146778584233887,0.0132002764895953,-6.533007870189498e-05,high
400,1.3131313131313131,2.9367088607594938,anode,0.0139488093619326,0.0145959494820176,0.0131960988287582,6.024943742011488e-06,high
400,1.414141414141414,2.9367088607594938,anode,0.0137911551293872,0.0144161456182724,0.0130649060654295,-9.041228783383434e-05,high
400,1.5151515151515151,2.9367088607594938,anode,0.0137964408677127,0.0144688382430019,0.0130076331045247,-2.0982896963833327e-05,high
400,1.616161616161616,2.9367088607594938,anode,0.0138090180545189,0.0144705289175645,0.0130351610125948,3.175022073280527e-05,high
400,1.7171717171717171,2.9367088607594938,anode,0.0135702876950822,0.0142938628614067,0.0127072205769847,1.4272955209474103e-06,high
400,1.818181818181818,2.9367088607594938,anode,0.0135101205446217,0.0141629416518758,0.0127455227735926,7.86317680365428e-06,high
400,1.9191919191919191,2.9367088607594938,anode,0.0134680733088749,0.0141346458556522,0.0126836131814171,4.132127022050781e-05,high
400,2.0202020202020203,2.9367088607594938,anode,0.013369031253793,0.0141488139319148,0.0124213025885227,-8.37919596384275e-07,high
400,2.121212121212121,2.9367088607594938,anode,0.0133424643978948,0.0139989365503367,0.0125658784008885,0.0001399596562184,high
400,2.2222222222222223,2.9367088607594938,anode,0.0132141696275589,0.0138666636698425,0.0124451962065508,8.237939723083688e-05,high
400,2.323232323232323,2.9367088607594938,anode,0.0132755584582546,0.0139377214132318,0.0124956478629644,-2.412627277170224e-06,high
400,2.4242424242424243,2.9367088607594938,anode,0.0131625603858509,0.0136699344251764,0.0125884489889766,6.136461286110506e-06,high
400,2.525252525252525,2.9367088607594938,anode,0.0131378261651922,0.0137395351419444,0.0124393651287556,1.770078716081203e-05,high
400,2.6262626262626263,2.9367088607594938,anode,0.0130586803460946,0.0136220638883547,0.0124105832853506,-3.506529733220864e-05,high
400,2.727272727272727,2.9367088607594938,anode,0.0130491764115596,0.0137803821140104,0.0121680984914976,1.2906417421342103e-05,high
400,2.8282828282828283,2.9367088607594938,anode,0.0130043926802142,0.0136105154272836,0.0122978309730799,6.12925326328113e-05,high
400,2.929292929292929,2.9367088607594938,anode,0.0129142161151861,0.0135030005141004,0.0122312295022622,-2.064062382282741e-05,high
400,3.0303030303030303,2.9367088607594938,anode,0.0129072827237072,0.0134949233891409,0.0122250436465903,-5.575335424781356e-05,high
400,3.131313131313131,2.9367088607594938,anode,0.0128866882607443,0.0134473195580113,0.0122412604344411,2.2260045700747e-06,high
400,3.2323232323232323,2.9367088607594938,anode,0.0128706866000864,0.0134243569813798,0.0122317728913281,9.769158518421052e-05,high
400,3.333333333333333,2.9367088607594938,anode,0.012941586179083,0.0135878703548041,0.0121790112043484,-6.568467709888689e-05,high
400,3.4343434343434343,2.9367088607594938,anode,0.0127997939740452,0.0133945529367751,0.0121076703137149,2.4684235155053165e-05,high
400,3.5353535353535355,2.9367088607594938,anode,0.0128296822167582,0.0134611445949259,0.0120875714934471,-2.232370264914278e-05,high
400,3.636363636363636,2.9367088607594938,anode,0.0127116317511917,0.0133702884884028,0.0119244267631535,-0.0001438051542561,high
400,3.7373737373737375,2.9367088607594938,anode,0.0127330296048613,0.013371930705705,0.0119796711676992,1.038533422698236e-05,high
400,3.8383838383838382,2.9367088607594938,anode,0.0128937724146306,0.0135743106656588,0.0120827945766701,-5.519523989008287e-05,high
400,3.939393939393939,2.9367088607594938,anode,0.0127252866125526,0.0134046751544307,0.0119145275740673,-2.5870262643396772e-05,high
400,4.040404040404041,2.9367088607594938,anode,0.0126697807585,0.0132949080217205,0.0119347985841082,-2.158203494970649e-05,high
400,4.141414141414141,2.9367088607594938,anode,0.0127077755472508,0.013351560171573,0.0119469722284719,3.63936480046518e-05,high
400,4.242424242424242,2.9367088607594938,anode,0.0125908331540501,0.0130989096872469,0.0120085038823018,-0.0001180209874622,high
400,4.343434343434343,2.9367088607594938,anode,0.0124598539229654,0.0129382574657652,0.0119181539752978,-4.9003405790361936e-05,high
400,4.444444444444445,2.9367088607594938,anode,0.0126299861832461,0.0132144223249054,0.0119487240421044,-7.973520716029639e-05,high
400,4.545454545454545,2.9367088607594938,anode,0.0125678532571413,0.0132431876031029,0.0117609897344393,1.8542921544617576e-05,high
400,4.646464646464646,2.9367088607594938,anode,0.0125165130235382,0.0131295453242817,0.0117959820181225,-5.4242128513038346e-05,high
400,4.747474747474747,2.9367088607594938,anode,0.0125917750039243,0.0131581833752496,0.0119337768945912,-9.451945342593685e-05,high
400,4.848484848484849,2.9367088607594938,anode,0.0126566402142283,0.0133442352707113,0.011833325270339,1.8403269078455687e-05,high
400,4.94949494949495,2.9367088607594938,anode,0.0124244130384842,0.0130215073712971,0.011725713768505,1.2780447467319128e-05,high
400,5.05050505050505,2.9367088607594938,anode,0.0126482099460796,0.0131974938778212,0.0120158422018999,-2.5233974857061436e-05,high
400,5.151515151515151,2.9367088607594938,anode,0.0127415098955469,0.0132875557549976,0.0121132950427377,6.083568264725158e-05,high
400,5.252525252525253,2.9367088607594938,anode,0.0125336645876164,0.0131387132580185,0.0118251434501465,-6.146226624522235e-06,high
400,5.353535353535354,2.9367088607594938,anode,0.0126282923806044,0.0132018459833328,0.0119634968174151,-2.4074672485587097e-06,high
400,5.454545454545454,2.9367088607594938,anode,0.0126048769271881,0.0132630683322596,0.0118206740623185,-8.94674944704385e-05,high
400,5.555555555555555,2.9367088607594938,anode,0.0127544105678159,0.0134366047095306,0.0119398134310403,3.674879868869074e-05,high
400,5.656565656565657,2.9367088607594938,anode,0.0125768186043072,0.0131044217547405,0.0119725567062435,2.4597808006350937e-05,high
400,5.757575757575758,2.9367088607594938,anode,0.0125798281398819,0.0132179146822451,0.0118254923421034,-4.036170698839773e-05,high
400,5.858585858585858,2.9367088607594938,anode,0.012616442931963,0.0132284489459666,0.0118988589206697,3.354038745279739e-05,high
400,5.959595959595959,2.9367088607594938,anode,0.0127305472815735,0.0134123520487624,0.0119161685343931,3.839064139984117e-05,high
400,6.0606060606060606,2.9367088607594938,anode,0.0126473042465229,0.0132193251683755,0.0119847188299588,-7.225613689448036e-06,high
400,6.161616161616162,2.9367088607594938,anode,0.0127517689496008,0.0133661090114842,0.0120323825728164,-2.9709676620057403e-05,high
400,6.262626262626262,2.9367088607594938,anode,0.0127184029539457,0.0133739164273727,0.0119416195365394,-5.08678955371066e-06,high
400,6.363636363636363,2.9367088607594938,anode,0.0126490966486524,0.013247758871647,0.0119502565257446,-2.592798961912582e-05,high
400,6.4646464646464645,2.9367088607594938,anode,0.012838240732565,0.0135204010016722,0.0120251165583486,-7.108214140123146e-06,high
400,6.565656565656566,2.9367088607594938,anode,0.0127235379720623,0.0133090010506072,0.0120434928901212,-4.003941834606547e-06,high
400,6.666666666666667,2.9367088607594938,anode,0.0128068204162197,0.013436400628457,0.0120671891181193,1.0353145301936636e-05,high
400,6.767676767676767,2.9367088607594938,anode,0.0128377213807806,0.0134306221300781,0.0121484499276403,2.5061587713911032e-05,high
400,6.8686868686868685,2.9367088607594938,anode,0.0128876337735071,0.0135756396434609,0.0120653893339521,-7.040484566613753e-05,high
400,6.96969696969697,2.9367088607594938,anode,0.0129579991333697,0.0135898701484102,0.0122153844277831,-7.081044583269667e-05,high
400,7.070707070707071,2.9367088607594938,anode,0.0130202613522748,0.013753228453265,0.0121358140619171,3.8957704883044464e-05,high
400,7.171717171717171,2.9367088607594938,anode,0.0129249199224938,0.0136189051968076,0.0120960028727336,1.5416588198546518e-06,high
400,7.272727272727272,2.9367088607594938,anode,0.013140439161625,0.0137482461633025,0.0124335018494661,3.533011588148445e-05,high
400,7.373737373737374,2.9367088607594938,anode,0.013008005983435,0.0136484187039128,0.0122554787641508,-3.286297556115481e-06,high
400,7.474747474747475,2.9367088607594938,anode,0.0130249635281343,0.0136426789872659,0.0123036661356727,2.4166347273655167e-05,high
400,7.575757575757575,2.9367088607594938,anode,0.0131076748939409,0.0137651721442249,0.0123289835004183,-0.0001124322878931,high
400,7.6767676767676765,2.9367088607594938,anode,0.0132668750152684,0.013934711774867,0.0124774689221349,-7.412338610537485e-05,high
400,7.777777777777778,2.9367088607594938,anode,0.0132482449360339,0.0139666029273203,0.0123880985267817,-3.943177460515243e-05,high
400,7.878787878787879,2.9367088607594938,anode,0.0133966151128285,0.0140211424924334,0.0126694087607456,-2.902223620744665e-05,high
400,7.979797979797979,2.9367088607594938,anode,0.0134124971735037,0.0140482729144652,0.0126703025661302,1.1687464914215727e-05,high
400,8.080808080808081,2.9367088607594938,anode,0.013452159368897,0.0140935801211475,0.0127024360722982,2.8921749989413604e-05,high
400,8.181818181818182,2.9367088607594938,anode,0.0135761202521659,0.0142204681135436,0.0128236560631343,2.2840404617516976e-05,high
400,8.282828282828282,2.9367088607594938,anode,0.0133976110030533,0.0140030905309185,0.0126963650486381,5.771002898317544e-06,high
400,8.383838383838384,2.9367088607594938,anode,0.0136233182668146,0.0143646113232455,0.0127354946802592,1.0777620103228374e-05,high
400,8.484848484848484,2.9367088607594938,anode,0.013753071294673,0.0143817564286722,0.0130234315813967,-2.6474997686011545e-05,high
400,8.585858585858587,2.9367088607594938,anode,0.0139073353532412,0.0144079239369559,0.0133458021128593,1.380988232982046e-05,high
400,8.686868686868687,2.9367088607594938,anode,0.0138367521499477,0.0145603173226711,0.01297453909474,9.593597880055272e-05,high
400,8.787878787878787,2.9367088607594938,anode,0.0140647067743061,0.0148501968256009,0.0131189190378153,6.429568466108145e-06,high
400,8.88888888888889,2.9367088607594938,anode,0.014069586224743,0.0147163477344398,0.0133176459791016,-5.7098460194665694e-05,high
400,8.98989898989899,2.9367088607594938,anode,0.0140608851791286,0.0147494537460546,0.0132513945356557,-6.703195357668582e-05,high
400,9.09090909090909,2.9367088607594938,anode,0.0143426656777799,0.0151016872692281,0.0134378788513075,-5.524587104607451e-05,high
400,9.191919191919192,2.9367088607594938,anode,0.0143190762699784,0.0150090619782828,0.0135113014791812,1.524690674169948e-05,high
400,9.292929292929292,2.9367088607594938,anode,0.014518716254391,0.0152715590888052,0.0136249062543355,5.1946048083407936e-05,high
400,9.393939393939394,2.9367088607594938,anode,0.0148154706069852,0.0155697536259088,0.0139230970240152,5.000322770401464e-05,high
400,9.494949494949497,2.9367088607594938,anode,0.0148376009978968,0.01552943678523,0.0140313727901413,6.0251929181200105e-05,high
400,9.595959595959595,2.9367088607594938,anode,0.0149776068249724,0.0156554087949199,0.0141917130701435,5.547196117125859e-05,high
400,9.696969696969695,2.9367088607594938,anode,0.0152322294215358,0.0160665091725773,0.0142313074898515,-4.248768665813593e-05,critical
400,9.797979797979798,2.9367088607594938,anode,0.0153176043430537,0.0159633915144085,0.014577468090869,-2.82173178665022e-05,critical
400,9.8989898989899,2.9367088607594938,anode,0.0154385341465036,0.0161722015207506,0.014581701786277,-1.1935720005400372e-05,critical
400,10.0,2.9367088607594938,anode,0.015671667389074,0.0163023729263064,0.0149538060912808,9.447226076213964e-07,critical
400,0.0,3.037974683544304,anode-electrolyte interface,0.0136974351965908,0.0143751855903159,0.01290031618515,4.158013276194357e-06,high
400,0.101010101010101,3.037974683544304,anode-electrolyte interface,0.0135466385138599,0.0142127545591698,0.0127637443497643,-3.567790652526267e-05,high
400,0.202020202020202,3.037974683544304,anode-electrolyte interface,0.0133911525373844,0.0140345776918522,0.0126374688026404,5.631841666678179e-05,high
400,0.303030303030303,3.037974683544304,anode-electrolyte interface,0.0132461992055342,0.0138926765653057,0.0124876869590451,-1.157048246807336e-05,high
400,0.404040404040404,3.037974683544304,anode-electrolyte interface,0.0131107140422223,0.0137703594176809,0.0123312845312243,-6.74934353486146e-05,high
400,0.5050505050505051,3.037974683544304,anode-electrolyte interface,0.0129736099892371,0.0136529265512271,0.012166137372439,-1.4538828732715226e-05,high
400,0.6060606060606061,3.037974683544304,anode-electrolyte interface,0.0128398110703223,0.0134369138921747,0.0121449253392643,-1.998241005798557e-05,high
400,0.7070707070707071,3.037974683544304,anode-electrolyte interface,0.0128713702265825,0.0135318724412269,0.0120893252980728,2.671798033993804e-06,high
400,0.8080808080808081,3.037974683544304,anode-electrolyte interface,0.0127323620099538,0.0133953230652606,0.0119443588754491,-5.537547093778814e-05,high
400,0.9090909090909092,3.037974683544304,anode-electrolyte interface,0.0125601215410334,0.0131458634277778,0.0118771776284754,-6.146667602290042e-05,high
400,1.0101010101010102,3.037974683544304,anode-electrolyte interface,0.0125289712207536,0.0132493236943277,0.0116517245411907,0.000122918337376,high
400,1.1111111111111112,3.037974683544304,anode-electrolyte interface,0.0123593444997777,0.0130221993956255,0.0115666902673028,6.0944327865653136e-05,high
400,1.2121212121212122,3.037974683544304,anode-electrolyte interface,0.0122224080848944,0.0127993033460935,0.0115482475243286,6.479594860167738e-05,high
400,1.3131313131313131,3.037974683544304,anode-electrolyte interface,0.0121856854782132,0.0127912377888064,0.0114729223036489,5.701960384955984e-06,high
400,1.414141414141414,3.037974683544304,anode-electrolyte interface,0.0120942687667394,0.0127253589882633,0.0113446222900517,-1.306324586655472e-05,high
400,1.5151515151515151,3.037974683544304,anode-electrolyte interface,0.0120467033300697,0.0126175268857126,0.0113803085686261,-1.8281376987186124e-05,high
400,1.616161616161616,3.037974683544304,anode-electrolyte interface,0.0120251456669484,0.0125357113633899,0.011438125819857,6.925910310996486e-05,high
400,1.7171717171717171,3.037974683544304,anode-electrolyte interface,0.0119172575555941,0.0124807900475974,0.0112594447923002,2.930818154566826e-05,high
400,1.818181818181818,3.037974683544304,anode-electrolyte interface,0.0117684136369522,0.0123511828929004,0.0110822027645596,4.808243961385925e-05,high
400,1.9191919191919191,3.037974683544304,anode-electrolyte interface,0.0117538265660935,0.0124045196328652,0.010971105123947,4.645028597018346e-05,high
400,2.0202020202020203,3.037974683544304,anode-electrolyte interface,0.0118351152798725,0.0124323624642981,0.0111300920141697,-1.5353408355662924e-05,high
400,2.121212121212121,3.037974683544304,anode-electrolyte interface,0.0116712026943346,0.0121903185627297,0.0110684470618779,-0.0001007984603349,high
400,2.2222222222222223,3.037974683544304,anode-electrolyte interface,0.0118450422278817,0.0124249764948353,0.011164227028954,9.621968316338564e-06,high
400,2.323232323232323,3.037974683544304,anode-electrolyte interface,0.0115942130899676,0.012188221545408,0.0108874056487548,-0.0001088471050602,high
400,2.4242424242424243,3.037974683544304,anode-electrolyte interface,0.0115428499855539,0.0122342753772291,0.0106973594508992,-1.6672261282509333e-05,high
400,2.525252525252525,3.037974683544304,anode-electrolyte interface,0.0113995671027662,0.0120087485094799,0.0106721742513795,3.7606510468452094e-05,high
400,2.6262626262626263,3.037974683544304,anode-electrolyte interface,0.0113945870994522,0.0118653834640273,0.0108564783130069,2.856169068462689e-05,high
400,2.727272727272727,3.037974683544304,anode-electrolyte interface,0.011485390150363,0.0119682472183461,0.010931200462376,6.167496783250022e-05,high
400,2.8282828282828283,3.037974683544304,anode-electrolyte interface,0.0114003405309135,0.0120291304920795,0.0106444679730543,4.753827428012297e-05,high
400,2.929292929292929,3.037974683544304,anode-electrolyte interface,0.0113097542609011,0.0119217728709538,0.0105775975388042,-2.499361790719812e-06,high
400,3.0303030303030303,3.037974683544304,anode-electrolyte interface,0.0112824512832711,0.0117903070783869,0.01069423253641,3.6705975292289314e-05,high
400,3.131313131313131,3.037974683544304,anode-electrolyte interface,0.0112534158371267,0.0118316075910943,0.0105686486037822,-8.155806605300663e-06,high
400,3.2323232323232323,3.037974683544304,anode-electrolyte interface,0.011237159974363,0.0117405964837827,0.0106549044544065,-5.868967242192674e-06,high
400,3.333333333333333,3.037974683544304,anode-electrolyte interface,0.0112914227198322,0.0117705736184402,0.0107416936291264,2.4064892612983584e-05,high
400,3.4343434343434343,3.037974683544304,anode-electrolyte interface,0.0112387279378209,0.0117361194313494,0.0106645747749951,-4.982164727095555e-06,high
400,3.5353535353535355,3.037974683544304,anode-electrolyte interface,0.0111521572443773,0.0115429083116494,0.0107136220141665,-7.424923104406197e-05,high
400,3.636363636363636,3.037974683544304,anode-electrolyte interface,0.0110635713910739,0.0115877138269364,0.0104516868287519,1.730707414768959e-05,high
400,3.7373737373737375,3.037974683544304,anode-electrolyte interface,0.0111189548231088,0.0116827440243544,0.0104523679393246,-4.0792009934150736e-05,high
400,3.8383838383838382,3.037974683544304,anode-electrolyte interface,0.01112568241963,0.0115759195425369,0.0106118532460337,5.605385837537762e-05,high
400,3.939393939393939,3.037974683544304,anode-electrolyte interface,0.0111232773469478,0.0116944261540518,0.0104454625857337,-6.757240157437656e-05,high
400,4.040404040404041,3.037974683544304,anode-electrolyte interface,0.011174901879979,0.0116978613650306,0.0105656448221758,1.888001835819481e-05,high
400,4.141414141414141,3.037974683544304,anode-electrolyte interface,0.0110946326460477,0.0116235212285252,0.0104761929760159,-3.7682802863795766e-05,high
400,4.242424242424242,3.037974683544304,anode-electrolyte interface,0.0111750799573991,0.0116508202393263,0.0106286639595474,-4.064241249456974e-05,high
400,4.343434343434343,3.037974683544304,anode-electrolyte interface,0.0110766900540905,0.0116318151298356,0.0104211473434838,-5.91233887655676e-05,high
400,4.444444444444445,3.037974683544304,anode-electrolyte interface,0.0111050599845642,0.0116291690367758,0.0104935297927879,-2.3445081301827084e-05,high
400,4.545454545454545,3.037974683544304,anode-electrolyte interface,0.0110243006522502,0.0116865384191192,0.0102140360338587,8.506324093169429e-06,high
400,4.646464646464646,3.037974683544304,anode-electrolyte interface,0.0110515201070589,0.0115604291191141,0.0104599786991187,-3.29808593713595e-05,high
400,4.747474747474747,3.037974683544304,anode-electrolyte interface,0.0110845905599765,0.0116381621150984,0.0104324009198287,-1.0241543399130855e-05,high
400,4.848484848484849,3.037974683544304,anode-electrolyte interface,0.0111742540133445,0.0117269236447926,0.0105242858557824,-6.283747804866054e-06,high
400,4.94949494949495,3.037974683544304,anode-electrolyte interface,0.011028915554192,0.0115751339349297,0.0103862827360719,1.8233416133693093e-05,high
400,5.05050505050505,3.037974683544304,anode-electrolyte interface,0.0111110846181726,0.0117055213570877,0.0104014994764084,1.5854127406176542e-05,high
400,5.151515151515151,3.037974683544304,anode-electrolyte interface,0.0109727604835191,0.0114048920617904,0.0104795542637914,9.49339315090493e-05,high
400,5.252525252525253,3.037974683544304,anode-electrolyte interface,0.0110885293538967,0.0115514724149988,0.0105583657129834,3.895308992806513e-05,high
400,5.353535353535354,3.037974683544304,anode-electrolyte interface,0.0110080494319552,0.0116074390020703,0.0102896826334784,-3.5622701763390764e-05,high
400,5.454545454545454,3.037974683544304,anode-electrolyte interface,0.0110221803220202,0.0115001592394014,0.0104721761605515,-2.338897322165198e-06,high
400,5.555555555555555,3.037974683544304,anode-electrolyte interface,0.0109900582737136,0.011538462036952,0.0103436758861772,3.538068374887031e-05,high
400,5.656565656565657,3.037974683544304,anode-electrolyte interface,0.0111536964975386,0.0117008056998875,0.010510228396634,5.577010467953466e-05,high
400,5.757575757575758,3.037974683544304,anode-electrolyte interface,0.0110865784674762,0.0116410761783809,0.0104329199055331,2.6864801181541245e-05,high
400,5.858585858585858,3.037974683544304,anode-electrolyte interface,0.0110624547865436,0.0116227330698321,0.0104006579130173,1.106860096204042e-05,high
400,5.959595959595959,3.037974683544304,anode-electrolyte interface,0.0111330008239346,0.0115712349160129,0.0106357252059163,4.245319989838864e-06,high
400,6.0606060606060606,3.037974683544304,anode-electrolyte interface,0.011189339567702,0.0116601323099179,0.0106498804197939,-2.377884382464081e-05,high
400,6.161616161616162,3.037974683544304,anode-electrolyte interface,0.011191154045407,0.0116224920432514,0.0107027245869808,-3.4762724862466915e-05,high
400,6.262626262626262,3.037974683544304,anode-electrolyte interface,0.0111665381823188,0.0116940693535412,0.0105503150139239,4.927985814794143e-05,high
400,6.363636363636363,3.037974683544304,anode-electrolyte interface,0.0111560681225699,0.011660842499813,0.010567211141605,-0.0001143701931454,high
400,6.4646464646464645,3.037974683544304,anode-electrolyte interface,0.0111539642618709,0.011745209527787,0.0104489731831001,-4.20741728659848e-05,high
400,6.565656565656566,3.037974683544304,anode-electrolyte interface,0.0112871082426517,0.0118049083009285,0.0106858378629309,-1.9644724888594463e-05,high
400,6.666666666666667,3.037974683544304,anode-electrolyte interface,0.0112898458859132,0.0118044281560804,0.0106928138881398,2.816923912093739e-05,high
400,6.767676767676767,3.037974683544304,anode-electrolyte interface,0.011344647806294,0.0119395001238799,0.0106352933096019,-8.163464736488115e-05,high
400,6.8686868686868685,3.037974683544304,anode-electrolyte interface,0.0113646106627247,0.0119205058762362,0.0107083487052136,-0.0001097221381021,high
400,6.96969696969697,3.037974683544304,anode-electrolyte interface,0.0112925815036266,0.0117738116657993,0.0107394753305229,5.1592733674976014e-05,high
400,7.070707070707071,3.037974683544304,anode-electrolyte interface,0.011381332232623,0.0119998416668477,0.010640464391508,-3.12455479775634e-05,high
400,7.171717171717171,3.037974683544304,anode-electrolyte interface,0.0114576327579131,0.0120731195057811,0.0107208862779347,-6.897456371176194e-05,high
400,7.272727272727272,3.037974683544304,anode-electrolyte interface,0.011496348498965,0.0120225796445879,0.0108846242512357,-5.7225782362699285e-05,high
400,7.373737373737374,3.037974683544304,anode-electrolyte interface,0.0114337102769339,0.0119427983268518,0.010845262016672,-2.8093164771105838e-05,high
400,7.474747474747475,3.037974683544304,anode-electrolyte interface,0.0115094968114837,0.0121080452159531,0.0107988907950821,1.9778160293696478e-05,high
400,7.575757575757575,3.037974683544304,anode-electrolyte interface,0.0116059514092445,0.0121176244858211,0.0110150808569507,4.431762138522479e-05,high
400,7.6767676767676765,3.037974683544304,anode-electrolyte interface,0.0116926058649283,0.0122436307020009,0.0110453167601048,0.0001242258854788,high
400,7.777777777777778,3.037974683544304,anode-electrolyte interface,0.011709188163066,0.0122790676547581,0.011040783806897,-2.0076717563553195e-05,high
400,7.878787878787879,3.037974683544304,anode-electrolyte interface,0.0116936501524064,0.0122714336405576,0.0110142513511012,9.866145674936705e-06,high
400,7.979797979797979,3.037974683544304,anode-electrolyte interface,0.0118277667821605,0.0123889226043031,0.0111721605676246,3.883556844717469e-05,high
400,8.080808080808081,3.037974683544304,anode-electrolyte interface,0.0118386603030901,0.0125318717875242,0.0109949087043025,4.0149947790270974e-05,high
400,8.181818181818182,3.037974683544304,anode-electrolyte interface,0.0117285409067254,0.0123088325282169,0.0110453398699164,4.837157261994028e-05,high
400,8.282828282828282,3.037974683544304,anode-electrolyte interface,0.0119559859065719,0.0124231100147354,0.0114259961608471,4.064327079715783e-05,high
400,8.383838383838384,3.037974683544304,anode-electrolyte interface,0.0121000386024572,0.0126790167777701,0.011422120597201,-5.7409298319293e-05,high
400,8.484848484848484,3.037974683544304,anode-electrolyte interface,0.0120057916645383,0.0125831419713929,0.0113268951465416,-0.0001047977151995,high
400,8.585858585858587,3.037974683544304,anode-electrolyte interface,0.0120762506300672,0.0127800673758545,0.0112208088155086,-2.48284004375591e-05,high
400,8.686868686868687,3.037974683544304,anode-electrolyte interface,0.0121958409385673,0.012881407065736,0.011368674599873,4.3402637019576495e-05,high
400,8.787878787878787,3.037974683544304,anode-electrolyte interface,0.0123746454979496,0.0130002318300278,0.0116358006823395,2.628335806061501e-05,high
400,8.88888888888889,3.037974683544304,anode-electrolyte interface,0.0122722673907942,0.0127510992515738,0.0117294945944088,-1.7522285867797962e-05,high
400,8.98989898989899,3.037974683544304,anode-electrolyte interface,0.0124043483770576,0.013022744696809,0.0116754526104665,4.554897617540912e-05,high
400,9.09090909090909,3.037974683544304,anode-electrolyte interface,0.012662047030391,0.0132752624937884,0.0119433901552943,-2.5243458084922105e-05,high
400,9.191919191919192,3.037974683544304,anode-electrolyte interface,0.0126544442148702,0.0132328487742596,0.0119832866353806,1.3328962750564289e-05,high
400,9.292929292929292,3.037974683544304,anode-electrolyte interface,0.0127180271138325,0.0133095413332476,0.0120294810261196,-3.0464972444712688e-05,high
400,9.393939393939394,3.037974683544304,anode-electrolyte interface,0.0128583652430281,0.0134693856050728,0.0121438401211326,5.893661915083567e-05,high
400,9.494949494949497,3.037974683544304,anode-electrolyte interface,0.0129646968408006,0.0134923471749624,0.0123620726784892,6.44653813931711e-05,high
400,9.595959595959595,3.037974683544304,anode-electrolyte interface,0.0131738135141789,0.013852884289333,0.0123690551421325,1.321509164232604e-05,high
400,9.696969696969695,3.037974683544304,anode-electrolyte interface,0.0133568405756676,0.0139188194958252,0.0127128942187548,2.860355196273797e-05,high
400,9.797979797979798,3.037974683544304,anode-electrolyte interface,0.0134134756495443,0.0140822765428377,0.0126257159267005,-1.767240154162187e-05,high
400,9.8989898989899,3.037974683544304,anode-electrolyte interface,0.0135970692856459,0.0142001589639173,0.0129006156733557,-1.5133853405675672e-05,high
400,10.0,3.037974683544304,anode-electrolyte interface,0.0136115317763856,0.0143013095058266,0.0127967237561565,-6.108029886908853e-06,high
400,0.0,3.1392405063291138,anode-electrolyte interface,0.013691751245285,0.0144120804307543,0.0128332948509731,7.530088983193408e-05,high
400,0.101010101010101,3.1392405063291138,anode-electrolyte interface,0.0136676960142821,0.0143350023062021,0.0128838547573735,5.7727724793484526e-05,high
400,0.202020202020202,3.1392405063291138,anode-electrolyte interface,0.013512667550868,0.0141789944001069,0.012728606844702,-5.6906669832553e-05,high
400,0.303030303030303,3.1392405063291138,anode-electrolyte interface,0.0133856113941767,0.0141790175686081,0.0124139450672581,-0.0001177090431285,high
400,0.404040404040404,3.1392405063291138,anode-electrolyte interface,0.0132944285219176,0.0139874460865891,0.0124711603060789,-3.1752888120187185e-05,high
400,0.5050505050505051,3.1392405063291138,anode-electrolyte interface,0.0130180747455038,0.0136289052627692,0.0123058818056778,-3.7335001864043575e-05,high
400,0.6060606060606061,3.1392405063291138,anode-electrolyte interface,0.0128799754713804,0.0135157553954052,0.0121325048069218,-1.1813112621590265e-05,high
400,0.7070707070707071,3.1392405063291138,anode-electrolyte interface,0.0127818740656186,0.0134607249658366,0.0119699741959912,9.905599618450772e-05,high
400,0.8080808080808081,3.1392405063291138,anode-electrolyte interface,0.0127322841135933,0.0133189546199172,0.0120505084402093,2.535071575043909e-05,high
400,0.9090909090909092,3.1392405063291138,anode-electrolyte interface,0.0126158186828238,0.01315843052107,0.0119921555826654,1.5681980863594693e-05,high
400,1.0101010101010102,3.1392405063291138,anode-electrolyte interface,0.0125031307309526,0.0132414505952159,0.0116022770332695,5.890665231801024e-05,high
400,1.1111111111111112,3.1392405063291138,anode-electrolyte interface,0.0123557305997686,0.0129736107089647,0.0116259408381643,-7.623213144991013e-05,high
400,1.2121212121212122,3.1392405063291138,anode-electrolyte interface,0.0122703799443365,0.0129730899734876,0.0114124200408733,0.0001551142958438,high
400,1.3131313131313131,3.1392405063291138,anode-electrolyte interface,0.0122082559416939,0.0128388118929142,0.0114607433739156,6.109123920660201e-06,high
400,1.414141414141414,3.1392405063291138,anode-electrolyte interface,0.012137845450857,0.0128246155638957,0.011308502562027,2.232780872215822e-05,high
400,1.5151515151515151,3.1392405063291138,anode-electrolyte interface,0.0120334952190649,0.0126920748779544,0.0112411580933379,9.350122246776333e-05,high
400,1.616161616161616,3.1392405063291138,anode-electrolyte interface,0.0119262049661302,0.012517266938454,0.0112307683535889,1.5925655146653342e-05,high
400,1.7171717171717171,3.1392405063291138,anode-electrolyte interface,0.0119570258469968,0.0125802913430181,0.0112167843263001,1.7329786080508645e-05,high
400,1.818181818181818,3.1392405063291138,anode-electrolyte interface,0.0117595401493317,0.0122500876275226,0.0111955946775999,-9.628655060674312e-05,high
400,1.9191919191919191,3.1392405063291138,anode-electrolyte interface,0.011759640188872,0.0123846440161879,0.0110136673045583,-5.5411636023534006e-05,high
400,2.0202020202020203,3.1392405063291138,anode-electrolyte interface,0.0118051485777273,0.0123621342702438,0.0111546964420322,-5.0897521246552e-05,high
400,2.121212121212121,3.1392405063291138,anode-electrolyte interface,0.0116353535881057,0.012228989478573,0.0109296538038613,0.0001073290156465,high
400,2.2222222222222223,3.1392405063291138,anode-electrolyte interface,0.011705357507128,0.0122626609757372,0.0110541215066688,-2.50486227049312e-05,high
400,2.323232323232323,3.1392405063291138,anode-electrolyte interface,0.0115994997408362,0.0122112875437074,0.0108682031067525,-9.960791953245677e-05,high
400,2.4242424242424243,3.1392405063291138,anode-electrolyte interface,0.0115654315766661,0.0120668011332264,0.0109883993996303,2.1809231369005996e-05,high
400,2.525252525252525,3.1392405063291138,anode-electrolyte interface,0.0116414093696721,0.0122625839678284,0.0109003610535486,7.486550494940488e-06,high
400,2.6262626262626263,3.1392405063291138,anode-electrolyte interface,0.0115775524272414,0.0121075776535354,0.0109616859106075,4.89521625959723e-05,high
400,2.727272727272727,3.1392405063291138,anode-electrolyte interface,0.0114859013935236,0.0120552620604412,0.0108122990101634,-0.0001093551309916,high
400,2.8282828282828283,3.1392405063291138,anode-electrolyte interface,0.0115479060883751,0.0121323994294056,0.0108569685143748,-4.594343637747617e-05,high
400,2.929292929292929,3.1392405063291138,anode-electrolyte interface,0.0112989824625987,0.0118213222979389,0.010689190210755,9.113916460313862e-05,high
400,3.0303030303030303,3.1392405063291138,anode-electrolyte interface,0.0113902380096176,0.0118282031719089,0.0108846353879059,0.0001839591733961,high
400,3.131313131313131,3.1392405063291138,anode-electrolyte interface,0.011334405844589,0.0118764890863247,0.0107005914934417,1.3694424971229036e-05,high
400,3.2323232323232323,3.1392405063291138,anode-electrolyte interface,0.0111615250106544,0.011693022115339,0.0105405795719475,9.77589504226047e-06,high
400,3.333333333333333,3.1392405063291138,anode-electrolyte interface,0.0111603877367577,0.0117314279449052,0.0104835255101816,5.850873699228518e-05,high
400,3.4343434343434343,3.1392405063291138,anode-electrolyte interface,0.0112109849506768,0.0116760993755909,0.0106780219395783,-6.423834464301185e-05,high
400,3.5353535353535355,3.1392405063291138,anode-electrolyte interface,0.011280807364079,0.0118116146728944,0.01066032947413,7.177079732008295e-05,high
400,3.636363636363636,3.1392405063291138,anode-electrolyte interface,0.0111923384509002,0.0117483943375228,0.0105378443384495,9.27260669416338e-06,high
400,3.7373737373737375,3.1392405063291138,anode-electrolyte interface,0.0112737189318026,0.0117508410621464,0.010726544123479,2.337515504273976e-05,high
400,3.8383838383838382,3.1392405063291138,anode-electrolyte interface,0.0112399485402503,0.0117752899294174,0.0106124436162545,-8.089334222248127e-05,high
400,3.939393939393939,3.1392405063291138,anode-electrolyte interface,0.0110951111501633,0.0115794401650559,0.0105360603176635,6.101886246298252e-05,high
400,4.040404040404041,3.1392405063291138,anode-electrolyte interface,0.0110902694020176,0.0116427142756354,0.0104396775170314,-1.4089076196627082e-05,high
400,4.141414141414141,3.1392405063291138,anode-electrolyte interface,0.0111308742503436,0.0116826344656688,0.0104806935362439,5.653331908898098e-05,high
400,4.242424242424242,3.1392405063291138,anode-electrolyte interface,0.0110531887981844,0.0115430148363547,0.0104869250595176,-4.80466503071676e-05,high
400,4.343434343434343,3.1392405063291138,anode-electrolyte interface,0.0109499573674015,0.0113883077944749,0.0104499625399364,-6.75393358631587e-05,high
400,4.444444444444445,3.1392405063291138,anode-electrolyte interface,0.0111003241901986,0.0114486319638948,0.0107156800570412,5.814173392662234e-06,high
400,4.545454545454545,3.1392405063291138,anode-electrolyte interface,0.0111145042872338,0.0115966705529987,0.0105552581480379,-0.0001180598846357,high
400,4.646464646464646,3.1392405063291138,anode-electrolyte interface,0.0110551999936195,0.0116381166315811,0.0103610971382818,3.1681678158858575e-05,high
400,4.747474747474747,3.1392405063291138,anode-electrolyte interface,0.0111441054663134,0.0117799971995805,0.0103749218453571,-9.993482811899062e-06,high
400,4.848484848484849,3.1392405063291138,anode-electrolyte interface,0.0110039418423862,0.0115558286266394,0.0103527235936921,-4.072134019344586e-05,high
400,4.94949494949495,3.1392405063291138,anode-electrolyte interface,0.0109972475099368,0.0115254419722327,0.0103792487766481,-9.38904648484155e-06,high
400,5.05050505050505,3.1392405063291138,anode-electrolyte interface,0.0110318642953797,0.0116419372198084,0.0102980631052219,4.700368495824684e-05,high
400,5.151515151515151,3.1392405063291138,anode-electrolyte interface,0.0110004278541971,0.0115457043122813,0.0103583541858224,4.130399983216972e-05,high
400,5.252525252525253,3.1392405063291138,anode-electrolyte interface,0.0110700478595743,0.0116140856118494,0.0104309665820663,4.085591474728033e-06,high
400,5.353535353535354,3.1392405063291138,anode-electrolyte interface,0.0110293766453693,0.0115922955041063,0.010363303068877,2.7417795513306052e-05,high
400,5.454545454545454,3.1392405063291138,anode-electrolyte interface,0.011066915133354,0.0116720938431142,0.0103409073438504,3.878200900590513e-05,high
400,5.555555555555555,3.1392405063291138,anode-electrolyte interface,0.0110133003061464,0.0114815761744209,0.0104759564343614,1.844605406295222e-05,high
400,5.656565656565657,3.1392405063291138,anode-electrolyte interface,0.0110505605717283,0.0116335697529721,0.0103565876729371,-6.340894300484626e-06,high
400,5.757575757575758,3.1392405063291138,anode-electrolyte interface,0.0110429192531231,0.0115816690704037,0.0104092632853386,7.044541302496419e-05,high
400,5.858585858585858,3.1392405063291138,anode-electrolyte interface,0.0111356103036516,0.0116887052469775,0.0104843616430608,-3.03335350302038e-05,high
400,5.959595959595959,3.1392405063291138,anode-electrolyte interface,0.0111564594736446,0.0116920177719902,0.0105297048577728,-2.658536957512805e-05,high
400,6.0606060606060606,3.1392405063291138,anode-electrolyte interface,0.0112527059804892,0.0116954529328924,0.0107484529182078,7.865038507076979e-05,high
400,6.161616161616162,3.1392405063291138,anode-electrolyte interface,0.0111478643879328,0.0117565576537725,0.0104182864875914,-1.554512379724091e-05,high
400,6.262626262626262,3.1392405063291138,anode-electrolyte interface,0.0111789497604433,0.0117518217613256,0.0105008323951726,-3.3014473532448145e-06,high
400,6.363636363636363,3.1392405063291138,anode-electrolyte interface,0.0112298390101268,0.0117562554141236,0.0106164557569905,1.1187240377462331e-05,high
400,6.4646464646464645,3.1392405063291138,anode-electrolyte interface,0.0113067769146771,0.0118431045901531,0.0106802389054138,-3.540806354557381e-05,high
400,6.565656565656566,3.1392405063291138,anode-electrolyte interface,0.0111019791703751,0.0116697018336074,0.0104291779108228,5.67018738515923e-05,high
400,6.666666666666667,3.1392405063291138,anode-electrolyte interface,0.0112683284458641,0.0118383355226502,0.0105949077250425,3.183706139578664e-05,high
400,6.767676767676767,3.1392405063291138,anode-electrolyte interface,0.0113894414391964,0.0119709187237508,0.0107013956198819,2.67718092868506e-05,high
400,6.8686868686868685,3.1392405063291138,anode-electrolyte interface,0.0112572617304078,0.0118186674868809,0.0105960301529045,-6.8934347358350816e-06,high
400,6.96969696969697,3.1392405063291138,anode-electrolyte interface,0.0112995024588241,0.0117055435233349,0.0108437665170768,3.612610289856829e-05,high
400,7.070707070707071,3.1392405063291138,anode-electrolyte interface,0.0113688702288529,0.0120429801144939,0.0105464901806717,-1.3621489535734127e-05,high
400,7.171717171717171,3.1392405063291138,anode-electrolyte interface,0.0113857095413053,0.0119423978692566,0.0107323663143224,-2.365783103425027e-06,high
400,7.272727272727272,3.1392405063291138,anode-electrolyte interface,0.0113763982939824,0.0119594174548657,0.0106862592567041,4.860175971045829e-06,high
400,7.373737373737374,3.1392405063291138,anode-electrolyte interface,0.0114332213127457,0.0120166560684422,0.010743026815784,1.966158409479221e-05,high
400,7.474747474747475,3.1392405063291138,anode-electrolyte interface,0.011541541967049,0.0121481070013561,0.0108200835845919,1.969131737766293e-06,high
400,7.575757575757575,3.1392405063291138,anode-electrolyte interface,0.0115920428287982,0.0120279726391478,0.0111001300356896,2.8894564903450675e-05,high
400,7.6767676767676765,3.1392405063291138,anode-electrolyte interface,0.0114738801516875,0.0120810705749427,0.0107498714640104,5.12472245455143e-05,high
400,7.777777777777778,3.1392405063291138,anode-electrolyte interface,0.0116675589625979,0.0122870164148843,0.0109292458419273,1.3761720382338355e-05,high
400,7.878787878787879,3.1392405063291138,anode-electrolyte interface,0.0117926320080461,0.0123622804521066,0.0111251381454031,3.4500088192094244e-05,high
400,7.979797979797979,3.1392405063291138,anode-electrolyte interface,0.0117153857019354,0.0121682868947528,0.011201828429193,5.525126617788429e-05,high
400,8.080808080808081,3.1392405063291138,anode-electrolyte interface,0.0118252555986717,0.0122796612557465,0.0113113011037711,-9.440906944796594e-07,high
400,8.181818181818182,3.1392405063291138,anode-electrolyte interface,0.0118377965878064,0.0124021935667831,0.0111763407509149,-8.07703884207884e-05,high
400,8.282828282828282,3.1392405063291138,anode-electrolyte interface,0.0119700429869257,0.0125776363833325,0.0112514847470375,-4.533955429267601e-05,high
400,8.383838383838384,3.1392405063291138,anode-electrolyte interface,0.0120686074601156,0.0126805278947584,0.0113457038106405,-2.382877973395203e-06,high
400,8.484848484848484,3.1392405063291138,anode-electrolyte interface,0.0119963830363906,0.0126032869404903,0.0112794580451105,2.849991700723345e-05,high
400,8.585858585858587,3.1392405063291138,anode-electrolyte interface,0.0121124395108935,0.0126342670098311,0.0115101296743828,-9.211321326119544e-05,high
400,8.686868686868687,3.1392405063291138,anode-electrolyte interface,0.0122086723110454,0.0127500908340884,0.0115819356653996,-7.384969406079362e-05,high
400,8.787878787878787,3.1392405063291138,anode-electrolyte interface,0.0123463600907563,0.0128846201794323,0.0117263669852746,-2.0594003538235832e-05,high
400,8.88888888888889,3.1392405063291138,anode-electrolyte interface,0.0124150783189662,0.0130713712766106,0.0116335871937856,1.742454779176304e-06,high
400,8.98989898989899,3.1392405063291138,anode-electrolyte interface,0.012525603978612,0.0130710862780411,0.0118957108172773,-8.0384749790694e-05,high
400,9.09090909090909,3.1392405063291138,anode-electrolyte interface,0.0125659046557462,0.0131326215383227,0.0119077378502598,8.525491774940056e-05,high
400,9.191919191919192,3.1392405063291138,anode-electrolyte interface,0.0126293797476445,0.0131859188445256,0.0119869110168233,-4.154184613434249e-05,high
400,9.292929292929292,3.1392405063291138,anode-electrolyte interface,0.0128113728094087,0.0134887641451712,0.0120045359583409,-2.5727655597372406e-05,high
400,9.393939393939394,3.1392405063291138,anode-electrolyte interface,0.0129011470591894,0.0135159407628352,0.0121827246837339,-1.9537775204551494e-05,high
400,9.494949494949497,3.1392405063291138,anode-electrolyte interface,0.0130939840678242,0.0136905041882423,0.0124017376208161,4.265623773950717e-05,high
400,9.595959595959595,3.1392405063291138,anode-electrolyte interface,0.0131750843903413,0.013817825190459,0.0124207831616003,-3.115448938636496e-05,high
400,9.696969696969695,3.1392405063291138,anode-electrolyte interface,0.0132622357918995,0.0137607090954035,0.0126996457227367,4.046526848511928e-05,high
400,9.797979797979798,3.1392405063291138,anode-electrolyte interface,0.0134776312880883,0.0141719338232652,0.0126549638327171,3.5219479621660102e-06,high
400,9.8989898989899,3.1392405063291138,anode-electrolyte interface,0.0136775181067835,0.014360802066331,0.0128723717481221,2.231554176829693e-05,high
400,10.0,3.1392405063291138,anode-electrolyte interface,0.0137732110389743,0.0144010412668204,0.0130446922679898,-3.8764473429333805e-05,high
400,0.0,3.240506329113924,anode-electrolyte interface,0.013826544532045,0.0146580444503711,0.0128089484392189,3.744043360822744e-06,high
400,0.101010101010101,3.240506329113924,anode-electrolyte interface,0.0133844786234489,0.0139745634573827,0.0127034769630024,-3.194889924349222e-05,high
400,0.202020202020202,3.240506329113924,anode-electrolyte interface,0.0135585610201913,0.0141425173637682,0.0128851241195316,-9.210062036599936e-05,high
400,0.303030303030303,3.240506329113924,anode-electrolyte interface,0.0133276862292905,0.013860426907956,0.0127218754411273,9.934786319854762e-06,high
400,0.404040404040404,3.240506329113924,anode-electrolyte interface,0.0132438375885939,0.0139132632133531,0.0124533452114983,2.003069799602989e-05,high
400,0.5050505050505051,3.240506329113924,anode-electrolyte interface,0.0130447139890935,0.0136714492761269,0.0123114089990524,-4.076509466715349e-06,high
400,0.6060606060606061,3.240506329113924,anode-electrolyte interface,0.0128541080169248,0.0134841071211672,0.0121144103175425,2.390634221564316e-06,high
400,0.7070707070707071,3.240506329113924,anode-electrolyte interface,0.0127326290706428,0.0133458172811892,0.0120131560816887,7.846685350868005e-05,high
400,0.8080808080808081,3.240506329113924,anode-electrolyte interface,0.0126707826802081,0.0133572419560882,0.0118493383888888,1.265808222212851e-05,high
400,0.9090909090909092,3.240506329113924,anode-electrolyte interface,0.0125864804011776,0.0131862552821666,0.0118854068299225,3.303332537680919e-05,high
400,1.0101010101010102,3.240506329113924,anode-electrolyte interface,0.012508495389692,0.0131604643396233,0.0117333994969195,5.464182433976208e-05,high
400,1.1111111111111112,3.240506329113924,anode-electrolyte interface,0.0124004097060283,0.0130132624188308,0.0116792657222437,4.188869394698069e-05,high
400,1.2121212121212122,3.240506329113924,anode-electrolyte interface,0.012159263460944,0.0125932688468947,0.0116718330619366,6.354085773642275e-05,high
400,1.3131313131313131,3.240506329113924,anode-electrolyte interface,0.0123053227716466,0.0128817522240695,0.0116331968895766,-4.5159664048543006e-05,high
400,1.414141414141414,3.240506329113924,anode-electrolyte interface,0.0120218474848668,0.012511050237602,0.0114639685036189,-2.677636204514567e-05,high
400,1.5151515151515151,3.240506329113924,anode-electrolyte interface,0.0120479777064726,0.0126042579911446,0.011400286340207,-6.342679378043495e-05,high
400,1.616161616161616,3.240506329113924,anode-electrolyte interface,0.0119887937859058,0.0125155607732958,0.0113814210249236,-3.509427175026566e-06,high
400,1.7171717171717171,3.240506329113924,anode-electrolyte interface,0.0119218164057093,0.0124969508774488,0.011248341136139,-1.5421783624960226e-05,high
400,1.818181818181818,3.240506329113924,anode-electrolyte interface,0.0118301029274771,0.0123639718171758,0.0112118960900452,-1.2773921845121149e-05,high
400,1.9191919191919191,3.240506329113924,anode-electrolyte interface,0.0118508150160066,0.0123859082701613,0.0112278658168135,-0.0001055748440993,high
400,2.0202020202020203,3.240506329113924,anode-electrolyte interface,0.0117339385815896,0.0122104998545487,0.0111906373788181,-2.5292164456697542e-05,high
400,2.121212121212121,3.240506329113924,anode-electrolyte interface,0.0118846389543291,0.0124107652875389,0.0112772934765178,3.755556820723441e-06,high
400,2.2222222222222223,3.240506329113924,anode-electrolyte interface,0.0115020937507625,0.0120263839378874,0.010893610968003,3.758580779180336e-05,high
400,2.323232323232323,3.240506329113924,anode-electrolyte interface,0.0116453664751977,0.0122381209873018,0.0109442419509044,3.406010059461082e-05,high
400,2.4242424242424243,3.240506329113924,anode-electrolyte interface,0.0115418629051891,0.0121192665930069,0.0108613357540944,-1.618401129270674e-05,high
400,2.525252525252525,3.240506329113924,anode-electrolyte interface,0.0115837582907569,0.0120605301335478,0.0110385375755168,-5.2827676419534975e-05,high
400,2.6262626262626263,3.240506329113924,anode-electrolyte interface,0.0114501158761877,0.0120713725832197,0.0107065003698131,-6.387299940217959e-06,high
400,2.727272727272727,3.240506329113924,anode-electrolyte interface,0.0114931817595271,0.0120468224060181,0.010845006666667,-1.8226178572615097e-05,high
400,2.8282828282828283,3.240506329113924,anode-electrolyte interface,0.011317127549859,0.0119117812898028,0.0106097729666104,1.6883852155066072e-05,high
400,2.929292929292929,3.240506329113924,anode-electrolyte interface,0.0112923298145467,0.0118066358304627,0.0106958745606153,-1.4447795830894253e-05,high
400,3.0303030303030303,3.240506329113924,anode-electrolyte interface,0.0113644435396126,0.0119964495601479,0.0106025436122967,7.00559761982995e-05,high
400,3.131313131313131,3.240506329113924,anode-electrolyte interface,0.011320778308728,0.0118945869130315,0.0106429323771556,5.723303008021939e-06,high
400,3.2323232323232323,3.240506329113924,anode-electrolyte interface,0.0112736375363853,0.0118388713690807,0.0106072081710125,-1.3365959751338358e-05,high
400,3.333333333333333,3.240506329113924,anode-electrolyte interface,0.0113998760464688,0.0120161121171319,0.0106621644594409,-4.5592613232868266e-05,high
400,3.4343434343434343,3.240506329113924,anode-electrolyte interface,0.0113028893636921,0.0118328668842764,0.0106852808812638,-1.6813134309098006e-05,high
400,3.5353535353535355,3.240506329113924,anode-electrolyte interface,0.0111349910237626,0.011636401014511,0.010552914863197,7.333402809781415e-05,high
400,3.636363636363636,3.240506329113924,anode-electrolyte interface,0.0111460384580507,0.0117663170516179,0.0103963594213556,-0.0001008766001728,high
400,3.7373737373737375,3.240506329113924,anode-electrolyte interface,0.0111118820071301,0.0116704278320175,0.0104505157261906,8.896929164457303e-05,high
400,3.8383838383838382,3.240506329113924,anode-electrolyte interface,0.0112081515815686,0.0117568788050849,0.0105640021006458,-2.209786502792037e-06,high
400,3.939393939393939,3.240506329113924,anode-electrolyte interface,0.0111240175339531,0.0116652895577748,0.0104840030430251,-0.0001283186713952,high
400,4.040404040404041,3.240506329113924,anode-electrolyte interface,0.0112392484620607,0.0117764171694981,0.0106094410378644,-7.674438752191927e-05,high
400,4.141414141414141,3.240506329113924,anode-electrolyte interface,0.0110640684033256,0.0115593907597092,0.0104912469600264,-9.224769380949e-06,high
400,4.242424242424242,3.240506329113924,anode-electrolyte interface,0.0112105156985689,0.0116643078815544,0.0106921616049289,-6.813947822239677e-05,high
400,4.343434343434343,3.240506329113924,anode-electrolyte interface,0.0111809039586621,0.0117327580923429,0.0105321294863338,7.677301427291326e-06,high
400,4.444444444444445,3.240506329113924,anode-electrolyte interface,0.0111048221418315,0.0116989018736542,0.0103948719999145,5.1618387905812526e-05,high
400,4.545454545454545,3.240506329113924,anode-electrolyte interface,0.0110072835320796,0.0116059679003773,0.0102894297587114,-5.236596967332912e-05,high
400,4.646464646464646,3.240506329113924,anode-electrolyte interface,0.0110064713834776,0.0115422862080832,0.010377612505779,-3.904605906894151e-05,high
400,4.747474747474747,3.240506329113924,anode-electrolyte interface,0.0110151735904147,0.0116595543718971,0.0102314066564688,-1.6341336119281952e-05,high
400,4.848484848484849,3.240506329113924,anode-electrolyte interface,0.0111593723552087,0.0116452862413265,0.0105996182911081,-2.9330594534034267e-05,high
400,4.94949494949495,3.240506329113924,anode-electrolyte interface,0.0112319671176746,0.0117142808477783,0.0106764509424364,-6.595357678941239e-05,high
400,5.05050505050505,3.240506329113924,anode-electrolyte interface,0.0109415335634005,0.0115360649685672,0.0102277682390712,-7.597696413375069e-05,high
400,5.151515151515151,3.240506329113924,anode-electrolyte interface,0.0110279052919148,0.0114273869607817,0.0105755293513972,-0.000113089238003,high
400,5.252525252525253,3.240506329113924,anode-electrolyte interface,0.0112734595350715,0.0118652640927538,0.0105695531775089,2.2236002789713893e-05,high
400,5.353535353535354,3.240506329113924,anode-electrolyte interface,0.0109259708424721,0.0114472426643736,0.0103167507793512,1.2613079854578988e-05,high
400,5.454545454545454,3.240506329113924,anode-electrolyte interface,0.0109929308939511,0.0115758288837923,0.0102964091077707,-7.777044604875217e-05,high
400,5.555555555555555,3.240506329113924,anode-electrolyte interface,0.0111882462277103,0.0116613981619108,0.0106455780175719,-2.9660072140728647e-05,high
400,5.656565656565657,3.240506329113924,anode-electrolyte interface,0.0110801322772961,0.0115657207152956,0.0105203938096427,-1.512531480991354e-05,high
400,5.757575757575758,3.240506329113924,anode-electrolyte interface,0.0109959939627829,0.0115591465638745,0.0103291807199661,-2.9174335419030013e-05,high
400,5.858585858585858,3.240506329113924,anode-electrolyte interface,0.0111865464173049,0.0116892703622546,0.0106046639762498,-2.356137169655636e-05,high
400,5.959595959595959,3.240506329113924,anode-electrolyte interface,0.0112000100097922,0.0117898135952108,0.0104973555878057,-5.1351389677421146e-05,high
400,6.0606060606060606,3.240506329113924,anode-electrolyte interface,0.0109800981992041,0.0115648766843744,0.0102806458097121,7.938618619964769e-05,high
400,6.161616161616162,3.240506329113924,anode-electrolyte interface,0.0111943563640942,0.0117530405357362,0.0105354595927715,4.975740217064424e-05,high
400,6.262626262626262,3.240506329113924,anode-electrolyte interface,0.0110795824918282,0.0116014684309532,0.0104702557623219,-4.8868534425430864e-05,high
400,6.363636363636363,3.240506329113924,anode-electrolyte interface,0.0111401249642506,0.0116425061490202,0.0105584878336773,3.108224416266904e-06,high
400,6.4646464646464645,3.240506329113924,anode-electrolyte interface,0.0111486684359684,0.0115770369497319,0.0106636702954465,-4.026669366428965e-05,high
400,6.565656565656566,3.240506329113924,anode-electrolyte interface,0.0113808956449205,0.0120167639621097,0.0106138585162306,-6.43155598625455e-05,high
400,6.666666666666667,3.240506329113924,anode-electrolyte interface,0.0112137151087422,0.0116976669797179,0.0106572064678703,1.1493013482858893e-05,high
400,6.767676767676767,3.240506329113924,anode-electrolyte interface,0.0113232588462572,0.011926040602209,0.0106045019862407,-1.333133399452186e-06,high
400,6.8686868686868685,3.240506329113924,anode-electrolyte interface,0.0112287396222037,0.0117975575130762,0.0105551127187689,7.388071391834097e-05,high
400,6.96969696969697,3.240506329113924,anode-electrolyte interface,0.0114379993181646,0.0120611470764809,0.0106898874938113,-7.111086504116648e-05,high
400,7.070707070707071,3.240506329113924,anode-electrolyte interface,0.0112733812598776,0.0118640031948528,0.0105712632047077,1.221903100032405e-05,high
400,7.171717171717171,3.240506329113924,anode-electrolyte interface,0.0115589897882228,0.0122417702955222,0.0107267993445199,5.608329761880719e-06,high
400,7.272727272727272,3.240506329113924,anode-electrolyte interface,0.0113839123954855,0.0118129302041515,0.0108997978574162,1.914346202552712e-05,high
400,7.373737373737374,3.240506329113924,anode-electrolyte interface,0.0114065500356041,0.0119047461645661,0.0108324043933013,-2.853177267811671e-05,high
400,7.474747474747475,3.240506329113924,anode-electrolyte interface,0.0114584574271061,0.0120025790456029,0.0108226234148198,3.897991370893684e-05,high
400,7.575757575757575,3.240506329113924,anode-electrolyte interface,0.0116285939593003,0.0121487043714777,0.0110271866538719,1.1026821493608216e-05,high
400,7.6767676767676765,3.240506329113924,anode-electrolyte interface,0.0116160084760931,0.012100179622125,0.01106210295212,-1.4341371010966504e-05,high
400,7.777777777777778,3.240506329113924,anode-electrolyte interface,0.0116526547445609,0.0122388335964086,0.0109610390912189,2.057763579542557e-05,high
400,7.878787878787879,3.240506329113924,anode-electrolyte interface,0.0116160353962518,0.0122458899610754,0.0108619638405323,2.9511960930257927e-05,high
400,7.979797979797979,3.240506329113924,anode-electrolyte interface,0.0118436244907572,0.0123050296210103,0.0113207690445103,-9.552840691512586e-06,high
400,8.080808080808081,3.240506329113924,anode-electrolyte interface,0.0118904722779625,0.0124139756377448,0.0112852572665702,6.932305696976881e-05,high
400,8.181818181818182,3.240506329113924,anode-electrolyte interface,0.0118600002668805,0.0123763956789255,0.0112654025333117,8.589260111199095e-06,high
400,8.282828282828282,3.240506329113924,anode-electrolyte interface,0.0119384201863123,0.0125392238190472,0.011229629145975,-1.3001198325942925e-06,high
400,8.383838383838384,3.240506329113924,anode-electrolyte interface,0.0119353384528553,0.0125471749086851,0.0112108030493461,-2.891084460834514e-05,high
400,8.484848484848484,3.240506329113924,anode-electrolyte interface,0.0120873567204092,0.0126655202730052,0.0114114055867587,-1.1192998158457637e-07,high
400,8.585858585858587,3.240506329113924,anode-electrolyte interface,0.0121483555134997,0.0128135334137727,0.0113497941244828,5.490210034350192e-05,high
400,8.686868686868687,3.240506329113924,anode-electrolyte interface,0.0122666019735708,0.012945555951968,0.0114480206469825,9.29518935377949e-05,high
400,8.787878787878787,3.240506329113924,anode-electrolyte interface,0.012199127879555,0.0128077328549037,0.0114822179113818,1.3559319898259488e-05,high
400,8.88888888888889,3.240506329113924,anode-electrolyte interface,0.0123838928530802,0.0129684123146999,0.0117020426063832,-8.093509018720357e-06,high
400,8.98989898989899,3.240506329113924,anode-electrolyte interface,0.012547111863073,0.0132242835209283,0.0117368029417124,4.693222224376498e-05,high
400,9.09090909090909,3.240506329113924,anode-electrolyte interface,0.0126312962763047,0.0133076185043193,0.0118238036891821,2.057869909073807e-05,high
400,9.191919191919192,3.240506329113924,anode-electrolyte interface,0.0126725593049615,0.0132948966649239,0.0119413515671017,-2.966412975770898e-05,high
400,9.292929292929292,3.240506329113924,anode-electrolyte interface,0.012780413456315,0.0134944858533087,0.0119199191389352,4.6646126667313215e-05,high
400,9.393939393939394,3.240506329113924,anode-electrolyte interface,0.0129543308215102,0.0136077694817456,0.0121828019354253,-3.3636022515724604e-05,high
400,9.494949494949497,3.240506329113924,anode-electrolyte interface,0.0130125722438007,0.0136912776031635,0.0122043077073788,-8.830279914571111e-05,high
400,9.595959595959595,3.240506329113924,anode-electrolyte interface,0.0132356347989761,0.0139299743383666,0.0124096531105097,3.87406701195938e-05,high
400,9.696969696969695,3.240506329113924,anode-electrolyte interface,0.013300441754909,0.0140874571367551,0.012340749705755,-1.8087850146752354e-05,high
400,9.797979797979798,3.240506329113924,anode-electrolyte interface,0.0134495931316186,0.0141064539692596,0.012678747975107,-1.858585171496703e-05,high
400,9.8989898989899,3.240506329113924,anode-electrolyte interface,0.0135176587178313,0.0141965188249678,0.0127150089075755,8.824636045487299e-05,high
400,10.0,3.240506329113924,anode-electrolyte interface,0.013659025699517,0.0142575371486663,0.0129680076084278,6.891154613482053e-05,high
400,0.0,3.3417721518987342,anode-electrolyte interface,0.0137544543994473,0.0143827975202294,0.013021081614188,0.0001305951332186,high
400,0.101010101010101,3.3417721518987342,anode-electrolyte interface,0.0136800983670943,0.0144114126701572,0.0128072744612648,-1.745946632975422e-05,high
400,0.202020202020202,3.3417721518987342,anode-electrolyte interface,0.0132863930045912,0.0139089613419065,0.0125605829912652,4.26287800124342e-05,high
400,0.303030303030303,3.3417721518987342,anode-electrolyte interface,0.0132431784195203,0.0137216967343693,0.0127058116036497,3.85506727942748e-05,high
400,0.404040404040404,3.3417721518987342,anode-electrolyte interface,0.0132024461932383,0.0138795828745332,0.0124007021027161,-1.755573084425119e-05,high
400,0.5050505050505051,3.3417721518987342,anode-electrolyte interface,0.0131916108954232,0.0138461861268486,0.0124212946464849,1.554213389086313e-05,high
400,0.6060606060606061,3.3417721518987342,anode-electrolyte interface,0.0129908514294019,0.0136614936869192,0.0121957127751881,-2.61667338804332e-05,high
400,0.7070707070707071,3.3417721518987342,anode-electrolyte interface,0.0128446155607364,0.0134852646346546,0.0120899299475957,-2.069828041999334e-05,high
400,0.8080808080808081,3.3417721518987342,anode-electrolyte interface,0.0126484053756246,0.0133671801306235,0.0117797426439211,9.29082451236755e-06,high
400,0.9090909090909092,3.3417721518987342,anode-electrolyte interface,0.0125737502256983,0.0131297067796621,0.011931809120035,-3.2046000012179464e-05,high
400,1.0101010101010102,3.3417721518987342,anode-electrolyte interface,0.0123959440731854,0.0130793429160701,0.0115752528136575,1.2131767315194744e-05,high
400,1.1111111111111112,3.3417721518987342,anode-electrolyte interface,0.012338486955942,0.0128512047886869,0.0117519335190806,3.3460031030177615e-05,high
400,1.2121212121212122,3.3417721518987342,anode-electrolyte interface,0.0123556131573301,0.0129925969676401,0.0116007480899002,-5.438747644930517e-06,high
400,1.3131313131313131,3.3417721518987342,anode-electrolyte interface,0.0121760696674808,0.0127973899984743,0.0114411659023653,-9.427948942573842e-06,high
400,1.414141414141414,3.3417721518987342,anode-electrolyte interface,0.0121447210458192,0.012698479898957,0.0115015668458811,-5.547679758163763e-05,high
400,1.5151515151515151,3.3417721518987342,anode-electrolyte interface,0.0120055734098016,0.0124809147857428,0.0114657666375681,-1.895493839698344e-06,high
400,1.616161616161616,3.3417721518987342,anode-electrolyte interface,0.0120390593118417,0.012698081726599,0.0112488164329711,7.933669811139027e-06,high
400,1.7171717171717171,3.3417721518987342,anode-electrolyte interface,0.0119281923852909,0.0125510095590138,0.0111883079227814,9.276189986423992e-06,high
400,1.818181818181818,3.3417721518987342,anode-electrolyte interface,0.0118583098313957,0.0124258065351901,0.0111925959536955,-8.499367014602972e-05,high
400,1.9191919191919191,3.3417721518987342,anode-electrolyte interface,0.0119107424123947,0.012423665932204,0.011313726411383,-0.0001590195912051,high
400,2.0202020202020203,3.3417721518987342,anode-electrolyte interface,0.0116638257777082,0.0121707623883023,0.0110798876898402,3.716540894069238e-05,high
400,2.121212121212121,3.3417721518987342,anode-electrolyte interface,0.0117590262083526,0.0123525017929392,0.0110585086094052,3.2447279431513566e-06,high
400,2.2222222222222223,3.3417721518987342,anode-electrolyte interface,0.0115077718094415,0.0120543617830495,0.0108694629946183,1.1365954335790943e-05,high
400,2.323232323232323,3.3417721518987342,anode-electrolyte interface,0.0117278859199212,0.0123169824132393,0.0110314743156735,7.37155422943617e-05,high
400,2.4242424242424243,3.3417721518987342,anode-electrolyte interface,0.0115086598527449,0.0122473131711353,0.0105903820751787,-5.918128746171473e-06,high
400,2.525252525252525,3.3417721518987342,anode-electrolyte interface,0.0114274498585519,0.0118940181332849,0.0108952640154611,1.4522568958138448e-05,high
400,2.6262626262626263,3.3417721518987342,anode-electrolyte interface,0.0115130485909425,0.0119671020361178,0.0109973853693816,-3.216933197931687e-05,high
400,2.727272727272727,3.3417721518987342,anode-electrolyte interface,0.0114312508701323,0.0119402160316057,0.0108423589177864,5.1956529781258944e-05,high
400,2.8282828282828283,3.3417721518987342,anode-electrolyte interface,0.0113097673411546,0.0118851289764679,0.0106276190708949,7.933636845032188e-05,high
400,2.929292929292929,3.3417721518987342,anode-electrolyte interface,0.0114782209886144,0.0120229733793358,0.0108421712588283,6.506319502933378e-06,high
400,3.0303030303030303,3.3417721518987342,anode-electrolyte interface,0.0113395582408067,0.011918955523292,0.0106536646719535,-3.680929722092507e-05,high
400,3.131313131313131,3.3417721518987342,anode-electrolyte interface,0.0113042353477139,0.0118549477731941,0.010657616468306,-4.707414130234594e-05,high
400,3.2323232323232323,3.3417721518987342,anode-electrolyte interface,0.0113725589282878,0.0119370816222312,0.0107082277570931,2.9433342935024845e-06,high
400,3.333333333333333,3.3417721518987342,anode-electrolyte interface,0.01124626704423,0.0118050228555281,0.0105884316725992,2.4155223876256568e-05,high
400,3.4343434343434343,3.3417721518987342,anode-electrolyte interface,0.0112828999016129,0.0118246708319202,0.0106490745624866,8.631593049084388e-07,high
400,3.5353535353535355,3.3417721518987342,anode-electrolyte interface,0.0111746477455414,0.0117553433981756,0.0104816502965474,0.0001081041231014,high
400,3.636363636363636,3.3417721518987342,anode-electrolyte interface,0.0112557112965035,0.0118010820140054,0.0106155871203984,-5.8379256663813966e-05,high
400,3.7373737373737375,3.3417721518987342,anode-electrolyte interface,0.0111834831362396,0.0117532263836092,0.0105045503409818,0.0001274689289553,high
400,3.8383838383838382,3.3417721518987342,anode-electrolyte interface,0.0109499879325063,0.0114388364204974,0.0103842229519771,4.689865814759804e-05,high
400,3.939393939393939,3.3417721518987342,anode-electrolyte interface,0.0111434336394389,0.0116052507356399,0.0106155889603518,6.089765703123279e-06,high
400,4.040404040404041,3.3417721518987342,anode-electrolyte interface,0.0111769254055465,0.0116830761149832,0.0105900717894496,3.824607274155052e-05,high
400,4.141414141414141,3.3417721518987342,anode-electrolyte interface,0.0111076633073465,0.0116233193091267,0.0105074758621238,3.331902733043719e-05,high
400,4.242424242424242,3.3417721518987342,anode-electrolyte interface,0.0110361097344955,0.0114947357517465,0.0105114364418826,-2.9756054443290392e-05,high
400,4.343434343434343,3.3417721518987342,anode-electrolyte interface,0.0111856764526191,0.0117317543784397,0.0105448648250607,1.7193111966772537e-05,high
400,4.444444444444445,3.3417721518987342,anode-electrolyte interface,0.0110909338676837,0.0116495579311263,0.0104315423850041,-2.8253976904218627e-05,high
400,4.545454545454545,3.3417721518987342,anode-electrolyte interface,0.0110609588663041,0.0115225271066862,0.0105324008750894,-3.910032340544573e-05,high
400,4.646464646464646,3.3417721518987342,anode-electrolyte interface,0.0110768611230852,0.011567209745612,0.0105104020577544,3.6445110527197055e-05,high
400,4.747474747474747,3.3417721518987342,anode-electrolyte interface,0.0111924801393569,0.0117601526493989,0.0105202011973579,7.061653055438416e-05,high
400,4.848484848484849,3.3417721518987342,anode-electrolyte interface,0.011039618881312,0.011637934638066,0.0103206235903002,9.510324224871684e-05,high
400,4.94949494949495,3.3417721518987342,anode-electrolyte interface,0.0110885314076736,0.0117048930880234,0.0103471173588508,4.878307571910046e-06,high
400,5.05050505050505,3.3417721518987342,anode-electrolyte interface,0.0109538932356332,0.0113920080598954,0.0104551389667478,-4.093060566349064e-05,high
400,5.151515151515151,3.3417721518987342,anode-electrolyte interface,0.0110262431158233,0.011553119944858,0.0104101527253837,2.5298905107246863e-05,high
400,5.252525252525253,3.3417721518987342,anode-electrolyte interface,0.0110522337275646,0.0116272300009232,0.010366905386335,9.139458381698428e-05,high
400,5.353535353535354,3.3417721518987342,anode-electrolyte interface,0.0109882964808421,0.0115044237758403,0.0103842066040298,-8.84301800473479e-05,high
400,5.454545454545454,3.3417721518987342,anode-electrolyte interface,0.01113807495768,0.0116689107003778,0.0105176549897636,-2.413295632939895e-05,high
400,5.555555555555555,3.3417721518987342,anode-electrolyte interface,0.0111246142914181,0.0116413938592308,0.0105229411247147,-3.831632887835789e-05,high
400,5.656565656565657,3.3417721518987342,anode-electrolyte interface,0.0110213005415814,0.0114951092323889,0.0104759767910301,5.143658221900781e-05,high
400,5.757575757575758,3.3417721518987342,anode-electrolyte interface,0.0111409750019994,0.0116610090032967,0.0105343466970828,6.012310814959483e-05,high
400,5.858585858585858,3.3417721518987342,anode-electrolyte interface,0.0109256314589942,0.0115333171623233,0.0101910898069586,-0.0001012875953243,high
400,5.959595959595959,3.3417721518987342,anode-electrolyte interface,0.011099225738399,0.0117412140572502,0.0103204070044158,1.9590612938556643e-06,high
400,6.0606060606060606,3.3417721518987342,anode-electrolyte interface,0.0111531852691129,0.0116402657387598,0.010591702573041,3.570414799548058e-05,high
400,6.161616161616162,3.3417721518987342,anode-electrolyte interface,0.0111729176228336,0.0116476071921781,0.010626284060275,8.206627459863141e-05,high
400,6.262626262626262,3.3417721518987342,anode-electrolyte interface,0.0112674518293008,0.0117617176901042,0.0106973860463816,3.180240129460363e-05,high
400,6.363636363636363,3.3417721518987342,anode-electrolyte interface,0.0111738858603615,0.0117083801115881,0.0105487872192832,-2.489353914218066e-05,high
400,6.4646464646464645,3.3417721518987342,anode-electrolyte interface,0.0112300090848146,0.0118045931210909,0.0105500345682261,1.0350380001972876e-05,high
400,6.565656565656566,3.3417721518987342,anode-electrolyte interface,0.0112792231900053,0.0118506904794131,0.0106041707025471,-1.031873843548874e-05,high
400,6.666666666666667,3.3417721518987342,anode-electrolyte interface,0.0114520537935954,0.0119052227280861,0.0109374156560097,1.3116251866200016e-05,high
400,6.767676767676767,3.3417721518987342,anode-electrolyte interface,0.0113717516795576,0.0118328657924469,0.0108463575564527,3.849651004070103e-06,high
400,6.8686868686868685,3.3417721518987342,anode-electrolyte interface,0.0113232670841258,0.0118111988446062,0.0107617443040938,-4.442497565492025e-05,high
400,6.96969696969697,3.3417721518987342,anode-electrolyte interface,0.0114805660753803,0.0120470381435119,0.0108144599928935,-2.5406547190358752e-05,high
400,7.070707070707071,3.3417721518987342,anode-electrolyte interface,0.0113257410832421,0.0119424811448338,0.0105870025354132,1.8854319514173248e-06,high
400,7.171717171717171,3.3417721518987342,anode-electrolyte interface,0.0114114460972178,0.0120667012422694,0.0106172008502658,-4.266127815288432e-05,high
400,7.272727272727272,3.3417721518987342,anode-electrolyte interface,0.011362223555295,0.011773842162642,0.0109000443970707,1.999406981128421e-05,high
400,7.373737373737374,3.3417721518987342,anode-electrolyte interface,0.0114979827770978,0.0121031283477891,0.0107780095112162,3.443034350782185e-06,high
400,7.474747474747475,3.3417721518987342,anode-electrolyte interface,0.0115499997638485,0.0121203648933319,0.0108794119321773,5.4114152672631934e-06,high
400,7.575757575757575,3.3417721518987342,anode-electrolyte interface,0.0115685497535675,0.012110844321115,0.0109366735086919,1.0264004899717966e-05,high
400,7.6767676767676765,3.3417721518987342,anode-electrolyte interface,0.0117486320628955,0.0122608416078235,0.0111565028096897,8.694312583662924e-05,high
400,7.777777777777778,3.3417721518987342,anode-electrolyte interface,0.0114764825812198,0.0119599598602951,0.0109217033930516,-5.335965493065999e-05,high
400,7.878787878787879,3.3417721518987342,anode-electrolyte interface,0.0116288343149817,0.012151340724818,0.0110242486210057,-4.069638579772367e-06,high
400,7.979797979797979,3.3417721518987342,anode-electrolyte interface,0.0117955356599049,0.0122623611590261,0.0112637648579583,-7.552975782619768e-05,high
400,8.080808080808081,3.3417721518987342,anode-electrolyte interface,0.0117388263354492,0.0123403133780677,0.0110247219564065,-8.314464698529749e-05,high
400,8.181818181818182,3.3417721518987342,anode-electrolyte interface,0.0118984402029238,0.0124160098341498,0.0113025223311815,1.629344080284786e-05,high
400,8.282828282828282,3.3417721518987342,anode-electrolyte interface,0.012029370545941,0.0126550532907613,0.0112859863040008,-4.709282104750406e-05,high
400,8.383838383838384,3.3417721518987342,anode-electrolyte interface,0.0119721968115903,0.0125536118150383,0.0112906308468924,-7.719472533873433e-06,high
400,8.484848484848484,3.3417721518987342,anode-electrolyte interface,0.0120507377368548,0.0126628558205253,0.0113273493021576,-6.090974308799643e-06,high
400,8.585858585858587,3.3417721518987342,anode-electrolyte interface,0.0122145382602768,0.0128494022730633,0.0114610257688998,-2.888362567019295e-06,high
400,8.686868686868687,3.3417721518987342,anode-electrolyte interface,0.0121513760321531,0.0126067640900706,0.011637438597766,-4.436421243875264e-05,high
400,8.787878787878787,3.3417721518987342,anode-electrolyte interface,0.0123744079858502,0.0129809060861315,0.0116621647713996,2.1822668363761253e-05,high
400,8.88888888888889,3.3417721518987342,anode-electrolyte interface,0.0123602842083366,0.0129680007235493,0.0116460796766346,-3.0445489373187543e-05,high
400,8.98989898989899,3.3417721518987342,anode-electrolyte interface,0.0124212558239029,0.0130790797279706,0.0116372872705836,-3.569651431617733e-05,high
400,9.09090909090909,3.3417721518987342,anode-electrolyte interface,0.0125797349839899,0.0132088805433453,0.0118383448007706,-5.219879741255659e-06,high
400,9.191919191919192,3.3417721518987342,anode-electrolyte interface,0.0126198411853862,0.0131559012684784,0.0120049231994238,4.346709116976845e-06,high
400,9.292929292929292,3.3417721518987342,anode-electrolyte interface,0.0127830473338589,0.0134242895935354,0.0120269833994626,-6.492268596035197e-06,high
400,9.393939393939394,3.3417721518987342,anode-electrolyte interface,0.0129016655733211,0.0134996235676869,0.012206177452129,1.9756077861931697e-05,high
400,9.494949494949497,3.3417721518987342,anode-electrolyte interface,0.0130490224939112,0.0136624051598348,0.012333978463044,-1.2376901494104982e-05,high
400,9.595959595959595,3.3417721518987342,anode-electrolyte interface,0.0132276836686428,0.0138794560380907,0.0124616728624092,-9.40655015810057e-06,high
400,9.696969696969695,3.3417721518987342,anode-electrolyte interface,0.0133154634988715,0.0140373936511095,0.01244946137068,-8.573069857157432e-05,high
400,9.797979797979798,3.3417721518987342,anode-electrolyte interface,0.0134460778334461,0.0142251938705518,0.0125004535972959,-1.7360890230294124e-05,high
400,9.8989898989899,3.3417721518987342,anode-electrolyte interface,0.0135062638090804,0.0141759945597273,0.0127182759768699,-1.58707780836602e-06,high
400,10.0,3.3417721518987342,anode-electrolyte interface,0.0136864228559973,0.0142882713137443,0.0129920059413421,-3.8990929723967584e-05,high
400,0.0,3.4430379746835444,anode-electrolyte interface,0.0137371197178067,0.0144080728371249,0.0129493455059176,-4.265939594370247e-05,high
400,0.101010101010101,3.4430379746835444,anode-electrolyte interface,0.0135779316492694,0.0142527123681358,0.012779713163841,0.0001223728522079,high
400,0.202020202020202,3.4430379746835444,anode-electrolyte interface,0.0134341519447953,0.0141602102804902,0.0125657444136264,1.33397577302774e-05,high
400,0.303030303030303,3.4430379746835444,anode-electrolyte interface,0.0132653550687177,0.0139053125185025,0.0125160193705814,-1.0782898928095272e-05,high
400,0.404040404040404,3.4430379746835444,anode-electrolyte interface,0.0131194211389234,0.0137658202119558,0.012358129285073,-7.709600158331716e-05,high
400,0.5050505050505051,3.4430379746835444,anode-electrolyte interface,0.013015235286225,0.0136352251447717,0.0122895723866271,-6.947849946792801e-05,high
400,0.6060606060606061,3.4430379746835444,anode-electrolyte interface,0.0129036280809163,0.0135454508704942,0.0121441405214452,0.0001184457099912,high
400,0.7070707070707071,3.4430379746835444,anode-electrolyte interface,0.0128607532201538,0.0134819828910902,0.0121322897895179,-5.767307065287831e-05,high
400,0.8080808080808081,3.4430379746835444,anode-electrolyte interface,0.0126799143355136,0.0132037880619452,0.0120807637482456,4.898907544150755e-05,high
400,0.9090909090909092,3.4430379746835444,anode-electrolyte interface,0.0126684314854871,0.0132997159295388,0.0119238779971902,6.334073277063265e-05,high
400,1.0101010101010102,3.4430379746835444,anode-electrolyte interface,0.0124400734386444,0.0130161382200316,0.0117695726821422,-4.870556826399772e-05,high
400,1.1111111111111112,3.4430379746835444,anode-electrolyte interface,0.0124504747047473,0.0130618600799026,0.0117321472141078,2.89753952892313e-05,high
400,1.2121212121212122,3.4430379746835444,anode-electrolyte interface,0.0123882454551265,0.0129797082855947,0.0116969642651541,-1.7555399525106527e-06,high
400,1.3131313131313131,3.4430379746835444,anode-electrolyte interface,0.0122130860660009,0.0127840694663186,0.0115480517086945,1.4561522291818623e-05,high
400,1.414141414141414,3.4430379746835444,anode-electrolyte interface,0.0120893517461068,0.0127776979821971,0.0112570619983908,1.5847855203301556e-05,high
400,1.5151515151515151,3.4430379746835444,anode-electrolyte interface,0.0120750751944479,0.0127453363117564,0.0112676605985032,6.780281061407764e-05,high
400,1.616161616161616,3.4430379746835444,anode-electrolyte interface,0.0121097037027926,0.0127357179208935,0.0113643443932832,0.0001019376745144,high
400,1.7171717171717171,3.4430379746835444,anode-electrolyte interface,0.0119555803100313,0.0126015882127548,0.0111828350870695,-2.2783763004483023e-05,high
400,1.818181818181818,3.4430379746835444,anode-electrolyte interface,0.0119148955104881,0.0125877985019363,0.011102758788613,5.820339005359909e-06,high
400,1.9191919191919191,3.4430379746835444,anode-electrolyte interface,0.0119077890277002,0.0125451915671823,0.0111455793277592,-6.607398254584982e-05,high
400,2.0202020202020203,3.4430379746835444,anode-electrolyte interface,0.0118302121713037,0.0123349031467805,0.0112475845755796,0.0001061319427057,high
400,2.121212121212121,3.4430379746835444,anode-electrolyte interface,0.0116759813627,0.0122249128720473,0.0110354028720174,4.7497802027104624e-05,high
400,2.2222222222222223,3.4430379746835444,anode-electrolyte interface,0.0117755217363168,0.0122417074977479,0.0112435566807826,-9.358594725493942e-05,high
400,2.323232323232323,3.4430379746835444,anode-electrolyte interface,0.0116010261010719,0.0121402150569441,0.0109736952876455,-2.412757559264419e-06,high
400,2.4242424242424243,3.4430379746835444,anode-electrolyte interface,0.0114580793119336,0.0119124388642061,0.0109402686311815,-7.568647972803473e-05,high
400,2.525252525252525,3.4430379746835444,anode-electrolyte interface,0.0114918429358705,0.0120410446369114,0.0108494219787681,-3.7036793788280186e-05,high
400,2.6262626262626263,3.4430379746835444,anode-electrolyte interface,0.0114856293582223,0.0120846196894205,0.0107739571003359,2.9839706994692845e-05,high
400,2.727272727272727,3.4430379746835444,anode-electrolyte interface,0.0113786442272037,0.0118878364532908,0.0107895123906346,-3.301510789755019e-05,high
400,2.8282828282828283,3.4430379746835444,anode-electrolyte interface,0.0115277862184254,0.0120863792682463,0.0108718676467939,-6.658549829356881e-05,high
400,2.929292929292929,3.4430379746835444,anode-electrolyte interface,0.0114722567023001,0.0121018198126011,0.0107168579541616,-1.889069993853146e-05,high
400,3.0303030303030303,3.4430379746835444,anode-electrolyte interface,0.0113324489304045,0.0118542675588979,0.0107259244029525,-3.297874844484874e-05,high
400,3.131313131313131,3.4430379746835444,anode-electrolyte interface,0.0112407840248013,0.0118031772082222,0.0105765401769096,6.784572620728776e-05,high
400,3.2323232323232323,3.4430379746835444,anode-electrolyte interface,0.0113159764879048,0.0117845791806481,0.0107800672157964,-3.5232135058022204e-05,high
400,3.333333333333333,3.4430379746835444,anode-electrolyte interface,0.0112542232125827,0.0116900491112422,0.0107603496506967,-3.734149128277435e-05,high
400,3.4343434343434343,3.4430379746835444,anode-electrolyte interface,0.0112241575755035,0.0117015864985164,0.0106753987402869,5.6421624025626265e-05,high
400,3.5353535353535355,3.4430379746835444,anode-electrolyte interface,0.0112214854366605,0.011771014440272,0.0105740089365553,-8.583190063184758e-05,high
400,3.636363636363636,3.4430379746835444,anode-electrolyte interface,0.0112105303191846,0.0117080195368217,0.0106356543020099,-3.451804218933517e-05,high
400,3.7373737373737375,3.4430379746835444,anode-electrolyte interface,0.0111065866894927,0.0116088923305215,0.0105236963851901,5.81933463607872e-05,high
400,3.8383838383838382,3.4430379746835444,anode-electrolyte interface,0.0112238198391523,0.0118309006783129,0.0104976054112998,1.0464726482313063e-05,high
400,3.939393939393939,3.4430379746835444,anode-electrolyte interface,0.0111710656001739,0.0117213701761432,0.0105243126677415,-1.1479501972948774e-05,high
400,4.040404040404041,3.4430379746835444,anode-electrolyte interface,0.0110614034388113,0.0115178243476545,0.0105398770844964,-2.457832059795542e-05,high
400,4.141414141414141,3.4430379746835444,anode-electrolyte interface,0.011000490142974,0.0115069930450851,0.0104090163616579,-9.789740981179203e-05,high
400,4.242424242424242,3.4430379746835444,anode-electrolyte interface,0.0112507052294831,0.0117678479527741,0.0106496801036879,-3.765021516592195e-05,high
400,4.343434343434343,3.4430379746835444,anode-electrolyte interface,0.0111547881236052,0.0117417513218958,0.0104562699515997,-2.526000033567113e-05,high
400,4.444444444444445,3.4430379746835444,anode-electrolyte interface,0.0111010432196165,0.011632005109394,0.0104792908822593,-5.551392945097627e-05,high
400,4.545454545454545,3.4430379746835444,anode-electrolyte interface,0.0110700343652139,0.0116047702051376,0.0104437752840408,-6.816519536768322e-06,high
400,4.646464646464646,3.4430379746835444,anode-electrolyte interface,0.01107896955683,0.011608009389407,0.0104596046234339,5.640406708242205e-05,high
400,4.747474747474747,3.4430379746835444,anode-electrolyte interface,0.01103925750467,0.0115269676630332,0.0104741497861177,-8.484277638541102e-05,high
400,4.848484848484849,3.4430379746835444,anode-electrolyte interface,0.0110965086727309,0.0116305209769203,0.0104714002768597,-1.917766876203661e-05,high
400,4.94949494949495,3.4430379746835444,anode-electrolyte interface,0.0111706830084847,0.0118235539957891,0.0103738768832941,9.39887763889449e-05,high
400,5.05050505050505,3.4430379746835444,anode-electrolyte interface,0.0110261737166813,0.0115583168267635,0.0104030171416234,1.1851734238207091e-05,high
400,5.151515151515151,3.4430379746835444,anode-electrolyte interface,0.0110384051605586,0.0115032043502491,0.0105058587509022,-1.4721386140863396e-05,high
400,5.252525252525253,3.4430379746835444,anode-electrolyte interface,0.0110151227748078,0.011520124828605,0.0104284748625225,-3.604583847091279e-05,high
400,5.353535353535354,3.4430379746835444,anode-electrolyte interface,0.0110753528372199,0.0117172341691881,0.0102961188668706,-2.473842837699689e-05,high
400,5.454545454545454,3.4430379746835444,anode-electrolyte interface,0.011120686037263,0.0116360032433999,0.0105213620440967,1.4492136932256705e-05,high
400,5.555555555555555,3.4430379746835444,anode-electrolyte interface,0.0109519165135687,0.0113926568042037,0.0104489982135679,-6.35955700304878e-05,high
400,5.656565656565657,3.4430379746835444,anode-electrolyte interface,0.011111428637219,0.0117145722309249,0.0103892171698977,2.6111062084891262e-05,high
400,5.757575757575758,3.4430379746835444,anode-electrolyte interface,0.0112637583716487,0.0118518988213722,0.0105649539730025,-2.049448429466696e-05,high
400,5.858585858585858,3.4430379746835444,anode-electrolyte interface,0.0112128066976982,0.0118691946891926,0.0104095453691432,-0.0001204675476108,high
400,5.959595959595959,3.4430379746835444,anode-electrolyte interface,0.0110417256880129,0.0115260722313967,0.0104819450950092,6.794213658893917e-05,high
400,6.0606060606060606,3.4430379746835444,anode-electrolyte interface,0.0112302417837489,0.0117636276108092,0.0106060574774086,6.493926558377315e-05,high
400,6.161616161616162,3.4430379746835444,anode-electrolyte interface,0.0111872255547612,0.0118216760785269,0.0104206330353754,2.412278960095797e-05,high
400,6.262626262626262,3.4430379746835444,anode-electrolyte interface,0.01113090417528,0.0116112056633385,0.0105785959650101,-1.2800925622110383e-05,high
400,6.363636363636363,3.4430379746835444,anode-electrolyte interface,0.0113113570098934,0.0119214973074111,0.0105756088927058,-0.0001393901500613,high
400,6.4646464646464645,3.4430379746835444,anode-electrolyte interface,0.0111849458072853,0.0117005153805327,0.010584305698665,7.131395030524606e-05,high
400,6.565656565656566,3.4430379746835444,anode-electrolyte interface,0.011157973640165,0.0116643043172944,0.0105692785569213,-7.74872818635583e-05,high
400,6.666666666666667,3.4430379746835444,anode-electrolyte interface,0.0113098910758687,0.0118922564098069,0.0106195688152222,3.300061813315796e-05,high
400,6.767676767676767,3.4430379746835444,anode-electrolyte interface,0.0113311641384847,0.0119107385326919,0.0106447328441473,-4.4274420220473486e-05,high
400,6.8686868686868685,3.4430379746835444,anode-electrolyte interface,0.0113214937517102,0.0118557461910099,0.0106983040676965,7.545425421211245e-06,high
400,6.96969696969697,3.4430379746835444,anode-electrolyte interface,0.0111841944071596,0.0117088894675311,0.0105727694999048,3.93769097485194e-06,high
400,7.070707070707071,3.4430379746835444,anode-electrolyte interface,0.0114723551862705,0.0119505314502644,0.0109253081776169,1.4280297947083062e-05,high
400,7.171717171717171,3.4430379746835444,anode-electrolyte interface,0.0114206323886178,0.0119031433262582,0.0108668171923407,5.029830821178121e-05,high
400,7.272727272727272,3.4430379746835444,anode-electrolyte interface,0.0115297581020953,0.0121140589760692,0.0108394432507755,-1.845569483241724e-05,high
400,7.373737373737374,3.4430379746835444,anode-electrolyte interface,0.0114799643126234,0.0121213187904346,0.0107068702252574,5.009533384542935e-05,high
400,7.474747474747475,3.4430379746835444,anode-electrolyte interface,0.0115819548013259,0.0121094288455324,0.0109690701722993,6.34674804627941e-05,high
400,7.575757575757575,3.4430379746835444,anode-electrolyte interface,0.0114699148903168,0.0119302276119695,0.0109460164422871,2.455173950831056e-05,high
400,7.6767676767676765,3.4430379746835444,anode-electrolyte interface,0.0115474361575085,0.0120537688198859,0.0109616406089317,-8.45694898425729e-05,high
400,7.777777777777778,3.4430379746835444,anode-electrolyte interface,0.0117339283236791,0.0122636914128292,0.0111203636634298,-1.972473869668855e-05,high
400,7.878787878787879,3.4430379746835444,anode-electrolyte interface,0.011697143059948,0.0122259729712175,0.0110843456477789,-3.126513441656259e-05,high
400,7.979797979797979,3.4430379746835444,anode-electrolyte interface,0.0118431883100112,0.0125643639274361,0.0109579959384358,1.2142822664351483e-05,high
400,8.080808080808081,3.4430379746835444,anode-electrolyte interface,0.0117996495795006,0.0124410388874838,0.0110312121391879,3.8207935815274334e-05,high
400,8.181818181818182,3.4430379746835444,anode-electrolyte interface,0.0118534407998407,0.0124300108939017,0.0111772489143871,2.097973885361988e-05,high
400,8.282828282828282,3.4430379746835444,anode-electrolyte interface,0.0119120750067994,0.0124687723959896,0.0112591893522225,-0.000124057018658,high
400,8.383838383838384,3.4430379746835444,anode-electrolyte interface,0.0119154123868177,0.0124057212503966,0.0113550588416898,-4.268520041925091e-05,high
400,8.484848484848484,3.4430379746835444,anode-electrolyte interface,0.0120970984599957,0.0126927070627618,0.011397170484514,1.1969697318986838e-05,high
400,8.585858585858587,3.4430379746835444,anode-electrolyte interface,0.0122208164874723,0.012877469410928,0.0114345325991227,7.841174264009661e-05,high
400,8.686868686868687,3.4430379746835444,anode-electrolyte interface,0.0122193886467702,0.0127343322209872,0.0116283243702027,-6.126399501652379e-05,high
400,8.787878787878787,3.4430379746835444,anode-electrolyte interface,0.0122800518754716,0.012773315158113,0.0117186168018355,-2.3803462885188864e-05,high
400,8.88888888888889,3.4430379746835444,anode-electrolyte interface,0.0123632255088219,0.0129837556303691,0.0116308705892649,4.71364971052183e-05,high
400,8.98989898989899,3.4430379746835444,anode-electrolyte interface,0.0125345373453691,0.0131457902578911,0.0118164222978537,-6.10959983055389e-05,high
400,9.09090909090909,3.4430379746835444,anode-electrolyte interface,0.0125480515577963,0.0131823218470968,0.0117991154973134,1.4143247871710606e-05,high
400,9.191919191919192,3.4430379746835444,anode-electrolyte interface,0.0127120802512137,0.0133981254707576,0.0118917240661114,-1.758806403314312e-05,high
400,9.292929292929292,3.4430379746835444,anode-electrolyte interface,0.0128629403267653,0.0135041123301127,0.0121063154195706,7.383386112717603e-05,high
400,9.393939393939394,3.4430379746835444,anode-electrolyte interface,0.0129000170599319,0.0135397410065464,0.0121472933134244,1.039509713255328e-05,high
400,9.494949494949497,3.4430379746835444,anode-electrolyte interface,0.0130965250389601,0.0135881521778183,0.0125404771444828,8.048457191486004e-05,high
400,9.595959595959595,3.4430379746835444,anode-electrolyte interface,0.0132274477993653,0.0137155036119989,0.0126757117087493,0.0001007279452495,high
400,9.696969696969695,3.4430379746835444,anode-electrolyte interface,0.0132488991177845,0.0139421874219203,0.0124180061489284,0.0001591960482909,high
400,9.797979797979798,3.4430379746835444,anode-electrolyte interface,0.0132865993915774,0.0139719316745544,0.0124743379514053,-1.0628425956774488e-05,high
400,9.8989898989899,3.4430379746835444,anode-electrolyte interface,0.0135064160890013,0.0141765378166307,0.0127150591702061,0.0001030187169948,high
400,10.0,3.4430379746835444,anode-electrolyte interface,0.0137227604696412,0.0143148569900079,0.0130414686005082,4.426797443414546e-05,high
400,0.0,4.556962025316456,electrolyte,0.0137711976596116,0.0144584944316165,0.0129604512829335,6.617904815316471e-05,high
400,0.101010101010101,4.556962025316456,electrolyte,0.013571342416549,0.0142269290448871,0.0128035437503729,-8.18190932040031e-06,high
400,0.202020202020202,4.556962025316456,electrolyte,0.0134182028842729,0.0140845514274792,0.0126335930679238,-3.828491142554768e-05,high
400,0.303030303030303,4.556962025316456,electrolyte,0.0133361501098673,0.0139319586003312,0.012643089794823,-0.0001274275655122,high
400,0.404040404040404,4.556962025316456,electrolyte,0.0130356282626338,0.0136649097634509,0.0122982451697725,4.251116020641092e-05,high
400,0.5050505050505051,4.556962025316456,electrolyte,0.0131052881219224,0.0137545476287095,0.0123412782186604,-2.9139180388784344e-05,high
400,0.6060606060606061,4.556962025316456,electrolyte,0.0130114911998398,0.0137135687872925,0.0121703594472482,-7.820215341356476e-05,high
400,0.7070707070707071,4.556962025316456,electrolyte,0.0128745189680228,0.0135107742289692,0.0121259592908145,-3.841855964611383e-05,high
400,0.8080808080808081,4.556962025316456,electrolyte,0.0126701932484802,0.0133782449328756,0.0118146929635048,-9.873520213205832e-05,high
400,0.9090909090909092,4.556962025316456,electrolyte,0.0125897042172294,0.0130337071489614,0.0120928036244163,2.0750777341511302e-05,high
400,1.0101010101010102,4.556962025316456,electrolyte,0.012416808570958,0.0130092061661399,0.0117177732681859,0.00015319693642,high
400,1.1111111111111112,4.556962025316456,electrolyte,0.0124182721816406,0.0130328360100634,0.0116936240854313,7.939422623618465e-05,high
400,1.2121212121212122,4.556962025316456,electrolyte,0.0122005036716316,0.0127818403593939,0.0115205471846901,-5.044601526804924e-05,high
400,1.3131313131313131,4.556962025316456,electrolyte,0.0123016278157047,0.0129083557333518,0.0115884552774632,-1.481118120608729e-06,high
400,1.414141414141414,4.556962025316456,electrolyte,0.012083202464991,0.0127062056787993,0.0113433863721703,-7.09577540021374e-05,high
400,1.5151515151515151,4.556962025316456,electrolyte,0.0120478000864649,0.0125918406015309,0.0114176206951681,2.472982429144464e-05,high
400,1.616161616161616,4.556962025316456,electrolyte,0.0120825196879771,0.0127625419633154,0.0112623597759654,-1.1491567910867127e-05,high
400,1.7171717171717171,4.556962025316456,electrolyte,0.0118918727187394,0.0124739524490473,0.0112076219200918,5.686490425833658e-05,high
400,1.818181818181818,4.556962025316456,electrolyte,0.0117434088845853,0.0123370557949773,0.0110424757748795,5.001757973820894e-06,high
400,1.9191919191919191,4.556962025316456,electrolyte,0.0118528768661899,0.0125291617838705,0.0110341740453162,4.743381873981805e-05,high
400,2.0202020202020203,4.556962025316456,electrolyte,0.0117825351222995,0.0123798095987269,0.0110755741140939,-6.734235857178607e-05,high
400,2.121212121212121,4.556962025316456,electrolyte,0.0117180489152025,0.0122353529199743,0.0111205459946552,-4.498514912915087e-05,high
400,2.2222222222222223,4.556962025316456,electrolyte,0.0115877482729203,0.0120715256632211,0.0110338846616664,-3.3612151241346015e-05,high
400,2.323232323232323,4.556962025316456,electrolyte,0.0115404545185337,0.0121017689961445,0.0108819580549545,3.2706550332447794e-05,high
400,2.4242424242424243,4.556962025316456,electrolyte,0.0115683974285584,0.0120835645726215,0.0109720668657293,5.975908714842374e-05,high
400,2.525252525252525,4.556962025316456,electrolyte,0.011523400958073,0.0120709704465252,0.0108825806566224,-6.630701259599204e-05,high
400,2.6262626262626263,4.556962025316456,electrolyte,0.0113949693115106,0.0118906912517344,0.0108241514501896,-1.9794829052983325e-05,high
400,2.727272727272727,4.556962025316456,electrolyte,0.0114527119682895,0.0121308083875805,0.0106228150940418,9.5277161875437e-05,high
400,2.8282828282828283,4.556962025316456,electrolyte,0.0113395347646035,0.0118775476916008,0.0107093553096956,-8.061596058096301e-05,high
400,2.929292929292929,4.556962025316456,electrolyte,0.0113249339659461,0.011905083121611,0.0106370189518402,6.204247624055391e-05,high
400,3.0303030303030303,4.556962025316456,electrolyte,0.011344759070355,0.0118634377357064,0.0107427491773951,-2.366110263850429e-05,high
400,3.131313131313131,4.556962025316456,electrolyte,0.0112287197419375,0.0118457598323454,0.0104864224360627,7.462619720424907e-05,high
400,3.2323232323232323,4.556962025316456,electrolyte,0.0114290879771283,0.0120401897729804,0.0106997634058351,-6.511808640155684e-06,high
400,3.333333333333333,4.556962025316456,electrolyte,0.0112881096556225,0.0118863030555313,0.0105740933292416,-6.492914792304376e-05,high
400,3.4343434343434343,4.556962025316456,electrolyte,0.011182378969865,0.0116612070844282,0.0106302582505285,8.38671711615246e-05,high
400,3.5353535353535355,4.556962025316456,electrolyte,0.0113059683156233,0.0119755992755108,0.0104888216251149,3.8674356159551087e-05,high
400,3.636363636363636,4.556962025316456,electrolyte,0.0112018329292312,0.0117720212897766,0.0105275892048013,2.195078850522942e-05,high
400,3.7373737373737375,4.556962025316456,electrolyte,0.0111165510437651,0.0116287141850962,0.0105210175188094,-4.003973654457031e-05,high
400,3.8383838383838382,4.556962025316456,electrolyte,0.0112803917581921,0.0117298703167837,0.0107692645536414,2.827345490794222e-05,high
400,3.939393939393939,4.556962025316456,electrolyte,0.0111489354472988,0.0116734494604237,0.0105374336414847,-3.194303083124936e-06,high
400,4.040404040404041,4.556962025316456,electrolyte,0.0111416762669006,0.0117627497701303,0.0103939691417224,-2.4024259789852485e-05,high
400,4.141414141414141,4.556962025316456,electrolyte,0.011086058699105,0.0114744770788355,0.0106517692598486,-1.1061998038399588e-05,high
400,4.242424242424242,4.556962025316456,electrolyte,0.0110937530360098,0.0115872094973348,0.0105233918657131,-3.1103590693550426e-05,high
400,4.343434343434343,4.556962025316456,electrolyte,0.0111753583155593,0.0116765207948967,0.0105927772601676,-9.54803261011184e-05,high
400,4.444444444444445,4.556962025316456,electrolyte,0.0111089447191227,0.0116286203750725,0.010503110080032,4.163119820252495e-05,high
400,4.545454545454545,4.556962025316456,electrolyte,0.0111114775783085,0.0117169823995382,0.010385590386097,3.894233807886158e-05,high
400,4.646464646464646,4.556962025316456,electrolyte,0.0112539132716052,0.0117916588730211,0.0106248718773935,3.789144083883349e-05,high
400,4.747474747474747,4.556962025316456,electrolyte,0.0109679012082077,0.0114626786638415,0.0103947936288487,-2.768465641516465e-05,high
400,4.848484848484849,4.556962025316456,electrolyte,0.0111563536798774,0.0116018757674364,0.0106483014434418,6.9887905743332e-05,high
400,4.94949494949495,4.556962025316456,electrolyte,0.0110781517911308,0.0116198876342142,0.0104403819885883,7.7777403747582e-05,high
400,5.05050505050505,4.556962025316456,electrolyte,0.0111019853676654,0.0116299200591656,0.0104851781893747,2.4906537760101543e-05,high
400,5.151515151515151,4.556962025316456,electrolyte,0.0111438461884956,0.0117324248028984,0.0104397251520064,-0.000101563078247,high
400,5.252525252525253,4.556962025316456,electrolyte,0.0111423969846985,0.0117178023665226,0.0104602648109496,9.901258226961014e-06,high
400,5.353535353535354,4.556962025316456,electrolyte,0.0110506606054082,0.0116016431119042,0.0103990806742555,-9.040782573734126e-05,high
400,5.454545454545454,4.556962025316456,electrolyte,0.0111141763449435,0.0116876111358977,0.0104345046332469,-8.314052436376712e-06,high
400,5.555555555555555,4.556962025316456,electrolyte,0.0111771316521804,0.0117156995114548,0.0105456176303873,5.742543412568386e-05,high
400,5.656565656565657,4.556962025316456,electrolyte,0.0111024044813707,0.0116133672425706,0.0105082822786258,4.33255126732556e-05,high
400,5.757575757575758,4.556962025316456,electrolyte,0.0111360441478774,0.0116332836892897,0.0105600724361997,6.158582076036642e-05,high
400,5.858585858585858,4.556962025316456,electrolyte,0.0110155783302293,0.0115756669967302,0.0103518779933556,7.167980369331486e-05,high
400,5.959595959595959,4.556962025316456,electrolyte,0.0111167122405422,0.0116301677828209,0.0105194539620146,3.912069102858759e-05,high
400,6.0606060606060606,4.556962025316456,electrolyte,0.0110935551778839,0.0115882585955305,0.0105216319637684,-2.5047089137735285e-05,high
400,6.161616161616162,4.556962025316456,electrolyte,0.011183272844909,0.0117537659641699,0.0105085246672554,-8.680793170582211e-06,high
400,6.262626262626262,4.556962025316456,electrolyte,0.0112363362999955,0.011757425063995,0.0106300906331224,-2.5009899067613697e-05,high
400,6.363636363636363,4.556962025316456,electrolyte,0.0110921564072445,0.0116603397945836,0.0104190094370302,4.412991217681408e-05,high
400,6.4646464646464645,4.556962025316456,electrolyte,0.0113093951859278,0.01175270157863,0.0108034137889602,-0.0001032373830315,high
400,6.565656565656566,4.556962025316456,electrolyte,0.0112612013192607,0.0116436693449769,0.0108350331707205,2.0158611684968867e-05,high
400,6.666666666666667,4.556962025316456,electrolyte,0.0111844153969368,0.0117484955520504,0.0105178366072185,-5.121762601161005e-05,high
400,6.767676767676767,4.556962025316456,electrolyte,0.0111568001353962,0.0116788949623919,0.0105473835482206,6.347333573358155e-05,high
400,6.8686868686868685,4.556962025316456,electrolyte,0.011271056386242,0.0117024532216862,0.0107831417444219,-2.8086905062040265e-05,high
400,6.96969696969697,4.556962025316456,electrolyte,0.0113814825471548,0.0119269185195462,0.0107435110494106,1.5392970830478364e-05,high
400,7.070707070707071,4.556962025316456,electrolyte,0.0113338463291133,0.0118742094578846,0.010702174495667,-2.9126407922535786e-05,high
400,7.171717171717171,4.556962025316456,electrolyte,0.0113707853582636,0.0119045807705284,0.0107486600136386,1.025605809429889e-05,high
400,7.272727272727272,4.556962025316456,electrolyte,0.0114433464116868,0.0120113966467465,0.0107737574598541,-5.930743287338521e-05,high
400,7.373737373737374,4.556962025316456,electrolyte,0.0115903185447246,0.0122396699763605,0.0108078038203672,-2.074728066946884e-05,high
400,7.474747474747475,4.556962025316456,electrolyte,0.0114742132054468,0.012005667012056,0.0108553898177989,-5.239472576458608e-05,high
400,7.575757575757575,4.556962025316456,electrolyte,0.0114633075284348,0.0119382048839343,0.0109203986843232,2.2606221908551064e-05,high
400,7.6767676767676765,4.556962025316456,electrolyte,0.0116464502271462,0.0121776100453943,0.0110303712812632,-5.353887353637124e-06,high
400,7.777777777777778,4.556962025316456,electrolyte,0.0115281278611115,0.0121008793611678,0.0108535238809879,-3.938341788305886e-05,high
400,7.878787878787879,4.556962025316456,electrolyte,0.0116706689473695,0.0123149325971489,0.0108965840288188,-2.6477435275471263e-05,high
400,7.979797979797979,4.556962025316456,electrolyte,0.0117721583969829,0.0123586484129009,0.0110806042582591,-5.484594218682708e-05,high
400,8.080808080808081,4.556962025316456,electrolyte,0.0118609088287783,0.0123535281751695,0.0112965408463893,6.271736486467144e-05,high
400,8.181818181818182,4.556962025316456,electrolyte,0.0120125130481606,0.0126414272055437,0.0112650143307278,-5.735822162093343e-06,high
400,8.282828282828282,4.556962025316456,electrolyte,0.0120423769099841,0.0126501272870927,0.0113243025548627,4.885920234712968e-05,high
400,8.383838383838384,4.556962025316456,electrolyte,0.0120515506260534,0.0126192579466275,0.0113895296390469,-8.724982731809276e-06,high
400,8.484848484848484,4.556962025316456,electrolyte,0.0121833178335966,0.0127639203742159,0.0115045680250496,3.593922461901073e-05,high
400,8.585858585858587,4.556962025316456,electrolyte,0.0121027638365863,0.0126827165490409,0.0114238432985845,4.748391608493406e-05,high
400,8.686868686868687,4.556962025316456,electrolyte,0.0121610444288474,0.0128409898487476,0.011340769975264,-6.740376413505809e-05,high
400,8.787878787878787,4.556962025316456,electrolyte,0.0123664490848695,0.0128785017339506,0.0117786961242186,-9.579862567811024e-05,high
400,8.88888888888889,4.556962025316456,electrolyte,0.0123307714709768,0.0129581259201555,0.0115885742702817,4.490255523084898e-05,high
400,8.98989898989899,4.556962025316456,electrolyte,0.0124867036009963,0.0130548824048595,0.0118267613089917,6.456850054903661e-05,high
400,9.09090909090909,4.556962025316456,electrolyte,0.0125729547323187,0.0132668602643359,0.0117394545301559,-1.31604587676192e-05,high
400,9.191919191919192,4.556962025316456,electrolyte,0.012748878068901,0.0133438543774521,0.012049899710608,0.0001499625893347,high
400,9.292929292929292,4.556962025316456,electrolyte,0.0128137540078719,0.0134080249690118,0.0121174163692172,0.000136625983393,high
400,9.393939393939394,4.556962025316456,electrolyte,0.012916998858506,0.0135649715251165,0.0121529553863517,1.3858482840180944e-05,high
400,9.494949494949497,4.556962025316456,electrolyte,0.0130438132158131,0.0137431485623254,0.0122083253627496,-3.895209704554333e-05,high
400,9.595959595959595,4.556962025316456,electrolyte,0.0131551984023811,0.013670435270682,0.0125687726068808,9.127253495392608e-05,high
400,9.696969696969695,4.556962025316456,electrolyte,0.0133198049258596,0.0140332812065649,0.0124672656843376,5.213259322943788e-05,high
400,9.797979797979798,4.556962025316456,electrolyte,0.0134182774709376,0.0140763971848588,0.0126445629753926,5.811027759869413e-05,high
400,9.8989898989899,4.556962025316456,electrolyte,0.013564665678725,0.0143727617252382,0.0125771787174081,-4.91384320986472e-05,high
400,10.0,4.556962025316456,electrolyte,0.0136111021226407,0.014291691681023,0.0128089549016059,-2.555012092261926e-05,high
400,0.0,4.658227848101266,electrolyte,0.0136773315244527,0.0142773173270581,0.0129847080092047,6.261558532857712e-05,high
400,0.101010101010101,4.658227848101266,electrolyte,0.013608683892275,0.0142241141419942,0.0128958421925254,3.633386516554376e-06,high
400,0.202020202020202,4.658227848101266,electrolyte,0.0133039246697543,0.0139398356708244,0.0125605300992666,8.210492228303852e-06,high
400,0.303030303030303,4.658227848101266,electrolyte,0.0131680674055659,0.0137958913764938,0.0124343851541783,-1.7059538794912583e-05,high
400,0.404040404040404,4.658227848101266,electrolyte,0.013149903084345,0.0138214412605748,0.0123553311267651,2.5747360193067216e-05,high
400,0.5050505050505051,4.658227848101266,electrolyte,0.013047247931311,0.0137578839340159,0.0121952913974343,5.026449480649376e-05,high
400,0.6060606060606061,4.658227848101266,electrolyte,0.0130541416820277,0.0137692445887921,0.0121951372219402,-7.064901343604775e-05,high
400,0.7070707070707071,4.658227848101266,electrolyte,0.0127970869018694,0.0133953603881521,0.0121002737264358,1.4791345958986732e-05,high
400,0.8080808080808081,4.658227848101266,electrolyte,0.0127576389286521,0.0133884351292897,0.0120145505905847,-6.772768649604524e-05,high
400,0.9090909090909092,4.658227848101266,electrolyte,0.0126459726603634,0.0132244308601637,0.0119745324152264,-2.58353507867915e-05,high
400,1.0101010101010102,4.658227848101266,electrolyte,0.0125145540067202,0.0131277291231293,0.0117936141549645,-6.007559059831384e-05,high
400,1.1111111111111112,4.658227848101266,electrolyte,0.0124075943719021,0.0129255236818593,0.0118140853766713,5.733723556021733e-05,high
400,1.2121212121212122,4.658227848101266,electrolyte,0.0123482287603027,0.0129459385593067,0.0116475847073697,3.703514546739325e-05,high
400,1.3131313131313131,4.658227848101266,electrolyte,0.0121925325663373,0.0128448641623782,0.0114138553187125,1.4639360720912031e-05,high
400,1.414141414141414,4.658227848101266,electrolyte,0.0119577091436342,0.0125205166725226,0.0113010979986906,-3.759499631732826e-05,high
400,1.5151515151515151,4.658227848101266,electrolyte,0.01208035812043,0.0127170705382417,0.0113218074938991,5.186146489334447e-05,high
400,1.616161616161616,4.658227848101266,electrolyte,0.0120162018844372,0.0126349015307831,0.0112817048875927,7.008618104778716e-05,high
400,1.7171717171717171,4.658227848101266,electrolyte,0.0118734203287724,0.01242071524717,0.0112372384145841,-3.1381408127158666e-05,high
400,1.818181818181818,4.658227848101266,electrolyte,0.0118449164656781,0.0123922420394301,0.0112073227159177,-6.869392502011145e-05,high
400,1.9191919191919191,4.658227848101266,electrolyte,0.0118694676311,0.0125220490613242,0.0110858593276303,-3.626985450985689e-05,high
400,2.0202020202020203,4.658227848101266,electrolyte,0.0117593643826443,0.0122283028866101,0.0112263029046614,2.1988594484178567e-06,high
400,2.121212121212121,4.658227848101266,electrolyte,0.0116234095360137,0.0121044664701006,0.0110735870670378,-1.891684907256203e-05,high
400,2.2222222222222223,4.658227848101266,electrolyte,0.0116393101495341,0.0120914768532651,0.0111270835517624,-1.4295763736878593e-05,high
400,2.323232323232323,4.658227848101266,electrolyte,0.0116768949733095,0.0121280956694724,0.0111632956199466,9.919646636990122e-05,high
400,2.4242424242424243,4.658227848101266,electrolyte,0.0115457733048362,0.0121739627199643,0.0107928570012254,-4.316412673534501e-05,high
400,2.525252525252525,4.658227848101266,electrolyte,0.0114824825617148,0.0120340952101736,0.0108369329717307,2.2547629982160395e-05,high
400,2.6262626262626263,4.658227848101266,electrolyte,0.011453007337258,0.0119928341788268,0.0108233789155387,-1.5946428934381323e-05,high
400,2.727272727272727,4.658227848101266,electrolyte,0.0114383571599984,0.011986001058649,0.0107948170684608,-0.0001006750725717,high
400,2.8282828282828283,4.658227848101266,electrolyte,0.0112908196218637,0.0118063728617212,0.0106920701541127,4.60807484862012e-05,high
400,2.929292929292929,4.658227848101266,electrolyte,0.0114408704279948,0.0119614328408939,0.0108358195668395,-6.972059151461973e-05,high
400,3.0303030303030303,4.658227848101266,electrolyte,0.0112814593180348,0.0118748614256367,0.0105746818860766,-5.156061815362242e-05,high
400,3.131313131313131,4.658227848101266,electrolyte,0.0113278278605531,0.0119245041157337,0.0106177003457476,-1.946340651282914e-05,high
400,3.2323232323232323,4.658227848101266,electrolyte,0.0112584841367779,0.0117916417097458,0.010636016088024,-2.518962371097764e-05,high
400,3.333333333333333,4.658227848101266,electrolyte,0.0111490640185078,0.0117478666905843,0.0104336985796607,-1.7230413269208273e-05,high
400,3.4343434343434343,4.658227848101266,electrolyte,0.0112526971583603,0.0118337151798573,0.0105588634941491,-0.0001256493858103,high
400,3.5353535353535355,4.658227848101266,electrolyte,0.0110302712419586,0.011559124459371,0.010411388774169,3.187387945926078e-05,high
400,3.636363636363636,4.658227848101266,electrolyte,0.0112265611385055,0.0118709168677066,0.0104447432831534,-6.589052656554602e-05,high
400,3.7373737373737375,4.658227848101266,electrolyte,0.0112064915342421,0.0117496963310863,0.0105697589079282,-2.4102029793179118e-05,high
400,3.8383838383838382,4.658227848101266,electrolyte,0.0111338586855106,0.0116710812298633,0.0105034208368907,-6.608241524384102e-05,high
400,3.939393939393939,4.658227848101266,electrolyte,0.0111252627238546,0.0116107300732455,0.0105660748227151,1.0382390010705112e-05,high
400,4.040404040404041,4.658227848101266,electrolyte,0.0110883028963248,0.0116176449940775,0.0104696350863161,-3.200102525721121e-06,high
400,4.141414141414141,4.658227848101266,electrolyte,0.0111411880002799,0.0116634736192319,0.010532391887726,2.8572972832666227e-05,high
400,4.242424242424242,4.658227848101266,electrolyte,0.0111524554488509,0.0117311706558973,0.0104656015836656,2.476063679104144e-05,high
400,4.343434343434343,4.658227848101266,electrolyte,0.0111146547807175,0.0116605441433773,0.0104731156692384,-3.335132921437691e-05,high
400,4.444444444444445,4.658227848101266,electrolyte,0.0111614060941974,0.0116343147627857,0.0106188591586456,-2.9922356382327867e-05,high
400,4.545454545454545,4.658227848101266,electrolyte,0.0111423105199744,0.0116297196022792,0.0105783795090705,-8.598487262082064e-05,high
400,4.646464646464646,4.658227848101266,electrolyte,0.0110439340997572,0.0115165603452347,0.0104987988973012,8.677745795338549e-05,high
400,4.747474747474747,4.658227848101266,electrolyte,0.0109516040530572,0.0114539372201892,0.0103682399054017,-2.397022646549801e-05,high
400,4.848484848484849,4.658227848101266,electrolyte,0.0110461289530646,0.011653545010203,0.0103166718711014,-3.621717964432184e-05,high
400,4.94949494949495,4.658227848101266,electrolyte,0.0110975014448366,0.0116802306666759,0.0104019172958289,8.880663094287225e-05,high
400,5.05050505050505,4.658227848101266,electrolyte,0.0111453194225472,0.011669360093051,0.0105317893029608,-9.098704623871236e-05,high
400,5.151515151515151,4.658227848101266,electrolyte,0.0110623500812513,0.0116176738481357,0.0104075137779468,6.53838987860303e-07,high
400,5.252525252525253,4.658227848101266,electrolyte,0.011122554097286,0.0117317613875813,0.0103916469462494,-3.152001375436697e-05,high
400,5.353535353535354,4.658227848101266,electrolyte,0.0111300837661912,0.0116684311724934,0.0104992993450055,-2.2683663608090424e-05,high
400,5.454545454545454,4.658227848101266,electrolyte,0.0111168086682617,0.0115806298194912,0.0105858472685841,3.1958827708193456e-05,high
400,5.555555555555555,4.658227848101266,electrolyte,0.0111708740780687,0.0117842940590471,0.0104339910693973,5.128525766200376e-05,high
400,5.656565656565657,4.658227848101266,electrolyte,0.0111329661274203,0.0117088014117701,0.0104497820638366,3.357625190594904e-05,high
400,5.757575757575758,4.658227848101266,electrolyte,0.0110961074692057,0.0116731227626467,0.0104102525063505,5.3554293778702736e-05,high
400,5.858585858585858,4.658227848101266,electrolyte,0.0111881798728034,0.0118010649965068,0.0104513240176855,7.486459784918741e-05,high
400,5.959595959595959,4.658227848101266,electrolyte,0.0110931751743194,0.0116920331284945,0.0103769025928345,2.5021562233166707e-05,high
400,6.0606060606060606,4.658227848101266,electrolyte,0.0110433747916943,0.0115791058421708,0.010415422686014,-1.512866598521434e-05,high
400,6.161616161616162,4.658227848101266,electrolyte,0.0111289865796908,0.0116359156122713,0.0105409752417924,-2.2726573989611364e-05,high
400,6.262626262626262,4.658227848101266,electrolyte,0.0113655934150432,0.0119184752622632,0.0107161815972561,5.9605218844540345e-05,high
400,6.363636363636363,4.658227848101266,electrolyte,0.0112631033022592,0.0117927431830184,0.0106451823192318,3.957623091335727e-05,high
400,6.4646464646464645,4.658227848101266,electrolyte,0.0112886818340903,0.0118537371024837,0.0106226734681618,1.2127962869897562e-05,high
400,6.565656565656566,4.658227848101266,electrolyte,0.0111723605629934,0.0116635739706414,0.0106058654770378,1.4104112723817284e-05,high
400,6.666666666666667,4.658227848101266,electrolyte,0.0112402773569452,0.0118605973196158,0.0104904356103561,0.0001206364645553,high
400,6.767676767676767,4.658227848101266,electrolyte,0.0113863447112601,0.0120021190091268,0.0106497860652368,-3.7289765629687098e-06,high
400,6.8686868686868685,4.658227848101266,electrolyte,0.011277171390465,0.0117185550674197,0.0107752075470396,-7.03017848414475e-05,high
400,6.96969696969697,4.658227848101266,electrolyte,0.0112176617884486,0.0117695436422259,0.0105687217797128,-4.05406201996978e-05,high
400,7.070707070707071,4.658227848101266,electrolyte,0.0113651842102418,0.0119160133924092,0.0107197040770321,-6.293120447347105e-06,high
400,7.171717171717171,4.658227848101266,electrolyte,0.0112797207191894,0.0117743703637896,0.0107094050271842,-2.196336982951156e-05,high
400,7.272727272727272,4.658227848101266,electrolyte,0.0113657507752313,0.0119253290238656,0.0107076058829527,-4.365709055308868e-05,high
400,7.373737373737374,4.658227848101266,electrolyte,0.0115610644042421,0.0122349107580365,0.0107422137110988,-3.632540308274715e-06,high
400,7.474747474747475,4.658227848101266,electrolyte,0.011612488812164,0.0121420956675203,0.0109934457583826,-0.0001252060766553,high
400,7.575757575757575,4.658227848101266,electrolyte,0.0116369568884071,0.0122295480213921,0.0109358210382623,4.036324643957643e-05,high
400,7.6767676767676765,4.658227848101266,electrolyte,0.0116491009899815,0.0121340229548596,0.0110920193889152,9.122237025021122e-05,high
400,7.777777777777778,4.658227848101266,electrolyte,0.0117033872077122,0.0123184912074654,0.0109714827299829,-3.0148261854610146e-05,high
400,7.878787878787879,4.658227848101266,electrolyte,0.0117180866185934,0.0124397332178678,0.010824428331385,-0.0001308223301561,high
400,7.979797979797979,4.658227848101266,electrolyte,0.0118521949882798,0.012450412299025,0.0111455119832843,4.2979571008385055e-05,high
400,8.080808080808081,4.658227848101266,electrolyte,0.0116726330818275,0.012177581541761,0.011091461201631,-3.4314572165881233e-05,high
400,8.181818181818182,4.658227848101266,electrolyte,0.0119588298763036,0.0125478576129578,0.0112666074073777,-8.64854902181228e-06,high
400,8.282828282828282,4.658227848101266,electrolyte,0.0119103182733549,0.0124702105018232,0.0112576612474642,-2.339998068186121e-07,high
400,8.383838383838384,4.658227848101266,electrolyte,0.0120124489944458,0.0126345187702446,0.0112732454293041,-6.790865750063334e-05,high
400,8.484848484848484,4.658227848101266,electrolyte,0.0120150993277391,0.0125698483606954,0.0113703734796418,6.883770266373951e-07,high
400,8.585858585858587,4.658227848101266,electrolyte,0.0120741756012837,0.0125150325263524,0.0115772822855714,7.365814247947806e-05,high
400,8.686868686868687,4.658227848101266,electrolyte,0.0122907701910052,0.0129023443688268,0.0115706646565812,-1.78983860649415e-05,high
400,8.787878787878787,4.658227848101266,electrolyte,0.0123186075883696,0.0127748372441694,0.01180499829271,-1.382591048097114e-05,high
400,8.88888888888889,4.658227848101266,electrolyte,0.012400129935351,0.0128990557989697,0.0118322766426151,-1.6333214459571295e-06,high
400,8.98989898989899,4.658227848101266,electrolyte,0.0125118397207116,0.0131286723918926,0.0117867992827891,1.2694133906105868e-05,high
400,9.09090909090909,4.658227848101266,electrolyte,0.0126140039157964,0.0131780482068414,0.0119617730490922,1.7773089533218866e-05,high
400,9.191919191919192,4.658227848101266,electrolyte,0.012658457262135,0.0132571580194385,0.0119593433128238,4.208379645145585e-05,high
400,9.292929292929292,4.658227848101266,electrolyte,0.0127503277493223,0.0133460724194478,0.0120564629821021,-2.1111866512092444e-05,high
400,9.393939393939394,4.658227848101266,electrolyte,0.0128693360168472,0.013490703593937,0.0121405899089239,-6.298845192366386e-05,high
400,9.494949494949497,4.658227848101266,electrolyte,0.0129477152572232,0.0134381618064859,0.0123939914979683,1.3851245814650297e-05,high
400,9.595959595959595,4.658227848101266,electrolyte,0.0131402723529409,0.0138622001926389,0.0122727473997323,6.612099970876638e-05,high
400,9.696969696969695,4.658227848101266,electrolyte,0.0132753976359715,0.0138699005099213,0.0125858930138296,8.645463705928106e-05,high
400,9.797979797979798,4.658227848101266,electrolyte,0.0135919303395171,0.0142234322138823,0.0128558397121695,-7.324935714554822e-05,high
400,9.8989898989899,4.658227848101266,electrolyte,0.0136335748531329,0.0142907721428374,0.0128587594432778,0.0001438768696201,high
400,10.0,4.658227848101266,electrolyte,0.0136556755548808,0.0142777741941954,0.0129306579723751,-0.000117952014443,high
400,0.0,4.759493670886076,electrolyte,0.0137836351144997,0.0144494349682067,0.0130038976381219,3.896226406528007e-06,high
400,0.101010101010101,4.759493670886076,electrolyte,0.0135686612000091,0.0141971016475457,0.0128375493560154,-3.7377419615807445e-05,high
400,0.202020202020202,4.759493670886076,electrolyte,0.01334185368373,0.014073234732773,0.0124630846320688,7.429860864811127e-05,high
400,0.303030303030303,4.759493670886076,electrolyte,0.0133155832995022,0.0139305091982904,0.0126005513375232,3.5936906133335835e-05,high
400,0.404040404040404,4.759493670886076,electrolyte,0.0132277809906481,0.0138425629094757,0.0125118329487287,-5.004332287611655e-05,high
400,0.5050505050505051,4.759493670886076,electrolyte,0.0128906291949471,0.0135035869827089,0.0121741302600313,4.632838937758487e-05,high
400,0.6060606060606061,4.759493670886076,electrolyte,0.0128143167857357,0.0133918411658554,0.0121427721374853,0.0001040279917087,high
400,0.7070707070707071,4.759493670886076,electrolyte,0.0129441090476486,0.013608922802683,0.0121567995681833,1.080583402092435e-05,high
400,0.8080808080808081,4.759493670886076,electrolyte,0.0126519399158576,0.0132650883415007,0.0119334549782355,7.560190958016869e-07,high
400,0.9090909090909092,4.759493670886076,electrolyte,0.0125881795596934,0.0131463473595244,0.0119425442066493,-6.400025813788657e-05,high
400,1.0101010101010102,4.759493670886076,electrolyte,0.0124711361470232,0.013023816254393,0.011833010529141,9.37469051349046e-06,high
400,1.1111111111111112,4.759493670886076,electrolyte,0.0123084102110184,0.0128343789822705,0.0117044170408524,-2.019789430657606e-05,high
400,1.2121212121212122,4.759493670886076,electrolyte,0.0124499411038166,0.0130785570010955,0.0117078339509719,1.3881897277690784e-05,high
400,1.3131313131313131,4.759493670886076,electrolyte,0.0122202973369387,0.0128381219413939,0.0114902263295261,-4.441347403488357e-05,high
400,1.414141414141414,4.759493670886076,electrolyte,0.0120050447406977,0.0124534106732999,0.0114997518941617,-1.2925170183181863e-05,high
400,1.5151515151515151,4.759493670886076,electrolyte,0.0121351660347758,0.0127689875390621,0.0113821587786874,1.0280536417693376e-05,high
400,1.616161616161616,4.759493670886076,electrolyte,0.0120795906106328,0.0127133011655589,0.0113258498331784,-2.9144671728136995e-05,high
400,1.7171717171717171,4.759493670886076,electrolyte,0.0119768873983351,0.0125121025012705,0.0113549082009301,-0.0001048138049176,high
400,1.818181818181818,4.759493670886076,electrolyte,0.0118017812166111,0.012347454113755,0.0111666584483094,5.1506267402782735e-05,high
400,1.9191919191919191,4.759493670886076,electrolyte,0.0117140598151615,0.0123039381561599,0.0110180463133277,-1.031311185523855e-05,high
400,2.0202020202020203,4.759493670886076,electrolyte,0.0116698467586553,0.0122758331203573,0.0109473527442086,0.0001042238985614,high
400,2.121212121212121,4.759493670886076,electrolyte,0.0117332515581268,0.0123055591087194,0.0110618597650817,3.4096599252000725e-06,high
400,2.2222222222222223,4.759493670886076,electrolyte,0.0116579009991703,0.0121940806121125,0.0110349360799184,-2.670550446996862e-05,high
400,2.323232323232323,4.759493670886076,electrolyte,0.0115656515299675,0.0121271722256903,0.0109057077582831,-7.510801056892365e-05,high
400,2.4242424242424243,4.759493670886076,electrolyte,0.0117243884655961,0.0123760213245932,0.0109402515219387,3.195744077235342e-05,high
400,2.525252525252525,4.759493670886076,electrolyte,0.0115196680059532,0.0120372171339804,0.0109207692934743,-1.4421409472105507e-05,high
400,2.6262626262626263,4.759493670886076,electrolyte,0.011571807839403,0.0121069184885845,0.0109497047449565,-1.1693336710949254e-05,high
400,2.727272727272727,4.759493670886076,electrolyte,0.0114962876468911,0.0120791000582518,0.0108060186190385,7.508479316537613e-05,high
400,2.8282828282828283,4.759493670886076,electrolyte,0.0114189713565446,0.0119384050565076,0.0108163972400131,3.402840942893281e-05,high
400,2.929292929292929,4.759493670886076,electrolyte,0.0114433439415822,0.0119842572921333,0.0108114689781985,4.920093290248734e-05,high
400,3.0303030303030303,4.759493670886076,electrolyte,0.0113757459730814,0.0119740464506449,0.0106616281062792,8.62638382346543e-05,high
400,3.131313131313131,4.759493670886076,electrolyte,0.0111714994120413,0.0118272655651734,0.010372632240172,4.67792284368653e-05,high
400,3.2323232323232323,4.759493670886076,electrolyte,0.01124733343986,0.0118903440512621,0.0104690431496519,-2.508862693619e-05,high
400,3.333333333333333,4.759493670886076,electrolyte,0.0112039522598679,0.0117826558969196,0.0105178908407396,-8.699736937410962e-06,high
400,3.4343434343434343,4.759493670886076,electrolyte,0.0110520308985973,0.0115494301479431,0.0104735465535631,-9.374993917412738e-05,high
400,3.5353535353535355,4.759493670886076,electrolyte,0.0112070243181995,0.0116890670025914,0.0106523555303956,4.663997539575431e-05,high
400,3.636363636363636,4.759493670886076,electrolyte,0.0111778269697535,0.0116283263739625,0.0106647331261146,-2.772686291381722e-05,high
400,3.7373737373737375,4.759493670886076,electrolyte,0.0111779817966562,0.0116972923302426,0.0105723513322786,6.807017404885072e-05,high
400,3.8383838383838382,4.759493670886076,electrolyte,0.011037577742687,0.0115952045553567,0.0103782203316642,-5.622620662605249e-05,high
400,3.939393939393939,4.759493670886076,electrolyte,0.0111333558005495,0.0115770967556968,0.0106263942274004,-9.125413146524549e-05,high
400,4.040404040404041,4.759493670886076,electrolyte,0.0110673621514662,0.0115992072394372,0.0104420213603164,-9.704994578216152e-05,high
400,4.141414141414141,4.759493670886076,electrolyte,0.0110538396192032,0.011472277144701,0.0105810521313426,3.797266271117358e-05,high
400,4.242424242424242,4.759493670886076,electrolyte,0.0109912144215162,0.0114955929680424,0.0104055373015746,1.5828993044298266e-05,high
400,4.343434343434343,4.759493670886076,electrolyte,0.0110574390521521,0.0115285547734846,0.0105159246418044,5.2042872049021e-05,high
400,4.444444444444445,4.759493670886076,electrolyte,0.0111172364789943,0.0115982454251561,0.0105619430339074,7.961743945629775e-05,high
400,4.545454545454545,4.759493670886076,electrolyte,0.0110950479742689,0.0116689171661094,0.010413378019037,-6.018160840223274e-05,high
400,4.646464646464646,4.759493670886076,electrolyte,0.0111679971276874,0.0117689584402507,0.0104493462175135,-4.025776913904575e-05,high
400,4.747474747474747,4.759493670886076,electrolyte,0.0111455399952991,0.0116947631586697,0.0104989367982003,5.9109586432334496e-05,high
400,4.848484848484849,4.759493670886076,electrolyte,0.0111382923976989,0.0116327567334564,0.010566766056387,3.916809817662268e-05,high
400,4.94949494949495,4.759493670886076,electrolyte,0.0110874496837576,0.011700083274121,0.0103514028527948,-1.042799622071992e-05,high
400,5.05050505050505,4.759493670886076,electrolyte,0.0110443195896164,0.0114476873021507,0.0105904813574851,4.349025280795058e-05,high
400,5.151515151515151,4.759493670886076,electrolyte,0.0109914590818408,0.0115169075040951,0.0103723799185179,0.0001217774400677,high
400,5.252525252525253,4.759493670886076,electrolyte,0.0111589231412868,0.0117407027310773,0.0104676888487156,3.150806392207375e-05,high
400,5.353535353535354,4.759493670886076,electrolyte,0.0110434335145264,0.0115494930198397,0.0104550112544059,5.613658875225733e-05,high
400,5.454545454545454,4.759493670886076,electrolyte,0.0112318066458209,0.0116178701441358,0.0108011457233706,-6.666523975855021e-06,high
400,5.555555555555555,4.759493670886076,electrolyte,0.0109825095440428,0.0115147159780478,0.0103583887673025,-3.880988273328223e-05,high
400,5.656565656565657,4.759493670886076,electrolyte,0.0111212897671082,0.0116688076675282,0.010476617176499,-6.360576021269245e-05,high
400,5.757575757575758,4.759493670886076,electrolyte,0.011138269943742,0.0117424185703362,0.0104142352145575,-5.378145228451983e-05,high
400,5.858585858585858,4.759493670886076,electrolyte,0.0111108988463776,0.0117238261402901,0.0103740196066842,-4.793485699048677e-05,high
400,5.959595959595959,4.759493670886076,electrolyte,0.0111327919933986,0.0116774034886259,0.0104930627323352,3.9442719341974224e-05,high
400,6.0606060606060606,4.759493670886076,electrolyte,0.0111598511990945,0.0117721958467561,0.0104237247223508,-6.77631374473905e-05,high
400,6.161616161616162,4.759493670886076,electrolyte,0.0111437446683159,0.0116722809700716,0.0105265864124809,-1.962100160864589e-05,high
400,6.262626262626262,4.759493670886076,electrolyte,0.0110786021038608,0.0116120310935995,0.0104539632388192,2.9196112069235764e-05,high
400,6.363636363636363,4.759493670886076,electrolyte,0.0111681725467478,0.0116622850257625,0.0105977490569838,-1.703986559552559e-05,high
400,6.4646464646464645,4.759493670886076,electrolyte,0.011216357028331,0.0117821153031631,0.0105480952975049,4.076186399979502e-05,high
400,6.565656565656566,4.759493670886076,electrolyte,0.0112304439270556,0.0116266092758153,0.0107869297318152,2.8235820253089324e-05,high
400,6.666666666666667,4.759493670886076,electrolyte,0.0110931661503046,0.0115778183622082,0.0105343433416428,3.9922195339665126e-05,high
400,6.767676767676767,4.759493670886076,electrolyte,0.0112844722837023,0.0118524529748812,0.0106140901336064,-3.0375512479485392e-05,high
400,6.8686868686868685,4.759493670886076,electrolyte,0.0112083667023096,0.0116217391723188,0.0107427256608947,-4.345016103539174e-05,high
400,6.96969696969697,4.759493670886076,electrolyte,0.0112794566372387,0.0117798947863523,0.0107014639977189,1.834041448726642e-05,high
400,7.070707070707071,4.759493670886076,electrolyte,0.0113647665917238,0.0119014829909762,0.0107367546954494,7.751192550586197e-05,high
400,7.171717171717171,4.759493670886076,electrolyte,0.0113493296860822,0.0119126729184568,0.0106860781961927,-3.159840926661912e-05,high
400,7.272727272727272,4.759493670886076,electrolyte,0.0114515765882457,0.0119965875244628,0.0108137310932539,-6.214363303522154e-05,high
400,7.373737373737374,4.759493670886076,electrolyte,0.0114429018877299,0.0120205012713677,0.0107610435785096,-1.4513389176611705e-05,high
400,7.474747474747475,4.759493670886076,electrolyte,0.0116004780466902,0.0120774485477181,0.0110555529414226,-3.627885044860312e-05,high
400,7.575757575757575,4.759493670886076,electrolyte,0.0114991680370221,0.0120356108943064,0.0108746355113312,-6.326452601760999e-06,high
400,7.6767676767676765,4.759493670886076,electrolyte,0.0116065746669263,0.0121367324863698,0.0109914324321077,1.620919639437342e-05,high
400,7.777777777777778,4.759493670886076,electrolyte,0.0116411372147279,0.0122744389300172,0.0108827106970263,3.336291660871267e-07,high
400,7.878787878787879,4.759493670886076,electrolyte,0.011689299578612,0.0122229990860353,0.0110689114284929,-6.458081080796086e-05,high
400,7.979797979797979,4.759493670886076,electrolyte,0.0117151173227442,0.0122542560901968,0.0110885616130319,3.1919657220890425e-05,high
400,8.080808080808081,4.759493670886076,electrolyte,0.0116798559715578,0.0122543479575022,0.0110047650761418,-2.1273656131019597e-05,high
400,8.181818181818182,4.759493670886076,electrolyte,0.0118197614007424,0.012275066487138,0.0113023158808729,8.913834218091668e-05,high
400,8.282828282828282,4.759493670886076,electrolyte,0.0119349725246741,0.0124594013902243,0.011329546184601,-5.044104156867058e-05,high
400,8.383838383838384,4.759493670886076,electrolyte,0.0120597106221859,0.0128123698615099,0.0111299048373095,-4.271781122480306e-05,high
400,8.484848484848484,4.759493670886076,electrolyte,0.0120897994917759,0.012744627378771,0.0113061211645472,-2.345407990780505e-05,high
400,8.585858585858587,4.759493670886076,electrolyte,0.0121959777285992,0.0127104828576571,0.0116063653363568,9.825276523895592e-06,high
400,8.686868686868687,4.759493670886076,electrolyte,0.0122386990466994,0.012892904423261,0.0114565240503224,-6.999089540610695e-05,high
400,8.787878787878787,4.759493670886076,electrolyte,0.0123916422552431,0.012950427700813,0.0117444379457566,-3.104829259644186e-05,high
400,8.88888888888889,4.759493670886076,electrolyte,0.012338113918948,0.01294285607949,0.0116274301093573,-4.67443911021839e-05,high
400,8.98989898989899,4.759493670886076,electrolyte,0.0124952299776683,0.013114453687045,0.0117663950502162,-3.496263222420417e-05,high
400,9.09090909090909,4.759493670886076,electrolyte,0.0126092048745399,0.0132881755044202,0.011797668360415,-1.777925431185997e-05,high
400,9.191919191919192,4.759493670886076,electrolyte,0.012772119483114,0.0133787708861839,0.0120634100108018,-3.29808926477572e-05,high
400,9.292929292929292,4.759493670886076,electrolyte,0.0127833565754001,0.0133702766764501,0.0121018655149369,4.009292383978282e-06,high
400,9.393939393939394,4.759493670886076,electrolyte,0.0128994840635789,0.013606232804991,0.0120518050517721,1.6106021360733763e-05,high
400,9.494949494949497,4.759493670886076,electrolyte,0.0128693745554883,0.0134114577303735,0.0122479065800833,3.944948565913582e-05,high
400,9.595959595959595,4.759493670886076,electrolyte,0.0131147314067268,0.013772760694578,0.0123366420751475,8.967367849517184e-05,high
400,9.696969696969695,4.759493670886076,electrolyte,0.0133389212891717,0.0139620138368588,0.0126128967192143,-4.189528634895567e-05,high
400,9.797979797979798,4.759493670886076,electrolyte,0.0133804398102412,0.0139716936132914,0.0126970026940843,-6.506695807031094e-05,high
400,9.8989898989899,4.759493670886076,electrolyte,0.013633497754106,0.0144033581098134,0.0127029931231015,7.132298519019184e-05,high
400,10.0,4.759493670886076,electrolyte,0.0137951705304698,0.0144158599576009,0.013076779643738,-1.378208056590678e-05,high
400,0.0,4.860759493670886,electrolyte,0.0138180067695868,0.014504937104935,0.0130087424573332,-5.073297060335495e-05,high
400,0.101010101010101,4.860759493670886,electrolyte,0.0135086318913674,0.0141445933934992,0.0127670469787229,-1.6463108939016487e-05,high
400,0.202020202020202,4.860759493670886,electrolyte,0.0133843409081582,0.0139206237616748,0.0127743243407058,-2.325705248275058e-06,high
400,0.303030303030303,4.860759493670886,electrolyte,0.013261272532242,0.0139481568672288,0.0124459713049181,4.628745242421111e-05,high
400,0.404040404040404,4.860759493670886,electrolyte,0.013122995797466,0.0137983174442206,0.0123217658799119,-6.627491696660961e-05,high
400,0.5050505050505051,4.860759493670886,electrolyte,0.0130961170987005,0.0137310086601817,0.0123517795284029,-3.472939088327919e-05,high
400,0.6060606060606061,4.860759493670886,electrolyte,0.0128920736802687,0.0135211621761642,0.0121535029249744,4.315820913704759e-05,high
400,0.7070707070707071,4.860759493670886,electrolyte,0.0127883795299262,0.0133534154482203,0.0121363040900612,-7.755057564928785e-06,high
400,0.8080808080808081,4.860759493670886,electrolyte,0.0127163914575705,0.0133705891709036,0.0119412215552839,-2.800182822356836e-05,high
400,0.9090909090909092,4.860759493670886,electrolyte,0.0126559810184438,0.0132128343044747,0.0120130570727463,5.117792831710266e-05,high
400,1.0101010101010102,4.860759493670886,electrolyte,0.0125341354184301,0.0131017413449597,0.0118754950115749,-6.111909792131293e-05,high
400,1.1111111111111112,4.860759493670886,electrolyte,0.012328847406422,0.0129176859884872,0.0116405200481479,1.573538486928759e-05,high
400,1.2121212121212122,4.860759493670886,electrolyte,0.0122000768908308,0.012739328832254,0.011576746408076,-5.859166346025135e-05,high
400,1.3131313131313131,4.860759493670886,electrolyte,0.0122261713426246,0.012826489035619,0.0115210839372887,-6.4917483040169685e-06,high
400,1.414141414141414,4.860759493670886,electrolyte,0.0122854050600011,0.0128894565917908,0.0115756357891052,-2.158209658230204e-05,high
400,1.5151515151515151,4.860759493670886,electrolyte,0.0120168384278297,0.012552353672331,0.0113974023002131,4.571108725761584e-05,high
400,1.616161616161616,4.860759493670886,electrolyte,0.0119327629464932,0.0124801989783641,0.0112962707493007,5.609165380793238e-05,high
400,1.7171717171717171,4.860759493670886,electrolyte,0.0119841030626936,0.0126643149819934,0.0111597821410105,-8.964928608289129e-05,high
400,1.818181818181818,4.860759493670886,electrolyte,0.0118728095927335,0.0124058866298512,0.0112556102508097,3.935799701254051e-05,high
400,1.9191919191919191,4.860759493670886,electrolyte,0.0117786913701172,0.0123540329351368,0.0111035018291605,1.5438616728196615e-05,high
400,2.0202020202020203,4.860759493670886,electrolyte,0.0116828915142987,0.012201372161518,0.0110835487846534,-4.442762320423273e-05,high
400,2.121212121212121,4.860759493670886,electrolyte,0.0117539895888752,0.0123496903163914,0.0110494020665195,5.424641253881793e-05,high
400,2.2222222222222223,4.860759493670886,electrolyte,0.0116220967024146,0.0121135420811594,0.0110584710331061,3.0014613229381975e-05,high
400,2.323232323232323,4.860759493670886,electrolyte,0.0115671465923692,0.0120473192642359,0.0110178342457542,3.499584284043908e-05,high
400,2.4242424242424243,4.860759493670886,electrolyte,0.0115707015693593,0.0120649139550784,0.0110000371878282,0.0001043553287808,high
400,2.525252525252525,4.860759493670886,electrolyte,0.0114627252264239,0.0119577026589622,0.0108931475030871,3.546394630703366e-05,high
400,2.6262626262626263,4.860759493670886,electrolyte,0.0115528091261231,0.0121512455374955,0.0108420499668799,-5.47551676742815e-05,high
400,2.727272727272727,4.860759493670886,electrolyte,0.0114661874079103,0.0120437974679427,0.0107844197079869,-2.6169694724294287e-05,high
400,2.8282828282828283,4.860759493670886,electrolyte,0.011405009216836,0.0119288554317673,0.0107967181871633,-1.8351467072454584e-06,high
400,2.929292929292929,4.860759493670886,electrolyte,0.011335966152793,0.0119524106304007,0.010597700632235,1.653021081937698e-05,high
400,3.0303030303030303,4.860759493670886,electrolyte,0.0113872502007174,0.0120263936103645,0.0106168754389598,-9.51678564018218e-07,high
400,3.131313131313131,4.860759493670886,electrolyte,0.0113142832784929,0.011851125433917,0.0106875000777084,-5.103608260259982e-06,high
400,3.2323232323232323,4.860759493670886,electrolyte,0.0114463289926546,0.012126341845657,0.0106163353060025,1.840823713196436e-05,high
400,3.333333333333333,4.860759493670886,electrolyte,0.0112377671887041,0.0117584427043404,0.010631313971313,-5.56656781207775e-05,high
400,3.4343434343434343,4.860759493670886,electrolyte,0.0112450110949761,0.0116525231031493,0.0107874905592859,-1.304169096415086e-05,high
400,3.5353535353535355,4.860759493670886,electrolyte,0.0111779666380206,0.0117137440578081,0.0105513460486889,-8.060999280313253e-07,high
400,3.636363636363636,4.860759493670886,electrolyte,0.0111628896410955,0.0116288732441316,0.0106290326256134,4.743685572051355e-05,high
400,3.7373737373737375,4.860759493670886,electrolyte,0.0111225562125901,0.0116375556997947,0.0105237387640653,4.91592689773856e-06,high
400,3.8383838383838382,4.860759493670886,electrolyte,0.0111874285703495,0.0117433389062228,0.0105330884935257,8.641885065052473e-06,high
400,3.939393939393939,4.860759493670886,electrolyte,0.0111109455807797,0.0115665898921933,0.0105890376925569,-7.841567286212337e-05,high
400,4.040404040404041,4.860759493670886,electrolyte,0.0111382029698437,0.0117363832834918,0.010423385728497,-3.0291894919919787e-05,high
400,4.141414141414141,4.860759493670886,electrolyte,0.0111775075589104,0.0117030436833306,0.0105648182838615,1.4003416510243092e-05,high
400,4.242424242424242,4.860759493670886,electrolyte,0.0110635144713114,0.0115322505555969,0.0105246235690505,6.694353658149503e-05,high
400,4.343434343434343,4.860759493670886,electrolyte,0.0110483265591641,0.0116498879732177,0.0103224071128464,0.0001270535906245,high
400,4.444444444444445,4.860759493670886,electrolyte,0.0111731416827093,0.0117189063567932,0.0105327194369149,5.856319211393007e-06,high
400,4.545454545454545,4.860759493670886,electrolyte,0.0111184805917291,0.0117815378063804,0.0103082237999169,-3.280290466534314e-05,high
400,4.646464646464646,4.860759493670886,electrolyte,0.0111669802556324,0.0117944694497116,0.0104084234423046,7.851153866528418e-05,high
400,4.747474747474747,4.860759493670886,electrolyte,0.0109991187878979,0.0115976838721163,0.0102820221941271,2.58552753393596e-05,high
400,4.848484848484849,4.860759493670886,electrolyte,0.0111577493924034,0.0117434645969077,0.0104596249495126,-7.04555933911108e-05,high
400,4.94949494949495,4.860759493670886,electrolyte,0.0110548155397416,0.0114370048238665,0.0106279448870168,-2.8934959818538577e-05,high
400,5.05050505050505,4.860759493670886,electrolyte,0.0110489203796455,0.0115575979672055,0.0104577599078993,-2.8361628922606348e-05,high
400,5.151515151515151,4.860759493670886,electrolyte,0.0110133017269779,0.0115940831541414,0.0103213438050586,-4.630025348699595e-05,high
400,5.252525252525253,4.860759493670886,electrolyte,0.0110785093271277,0.0116423891920142,0.0104110731224061,-4.988136061643617e-05,high
400,5.353535353535354,4.860759493670886,electrolyte,0.0110613538432686,0.0115827612482619,0.0104532772046458,-4.154911896049078e-07,high
400,5.454545454545454,4.860759493670886,electrolyte,0.0110678252935747,0.0116552344916146,0.0103677803833891,-1.0118009390762431e-05,high
400,5.555555555555555,4.860759493670886,electrolyte,0.0109932072651487,0.0115310647747501,0.0103616770642059,2.56187076555268e-05,high
400,5.656565656565657,4.860759493670886,electrolyte,0.0110197057060977,0.011452462396548,0.0105284577654298,-3.347953825196743e-05,high
400,5.757575757575758,4.860759493670886,electrolyte,0.0110771299829611,0.0115523521843219,0.0105308628902916,3.230772942823177e-05,high
400,5.858585858585858,4.860759493670886,electrolyte,0.0110386181699875,0.0115166789436741,0.0104872674159326,-6.56028037559062e-05,high
400,5.959595959595959,4.860759493670886,electrolyte,0.0111402502943566,0.0117264135904626,0.010442626440588,-2.8928427163639948e-05,high
400,6.0606060606060606,4.860759493670886,electrolyte,0.0111575689937984,0.0118262909505072,0.0103385737294442,-6.072447021111544e-05,high
400,6.161616161616162,4.860759493670886,electrolyte,0.0112522658287013,0.0118285192367116,0.0105698213515434,-3.573386953252808e-05,high
400,6.262626262626262,4.860759493670886,electrolyte,0.0110799572568367,0.0116719833151778,0.0103734859220251,-8.220527059038873e-06,high
400,6.363636363636363,4.860759493670886,electrolyte,0.0112088833688654,0.0117701172677729,0.0105473458920327,1.15257177598872e-05,high
400,6.4646464646464645,4.860759493670886,electrolyte,0.0111832723968055,0.0115511169177033,0.0107749784067918,-7.191440538577568e-06,high
400,6.565656565656566,4.860759493670886,electrolyte,0.011174601217937,0.011692369885224,0.0105720353071893,-3.83647488976128e-05,high
400,6.666666666666667,4.860759493670886,electrolyte,0.0112741795258267,0.0118163064249016,0.0106390572634866,-4.777619729569625e-05,high
400,6.767676767676767,4.860759493670886,electrolyte,0.0112936596460695,0.0117913962733343,0.010718677085473,5.116217525833935e-05,high
400,6.8686868686868685,4.860759493670886,electrolyte,0.0112167992308491,0.0117413171989356,0.0106045137563752,6.659120082906094e-05,high
400,6.96969696969697,4.860759493670886,electrolyte,0.0112327480864485,0.0118056373549756,0.0105551643860728,-1.2961012379872928e-05,high
400,7.070707070707071,4.860759493670886,electrolyte,0.0113655238000854,0.0119172106930642,0.0107188391721227,-1.1137756342604968e-05,high
400,7.171717171717171,4.860759493670886,electrolyte,0.0113874235369386,0.0120065813921951,0.0106453213408755,-4.643546421922933e-05,high
400,7.272727272727272,4.860759493670886,electrolyte,0.0113218942362654,0.0118582489612236,0.010695184276259,-4.6230587721627865e-05,high
400,7.373737373737374,4.860759493670886,electrolyte,0.011547494003851,0.0120556645032284,0.0109614145466317,5.731389142633994e-06,high
400,7.474747474747475,4.860759493670886,electrolyte,0.0114697118164461,0.01215775558576,0.0106277884323751,3.384023198444404e-05,high
400,7.575757575757575,4.860759493670886,electrolyte,0.0115902996326522,0.0122078512735832,0.0108535110811391,3.032679263951932e-05,high
400,7.6767676767676765,4.860759493670886,electrolyte,0.0115102374169669,0.0120818089297956,0.0108373116182325,-2.8656310057072307e-05,high
400,7.777777777777778,4.860759493670886,electrolyte,0.0115922049706832,0.0121412848185411,0.0109508825761812,3.818469110178139e-05,high
400,7.878787878787879,4.860759493670886,electrolyte,0.0118200170449337,0.0125331196073082,0.0109453749169635,-6.370965303716168e-05,high
400,7.979797979797979,4.860759493670886,electrolyte,0.0117143791691908,0.0123050495521145,0.0110172927630309,3.076388197152142e-06,high
400,8.080808080808081,4.860759493670886,electrolyte,0.0119265570365154,0.0125553488558142,0.0111764031587693,7.666137289769878e-05,high
400,8.181818181818182,4.860759493670886,electrolyte,0.0117781217277982,0.0123865016266198,0.011056020584057,-5.34000057664244e-05,high
400,8.282828282828282,4.860759493670886,electrolyte,0.011998101199819,0.0125587496519643,0.0113451541438943,-1.4918531825199077e-05,high
400,8.383838383838384,4.860759493670886,electrolyte,0.0119396964087057,0.0124237960469232,0.0113880950304287,-1.0061733880564406e-05,high
400,8.484848484848484,4.860759493670886,electrolyte,0.0120307175334162,0.0126541195461177,0.0112909925814577,2.874790989955465e-05,high
400,8.585858585858587,4.860759493670886,electrolyte,0.0122827357392282,0.0128981563092474,0.0115568189784676,3.980696261544809e-05,high
400,8.686868686868687,4.860759493670886,electrolyte,0.0121583541435667,0.0128523627821471,0.0113187854695522,-1.3892428383278196e-05,high
400,8.787878787878787,4.860759493670886,electrolyte,0.0123549373655019,0.0129231273681415,0.0116948518312619,2.419878809848708e-05,high
400,8.88888888888889,4.860759493670886,electrolyte,0.0124638151563093,0.0130347045320311,0.0118010638065437,2.190075433672068e-05,high
400,8.98989898989899,4.860759493670886,electrolyte,0.0126171913500531,0.0132116798453243,0.0119227033684637,-6.61246576374428e-05,high
400,9.09090909090909,4.860759493670886,electrolyte,0.0126406245188544,0.0132314358602617,0.011952473270843,2.0489565467216508e-05,high
400,9.191919191919192,4.860759493670886,electrolyte,0.0126480561437441,0.0132284746139568,0.0119698177194384,0.0001247359904012,high
400,9.292929292929292,4.860759493670886,electrolyte,0.0127536892800079,0.0133676693584591,0.0120348633377995,2.6736294527951357e-05,high
400,9.393939393939394,4.860759493670886,electrolyte,0.0129387628496672,0.0136004363206696,0.0121555998599552,2.926799649953177e-05,high
400,9.494949494949497,4.860759493670886,electrolyte,0.0131630576072724,0.013803208471579,0.0124124376285655,1.1222106647911604e-05,high
400,9.595959595959595,4.860759493670886,electrolyte,0.0131500671653967,0.0137255765272273,0.0124868820929056,-9.070100774112148e-06,high
400,9.696969696969695,4.860759493670886,electrolyte,0.0133323767716126,0.0139375081473346,0.0126309516971607,1.9903391481306095e-05,high
400,9.797979797979798,4.860759493670886,electrolyte,0.013515115627241,0.0141535672997441,0.0127696340538151,-4.9004131563248353e-05,high
400,9.8989898989899,4.860759493670886,electrolyte,0.013564538047493,0.0142400941119626,0.0127690682653124,3.722913272228887e-06,high
400,10.0,4.860759493670886,electrolyte,0.013674407963743,0.0142254631922797,0.0130467950586002,-3.401816274953238e-05,high
400,0.0,4.962025316455696,electrolyte,0.0136249091464974,0.0143184389896018,0.012804655915837,3.617338862708242e-05,high
400,0.101010101010101,4.962025316455696,electrolyte,0.0135572458094595,0.0142034495241728,0.0128001499885858,-8.828002191747637e-05,high
400,0.202020202020202,4.962025316455696,electrolyte,0.0134407923685354,0.0141235379097851,0.0126338833751741,-1.5254119863372584e-05,high
400,0.303030303030303,4.962025316455696,electrolyte,0.0132992975456146,0.0139576647747983,0.0125238194303787,-6.358570527105043e-05,high
400,0.404040404040404,4.962025316455696,electrolyte,0.0132449143216877,0.0137522611900766,0.0126710772519367,3.072866460242573e-05,high
400,0.5050505050505051,4.962025316455696,electrolyte,0.0129808468060816,0.0136363879701006,0.0122067192657933,-3.093783241907401e-05,high
400,0.6060606060606061,4.962025316455696,electrolyte,0.012813179105548,0.013314434865044,0.0122448446990704,1.077789949441784e-05,high
400,0.7070707070707071,4.962025316455696,electrolyte,0.0127275124264259,0.0133195248767595,0.0120383394795289,-3.252880921269165e-05,high
400,0.8080808080808081,4.962025316455696,electrolyte,0.0127062763615973,0.013287453798428,0.0120318661064478,-5.583509589850946e-06,high
400,0.9090909090909092,4.962025316455696,electrolyte,0.0125440606395852,0.0130889669822605,0.011912837039985,0.0001203398064646,high
400,1.0101010101010102,4.962025316455696,electrolyte,0.0123821663873869,0.013039518228259,0.0115986136087532,2.239604541440312e-05,high
400,1.1111111111111112,4.962025316455696,electrolyte,0.0123736646150781,0.0129686175339571,0.0116757724143808,7.63776747343372e-05,high
400,1.2121212121212122,4.962025316455696,electrolyte,0.0123159433398167,0.0128389833408268,0.0117151508799967,5.426467853304036e-05,high
400,1.3131313131313131,4.962025316455696,electrolyte,0.0121235398618853,0.0127787985227421,0.0113379118716576,-7.994365709750141e-05,high
400,1.414141414141414,4.962025316455696,electrolyte,0.0120903225525715,0.012765468225258,0.0112774266464287,2.36100884610855e-07,high
400,1.5151515151515151,4.962025316455696,electrolyte,0.0120291150328544,0.0125566233373573,0.0114210696872697,4.328535632908535e-06,high
400,1.616161616161616,4.962025316455696,electrolyte,0.0120249274676914,0.0126012272754926,0.0113497824695912,6.212373218299704e-05,high
400,1.7171717171717171,4.962025316455696,electrolyte,0.0121524619866953,0.0127085710946571,0.0115070999806004,-6.591340480471165e-07,high
400,1.818181818181818,4.962025316455696,electrolyte,0.0118326141888402,0.0124713985759616,0.011068620431924,2.4460362471524773e-05,high
400,1.9191919191919191,4.962025316455696,electrolyte,0.0118554136355972,0.0123772469827494,0.0112533208450395,-2.881569538113493e-05,high
400,2.0202020202020203,4.962025316455696,electrolyte,0.0117986164667716,0.0123701688965105,0.0111287771687746,2.193869421127681e-05,high
400,2.121212121212121,4.962025316455696,electrolyte,0.0117119718711312,0.0122505647800201,0.0110849195333925,-7.078475364959219e-05,high
400,2.2222222222222223,4.962025316455696,electrolyte,0.0116089413683885,0.0122178402130132,0.0108832794607503,-7.37062823764347e-05,high
400,2.323232323232323,4.962025316455696,electrolyte,0.0116073579207557,0.0122371682537686,0.0108514472290011,8.072505573424382e-05,high
400,2.4242424242424243,4.962025316455696,electrolyte,0.0117095262362318,0.0122430298317901,0.0110890825775588,-7.62487316116085e-05,high
400,2.525252525252525,4.962025316455696,electrolyte,0.0115493392150213,0.0122102379429167,0.010749140945507,-3.08935872586761e-05,high
400,2.6262626262626263,4.962025316455696,electrolyte,0.0113769165490525,0.0119155190350174,0.0107483051027436,8.321748501590963e-06,high
400,2.727272727272727,4.962025316455696,electrolyte,0.0113208498872883,0.0118769300394623,0.0106675663857411,-1.951126859458403e-05,high
400,2.8282828282828283,4.962025316455696,electrolyte,0.011441386081188,0.012041290263208,0.0107241249491009,-0.0001126789881059,high
400,2.929292929292929,4.962025316455696,electrolyte,0.0113962864989838,0.0119291459478297,0.0107756425695831,-1.369950229559928e-05,high
400,3.0303030303030303,4.962025316455696,electrolyte,0.0113571980815701,0.0118749060910112,0.0107567378670349,1.1490144279517394e-05,high
400,3.131313131313131,4.962025316455696,electrolyte,0.0114214457874167,0.011872946276467,0.0109052045121018,0.0001095330183603,high
400,3.2323232323232323,4.962025316455696,electrolyte,0.0113840324273486,0.0120174765031394,0.0106208094560984,-5.827344636188726e-05,high
400,3.333333333333333,4.962025316455696,electrolyte,0.0111763450491382,0.0117145452084321,0.0105447741515832,7.092442110642141e-05,high
400,3.4343434343434343,4.962025316455696,electrolyte,0.0111299210244022,0.0115893149198225,0.0106006248794093,0.0001206288233107,high
400,3.5353535353535355,4.962025316455696,electrolyte,0.0112166513336941,0.0117277650587289,0.0106238940251502,8.22084932965852e-06,high
400,3.636363636363636,4.962025316455696,electrolyte,0.0112331010637558,0.0116873638933337,0.0107156955889224,7.884517060724677e-06,high
400,3.7373737373737375,4.962025316455696,electrolyte,0.0111532969691752,0.011716503726105,0.0104884356526187,-5.3753938792720015e-06,high
400,3.8383838383838382,4.962025316455696,electrolyte,0.011218888901815,0.0117510402302607,0.0105946708565203,-9.639260241617208e-05,high
400,3.939393939393939,4.962025316455696,electrolyte,0.0110674880431632,0.0114422896306037,0.0106501007684469,-7.975055941361738e-06,high
400,4.040404040404041,4.962025316455696,electrolyte,0.0110212804612257,0.0115959061896491,0.0103340034423713,-0.0001212297820393,high
400,4.141414141414141,4.962025316455696,electrolyte,0.0111102004098683,0.0116890954458975,0.0104227145990046,-1.556646978454576e-05,high
400,4.242424242424242,4.962025316455696,electrolyte,0.0110775168539024,0.0115513459493668,0.0105330944550737,3.227783009996275e-05,high
400,4.343434343434343,4.962025316455696,electrolyte,0.0111866059782852,0.0116593824465935,0.0106446807549548,-6.578917882533572e-06,high
400,4.444444444444445,4.962025316455696,electrolyte,0.0111826869747873,0.0117439401465944,0.0105208514984133,-9.863167090914523e-06,high
400,4.545454545454545,4.962025316455696,electrolyte,0.0111064116627701,0.0116462768051743,0.0104734620458378,3.977808644220666e-06,high
400,4.646464646464646,4.962025316455696,electrolyte,0.0111732260451219,0.0117687932620106,0.0104595569900729,0.0001008576740561,high
400,4.747474747474747,4.962025316455696,electrolyte,0.0110550241442996,0.0115322089373659,0.0105061798008961,-2.1310753901091075e-05,high
400,4.848484848484849,4.962025316455696,electrolyte,0.0110516951485295,0.0116358577418056,0.0103560964548088,6.099064466289732e-06,high
400,4.94949494949495,4.962025316455696,electrolyte,0.0110667853982893,0.0115557452661388,0.0105023568000076,-2.274434890720408e-05,high
400,5.05050505050505,4.962025316455696,electrolyte,0.0111718236377363,0.0117098881972555,0.0105417677101603,-2.718230366387959e-05,high
400,5.151515151515151,4.962025316455696,electrolyte,0.0109772760705902,0.0114864040350082,0.0103841886346096,-5.392868194821157e-05,high
400,5.252525252525253,4.962025316455696,electrolyte,0.0111001737633697,0.0117560349451783,0.0103007323805059,7.793076019933314e-06,high
400,5.353535353535354,4.962025316455696,electrolyte,0.011066852783239,0.0115870603371119,0.0104595674935546,5.2759724856640965e-05,high
400,5.454545454545454,4.962025316455696,electrolyte,0.0109679697482931,0.0114965847568286,0.010343405176855,0.0001325430318459,high
400,5.555555555555555,4.962025316455696,electrolyte,0.0110137130624471,0.0115680951297964,0.0103539189461533,0.0001323282304093,high
400,5.656565656565657,4.962025316455696,electrolyte,0.0110601235736106,0.0115087580871471,0.0105468162073656,8.214816550196172e-05,high
400,5.757575757575758,4.962025316455696,electrolyte,0.0111299840098093,0.0116606852555595,0.0105097931562565,1.4157898050594318e-05,high
400,5.858585858585858,4.962025316455696,electrolyte,0.0111199473719201,0.0117147370212221,0.0104093548765872,4.601474743943597e-05,high
400,5.959595959595959,4.962025316455696,electrolyte,0.0112390446344473,0.0117129861285379,0.0106940495765806,-7.882099931416773e-05,high
400,6.0606060606060606,4.962025316455696,electrolyte,0.0111177828601545,0.0116915578433843,0.0104372996298045,-3.483154040075136e-05,high
400,6.161616161616162,4.962025316455696,electrolyte,0.0110532175929314,0.0116428969655962,0.010349663997816,-1.9114502547972756e-05,high
400,6.262626262626262,4.962025316455696,electrolyte,0.0111954351119118,0.0117924851315129,0.0104832461270168,-6.745153752672198e-06,high
400,6.363636363636363,4.962025316455696,electrolyte,0.0111852343033368,0.0118057818440644,0.0104387265616227,3.315498420055425e-05,high
400,6.4646464646464645,4.962025316455696,electrolyte,0.0112380237653437,0.0118525486230072,0.0104996521928291,-7.120688045092534e-05,high
400,6.565656565656566,4.962025316455696,electrolyte,0.0111695191794421,0.0116914000901103,0.0105614045650897,-3.494056561517854e-05,high
400,6.666666666666667,4.962025316455696,electrolyte,0.0113276082337363,0.0119813731020018,0.0105313252923062,0.0001038140339554,high
400,6.767676767676767,4.962025316455696,electrolyte,0.0111950467962245,0.0117491310898814,0.010542428114733,-5.3450206658339263e-05,high
400,6.8686868686868685,4.962025316455696,electrolyte,0.011344895019119,0.0118465136279275,0.0107648939185694,-5.8535714544142864e-05,high
400,6.96969696969697,4.962025316455696,electrolyte,0.0114538123335934,0.0119887074194443,0.0108272502908241,0.0001096941471704,high
400,7.070707070707071,4.962025316455696,electrolyte,0.0114922740676311,0.0121205008424585,0.0107391690556146,7.70615165266068e-06,high
400,7.171717171717171,4.962025316455696,electrolyte,0.0114210337751666,0.0120274657380815,0.0106981621908669,-1.9877640432945357e-05,high
400,7.272727272727272,4.962025316455696,electrolyte,0.0114118077738344,0.011954412660918,0.0107778720759508,2.5680838322954232e-05,high
400,7.373737373737374,4.962025316455696,electrolyte,0.0115665414744183,0.0121866120099773,0.0108249741105369,-6.073002301004147e-05,high
400,7.474747474747475,4.962025316455696,electrolyte,0.0114499082215394,0.0119950261147368,0.0108126584505254,-3.779111236505231e-05,high
400,7.575757575757575,4.962025316455696,electrolyte,0.011619021973629,0.0121748204054435,0.0109680355252888,-6.18577825552049e-05,high
400,7.6767676767676765,4.962025316455696,electrolyte,0.0116914758673933,0.0122408953591892,0.0110500635447775,-5.731777970954006e-05,high
400,7.777777777777778,4.962025316455696,electrolyte,0.0116030658633658,0.0120446266278106,0.0111025177475447,7.721698757743995e-05,high
400,7.878787878787879,4.962025316455696,electrolyte,0.0116429022862859,0.0121639381236544,0.0110403223229113,1.696642987520875e-05,high
400,7.979797979797979,4.962025316455696,electrolyte,0.0118466067569152,0.012420967537771,0.0111735231967788,1.3365869613681725e-06,high
400,8.080808080808081,4.962025316455696,electrolyte,0.0118078940184444,0.0122500090804616,0.0113078672130031,-7.583713350726503e-05,high
400,8.181818181818182,4.962025316455696,electrolyte,0.0118970675444235,0.0124920946383383,0.0111958624781959,8.654635457941374e-06,high
400,8.282828282828282,4.962025316455696,electrolyte,0.0119968105823899,0.0125504956631496,0.0113533633880577,4.089404961396503e-07,high
400,8.383838383838384,4.962025316455696,electrolyte,0.0119116598675645,0.0124521109902728,0.0112831469796786,8.595625236891093e-05,high
400,8.484848484848484,4.962025316455696,electrolyte,0.011978739783434,0.0125165638412557,0.0113543425313905,8.582007629205143e-05,high
400,8.585858585858587,4.962025316455696,electrolyte,0.0121784005103565,0.0128155335101451,0.011421121807468,2.0702230418268425e-05,high
400,8.686868686868687,4.962025316455696,electrolyte,0.0121111746572781,0.0126945936334159,0.0114265591326382,7.553203932495166e-05,high
400,8.787878787878787,4.962025316455696,electrolyte,0.012274727171369,0.0128969049507427,0.0115393881549996,-3.5038341203533085e-05,high
400,8.88888888888889,4.962025316455696,electrolyte,0.0123579571042477,0.0129679190209594,0.0116405174315675,3.5690317415123284e-05,high
400,8.98989898989899,4.962025316455696,electrolyte,0.0123622631194907,0.0129459501001625,0.0116812536282749,-1.9712014334145613e-05,high
400,9.09090909090909,4.962025316455696,electrolyte,0.0126007744231628,0.0131676564347433,0.0119447153357293,-2.791659188221901e-06,high
400,9.191919191919192,4.962025316455696,electrolyte,0.0125846947503148,0.0131884962111068,0.0118783101145842,-1.7382084014454963e-05,high
400,9.292929292929292,4.962025316455696,electrolyte,0.0128464927357378,0.0135122413631645,0.0120561349466579,4.734415504094896e-05,high
400,9.393939393939394,4.962025316455696,electrolyte,0.012896267798674,0.0134864996467031,0.0122111827087572,-1.9820489590322337e-05,high
400,9.494949494949497,4.962025316455696,electrolyte,0.0129350468208578,0.013540941487027,0.0122291723376342,-7.977004684467502e-06,high
400,9.595959595959595,4.962025316455696,electrolyte,0.0129887443807812,0.0136638395242721,0.0121874803094656,-4.792506855774572e-06,high
400,9.696969696969695,4.962025316455696,electrolyte,0.0134284179691973,0.0140353854180378,0.0127254282779198,6.606973914097017e-06,high
400,9.797979797979798,4.962025316455696,electrolyte,0.0133448193292933,0.0140001402670447,0.0125749648374382,-2.453805912212645e-05,high
400,9.8989898989899,4.962025316455696,electrolyte,0.013397925990009,0.0140026403173709,0.0126977159964887,3.8034882984445824e-06,high
400,10.0,4.962025316455696,electrolyte,0.0136416359442215,0.0143277303888042,0.0128315823068856,5.266370300470702e-05,high
400,0.0,5.063291139240507,electrolyte-cathode interface,0.0151371085688343,0.0158985177407963,0.0142379405026592,6.42634860750269e-05,critical
400,0.101010101010101,5.063291139240507,electrolyte-cathode interface,0.0151111705896235,0.0158582374396542,0.0142326292987234,1.238212564593294e-05,critical
400,0.202020202020202,5.063291139240507,electrolyte-cathode interface,0.0149015261862553,0.015564167114329,0.0141358989473321,2.607166565840481e-05,high
400,0.303030303030303,5.063291139240507,electrolyte-cathode interface,0.0147537209898152,0.0154284282995362,0.013970316146458,4.535418716329426e-05,high
400,0.404040404040404,5.063291139240507,electrolyte-cathode interface,0.0145354002763,0.0152068052916202,0.0137546052835548,-4.231594943093501e-05,high
400,0.5050505050505051,5.063291139240507,electrolyte-cathode interface,0.01431420582172,0.014974129967538,0.0135468565309049,4.826488814591435e-05,high
400,0.6060606060606061,5.063291139240507,electrolyte-cathode interface,0.0142100115282768,0.0148101172865646,0.0135220808756119,2.440021580736695e-05,high
400,0.7070707070707071,5.063291139240507,electrolyte-cathode interface,0.0142268980496328,0.0150602395282574,0.0132125843392722,-4.514229546461948e-05,high
400,0.8080808080808081,5.063291139240507,electrolyte-cathode interface,0.0139986689674413,0.0147124427951928,0.0131545578500117,3.978828559955044e-06,high
400,0.9090909090909092,5.063291139240507,electrolyte-cathode interface,0.0139883682511346,0.0146733971341793,0.0131841768694634,-1.4421757095141363e-06,high
400,1.0101010101010102,5.063291139240507,electrolyte-cathode interface,0.0137322495026645,0.0143721851969855,0.0129860277177444,7.222306548607878e-05,high
400,1.1111111111111112,5.063291139240507,electrolyte-cathode interface,0.013747283343654,0.0144356962812456,0.0129339207986395,-8.625032503427141e-05,high
400,1.2121212121212122,5.063291139240507,electrolyte-cathode interface,0.013543026829084,0.0141533026236579,0.0128362787735556,3.309495320726617e-05,high
400,1.3131313131313131,5.063291139240507,electrolyte-cathode interface,0.0134549857083896,0.0141136551170986,0.0126811901120031,4.740150128827266e-05,high
400,1.414141414141414,5.063291139240507,electrolyte-cathode interface,0.0134278217253246,0.0140552022497548,0.0126968076474933,-4.066521812194066e-05,high
400,1.5151515151515151,5.063291139240507,electrolyte-cathode interface,0.0132206527677813,0.0138885279284575,0.0124315522875882,4.8029324057164434e-05,high
400,1.616161616161616,5.063291139240507,electrolyte-cathode interface,0.0132327252049492,0.0138840635605365,0.0124662649448596,6.441681500308642e-05,high
400,1.7171717171717171,5.063291139240507,electrolyte-cathode interface,0.0131723528901659,0.0138025481366566,0.0124344500319795,-6.349047117702413e-05,high
400,1.818181818181818,5.063291139240507,electrolyte-cathode interface,0.0131439465310128,0.013728061522986,0.0124691556307287,-1.9585081327576512e-05,high
400,1.9191919191919191,5.063291139240507,electrolyte-cathode interface,0.013133941867651,0.0138113952995299,0.0123310247829085,-9.563669177248066e-06,high
400,2.0202020202020203,5.063291139240507,electrolyte-cathode interface,0.0129610303979719,0.0137000528729549,0.0120672552300388,-9.058172487404124e-06,high
400,2.121212121212121,5.063291139240507,electrolyte-cathode interface,0.0128607148903477,0.013473157570829,0.0121449181022741,-3.352674668758422e-05,high
400,2.2222222222222223,5.063291139240507,electrolyte-cathode interface,0.012897249524784,0.0135872208005652,0.0120737088318986,7.725380327909226e-06,high
400,2.323232323232323,5.063291139240507,electrolyte-cathode interface,0.0127980958434477,0.0133487362775337,0.0121651995138346,-1.2354126002473848e-05,high
400,2.4242424242424243,5.063291139240507,electrolyte-cathode interface,0.0125417202008092,0.0132203148921649,0.0117288080235536,6.222934768871376e-05,high
400,2.525252525252525,5.063291139240507,electrolyte-cathode interface,0.0128571583798961,0.0134538785269618,0.0121625849686201,4.139971920537056e-05,high
400,2.6262626262626263,5.063291139240507,electrolyte-cathode interface,0.0126518166968723,0.0132711442572564,0.0119247936743926,7.04150545950666e-06,high
400,2.727272727272727,5.063291139240507,electrolyte-cathode interface,0.0126453536279058,0.0132832700369621,0.0118922334231233,-2.7310631728107127e-05,high
400,2.8282828282828283,5.063291139240507,electrolyte-cathode interface,0.0125676651358655,0.0130607117963595,0.0120081327926782,-3.426752920342663e-05,high
400,2.929292929292929,5.063291139240507,electrolyte-cathode interface,0.0125616115119182,0.0132161436441363,0.0117832642844408,6.225521912477433e-05,high
400,3.0303030303030303,5.063291139240507,electrolyte-cathode interface,0.0124630616192636,0.0130042187483803,0.0118400342750727,2.697984621975888e-05,high
400,3.131313131313131,5.063291139240507,electrolyte-cathode interface,0.0125727845254849,0.0131823721129629,0.0118584143494623,-2.305097800901685e-06,high
400,3.2323232323232323,5.063291139240507,electrolyte-cathode interface,0.0124920372845206,0.0130718114317989,0.0118169523428041,4.950239364620111e-05,high
400,3.333333333333333,5.063291139240507,electrolyte-cathode interface,0.0123664732164799,0.0129134143124792,0.011735188909443,-5.424964128736801e-06,high
400,3.4343434343434343,5.063291139240507,electrolyte-cathode interface,0.0124316126970558,0.0129728256192783,0.0118073396169346,-6.345273793040851e-05,high
400,3.5353535353535355,5.063291139240507,electrolyte-cathode interface,0.0123214926919331,0.0128779571385689,0.0116768495053464,2.9184284613196343e-05,high
400,3.636363636363636,5.063291139240507,electrolyte-cathode interface,0.0123519272735365,0.0128787394064649,0.0117472322789082,-9.232618828045624e-06,high
400,3.7373737373737375,5.063291139240507,electrolyte-cathode interface,0.0123099569169101,0.0129159858728304,0.0115975469070907,-3.165426949096128e-05,high
400,3.8383838383838382,5.063291139240507,electrolyte-cathode interface,0.0124045400418768,0.012976674708127,0.0117396184942446,-1.9106516294748388e-05,high
400,3.939393939393939,5.063291139240507,electrolyte-cathode interface,0.0122488368708922,0.0128652228542032,0.0115210874382255,4.452436678041982e-05,high
400,4.040404040404041,5.063291139240507,electrolyte-cathode interface,0.0123700546450803,0.0129667735046064,0.0116711064524439,-3.1117493590508886e-05,high
400,4.141414141414141,5.063291139240507,electrolyte-cathode interface,0.012187160813502,0.0128601811302768,0.0113786788469107,7.498533621152618e-06,high
400,4.242424242424242,5.063291139240507,electrolyte-cathode interface,0.0121114289774864,0.0128029818030014,0.011274360590504,-3.91390031464179e-05,high
400,4.343434343434343,5.063291139240507,electrolyte-cathode interface,0.012112219059433,0.01281247517338,0.0112626276276106,-2.37083865744885e-05,high
400,4.444444444444445,5.063291139240507,electrolyte-cathode interface,0.0122250548044583,0.0127989028298739,0.0115561307029049,2.3723804053325e-05,high
400,4.545454545454545,5.063291139240507,electrolyte-cathode interface,0.0122563835299365,0.0128495665124133,0.0115589440149583,-9.275571589445578e-05,high
400,4.646464646464646,5.063291139240507,electrolyte-cathode interface,0.0122647263314286,0.0129424617447627,0.0114481349477492,8.841341987080838e-05,high
400,4.747474747474747,5.063291139240507,electrolyte-cathode interface,0.0122232651742575,0.0129049887497271,0.0114020399383967,4.531100597514808e-05,high
400,4.848484848484849,5.063291139240507,electrolyte-cathode interface,0.0122866366211373,0.012860796555909,0.0116179952703359,8.38381671761279e-06,high
400,4.94949494949495,5.063291139240507,electrolyte-cathode interface,0.0121687081587326,0.0127346339484712,0.0115100971926839,-1.909210985035235e-05,high
400,5.05050505050505,5.063291139240507,electrolyte-cathode interface,0.0123158512422125,0.0129415587966687,0.0115756494240812,5.011910751557051e-05,high
400,5.151515151515151,5.063291139240507,electrolyte-cathode interface,0.0122272326417817,0.0127810096095357,0.0115856240765267,9.980801048554131e-06,high
400,5.252525252525253,5.063291139240507,electrolyte-cathode interface,0.0122035744837414,0.0126568304887571,0.0116926414998483,-4.392548426532767e-05,high
400,5.353535353535354,5.063291139240507,electrolyte-cathode interface,0.0121676345809924,0.0126690305502372,0.0115950319999921,3.819762425688535e-06,high
400,5.454545454545454,5.063291139240507,electrolyte-cathode interface,0.0122876766750529,0.0128538774805838,0.0116295736719818,-3.1427821033128104e-05,high
400,5.555555555555555,5.063291139240507,electrolyte-cathode interface,0.0122964844448809,0.0128940235137818,0.0115955565797044,3.7122006991444216e-05,high
400,5.656565656565657,5.063291139240507,electrolyte-cathode interface,0.0122885434866043,0.0129005011029266,0.0115678297828335,-2.226583973165642e-05,high
400,5.757575757575758,5.063291139240507,electrolyte-cathode interface,0.0124129321658057,0.0129829896452338,0.0117509668790537,1.038499348666444e-05,high
400,5.858585858585858,5.063291139240507,electrolyte-cathode interface,0.0122764539557011,0.0129668998474375,0.0114419891755865,-7.924955106394153e-05,high
400,5.959595959595959,5.063291139240507,electrolyte-cathode interface,0.0123552122602048,0.0130164034125158,0.0115654308688123,-4.333914362292521e-05,high
400,6.0606060606060606,5.063291139240507,electrolyte-cathode interface,0.0124266846155677,0.012996920854788,0.0117639528301447,4.870493522070717e-05,high
400,6.161616161616162,5.063291139240507,electrolyte-cathode interface,0.0123150545183849,0.0128272004686843,0.0117293697649101,1.0926890646347e-05,high
400,6.262626262626262,5.063291139240507,electrolyte-cathode interface,0.0123703314486978,0.0129177891883373,0.0117380543158825,3.4711417591717e-05,high
400,6.363636363636363,5.063291139240507,electrolyte-cathode interface,0.0123748741328318,0.0129471835354331,0.0117078384793871,7.745975224335805e-05,high
400,6.4646464646464645,5.063291139240507,electrolyte-cathode interface,0.0123189845706291,0.0129312884943408,0.0115973730924859,-5.499489870565607e-05,high
400,6.565656565656566,5.063291139240507,electrolyte-cathode interface,0.0123753600515923,0.0129408913432149,0.0117191827930225,-9.890553660226186e-06,high
400,6.666666666666667,5.063291139240507,electrolyte-cathode interface,0.0125096349337699,0.0131464078026172,0.0117553524881922,-7.13526806801563e-05,high
400,6.767676767676767,5.063291139240507,electrolyte-cathode interface,0.0123498885401269,0.0129450139840404,0.0116519612740699,-6.57267283592258e-05,high
400,6.8686868686868685,5.063291139240507,electrolyte-cathode interface,0.0125196885007913,0.0132327554956999,0.0116574382692912,-1.7752645617271252e-05,high
400,6.96969696969697,5.063291139240507,electrolyte-cathode interface,0.0125600633069813,0.0131122831155083,0.0119228761074067,-3.818452134816824e-05,high
400,7.070707070707071,5.063291139240507,electrolyte-cathode interface,0.0124607367670579,0.0131118878392224,0.011686261789925,5.353284408636161e-05,high
400,7.171717171717171,5.063291139240507,electrolyte-cathode interface,0.0126351913254182,0.0132893825603355,0.0118593142076464,5.561550879353979e-07,high
400,7.272727272727272,5.063291139240507,electrolyte-cathode interface,0.0125701979324811,0.0131201796924395,0.0119362379877334,2.927371303462083e-05,high
400,7.373737373737374,5.063291139240507,electrolyte-cathode interface,0.012720696074912,0.0134213560147315,0.0118794640020022,7.348839005947941e-06,high
400,7.474747474747475,5.063291139240507,electrolyte-cathode interface,0.0126857167648819,0.0132845153256523,0.0119864465581736,-5.258108510232075e-05,high
400,7.575757575757575,5.063291139240507,electrolyte-cathode interface,0.0127858536594697,0.0133934426378469,0.0120758213684492,-4.126010419553735e-05,high
400,7.6767676767676765,5.063291139240507,electrolyte-cathode interface,0.0128562226217658,0.013472789662495,0.0121344245429866,4.722063182155985e-05,high
400,7.777777777777778,5.063291139240507,electrolyte-cathode interface,0.0128878484258788,0.0135566006776265,0.0120942897850878,-1.6601265576303224e-05,high
400,7.878787878787879,5.063291139240507,electrolyte-cathode interface,0.0128752931820164,0.0134983453211144,0.0121452377357217,2.3533107390346944e-05,high
400,7.979797979797979,5.063291139240507,electrolyte-cathode interface,0.0129782156976779,0.0135217789533598,0.0123557822211878,-2.8156261959051743e-05,high
400,8.080808080808081,5.063291139240507,electrolyte-cathode interface,0.0128940716552722,0.0135480060457573,0.0121212028571346,-3.259305611291652e-05,high
400,8.181818181818182,5.063291139240507,electrolyte-cathode interface,0.0130653538113866,0.0137738665475547,0.0122172878738945,-2.0333071093207025e-05,high
400,8.282828282828282,5.063291139240507,electrolyte-cathode interface,0.0131160601727113,0.0138487375213663,0.0122330333708983,-5.312346831722613e-05,high
400,8.383838383838384,5.063291139240507,electrolyte-cathode interface,0.0132243343614174,0.013866158259766,0.0124714674009743,4.660471201448596e-05,high
400,8.484848484848484,5.063291139240507,electrolyte-cathode interface,0.0133658316116623,0.0139983176645927,0.0126254143147041,-9.315012766443752e-05,high
400,8.585858585858587,5.063291139240507,electrolyte-cathode interface,0.0134015237322559,0.0141307749814901,0.0125281433807722,-3.4277817243760333e-06,high
400,8.686868686868687,5.063291139240507,electrolyte-cathode interface,0.0136560328532055,0.0143066257476331,0.0128959162018856,5.325790952176036e-06,high
400,8.787878787878787,5.063291139240507,electrolyte-cathode interface,0.0135648616668466,0.01432954539176,0.0126419765907626,-3.561920681989315e-05,high
400,8.88888888888889,5.063291139240507,electrolyte-cathode interface,0.0137516765189426,0.0143990132077646,0.0129966193766141,3.36876032111197e-05,high
400,8.98989898989899,5.063291139240507,electrolyte-cathode interface,0.013670367974539,0.0143792573858364,0.0128292345616075,-2.2538700408079703e-05,high
400,9.09090909090909,5.063291139240507,electrolyte-cathode interface,0.0138567273515693,0.0144770566320653,0.0131383485233475,6.360783774271148e-05,high
400,9.191919191919192,5.063291139240507,electrolyte-cathode interface,0.0139430702202702,0.0145729160480107,0.0132135948190238,1.6782667125765505e-05,high
400,9.292929292929292,5.063291139240507,electrolyte-cathode interface,0.0141505157747786,0.0147919648836836,0.0134051612712864,-9.1647236576677e-05,high
400,9.393939393939394,5.063291139240507,electrolyte-cathode interface,0.0142007999102109,0.0148104841226245,0.0135001209227421,-2.7927253455284093e-05,high
400,9.494949494949497,5.063291139240507,electrolyte-cathode interface,0.0143700214666411,0.0150020139310594,0.0136401060520106,-6.748547330236652e-05,high
400,9.595959595959595,5.063291139240507,electrolyte-cathode interface,0.0146623424244218,0.0154859320482678,0.0136694622718493,1.0939898489592898e-05,high
400,9.696969696969695,5.063291139240507,electrolyte-cathode interface,0.0146506005136341,0.0153787259198351,0.0137892080812125,0.0001330121777046,high
400,9.797979797979798,5.063291139240507,electrolyte-cathode interface,0.0148356119785228,0.0156687777268256,0.0138311165347852,-2.375866989466403e-05,high
400,9.8989898989899,5.063291139240507,electrolyte-cathode interface,0.0149490438420534,0.0157104348552314,0.0140487062558453,2.0699604492713768e-05,high
400,10.0,5.063291139240507,electrolyte-cathode interface,0.0151224033613333,0.0158928230488087,0.0142114455104589,-4.627126044932572e-06,critical
400,0.0,5.1645569620253164,electrolyte-cathode interface,0.0151464902658323,0.0160154337330467,0.0140941908570007,-1.1740144638849555e-05,critical
400,0.101010101010101,5.1645569620253164,electrolyte-cathode interface,0.015004091195207,0.0156553504038944,0.0142545740268879,-8.696484466300043e-06,critical
400,0.202020202020202,5.1645569620253164,electrolyte-cathode interface,0.014858319481005,0.0154767355281351,0.0141510492969477,-7.447630275104427e-06,high
400,0.303030303030303,5.1645569620253164,electrolyte-cathode interface,0.0146850576805514,0.0153658312808946,0.0138907146134137,-0.000104199772345,high
400,0.404040404040404,5.1645569620253164,electrolyte-cathode interface,0.0144456509651913,0.0150345570359848,0.0137732699346205,6.04820965179604e-05,high
400,0.5050505050505051,5.1645569620253164,electrolyte-cathode interface,0.0144123446183952,0.0151100645237488,0.0135945684687531,-3.715898858171084e-05,high
400,0.6060606060606061,5.1645569620253164,electrolyte-cathode interface,0.0142339546625108,0.0149443473665618,0.0133961110930759,-6.401104045109033e-05,high
400,0.7070707070707071,5.1645569620253164,electrolyte-cathode interface,0.0141133558071629,0.0147687556378531,0.0133499944675111,-6.089012987126157e-05,high
400,0.8080808080808081,5.1645569620253164,electrolyte-cathode interface,0.0140861250364137,0.0148312254947206,0.0131977980254357,-6.141306878525239e-05,high
400,0.9090909090909092,5.1645569620253164,electrolyte-cathode interface,0.01390604669975,0.0146805836143171,0.0129729110761109,6.346532895266206e-05,high
400,1.0101010101010102,5.1645569620253164,electrolyte-cathode interface,0.0138470294209761,0.0144216246724594,0.0131901743784609,1.7989197038007784e-06,high
400,1.1111111111111112,5.1645569620253164,electrolyte-cathode interface,0.0135976809462856,0.0142713208786869,0.012804857787431,3.732214973734523e-05,high
400,1.2121212121212122,5.1645569620253164,electrolyte-cathode interface,0.0136266566459429,0.0143168261482438,0.0128114632935874,-7.333560787280609e-06,high
400,1.3131313131313131,5.1645569620253164,electrolyte-cathode interface,0.0135092471523955,0.0141557158004967,0.0127533744406283,4.213314395568113e-06,high
400,1.414141414141414,5.1645569620253164,electrolyte-cathode interface,0.0133918716445937,0.0140289277756664,0.0126465412364592,6.787238814784374e-05,high
400,1.5151515151515151,5.1645569620253164,electrolyte-cathode interface,0.0132524132535362,0.0138381550459715,0.0125764220449685,-1.702433095780191e-06,high
400,1.616161616161616,5.1645569620253164,electrolyte-cathode interface,0.0132304241012456,0.013881860213786,0.0124646926087236,2.965060915453461e-05,high
400,1.7171717171717171,5.1645569620253164,electrolyte-cathode interface,0.0132656477252637,0.0138083533423665,0.0126463235673509,2.703129602611574e-05,high
400,1.818181818181818,5.1645569620253164,electrolyte-cathode interface,0.0130902740347359,0.0137959331477655,0.0122460414926616,-5.013450042231446e-05,high
400,1.9191919191919191,5.1645569620253164,electrolyte-cathode interface,0.0131170437284617,0.0137671729189578,0.0123519950915328,-2.6176146203466307e-05,high
400,2.0202020202020203,5.1645569620253164,electrolyte-cathode interface,0.0129770393957824,0.0135291585848267,0.012343502790047,1.372439674781454e-05,high
400,2.121212121212121,5.1645569620253164,electrolyte-cathode interface,0.0128568542867316,0.0134132915761158,0.0122166570740726,-1.987124232954273e-05,high
400,2.2222222222222223,5.1645569620253164,electrolyte-cathode interface,0.0128438508004779,0.0134419752942839,0.0121464230321312,-6.862800482198634e-05,high
400,2.323232323232323,5.1645569620253164,electrolyte-cathode interface,0.0126513380266545,0.0132747317395573,0.0119183572171412,-3.467557184451504e-05,high
400,2.4242424242424243,5.1645569620253164,electrolyte-cathode interface,0.0128140131598745,0.0133716478615044,0.0121708046814967,6.631874129840806e-05,high
400,2.525252525252525,5.1645569620253164,electrolyte-cathode interface,0.0126469718182584,0.013237096953433,0.01195977322388,2.3541142506996973e-05,high
400,2.6262626262626263,5.1645569620253164,electrolyte-cathode interface,0.0125351858487775,0.0131621858845278,0.0117962535629654,-1.4503097696238416e-05,high
400,2.727272727272727,5.1645569620253164,electrolyte-cathode interface,0.0125287183842345,0.0131761603839758,0.0117592078434829,8.128410096783578e-05,high
400,2.8282828282828283,5.1645569620253164,electrolyte-cathode interface,0.0125143663939884,0.0131405374077105,0.0117759759573889,3.952092659099265e-05,high
400,2.929292929292929,5.1645569620253164,electrolyte-cathode interface,0.0126107433487885,0.0131563663452496,0.0119824080687853,5.0726465546019e-05,high
400,3.0303030303030303,5.1645569620253164,electrolyte-cathode interface,0.0124858163403343,0.0130174275792796,0.0118757929534364,1.335135196131564e-06,high
400,3.131313131313131,5.1645569620253164,electrolyte-cathode interface,0.012443102160207,0.0129650133769934,0.0118455321278119,-4.851370716515158e-06,high
400,3.2323232323232323,5.1645569620253164,electrolyte-cathode interface,0.0124514055907089,0.0130821671426992,0.011704373387992,8.289871642717273e-05,high
400,3.333333333333333,5.1645569620253164,electrolyte-cathode interface,0.0124422715057038,0.0130240029980027,0.0117645422976011,-2.85471055441059e-05,high
400,3.4343434343434343,5.1645569620253164,electrolyte-cathode interface,0.0123087201002499,0.0129391893850507,0.0115624606511954,1.0651708136919896e-05,high
400,3.5353535353535355,5.1645569620253164,electrolyte-cathode interface,0.0125298414374217,0.0132690798432142,0.0116290555505567,1.1257070552530509e-05,high
400,3.636363636363636,5.1645569620253164,electrolyte-cathode interface,0.012319151956836,0.0129956467156805,0.0115070212510484,3.793078437988603e-05,high
400,3.7373737373737375,5.1645569620253164,electrolyte-cathode interface,0.0122499356453871,0.0128055827890414,0.0116048716108264,-6.343451741999302e-05,high
400,3.8383838383838382,5.1645569620253164,electrolyte-cathode interface,0.0123406421582822,0.0130359503158602,0.0115006776962128,6.35709985807312e-05,high
400,3.939393939393939,5.1645569620253164,electrolyte-cathode interface,0.0122756825612569,0.0130081826187466,0.0113796825383562,-6.159337252542264e-05,high
400,4.040404040404041,5.1645569620253164,electrolyte-cathode interface,0.0122428611718904,0.0128050386404022,0.0115896237496494,-4.015127865800805e-05,high
400,4.141414141414141,5.1645569620253164,electrolyte-cathode interface,0.0122179473727956,0.0127837525522649,0.0115590166084801,5.958691711894364e-05,high
400,4.242424242424242,5.1645569620253164,electrolyte-cathode interface,0.0122157581082306,0.0128021337387496,0.0115296671269338,-2.028429889841853e-05,high
400,4.343434343434343,5.1645569620253164,electrolyte-cathode interface,0.0122361404877889,0.012741907103378,0.0116578154371156,-4.1141900763960536e-05,high
400,4.444444444444445,5.1645569620253164,electrolyte-cathode interface,0.0122349287828093,0.0128443230022566,0.0115173518365966,3.7738593617507137e-06,high
400,4.545454545454545,5.1645569620253164,electrolyte-cathode interface,0.0123034523766751,0.0129236539775711,0.0115696139062922,-8.130004400735895e-05,high
400,4.646464646464646,5.1645569620253164,electrolyte-cathode interface,0.0122620942040297,0.0129524980406414,0.0114293806995575,3.4984294268885893e-06,high
400,4.747474747474747,5.1645569620253164,electrolyte-cathode interface,0.0122427253595929,0.0127224373316831,0.0116973252558012,-7.066811410784074e-05,high
400,4.848484848484849,5.1645569620253164,electrolyte-cathode interface,0.0121879468046843,0.0128093149040215,0.0114523205880344,-5.238621400037812e-05,high
400,4.94949494949495,5.1645569620253164,electrolyte-cathode interface,0.0121617322874975,0.0127582187046548,0.0114596721347232,7.417470377520718e-05,high
400,5.05050505050505,5.1645569620253164,electrolyte-cathode interface,0.0121565055845933,0.0126234971468582,0.0116268579115718,-7.241222107696312e-05,high
400,5.151515151515151,5.1645569620253164,electrolyte-cathode interface,0.0121836758936403,0.0128397035585182,0.0113995236377375,-2.110181809175277e-05,high
400,5.252525252525253,5.1645569620253164,electrolyte-cathode interface,0.0122624342820702,0.012851934066044,0.0115723173006976,-3.2744037767557314e-05,high
400,5.353535353535354,5.1645569620253164,electrolyte-cathode interface,0.0122080517632342,0.0128366886902583,0.0114596604455144,-0.0001098899932493,high
400,5.454545454545454,5.1645569620253164,electrolyte-cathode interface,0.0122327214014318,0.012846579798777,0.0115083271112716,4.438484746444509e-05,high
400,5.555555555555555,5.1645569620253164,electrolyte-cathode interface,0.0122617120371878,0.012907635239467,0.0114923345836077,5.04753448795812e-05,high
400,5.656565656565657,5.1645569620253164,electrolyte-cathode interface,0.0121376237601889,0.012726427483165,0.0114475123086486,-1.0820684485815058e-05,high
400,5.757575757575758,5.1645569620253164,electrolyte-cathode interface,0.0121903757768908,0.0128147439108552,0.0114513783537979,-2.229305240012081e-06,high
400,5.858585858585858,5.1645569620253164,electrolyte-cathode interface,0.0122217257772643,0.0128643082761784,0.0114565731470015,-5.155588913407229e-05,high
400,5.959595959595959,5.1645569620253164,electrolyte-cathode interface,0.0122272588677225,0.0128486661601304,0.0114928326954385,1.2242546478941398e-06,high
400,6.0606060606060606,5.1645569620253164,electrolyte-cathode interface,0.0122797483651743,0.0128717982052712,0.0115850753946371,7.259854905281733e-05,high
400,6.161616161616162,5.1645569620253164,electrolyte-cathode interface,0.01237118498032,0.0129899516862262,0.0116418012464655,-2.752257759620145e-05,high
400,6.262626262626262,5.1645569620253164,electrolyte-cathode interface,0.0123997830577154,0.0131109530297781,0.0115375686990382,5.933052969345809e-05,high
400,6.363636363636363,5.1645569620253164,electrolyte-cathode interface,0.0123678864516204,0.0129923025913005,0.0116289161494676,-8.0405778518436e-05,high
400,6.4646464646464645,5.1645569620253164,electrolyte-cathode interface,0.0123395460462791,0.0129653175310439,0.0115969999493228,-0.0001053832265688,high
400,6.565656565656566,5.1645569620253164,electrolyte-cathode interface,0.0122204613305243,0.0126826275535577,0.0116961445707122,9.777704653414495e-05,high
400,6.666666666666667,5.1645569620253164,electrolyte-cathode interface,0.0123821931972091,0.0130726738617577,0.0115509042950451,2.395204470900745e-05,high
400,6.767676767676767,5.1645569620253164,electrolyte-cathode interface,0.0123153987731029,0.0129196632016617,0.0116057305459323,1.2884798141683355e-05,high
400,6.8686868686868685,5.1645569620253164,electrolyte-cathode interface,0.0124619654739859,0.0130992263192826,0.0117075208166867,3.77467586611484e-05,high
400,6.96969696969697,5.1645569620253164,electrolyte-cathode interface,0.0125554651775822,0.0131984746412492,0.0117917856798858,-9.547725809203304e-05,high
400,7.070707070707071,5.1645569620253164,electrolyte-cathode interface,0.0126790934018119,0.0133370819118161,0.0118977234096538,-4.74162962049171e-05,high
400,7.171717171717171,5.1645569620253164,electrolyte-cathode interface,0.0125054669499995,0.0130780526537683,0.0118409006867236,8.869403515048617e-06,high
400,7.272727272727272,5.1645569620253164,electrolyte-cathode interface,0.012529117167567,0.0131360884607653,0.0118164733243762,-7.107274947984522e-05,high
400,7.373737373737374,5.1645569620253164,electrolyte-cathode interface,0.012774894773134,0.0134402514880649,0.0119840757547186,5.321873986981248e-05,high
400,7.474747474747475,5.1645569620253164,electrolyte-cathode interface,0.0127426167626433,0.0134085027092007,0.0119494723750152,-8.36256133293708e-05,high
400,7.575757575757575,5.1645569620253164,electrolyte-cathode interface,0.0128571494273282,0.0135218719785488,0.0120689975175577,-1.6181683742678186e-06,high
400,7.6767676767676765,5.1645569620253164,electrolyte-cathode interface,0.0127979917844419,0.0134598642014377,0.0120125638653823,4.63217470661284e-05,high
400,7.777777777777778,5.1645569620253164,electrolyte-cathode interface,0.012828959363939,0.0134542917640767,0.0120946713310029,5.289537358351797e-05,high
400,7.878787878787879,5.1645569620253164,electrolyte-cathode interface,0.0129745015954077,0.0136263599068239,0.0122048669121496,-5.519708776593334e-05,high
400,7.979797979797979,5.1645569620253164,electrolyte-cathode interface,0.0129705842283658,0.0136040385542962,0.0122272811486694,7.960537379283614e-06,high
400,8.080808080808081,5.1645569620253164,electrolyte-cathode interface,0.0130193306055384,0.0137333761202736,0.0121582068121832,0.0001272582248476,high
400,8.181818181818182,5.1645569620253164,electrolyte-cathode interface,0.0130934449348721,0.0136385258244549,0.0124694117119781,4.85757311189723e-05,high
400,8.282828282828282,5.1645569620253164,electrolyte-cathode interface,0.0131048307211469,0.0136888464052565,0.0124285606948208,-7.213359868245625e-05,high
400,8.383838383838384,5.1645569620253164,electrolyte-cathode interface,0.013135295304272,0.0137654193529124,0.0123967897090752,-7.263298872369176e-05,high
400,8.484848484848484,5.1645569620253164,electrolyte-cathode interface,0.0132619958765232,0.0139329403548962,0.0124694278481816,3.09370501297522e-05,high
400,8.585858585858587,5.1645569620253164,electrolyte-cathode interface,0.0133180444599631,0.0138655402464699,0.012692770925253,3.0519138513271854e-05,high
400,8.686868686868687,5.1645569620253164,electrolyte-cathode interface,0.0134509456346401,0.0141170348407039,0.0126660983876881,-7.06390840285892e-05,high
400,8.787878787878787,5.1645569620253164,electrolyte-cathode interface,0.0134267139060037,0.014071456550737,0.0126720634989056,-3.630641416633279e-05,high
400,8.88888888888889,5.1645569620253164,electrolyte-cathode interface,0.0137156863095183,0.0144615693877456,0.0128208196040237,-7.920180336415239e-05,high
400,8.98989898989899,5.1645569620253164,electrolyte-cathode interface,0.0136714014834181,0.0141992815410462,0.0130738030736013,-2.520638719405528e-05,high
400,9.09090909090909,5.1645569620253164,electrolyte-cathode interface,0.0138710288675732,0.0145182215654653,0.0131170170896688,-4.585293974416293e-05,high
400,9.191919191919192,5.1645569620253164,electrolyte-cathode interface,0.0140831495718014,0.0147450870207233,0.0133105355786375,6.366218735424277e-05,high
400,9.292929292929292,5.1645569620253164,electrolyte-cathode interface,0.0141023711771963,0.0147296909139491,0.013377666794444,-1.4796094840500242e-06,high
400,9.393939393939394,5.1645569620253164,electrolyte-cathode interface,0.0142617638516758,0.0148841393780227,0.0135449095927449,4.062103687795754e-06,high
400,9.494949494949497,5.1645569620253164,electrolyte-cathode interface,0.0143921033421524,0.0151559509487597,0.0134815359711481,3.403528209506925e-05,high
400,9.595959595959595,5.1645569620253164,electrolyte-cathode interface,0.0144297038622395,0.0151320051388149,0.013604070673925,-9.110886582731052e-05,high
400,9.696969696969695,5.1645569620253164,electrolyte-cathode interface,0.0146245221572492,0.0152645481883502,0.0138869652367574,1.4871594009018048e-05,high
400,9.797979797979798,5.1645569620253164,electrolyte-cathode interface,0.0148258507746413,0.0155152986601439,0.0140230128050223,5.0669956883349045e-05,high
400,9.8989898989899,5.1645569620253164,electrolyte-cathode interface,0.0149506413962849,0.0156574556515896,0.0141256672021579,-3.3138796965220983e-05,high
400,10.0,5.1645569620253164,electrolyte-cathode interface,0.0150335967618085,0.0157316341258532,0.0142213414840993,-3.2180357647936034e-05,critical
400,0.0,5.265822784810126,electrolyte-cathode interface,0.0152789520288146,0.0159822748068829,0.0144603978340493,-8.208446410845266e-05,critical
400,0.101010101010101,5.265822784810126,electrolyte-cathode interface,0.0149817645122634,0.0157495687582814,0.0140712792794771,8.171453796389321e-05,high
400,0.202020202020202,5.265822784810126,electrolyte-cathode interface,0.014766606339944,0.0155364274157035,0.0138504588325726,8.855207340980965e-05,high
400,0.303030303030303,5.265822784810126,electrolyte-cathode interface,0.0147768974091458,0.0155116097586624,0.0139114138828278,-5.048715254707332e-05,high
400,0.404040404040404,5.265822784810126,electrolyte-cathode interface,0.0147086371315707,0.0153981207436159,0.0139045268355482,-5.656974864547196e-05,high
400,0.5050505050505051,5.265822784810126,electrolyte-cathode interface,0.0143429114690773,0.0149755093390902,0.0136129982677766,-1.9063912069963307e-05,high
400,0.6060606060606061,5.265822784810126,electrolyte-cathode interface,0.0142440921426542,0.014922219100182,0.0134518741334405,-1.2021091625472762e-05,high
400,0.7070707070707071,5.265822784810126,electrolyte-cathode interface,0.0141788826302301,0.0148531674966259,0.0133913353884179,-2.000132354359724e-06,high
400,0.8080808080808081,5.265822784810126,electrolyte-cathode interface,0.0139868388321985,0.0146859296360887,0.0131614544311472,-8.050296681640918e-05,high
400,0.9090909090909092,5.265822784810126,electrolyte-cathode interface,0.0137942026723398,0.0144249553692888,0.0130621755422959,2.279828424127373e-05,high
400,1.0101010101010102,5.265822784810126,electrolyte-cathode interface,0.0137197272084698,0.0143902256235661,0.0129328608424637,8.506632564994217e-06,high
400,1.1111111111111112,5.265822784810126,electrolyte-cathode interface,0.0136563117227107,0.0142361517552028,0.0129908086503048,-4.019556521703819e-05,high
400,1.2121212121212122,5.265822784810126,electrolyte-cathode interface,0.0136249956693151,0.0142383518707403,0.0129149951502699,1.815324392121844e-05,high
400,1.3131313131313131,5.265822784810126,electrolyte-cathode interface,0.0134615510225641,0.0140763219443486,0.012748298260147,-1.3643983880760502e-05,high
400,1.414141414141414,5.265822784810126,electrolyte-cathode interface,0.0133060990864211,0.0139475940662788,0.0125547357875922,-3.587170858935782e-05,high
400,1.5151515151515151,5.265822784810126,electrolyte-cathode interface,0.0132521381957801,0.0139102340867711,0.0124776345029819,1.674010360557506e-06,high
400,1.616161616161616,5.265822784810126,electrolyte-cathode interface,0.0131837137526236,0.0138829674806124,0.0123505105002183,7.030193611562238e-06,high
400,1.7171717171717171,5.265822784810126,electrolyte-cathode interface,0.0132662849610016,0.0139407700573115,0.0124688116972633,-3.0651227919564164e-05,high
400,1.818181818181818,5.265822784810126,electrolyte-cathode interface,0.0132089562829064,0.0139413137492909,0.0123283427295734,2.2778436524466315e-05,high
400,1.9191919191919191,5.265822784810126,electrolyte-cathode interface,0.0130766641924652,0.0137825535522511,0.0122323587792906,-3.110531822875268e-05,high
400,2.0202020202020203,5.265822784810126,electrolyte-cathode interface,0.0129969789924211,0.0136502614920094,0.0122263665246405,1.718422573810579e-05,high
400,2.121212121212121,5.265822784810126,electrolyte-cathode interface,0.0129330045295296,0.01353521905152,0.0122321263394757,3.918927519828061e-06,high
400,2.2222222222222223,5.265822784810126,electrolyte-cathode interface,0.0129200471496448,0.0135007994495526,0.0122472714943307,5.269334347674686e-05,high
400,2.323232323232323,5.265822784810126,electrolyte-cathode interface,0.0128924412122982,0.0136511822440176,0.0119682005166074,2.902029528453681e-05,high
400,2.4242424242424243,5.265822784810126,electrolyte-cathode interface,0.0126352324946149,0.0131001058779413,0.0121122650972883,2.094109898573566e-05,high
400,2.525252525252525,5.265822784810126,electrolyte-cathode interface,0.0126414854844653,0.0131887945242472,0.0120118624017981,-5.663475392701385e-07,high
400,2.6262626262626263,5.265822784810126,electrolyte-cathode interface,0.012702709333704,0.0133036057680748,0.0120013935335901,-2.048962765431656e-05,high
400,2.727272727272727,5.265822784810126,electrolyte-cathode interface,0.0127590172999958,0.013406303326873,0.0119929966781044,6.667211634213576e-05,high
400,2.8282828282828283,5.265822784810126,electrolyte-cathode interface,0.0126852009041153,0.0133128809123776,0.0119468949340588,1.647983608234857e-05,high
400,2.929292929292929,5.265822784810126,electrolyte-cathode interface,0.0124110064021466,0.0130080503980983,0.0117121176334659,2.4642369302262435e-05,high
400,3.0303030303030303,5.265822784810126,electrolyte-cathode interface,0.0126176049500165,0.0131927343629577,0.0119505470351005,-1.3326553418408225e-05,high
400,3.131313131313131,5.265822784810126,electrolyte-cathode interface,0.0124921456185434,0.0131021486720612,0.0117737157497462,-9.659874056886503e-05,high
400,3.2323232323232323,5.265822784810126,electrolyte-cathode interface,0.0125251354731228,0.0131186510810934,0.0118321417788721,2.6912799465859662e-05,high
400,3.333333333333333,5.265822784810126,electrolyte-cathode interface,0.0123935879187793,0.012965139138257,0.0117271406877959,-9.013069395557704e-05,high
400,3.4343434343434343,5.265822784810126,electrolyte-cathode interface,0.0124134677601473,0.0130356438656846,0.0116793562261832,4.738961265632065e-05,high
400,3.5353535353535355,5.265822784810126,electrolyte-cathode interface,0.0123988136570748,0.0129292784912869,0.0117889957432723,4.873828091690804e-05,high
400,3.636363636363636,5.265822784810126,electrolyte-cathode interface,0.0123991037118545,0.0129961270750508,0.0117002715056587,-1.0261586348693905e-05,high
400,3.7373737373737375,5.265822784810126,electrolyte-cathode interface,0.0123036136981096,0.0128910142411682,0.0116168460847894,-2.873572167924266e-05,high
400,3.8383838383838382,5.265822784810126,electrolyte-cathode interface,0.0124355268171659,0.0130989189918896,0.0116436347957543,-4.260738668111949e-05,high
400,3.939393939393939,5.265822784810126,electrolyte-cathode interface,0.0122122302233947,0.0127291070464809,0.0116192798033812,-3.556261809293855e-05,high
400,4.040404040404041,5.265822784810126,electrolyte-cathode interface,0.012390741324873,0.0129128515108447,0.0117891352045102,-0.0001101210026602,high
400,4.141414141414141,5.265822784810126,electrolyte-cathode interface,0.0122444104881402,0.012856815390258,0.0115227479879023,-1.7028528818321384e-06,high
400,4.242424242424242,5.265822784810126,electrolyte-cathode interface,0.0122209061827461,0.0127611458579509,0.0115973629497269,-1.3128860640746372e-05,high
400,4.343434343434343,5.265822784810126,electrolyte-cathode interface,0.0123426880498401,0.0130486140781317,0.0114883565214958,-1.1747505252549642e-05,high
400,4.444444444444445,5.265822784810126,electrolyte-cathode interface,0.0123620615066097,0.0130420201090494,0.0115458925230296,1.161144949490629e-05,high
400,4.545454545454545,5.265822784810126,electrolyte-cathode interface,0.0123438986629036,0.0129671976156742,0.0116058856423578,-8.727596456172023e-05,high
400,4.646464646464646,5.265822784810126,electrolyte-cathode interface,0.0121870734507677,0.0127540755475375,0.0115266223169083,4.727939383894682e-05,high
400,4.747474747474747,5.265822784810126,electrolyte-cathode interface,0.0122593352231731,0.0129224336606094,0.0114661470443361,-1.275691935083304e-06,high
400,4.848484848484849,5.265822784810126,electrolyte-cathode interface,0.012299131716826,0.012888494845836,0.0116095651900713,3.244897949506872e-05,high
400,4.94949494949495,5.265822784810126,electrolyte-cathode interface,0.0122294325710665,0.012851702114974,0.0114936275616364,-2.5670185255081684e-05,high
400,5.05050505050505,5.265822784810126,electrolyte-cathode interface,0.0121179745255067,0.0127101573633532,0.0114224576314235,-4.435474266582527e-05,high
400,5.151515151515151,5.265822784810126,electrolyte-cathode interface,0.0121465711628297,0.0128410407294212,0.0113059321811021,2.9984089991957757e-05,high
400,5.252525252525253,5.265822784810126,electrolyte-cathode interface,0.0121561937942229,0.0127756752941847,0.0114235389269964,2.121921648448706e-05,high
400,5.353535353535354,5.265822784810126,electrolyte-cathode interface,0.0123451094649691,0.0128622948943331,0.0117528133149406,-2.959522623163537e-05,high
400,5.454545454545454,5.265822784810126,electrolyte-cathode interface,0.012303521422112,0.012913995333492,0.0115844352358183,-5.02220222106731e-05,high
400,5.555555555555555,5.265822784810126,electrolyte-cathode interface,0.0122124401713341,0.0127700384822256,0.0115631257620981,-9.218761233202524e-05,high
400,5.656565656565657,5.265822784810126,electrolyte-cathode interface,0.0123636491818774,0.0128905802665742,0.0117540724927865,0.0001308386350447,high
400,5.757575757575758,5.265822784810126,electrolyte-cathode interface,0.0121949334430055,0.0127283391648872,0.0115802844299616,1.3954145574006871e-05,high
400,5.858585858585858,5.265822784810126,electrolyte-cathode interface,0.0122131107623376,0.0128671023896686,0.0114305270110983,-7.866438232129094e-05,high
400,5.959595959595959,5.265822784810126,electrolyte-cathode interface,0.0123327081770097,0.0128804938236721,0.0116984163272459,-7.528727623607377e-05,high
400,6.0606060606060606,5.265822784810126,electrolyte-cathode interface,0.0123012244954795,0.0128718443336419,0.0116368707265393,-4.8220864145390846e-05,high
400,6.161616161616162,5.265822784810126,electrolyte-cathode interface,0.0121754866385138,0.0126822184448049,0.0115950435495189,-5.671701585523954e-05,high
400,6.262626262626262,5.265822784810126,electrolyte-cathode interface,0.012337399259334,0.0130040316781516,0.0115366873171953,-0.0001078172479195,high
400,6.363636363636363,5.265822784810126,electrolyte-cathode interface,0.0123267977727188,0.0129103300416556,0.0116457619879953,-7.748453188612692e-06,high
400,6.4646464646464645,5.265822784810126,electrolyte-cathode interface,0.0122807297625873,0.012904287984156,0.0115438804621553,-4.356506898914739e-06,high
400,6.565656565656566,5.265822784810126,electrolyte-cathode interface,0.0123831762990776,0.0129276397791917,0.0117545304630706,-5.33359989643952e-05,high
400,6.666666666666667,5.265822784810126,electrolyte-cathode interface,0.0124465662352017,0.0131225613989096,0.0116372369528162,-1.2462077268402516e-05,high
400,6.767676767676767,5.265822784810126,electrolyte-cathode interface,0.0126413094156569,0.0132876511733612,0.0118758548834353,-4.938927542473865e-05,high
400,6.8686868686868685,5.265822784810126,electrolyte-cathode interface,0.0126161432087277,0.0131892304603694,0.0119499622697888,8.26184926384733e-05,high
400,6.96969696969697,5.265822784810126,electrolyte-cathode interface,0.0124744038557545,0.0130411542585817,0.0118167986206377,-4.834312762467645e-05,high
400,7.070707070707071,5.265822784810126,electrolyte-cathode interface,0.012489724238819,0.0130815792029528,0.0117983544996006,-4.257178803446824e-05,high
400,7.171717171717171,5.265822784810126,electrolyte-cathode interface,0.0125751670095861,0.0131828143702525,0.0118634903018549,2.509241897315429e-06,high
400,7.272727272727272,5.265822784810126,electrolyte-cathode interface,0.0126176802416353,0.0132895359550897,0.0118143437892823,8.66336744282571e-05,high
400,7.373737373737374,5.265822784810126,electrolyte-cathode interface,0.012688220126045,0.0131785116000042,0.0121313161425646,8.489431230858308e-05,high
400,7.474747474747475,5.265822784810126,electrolyte-cathode interface,0.0127467739508319,0.0133891913728229,0.0119884427344032,2.94129932674864e-05,high
400,7.575757575757575,5.265822784810126,electrolyte-cathode interface,0.0127632755339387,0.013411064414532,0.0119954945148901,-9.131372863212114e-05,high
400,7.6767676767676765,5.265822784810126,electrolyte-cathode interface,0.012719994574492,0.0133092358656886,0.0120346760373621,2.173530704842462e-05,high
400,7.777777777777778,5.265822784810126,electrolyte-cathode interface,0.0128124658233812,0.0134005586130425,0.0121293968530506,3.01926320384448e-05,high
400,7.878787878787879,5.265822784810126,electrolyte-cathode interface,0.0127969502083233,0.0133521559604553,0.0121575114614267,-4.385594316558804e-05,high
400,7.979797979797979,5.265822784810126,electrolyte-cathode interface,0.0128990901353128,0.0135228533791092,0.0121680124464884,-3.951428932434534e-05,high
400,8.080808080808081,5.265822784810126,electrolyte-cathode interface,0.0129191425180116,0.013584714118579,0.0121304995541403,-6.704295224068267e-06,high
400,8.181818181818182,5.265822784810126,electrolyte-cathode interface,0.0130894561737907,0.0137523658534763,0.0123062830631749,2.7083254111748297e-05,high
400,8.282828282828282,5.265822784810126,electrolyte-cathode interface,0.0131782845163444,0.0138168766891205,0.0124299730513878,-9.59502038805366e-06,high
400,8.383838383838384,5.265822784810126,electrolyte-cathode interface,0.0131965868124737,0.0138358224725739,0.0124475952134698,-1.9141756255464542e-06,high
400,8.484848484848484,5.265822784810126,electrolyte-cathode interface,0.0133753345068931,0.0140568137189332,0.0125692909333423,-2.982115896162318e-05,high
400,8.585858585858587,5.265822784810126,electrolyte-cathode interface,0.0133756518124242,0.0139502684614507,0.0127150608800594,-3.564106977071271e-05,high
400,8.686868686868687,5.265822784810126,electrolyte-cathode interface,0.0133759050216307,0.0139807592291688,0.0126701251072822,-0.000140362409345,high
400,8.787878787878787,5.265822784810126,electrolyte-cathode interface,0.0136855029895502,0.0143791466364988,0.0128646553291028,-7.425799985261387e-05,high
400,8.88888888888889,5.265822784810126,electrolyte-cathode interface,0.0137468061563152,0.0142950625172736,0.0131222045771714,-7.382175950114295e-05,high
400,8.98989898989899,5.265822784810126,electrolyte-cathode interface,0.0138051638376629,0.0145006089687524,0.0129843274519863,-3.0462234204900347e-05,high
400,9.09090909090909,5.265822784810126,electrolyte-cathode interface,0.0138970432735093,0.0146428098376537,0.0130063347829885,1.2572842272296496e-05,high
400,9.191919191919192,5.265822784810126,electrolyte-cathode interface,0.0139751108126187,0.01467273854243,0.0131511056464281,9.241367298505718e-05,high
400,9.292929292929292,5.265822784810126,electrolyte-cathode interface,0.0140653380682371,0.0147493652020403,0.0132632588185876,1.3840837301110754e-05,high
400,9.393939393939394,5.265822784810126,electrolyte-cathode interface,0.0142367892424167,0.0149596589439571,0.0133825932312372,-6.179907783228927e-07,high
400,9.494949494949497,5.265822784810126,electrolyte-cathode interface,0.0142832994088947,0.0149280297543132,0.0135364443255463,-3.5063462546628494e-05,high
400,9.595959595959595,5.265822784810126,electrolyte-cathode interface,0.0145040776640253,0.0152329601789544,0.0136443475990389,-1.6075976270656508e-05,high
400,9.696969696969695,5.265822784810126,electrolyte-cathode interface,0.014705482755898,0.0154195773513058,0.0138683618882959,-1.499776486996978e-05,high
400,9.797979797979798,5.265822784810126,electrolyte-cathode interface,0.0148188829629161,0.0155868745072054,0.0139076515891639,-2.990345518304312e-05,high
400,9.8989898989899,5.265822784810126,electrolyte-cathode interface,0.0149147627853637,0.0156536770437325,0.0140454466277637,-1.691574046897017e-05,high
400,10.0,5.265822784810126,electrolyte-cathode interface,0.015273110560115,0.01593923927632,0.0145057608452905,-2.7402987132880533e-05,critical
400,0.0,5.367088607594937,electrolyte-cathode interface,0.015212515416177,0.015968298839524,0.0143228668695939,2.12955970403692e-05,critical
400,0.101010101010101,5.367088607594937,electrolyte-cathode interface,0.0150307186821797,0.0157009427889921,0.0142555819879783,4.952790689501228e-05,critical
400,0.202020202020202,5.367088607594937,electrolyte-cathode interface,0.0147652345824807,0.0153610785317242,0.0140864667607004,3.73941314971812e-05,high
400,0.303030303030303,5.367088607594937,electrolyte-cathode interface,0.0146853092225086,0.0154342460996013,0.0137994198391909,2.587295355031764e-05,high
400,0.404040404040404,5.367088607594937,electrolyte-cathode interface,0.014454569597483,0.0151222156830262,0.0136785226747431,1.5944002876053394e-05,high
400,0.5050505050505051,5.367088607594937,electrolyte-cathode interface,0.0143877923018302,0.0151123560192698,0.013532807471729,-1.815905250781379e-05,high
400,0.6060606060606061,5.367088607594937,electrolyte-cathode interface,0.0142124625068298,0.0149161907966767,0.0133842880886574,-3.987393929517047e-05,high
400,0.7070707070707071,5.367088607594937,electrolyte-cathode interface,0.0141003432356211,0.0148094155120831,0.0132636680345628,-3.2521582004870807e-05,high
400,0.8080808080808081,5.367088607594937,electrolyte-cathode interface,0.0139724674758584,0.0147211777211129,0.0130760535775529,9.747702335731676e-05,high
400,0.9090909090909092,5.367088607594937,electrolyte-cathode interface,0.0139620482039922,0.0146743574024597,0.0131188376525156,-5.365302189931579e-05,high
400,1.0101010101010102,5.367088607594937,electrolyte-cathode interface,0.0136765128146414,0.0142471470936578,0.0130228988769338,-5.496419256234867e-05,high
400,1.1111111111111112,5.367088607594937,electrolyte-cathode interface,0.0136639013393346,0.0144060910584988,0.0127745485600106,5.464765920967676e-05,high
400,1.2121212121212122,5.367088607594937,electrolyte-cathode interface,0.0134986315671257,0.014198698454693,0.0126676924385824,3.798996099618518e-05,high
400,1.3131313131313131,5.367088607594937,electrolyte-cathode interface,0.0135243182225506,0.0142033695723721,0.0127234608870893,-1.858717378737316e-05,high
400,1.414141414141414,5.367088607594937,electrolyte-cathode interface,0.0134527469659345,0.0141046035736158,0.0126880402364479,-5.765292726564671e-05,high
400,1.5151515151515151,5.367088607594937,electrolyte-cathode interface,0.0133820291666654,0.0139764303380827,0.0126955010471003,6.801400150856204e-06,high
400,1.616161616161616,5.367088607594937,electrolyte-cathode interface,0.0133082957793482,0.0140286918518126,0.0124453150146586,6.367888922585076e-05,high
400,1.7171717171717171,5.367088607594937,electrolyte-cathode interface,0.0131729811950609,0.013816792696488,0.01241734680509,1.895711080273096e-05,high
400,1.818181818181818,5.367088607594937,electrolyte-cathode interface,0.0131620682050915,0.0138372679019065,0.0123626295373475,-1.2439841254578373e-05,high
400,1.9191919191919191,5.367088607594937,electrolyte-cathode interface,0.013046892690494,0.0136576226547155,0.0123354658591973,-7.578704526059054e-06,high
400,2.0202020202020203,5.367088607594937,electrolyte-cathode interface,0.0129906388178387,0.0135834315193205,0.0123019708653957,-6.212000537014803e-05,high
400,2.121212121212121,5.367088607594937,electrolyte-cathode interface,0.0130048520794872,0.0136762961501777,0.0122073715901102,7.485355604714318e-05,high
400,2.2222222222222223,5.367088607594937,electrolyte-cathode interface,0.0129142452248805,0.0136548557956749,0.0120163283758913,6.252054780536348e-05,high
400,2.323232323232323,5.367088607594937,electrolyte-cathode interface,0.0127789383504603,0.0134196401414021,0.0120228703988805,-5.068014584656604e-05,high
400,2.4242424242424243,5.367088607594937,electrolyte-cathode interface,0.0125809240330819,0.0132217328933833,0.0118207062427302,-9.408028098282766e-05,high
400,2.525252525252525,5.367088607594937,electrolyte-cathode interface,0.0127531453853753,0.013367323792258,0.0120342393690514,-3.103840363212553e-06,high
400,2.6262626262626263,5.367088607594937,electrolyte-cathode interface,0.0127648413446529,0.013387312825248,0.0120337099045293,5.743038383755526e-05,high
400,2.727272727272727,5.367088607594937,electrolyte-cathode interface,0.0125966384293704,0.013223727288671,0.011858191769491,-1.930776731014249e-05,high
400,2.8282828282828283,5.367088607594937,electrolyte-cathode interface,0.0126315795946085,0.0133012022394649,0.0118335158758621,3.006617292722273e-05,high
400,2.929292929292929,5.367088607594937,electrolyte-cathode interface,0.012616213474773,0.0132389002718668,0.0118840349753945,2.3299519541205808e-05,high
400,3.0303030303030303,5.367088607594937,electrolyte-cathode interface,0.0124964773521083,0.0130922371421709,0.0117986093211285,-7.806427338600206e-05,high
400,3.131313131313131,5.367088607594937,electrolyte-cathode interface,0.0125259330731582,0.0131103449856093,0.011845291268439,3.0460146929312893e-05,high
400,3.2323232323232323,5.367088607594937,electrolyte-cathode interface,0.0124647117696412,0.013058968267499,0.0117700401788536,-3.226287699347594e-05,high
400,3.333333333333333,5.367088607594937,electrolyte-cathode interface,0.0123522232309994,0.0129159446892626,0.0116956767874895,-9.60043499639988e-05,high
400,3.4343434343434343,5.367088607594937,electrolyte-cathode interface,0.0123168481276076,0.012904249512126,0.0116304354396887,5.906465268123309e-06,high
400,3.5353535353535355,5.367088607594937,electrolyte-cathode interface,0.0123937543820593,0.0130462357998396,0.0116172725385569,2.261851531872352e-05,high
400,3.636363636363636,5.367088607594937,electrolyte-cathode interface,0.0122933073859657,0.012908886921316,0.0115675196483796,2.791190846067039e-05,high
400,3.7373737373737375,5.367088607594937,electrolyte-cathode interface,0.0123170926579142,0.0129963914112534,0.0115011840077765,-2.030850660173238e-05,high
400,3.8383838383838382,5.367088607594937,electrolyte-cathode interface,0.0121464280813926,0.0127396119068439,0.0114501419380934,2.9539614904408068e-05,high
400,3.939393939393939,5.367088607594937,electrolyte-cathode interface,0.0123463681259876,0.0129862605238892,0.0115854687330462,7.889444931670958e-05,high
400,4.040404040404041,5.367088607594937,electrolyte-cathode interface,0.0123052589043782,0.0128662039274278,0.0116542138627878,-4.076196965309622e-05,high
400,4.141414141414141,5.367088607594937,electrolyte-cathode interface,0.0121968559418296,0.0128221483567709,0.0114559366789189,-4.844534437091173e-05,high
400,4.242424242424242,5.367088607594937,electrolyte-cathode interface,0.0122224840085503,0.0127759912953654,0.0115804778597843,5.0920303209583066e-05,high
400,4.343434343434343,5.367088607594937,electrolyte-cathode interface,0.0122154247577925,0.0128167152069468,0.0115087581828464,-2.140421481937823e-05,high
400,4.444444444444445,5.367088607594937,electrolyte-cathode interface,0.0122409366967568,0.0128767518675313,0.0114863009929567,1.760508753047956e-05,high
400,4.545454545454545,5.367088607594937,electrolyte-cathode interface,0.0122695440550919,0.0129070093365896,0.011512999817989,-4.1888325721795375e-06,high
400,4.646464646464646,5.367088607594937,electrolyte-cathode interface,0.0122166180739271,0.0128149296336041,0.0115135216631966,4.8732295664561634e-05,high
400,4.747474747474747,5.367088607594937,electrolyte-cathode interface,0.0122177818329417,0.0127056502366374,0.0116627395690088,3.577937902468386e-05,high
400,4.848484848484849,5.367088607594937,electrolyte-cathode interface,0.0122157104544756,0.0128813146808851,0.0114183280148838,-7.651435617400504e-06,high
400,4.94949494949495,5.367088607594937,electrolyte-cathode interface,0.0121566451758171,0.0126120004643498,0.011640734582416,9.61154834975428e-05,high
400,5.05050505050505,5.367088607594937,electrolyte-cathode interface,0.0122867811516446,0.0128995585240383,0.0115648210906596,-2.816956603120324e-05,high
400,5.151515151515151,5.367088607594937,electrolyte-cathode interface,0.0122929276962334,0.0128832042465886,0.0116023512460409,2.9491469724268474e-06,high
400,5.252525252525253,5.367088607594937,electrolyte-cathode interface,0.0121810826065569,0.0128193783320364,0.0114222929593292,-8.776182434337443e-06,high
400,5.353535353535354,5.367088607594937,electrolyte-cathode interface,0.0123637645665786,0.0130166336292169,0.011584541717909,8.175514449157747e-05,high
400,5.454545454545454,5.367088607594937,electrolyte-cathode interface,0.0121560243873243,0.0127870612413466,0.011406313944909,-5.547028341910219e-05,high
400,5.555555555555555,5.367088607594937,electrolyte-cathode interface,0.0122493747350221,0.0128410324983703,0.0115562200619015,-2.9670574076638347e-05,high
400,5.656565656565657,5.367088607594937,electrolyte-cathode interface,0.0122901443984904,0.0129754693102052,0.0114649533658051,-3.076998820398445e-05,high
400,5.757575757575758,5.367088607594937,electrolyte-cathode interface,0.0121476987569383,0.0127082869537879,0.0114960864027765,-2.3022173549874485e-05,high
400,5.858585858585858,5.367088607594937,electrolyte-cathode interface,0.0122569369527497,0.0128235012611487,0.0115982538220367,1.870528107719838e-05,high
400,5.959595959595959,5.367088607594937,electrolyte-cathode interface,0.0122484544150783,0.012846680328391,0.0115464773511996,8.252807351530268e-06,high
400,6.0606060606060606,5.367088607594937,electrolyte-cathode interface,0.0122542405978603,0.012986649479053,0.0113559264323856,-0.0001028249126941,high
400,6.161616161616162,5.367088607594937,electrolyte-cathode interface,0.0121902320992581,0.0126730593535566,0.0116410644358171,-5.429729844325514e-05,high
400,6.262626262626262,5.367088607594937,electrolyte-cathode interface,0.0123977471860734,0.0130099830477543,0.0116768323855739,6.178784652129262e-05,high
400,6.363636363636363,5.367088607594937,electrolyte-cathode interface,0.0124098796197252,0.0129611005023906,0.0117732250283768,-6.088356534585319e-06,high
400,6.4646464646464645,5.367088607594937,electrolyte-cathode interface,0.0124201002762614,0.0129297828180945,0.0118382560465748,-2.1451901540237512e-05,high
400,6.565656565656566,5.367088607594937,electrolyte-cathode interface,0.0123848770767163,0.0129231928147442,0.0117643837108349,5.459738795650656e-05,high
400,6.666666666666667,5.367088607594937,electrolyte-cathode interface,0.0124894461162466,0.013070870898052,0.0118111651870121,-7.569785818052411e-05,high
400,6.767676767676767,5.367088607594937,electrolyte-cathode interface,0.0124260528548572,0.0130306129940621,0.0117171340343099,-6.418030517965035e-06,high
400,6.8686868686868685,5.367088607594937,electrolyte-cathode interface,0.0124993202681002,0.0130350068229907,0.0118832550580391,-5.216728091000352e-05,high
400,6.96969696969697,5.367088607594937,electrolyte-cathode interface,0.0125073813882221,0.0130704812041721,0.0118541189475101,7.305969149010288e-05,high
400,7.070707070707071,5.367088607594937,electrolyte-cathode interface,0.0124936850348895,0.0130395432911869,0.0118640992372876,-5.1837604196130896e-05,high
400,7.171717171717171,5.367088607594937,electrolyte-cathode interface,0.0125550043989442,0.0131901888629593,0.0118029354595184,8.309754064509485e-05,high
400,7.272727272727272,5.367088607594937,electrolyte-cathode interface,0.0126199331821549,0.013350972026152,0.0117311291363439,-7.493463793846353e-05,high
400,7.373737373737374,5.367088607594937,electrolyte-cathode interface,0.0125156802891338,0.0132028832302683,0.0116907737991369,-3.585538830235479e-05,high
400,7.474747474747475,5.367088607594937,electrolyte-cathode interface,0.0127798024107719,0.0133691126559871,0.0120945621677569,-4.205776084873023e-05,high
400,7.575757575757575,5.367088607594937,electrolyte-cathode interface,0.0129355400911886,0.0135185681688703,0.0122590892928096,7.43328513981468e-05,high
400,7.6767676767676765,5.367088607594937,electrolyte-cathode interface,0.0127644071743119,0.0133708876533045,0.0120541396666316,-8.508429436814312e-05,high
400,7.777777777777778,5.367088607594937,electrolyte-cathode interface,0.0127836028618592,0.0135164472804237,0.0118947500416925,7.265980840141723e-05,high
400,7.878787878787879,5.367088607594937,electrolyte-cathode interface,0.0127803666920869,0.0133275178303394,0.0121519896348952,3.98801342579563e-06,high
400,7.979797979797979,5.367088607594937,electrolyte-cathode interface,0.0130195785339882,0.01375492503519,0.0121320130853775,-1.4736468721261946e-05,high
400,8.080808080808081,5.367088607594937,electrolyte-cathode interface,0.0130622056361636,0.0136696401588325,0.0123548397738266,4.583339674021778e-05,high
400,8.181818181818182,5.367088607594937,electrolyte-cathode interface,0.0129942255816515,0.0135822791916128,0.0123116884338396,-7.001896064117e-05,high
400,8.282828282828282,5.367088607594937,electrolyte-cathode interface,0.0130995586711617,0.0137028268057443,0.0123974000072026,7.041096654126906e-05,high
400,8.383838383838384,5.367088607594937,electrolyte-cathode interface,0.0132589396529774,0.0139137689192252,0.0124888291720888,2.795392761014608e-05,high
400,8.484848484848484,5.367088607594937,electrolyte-cathode interface,0.0133258261634522,0.0139410986395212,0.0126105634847343,2.7139760484515746e-05,high
400,8.585858585858587,5.367088607594937,electrolyte-cathode interface,0.0132477782920607,0.0137626376821122,0.0126643337181996,3.01199242489555e-05,high
400,8.686868686868687,5.367088607594937,electrolyte-cathode interface,0.0134696174771397,0.0141256157439634,0.0126976017196201,-9.988020408676184e-05,high
400,8.787878787878787,5.367088607594937,electrolyte-cathode interface,0.0135362266598381,0.0141285521050528,0.0128528415304999,-5.760050587664512e-05,high
400,8.88888888888889,5.367088607594937,electrolyte-cathode interface,0.0138170057492789,0.0144976140277123,0.0130169293924998,-3.056538458777695e-05,high
400,8.98989898989899,5.367088607594937,electrolyte-cathode interface,0.0137608613182843,0.0143989935605505,0.0130183042857263,3.882339492346671e-05,high
400,9.09090909090909,5.367088607594937,electrolyte-cathode interface,0.0138132122067752,0.0144954239171087,0.0130111010238018,8.001030649803627e-06,high
400,9.191919191919192,5.367088607594937,electrolyte-cathode interface,0.0140859135007181,0.01486347492376,0.0131510665792289,5.793240378991696e-05,high
400,9.292929292929292,5.367088607594937,electrolyte-cathode interface,0.0141448304564579,0.014929669525713,0.0131996952248949,-7.377897766392006e-05,high
400,9.393939393939394,5.367088607594937,electrolyte-cathode interface,0.014258484447188,0.0149032843310793,0.013509675705409,-8.887345080819583e-05,high
400,9.494949494949497,5.367088607594937,electrolyte-cathode interface,0.0143354900769407,0.0150012561007649,0.0135587384098487,-9.541343029415502e-05,high
400,9.595959595959595,5.367088607594937,electrolyte-cathode interface,0.014510197082559,0.0151627420954812,0.0137536998344176,7.442184559036647e-05,high
400,9.696969696969695,5.367088607594937,electrolyte-cathode interface,0.0147510419398766,0.0154064273341075,0.0139937484575414,-3.609229285859548e-05,high
400,9.797979797979798,5.367088607594937,electrolyte-cathode interface,0.0147970317056173,0.0155253876909128,0.0139407642417939,4.221476866933927e-05,high
400,9.8989898989899,5.367088607594937,electrolyte-cathode interface,0.015098908238724,0.0158606781072168,0.014199720947001,-1.8691893509058382e-05,critical
400,10.0,5.367088607594937,electrolyte-cathode interface,0.0151169305581296,0.0158640227173756,0.0142384496873663,-2.043104763921634e-06,critical
400,0.0,5.468354430379747,electrolyte-cathode interface,0.0152075266543046,0.0159428719580324,0.0143454548760191,-5.590271124706134e-05,critical
400,0.101010101010101,5.468354430379747,electrolyte-cathode interface,0.0149831650748536,0.0157265238559126,0.0141083250558143,-2.420569106886771e-05,high
400,0.202020202020202,5.468354430379747,electrolyte-cathode interface,0.0147910842482684,0.0155933993216802,0.0138307275685204,1.9180238753544837e-05,high
400,0.303030303030303,5.468354430379747,electrolyte-cathode interface,0.0145843006069159,0.0152409791009404,0.0138238819704711,-3.725457415772942e-05,high
400,0.404040404040404,5.468354430379747,electrolyte-cathode interface,0.0145183959302991,0.0151860320484191,0.0137429380010738,1.417786654011439e-05,high
400,0.5050505050505051,5.468354430379747,electrolyte-cathode interface,0.0144357986260959,0.0150945573532346,0.0136709334891896,-5.442867530017826e-05,high
400,0.6060606060606061,5.468354430379747,electrolyte-cathode interface,0.014219223451014,0.014958589265618,0.0133416079908773,-4.204306640988834e-06,high
400,0.7070707070707071,5.468354430379747,electrolyte-cathode interface,0.0140683781857358,0.0147106760283091,0.0133223312723399,-6.127622229386118e-05,high
400,0.8080808080808081,5.468354430379747,electrolyte-cathode interface,0.014079768790617,0.0148052718753729,0.0132200539391099,-1.2655909919826223e-05,high
400,0.9090909090909092,5.468354430379747,electrolyte-cathode interface,0.0138783156331515,0.0145745818071636,0.0130550122450263,-9.523514852726334e-05,high
400,1.0101010101010102,5.468354430379747,electrolyte-cathode interface,0.0138057442829176,0.0145088220218249,0.0129724809703975,8.720435387458429e-05,high
400,1.1111111111111112,5.468354430379747,electrolyte-cathode interface,0.0136330110650738,0.014264680704918,0.0128980217639942,-4.111711386790402e-05,high
400,1.2121212121212122,5.468354430379747,electrolyte-cathode interface,0.0136660284761552,0.0143120049775194,0.01291231548734,5.16772209657614e-06,high
400,1.3131313131313131,5.468354430379747,electrolyte-cathode interface,0.0134813443228158,0.0142208295235626,0.0125942308596611,-1.1711835594442126e-05,high
400,1.414141414141414,5.468354430379747,electrolyte-cathode interface,0.013458068322693,0.0141374746967,0.0126554037622132,5.039265359421326e-05,high
400,1.5151515151515151,5.468354430379747,electrolyte-cathode interface,0.0134358899533938,0.014115421032824,0.0126331550998362,3.522942168314762e-05,high
400,1.616161616161616,5.468354430379747,electrolyte-cathode interface,0.0131646866687417,0.0138103833339437,0.0124058841894356,4.59745821246204e-05,high
400,1.7171717171717171,5.468354430379747,electrolyte-cathode interface,0.0131400692766637,0.0137418829587924,0.0124415668492235,3.792303465258557e-06,high
400,1.818181818181818,5.468354430379747,electrolyte-cathode interface,0.0131993330825607,0.0138201724704345,0.0124751551841077,3.884191918853864e-05,high
400,1.9191919191919191,5.468354430379747,electrolyte-cathode interface,0.01300742244418,0.0135546031649926,0.0123792768675353,7.17898016184867e-05,high
400,2.0202020202020203,5.468354430379747,electrolyte-cathode interface,0.0128599347370902,0.0134953646670164,0.0121127067592729,-1.6163037572480914e-05,high
400,2.121212121212121,5.468354430379747,electrolyte-cathode interface,0.0130186933438136,0.0136255403220899,0.0123122834107229,8.536103709173747e-06,high
400,2.2222222222222223,5.468354430379747,electrolyte-cathode interface,0.0127527971915041,0.0133796336170796,0.0120145695702444,8.14400370194639e-05,high
400,2.323232323232323,5.468354430379747,electrolyte-cathode interface,0.0129123082743274,0.0135695742138088,0.0121350953074562,-2.5158645449944023e-05,high
400,2.4242424242424243,5.468354430379747,electrolyte-cathode interface,0.0127299987065844,0.0133126127326935,0.0120537690058193,1.844629260663475e-05,high
400,2.525252525252525,5.468354430379747,electrolyte-cathode interface,0.0129055430929499,0.0135354773861394,0.0121664273294284,1.068454678773287e-05,high
400,2.6262626262626263,5.468354430379747,electrolyte-cathode interface,0.0126783238393584,0.0133063074356999,0.0119392159339411,3.687114153626212e-05,high
400,2.727272727272727,5.468354430379747,electrolyte-cathode interface,0.0127125408417246,0.0134180106787824,0.0118642387744494,1.2846057807716514e-06,high
400,2.8282828282828283,5.468354430379747,electrolyte-cathode interface,0.0125927509452093,0.0132927218545161,0.011750713216964,1.441462794441688e-05,high
400,2.929292929292929,5.468354430379747,electrolyte-cathode interface,0.012554717314036,0.0131890254522361,0.0118044393148964,7.023173569903592e-05,high
400,3.0303030303030303,5.468354430379747,electrolyte-cathode interface,0.0125918362018532,0.0132225338455056,0.0118482482536484,-2.459337644441621e-05,high
400,3.131313131313131,5.468354430379747,electrolyte-cathode interface,0.0125221437914581,0.0131241353658563,0.0118174818319321,-2.8927670788808853e-05,high
400,3.2323232323232323,5.468354430379747,electrolyte-cathode interface,0.0123559013937842,0.0129996858722411,0.0115912880025404,2.3179055486129396e-05,high
400,3.333333333333333,5.468354430379747,electrolyte-cathode interface,0.0124159052173624,0.0130170166079098,0.0117095717236759,8.485407595146381e-05,high
400,3.4343434343434343,5.468354430379747,electrolyte-cathode interface,0.012543782625171,0.013013795089098,0.0120134166292665,-4.313989417976639e-05,high
400,3.5353535353535355,5.468354430379747,electrolyte-cathode interface,0.0124902765164339,0.0131235300684877,0.0117402981833133,8.066553806134563e-05,high
400,3.636363636363636,5.468354430379747,electrolyte-cathode interface,0.012236494222297,0.0128300066161016,0.0115407577887561,-2.330614318294528e-05,high
400,3.7373737373737375,5.468354430379747,electrolyte-cathode interface,0.0123441947274151,0.0129158698523005,0.0116789510884889,-4.228147651579031e-05,high
400,3.8383838383838382,5.468354430379747,electrolyte-cathode interface,0.012334759250943,0.0129488272415542,0.0116080278830938,0.0001128349617084,high
400,3.939393939393939,5.468354430379747,electrolyte-cathode interface,0.0122368526556529,0.0127660424750115,0.0116280073199725,2.4519077882732988e-05,high
400,4.040404040404041,5.468354430379747,electrolyte-cathode interface,0.0122940398142912,0.0128593690770677,0.0116373366646077,2.0367408535520124e-05,high
400,4.141414141414141,5.468354430379747,electrolyte-cathode interface,0.0122613159409499,0.0129033530881505,0.011498207470624,-1.0836766694039048e-06,high
400,4.242424242424242,5.468354430379747,electrolyte-cathode interface,0.0121674868648871,0.0126839622670633,0.0115750948382026,-5.27468703763078e-06,high
400,4.343434343434343,5.468354430379747,electrolyte-cathode interface,0.0122323495438461,0.0128428042919117,0.0115131515236577,2.0388536354837743e-05,high
400,4.444444444444445,5.468354430379747,electrolyte-cathode interface,0.0123133181931767,0.012952626761883,0.0115506305439252,0.0001171967453749,high
400,4.545454545454545,5.468354430379747,electrolyte-cathode interface,0.0122868864807183,0.0128296545945246,0.0116596355684255,5.63850680333679e-05,high
400,4.646464646464646,5.468354430379747,electrolyte-cathode interface,0.0121187770020629,0.0126348079813526,0.0115263743667409,-2.946242110331401e-05,high
400,4.747474747474747,5.468354430379747,electrolyte-cathode interface,0.0121952058362086,0.0128528542218303,0.0114088008215349,-2.6466075804688644e-05,high
400,4.848484848484849,5.468354430379747,electrolyte-cathode interface,0.0121990939896823,0.0128366119781621,0.0114415317669372,-1.950765117763506e-05,high
400,4.94949494949495,5.468354430379747,electrolyte-cathode interface,0.0121395723811973,0.012667053082962,0.0115323601147482,-1.496352082185058e-05,high
400,5.05050505050505,5.468354430379747,electrolyte-cathode interface,0.0122256962628656,0.012752614805988,0.0116194644611978,4.10888566600426e-05,high
400,5.151515151515151,5.468354430379747,electrolyte-cathode interface,0.0121093564493137,0.0127857893507931,0.0112944593495926,-3.59182825684698e-05,high
400,5.252525252525253,5.468354430379747,electrolyte-cathode interface,0.012154188108351,0.0126852966646206,0.0115403612516259,8.267482382949674e-05,high
400,5.353535353535354,5.468354430379747,electrolyte-cathode interface,0.0122539208490692,0.0129134262797147,0.0114655497002096,2.9993197628024628e-05,high
400,5.454545454545454,5.468354430379747,electrolyte-cathode interface,0.0123158582278309,0.0129557343564193,0.0115564213349074,-1.0985292301711248e-05,high
400,5.555555555555555,5.468354430379747,electrolyte-cathode interface,0.0123088585916741,0.0128772701473067,0.0116465000931809,7.762502425738606e-05,high
400,5.656565656565657,5.468354430379747,electrolyte-cathode interface,0.0121950222002526,0.012722303957099,0.0115878534266363,-4.964861397352685e-05,high
400,5.757575757575758,5.468354430379747,electrolyte-cathode interface,0.01231540121546,0.0128675244006444,0.0116754033920735,-6.932186717486597e-05,high
400,5.858585858585858,5.468354430379747,electrolyte-cathode interface,0.0123029098879199,0.0129603925857116,0.0115182452858923,1.6553672461128992e-05,high
400,5.959595959595959,5.468354430379747,electrolyte-cathode interface,0.0123184947816132,0.0128935496319274,0.011648803068706,-2.235441097886312e-05,high
400,6.0606060606060606,5.468354430379747,electrolyte-cathode interface,0.0122804121470593,0.0128406357651428,0.011630578429574,9.352258024000894e-06,high
400,6.161616161616162,5.468354430379747,electrolyte-cathode interface,0.0123504363406637,0.0128850523552325,0.0117353998183077,-1.0579550205051512e-05,high
400,6.262626262626262,5.468354430379747,electrolyte-cathode interface,0.012348165282157,0.0130255462574384,0.0115354950695001,1.6418105511148413e-05,high
400,6.363636363636363,5.468354430379747,electrolyte-cathode interface,0.0124332064602441,0.0129195513741739,0.011881517266207,-3.2839761759542714e-05,high
400,6.4646464646464645,5.468354430379747,electrolyte-cathode interface,0.0124319407598766,0.0130313193218821,0.0117301627450415,-1.4676413549911145e-05,high
400,6.565656565656566,5.468354430379747,electrolyte-cathode interface,0.0124082104463218,0.0130036233252459,0.0117116747629846,1.0774461166617247e-05,high
400,6.666666666666667,5.468354430379747,electrolyte-cathode interface,0.0126327583087704,0.0132175256413925,0.0119527585340605,1.8746045810115236e-05,high
400,6.767676767676767,5.468354430379747,electrolyte-cathode interface,0.012543410091109,0.0131748820565427,0.0117979151884857,4.065233332780671e-05,high
400,6.8686868686868685,5.468354430379747,electrolyte-cathode interface,0.0124064019342391,0.0130028654368693,0.0117081323144784,3.269094396580893e-05,high
400,6.96969696969697,5.468354430379747,electrolyte-cathode interface,0.0125796428197085,0.0132010658459709,0.0118489548353964,-1.1199680403946222e-05,high
400,7.070707070707071,5.468354430379747,electrolyte-cathode interface,0.0125692095129862,0.0131286642189024,0.0119225928156936,3.001030803260136e-05,high
400,7.171717171717171,5.468354430379747,electrolyte-cathode interface,0.0126022369477143,0.0132626705311362,0.0118170115178215,2.0941824560960003e-05,high
400,7.272727272727272,5.468354430379747,electrolyte-cathode interface,0.0127208498571574,0.0132495449288533,0.0121162277609309,-1.922843866070993e-05,high
400,7.373737373737374,5.468354430379747,electrolyte-cathode interface,0.0126764673226626,0.0132432867192728,0.0120210327709626,-1.7658055190433613e-05,high
400,7.474747474747475,5.468354430379747,electrolyte-cathode interface,0.0126412823740878,0.0132618953468431,0.011912192765818,-2.6262727065079383e-05,high
400,7.575757575757575,5.468354430379747,electrolyte-cathode interface,0.012747971576759,0.013400177352543,0.0119761218525371,1.5148543338590775e-05,high
400,7.6767676767676765,5.468354430379747,electrolyte-cathode interface,0.0127870470038681,0.0132497560935128,0.0122656723482826,8.752775524946303e-05,high
400,7.777777777777778,5.468354430379747,electrolyte-cathode interface,0.0129640226762723,0.0136209547352667,0.0121879182058012,2.0067035733088837e-05,high
400,7.878787878787879,5.468354430379747,electrolyte-cathode interface,0.0130251361440454,0.0137005911564217,0.0122237890326604,5.511785560569128e-06,high
400,7.979797979797979,5.468354430379747,electrolyte-cathode interface,0.0129814865707213,0.0136576621969629,0.0121765287570134,8.625702674315572e-05,high
400,8.080808080808081,5.468354430379747,electrolyte-cathode interface,0.0130498959141873,0.013672597046425,0.0123219201539306,-3.0584311260901165e-05,high
400,8.181818181818182,5.468354430379747,electrolyte-cathode interface,0.0130421482039962,0.0136829771106072,0.0122892025731024,2.67382262543916e-05,high
400,8.282828282828282,5.468354430379747,electrolyte-cathode interface,0.0131629510053935,0.0138931841935418,0.0122844725076512,-4.035927307197496e-05,high
400,8.383838383838384,5.468354430379747,electrolyte-cathode interface,0.0131050512495838,0.0137526340293137,0.0123435819430385,-7.646326514933168e-06,high
400,8.484848484848484,5.468354430379747,electrolyte-cathode interface,0.0132866698745316,0.0138882997688178,0.012589491513292,2.6213206448689888e-05,high
400,8.585858585858587,5.468354430379747,electrolyte-cathode interface,0.013378549835632,0.0140322115911459,0.0126114297835339,-1.553029534766993e-05,high
400,8.686868686868687,5.468354430379747,electrolyte-cathode interface,0.01349753619455,0.0142152161807193,0.012641661066708,-3.3973910190486e-05,high
400,8.787878787878787,5.468354430379747,electrolyte-cathode interface,0.0136902737415284,0.0143789541343358,0.0128773647795693,4.3920348722361554e-05,high
400,8.88888888888889,5.468354430379747,electrolyte-cathode interface,0.013661877810038,0.01428808404137,0.012934594186491,3.830461916416591e-05,high
400,8.98989898989899,5.468354430379747,electrolyte-cathode interface,0.0138266407603012,0.0145924565528197,0.012905488805541,-4.9496957165582445e-05,high
400,9.09090909090909,5.468354430379747,electrolyte-cathode interface,0.0138985519511259,0.014635326280588,0.0130206285469164,-2.121638174387624e-05,high
400,9.191919191919192,5.468354430379747,electrolyte-cathode interface,0.013991376170679,0.0146903692697258,0.0131677291305316,-2.1375879902875504e-05,high
400,9.292929292929292,5.468354430379747,electrolyte-cathode interface,0.0141557230664797,0.0148134535910128,0.0133902343585206,3.3303195046849416e-05,high
400,9.393939393939394,5.468354430379747,electrolyte-cathode interface,0.0142304368317299,0.0149030192455686,0.0134448657196018,-5.781621241419898e-05,high
400,9.494949494949497,5.468354430379747,electrolyte-cathode interface,0.0142722070803992,0.0150792431693952,0.0132968125842942,6.574145989476133e-05,high
400,9.595959595959595,5.468354430379747,electrolyte-cathode interface,0.0144586722750957,0.0151455181712749,0.0136553671209582,7.081181624341395e-05,high
400,9.696969696969695,5.468354430379747,electrolyte-cathode interface,0.0146118769031707,0.0152661470919534,0.0138551014560101,2.5033612809048984e-05,high
400,9.797979797979798,5.468354430379747,electrolyte-cathode interface,0.0148972730322131,0.0155262192758548,0.0141764295999192,1.2343824063208752e-05,high
400,9.8989898989899,5.468354430379747,electrolyte-cathode interface,0.0149675369803698,0.0155802393240132,0.0142679840644337,4.670116829123848e-05,high
400,10.0,5.468354430379747,electrolyte-cathode interface,0.0152178378164694,0.0159981067224792,0.014294079484469,1.4943095945915198e-05,critical
800,0.0,0.0,anode,0.0116704057867644,0.0121836464299479,0.0110785232090197,9.383489770417036e-06,high
800,0.101010101010101,0.0,anode,0.0116486173362568,0.012217546077569,0.0109794284619353,-7.228987327267618e-05,high
800,0.202020202020202,0.0,anode,0.011340292673811,0.0118328425778666,0.010773332757387,1.324526161967623e-05,high
800,0.303030303030303,0.0,anode,0.0113749160029653,0.0119245564264739,0.01073067185626,-4.021468874434917e-05,high
800,0.404040404040404,0.0,anode,0.011282070856211,0.011853370104776,0.0106060753544074,-6.229519867982811e-05,high
800,0.5050505050505051,0.0,anode,0.0111604087459509,0.0116917326421301,0.0105386189266731,5.870044851688538e-05,high
800,0.6060606060606061,0.0,anode,0.0111217046652897,0.0116652986713192,0.0104803663495097,-0.0001027073557627,high
800,0.7070707070707071,0.0,anode,0.0109480073540877,0.0114240340052827,0.010399885810129,2.1105714481771536e-05,high
800,0.8080808080808081,0.0,anode,0.0107667513479471,0.0112693769176687,0.0101810718414228,-3.737486981611295e-05,high
800,0.9090909090909092,0.0,anode,0.010866115084691,0.0113515070211878,0.0103044758001907,-4.022130646933762e-05,high
800,1.0101010101010102,0.0,anode,0.0108655038982755,0.0114632666248494,0.0101469390977402,-5.594193808378146e-05,high
800,1.1111111111111112,0.0,anode,0.0105320152500889,0.0110934686408319,0.0098623499168048,-2.7318168894102977e-06,high
800,1.2121212121212122,0.0,anode,0.0105712336789123,0.0110691041414116,0.0099900255437546,-4.448878160381489e-05,high
800,1.3131313131313131,0.0,anode,0.0103391586842563,0.010858257292061,0.0097265916983414,-3.5119067987398494e-05,high
800,1.414141414141414,0.0,anode,0.0102857082213164,0.0108004454969524,0.0096788918963934,2.285269668322656e-05,high
800,1.5151515151515151,0.0,anode,0.0103204485596877,0.0108411611141861,0.0097042797869123,-6.70786945794871e-05,high
800,1.616161616161616,0.0,anode,0.0102140903347733,0.0107031877081672,0.0096406091294518,6.663081712477784e-05,high
800,1.7171717171717171,0.0,anode,0.0102242667059063,0.010815002095073,0.009507728885874,1.3645633028699411e-05,high
800,1.818181818181818,0.0,anode,0.0101388126710182,0.0106649966476923,0.009513841579737,4.1935795962232666e-05,high
800,1.9191919191919191,0.0,anode,0.0101484782662929,0.0106967162256829,0.0094916971104853,5.641974368233297e-05,high
800,2.0202020202020203,0.0,anode,0.010052071070932,0.0105901591071268,0.0094097442559628,4.646367763841925e-06,high
800,2.121212121212121,0.0,anode,0.0100996043210998,0.0105677489917128,0.0095535743742586,6.753104783514114e-05,high
800,2.2222222222222223,0.0,anode,0.0101143423274966,0.0106059494955485,0.0095368953897219,-5.541717207977906e-05,high
800,7.878787878787879,0.0,anode,0.0100856796663138,0.0105283990513533,0.0095752005170091,-1.648075466609774e-05,high
800,7.979797979797979,0.0,anode,0.0101525581540953,0.0106782267922104,0.0095287922332594,-2.9624001412860737e-05,high
800,8.080808080808081,0.0,anode,0.0101268253950507,0.0106590093716167,0.0094937969181762,1.1578674706146711e-05,high
800,8.181818181818182,0.0,anode,0.010089232164857,0.0106250855229381,0.0094501495633951,-3.407761595862699e-05,high
800,8.282828282828282,0.0,anode,0.0102616449099707,0.0108166139208079,0.0095973974757554,-3.427525180471633e-05,high
800,8.383838383838384,0.0,anode,0.0103194103034269,0.0108442629003804,0.0096989351512078,-1.4727796960383708e-05,high
800,8.484848484848484,0.0,anode,0.0104611353389032,0.0109781764278306,0.0098472803723811,-0.000130697396436,high
800,8.585858585858587,0.0,anode,0.0104330997372851,0.0108990381852048,0.0098940234579971,-3.730974944541611e-05,high
800,8.686868686868687,0.0,anode,0.0104533499559347,0.0109327261136688,0.009895068309446,-7.238756651910834e-05,high
800,8.787878787878787,0.0,anode,0.0104462068598828,0.0108400917270323,0.0100004349397127,-6.47615685085127e-05,high
800,8.88888888888889,0.0,anode,0.0106325407746526,0.0111728724333195,0.0099916856943193,8.142799642984425e-05,high
800,8.98989898989899,0.0,anode,0.0104956356411999,0.0108989014151265,0.0100395226041924,-4.776823064183067e-06,high
800,9.09090909090909,0.0,anode,0.0108324482577608,0.0113931794404645,0.0101630259698374,0.0001147158276065,high
800,9.191919191919192,0.0,anode,0.0109598343452332,0.0115144690174721,0.0103047636137978,-1.5279046930202384e-05,high
800,9.292929292929292,0.0,anode,0.0111726092336249,0.0116105276003783,0.0106740816254997,-7.862718329610043e-05,high
800,9.393939393939394,0.0,anode,0.0109431250624237,0.0115049050777612,0.0102777051053293,2.5460462629591635e-05,high
800,9.494949494949497,0.0,anode,0.0111769450610146,0.0117181989228835,0.0105412869371887,6.851238743601529e-05,high
800,9.595959595959595,0.0,anode,0.0113086720307259,0.0118486652214707,0.0106772755998164,2.8550500295624623e-05,high
800,9.696969696969695,0.0,anode,0.0113919123149265,0.0118550604503374,0.0108636758066113,3.311232858024381e-05,high
800,9.797979797979798,0.0,anode,0.0114847842440235,0.0120632990658362,0.0108021422566857,9.661614752269196e-06,high
800,9.8989898989899,0.0,anode,0.0116208413470761,0.012156222369552,0.0109986068216326,2.8104436727798904e-05,high
800,10.0,0.0,anode,0.0118162826356329,0.0123851583984939,0.0111493140151007,6.11115745301527e-05,high
800,0.0,0.1012658227848101,anode,0.0116605440687262,0.0123004506688938,0.0108912973855021,7.002093018379007e-05,high
800,0.101010101010101,0.1012658227848101,anode,0.0116063509989055,0.0122850872743043,0.0107809545290675,-5.49121007948389e-07,high
800,0.202020202020202,0.1012658227848101,anode,0.0116265693255947,0.0122487887263926,0.0108833424255472,-4.045027752364611e-05,high
800,0.303030303030303,0.1012658227848101,anode,0.0114272321883941,0.0120038717149203,0.0107463670440792,-2.772538974656969e-05,high
800,0.404040404040404,0.1012658227848101,anode,0.0111724646737811,0.0116872274174414,0.0105693929378211,0.0001258491616239,high
800,0.5050505050505051,0.1012658227848101,anode,0.0111771992689521,0.0117715055296107,0.0104681903466212,-3.9968660156969537e-05,high
800,0.6060606060606061,0.1012658227848101,anode,0.0108952853268925,0.0114498391274983,0.0102385380923341,5.8816377028110827e-05,high
800,0.7070707070707071,0.1012658227848101,anode,0.0109482986017262,0.0115206390226674,0.0102655160650663,-9.056060004321572e-05,high
800,0.8080808080808081,0.1012658227848101,anode,0.010923962814705,0.0114840260991053,0.0102605702306836,3.397545294470525e-05,high
800,0.9090909090909092,0.1012658227848101,anode,0.0108015958801756,0.0112378639907412,0.0103042348549896,4.171477146204481e-05,high
800,1.0101010101010102,0.1012658227848101,anode,0.0105663477300234,0.01103717677441,0.0100221261310882,2.159304678965173e-05,high
800,1.1111111111111112,0.1012658227848101,anode,0.0106304753473734,0.0112162151880477,0.0099260638319849,5.670884623069664e-05,high
800,1.2121212121212122,0.1012658227848101,anode,0.0104783659417463,0.0109392760992851,0.0099460777154075,4.767789711955689e-05,high
800,1.3131313131313131,0.1012658227848101,anode,0.0104966056559355,0.0109097850428348,0.0100277561320796,5.520683877389817e-06,high
800,1.414141414141414,0.1012658227848101,anode,0.010386838393026,0.0109917210685723,0.0096513908164387,3.886232099681375e-05,high
800,1.5151515151515151,0.1012658227848101,anode,0.0104127713815247,0.0109801240571334,0.0097301769312579,9.108644858335278e-05,high
800,1.616161616161616,0.1012658227848101,anode,0.0104161924805057,0.0108530918153443,0.0099158682223675,-1.682737355209385e-05,high
800,1.7171717171717171,0.1012658227848101,anode,0.0102607406591016,0.0106917787261579,0.0097657863194909,6.247805267509396e-05,high
800,1.818181818181818,0.1012658227848101,anode,0.0101441980211347,0.0105944297133517,0.0096231888584117,5.5517909835554286e-05,high
800,1.9191919191919191,0.1012658227848101,anode,0.0101905904766371,0.0107335861362495,0.0095414512257597,-6.572676066526687e-05,high
800,7.777777777777778,0.1012658227848101,anode,0.0100062632736569,0.0104833943125903,0.0094485066517992,2.5108666052210494e-05,high
800,7.878787878787879,0.1012658227848101,anode,0.0100713898572205,0.0104490768183446,0.0096455643503275,-2.484418527453582e-06,high
800,7.979797979797979,0.1012658227848101,anode,0.010083190182482,0.0105417911197793,0.0095481583069765,-9.78564232115154e-05,high
800,8.181818181818182,0.1012658227848101,anode,0.0101082333381532,0.0106127371135253,0.0095139209609066,8.985253406842056e-06,high
800,8.282828282828282,0.1012658227848101,anode,0.0102379860455707,0.0108013913874915,0.0095607804849124,-5.003622111790416e-05,high
800,8.383838383838384,0.1012658227848101,anode,0.0102728006348101,0.0108311178086506,0.0096018738558848,-8.23918892723882e-05,high
800,8.484848484848484,0.1012658227848101,anode,0.0103894042400161,0.0109103980857006,0.0097737118170507,6.47510365103569e-05,high
800,8.585858585858587,0.1012658227848101,anode,0.0103449222824609,0.0107861496449262,0.009838480554291,-2.3655536682131875e-06,high
800,8.686868686868687,0.1012658227848101,anode,0.0104207005407227,0.0110068743068096,0.0097138452982624,7.091560975940468e-07,high
800,8.787878787878787,0.1012658227848101,anode,0.0104728207322608,0.0108127127936062,0.0100941764193086,-7.79937153620224e-05,high
800,8.88888888888889,0.1012658227848101,anode,0.0105928697777533,0.0111003545253997,0.0099993456464212,-1.137071623985376e-05,high
800,8.98989898989899,0.1012658227848101,anode,0.0108994945829556,0.0114717739711952,0.0102189231548842,7.535120067767131e-06,high
800,9.09090909090909,0.1012658227848101,anode,0.0108118437818757,0.0112973455863972,0.0102498820705716,-2.784585926835176e-05,high
800,9.191919191919192,0.1012658227848101,anode,0.0110607585065824,0.0115247859920183,0.0105292799130746,-2.3443118968629987e-05,high
800,9.292929292929292,0.1012658227848101,anode,0.0109047937217973,0.0114270961144594,0.0102938231693315,-2.388727408725872e-05,high
800,9.393939393939394,0.1012658227848101,anode,0.0110180796686588,0.0116268283920708,0.0102866646743348,1.587345066328077e-05,high
800,9.494949494949497,0.1012658227848101,anode,0.01104264878392,0.0115955081594594,0.0103908241150855,-2.544738532711741e-05,high
800,9.595959595959595,0.1012658227848101,anode,0.0114028179196563,0.0120394844269695,0.010636227081389,-1.2041910343739128e-05,high
800,9.696969696969695,0.1012658227848101,anode,0.0113718800885849,0.0119333018895186,0.0107107799879562,5.809727720861984e-05,high
800,9.797979797979798,0.1012658227848101,anode,0.0114269336494331,0.0120383975216772,0.0106959988563139,-5.800094271124343e-05,high
800,9.8989898989899,0.1012658227848101,anode,0.0116950647022306,0.0123283044735848,0.0109355335784798,7.776050089571717e-05,high
800,10.0,0.1012658227848101,anode,0.0117866773613247,0.012325531360014,0.0111613872961757,-1.2944475245897094e-05,high
800,0.0,0.2025316455696202,anode,0.0118432508441467,0.012348010885699,0.0112635828462693,3.541556613123035e-05,high
800,0.101010101010101,0.2025316455696202,anode,0.0116800201153818,0.012270598714962,0.0109826478522377,1.137025920025974e-05,high
800,0.202020202020202,0.2025316455696202,anode,0.0114718653632428,0.0119993472010337,0.010858954902078,-3.071485228106834e-05,high
800,0.303030303030303,0.2025316455696202,anode,0.0114285581503568,0.0120430773604292,0.0106932799855928,5.770713343824096e-05,high
800,0.404040404040404,0.2025316455696202,anode,0.0112493590680291,0.0117423632189625,0.0106809387368634,2.5789807488902105e-05,high
800,0.5050505050505051,0.2025316455696202,anode,0.0111321095353642,0.011611259696872,0.010581317052836,1.48393836763377e-05,high
800,0.6060606060606061,0.2025316455696202,anode,0.0110066115199871,0.0114401904216492,0.0105143387723967,2.743575247921007e-05,high
800,0.7070707070707071,0.2025316455696202,anode,0.0108866404724271,0.0115140167939589,0.0101245344820148,-6.884674707211684e-05,high
800,0.8080808080808081,0.2025316455696202,anode,0.0107939229861256,0.0112969222654283,0.0102070932634919,6.404952069306055e-05,high
800,0.9090909090909092,0.2025316455696202,anode,0.0109057673394631,0.0114075840241733,0.0103224106526252,3.826732435498026e-05,high
800,1.0101010101010102,0.2025316455696202,anode,0.0108137007261411,0.0113865789862513,0.0101311041624434,2.0725167695442116e-05,high
800,1.1111111111111112,0.2025316455696202,anode,0.010674419422127,0.0111950559379247,0.0100636362483527,-7.041455687147863e-06,high
800,1.2121212121212122,0.2025316455696202,anode,0.0106710050384588,0.0112274710963404,0.010009939942746,2.3487851864153287e-05,high
800,1.3131313131313131,0.2025316455696202,anode,0.0105447172377698,0.011022348695841,0.0099911772959479,2.241376552755689e-05,high
800,1.414141414141414,0.2025316455696202,anode,0.0106030488442208,0.0110926033324389,0.0100338422153047,-2.731358100484568e-05,high
800,1.5151515151515151,0.2025316455696202,anode,0.0104030220768478,0.010931412721225,0.0097781704029563,-3.504356124775668e-05,high
800,1.616161616161616,0.2025316455696202,anode,0.0102468430161823,0.0106996842245212,0.0097233220314878,5.174719332188085e-05,high
800,1.7171717171717171,0.2025316455696202,anode,0.0101107613222353,0.0106800471726142,0.0094239847701011,-1.999881267709064e-05,high
800,1.818181818181818,0.2025316455696202,anode,0.010110290378579,0.0106500495186896,0.0094654764271992,4.818527591040451e-05,high
800,1.9191919191919191,0.2025316455696202,anode,0.010103776237691,0.0106326795282429,0.0094723496324717,-8.845106512808444e-05,high
800,2.0202020202020203,0.2025316455696202,anode,0.010031272112822,0.010552759466172,0.0094121822208922,-1.8336849731925586e-05,high
800,2.121212121212121,0.2025316455696202,anode,0.0100574711524555,0.0105404828843355,0.0094920872455656,2.833971642064667e-05,high
800,7.777777777777778,0.2025316455696202,anode,0.0101324564313806,0.0106338477182911,0.0095419643213917,-4.714677209079253e-05,high
800,8.080808080808081,0.2025316455696202,anode,0.0101621581663806,0.0104940314880658,0.0097937074823137,3.430345559992932e-05,high
800,8.181818181818182,0.2025316455696202,anode,0.0101247122538637,0.0106369370712283,0.009518535950198,-6.0302690750590576e-05,high
800,8.282828282828282,0.2025316455696202,anode,0.0101485741025428,0.0105811442481795,0.0096479597803039,-0.000109952910662,high
800,8.383838383838384,0.2025316455696202,anode,0.0102310380817209,0.0106472059304644,0.0097565893705973,-1.324342836519798e-05,high
800,8.484848484848484,0.2025316455696202,anode,0.010387365808072,0.0108592204756241,0.0098404302633469,-3.3231201977221565e-06,high
800,8.585858585858587,0.2025316455696202,anode,0.0104245740156792,0.0109377719460704,0.0098212899235087,-2.696851308196039e-05,high
800,8.686868686868687,0.2025316455696202,anode,0.0104808050484126,0.0108417509227137,0.01007686463208,6.155485985931868e-05,high
800,8.787878787878787,0.2025316455696202,anode,0.0105580895679693,0.0109945432860578,0.0100580638712799,-6.440244363370442e-05,high
800,8.88888888888889,0.2025316455696202,anode,0.0105740888016842,0.0110364918023738,0.0100399304393973,6.483169213047059e-05,high
800,8.98989898989899,0.2025316455696202,anode,0.0106985532964231,0.0112763670722065,0.0100072308199026,3.228884210198288e-05,high
800,9.09090909090909,0.2025316455696202,anode,0.0107396893799311,0.0112120295970141,0.0101939290266453,-5.705333589669781e-05,high
800,9.191919191919192,0.2025316455696202,anode,0.0109236435056635,0.0115042692348915,0.010230669450719,-5.018371026792652e-05,high
800,9.292929292929292,0.2025316455696202,anode,0.0109104584460964,0.0114032461482744,0.0103397861985142,3.1250100489903816e-06,high
800,9.393939393939394,0.2025316455696202,anode,0.0110335809003893,0.0115294551782789,0.0104585682503265,6.195375120377901e-05,high
800,9.494949494949497,0.2025316455696202,anode,0.0112464348945944,0.011767485414615,0.0106404225223767,1.835063924152987e-05,high
800,9.595959595959595,0.2025316455696202,anode,0.0113383354890938,0.0118122610727747,0.010795207598613,5.047575101562065e-05,high
800,9.696969696969695,0.2025316455696202,anode,0.0115219250291203,0.012107457116027,0.0108297248183768,-2.3998162015803984e-05,high
800,9.797979797979798,0.2025316455696202,anode,0.0114483434787294,0.0119663628495224,0.0108476406068151,-4.555358850410462e-05,high
800,9.8989898989899,0.2025316455696202,anode,0.0115207162137775,0.0120229819898298,0.0109415020036919,-5.106070212587726e-05,high
800,10.0,0.2025316455696202,anode,0.0116242403680342,0.012105839920108,0.0110733767822025,3.854565396428295e-05,high
800,0.0,0.3037974683544304,anode,0.0117066816841235,0.0124149815669186,0.0108383670641351,-2.918587712502661e-05,high
800,0.101010101010101,0.3037974683544304,anode,0.0116282599963739,0.0121668564984082,0.0110016971105872,-3.0354355943892244e-05,high
800,0.202020202020202,0.3037974683544304,anode,0.0114873366281484,0.0120549463150267,0.0108196302209475,-3.074353126984377e-05,high
800,0.303030303030303,0.3037974683544304,anode,0.0112329372386989,0.0117148560775719,0.0106784230603262,-5.321754775017248e-05,high
800,0.404040404040404,0.3037974683544304,anode,0.0112157276776411,0.0116872011497363,0.0106747926281358,-5.515930761549576e-05,high
800,0.5050505050505051,0.3037974683544304,anode,0.0111869274913234,0.0116577147366968,0.0106465749121533,5.833724537394197e-05,high
800,0.6060606060606061,0.3037974683544304,anode,0.0109788312489331,0.0113767694198618,0.0105290296441045,9.954963465981672e-05,high
800,0.7070707070707071,0.3037974683544304,anode,0.0109256275512725,0.0114829267315849,0.0102662108562624,3.051116954177591e-05,high
800,0.8080808080808081,0.3037974683544304,anode,0.0108819242924127,0.0115187150946068,0.0101036365274554,0.0001047510944561,high
800,0.9090909090909092,0.3037974683544304,anode,0.0109785578943539,0.0115647722318499,0.01027814831751,-5.443064564067561e-05,high
800,1.0101010101010102,0.3037974683544304,anode,0.0106597534897322,0.0112318142346485,0.0099760826339821,3.6403637900337936e-05,high
800,1.1111111111111112,0.3037974683544304,anode,0.0104855380142224,0.01096181293489,0.0099332950357272,-2.4058055413409456e-05,high
800,1.2121212121212122,0.3037974683544304,anode,0.0106206790601662,0.0112128955897791,0.0099058447825601,-7.580371801667959e-05,high
800,1.3131313131313131,0.3037974683544304,anode,0.0104824470243034,0.0109473865127515,0.0099448494459337,4.656304408700138e-05,high
800,1.414141414141414,0.3037974683544304,anode,0.0102698684559134,0.0107910852162511,0.009654008396652,-3.006737982414552e-06,high
800,1.5151515151515151,0.3037974683544304,anode,0.0104079137767796,0.0109380216682345,0.0097810784169053,1.295936303233436e-05,high
800,1.616161616161616,0.3037974683544304,anode,0.0102730727622729,0.0106910157725231,0.0097965866728807,-1.363730190534521e-05,high
800,1.7171717171717171,0.3037974683544304,anode,0.0101382656477698,0.0106730550825639,0.0094986096851244,-9.295872932813734e-05,high
800,1.818181818181818,0.3037974683544304,anode,0.0101086689324246,0.0105917631256181,0.0095433660329556,4.073769478006039e-05,high
800,1.9191919191919191,0.3037974683544304,anode,0.0101705055907624,0.0106271115924578,0.0096422170788027,9.126400569071936e-06,high
800,2.0202020202020203,0.3037974683544304,anode,0.0100367181996577,0.0105202055112459,0.0094704401818202,3.0155031453563385e-05,high
800,7.777777777777778,0.3037974683544304,anode,0.0100748353171863,0.0104767944452803,0.0096178817872468,1.3203920271141812e-06,high
800,7.979797979797979,0.3037974683544304,anode,0.010116712923028,0.0106219742282569,0.0095213893699469,-1.4615423884574932e-05,high
800,8.080808080808081,0.3037974683544304,anode,0.0101358959402724,0.0106784424844181,0.0094870447265732,-5.801274233189191e-05,high
800,8.181818181818182,0.3037974683544304,anode,0.0101291971669487,0.0106160103950183,0.0095595745851307,3.437964895715109e-06,high
800,8.282828282828282,0.3037974683544304,anode,0.0101974294213706,0.0107121863305349,0.0095897980719757,5.988368590406711e-06,high
800,8.383838383838384,0.3037974683544304,anode,0.0102873813433066,0.0107774974876493,0.0097138169429415,5.21565061032259e-05,high
800,8.484848484848484,0.3037974683544304,anode,0.0103989710360807,0.0108127973241339,0.009928670408153,8.512426202205153e-06,high
800,8.585858585858587,0.3037974683544304,anode,0.0104286153957153,0.0109335833634189,0.0098368902129704,1.657332392962004e-05,high
800,8.686868686868687,0.3037974683544304,anode,0.0105083601357087,0.0109742756661135,0.0099693959413289,5.462049582576838e-05,high
800,8.787878787878787,0.3037974683544304,anode,0.010481841838067,0.0109894024788284,0.0098871315596713,-1.0631222540541064e-05,high
800,8.88888888888889,0.3037974683544304,anode,0.0106375744400303,0.0112578501134553,0.009882829419603,5.1302228431698895e-05,high
800,8.98989898989899,0.3037974683544304,anode,0.0106990646794798,0.0112671238053271,0.0100180615916033,0.0001081486013997,high
800,9.09090909090909,0.3037974683544304,anode,0.0107488332884807,0.0111439557737838,0.0103014813267444,-9.729946888656338e-05,high
800,9.191919191919192,0.3037974683544304,anode,0.0108817128610982,0.0115225492444361,0.0100923061894141,-0.0001601921112288,high
800,9.292929292929292,0.3037974683544304,anode,0.0109184025470856,0.0113298960034567,0.0104535341285899,4.490545243680456e-05,high
800,9.393939393939394,0.3037974683544304,anode,0.0110326670937032,0.0115946141849288,0.0103681882943678,1.264470315594048e-05,high
800,9.494949494949497,0.3037974683544304,anode,0.0111673733644481,0.0116548884177785,0.0106058011518181,-8.460965234847486e-06,high
800,9.595959595959595,0.3037974683544304,anode,0.0112209499519295,0.0117777843843874,0.0105636501287605,8.0004800630067e-05,high
800,9.696969696969695,0.3037974683544304,anode,0.0113564760846983,0.0118575361818278,0.0107781536084767,2.6682933740730687e-05,high
800,9.797979797979798,0.3037974683544304,anode,0.0114478199415601,0.011994795017358,0.0108084367781209,7.11643503041678e-06,high
800,9.8989898989899,0.3037974683544304,anode,0.0116261240623593,0.0122657061201335,0.0108576199719755,-5.059108086944785e-05,high
800,10.0,0.3037974683544304,anode,0.01180210932998,0.0124109808184232,0.0110749901352209,0.0001334458676082,high
800,0.0,0.4050632911392405,anode,0.0117206908901672,0.0122084030930363,0.0111625904214949,-3.399691562651098e-05,high
800,0.101010101010101,0.4050632911392405,anode,0.0116213544454527,0.0122131499847099,0.0109216649063616,-2.1490392626051144e-06,high
800,0.202020202020202,0.4050632911392405,anode,0.0114743998162129,0.0120564019436277,0.0107867176678251,-1.580217661206307e-05,high
800,0.303030303030303,0.4050632911392405,anode,0.0114883977589149,0.0119937224394,0.0108987789230466,-0.0001499471369426,high
800,0.404040404040404,0.4050632911392405,anode,0.0112364827816577,0.0116607215517299,0.010757709517934,-1.2373981930730865e-05,high
800,0.5050505050505051,0.4050632911392405,anode,0.0111614283577875,0.0117457678943207,0.0104664640116931,-3.745043973831601e-05,high
800,0.6060606060606061,0.4050632911392405,anode,0.0110430258556947,0.0116201360413862,0.0103573434394815,-3.4205254616507115e-06,high
800,0.7070707070707071,0.4050632911392405,anode,0.0110434412264694,0.0116511452033765,0.0103137949309049,2.2847562839431183e-05,high
800,0.8080808080808081,0.4050632911392405,anode,0.0107857803951955,0.0112990171612833,0.0101861437771021,-1.964874370991418e-05,high
800,0.9090909090909092,0.4050632911392405,anode,0.0107904815265755,0.0112883140522425,0.0102119441134446,9.782530469935945e-06,high
800,1.0101010101010102,0.4050632911392405,anode,0.0106115929128846,0.0111519672409491,0.0099726978933103,3.041075652795686e-06,high
800,1.1111111111111112,0.4050632911392405,anode,0.0105501989535807,0.0110644794136111,0.0099448013657166,-7.951738965812675e-05,high
800,1.2121212121212122,0.4050632911392405,anode,0.0104623982833111,0.0109642708732073,0.0098753000104206,-1.2329236170648518e-05,high
800,1.3131313131313131,0.4050632911392405,anode,0.010544320200763,0.0110219465239759,0.0099898343111014,-5.777345386198861e-05,high
800,1.414141414141414,0.4050632911392405,anode,0.0105115819154086,0.010956980766647,0.0100004519389694,3.486838636091925e-05,high
800,1.5151515151515151,0.4050632911392405,anode,0.0102724483016858,0.0108294718809725,0.0096057326425176,-1.4661045777994948e-05,high
800,1.616161616161616,0.4050632911392405,anode,0.0101376897963167,0.0106026476198998,0.0095979075325113,2.601764724788532e-06,high
800,1.7171717171717171,0.4050632911392405,anode,0.0103304664878271,0.0108453335789644,0.0097228535378792,6.051571633271982e-05,high
800,1.818181818181818,0.4050632911392405,anode,0.0100494837345228,0.0106341795394298,0.009339209267869,1.0758181171619705e-05,high
800,1.9191919191919191,0.4050632911392405,anode,0.0101729962121413,0.010599427814083,0.0096844647986431,-3.113979968001966e-05,high
800,2.0202020202020203,0.4050632911392405,anode,0.0100639924098809,0.0106343967753585,0.0093749618910925,1.5302447408118007e-05,high
800,7.6767676767676765,0.4050632911392405,anode,0.0100221430655963,0.0104513562468578,0.0095290710778689,-1.8485651245709148e-05,high
800,7.777777777777778,0.4050632911392405,anode,0.0100541523929941,0.0106064552100096,0.0093909590961985,3.541424382739849e-05,high
800,7.878787878787879,0.4050632911392405,anode,0.0100240026717529,0.0103858302982889,0.0096179652608321,1.2353592190854696e-05,high
800,8.080808080808081,0.4050632911392405,anode,0.0101003835726341,0.0105979091516713,0.0095124484920776,9.567051412552796e-05,high
800,8.181818181818182,0.4050632911392405,anode,0.0101827167180521,0.0107785948095521,0.0094573405679087,-4.149309825539877e-05,high
800,8.282828282828282,0.4050632911392405,anode,0.0102524221978139,0.0107564155226593,0.0096590262316723,-6.163866243341983e-05,high
800,8.383838383838384,0.4050632911392405,anode,0.0101770392847592,0.0106090521512735,0.00968119236111,-3.1252561508744515e-05,high
800,8.484848484848484,0.4050632911392405,anode,0.0102620254730619,0.0106716496878113,0.0097962795481285,-1.1977017242502448e-05,high
800,8.585858585858587,0.4050632911392405,anode,0.0104759641935204,0.0110065982753048,0.0098476375362462,6.744248652964022e-05,high
800,8.686868686868687,0.4050632911392405,anode,0.0104247115060663,0.0110277509903248,0.0096929385287162,-2.289991148774481e-05,high
800,8.787878787878787,0.4050632911392405,anode,0.0106052654871825,0.0110940401329597,0.0100372149461661,2.2443575715272976e-05,high
800,8.88888888888889,0.4050632911392405,anode,0.0106420188348915,0.0110697720411686,0.0101536770264368,6.938958582323066e-05,high
800,8.98989898989899,0.4050632911392405,anode,0.0106956609600121,0.011238484845366,0.010053959435228,-3.0507788787608345e-05,high
800,9.09090909090909,0.4050632911392405,anode,0.0107490694498599,0.0111126029099601,0.0103442605484307,1.270408746905878e-05,high
800,9.191919191919192,0.4050632911392405,anode,0.01081958095296,0.0113361656301403,0.0102155241857062,-2.955550034534264e-05,high
800,9.292929292929292,0.4050632911392405,anode,0.0109193491048459,0.0112775986831604,0.0105217816759089,-1.2836826156086264e-05,high
800,9.393939393939394,0.4050632911392405,anode,0.0110488428827934,0.0116010247718161,0.0103964760041882,-7.352018063722091e-05,high
800,9.494949494949497,0.4050632911392405,anode,0.0111894611938698,0.0117066579168985,0.0105880447859232,-2.663428068727528e-05,high
800,9.595959595959595,0.4050632911392405,anode,0.0112564984035036,0.0116907771656526,0.0107604092445089,0.0001233222750962,high
800,9.696969696969695,0.4050632911392405,anode,0.0112860027026471,0.0119075768660997,0.0105397330088669,-7.729491931638166e-06,high
800,9.797979797979798,0.4050632911392405,anode,0.0114086541401847,0.0119715024427326,0.0107470232863418,-2.8613151194115622e-06,high
800,9.8989898989899,0.4050632911392405,anode,0.0117056232168182,0.0123021305328129,0.0109995878776882,-4.701647664214789e-05,high
800,10.0,0.4050632911392405,anode,0.011804125175973,0.0123871992929389,0.0111184821677477,1.706438209643241e-05,high
800,0.0,0.5063291139240507,anode,0.0116872148188185,0.0122395046045956,0.0110428356381233,-6.732144063872579e-06,high
800,0.101010101010101,0.5063291139240507,anode,0.0116886263006944,0.0121916428103172,0.0111099097223246,-4.392165060023748e-05,high
800,0.202020202020202,0.5063291139240507,anode,0.0114715662058631,0.0120906591251145,0.0107306974467821,-4.520488612338965e-05,high
800,0.303030303030303,0.5063291139240507,anode,0.0113816026765915,0.011988522313277,0.0106560356336848,7.126890626352631e-05,high
800,0.404040404040404,0.5063291139240507,anode,0.0112045827400243,0.0117328263236755,0.0105883874638401,-2.0190039882397902e-05,high
800,0.5050505050505051,0.5063291139240507,anode,0.0111682638949374,0.0117361150598483,0.0104958810083089,-6.074744542292759e-05,high
800,0.6060606060606061,0.5063291139240507,anode,0.0109964635314236,0.0114998015822058,0.0104120344366597,-2.9680219667811827e-05,high
800,0.7070707070707071,0.5063291139240507,anode,0.0109675584677169,0.0115932897625935,0.0102087053561318,7.699668736313033e-05,high
800,0.8080808080808081,0.5063291139240507,anode,0.0108453607956118,0.0113730131305403,0.0102248013170963,-7.45224394813977e-05,high
800,0.9090909090909092,0.5063291139240507,anode,0.0107733069652025,0.0112939228441063,0.0101634290127505,-1.952402102316094e-05,high
800,1.0101010101010102,0.5063291139240507,anode,0.0108011573092161,0.011343163543769,0.0101620102862313,-1.331152954015366e-05,high
800,1.1111111111111112,0.5063291139240507,anode,0.0107394205403789,0.0113001805463906,0.010072948545989,3.118736989469941e-05,high
800,1.2121212121212122,0.5063291139240507,anode,0.0105413960848385,0.0109494525236715,0.0100790240451022,-3.459486644623779e-05,high
800,1.3131313131313131,0.5063291139240507,anode,0.0104008696975448,0.0109365256246981,0.0097642113778749,-7.576681969932927e-05,high
800,1.414141414141414,0.5063291139240507,anode,0.0102954004472113,0.0108774173879792,0.0095924175736522,3.324724157355819e-05,high
800,1.5151515151515151,0.5063291139240507,anode,0.0103082146516385,0.0107814213701605,0.0097586130172635,2.1859018327509105e-05,high
800,1.616161616161616,0.5063291139240507,anode,0.0101899623999457,0.0107858453075324,0.0094640300024904,-5.937007932492007e-05,high
800,1.7171717171717171,0.5063291139240507,anode,0.0101976206099655,0.0106882081671863,0.0096218835151285,-6.763596453721174e-05,high
800,1.818181818181818,0.5063291139240507,anode,0.0102426039182549,0.0107768079841673,0.0096074346455773,4.480560017842695e-05,high
800,1.9191919191919191,0.5063291139240507,anode,0.0101160750430731,0.0106577270540769,0.0094692265019736,-2.587948653627649e-05,high
800,2.0202020202020203,0.5063291139240507,anode,0.010128029063785,0.0106039518479447,0.0095732496451084,1.0761363875045174e-05,high
800,2.121212121212121,0.5063291139240507,anode,0.0100681125398304,0.0105301639221375,0.0095308381029271,4.81334345745961e-05,high
800,2.323232323232323,0.5063291139240507,anode,0.0100079037200367,0.0106006098350017,0.0092850804977853,1.1238092287504322e-06,high
800,7.878787878787879,0.5063291139240507,anode,0.010001432201904,0.0105523561277305,0.0093393403765066,-4.160619174863525e-05,high
800,7.979797979797979,0.5063291139240507,anode,0.0101179442743236,0.010621700082008,0.0095247558204991,1.1689678612155731e-05,high
800,8.080808080808081,0.5063291139240507,anode,0.0101082745968043,0.0106220986967054,0.009495399626439,0.0001247564731327,high
800,8.181818181818182,0.5063291139240507,anode,0.0101095171034643,0.0105504772907986,0.0096012237488024,-3.5405520418372456e-05,high
800,8.282828282828282,0.5063291139240507,anode,0.0103930338949287,0.0109530149744453,0.0097236357671257,1.4743839019767644e-05,high
800,8.383838383838384,0.5063291139240507,anode,0.010149476051095,0.0105714516223734,0.0096669551400316,7.363614975690554e-07,high
800,8.484848484848484,0.5063291139240507,anode,0.0104341113978868,0.0109494387805416,0.009827931409288,-2.9260749443168912e-05,high
800,8.585858585858587,0.5063291139240507,anode,0.0103788814290541,0.0107986194107272,0.0099008143159378,-1.5920816163602866e-07,high
800,8.686868686868687,0.5063291139240507,anode,0.0105634449351102,0.0111302885191209,0.0098859764302379,3.779929800757383e-05,high
800,8.787878787878787,0.5063291139240507,anode,0.0106408384084244,0.0111332255317944,0.0100666580010962,7.188383920017219e-05,high
800,8.88888888888889,0.5063291139240507,anode,0.0105530797671002,0.0110270530025698,0.0100033380901267,6.366848086823031e-05,high
800,8.98989898989899,0.5063291139240507,anode,0.0106194856618555,0.0111512610603934,0.009992160721179,3.987215699607353e-05,high
800,9.09090909090909,0.5063291139240507,anode,0.0106327532454493,0.0110120748646482,0.0102073477972105,3.548620935068384e-05,high
800,9.191919191919192,0.5063291139240507,anode,0.0108976876571939,0.0114703260967256,0.010216553189033,1.2289656111589267e-05,high
800,9.292929292929292,0.5063291139240507,anode,0.0110008025886896,0.0115325907817336,0.0103763551085793,-6.956864775138681e-05,high
800,9.393939393939394,0.5063291139240507,anode,0.0111329530335999,0.0116203511836862,0.0105711670710281,-1.9850770950293e-05,high
800,9.494949494949497,0.5063291139240507,anode,0.0111761793793218,0.0117675225695643,0.0104704199595184,-6.73477327997721e-05,high
800,9.595959595959595,0.5063291139240507,anode,0.0112265917869958,0.0117353175489425,0.010637061197486,-1.7370456668327788e-05,high
800,9.696969696969695,0.5063291139240507,anode,0.0113647783257369,0.0117979000095592,0.0108749779220698,-3.872588634698531e-05,high
800,9.797979797979798,0.5063291139240507,anode,0.0115692703372116,0.012049597845851,0.0110161807755978,-0.0001147710056949,high
800,9.8989898989899,0.5063291139240507,anode,0.011535440231292,0.0120750044056092,0.010902999668128,0.0001140426791887,high
800,10.0,0.5063291139240507,anode,0.0116935629523703,0.0122418259314161,0.0110546685500456,-1.574540936245762e-05,high
800,0.0,0.6075949367088608,anode,0.0118165134796602,0.0124526235267381,0.0110562552421127,1.5940338036801492e-05,high
800,0.101010101010101,0.6075949367088608,anode,0.0115854954140063,0.0120611264797006,0.0110411642319444,6.952869068631577e-05,high
800,0.202020202020202,0.6075949367088608,anode,0.0115289012073184,0.0120793728315877,0.0108853675131646,2.237369971918638e-05,high
800,0.303030303030303,0.6075949367088608,anode,0.0114316440526705,0.0120499382182538,0.0106918992518011,2.22897028200441e-05,high
800,0.404040404040404,0.6075949367088608,anode,0.0112885498638418,0.0118894672496364,0.0105640332922689,-0.0001569023056988,high
800,0.5050505050505051,0.6075949367088608,anode,0.0111310052215068,0.0116324032224829,0.0105499461439365,4.5957924848805145e-05,high
800,0.6060606060606061,0.6075949367088608,anode,0.0111146801161164,0.0115654633665397,0.0106009475332452,1.7822687415576196e-05,high
800,0.7070707070707071,0.6075949367088608,anode,0.0110051691641763,0.0115309704758757,0.0103900335505862,4.017109026591437e-05,high
800,0.8080808080808081,0.6075949367088608,anode,0.0109056493579127,0.0113971218738709,0.0103362393372257,3.802068438196284e-05,high
800,0.9090909090909092,0.6075949367088608,anode,0.0108423046270975,0.0113882552486673,0.01019467346483,0.0001022880862605,high
800,1.0101010101010102,0.6075949367088608,anode,0.0106842686972523,0.011286896764615,0.0099568778384398,-2.825473853269088e-05,high
800,1.1111111111111112,0.6075949367088608,anode,0.0106298142499113,0.011061717786881,0.010131888983405,-0.0001320010118783,high
800,1.2121212121212122,0.6075949367088608,anode,0.0105272800052931,0.0110593093952372,0.0098982217341559,5.16498868531816e-05,high
800,1.3131313131313131,0.6075949367088608,anode,0.0102577812760241,0.010744440882589,0.0096871981698239,-8.323961288308222e-05,high
800,1.414141414141414,0.6075949367088608,anode,0.0103752452029791,0.0109163016401696,0.0097321666696023,3.7728926293164895e-05,high
800,1.5151515151515151,0.6075949367088608,anode,0.0104039241551177,0.0110104194227549,0.0096663849480189,3.7667743354822335e-05,high
800,1.616161616161616,0.6075949367088608,anode,0.010240051460696,0.0106633182020914,0.0097558000627162,-4.421296823971645e-05,high
800,1.7171717171717171,0.6075949367088608,anode,0.010079801504009,0.0105374897350438,0.0095493257647595,-1.64370630744643e-06,high
800,1.818181818181818,0.6075949367088608,anode,0.0102600337952405,0.0107830078008796,0.0096414192281956,2.287838142270269e-05,high
800,2.0202020202020203,0.6075949367088608,anode,0.0100539596829486,0.0106191989005268,0.0093720326467714,3.267447297950041e-05,high
800,2.323232323232323,0.6075949367088608,anode,0.0100227355844458,0.0104593856467273,0.0095194693318915,3.644640985822839e-05,high
800,7.878787878787879,0.6075949367088608,anode,0.0100104857694883,0.0105686318033105,0.0093375476295184,5.523964732874602e-05,high
800,7.979797979797979,0.6075949367088608,anode,0.0100925260819187,0.0104114313905858,0.0097400719423446,9.459358251606568e-06,high
800,8.080808080808081,0.6075949367088608,anode,0.010156640226843,0.0106159954671981,0.0096241844501573,3.3432048767998e-05,high
800,8.181818181818182,0.6075949367088608,anode,0.0101633611479371,0.0105977685375836,0.0096636050692889,-5.35371365137037e-05,high
800,8.282828282828282,0.6075949367088608,anode,0.0102930462472669,0.0107347518267555,0.0097840408456012,-6.757548450653886e-05,high
800,8.383838383838384,0.6075949367088608,anode,0.010391505206104,0.0109465151139037,0.0097276939958566,6.709739591139705e-05,high
800,8.484848484848484,0.6075949367088608,anode,0.0102995399496308,0.0107673754284697,0.0097572699093886,2.692153120346036e-06,high
800,8.585858585858587,0.6075949367088608,anode,0.010390203010919,0.0109086139227827,0.0097793971472588,2.2510775027363263e-05,high
800,8.686868686868687,0.6075949367088608,anode,0.0103897070838569,0.0108755957578328,0.009823497329268,-3.0090439726765262e-05,high
800,8.787878787878787,0.6075949367088608,anode,0.01050595254526,0.0110121041134834,0.0099125397221147,5.188957352637852e-05,high
800,8.88888888888889,0.6075949367088608,anode,0.0105686763364691,0.010945084627451,0.0101469597663806,-1.393863702539261e-05,high
800,8.98989898989899,0.6075949367088608,anode,0.0107144021201644,0.0112928829359432,0.0100225496656052,-1.9883674200557757e-05,high
800,9.09090909090909,0.6075949367088608,anode,0.0108395733911598,0.0113146806410947,0.010290133043004,-7.546386689190518e-05,high
800,9.191919191919192,0.6075949367088608,anode,0.0108004032314021,0.0112960612174799,0.0102222456550319,9.04016949816508e-05,high
800,9.292929292929292,0.6075949367088608,anode,0.0108568888371599,0.0113872920747611,0.0102282811962609,-0.0001369958653348,high
800,9.393939393939394,0.6075949367088608,anode,0.0108815979601057,0.0113711874108494,0.0103146956535672,-2.978797063675926e-05,high
800,9.494949494949497,0.6075949367088608,anode,0.0110740490580046,0.0115981614309265,0.0104622373295652,2.252034692717612e-05,high
800,9.595959595959595,0.6075949367088608,anode,0.0113227473097353,0.0118669694076507,0.0106856324845889,-3.149559924133255e-05,high
800,9.696969696969695,0.6075949367088608,anode,0.0114587873748048,0.0119325073934202,0.0109175422576493,2.357811823209684e-07,high
800,9.797979797979798,0.6075949367088608,anode,0.0113963244545009,0.0119964612344531,0.0106820148774645,2.623269907447824e-05,high
800,9.8989898989899,0.6075949367088608,anode,0.0116321261556492,0.0122109799897018,0.0109494169185341,-6.246766438796685e-05,high
800,10.0,0.6075949367088608,anode,0.0117017580643846,0.0121999957850386,0.011124280668,-0.0001388062476714,high
800,0.0,0.7088607594936709,anode,0.0118195294539562,0.0124683337905214,0.0110410970805752,-7.917755473877521e-06,high
800,0.101010101010101,0.7088607594936709,anode,0.0116826300377141,0.0122192423144937,0.0110594876626817,9.20364491804777e-06,high
800,0.202020202020202,0.7088607594936709,anode,0.0116116283642669,0.0122378012142876,0.010862738709576,3.20385572244592e-05,high
800,0.303030303030303,0.7088607594936709,anode,0.0114194510635433,0.0120756782154952,0.0106233194296744,5.980394842830911e-05,high
800,0.404040404040404,0.7088607594936709,anode,0.0112248329552967,0.011650905212257,0.0107436118108226,1.7230910685221606e-05,high
800,0.5050505050505051,0.7088607594936709,anode,0.0110670863989808,0.0115556319522499,0.0105011934644279,8.293391667557983e-05,high
800,0.6060606060606061,0.7088607594936709,anode,0.0111176982814752,0.0115875289936708,0.0105791427365416,9.11128405581494e-06,high
800,0.7070707070707071,0.7088607594936709,anode,0.0109009445972349,0.0113534503072773,0.0103809813633466,-9.117970451761752e-05,high
800,0.8080808080808081,0.7088607594936709,anode,0.0109405927254392,0.0115160594873805,0.0102551107629433,-5.1999687635192495e-05,high
800,0.9090909090909092,0.7088607594936709,anode,0.0108244126428648,0.0113672724516088,0.010184155105974,2.630988673049272e-05,high
800,1.0101010101010102,0.7088607594936709,anode,0.0106055990230103,0.0111289201422944,0.0099900196565879,3.4182560938329774e-05,high
800,1.1111111111111112,0.7088607594936709,anode,0.01058292486718,0.0110900913381121,0.0099897842641939,-1.0246164888837802e-06,high
800,1.2121212121212122,0.7088607594936709,anode,0.0105785667059451,0.0111133673293907,0.0099465828522009,3.940654426169674e-05,high
800,1.3131313131313131,0.7088607594936709,anode,0.0103436380268462,0.0108943603305438,0.0096869351834554,1.80346065774884e-06,high
800,1.414141414141414,0.7088607594936709,anode,0.0103172668827646,0.010860946123076,0.0096694676743642,4.763607300088046e-05,high
800,1.5151515151515151,0.7088607594936709,anode,0.0102457904939866,0.010704297181151,0.0097155899709814,-6.286483671022253e-06,high
800,1.616161616161616,0.7088607594936709,anode,0.0102239875787626,0.0107085879030469,0.0096578511659253,3.617621271808338e-05,high
800,1.7171717171717171,0.7088607594936709,anode,0.0102308210984935,0.0107562825910031,0.0096085286028003,-1.0201249737609744e-05,high
800,1.818181818181818,0.7088607594936709,anode,0.0101163631804359,0.0107075069111192,0.0093972326355964,3.1895299222734595e-05,high
800,2.0202020202020203,0.7088607594936709,anode,0.010053425433133,0.0105182681436168,0.0095129933412875,-1.3792501164596343e-05,high
800,7.474747474747475,0.7088607594936709,anode,0.0100089268127481,0.010572874352615,0.0093284645298562,2.1422410184474527e-05,high
800,7.777777777777778,0.7088607594936709,anode,0.0100027302571044,0.0105121159745582,0.0093999909240026,-3.649527553842357e-05,high
800,7.878787878787879,0.7088607594936709,anode,0.0100247362943724,0.0105761737761412,0.0093625323435465,-2.9682737440296943e-05,high
800,7.979797979797979,0.7088607594936709,anode,0.0101155067934132,0.0105627570136467,0.0095990417376903,-2.819642649856285e-05,high
800,8.080808080808081,0.7088607594936709,anode,0.0100749258957597,0.0105010062355795,0.0095864593191317,-9.427890091288442e-06,high
800,8.181818181818182,0.7088607594936709,anode,0.0102323886731585,0.010711868312144,0.0096736151699024,-2.094889699050843e-05,high
800,8.282828282828282,0.7088607594936709,anode,0.0102688757660623,0.0106644765740552,0.0098191184935911,8.045715597431333e-05,high
800,8.383838383838384,0.7088607594936709,anode,0.0103263398914506,0.0108327465050031,0.0097316942593129,-9.184579774296264e-07,high
800,8.484848484848484,0.7088607594936709,anode,0.010329383980486,0.0108528749074721,0.0097104713922389,-3.897140895623291e-05,high
800,8.585858585858587,0.7088607594936709,anode,0.0103955052493668,0.010772779234892,0.0099711829127945,4.697692961764734e-05,high
800,8.686868686868687,0.7088607594936709,anode,0.0106031632595111,0.011156376545192,0.0099460749731713,-5.280946929336359e-06,high
800,8.787878787878787,0.7088607594936709,anode,0.0104974302453804,0.0109610844192986,0.0099623881680355,4.824475159704439e-06,high
800,8.88888888888889,0.7088607594936709,anode,0.0105913536069613,0.0110705316895663,0.0100362681325264,-9.050159355095717e-06,high
800,8.98989898989899,0.7088607594936709,anode,0.0107891128625106,0.0113658989699897,0.0100982465402168,8.633988481573271e-05,high
800,9.09090909090909,0.7088607594936709,anode,0.0107647633107175,0.0112767895045369,0.0101645114512493,8.146699894322113e-05,high
800,9.191919191919192,0.7088607594936709,anode,0.0109010289128745,0.0113974308301479,0.0103240823630176,-6.413478045283239e-05,high
800,9.292929292929292,0.7088607594936709,anode,0.0110095848878902,0.0114918746973231,0.0104536719315851,1.6395692257688735e-05,high
800,9.393939393939394,0.7088607594936709,anode,0.0111230418904373,0.0115158243819704,0.0106833907341111,1.882923560935653e-05,high
800,9.494949494949497,0.7088607594936709,anode,0.0111731381587261,0.0117079505950999,0.01054538846421,8.675340664618439e-05,high
800,9.595959595959595,0.7088607594936709,anode,0.0112279722263175,0.0117103905769971,0.0106735948687664,-1.225017639524543e-05,high
800,9.696969696969695,0.7088607594936709,anode,0.0113123862050096,0.0117327321896201,0.0108365032915731,9.140463451587118e-05,high
800,9.797979797979798,0.7088607594936709,anode,0.0114267124228452,0.011928803645083,0.0108464530422919,-6.599338332768835e-05,high
800,9.8989898989899,0.7088607594936709,anode,0.0116496780692477,0.0122881355907911,0.0108836942985206,-2.7279447311041435e-05,high
800,10.0,0.7088607594936709,anode,0.0116591970666782,0.0122179145236061,0.0110051875695731,4.369795305374558e-05,high
800,0.0,0.810126582278481,anode,0.0118169795364905,0.0123676435182118,0.0111750508331099,5.6812708310368126e-05,high
800,0.101010101010101,0.810126582278481,anode,0.0116993866405868,0.0123293040752051,0.0109444289001258,-8.281842845510979e-05,high
800,0.202020202020202,0.810126582278481,anode,0.0114730731866117,0.012021435611108,0.0108314475348692,-4.392269054331192e-05,high
800,0.303030303030303,0.810126582278481,anode,0.0114220523489542,0.0119837015631902,0.0107621968127874,-9.151288279571671e-06,high
800,0.404040404040404,0.810126582278481,anode,0.0111827606994147,0.0117999764594005,0.0104411455855067,-2.8538852901531048e-05,high
800,0.5050505050505051,0.810126582278481,anode,0.0111908596228339,0.0117210330578551,0.0105717120519416,3.16958693701711e-05,high
800,0.6060606060606061,0.810126582278481,anode,0.011084182782636,0.0116373035893589,0.0104324266930831,2.6223542634971803e-05,high
800,0.7070707070707071,0.810126582278481,anode,0.0110365463447635,0.0115887947984793,0.0103851551176323,4.153364172957037e-05,high
800,0.8080808080808081,0.810126582278481,anode,0.0109805639440098,0.0114671496523209,0.0104187576732611,-8.273575970691802e-06,high
800,0.9090909090909092,0.810126582278481,anode,0.0106641544043171,0.0112552181420515,0.0099531296147959,-3.701178039868647e-05,high
800,1.0101010101010102,0.810126582278481,anode,0.0106837366312768,0.0112649906563066,0.0099870892440303,3.97046147022381e-05,high
800,1.1111111111111112,0.810126582278481,anode,0.0105654294007921,0.0110116793565942,0.0100535013879804,-3.768159617409147e-05,high
800,1.2121212121212122,0.810126582278481,anode,0.0106417020738775,0.0111578269793491,0.0100367962518297,9.611316771435346e-06,high
800,1.3131313131313131,0.810126582278481,anode,0.010279733119737,0.0107977168313632,0.0096685014560207,3.861924130269699e-06,high
800,1.414141414141414,0.810126582278481,anode,0.0104224261489528,0.010919630294923,0.0098411024688965,2.911989043667817e-05,high
800,1.5151515151515151,0.810126582278481,anode,0.0102024713714551,0.0106206298884399,0.0097252190712261,1.5375459747944228e-05,high
800,1.616161616161616,0.810126582278481,anode,0.0103056302867292,0.0108721808910006,0.0096254089656402,-2.821316823138011e-05,high
800,1.7171717171717171,0.810126582278481,anode,0.0101541004186038,0.0106669968611415,0.0095473521282674,-5.937395275091161e-05,high
800,1.818181818181818,0.810126582278481,anode,0.0101322752305975,0.0106333313762697,0.0095385078833396,-0.0001129125165733,high
800,1.9191919191919191,0.810126582278481,anode,0.0102594535715801,0.0107100244186705,0.0097389628247174,-5.445886187373432e-05,high
800,2.0202020202020203,0.810126582278481,anode,0.0100419775363024,0.0105798818164058,0.0093997427802,1.1789482540009528e-05,high
800,2.2222222222222223,0.810126582278481,anode,0.0100476520966239,0.0106115019956092,0.0093679247348961,-1.8940541717303568e-05,high
800,7.6767676767676765,0.810126582278481,anode,0.0100340620898118,0.0106118330544402,0.0093328822408857,5.065761435799912e-05,high
800,7.777777777777778,0.810126582278481,anode,0.0100306404228428,0.0104924030333612,0.0094921561292224,-7.686711420356759e-05,high
800,7.878787878787879,0.810126582278481,anode,0.0100235985083275,0.0105370055674669,0.0094147521216961,-5.7092722733675e-05,high
800,8.080808080808081,0.810126582278481,anode,0.0101223570990133,0.0104692927757141,0.0097354578856028,-8.957008251823984e-06,high
800,8.181818181818182,0.810126582278481,anode,0.0102753836308187,0.0108562741684025,0.0095656000322062,-0.0001537232358721,high
800,8.282828282828282,0.810126582278481,anode,0.0102713963900866,0.0107796835200648,0.0096733292432401,2.668450811617036e-05,high
800,8.383838383838384,0.810126582278481,anode,0.0102619118351135,0.0107097289617075,0.0097458448669934,-2.8313337557009462e-05,high
800,8.484848484848484,0.810126582278481,anode,0.0102220011975577,0.0107288926022383,0.0096250582998403,-3.933415162437166e-05,high
800,8.585858585858587,0.810126582278481,anode,0.0103176132204395,0.010790456233107,0.0097660337623742,-8.895932423126846e-05,high
800,8.686868686868687,0.810126582278481,anode,0.0103912157073437,0.0109233113824189,0.0097599630929401,-6.54947550394158e-05,high
800,8.787878787878787,0.810126582278481,anode,0.0105251257172301,0.0110536126095537,0.0099008283804235,-5.609056275884144e-05,high
800,8.88888888888889,0.810126582278481,anode,0.010643206177441,0.011109650113343,0.0101055652376473,1.0913448796287482e-05,high
800,8.98989898989899,0.810126582278481,anode,0.0105668921456264,0.011080720959573,0.0099591381915793,0.0001249405366861,high
800,9.09090909090909,0.810126582278481,anode,0.010704762373998,0.0111866370952616,0.010147013246424,-7.415032763485708e-06,high
800,9.191919191919192,0.810126582278481,anode,0.0108756581838851,0.0113974268288268,0.0102645425671244,-4.8789828565799e-05,high
800,9.292929292929292,0.810126582278481,anode,0.0108759223580841,0.0114052840493881,0.0102531009595101,-7.880870554134733e-05,high
800,9.393939393939394,0.810126582278481,anode,0.0110853325423293,0.0116692041934247,0.0103905332402564,-1.0709939787376133e-05,high
800,9.494949494949497,0.810126582278481,anode,0.011145643450211,0.0116010509260547,0.0106252177071711,5.6052733633691446e-05,high
800,9.595959595959595,0.810126582278481,anode,0.0110848933299502,0.0116399024178143,0.0104307385449236,1.162787752254503e-06,high
800,9.696969696969695,0.810126582278481,anode,0.0114160981980984,0.0118990635486554,0.010860965092302,6.912749214956282e-05,high
800,9.797979797979798,0.810126582278481,anode,0.0114732706702672,0.011928901130243,0.0109555193666164,1.9667745367300548e-05,high
800,9.8989898989899,0.810126582278481,anode,0.011643385049039,0.012216839312969,0.0109689135348328,4.336880424690739e-05,high
800,10.0,0.810126582278481,anode,0.0116250135719996,0.0121780458356064,0.0109785916224638,3.85493232942199e-05,high
800,0.0,0.9113924050632912,anode,0.0116692601326634,0.0122258914797689,0.0110187883269463,-2.8106003503345734e-06,high
800,0.101010101010101,0.9113924050632912,anode,0.0115846012800697,0.0121737646716519,0.0108880768499739,1.922103828505868e-05,high
800,0.202020202020202,0.9113924050632912,anode,0.0114871328098668,0.012098343767995,0.0107581711877098,2.6484603820255432e-05,high
800,0.303030303030303,0.9113924050632912,anode,0.0112892913154552,0.0118107558984648,0.0106828926410186,3.154681779066311e-05,high
800,0.404040404040404,0.9113924050632912,anode,0.0112597730220893,0.0116842962236632,0.0107805917180854,2.695412824570868e-05,high
800,0.5050505050505051,0.9113924050632912,anode,0.0111302958856894,0.0116098107837259,0.0105790744114025,-2.369980636153281e-06,high
800,0.6060606060606061,0.9113924050632912,anode,0.0109695633460891,0.0115865787777876,0.0102253392252627,2.344085746155196e-05,high
800,0.7070707070707071,0.9113924050632912,anode,0.0109119002958748,0.0115174865950044,0.0101830673935789,4.301651004291813e-05,high
800,0.8080808080808081,0.9113924050632912,anode,0.0110441779127514,0.0115199074465885,0.0104973173494657,4.121426142776772e-06,high
800,0.9090909090909092,0.9113924050632912,anode,0.010887119250784,0.0114785974289838,0.0101789457587426,9.137847343565763e-06,high
800,1.0101010101010102,0.9113924050632912,anode,0.010708610425378,0.0112318461520195,0.010093787565977,4.929795474584936e-05,high
800,1.1111111111111112,0.9113924050632912,anode,0.0105061738782013,0.0110899588011161,0.0098031278470407,-4.990560716260381e-05,high
800,1.2121212121212122,0.9113924050632912,anode,0.0105653950614949,0.0110443001082886,0.0100088788397266,-6.931557937011663e-05,high
800,1.3131313131313131,0.9113924050632912,anode,0.0103798227918859,0.0107840339275844,0.0099200043595299,-7.418562647416933e-05,high
800,1.414141414141414,0.9113924050632912,anode,0.0104018309130877,0.0108857764726283,0.0098385270048476,-2.1206146996361992e-05,high
800,1.5151515151515151,0.9113924050632912,anode,0.0102504085984131,0.0106699219419439,0.0097679002100097,0.0001072387554913,high
800,1.616161616161616,0.9113924050632912,anode,0.0102529958831818,0.0107480195760147,0.0096717157501454,6.758806292539983e-05,high
800,1.7171717171717171,0.9113924050632912,anode,0.0103038293695141,0.0108418234549077,0.009663782523457,5.1946170680020255e-05,high
800,1.818181818181818,0.9113924050632912,anode,0.0101030582576035,0.0106267251341052,0.0094814706623496,3.263819634115449e-05,high
800,1.9191919191919191,0.9113924050632912,anode,0.0101824863636709,0.010731706432962,0.0095254197954154,-3.601943594079077e-05,high
800,2.0202020202020203,0.9113924050632912,anode,0.0101632706958006,0.0106765577126364,0.0095573150864033,-6.857645551339903e-06,high
800,2.121212121212121,0.9113924050632912,anode,0.0100890540463927,0.0105342348724705,0.0095734830881067,-7.44942103704823e-05,high
800,7.979797979797979,0.9113924050632912,anode,0.0101528972040949,0.0106715054411264,0.0095377768725424,6.718972666448054e-05,high
800,8.080808080808081,0.9113924050632912,anode,0.0101788188592266,0.0106302704788868,0.0096574696677177,-1.2874279941763202e-05,high
800,8.181818181818182,0.9113924050632912,anode,0.0101681396922342,0.0107220461862047,0.0095020340407718,8.443403291043822e-05,high
800,8.282828282828282,0.9113924050632912,anode,0.0102322688993318,0.0106870204691507,0.0097069958449068,-2.25651854793994e-06,high
800,8.383838383838384,0.9113924050632912,anode,0.0103363659414026,0.0108350157258676,0.0097521552537523,3.224146919939141e-05,high
800,8.484848484848484,0.9113924050632912,anode,0.0102965141003738,0.0108009145304626,0.0097042068720216,1.937283733743082e-05,high
800,8.585858585858587,0.9113924050632912,anode,0.01039409894054,0.0109149072206915,0.0097801569217379,-6.561000615523277e-06,high
800,8.686868686868687,0.9113924050632912,anode,0.0104335241713621,0.0110313830841506,0.0097085642872545,5.681905539538175e-05,high
800,8.787878787878787,0.9113924050632912,anode,0.0104828346072944,0.0110047867487964,0.0098682270409879,-1.0316002088070205e-05,high
800,8.88888888888889,0.9113924050632912,anode,0.0105490085973576,0.0109706867042936,0.0100693220164681,2.413102669736735e-05,high
800,8.98989898989899,0.9113924050632912,anode,0.0107193656885404,0.0112595908766553,0.0100815941091431,2.886362727738119e-05,high
800,9.09090909090909,0.9113924050632912,anode,0.0108349856713904,0.0114156832447001,0.0101399541874346,7.053309426470883e-05,high
800,9.191919191919192,0.9113924050632912,anode,0.010961404522573,0.0114567091417905,0.0103876579233645,1.9520138864213425e-05,high
800,9.292929292929292,0.9113924050632912,anode,0.0109795343507797,0.0115162771702286,0.0103472031072081,8.598735539778722e-05,high
800,9.393939393939394,0.9113924050632912,anode,0.0110701821721058,0.0115822964535595,0.0104747979631281,7.418832123863214e-06,high
800,9.494949494949497,0.9113924050632912,anode,0.0111366131129294,0.0116852246690007,0.0104918622807209,-9.484915602718703e-06,high
800,9.595959595959595,0.9113924050632912,anode,0.0111436083910162,0.0116171819847911,0.0106002805545512,1.3306156970245346e-05,high
800,9.696969696969695,0.9113924050632912,anode,0.0113615768675283,0.0118537303276257,0.0107933984517674,7.977189131326291e-05,high
800,9.797979797979798,0.9113924050632912,anode,0.0114010439008818,0.0118810622350408,0.010850841587611,3.1215607579110475e-05,high
800,9.8989898989899,0.9113924050632912,anode,0.0116116534090412,0.0121502601199682,0.0109850335018597,2.3995457831616893e-05,high
800,10.0,0.9113924050632912,anode,0.0117023043668932,0.012222214735301,0.011101091375611,-4.86049340783441e-05,high
800,0.0,1.0126582278481011,anode,0.0116005277728969,0.0121659536241344,0.0109366790909928,-4.471431114142049e-05,high
800,0.101010101010101,1.0126582278481011,anode,0.0116245794512087,0.0121485181514195,0.011016813210363,6.360316281181096e-05,high
800,0.202020202020202,1.0126582278481011,anode,0.011347209469862,0.0119169898352355,0.0106736227646813,7.245018735027613e-05,high
800,0.303030303030303,1.0126582278481011,anode,0.0113279720506457,0.0119050940198462,0.0106452321479961,3.270707917987037e-05,high
800,0.404040404040404,1.0126582278481011,anode,0.0112832277252079,0.0118335013897182,0.0106360199973932,7.282122793527834e-05,high
800,0.5050505050505051,1.0126582278481011,anode,0.0112294777896424,0.0118075774425917,0.010544562685284,8.653441349548613e-06,high
800,0.6060606060606061,1.0126582278481011,anode,0.0110797620537575,0.0116650879553471,0.0103828602936979,-3.6895129817346655e-06,high
800,0.7070707070707071,1.0126582278481011,anode,0.0110700720899716,0.0115814070455104,0.0104756955326404,-1.4190127228304877e-05,high
800,0.8080808080808081,1.0126582278481011,anode,0.0108917095157935,0.0114284166367676,0.0102602510580263,-4.583109610777147e-05,high
800,0.9090909090909092,1.0126582278481011,anode,0.0107860106062769,0.0113937447317814,0.0100488676731823,0.0001081625078026,high
800,1.0101010101010102,1.0126582278481011,anode,0.0106949407674814,0.0112220971982773,0.0100752466747496,1.9099877482792283e-05,high
800,1.1111111111111112,1.0126582278481011,anode,0.0106520521551694,0.0111738202832285,0.0100390848297775,3.493265478908456e-05,high
800,1.2121212121212122,1.0126582278481011,anode,0.010502163045474,0.0109422010395843,0.0099983086275054,-1.8190566826323465e-05,high
800,1.3131313131313131,1.0126582278481011,anode,0.0103451090773142,0.0107938206798635,0.0098287627724045,-3.749956804532169e-06,high
800,1.414141414141414,1.0126582278481011,anode,0.0103175428806623,0.010784711380123,0.0097719762660142,0.00011271651843,high
800,1.5151515151515151,1.0126582278481011,anode,0.0103159191565742,0.0107281655886249,0.0098428061529005,0.0001141233973918,high
800,1.616161616161616,1.0126582278481011,anode,0.0103467918769407,0.0109296579808875,0.0096426428318928,-5.448536971483322e-05,high
800,1.7171717171717171,1.0126582278481011,anode,0.0102074258886173,0.0107407743344268,0.0095716965573018,-7.608701829182565e-05,high
800,1.818181818181818,1.0126582278481011,anode,0.0100844401441589,0.0105383605580079,0.0095590271855947,-1.1016672312798487e-05,high
800,1.9191919191919191,1.0126582278481011,anode,0.0101854586459932,0.0108015975929406,0.0094302871201469,-1.7404584901210126e-05,high
800,2.2222222222222223,1.0126582278481011,anode,0.0100525264391809,0.0105678089118192,0.0094415693149558,-5.2191419277776745e-05,high
800,2.323232323232323,1.0126582278481011,anode,0.0100448398329087,0.0104970917366353,0.0095211986820721,2.268631306443554e-05,high
800,7.575757575757575,1.0126582278481011,anode,0.0100216523384349,0.0105383778610309,0.0094088206351538,-3.609702670133761e-05,high
800,7.878787878787879,1.0126582278481011,anode,0.0100180181366502,0.0104992224654778,0.0094498486449056,-0.000120331186027,high
800,7.979797979797979,1.0126582278481011,anode,0.0100916056880089,0.0106180395686784,0.009465633605363,4.469785085155335e-05,high
800,8.080808080808081,1.0126582278481011,anode,0.0101254169865516,0.0105639857740274,0.0096208222449891,-9.701864602697208e-06,high
800,8.181818181818182,1.0126582278481011,anode,0.010094579460039,0.0105401368757352,0.0095798261455449,4.343177305991936e-05,high
800,8.282828282828282,1.0126582278481011,anode,0.010286821348302,0.010699295352763,0.0098162487196131,6.318699297204343e-05,high
800,8.383838383838384,1.0126582278481011,anode,0.0103234723012154,0.0107964079192793,0.0097745168077781,7.029451684867386e-06,high
800,8.484848484848484,1.0126582278481011,anode,0.0102610393524423,0.010786030398282,0.0096379068154886,7.299530426630275e-05,high
800,8.585858585858587,1.0126582278481011,anode,0.0103391310100813,0.0107913549786784,0.0098178135406679,2.790507886562557e-05,high
800,8.686868686868687,1.0126582278481011,anode,0.010379031642432,0.0107888083501655,0.0099130118415221,-5.064049417344533e-05,high
800,8.787878787878787,1.0126582278481011,anode,0.0105370702720055,0.0110283221230135,0.0099649817379884,-2.6636981017200743e-05,high
800,8.88888888888889,1.0126582278481011,anode,0.0105634056294008,0.01111756375636,0.0099041859744956,3.073447267559085e-05,high
800,8.98989898989899,1.0126582278481011,anode,0.0106314881399056,0.0111314444054339,0.0100475674538412,-5.719061834149313e-05,high
800,9.09090909090909,1.0126582278481011,anode,0.0108212546915375,0.0112545511955357,0.0103280177214838,3.598437505972788e-05,high
800,9.191919191919192,1.0126582278481011,anode,0.010720678026361,0.0111940431506466,0.0101742568478561,-2.5186377775070096e-05,high
800,9.292929292929292,1.0126582278481011,anode,0.0108811065459113,0.0114412357240594,0.0102174318641659,-1.5677197298914066e-05,high
800,9.393939393939394,1.0126582278481011,anode,0.0110379918915604,0.0114330628847086,0.0105950093320139,-2.2533559993346744e-05,high
800,9.494949494949497,1.0126582278481011,anode,0.0112129472363437,0.01171614888938,0.0106308174941318,-5.508913022791975e-07,high
800,9.595959595959595,1.0126582278481011,anode,0.0113332983411172,0.0118886258102322,0.0106813035511191,-1.0274011606152988e-06,high
800,9.696969696969695,1.0126582278481011,anode,0.0112237008938702,0.0116999352464444,0.0106726571720224,-0.0001248515020772,high
800,9.797979797979798,1.0126582278481011,anode,0.0115429749114487,0.0120715074593574,0.0109294830841375,-1.5422447393563825e-05,high
800,9.8989898989899,1.0126582278481011,anode,0.0116302219573723,0.0122556078210933,0.0108827909405036,-2.719573713157083e-05,high
800,10.0,1.0126582278481011,anode,0.0116667345672935,0.0122582077354377,0.0109678728257681,2.055699752264048e-05,high
800,0.0,1.1139240506329111,anode,0.0117205398142787,0.0124022812264347,0.0108917869789576,4.638783956832068e-05,high
800,0.101010101010101,1.1139240506329111,anode,0.0115110529753269,0.0119511345981689,0.0110134244995401,-2.6594428846465565e-05,high
800,0.202020202020202,1.1139240506329111,anode,0.011471760125858,0.0119620230493986,0.0109081989954842,-4.693057713113991e-05,high
800,0.303030303030303,1.1139240506329111,anode,0.0112318688083399,0.0118540325645531,0.0104830782087504,5.3574305969501945e-05,high
800,0.404040404040404,1.1139240506329111,anode,0.0111659135990036,0.011669241016374,0.0105832181507783,-4.378185330314769e-06,high
800,0.5050505050505051,1.1139240506329111,anode,0.0111089668469694,0.0116972328463497,0.0104076959821105,4.080762211557185e-05,high
800,0.6060606060606061,1.1139240506329111,anode,0.0109422064120126,0.0114126962095389,0.0104011187291881,3.5514639080933395e-05,high
800,0.7070707070707071,1.1139240506329111,anode,0.0108837110539816,0.0114347008096933,0.0102328946018785,-1.5705156411239734e-05,high
800,0.8080808080808081,1.1139240506329111,anode,0.0107452258378311,0.0112400459000387,0.0101703860767227,-5.769023547071799e-06,high
800,0.9090909090909092,1.1139240506329111,anode,0.0107615487446262,0.0112970434584266,0.010130956027432,-2.0983874243658453e-05,high
800,1.0101010101010102,1.1139240506329111,anode,0.0105806039285697,0.0110880351063437,0.0099868905305806,-2.3574776377961084e-05,high
800,1.1111111111111112,1.1139240506329111,anode,0.0105344512816929,0.0111253856526098,0.0098222423562387,9.076874073976986e-06,high
800,1.2121212121212122,1.1139240506329111,anode,0.0106163046560795,0.0110140898872931,0.010167557290719,-3.1183219056626275e-05,high
800,1.3131313131313131,1.1139240506329111,anode,0.0104556881221751,0.0109065492275101,0.0099367198815796,4.2897550584669e-05,high
800,1.414141414141414,1.1139240506329111,anode,0.010346620875064,0.0106958127999817,0.0099567760289209,5.937363793984515e-05,high
800,1.5151515151515151,1.1139240506329111,anode,0.0102518820172503,0.0107814790382304,0.0096230041851614,-5.416949727750818e-05,high
800,1.616161616161616,1.1139240506329111,anode,0.0101728030914538,0.0106362809945091,0.0096283770815586,-0.0001413368071939,high
800,1.7171717171717171,1.1139240506329111,anode,0.0101747898293094,0.0106477321212232,0.0096223824543693,-7.84333883364289e-05,high
800,1.818181818181818,1.1139240506329111,anode,0.0101111773494603,0.0106123977966368,0.0095214047814167,-1.534611553741951e-05,high
800,1.9191919191919191,1.1139240506329111,anode,0.010031867091654,0.0106270451764058,0.0093055666329254,2.1407191773280677e-05,high
800,2.0202020202020203,1.1139240506329111,anode,0.0100539496209195,0.0105400196241453,0.009484602784935,5.738613693363686e-06,high
800,2.121212121212121,1.1139240506329111,anode,0.0100187929115711,0.0104772974284514,0.009486257078914,-3.518300726934933e-05,high
800,2.323232323232323,1.1139240506329111,anode,0.0100041734108317,0.0104200750700434,0.009527160335819,6.445413827937762e-05,high
800,7.979797979797979,1.1139240506329111,anode,0.010178846145424,0.0107681229061787,0.0094626741986237,5.61952911754245e-05,high
800,8.080808080808081,1.1139240506329111,anode,0.010123666819678,0.0106316927200402,0.0095245302512444,-1.772201626354072e-05,high
800,8.181818181818182,1.1139240506329111,anode,0.0101976505266316,0.0107040148489601,0.0095983673823301,-9.75584553111908e-05,high
800,8.282828282828282,1.1139240506329111,anode,0.0102184674314735,0.0106984610060674,0.0096577796831322,5.966486123657664e-05,high
800,8.383838383838384,1.1139240506329111,anode,0.0102289191964536,0.0107132149197132,0.0096602894386152,-9.895944676296703e-05,high
800,8.484848484848484,1.1139240506329111,anode,0.0102976481140975,0.0107322965394242,0.0097994954805128,-1.0761546647825256e-05,high
800,8.585858585858587,1.1139240506329111,anode,0.0104120319414516,0.0107869853850943,0.009991245810363,2.439360396265504e-05,high
800,8.686868686868687,1.1139240506329111,anode,0.0103325238678666,0.0109133227829755,0.0096321751812395,-1.4982740813546717e-05,high
800,8.787878787878787,1.1139240506329111,anode,0.0105283661640706,0.0110870866380546,0.0098625518015154,3.751583892019497e-06,high
800,8.88888888888889,1.1139240506329111,anode,0.0106781379797719,0.0112107885912665,0.0100492509830448,6.691494163631932e-05,high
800,8.98989898989899,1.1139240506329111,anode,0.0105998205956721,0.0111139625737922,0.0099971800924904,1.5364010898016075e-05,high
800,9.09090909090909,1.1139240506329111,anode,0.0107668186756032,0.0113096089118086,0.0101243680393687,-7.515642164077615e-05,high
800,9.191919191919192,1.1139240506329111,anode,0.010980875038421,0.0114476493888622,0.0104441179765425,-6.308867445668452e-05,high
800,9.292929292929292,1.1139240506329111,anode,0.0109893950364261,0.0115427209735089,0.0103335984496968,9.48374607802984e-05,high
800,9.393939393939394,1.1139240506329111,anode,0.0111107160211552,0.011663262597718,0.0104601530596207,-1.849320068520961e-05,high
800,9.494949494949497,1.1139240506329111,anode,0.011058799138811,0.0115373514886706,0.0105082733861842,1.144634002982749e-05,high
800,9.595959595959595,1.1139240506329111,anode,0.0113321979336086,0.0118326337612245,0.0107544229480284,3.174582104966652e-05,high
800,9.696969696969695,1.1139240506329111,anode,0.0112893351246058,0.011786797820655,0.0107154282479546,1.492731248640796e-05,high
800,9.797979797979798,1.1139240506329111,anode,0.0113736842034493,0.0118654019016273,0.0108070928516753,-5.823584592079579e-05,high
800,9.8989898989899,1.1139240506329111,anode,0.0117769348282871,0.0122980940239816,0.0111752683451463,1.784743526232963e-05,high
800,10.0,1.1139240506329111,anode,0.0117137939881299,0.0123084266451828,0.0110111609220605,1.2586334616966772e-06,high
800,0.0,1.2151898734177216,anode,0.0117559799438073,0.0122573366917395,0.0111804998987731,1.0572279677159691e-05,high
800,0.101010101010101,1.2151898734177216,anode,0.0116145058682811,0.012058035737172,0.0111121434888259,-6.167418154673517e-05,high
800,0.202020202020202,1.2151898734177216,anode,0.0114872948673514,0.0120453952270869,0.0108312595919385,-7.531143531114741e-05,high
800,0.303030303030303,1.2151898734177216,anode,0.0113832264650737,0.0119052086629895,0.0107770882418396,-2.3838148606952527e-05,high
800,0.404040404040404,1.2151898734177216,anode,0.0112164874013848,0.0117686286926742,0.0105676848243548,7.407463142588535e-06,high
800,0.5050505050505051,1.2151898734177216,anode,0.011218688670742,0.0117120330926481,0.0106497753877865,-4.556624238923298e-06,high
800,0.6060606060606061,1.2151898734177216,anode,0.0112349581153084,0.0118132808977234,0.0105491501447688,4.5399705420160745e-05,high
800,0.7070707070707071,1.2151898734177216,anode,0.0108066450490081,0.0113424558771375,0.0101737418711422,-8.65380621933301e-05,high
800,0.8080808080808081,1.2151898734177216,anode,0.0107074596812131,0.0110974521335607,0.0102680984729359,-6.359775761282991e-05,high
800,0.9090909090909092,1.2151898734177216,anode,0.0107711332100657,0.0113482857445517,0.0100820133575953,9.939963650676953e-06,high
800,1.0101010101010102,1.2151898734177216,anode,0.0106318975885353,0.0110170965858479,0.010199477912275,-6.130605501017033e-06,high
800,1.1111111111111112,1.2151898734177216,anode,0.0105843285205521,0.0110903792662411,0.0099914440550207,6.177282278485943e-05,high
800,1.2121212121212122,1.2151898734177216,anode,0.0105945218408366,0.0110462433921541,0.0100758959983617,2.2504661664595625e-05,high
800,1.3131313131313131,1.2151898734177216,anode,0.0103880630775657,0.0108772124496189,0.0098164231242573,6.126633873301941e-05,high
800,1.414141414141414,1.2151898734177216,anode,0.0103158500998391,0.0106243945989339,0.0099754826145234,6.380414651411245e-05,high
800,1.5151515151515151,1.2151898734177216,anode,0.0103500656851156,0.0108615014642939,0.0097485672967831,-1.9657536449458343e-05,high
800,1.616161616161616,1.2151898734177216,anode,0.0102131177905473,0.0107291894928333,0.0096038242603683,5.090900148161639e-06,high
800,1.7171717171717171,1.2151898734177216,anode,0.0102398553028153,0.010719398879583,0.0096809254396365,2.891496817601372e-05,high
800,1.818181818181818,1.2151898734177216,anode,0.0100856713594075,0.010492241355037,0.0096209140851834,-7.439292296811563e-05,high
800,1.9191919191919191,1.2151898734177216,anode,0.0100844086635297,0.0104471333569924,0.0096731107523238,0.0001153387677682,high
800,2.0202020202020203,1.2151898734177216,anode,0.0100648662574624,0.0106259907122997,0.009388994092891,3.65518594150136e-05,high
800,7.878787878787879,1.2151898734177216,anode,0.0100164500185191,0.0104951725396025,0.0094568119326658,-8.272757588665412e-06,high
800,8.080808080808081,1.2151898734177216,anode,0.0100083566647634,0.0104077559967991,0.0095542437439884,1.2679932184780508e-05,high
800,8.181818181818182,1.2151898734177216,anode,0.010218517160107,0.0106758757764884,0.0096891775147481,-3.6805651218724905e-05,high
800,8.282828282828282,1.2151898734177216,anode,0.0102895936223807,0.0107915430963045,0.0097006709482882,1.3244733532606015e-05,high
800,8.383838383838384,1.2151898734177216,anode,0.0102148784213719,0.0107501978842964,0.0095781150967971,3.3318931163625564e-05,high
800,8.484848484848484,1.2151898734177216,anode,0.0105060898732192,0.0110437740409787,0.0098697746977116,5.427377294823297e-06,high
800,8.585858585858587,1.2151898734177216,anode,0.0104888937172824,0.0110270927337928,0.0098512398418996,-3.524253873811128e-05,high
800,8.686868686868687,1.2151898734177216,anode,0.0106040184685522,0.0112048684820375,0.0098765589560089,7.131462516730497e-05,high
800,8.787878787878787,1.2151898734177216,anode,0.0105854141912401,0.0111027528434593,0.0099780571063816,2.67780322172958e-05,high
800,8.88888888888889,1.2151898734177216,anode,0.0105452193571578,0.0110703003696104,0.0099258622235043,5.667562306974595e-05,high
800,8.98989898989899,1.2151898734177216,anode,0.0107160139050549,0.0113310930483113,0.0099710776942814,-5.862430928893366e-06,high
800,9.09090909090909,1.2151898734177216,anode,0.0107913456835604,0.0113466509407877,0.0101334194718151,1.6708097094702507e-05,high
800,9.191919191919192,1.2151898734177216,anode,0.0108769005367852,0.011343951398474,0.0103401578236987,1.928679832352669e-05,high
800,9.292929292929292,1.2151898734177216,anode,0.0108911017994583,0.0114400925060336,0.0102432432347764,-1.4190448131963034e-07,high
800,9.393939393939394,1.2151898734177216,anode,0.0110424140998292,0.0115595458961673,0.0104390958890334,-5.2576578584625536e-05,high
800,9.494949494949497,1.2151898734177216,anode,0.011103077886739,0.0116747099576913,0.0104250496697753,4.918175355092418e-05,high
800,9.595959595959595,1.2151898734177216,anode,0.0112842976682511,0.0119085829032444,0.0105333919248399,-4.637761417771929e-05,high
800,9.696969696969695,1.2151898734177216,anode,0.0113722968593258,0.0119343370562315,0.010711274357748,-2.0776630111218827e-05,high
800,9.797979797979798,1.2151898734177216,anode,0.0114762240620343,0.0119433785926296,0.0109434539559556,2.6177191090321e-05,high
800,9.8989898989899,1.2151898734177216,anode,0.0117920462977652,0.0123727812942358,0.0111096022714264,-4.3001809195521205e-06,high
800,10.0,1.2151898734177216,anode,0.0115807486657975,0.0121453895260299,0.0109177680986705,-4.523633584616473e-05,high
800,0.0,1.3164556962025316,anode,0.0117358905915957,0.0123605573030906,0.0109904788038391,-4.308843827215068e-05,high
800,0.101010101010101,1.3164556962025316,anode,0.0115983673254157,0.0121114441216805,0.0110061324940876,9.167391923427914e-06,high
800,0.202020202020202,1.3164556962025316,anode,0.0113493199981915,0.0119011042462498,0.0107023513790613,-9.247387978885716e-06,high
800,0.303030303030303,1.3164556962025316,anode,0.0114642637840522,0.0119585717971396,0.010895457749423,4.0901803959027376e-05,high
800,0.404040404040404,1.3164556962025316,anode,0.0113426711204068,0.0119640083073761,0.0105974149202313,-1.871289719372714e-05,high
800,0.5050505050505051,1.3164556962025316,anode,0.0110712170554983,0.0116331949210379,0.0104070646146599,-1.862206185401978e-05,high
800,0.6060606060606061,1.3164556962025316,anode,0.0110450377586209,0.0116357032195143,0.0103396686791546,3.576507050731869e-05,high
800,0.7070707070707071,1.3164556962025316,anode,0.0110482486607371,0.0116647671672483,0.0103045678145256,6.651284279574052e-05,high
800,0.8080808080808081,1.3164556962025316,anode,0.0108285396761225,0.0113447909132434,0.0102240721419296,6.137377528219681e-05,high
800,0.9090909090909092,1.3164556962025316,anode,0.0108414819012812,0.0113311015907246,0.010274473231745,-7.446402342471763e-06,high
800,1.0101010101010102,1.3164556962025316,anode,0.0107705089857306,0.0113007594693217,0.0101473244151821,-1.8063909112663998e-05,high
800,1.1111111111111112,1.3164556962025316,anode,0.0107218083255212,0.011261669720822,0.0100844304579824,3.538524574743597e-05,high
800,1.2121212121212122,1.3164556962025316,anode,0.0105232565345672,0.0110488146460136,0.0098993490096767,-0.000117734898642,high
800,1.3131313131313131,1.3164556962025316,anode,0.0104867811915278,0.0109818691304977,0.0099091847546356,-1.3636023739617862e-05,high
800,1.414141414141414,1.3164556962025316,anode,0.0104601287562439,0.0110717951244108,0.0097148937627575,-6.271335656995804e-05,high
800,1.5151515151515151,1.3164556962025316,anode,0.0104638528305443,0.0109680960008897,0.009873532911898,-9.846452266463614e-06,high
800,1.616161616161616,1.3164556962025316,anode,0.0104204299616567,0.0108890076297297,0.0098780715774556,1.8001019186646605e-05,high
800,1.7171717171717171,1.3164556962025316,anode,0.0102481023867785,0.0107295323120806,0.0096869534117105,7.121091465281254e-06,high
800,1.818181818181818,1.3164556962025316,anode,0.0100788603216882,0.0105035086549399,0.009592329110698,-4.668583175137485e-06,high
800,1.9191919191919191,1.3164556962025316,anode,0.0100807383642135,0.0105060982098506,0.0095930088899056,2.8637598896693425e-05,high
800,2.121212121212121,1.3164556962025316,anode,0.0100002050274455,0.010373643328299,0.0095791770211371,2.554787543070022e-05,high
800,2.2222222222222223,1.3164556962025316,anode,0.0100140481916507,0.0105788024532819,0.0093222927877334,0.0001669838634907,high
800,7.6767676767676765,1.3164556962025316,anode,0.0100001349499524,0.0104869692667188,0.0094277564614113,6.37050113200553e-05,high
800,7.777777777777778,1.3164556962025316,anode,0.0101301310920161,0.0106346525327898,0.0095336437892372,8.235415012018515e-05,high
800,7.979797979797979,1.3164556962025316,anode,0.0101142261031459,0.0106590204314413,0.0094627600988447,-3.0428335481296644e-05,high
800,8.080808080808081,1.3164556962025316,anode,0.0100370860337424,0.0104029557636526,0.0096235013101408,8.696432755388712e-05,high
800,8.181818181818182,1.3164556962025316,anode,0.0102830022767878,0.0107982975897961,0.0096754271460815,-1.9631261431839493e-05,high
800,8.282828282828282,1.3164556962025316,anode,0.0101889044994555,0.0106383754287954,0.0096698168915061,-3.88451597940436e-05,high
800,8.383838383838384,1.3164556962025316,anode,0.0102679552509657,0.0107432826374443,0.0097145137971628,-4.7512457413871145e-05,high
800,8.484848484848484,1.3164556962025316,anode,0.0101995840512772,0.0107926353673325,0.0094755693806814,0.0001008080392286,high
800,8.585858585858587,1.3164556962025316,anode,0.0102672016983972,0.0106879113233914,0.0097871200852398,-6.690251947947831e-06,high
800,8.686868686868687,1.3164556962025316,anode,0.0103914413428357,0.0108819355282461,0.0098191695423034,-1.83642810492499e-05,high
800,8.787878787878787,1.3164556962025316,anode,0.0106331001673633,0.0111936242262713,0.0099656564217192,3.215113950238824e-05,high
800,8.88888888888889,1.3164556962025316,anode,0.0105141754884742,0.0110166363972934,0.0099236361344473,-9.686002890906964e-05,high
800,8.98989898989899,1.3164556962025316,anode,0.0106536061487524,0.0111318806379278,0.0100999553576024,-3.1393732551890224e-05,high
800,9.09090909090909,1.3164556962025316,anode,0.0108142878044436,0.0112672650247457,0.0102955479580416,2.529322294241141e-05,high
800,9.191919191919192,1.3164556962025316,anode,0.0108339137824949,0.0114049416070879,0.0101538334188287,3.889694917416194e-05,high
800,9.292929292929292,1.3164556962025316,anode,0.0109469142383984,0.0114063304340911,0.0104195199619491,6.493274551726798e-05,high
800,9.393939393939394,1.3164556962025316,anode,0.0109312516992834,0.0114870966294782,0.0102739726604517,-2.8735747967877225e-05,high
800,9.494949494949497,1.3164556962025316,anode,0.0110937029165324,0.0116320155675419,0.010462693078711,-1.5497821488237834e-05,high
800,9.595959595959595,1.3164556962025316,anode,0.011282074745162,0.0118276665976829,0.0106428926309979,1.765907611822422e-05,high
800,9.696969696969695,1.3164556962025316,anode,0.0114937139117503,0.0120317092741299,0.0108642089463551,9.55666152716728e-05,high
800,9.797979797979798,1.3164556962025316,anode,0.0115357271468832,0.0121023977388218,0.0108697916736539,-3.235698150129961e-05,high
800,9.8989898989899,1.3164556962025316,anode,0.0115513591150661,0.0121033432887921,0.0109052484616555,5.323034667322987e-05,high
800,10.0,1.3164556962025316,anode,0.0116576520876134,0.0122568320832664,0.0109471443870003,-5.247155214326981e-05,high
800,0.0,1.4177215189873418,anode,0.011806642942255,0.0123909352109742,0.0111173682304522,8.216903704883158e-05,high
800,0.101010101010101,1.4177215189873418,anode,0.01159335821201,0.0121384281936821,0.0109578045349808,-2.2795469048194908e-05,high
800,0.202020202020202,1.4177215189873418,anode,0.0115331481302602,0.0121059281659825,0.0108586427418464,-3.5757760942418245e-05,high
800,0.303030303030303,1.4177215189873418,anode,0.0114503062720922,0.0119601710316879,0.0108587939885675,8.841009080607504e-05,high
800,0.404040404040404,1.4177215189873418,anode,0.0112346230578362,0.0117639769529523,0.0106173180970092,-3.800191822190686e-06,high
800,0.5050505050505051,1.4177215189873418,anode,0.0110794841432642,0.0116390907094031,0.0104188537276299,-1.5237310127635265e-06,high
800,0.6060606060606061,1.4177215189873418,anode,0.0110324600773172,0.0116544449910631,0.0102819915286216,1.46308137402443e-05,high
800,0.7070707070707071,1.4177215189873418,anode,0.0109686987341483,0.0113368088548873,0.0105591587517653,-1.2217479913581656e-05,high
800,0.8080808080808081,1.4177215189873418,anode,0.0109840044866116,0.0114478031319766,0.0104524447032483,-5.383604920193794e-06,high
800,0.9090909090909092,1.4177215189873418,anode,0.0108086367038766,0.0112315608630617,0.0103291241530796,-4.032924108742523e-06,high
800,1.0101010101010102,1.4177215189873418,anode,0.0106579138598158,0.0111794512378453,0.0100453616890602,-3.3354506057619345e-05,high
800,1.1111111111111112,1.4177215189873418,anode,0.01047127647845,0.0110299459145316,0.0098048158768006,5.734565897098911e-06,high
800,1.2121212121212122,1.4177215189873418,anode,0.0106346550988973,0.0111139167990619,0.0100788191738628,-5.569035735617315e-05,high
800,1.3131313131313131,1.4177215189873418,anode,0.0103629210125659,0.0108725201418351,0.0097641914658325,-1.1121714962266034e-05,high
800,1.414141414141414,1.4177215189873418,anode,0.0102888291597006,0.0107221422674205,0.0097922365249838,-2.2565833919139236e-05,high
800,1.5151515151515151,1.4177215189873418,anode,0.0103280481421473,0.0107671271376547,0.009823659326705,-4.4188944976888485e-05,high
800,1.616161616161616,1.4177215189873418,anode,0.0101685646266564,0.0105960878488343,0.0096786562834266,2.666865464139952e-05,high
800,1.7171717171717171,1.4177215189873418,anode,0.0102612383434589,0.0107603481407351,0.0096758201115022,2.322604994981289e-05,high
800,1.818181818181818,1.4177215189873418,anode,0.0102766488674328,0.0106779275871792,0.0098216726714754,-2.024757474472254e-05,high
800,1.9191919191919191,1.4177215189873418,anode,0.0100957686263145,0.0106446636015779,0.0094383548666046,2.0419636650429223e-05,high
800,2.0202020202020203,1.4177215189873418,anode,0.0100960080313817,0.0105853361480489,0.009522450180738,-2.0940185102549292e-05,high
800,2.121212121212121,1.4177215189873418,anode,0.0101560730331711,0.0106177440140522,0.0096202020440378,4.429750222638328e-05,high
800,7.6767676767676765,1.4177215189873418,anode,0.0100144960900929,0.0105166916458185,0.0094223627940344,1.2809147074556576e-05,high
800,7.878787878787879,1.4177215189873418,anode,0.0101096985861392,0.0106031604036418,0.009530661537029,1.4360289693946737e-05,high
800,7.979797979797979,1.4177215189873418,anode,0.0101002564686053,0.0106437537514348,0.0094483553129914,8.212997306942334e-05,high
800,8.080808080808081,1.4177215189873418,anode,0.0100205234437891,0.010403368177148,0.0095876989064022,2.0100027752031732e-05,high
800,8.181818181818182,1.4177215189873418,anode,0.0100608436268364,0.0105650089025471,0.0094664255376257,-1.6522647673867092e-05,high
800,8.282828282828282,1.4177215189873418,anode,0.010219266334474,0.0107200513932391,0.0096310881130824,-2.4521040811521437e-05,high
800,8.383838383838384,1.4177215189873418,anode,0.0102766977275739,0.0108202335109147,0.0096288387952143,-4.004419288636524e-05,high
800,8.484848484848484,1.4177215189873418,anode,0.0103348747317417,0.0108367872541123,0.0097464467123765,1.441894903191312e-05,high
800,8.585858585858587,1.4177215189873418,anode,0.0103728750917455,0.0109374356523501,0.0096965075193397,2.386065346238971e-05,high
800,8.686868686868687,1.4177215189873418,anode,0.0103662148643518,0.0107387275334972,0.0099473779902005,-5.771945010659677e-05,high
800,8.787878787878787,1.4177215189873418,anode,0.0106155819181272,0.0111597267602565,0.009971119169109,-3.069220053841852e-05,high
800,8.88888888888889,1.4177215189873418,anode,0.0106350332373606,0.011170796160719,0.0100027963010126,1.303548599326828e-05,high
800,8.98989898989899,1.4177215189873418,anode,0.0106998984235771,0.011241606250795,0.0100599668818591,-2.1354896009446024e-05,high
800,9.09090909090909,1.4177215189873418,anode,0.0108254097720873,0.0112661354760189,0.0103225903092671,-3.424599373163227e-05,high
800,9.191919191919192,1.4177215189873418,anode,0.0108212785046268,0.0113878308248738,0.0101467073761163,5.970491585050921e-05,high
800,9.292929292929292,1.4177215189873418,anode,0.0109521939377939,0.0113799072044606,0.0104672373460396,2.1572324733807132e-05,high
800,9.393939393939394,1.4177215189873418,anode,0.0110928918612107,0.0115589844752677,0.0105590859482833,6.885516818399708e-06,high
800,9.494949494949497,1.4177215189873418,anode,0.0112235001181754,0.0117964970656347,0.0105455671684601,-2.142534981820483e-05,high
800,9.595959595959595,1.4177215189873418,anode,0.0112205680602371,0.0118050229353719,0.0105262734794881,-3.1872528068608625e-05,high
800,9.696969696969695,1.4177215189873418,anode,0.0113574481479113,0.0119269894482758,0.0106855901676294,3.4809388535043363e-05,high
800,9.797979797979798,1.4177215189873418,anode,0.0114877905218692,0.0120251303182938,0.010858171609536,0.0001104684318915,high
800,9.8989898989899,1.4177215189873418,anode,0.0113733162670577,0.0118279129610226,0.0108560162845355,-3.52327679972108e-05,high
800,10.0,1.4177215189873418,anode,0.0117904292449687,0.0123064461448418,0.0111957354092966,1.6619026762321818e-05,high
800,0.0,1.5189873417721518,anode,0.0117439649062147,0.0122956755916102,0.011100871171317,1.2157424035935853e-05,high
800,0.101010101010101,1.5189873417721518,anode,0.0115552506285034,0.012166573859944,0.0108265325803245,-4.581910386518595e-05,high
800,0.202020202020202,1.5189873417721518,anode,0.0115633120338408,0.0121307405085107,0.0108956949655848,6.324400227204663e-05,high
800,0.303030303030303,1.5189873417721518,anode,0.011424834517654,0.0120366315896315,0.0106933459704747,5.933406573416958e-05,high
800,0.404040404040404,1.5189873417721518,anode,0.0112746338910342,0.0117891994169504,0.0106776633584357,-1.585694186165296e-05,high
800,0.5050505050505051,1.5189873417721518,anode,0.011152090647018,0.0116136278647534,0.0106246727597581,5.714980203166504e-06,high
800,0.6060606060606061,1.5189873417721518,anode,0.0110820775313577,0.0116203647755672,0.0104509252560802,2.0735665284284223e-05,high
800,0.7070707070707071,1.5189873417721518,anode,0.0109902849722808,0.0116098797806133,0.010242768375549,-4.498788478698938e-06,high
800,0.8080808080808081,1.5189873417721518,anode,0.0109005900535994,0.011429595385516,0.0102801038467316,3.699202465499502e-05,high
800,0.9090909090909092,1.5189873417721518,anode,0.0108040904635045,0.0113238849020301,0.0101946436701785,-5.834793787907242e-05,high
800,1.0101010101010102,1.5189873417721518,anode,0.010654899893914,0.0112228115326257,0.0099739505005846,0.0001024226019643,high
800,1.1111111111111112,1.5189873417721518,anode,0.0106888379835067,0.0112069799344691,0.0100809205871423,-4.680827160881289e-05,high
800,1.2121212121212122,1.5189873417721518,anode,0.0105557031972426,0.0110229458144415,0.0100160085234069,3.1770267566889586e-05,high
800,1.3131313131313131,1.5189873417721518,anode,0.010441405399426,0.0109625196528154,0.0098275479172281,5.735648222066333e-06,high
800,1.414141414141414,1.5189873417721518,anode,0.010312236056908,0.0108181112294484,0.0097172030745455,5.300952206735471e-05,high
800,1.5151515151515151,1.5189873417721518,anode,0.0103260639508143,0.0107658408233325,0.0098203292849328,-5.6281236549978775e-05,high
800,1.616161616161616,1.5189873417721518,anode,0.0102080326508348,0.0106280503305487,0.0097275532641912,-5.199342609952893e-05,high
800,1.7171717171717171,1.5189873417721518,anode,0.0102382587050899,0.0106474687993265,0.0097728914294154,-1.2899127653940647e-05,high
800,1.818181818181818,1.5189873417721518,anode,0.0101848126641865,0.0106121211309,0.0096953274692945,2.522484699351792e-05,high
800,1.9191919191919191,1.5189873417721518,anode,0.010107444483262,0.0104444290836088,0.0097321711757787,4.528053295593096e-05,high
800,2.0202020202020203,1.5189873417721518,anode,0.0100682682570734,0.0106289488499315,0.0093925095873227,5.39742843914588e-05,high
800,2.2222222222222223,1.5189873417721518,anode,0.0100307824822264,0.0105243917397459,0.0094496658031801,5.649968927259426e-05,high
800,7.6767676767676765,1.5189873417721518,anode,0.0100154415270563,0.0105335624139785,0.0094001186236068,5.045768982725113e-05,high
800,7.878787878787879,1.5189873417721518,anode,0.0100319710043071,0.0104789677746297,0.009515396676436,1.2080766983880473e-05,high
800,7.979797979797979,1.5189873417721518,anode,0.0100564077806959,0.010444397150693,0.0096165212529061,4.896180849338574e-05,high
800,8.080808080808081,1.5189873417721518,anode,0.0101722061409022,0.0107147076715227,0.0095243595545255,-4.516911982018706e-05,high
800,8.181818181818182,1.5189873417721518,anode,0.0101303166942647,0.0107317417386843,0.0093924245583661,-0.0001040371025825,high
800,8.282828282828282,1.5189873417721518,anode,0.0102388134337986,0.0107457273960673,0.0096424272093957,-1.945080663871544e-05,high
800,8.383838383838384,1.5189873417721518,anode,0.010247392030285,0.0106720952873501,0.0097617274959276,-2.700556118388908e-05,high
800,8.484848484848484,1.5189873417721518,anode,0.0102130821582673,0.0107819208449878,0.0095285544388456,-1.7951846869474514e-07,high
800,8.585858585858587,1.5189873417721518,anode,0.0105122818118903,0.010962510525115,0.0099918574701425,-0.0001000980479069,high
800,8.686868686868687,1.5189873417721518,anode,0.0105439945118736,0.0110059659265017,0.0100095985986572,-7.696600904248851e-05,high
800,8.787878787878787,1.5189873417721518,anode,0.0105747328403261,0.0111204989834301,0.0099267235928172,-5.702437584861157e-05,high
800,8.88888888888889,1.5189873417721518,anode,0.0104319442245503,0.0109572343971057,0.0098121349761758,-1.0719924088036386e-05,high
800,8.98989898989899,1.5189873417721518,anode,0.010654268410891,0.0110991720234094,0.0101423687873119,9.321488341508332e-05,high
800,9.09090909090909,1.5189873417721518,anode,0.0106985430113908,0.0112073298819106,0.0101042912058572,-1.0768440516149296e-06,high
800,9.191919191919192,1.5189873417721518,anode,0.0107660655101051,0.0112922437747883,0.0101485740642499,-2.149501265211352e-06,high
800,9.292929292929292,1.5189873417721518,anode,0.0108341744997701,0.0113759663192485,0.0101950407963103,-4.586675830473255e-05,high
800,9.393939393939394,1.5189873417721518,anode,0.0111181825702216,0.0116394926248777,0.0105098343116138,-5.39036218290681e-05,high
800,9.494949494949497,1.5189873417721518,anode,0.0111241632181085,0.0117551401681823,0.0103613244294457,4.267705637825811e-05,high
800,9.595959595959595,1.5189873417721518,anode,0.0113724691184258,0.011856836752519,0.0108138636278377,-9.49477250313587e-05,high
800,9.696969696969695,1.5189873417721518,anode,0.0112390493022493,0.0116694832641159,0.0107524133160293,5.907296200728908e-06,high
800,9.797979797979798,1.5189873417721518,anode,0.0115442162372302,0.0119548196731997,0.0110833175611123,5.873606686349972e-05,high
800,9.8989898989899,1.5189873417721518,anode,0.0116089321104661,0.0121012398673338,0.0110443040190884,1.182166594417762e-05,high
800,10.0,1.5189873417721518,anode,0.0118224417810005,0.0124315555685945,0.0111006279501806,1.5145194256130372e-05,high
800,0.0,1.620253164556962,anode,0.0118144646981809,0.0123492339757462,0.0111941911900545,5.087924450969241e-05,high
800,0.101010101010101,1.620253164556962,anode,0.0116964494164476,0.0122576121291017,0.0110399883197592,-1.192304516737584e-05,high
800,0.202020202020202,1.620253164556962,anode,0.0115529140002868,0.0121155736800182,0.0108893740742426,-0.0001083858832314,high
800,0.303030303030303,1.620253164556962,anode,0.0114930743513052,0.0121353243393875,0.0107172032064174,-8.747109209234131e-05,high
800,0.404040404040404,1.620253164556962,anode,0.0112112754734629,0.0117364043037489,0.0105990893200252,3.6582592881531416e-05,high
800,0.5050505050505051,1.620253164556962,anode,0.0112125583655534,0.0116886976518071,0.0106645543948625,7.712279688376473e-05,high
800,0.6060606060606061,1.620253164556962,anode,0.0110063352416183,0.0114181407313322,0.0105401767643038,8.035980660091175e-05,high
800,0.7070707070707071,1.620253164556962,anode,0.0109490916147631,0.0115062627139338,0.0102895573256751,-5.1268532771859376e-05,high
800,0.8080808080808081,1.620253164556962,anode,0.0108654354524505,0.0113798448865074,0.0102640241127044,-5.665467962404626e-05,high
800,0.9090909090909092,1.620253164556962,anode,0.0107017146959789,0.0111580725557119,0.0101774095664107,-3.967855985875627e-05,high
800,1.0101010101010102,1.620253164556962,anode,0.0106504489556415,0.0111407613242131,0.0100786888907035,8.123568669814006e-05,high
800,1.1111111111111112,1.620253164556962,anode,0.010616242541913,0.0111671806784531,0.0099618675436224,4.4163338034142985e-05,high
800,1.2121212121212122,1.620253164556962,anode,0.010617230217404,0.0110721881590613,0.0100941117329603,4.0986128294724105e-05,high
800,1.3131313131313131,1.620253164556962,anode,0.0104853956549607,0.0109942672056801,0.0098888076120699,-2.0719518214573544e-05,high
800,1.414141414141414,1.620253164556962,anode,0.0103751449409692,0.010857480121582,0.0098131983826069,-4.655400973435876e-05,high
800,1.5151515151515151,1.620253164556962,anode,0.0103831017821181,0.0108846265767928,0.0097957365250819,-7.894152735264377e-06,high
800,1.616161616161616,1.620253164556962,anode,0.0102535315951077,0.010814257629937,0.009580178684489,-5.609186922046639e-05,high
800,1.7171717171717171,1.620253164556962,anode,0.0101041938002434,0.0105746886970422,0.0095546245105102,7.53250566039448e-05,high
800,1.818181818181818,1.620253164556962,anode,0.0101648714734953,0.0106218004028673,0.0096361312861842,-1.3275818931148412e-06,high
800,1.9191919191919191,1.620253164556962,anode,0.0101263410458203,0.0104679737563541,0.0097457546825421,3.097489828515715e-05,high
800,2.0202020202020203,1.620253164556962,anode,0.010102739899534,0.0105593587328912,0.009573784260489,1.801850137400676e-05,high
800,2.2222222222222223,1.620253164556962,anode,0.0100716957553668,0.0104787691394684,0.0096080702990177,7.924197570671434e-06,high
800,7.979797979797979,1.620253164556962,anode,0.0102540908241152,0.0107762641644281,0.0096334229847201,-9.657773406135706e-05,high
800,8.080808080808081,1.620253164556962,anode,0.0101458721808215,0.010669611155319,0.0095249040803435,2.117540313071976e-05,high
800,8.181818181818182,1.620253164556962,anode,0.0101364821489334,0.0106220715934857,0.0095685729739862,-1.0705717859762532e-05,high
800,8.282828282828282,1.620253164556962,anode,0.0102288282407706,0.0106950310313457,0.0096863383611756,-7.251878709365766e-05,high
800,8.383838383838384,1.620253164556962,anode,0.0102733679106975,0.010760364436251,0.0097043010400699,4.08352035743556e-05,high
800,8.484848484848484,1.620253164556962,anode,0.0102924978821313,0.0109041670418285,0.0095449431710944,5.2815340356070566e-05,high
800,8.585858585858587,1.620253164556962,anode,0.0102467412526457,0.0107327543879229,0.0096791517225644,-2.359096221612031e-05,high
800,8.686868686868687,1.620253164556962,anode,0.01046882669503,0.011033272382121,0.0097917110189462,-8.214416797281993e-05,high
800,8.787878787878787,1.620253164556962,anode,0.0105096702605958,0.0109702629721639,0.0099788016231382,-5.639945551921836e-06,high
800,8.88888888888889,1.620253164556962,anode,0.0107155592709049,0.0111824447001562,0.0101778441703016,1.6418104714473144e-05,high
800,8.98989898989899,1.620253164556962,anode,0.0105873936162297,0.011137619874958,0.009932273938546,-7.778846760897106e-05,high
800,9.09090909090909,1.620253164556962,anode,0.0106182665095544,0.01105866704788,0.0101148472227593,4.476939638679533e-06,high
800,9.191919191919192,1.620253164556962,anode,0.0109856564183355,0.011556003431191,0.0103077437971205,5.8229832857141896e-05,high
800,9.292929292929292,1.620253164556962,anode,0.0108994992772029,0.0114165360402026,0.0102958662412297,4.308414725413617e-06,high
800,9.393939393939394,1.620253164556962,anode,0.0110827183244351,0.011606155371155,0.010471868938634,-2.5178162565146107e-05,high
800,9.494949494949497,1.620253164556962,anode,0.0112276826756753,0.0118192493278794,0.0105227468465284,5.468390449964468e-05,high
800,9.595959595959595,1.620253164556962,anode,0.0113811269683334,0.0119198009065361,0.010751166932383,6.474657479025869e-05,high
800,9.696969696969695,1.620253164556962,anode,0.0113748515160863,0.0119242639709363,0.0107312986489198,2.035446557670813e-05,high
800,9.797979797979798,1.620253164556962,anode,0.0116299812379535,0.0121847674476967,0.0109813036197375,3.419322980462947e-05,high
800,9.8989898989899,1.620253164556962,anode,0.0115417447476856,0.0122601467044132,0.0106549239078483,3.7422629229203954e-05,high
800,10.0,1.620253164556962,anode,0.0116395684453489,0.0121535947076541,0.0110454447331353,5.6858231934191576e-05,high
800,0.0,1.7215189873417722,anode,0.0117362615094681,0.0122668100433817,0.011120640352015,-6.149931783231192e-05,high
800,0.101010101010101,1.7215189873417722,anode,0.0116179992732837,0.0121057624219861,0.011059452687442,3.478603704933059e-06,high
800,0.202020202020202,1.7215189873417722,anode,0.0115335534835057,0.0120867995367904,0.010886179493126,-2.767798586497041e-05,high
800,0.303030303030303,1.7215189873417722,anode,0.0113229429013238,0.0118302392518744,0.0107361167599959,1.916605153422115e-05,high
800,0.404040404040404,1.7215189873417722,anode,0.0113931652069897,0.0119477745405236,0.0107422275596596,4.146068369835749e-05,high
800,0.5050505050505051,1.7215189873417722,anode,0.0111132324924261,0.0115836048891217,0.0105724139482863,7.015081539296475e-05,high
800,0.6060606060606061,1.7215189873417722,anode,0.0109360991616389,0.0113740154588468,0.010436048799308,-7.895789212034655e-05,high
800,0.7070707070707071,1.7215189873417722,anode,0.0110052014105053,0.0116139917533694,0.0102732580132572,3.3452840969843104e-05,high
800,0.8080808080808081,1.7215189873417722,anode,0.0108735522154733,0.0114073242250953,0.0102466617319736,1.6081236115345232e-06,high
800,0.9090909090909092,1.7215189873417722,anode,0.0107291705821273,0.0111910548828689,0.0101964324043131,7.526145406922552e-05,high
800,1.0101010101010102,1.7215189873417722,anode,0.0106394329852881,0.0111520925127749,0.01003707437709,-8.141825065981338e-05,high
800,1.1111111111111112,1.7215189873417722,anode,0.0106581600255125,0.0111858414306005,0.0100369257789995,-4.044642688994792e-05,high
800,1.2121212121212122,1.7215189873417722,anode,0.0105829444658424,0.0110104012637203,0.0100952502659225,5.309090583960516e-05,high
800,1.3131313131313131,1.7215189873417722,anode,0.0103521507698266,0.0108505950548957,0.0097645408235555,0.0001102019274039,high
800,1.414141414141414,1.7215189873417722,anode,0.0105076783536595,0.0109866299624697,0.0099519416247021,2.8427621257534675e-05,high
800,1.5151515151515151,1.7215189873417722,anode,0.0104887751824958,0.0109924024000074,0.0098982588245438,6.221094866815446e-05,high
800,1.616161616161616,1.7215189873417722,anode,0.0102270913687733,0.0107433302261449,0.0096167279129007,-5.3170887250811376e-05,high
800,1.7171717171717171,1.7215189873417722,anode,0.0101788260401566,0.0105659164552781,0.0097411394993474,-3.731130044476164e-05,high
800,1.818181818181818,1.7215189873417722,anode,0.0100804210519615,0.0105678709333961,0.0095092486588374,-2.3769479543724075e-05,high
800,1.9191919191919191,1.7215189873417722,anode,0.0101604477969766,0.0105695852133466,0.0096946606764986,-1.488125415510118e-05,high
800,2.0202020202020203,1.7215189873417722,anode,0.0100634476247167,0.0105739278385007,0.0094603188360195,6.439040594526501e-06,high
800,2.121212121212121,1.7215189873417722,anode,0.0100041425992957,0.0104838766044417,0.0094425572719072,-3.613827926145003e-05,high
800,2.2222222222222223,1.7215189873417722,anode,0.0100058293466114,0.0105121320773811,0.0094076672689277,2.669287904610886e-05,high
800,7.979797979797979,1.7215189873417722,anode,0.010152226830913,0.0105749805629173,0.009668671052101,-1.0070612441931078e-05,high
800,8.080808080808081,1.7215189873417722,anode,0.0101224078749848,0.0106897489509239,0.0094387768696002,-4.277830032540488e-06,high
800,8.181818181818182,1.7215189873417722,anode,0.0101987067614086,0.0105395461758014,0.0098195438909553,2.366467821264641e-05,high
800,8.282828282828282,1.7215189873417722,anode,0.010213940633744,0.0106072672330339,0.0097664961480089,-8.534768090180907e-05,high
800,8.383838383838384,1.7215189873417722,anode,0.0102938848001947,0.0107994616444705,0.0096999110359399,2.029410053589026e-05,high
800,8.484848484848484,1.7215189873417722,anode,0.0102228264193546,0.0107290566030576,0.0096264590107642,-5.0447782311810045e-05,high
800,8.585858585858587,1.7215189873417722,anode,0.0104249831644825,0.0109142186430429,0.0098542231214488,-4.2964206513868185e-05,high
800,8.686868686868687,1.7215189873417722,anode,0.0103488103024894,0.0108207632590388,0.0098014142101526,-2.544379818319982e-06,high
800,8.787878787878787,1.7215189873417722,anode,0.0105848529679219,0.0111519751151436,0.009906891621582,4.99019514630755e-05,high
800,8.88888888888889,1.7215189873417722,anode,0.0106096367505298,0.0110559360817616,0.0100984138936657,6.447272144601714e-06,high
800,8.98989898989899,1.7215189873417722,anode,0.0105769283229774,0.011130187781389,0.0099192894041486,2.297928982563397e-05,high
800,9.09090909090909,1.7215189873417722,anode,0.0106433577059652,0.0111380762082442,0.0100661091622521,-7.037741059849446e-05,high
800,9.191919191919192,1.7215189873417722,anode,0.0109255021127907,0.0114246261947401,0.0103463937520059,1.049024573511348e-05,high
800,9.292929292929292,1.7215189873417722,anode,0.0108532520492097,0.0114778646831392,0.0100959620798975,3.335985441439559e-05,high
800,9.393939393939394,1.7215189873417722,anode,0.010965722809776,0.0114811615931449,0.010364005010495,-5.235020861996335e-05,high
800,9.494949494949497,1.7215189873417722,anode,0.0110935906900357,0.011587039543551,0.0105233361773867,2.5671835387247007e-05,high
800,9.595959595959595,1.7215189873417722,anode,0.0112196339160773,0.0117684615199065,0.0105754640361412,-4.6548895205608854e-07,high
800,9.696969696969695,1.7215189873417722,anode,0.0114776388473946,0.0120059617560079,0.0108637867889643,2.1764973023903628e-05,high
800,9.797979797979798,1.7215189873417722,anode,0.0115404047792777,0.0120928337382624,0.0108942645996335,-2.479237446640536e-05,high
800,9.8989898989899,1.7215189873417722,anode,0.0115137246016352,0.0121406878401538,0.0107627158723883,9.552301977472902e-06,high
800,10.0,1.7215189873417722,anode,0.0118450908541515,0.0124197668170563,0.0111714158340379,-2.173699748556079e-05,high
800,0.0,1.8227848101265824,anode,0.0117941113797495,0.0124209300453258,0.0110468208936347,1.912880980307897e-05,high
800,0.101010101010101,1.8227848101265824,anode,0.0116280995586166,0.0122681981054685,0.0108596826845133,-3.8780534270273896e-06,high
800,0.202020202020202,1.8227848101265824,anode,0.0114466172682844,0.0120803796049257,0.0106848138247619,-1.6693598985733684e-05,high
800,0.303030303030303,1.8227848101265824,anode,0.0112796973122758,0.0117923927615335,0.0106853265890707,-1.1662229219756783e-05,high
800,0.404040404040404,1.8227848101265824,anode,0.0112599179276397,0.0117623940185738,0.0106769227356253,-8.43241934082346e-05,high
800,0.5050505050505051,1.8227848101265824,anode,0.0111603283396469,0.0117217980043597,0.0104979742012208,4.119300297817645e-06,high
800,0.6060606060606061,1.8227848101265824,anode,0.0110874266416221,0.0115199378678182,0.0105911738472589,0.0001399550639592,high
800,0.7070707070707071,1.8227848101265824,anode,0.0110748037591564,0.0116337925362145,0.0104147228479207,2.841633347503982e-05,high
800,0.8080808080808081,1.8227848101265824,anode,0.0107753530180981,0.0112526410055716,0.0102238477108435,-3.885458189171184e-05,high
800,0.9090909090909092,1.8227848101265824,anode,0.0107541351741014,0.0113600402515184,0.0100227646424283,3.700233640314253e-05,high
800,1.0101010101010102,1.8227848101265824,anode,0.010654324953824,0.0111745908869544,0.0100436695889914,2.42114213065335e-05,high
800,1.1111111111111112,1.8227848101265824,anode,0.0106639763169233,0.0112477565706081,0.0099637303922125,-2.6164061364382446e-05,high
800,1.2121212121212122,1.8227848101265824,anode,0.0105738071707522,0.0111831879262372,0.0098347060405578,-3.47794833481958e-05,high
800,1.3131313131313131,1.8227848101265824,anode,0.0104019869191159,0.0107939858616377,0.0099597362298588,5.982379655414068e-06,high
800,1.414141414141414,1.8227848101265824,anode,0.0104671306096126,0.011032080294942,0.0097916361187572,-1.3617971355162949e-06,high
800,1.5151515151515151,1.8227848101265824,anode,0.0102694416356325,0.0106039902227951,0.0098967074027379,-7.437289743163928e-05,high
800,1.616161616161616,1.8227848101265824,anode,0.0101735927230677,0.0107282551731262,0.0095090267753951,-8.272736217493576e-06,high
800,1.7171717171717171,1.8227848101265824,anode,0.0102537998343406,0.0107070632302494,0.0097305131418762,2.266785374993241e-05,high
800,1.818181818181818,1.8227848101265824,anode,0.0101864059225592,0.0105906832311235,0.0097252595595316,-7.475326602042352e-05,high
800,1.9191919191919191,1.8227848101265824,anode,0.0101262157709142,0.0107089484884706,0.0094197714818355,-2.840723225629184e-05,high
800,2.2222222222222223,1.8227848101265824,anode,0.0100451620581994,0.0105332011707416,0.0094727027812413,-3.0220941399733567e-05,high
800,7.575757575757575,1.8227848101265824,anode,0.0100684710683959,0.0106569538019437,0.0093523847113056,3.7759486617264166e-05,high
800,7.777777777777778,1.8227848101265824,anode,0.0100306197529135,0.0104906251947988,0.0094911198199214,-0.0001245537680505,high
800,7.979797979797979,1.8227848101265824,anode,0.010023583971577,0.0105062295604758,0.0094549282903958,0.0001022320531086,high
800,8.080808080808081,1.8227848101265824,anode,0.0100606672304733,0.0105857306220086,0.0094273887313605,0.0001627591344566,high
800,8.181818181818182,1.8227848101265824,anode,0.0101478533863971,0.0106648519250704,0.0095329674896651,0.0001001320676433,high
800,8.282828282828282,1.8227848101265824,anode,0.0103119460985796,0.0107492713607241,0.0098093926791851,-5.488354804463004e-05,high
800,8.383838383838384,1.8227848101265824,anode,0.0101801644756087,0.0106799238762913,0.0095926095080628,4.1460398736441454e-05,high
800,8.484848484848484,1.8227848101265824,anode,0.0103919627380894,0.0108140412271204,0.0099107607514155,-2.30837180308475e-05,high
800,8.585858585858587,1.8227848101265824,anode,0.0105563314785797,0.0110384606706388,0.0099968816071648,1.8822774015546203e-05,high
800,8.686868686868687,1.8227848101265824,anode,0.0105916582228633,0.0111236800362281,0.0099640666575572,-2.184310447850707e-05,high
800,8.787878787878787,1.8227848101265824,anode,0.0104393944515259,0.0109120379477323,0.0098905640151843,6.147536500699627e-05,high
800,8.88888888888889,1.8227848101265824,anode,0.0105828727076903,0.0109433314241219,0.0101808681681035,-3.281250548832918e-05,high
800,8.98989898989899,1.8227848101265824,anode,0.0108294477916693,0.0113826907971803,0.0101746613586476,-2.932653306324084e-05,high
800,9.09090909090909,1.8227848101265824,anode,0.0108985506405676,0.0115758904721905,0.0100622484777792,5.101534094172413e-05,high
800,9.191919191919192,1.8227848101265824,anode,0.0109437359569226,0.011593209127069,0.0101508703268328,-3.583740802828922e-05,high
800,9.292929292929292,1.8227848101265824,anode,0.0109491774679118,0.0114614805688235,0.0103521779914929,2.971038682922439e-05,high
800,9.393939393939394,1.8227848101265824,anode,0.0110655416408451,0.011668065913717,0.0103412118714925,8.893520417050306e-05,high
800,9.494949494949497,1.8227848101265824,anode,0.0111845739402648,0.0117100184146315,0.0105719119301254,2.66112479057232e-05,high
800,9.595959595959595,1.8227848101265824,anode,0.0112339572460741,0.0116912155162745,0.0107111847795987,6.967895154329352e-05,high
800,9.696969696969695,1.8227848101265824,anode,0.0114703180097301,0.0120316565929199,0.0108109542607279,-3.82620511585151e-05,high
800,9.797979797979798,1.8227848101265824,anode,0.0113612724454236,0.0120029410974692,0.0105868210789435,6.476940319634449e-06,high
800,9.8989898989899,1.8227848101265824,anode,0.0115835563342145,0.0121765579699469,0.0108813370704147,3.627919927055912e-05,high
800,10.0,1.8227848101265824,anode,0.011694684977062,0.0122086715708322,0.0111019203991091,1.878473107381646e-05,high
800,0.0,1.9240506329113924,anode,0.0117276606232981,0.0123203672561602,0.0110278567356324,8.066768679612619e-06,high
800,0.101010101010101,1.9240506329113924,anode,0.0116175011849233,0.0120771023811661,0.0110952984511027,3.336405773420756e-05,high
800,0.202020202020202,1.9240506329113924,anode,0.0115499906790952,0.0122079039657078,0.0107544958091678,-3.529861177524879e-06,high
800,0.303030303030303,1.9240506329113924,anode,0.0114072419201967,0.0120115218833067,0.0106873922728443,-9.729400726072097e-07,high
800,0.404040404040404,1.9240506329113924,anode,0.0111853381899828,0.0117205160854392,0.0105596107418175,-7.420669304376752e-07,high
800,0.5050505050505051,1.9240506329113924,anode,0.0111949750074102,0.0117701103827521,0.0105126546522089,6.10049998312779e-05,high
800,0.6060606060606061,1.9240506329113924,anode,0.0111320812747633,0.0117754406414041,0.0103517393564172,2.297265480265032e-06,high
800,0.7070707070707071,1.9240506329113924,anode,0.010995099510432,0.0115403009906233,0.0103530898010572,4.070359737987108e-05,high
800,0.8080808080808081,1.9240506329113924,anode,0.010867839063823,0.011313526449254,0.0103579689349354,6.239724364361771e-05,high
800,0.9090909090909092,1.9240506329113924,anode,0.0106950410746193,0.0111679510498995,0.0101412500783856,-0.0001557821584634,high
800,1.0101010101010102,1.9240506329113924,anode,0.0105919119061895,0.0111410484565511,0.0099384097233363,-7.735975935587713e-05,high
800,1.1111111111111112,1.9240506329113924,anode,0.0104043652860489,0.011046707526759,0.0096131497877843,-2.630017735163e-05,high
800,1.2121212121212122,1.9240506329113924,anode,0.0105678886765194,0.0109789243562762,0.0101004511335827,7.40875978135837e-05,high
800,1.3131313131313131,1.9240506329113924,anode,0.0105757152259209,0.0111085548503248,0.0099468405864867,1.9564138515839733e-05,high
800,1.414141414141414,1.9240506329113924,anode,0.0104107144436485,0.0109778341129054,0.0097303376813104,-5.383602378699708e-05,high
800,1.5151515151515151,1.9240506329113924,anode,0.0103391662632799,0.0108732150099754,0.0097044557659628,-6.764306116310024e-05,high
800,1.616161616161616,1.9240506329113924,anode,0.0101513092139065,0.0106497087478659,0.0095647040133933,5.9249417248838746e-05,high
800,1.7171717171717171,1.9240506329113924,anode,0.0102594291910188,0.0108533222462292,0.0095376904780502,5.589315109011686e-05,high
800,1.818181818181818,1.9240506329113924,anode,0.0101695953039525,0.0106344851383514,0.0096301766104397,-4.581976164781169e-06,high
800,2.0202020202020203,1.9240506329113924,anode,0.0101901548237147,0.0107012891173873,0.0095854283052056,7.674714136006516e-05,high
800,2.121212121212121,1.9240506329113924,anode,0.0100324148896103,0.0104467562813047,0.0095582439242271,4.915809507509325e-05,high
800,7.979797979797979,1.9240506329113924,anode,0.0101791092205622,0.0105910591315751,0.0097094899202253,-3.325841846394862e-05,high
800,8.080808080808081,1.9240506329113924,anode,0.0100434758108605,0.0105001072571773,0.0095138053056055,2.9657438113667863e-05,high
800,8.181818181818182,1.9240506329113924,anode,0.0102789019537483,0.010840710512089,0.0096043283300494,-5.609927386523699e-05,high
800,8.282828282828282,1.9240506329113924,anode,0.010133257441956,0.0106264217419409,0.0095533804096033,-6.643139420985369e-05,high
800,8.383838383838384,1.9240506329113924,anode,0.0104785795188004,0.0110450172809473,0.0097942878114305,0.0001393154622716,high
800,8.484848484848484,1.9240506329113924,anode,0.01027935378256,0.0106745774698049,0.009828267439555,-0.0001099565705751,high
800,8.585858585858587,1.9240506329113924,anode,0.0103868471434269,0.0107340359423032,0.0100006722442519,-1.996622398957498e-05,high
800,8.686868686868687,1.9240506329113924,anode,0.0103072348585007,0.0107915310619277,0.0097427381209016,4.572935214690233e-06,high
800,8.787878787878787,1.9240506329113924,anode,0.0104864612072717,0.0108642581596127,0.0100610234274325,-7.100880484077434e-05,high
800,8.88888888888889,1.9240506329113924,anode,0.0106231653111868,0.0110908468957539,0.0100830500352678,4.626926054825532e-05,high
800,8.98989898989899,1.9240506329113924,anode,0.0107447853679492,0.0112662416692309,0.0101335939785801,-1.0118649573954674e-06,high
800,9.09090909090909,1.9240506329113924,anode,0.0107417983444623,0.0113929538254111,0.0099434175290695,-7.733546182840819e-06,high
800,9.191919191919192,1.9240506329113924,anode,0.0108989846351775,0.0113962846235342,0.010319923790016,8.271362180844967e-05,high
800,9.292929292929292,1.9240506329113924,anode,0.0108157017732942,0.0112932553490803,0.0102622486855622,-8.609151488056596e-05,high
800,9.393939393939394,1.9240506329113924,anode,0.0110729340581701,0.0115859735732518,0.0104759898072826,-3.298300085435331e-05,high
800,9.494949494949497,1.9240506329113924,anode,0.0111165172461353,0.0116228924754173,0.0105272507069665,-8.046069437069634e-05,high
800,9.595959595959595,1.9240506329113924,anode,0.0113024740022941,0.0117482415882105,0.0107957545628219,-5.018069995081301e-05,high
800,9.696969696969695,1.9240506329113924,anode,0.0113097791746682,0.0118171566298297,0.0107216262832911,6.266610838771597e-05,high
800,9.797979797979798,1.9240506329113924,anode,0.0114965529500866,0.0119820962729715,0.0109400132373071,-1.2920834968735254e-05,high
800,9.8989898989899,1.9240506329113924,anode,0.0116455212723365,0.0122242559815593,0.0109642203687863,-1.861480337066005e-05,high
800,10.0,1.9240506329113924,anode,0.0117215108900508,0.0123800030760479,0.0109244636970963,0.0001005459889405,high
800,0.0,2.0253164556962027,anode,0.0117823597518049,0.0123535064241151,0.0111124395815255,4.5316131090078806e-05,high
800,0.101010101010101,2.0253164556962027,anode,0.0115865095924667,0.0121573354624334,0.0109149335594433,4.8762059858182753e-05,high
800,0.202020202020202,2.0253164556962027,anode,0.0114473620328432,0.0120348097280077,0.0107507665620639,5.744752477384749e-05,high
800,0.303030303030303,2.0253164556962027,anode,0.0113443984973654,0.0118632689415951,0.010741985232215,3.183464410529001e-05,high
800,0.404040404040404,2.0253164556962027,anode,0.0113469332254853,0.0118381144892887,0.0107818807867833,6.450465394889142e-06,high
800,0.5050505050505051,2.0253164556962027,anode,0.0113370848150797,0.0118557120746537,0.0107351989502007,-1.3097385686040077e-05,high
800,0.6060606060606061,2.0253164556962027,anode,0.0110648450060471,0.0117137520868125,0.0102736785137662,6.747834761552105e-05,high
800,0.7070707070707071,2.0253164556962027,anode,0.0110057391107898,0.0115269866385031,0.0103972493194445,-1.855606164517768e-05,high
800,0.8080808080808081,2.0253164556962027,anode,0.0108649618323849,0.0112841411691379,0.0103905981621283,-8.279452687209424e-08,high
800,0.9090909090909092,2.0253164556962027,anode,0.0108365462095133,0.0115190256279797,0.0099920848760787,5.885762537607004e-06,high
800,1.0101010101010102,2.0253164556962027,anode,0.0108027339775453,0.0112412303239064,0.0103030085357379,1.0153594018661251e-05,high
800,1.1111111111111112,2.0253164556962027,anode,0.0106795706738816,0.0112310876150898,0.0100257780745638,4.716109819998488e-06,high
800,1.2121212121212122,2.0253164556962027,anode,0.0106144676353165,0.0112405937099048,0.0098484102938205,9.446289550132136e-05,high
800,1.3131313131313131,2.0253164556962027,anode,0.0105112019482968,0.0110465378658107,0.0098771789175383,-5.578269743859239e-05,high
800,1.414141414141414,2.0253164556962027,anode,0.0103656624701667,0.0109561593902685,0.009651664270211,-5.125146420547465e-06,high
800,1.5151515151515151,2.0253164556962027,anode,0.0103038172083034,0.010838592852483,0.0096670042412069,8.022076703003942e-05,high
800,1.616161616161616,2.0253164556962027,anode,0.0102131292784193,0.0107091301578078,0.0096316887651454,6.352890322680516e-06,high
800,1.7171717171717171,2.0253164556962027,anode,0.0102583983142068,0.0108805306270961,0.0094904889342907,-0.0001168539680061,high
800,1.818181818181818,2.0253164556962027,anode,0.0101713911862443,0.0105898100304224,0.009692553506331,5.723941484038746e-05,high
800,1.9191919191919191,2.0253164556962027,anode,0.010034661419279,0.0105786829963999,0.0093828699840817,4.492171375871496e-05,high
800,2.2222222222222223,2.0253164556962027,anode,0.0100724945129756,0.0105369689106363,0.0095327841975488,6.0015150006495085e-06,high
800,7.878787878787879,2.0253164556962027,anode,0.0101256487134089,0.010565467606272,0.0096193253693367,-1.7379594629184543e-05,high
800,7.979797979797979,2.0253164556962027,anode,0.0100470126298446,0.010501629159578,0.0095203525376978,1.0757265138152812e-05,high
800,8.080808080808081,2.0253164556962027,anode,0.0101421207272035,0.0105621697139169,0.0096604781416471,6.820435960336611e-05,high
800,8.181818181818182,2.0253164556962027,anode,0.0101327305348186,0.0107033095927395,0.0094444446828561,-1.4965045914161951e-05,high
800,8.282828282828282,2.0253164556962027,anode,0.0102112192808517,0.0106486278343678,0.0097086662999173,2.234069158770396e-05,high
800,8.383838383838384,2.0253164556962027,anode,0.0102811214985573,0.0107853834913932,0.0096887587553655,-2.51311507839191e-05,high
800,8.484848484848484,2.0253164556962027,anode,0.0103850528512853,0.0109109160962731,0.0097622349518732,7.054048599939117e-05,high
800,8.585858585858587,2.0253164556962027,anode,0.0104251234435271,0.0108697205142807,0.0099108904010031,-0.0001083742283021,high
800,8.686868686868687,2.0253164556962027,anode,0.0104065888341964,0.0109614405509176,0.0097446163970945,2.157787790961155e-05,high
800,8.787878787878787,2.0253164556962027,anode,0.0106294308786202,0.0111324136982269,0.0100397097126096,-9.0548094593995e-05,high
800,8.88888888888889,2.0253164556962027,anode,0.0106116990777764,0.0110272690130544,0.0101399452465757,4.045507421797384e-05,high
800,8.98989898989899,2.0253164556962027,anode,0.0104704138984326,0.0109309510715461,0.009935775989165,-0.0001028146625289,high
800,9.09090909090909,2.0253164556962027,anode,0.0106653781478318,0.0112513238171802,0.0099605732436487,6.980693409598324e-05,high
800,9.191919191919192,2.0253164556962027,anode,0.0109093566602854,0.011440701525074,0.010285137400625,5.641261878369587e-05,high
800,9.292929292929292,2.0253164556962027,anode,0.0109121702207577,0.0113803465511419,0.010374315332999,4.335687583910692e-06,high
800,9.393939393939394,2.0253164556962027,anode,0.0110333799878599,0.0116730381743364,0.0102569448445589,-1.2178057704827012e-05,high
800,9.494949494949497,2.0253164556962027,anode,0.0112059347907096,0.0117564499198455,0.0105592852232393,4.593707962954384e-06,high
800,9.595959595959595,2.0253164556962027,anode,0.011291416119619,0.0119358880529759,0.0105117747520879,-1.4290015237650362e-05,high
800,9.696969696969695,2.0253164556962027,anode,0.0115761982044021,0.0120710190872989,0.0110080533163541,-3.955657858066912e-06,high
800,9.797979797979798,2.0253164556962027,anode,0.011503000183681,0.0120738433346783,0.0108305092823763,-4.919806893658748e-05,high
800,9.8989898989899,2.0253164556962027,anode,0.0116404459982052,0.0122370223164307,0.0109341097753932,2.203494004991241e-05,high
800,10.0,2.0253164556962027,anode,0.0117611550728239,0.0123615574754271,0.0110506865608475,-2.9938979456007616e-05,high
800,0.0,2.1265822784810124,anode,0.0116975894140465,0.0123641375373718,0.0108913933819798,2.540999772062059e-05,high
800,0.101010101010101,2.1265822784810124,anode,0.0116390342279827,0.0122092280699661,0.0109669275454315,9.325151996610788e-05,high
800,0.202020202020202,2.1265822784810124,anode,0.0115249670481018,0.0120169821145187,0.0109582655416809,7.89591829253347e-05,high
800,0.303030303030303,2.1265822784810124,anode,0.0115015363717795,0.0120929746428291,0.0108008602763176,-2.041186724122206e-05,high
800,0.404040404040404,2.1265822784810124,anode,0.0112933640825001,0.0118366717302467,0.010657492272417,1.1114703395458994e-05,high
800,0.5050505050505051,2.1265822784810124,anode,0.0110513162723898,0.0116425984445353,0.0103455242642355,1.162205513199973e-05,high
800,0.6060606060606061,2.1265822784810124,anode,0.011083943812222,0.0116001421347988,0.0104817400337818,-6.661571650365349e-05,high
800,0.7070707070707071,2.1265822784810124,anode,0.0109833479491694,0.0115303928076667,0.0103380120039105,6.00581271129056e-05,high
800,0.8080808080808081,2.1265822784810124,anode,0.0108619915153222,0.0112777402788634,0.0103910707487208,-5.440496264019529e-05,high
800,0.9090909090909092,2.1265822784810124,anode,0.0107055362883408,0.0111712508458439,0.0101667321179052,9.00640042492206e-05,high
800,1.0101010101010102,2.1265822784810124,anode,0.0106101493546947,0.011123285787289,0.0100083320451112,4.693928659215937e-05,high
800,1.1111111111111112,2.1265822784810124,anode,0.0105541623187825,0.0109614430269823,0.0100931562579786,1.69612668378465e-05,high
800,1.2121212121212122,2.1265822784810124,anode,0.0104932808433157,0.0109657301149583,0.0099463996059446,1.1172522467504904e-05,high
800,1.3131313131313131,2.1265822784810124,anode,0.0105572689348598,0.0110480869318982,0.0099861169932325,-1.4816195942562445e-05,high
800,1.414141414141414,2.1265822784810124,anode,0.0104344980498542,0.0108966367301677,0.0098988588266207,7.941479858911307e-05,high
800,1.5151515151515151,2.1265822784810124,anode,0.0104273350358155,0.0108864142369785,0.0098978336075248,5.988544924208333e-06,high
800,1.616161616161616,2.1265822784810124,anode,0.010312524510711,0.0107928140704226,0.0097534763182949,1.2680396821264642e-05,high
800,1.7171717171717171,2.1265822784810124,anode,0.0101796902813449,0.0106227107564909,0.0096693915097869,-2.6629796825385895e-05,high
800,1.818181818181818,2.1265822784810124,anode,0.0102074584624514,0.0106727852633105,0.0096662734573759,-6.603367871617112e-05,high
800,1.9191919191919191,2.1265822784810124,anode,0.0101160435919741,0.0106997879415646,0.0094076033624974,4.177699234545672e-05,high
800,2.0202020202020203,2.1265822784810124,anode,0.0100852072106613,0.010506842927921,0.0096024856539033,-2.4041074076044668e-05,high
800,2.2222222222222223,2.1265822784810124,anode,0.0100138187203471,0.0105398279199888,0.009388209949873,8.642269996030963e-06,high
800,2.4242424242424243,2.1265822784810124,anode,0.0100149013318943,0.0105722849008116,0.0093442427352466,-7.410528693845056e-06,high
800,8.080808080808081,2.1265822784810124,anode,0.0101037418726665,0.0106116527947797,0.0095046152646511,1.1410520296991224e-05,high
800,8.181818181818182,2.1265822784810124,anode,0.0101975547249542,0.0106919508680468,0.0096181515063904,9.55600307168778e-06,high
800,8.282828282828282,2.1265822784810124,anode,0.0101544025330834,0.0106802169735065,0.0095296261405943,5.6440768844997326e-05,high
800,8.383838383838384,2.1265822784810124,anode,0.0102730874997184,0.0108027557630694,0.009645101167849,2.881196897719681e-05,high
800,8.484848484848484,2.1265822784810124,anode,0.0102661274122174,0.0107156495897353,0.0097475282923561,-4.08886721204682e-05,high
800,8.585858585858587,2.1265822784810124,anode,0.0104314217170413,0.0108986032082131,0.0098900557111019,-5.656289245729006e-05,high
800,8.686868686868687,2.1265822784810124,anode,0.0103669601835704,0.0109091074776729,0.0097217838517517,-5.209331882422676e-05,high
800,8.787878787878787,2.1265822784810124,anode,0.0107538305564068,0.0112805843250799,0.0101337905461312,6.98972487375262e-05,high
800,8.88888888888889,2.1265822784810124,anode,0.0106682922749486,0.0111522727423271,0.0101073352542604,-1.6393658436082303e-05,high
800,8.98989898989899,2.1265822784810124,anode,0.0108234262347229,0.0113327939377865,0.0102274160502507,-8.061548803348766e-05,high
800,9.09090909090909,2.1265822784810124,anode,0.0106387300408395,0.0110771611634975,0.0101364906866577,6.873855653347666e-05,high
800,9.191919191919192,2.1265822784810124,anode,0.0107732530897612,0.0112625493217408,0.010203790816935,8.429159723674775e-05,high
800,9.292929292929292,2.1265822784810124,anode,0.0108472040830954,0.0113932109652087,0.0102027008810299,3.161543555534533e-05,high
800,9.393939393939394,2.1265822784810124,anode,0.0110254904474045,0.0114920348534361,0.0104905690198198,1.3178034252962129e-05,high
800,9.494949494949497,2.1265822784810124,anode,0.0111738918767679,0.0117901000597041,0.0104338150953199,-1.4454420443025472e-05,high
800,9.595959595959595,2.1265822784810124,anode,0.0112527024493507,0.011738833849155,0.0106927685738006,5.299741506114787e-05,high
800,9.696969696969695,2.1265822784810124,anode,0.0114471685951188,0.0119715341447071,0.010838418142548,2.019985641985743e-05,high
800,9.797979797979798,2.1265822784810124,anode,0.0114396542090788,0.011991307556963,0.0107923817746768,-6.707274546503624e-05,high
800,9.8989898989899,2.1265822784810124,anode,0.0117122714137327,0.0122929866428468,0.0110285979927094,-3.748420396092269e-05,high
800,10.0,2.1265822784810124,anode,0.0117847165833699,0.0123747364164788,0.0110878881749788,-6.800238462957391e-05,high
800,0.0,2.2278481012658227,anode,0.0117226822234359,0.0122272004103028,0.0111426132153693,-2.571801857776447e-05,high
800,0.101010101010101,2.2278481012658227,anode,0.0115917738644279,0.0121880027817971,0.010885286416908,-2.738775121794296e-05,high
800,0.202020202020202,2.2278481012658227,anode,0.0115463686276023,0.0120633192361655,0.0109479565991777,4.434423271582892e-05,high
800,0.303030303030303,2.2278481012658227,anode,0.0114983550014171,0.0119311815810177,0.0110097583601199,3.521755663666642e-05,high
800,0.404040404040404,2.2278481012658227,anode,0.0112637988746509,0.0119192459610766,0.0104668992329983,-4.58536153329351e-05,high
800,0.5050505050505051,2.2278481012658227,anode,0.0110871760961731,0.0115922114169463,0.0105011811322486,3.2735774267878155e-05,high
800,0.6060606060606061,2.2278481012658227,anode,0.0111708414040718,0.0117119376391037,0.0105355448085489,6.364953898136719e-05,high
800,0.7070707070707071,2.2278481012658227,anode,0.0109615043328239,0.0114722221838364,0.0103669604658552,-1.731991092690882e-05,high
800,0.8080808080808081,2.2278481012658227,anode,0.0108482627482467,0.0113769873808418,0.0102264236960129,7.09800945534794e-05,high
800,0.9090909090909092,2.2278481012658227,anode,0.0107533610861081,0.0112886014890215,0.010122669621148,3.9132976448984695e-05,high
800,1.0101010101010102,2.2278481012658227,anode,0.0106823881443533,0.0111186817740714,0.010184618160147,-2.1704981454329687e-05,high
800,1.1111111111111112,2.2278481012658227,anode,0.0106343494457958,0.0111138429181478,0.0100788666949952,-3.302075952097301e-05,high
800,1.2121212121212122,2.2278481012658227,anode,0.0104387212039874,0.0109138250273588,0.0098877400252478,1.812357075914041e-05,high
800,1.3131313131313131,2.2278481012658227,anode,0.0104987853870187,0.0109969609894362,0.0099152246300125,-7.528300745423548e-05,high
800,1.414141414141414,2.2278481012658227,anode,0.0104523546585314,0.0109563636140687,0.0098609088761422,6.322871886277996e-05,high
800,1.5151515151515151,2.2278481012658227,anode,0.0104492184996729,0.0109784465966484,0.0098229769680272,-5.7819050054658216e-05,high
800,1.616161616161616,2.2278481012658227,anode,0.0101488115560221,0.0106310157485199,0.0095856590818856,1.0210773758260737e-05,high
800,1.7171717171717171,2.2278481012658227,anode,0.0101407742407174,0.0106714631490447,0.0095100339947758,1.1650456351283546e-05,high
800,1.818181818181818,2.2278481012658227,anode,0.0101567848204949,0.0106450655961798,0.0095822056418052,9.556672035836696e-05,high
800,1.9191919191919191,2.2278481012658227,anode,0.0101153110603509,0.0106666700973035,0.009454536911437,2.4663267570714284e-05,high
800,2.0202020202020203,2.2278481012658227,anode,0.0100328945399917,0.0104994291368404,0.0094899795788287,-1.4333439347256502e-05,high
800,2.2222222222222223,2.2278481012658227,anode,0.0100798717141997,0.0105860641871014,0.0094822601646594,-4.326550930420197e-05,high
800,2.323232323232323,2.2278481012658227,anode,0.0100448637837301,0.0105599429428205,0.0094300736415913,0.0001178193448091,high
800,7.979797979797979,2.2278481012658227,anode,0.0100135148340226,0.0105276311664244,0.0094047222469633,5.995862179158212e-06,high
800,8.080808080808081,2.2278481012658227,anode,0.0101069598632466,0.0106365945704263,0.0094759764474399,-6.186980832562906e-05,high
800,8.181818181818182,2.2278481012658227,anode,0.0102098312321955,0.0106180863854404,0.0097427790829908,9.095965907186527e-05,high
800,8.282828282828282,2.2278481012658227,anode,0.010249375316499,0.0108174746142429,0.0095661462620984,2.785310990861955e-05,high
800,8.383838383838384,2.2278481012658227,anode,0.0102597650618369,0.0107278758194752,0.0097165943310975,-2.36044001779002e-05,high
800,8.484848484848484,2.2278481012658227,anode,0.0102237762906702,0.0107711925183549,0.0095674872629759,-8.840828283662524e-05,high
800,8.585858585858587,2.2278481012658227,anode,0.0103073035127719,0.0107826409577131,0.0097538778910731,5.653616040358925e-05,high
800,8.686868686868687,2.2278481012658227,anode,0.0105988020501533,0.0111666965844999,0.0099201979192105,4.084831190299231e-05,high
800,8.787878787878787,2.2278481012658227,anode,0.0105516674049472,0.0110918799286061,0.0099120541223091,-2.817753787571897e-05,high
800,8.88888888888889,2.2278481012658227,anode,0.0106186084718693,0.0111625121505617,0.0099744332170036,-3.455597739095068e-05,high
800,8.98989898989899,2.2278481012658227,anode,0.0107555091113618,0.0111465111469262,0.010316237980137,2.2811350650042763e-05,high
800,9.09090909090909,2.2278481012658227,anode,0.0107585003207737,0.011282485445244,0.010143957278534,3.2870178380802565e-06,high
800,9.191919191919192,2.2278481012658227,anode,0.0109257332974235,0.0113828759405178,0.0103976165208534,-0.0001240067584692,high
800,9.292929292929292,2.2278481012658227,anode,0.0109708586111891,0.0115716495642531,0.0102491944245492,-5.990234662396869e-05,high
800,9.393939393939394,2.2278481012658227,anode,0.0111694727089723,0.0117982709222588,0.0104110209163755,1.4290660730188495e-05,high
800,9.494949494949497,2.2278481012658227,anode,0.0111253569377847,0.0115701720185578,0.0106186526827572,-5.335354374599583e-05,high
800,9.595959595959595,2.2278481012658227,anode,0.0112428115281454,0.0117599670956174,0.010641558685281,-4.3180628765025854e-05,high
800,9.696969696969695,2.2278481012658227,anode,0.0112868425720266,0.0118418960405628,0.0106334959053313,-6.279941666822695e-05,high
800,9.797979797979798,2.2278481012658227,anode,0.0114034440905528,0.0119028411128489,0.0108277914007291,2.101266986910798e-05,high
800,9.8989898989899,2.2278481012658227,anode,0.0116476708778614,0.0122851255992237,0.0108824367107145,-5.3537975007381993e-05,high
800,10.0,2.2278481012658227,anode,0.0116845182049974,0.012216693523541,0.0110671712060156,-2.7840785289678737e-05,high
800,0.0,2.329113924050633,anode,0.0116867654823462,0.0120924624506224,0.0112251318736685,-0.0001719878135398,high
800,0.101010101010101,2.329113924050633,anode,0.0116228301464367,0.0121663466905268,0.0109898181014775,2.828643109199352e-06,high
800,0.202020202020202,2.329113924050633,anode,0.0113997520680109,0.0119225077855081,0.0107928832665958,-4.504972123538105e-06,high
800,0.303030303030303,2.329113924050633,anode,0.0113963423083138,0.0119094379515046,0.0108023516825923,-1.8627106446113432e-05,high
800,0.404040404040404,2.329113924050633,anode,0.0112942463349769,0.0119183457033276,0.0105418231313842,8.961670398002203e-05,high
800,0.5050505050505051,2.329113924050633,anode,0.0112277394400256,0.0118173539529731,0.0105252609478647,6.296700441083968e-05,high
800,0.6060606060606061,2.329113924050633,anode,0.0111807375203279,0.0117586857285564,0.0104953355724569,2.225061265513961e-05,high
800,0.7070707070707071,2.329113924050633,anode,0.0110020542670496,0.0116248827103427,0.0102499604046807,-8.149814462402446e-06,high
800,0.8080808080808081,2.329113924050633,anode,0.0109365386952762,0.0114776964785054,0.010298935891011,5.8713717969888645e-05,high
800,0.9090909090909092,2.329113924050633,anode,0.0108253957095978,0.011466229023034,0.010042796850075,-5.780543111278537e-05,high
800,1.0101010101010102,2.329113924050633,anode,0.0107093288083567,0.01130811807269,0.0099868086960116,-6.285738549240545e-05,high
800,1.1111111111111112,2.329113924050633,anode,0.0106811943118373,0.0111025925801289,0.0102028739962723,4.6644072765524886e-06,high
800,1.2121212121212122,2.329113924050633,anode,0.010640268116884,0.0111922431608683,0.0099853446326705,-9.939280525798426e-06,high
800,1.3131313131313131,2.329113924050633,anode,0.0104291099290191,0.010993347413757,0.0097535655616252,-4.0579670143756384e-05,high
800,1.414141414141414,2.329113924050633,anode,0.0103239293022529,0.0108796965289368,0.0096595980419501,2.145252151911062e-05,high
800,1.5151515151515151,2.329113924050633,anode,0.0102415968503648,0.0107768296004055,0.0096038927870868,7.073238382688888e-05,high
800,1.616161616161616,2.329113924050633,anode,0.0102338037696854,0.0107844394205223,0.0095754819700263,3.139135371427534e-05,high
800,1.7171717171717171,2.329113924050633,anode,0.0103120343830164,0.0108989836581139,0.0096017633662845,-4.4009895731434105e-05,high
800,1.818181818181818,2.329113924050633,anode,0.0101035475116237,0.0105503069328101,0.0095818055652276,-0.0001325238808278,high
800,1.9191919191919191,2.329113924050633,anode,0.0102083630979753,0.0106873149126237,0.0096465873359394,0.0001023825504662,high
800,2.0202020202020203,2.329113924050633,anode,0.0100792495313463,0.010536478599424,0.0095484955540813,5.046964429918594e-05,high
800,2.121212121212121,2.329113924050633,anode,0.0100685711119918,0.0106054225556915,0.0094281122397387,1.779936581441263e-05,high
800,2.2222222222222223,2.329113924050633,anode,0.0100047715082733,0.0103593188028874,0.0096050131830796,-9.14372193094817e-05,high
800,7.979797979797979,2.329113924050633,anode,0.0100771486176194,0.0106095268336648,0.0094431363551112,2.0403918095199485e-05,high
800,8.080808080808081,2.329113924050633,anode,0.010149193250926,0.0107173694269141,0.0094611608979932,9.883863151732162e-05,high
800,8.181818181818182,2.329113924050633,anode,0.0101692973986234,0.010649390524321,0.009608674117242,-4.080786787065446e-05,high
800,8.282828282828282,2.329113924050633,anode,0.0102137499412828,0.0107221509064889,0.0096144164690464,-4.614477294583712e-05,high
800,8.383838383838384,2.329113924050633,anode,0.0102198577956696,0.0107011213806058,0.0096578665111801,-4.868547799424006e-05,high
800,8.484848484848484,2.329113924050633,anode,0.0102856700529628,0.0106657304147957,0.0098578011697784,-2.3158971970353203e-05,high
800,8.585858585858587,2.329113924050633,anode,0.0104043046205495,0.0109806221416736,0.0097106463936945,5.0916389530268926e-05,high
800,8.686868686868687,2.329113924050633,anode,0.0104602724529141,0.0109256499725868,0.0099225568351558,1.5504115810975755e-05,high
800,8.787878787878787,2.329113924050633,anode,0.0105683427675097,0.0110695595651032,0.0099826762862854,-3.968131222797374e-05,high
800,8.88888888888889,2.329113924050633,anode,0.0106782953392926,0.0112431793424287,0.0100048837895657,4.439493466804017e-05,high
800,8.98989898989899,2.329113924050633,anode,0.0106451781894514,0.0112504855049441,0.0099122120108665,6.230353129608773e-05,high
800,9.09090909090909,2.329113924050633,anode,0.0107667982941666,0.0112686110991175,0.0101805722117371,-8.001638638489697e-05,high
800,9.191919191919192,2.329113924050633,anode,0.0109318941008468,0.0114792148600955,0.0102859011219052,-5.241483991248948e-05,high
800,9.292929292929292,2.329113924050633,anode,0.0108702893188995,0.0113848944070718,0.0102695872949537,-1.9261057300672644e-05,high
800,9.393939393939394,2.329113924050633,anode,0.0110234407791489,0.0115814733773441,0.0103633365782869,5.681158420272753e-05,high
800,9.494949494949497,2.329113924050633,anode,0.0111146563708579,0.0116195247016703,0.0105280063110515,6.768666680558379e-05,high
800,9.595959595959595,2.329113924050633,anode,0.011225513772334,0.0117655763929684,0.0105908653279981,9.051387093607606e-05,high
800,9.696969696969695,2.329113924050633,anode,0.0114146294158955,0.0119718428664472,0.0107606195262814,-2.7426314613401223e-05,high
800,9.797979797979798,2.329113924050633,anode,0.0115190033045121,0.0121015048215215,0.0108301867916236,5.6656624816184544e-05,high
800,9.8989898989899,2.329113924050633,anode,0.0115805573095722,0.0120581303626476,0.0110349405907758,2.336738024394011e-05,high
800,10.0,2.329113924050633,anode,0.0118029362747564,0.0123720130880692,0.0111364161837985,3.010102975293652e-05,high
800,0.0,2.430379746835443,anode,0.0116885338745229,0.0123478036005613,0.0108918301198864,-6.267957776282001e-05,high
800,0.101010101010101,2.430379746835443,anode,0.0115562828895198,0.0119950977693363,0.0110599283340801,5.2315264913255615e-05,high
800,0.202020202020202,2.430379746835443,anode,0.0114877912565663,0.0119797370490594,0.0109227927236991,-3.264773349299123e-06,high
800,0.303030303030303,2.430379746835443,anode,0.0113227937972535,0.0119495882100536,0.0105690692488812,-3.559721568976531e-05,high
800,0.404040404040404,2.430379746835443,anode,0.0111709884925942,0.0116929423362156,0.0105619688697571,-6.161701297604594e-05,high
800,0.5050505050505051,2.430379746835443,anode,0.0110930532099323,0.0117058906804819,0.010356606434199,2.555257073024647e-05,high
800,0.6060606060606061,2.430379746835443,anode,0.0109256456449281,0.0114247124829979,0.0103464613298541,-2.423014129715611e-05,high
800,0.7070707070707071,2.430379746835443,anode,0.0109584556996279,0.0114814493680931,0.0103471260806809,-1.877764387025864e-05,high
800,0.8080808080808081,2.430379746835443,anode,0.0108945164755169,0.011308101683979,0.0104248110820168,-9.212888811582246e-05,high
800,0.9090909090909092,2.430379746835443,anode,0.0107445872251946,0.0112708335801808,0.0101267331510516,-1.2447107828005955e-05,high
800,1.0101010101010102,2.430379746835443,anode,0.010688522589551,0.0112120113083993,0.0100730602281392,5.1769991414731125e-05,high
800,1.1111111111111112,2.430379746835443,anode,0.0106521270070428,0.0112239720290609,0.0099691076442273,6.826329937919934e-06,high
800,1.2121212121212122,2.430379746835443,anode,0.0105505579494707,0.0110914616937349,0.0099096666741743,4.060074956050152e-05,high
800,1.3131313131313131,2.430379746835443,anode,0.0103395890207475,0.0107624692718745,0.0098569738665452,2.450058860642482e-05,high
800,1.414141414141414,2.430379746835443,anode,0.0104368948645206,0.0109251027163431,0.0098682421103461,-9.334296541621315e-06,high
800,1.5151515151515151,2.430379746835443,anode,0.0102850641021712,0.0107181819831114,0.0097878714852983,5.4400234975378e-05,high
800,1.616161616161616,2.430379746835443,anode,0.0101781386108604,0.0106055914852685,0.009686419049309,8.04657748481067e-05,high
800,1.7171717171717171,2.430379746835443,anode,0.010358910635288,0.0108404013770517,0.0097984034845138,-2.9683415114319675e-05,high
800,1.818181818181818,2.430379746835443,anode,0.0101495725351609,0.0105614518443981,0.0096798776485098,-3.208290943764789e-05,high
800,1.9191919191919191,2.430379746835443,anode,0.0100893943260869,0.0106146679631388,0.0094652598840768,3.718458806165314e-05,high
800,2.2222222222222223,2.430379746835443,anode,0.0100070378555194,0.0104999387075637,0.0094265330628982,5.94070100940023e-05,high
800,7.979797979797979,2.430379746835443,anode,0.0100905335230419,0.010626963039836,0.0094509108571537,2.0717717725803488e-05,high
800,8.080808080808081,2.430379746835443,anode,0.010119505474655,0.0106729130992958,0.0094523948374088,0.0001002289779717,high
800,8.181818181818182,2.430379746835443,anode,0.0101197085042143,0.0106583223079434,0.0094752906877004,7.796213783481914e-05,high
800,8.282828282828282,2.430379746835443,anode,0.0102469566288074,0.0106451649665912,0.0097949153728561,5.386960540204931e-05,high
800,8.383838383838384,2.430379746835443,anode,0.0102668571695975,0.0108900012379107,0.0095000181045101,-8.385326765232146e-05,high
800,8.484848484848484,2.430379746835443,anode,0.0102697212631023,0.0107881980853722,0.0096571259292756,-4.026222012371971e-05,high
800,8.585858585858587,2.430379746835443,anode,0.0103151621080264,0.0107309337360436,0.0098410998172913,4.6814822287768864e-05,high
800,8.686868686868687,2.430379746835443,anode,0.0104861730049406,0.0110467104926719,0.009814996151092,8.017294325210071e-05,high
800,8.787878787878787,2.430379746835443,anode,0.0103853508656886,0.0109046080488375,0.0097728427105336,4.3207025527528186e-05,high
800,8.88888888888889,2.430379746835443,anode,0.0104772409821857,0.0110515793416136,0.0097819846460886,-0.0001345715091115,high
800,8.98989898989899,2.430379746835443,anode,0.0107043238641469,0.0111702749076908,0.0101675863066767,-2.846497666779598e-05,high
800,9.09090909090909,2.430379746835443,anode,0.0108442036706676,0.0113389844949289,0.0102697737307463,3.9734507741843405e-05,high
800,9.191919191919192,2.430379746835443,anode,0.0109692581156831,0.0115139414185554,0.0103282365028661,2.4090387174083443e-06,high
800,9.292929292929292,2.430379746835443,anode,0.0108920786013563,0.0114143093239409,0.0102810113953672,-2.8094089126192015e-05,high
800,9.393939393939394,2.430379746835443,anode,0.0110963004980863,0.0116467883601331,0.0104485563801151,-1.1220997787014083e-07,high
800,9.494949494949497,2.430379746835443,anode,0.0111672167443652,0.0117145421465009,0.0105244716477527,-1.910790749633023e-05,high
800,9.595959595959595,2.430379746835443,anode,0.0111680509056393,0.0116545414930217,0.0106076662684639,-2.534183116041623e-05,high
800,9.696969696969695,2.430379746835443,anode,0.0113943298694962,0.0118607699485878,0.0108599389853965,8.534751807373687e-05,high
800,9.797979797979798,2.430379746835443,anode,0.0115545818329005,0.0121124307568866,0.0109006284826485,-4.757057465491261e-05,high
800,9.8989898989899,2.430379746835443,anode,0.0114983826013596,0.0119538097063195,0.0109806712817886,-4.061651471435061e-05,high
800,10.0,2.430379746835443,anode,0.0117201453588456,0.0123050415183393,0.0110301563734643,5.75701618112674e-05,high
800,0.0,2.5316455696202533,anode,0.0216867913231022,0.0226409309750885,0.0205864298454223,1.3959790979229889e-06,critical
800,0.101010101010101,2.5316455696202533,anode,0.0214170614775417,0.0225639509776869,0.0200466304369921,8.647384980976991e-05,critical
800,0.202020202020202,2.5316455696202533,anode,0.0213166457571471,0.0223089119650088,0.020161565717392,-4.357278395794469e-05,critical
800,0.303030303030303,2.5316455696202533,anode,0.0209104053321459,0.0219398056463221,0.0197003280495291,-5.298639020639081e-05,critical
800,0.404040404040404,2.5316455696202533,anode,0.020717569998165,0.0216962916522011,0.0195755564940175,-3.26908211737155e-05,critical
800,0.5050505050505051,2.5316455696202533,anode,0.0206006102598351,0.0215957769819562,0.0194350314080357,-2.392848478974789e-05,critical
800,0.6060606060606061,2.5316455696202533,anode,0.0204222270349656,0.0214084263213042,0.0192672707167544,1.697245342808256e-05,critical
800,0.7070707070707071,2.5316455696202533,anode,0.0202431488468705,0.0211383512504675,0.0192098972003887,-1.3972664999738968e-05,critical
800,0.8080808080808081,2.5316455696202533,anode,0.0201124074425697,0.0211333658523855,0.0189057929808195,3.564849074418743e-05,critical
800,0.9090909090909092,2.5316455696202533,anode,0.0199146335224922,0.0209469313991058,0.0186899354286238,2.4510183596573685e-05,critical
800,1.0101010101010102,2.5316455696202533,anode,0.0196752392542506,0.0205378651401783,0.0186806754627733,3.9550947175891e-05,critical
800,1.1111111111111112,2.5316455696202533,anode,0.019695424962883,0.0205928504614539,0.018654092335846,-5.787179138513583e-05,critical
800,1.2121212121212122,2.5316455696202533,anode,0.0193843315237283,0.0203355121056868,0.0182658684011082,-8.774122232610173e-05,critical
800,1.3131313131313131,2.5316455696202533,anode,0.0191805335676315,0.0201014648930821,0.0181030196502275,-2.497059956694617e-05,critical
800,1.414141414141414,2.5316455696202533,anode,0.0192118728074605,0.0201708954396688,0.0180820769528106,-2.0087739293525564e-05,critical
800,1.5151515151515151,2.5316455696202533,anode,0.019036299318254,0.0199411802506212,0.0179792945488454,-3.338088169772876e-05,critical
800,1.616161616161616,2.5316455696202533,anode,0.0191302403618513,0.0200040261090394,0.0181164670214233,1.767948775474925e-05,critical
800,1.7171717171717171,2.5316455696202533,anode,0.0190057664011303,0.0200006960377826,0.0178231062705475,-3.0156998353629283e-05,critical
800,1.818181818181818,2.5316455696202533,anode,0.0187174439322687,0.0196420305595489,0.0176301178697485,3.464448101894152e-05,critical
800,1.9191919191919191,2.5316455696202533,anode,0.0186586767013984,0.0196289182048504,0.0175069686021508,1.5181396608513954e-05,critical
800,2.0202020202020203,2.5316455696202533,anode,0.0185428816607101,0.0194069509612877,0.0175370065531877,2.5442800026127568e-05,critical
800,2.121212121212121,2.5316455696202533,anode,0.0184149817366991,0.0192982432924741,0.0173809734664874,-6.676865784593289e-05,critical
800,2.2222222222222223,2.5316455696202533,anode,0.0183577798417743,0.0191071314139024,0.017502262442317,-6.939687105484663e-05,critical
800,2.323232323232323,2.5316455696202533,anode,0.0183961537238574,0.0192397270110327,0.0174163896997397,-4.942853523298287e-05,critical
800,2.4242424242424243,2.5316455696202533,anode,0.0180930127063807,0.0190145875750856,0.0170028145011123,5.282845746567157e-05,critical
800,2.525252525252525,2.5316455696202533,anode,0.0181811692768769,0.0190836716743681,0.0171191054707425,1.6066005206364546e-06,critical
800,2.6262626262626263,2.5316455696202533,anode,0.0180231898903143,0.0189668554338318,0.0169015446360231,1.5399251903747362e-05,critical
800,2.727272727272727,2.5316455696202533,anode,0.0180373510835746,0.0189223473506946,0.0169969125449674,7.583283319551237e-05,critical
800,2.8282828282828283,2.5316455696202533,anode,0.017957492806154,0.0187889338776015,0.0169894973659831,-7.965237093467232e-05,critical
800,2.929292929292929,2.5316455696202533,anode,0.0180343606441512,0.0189287032369663,0.0169790534449642,-0.0001232418050553,critical
800,3.0303030303030303,2.5316455696202533,anode,0.0179347427214012,0.0188046445850112,0.0169151272089929,-2.425759821180885e-05,critical
800,3.131313131313131,2.5316455696202533,anode,0.0179135570042989,0.0188445031054879,0.0168086578999461,4.197249947801398e-06,critical
800,3.2323232323232323,2.5316455696202533,anode,0.0177852124032213,0.0185597935117303,0.0168933191672276,-6.532363258733696e-06,critical
800,3.333333333333333,2.5316455696202533,anode,0.0177376482075131,0.018576610186112,0.0167574153565149,-7.899641493057144e-05,critical
800,3.4343434343434343,2.5316455696202533,anode,0.01764971526707,0.01845349510212,0.016717340962969,4.020046903555745e-05,critical
800,3.5353535353535355,2.5316455696202533,anode,0.0177114184284478,0.0186528023749492,0.0165885435943956,5.8745439473278455e-05,critical
800,3.636363636363636,2.5316455696202533,anode,0.0176392272882797,0.0185169998741088,0.0166057176116214,2.056304787452214e-05,critical
800,3.7373737373737375,2.5316455696202533,anode,0.0176102713447259,0.0184156555977237,0.0166756803743885,1.3618915723493636e-05,critical
800,3.8383838383838382,2.5316455696202533,anode,0.017745067766469,0.0186179898197649,0.0167193589792878,-2.4328986753963785e-05,critical
800,3.939393939393939,2.5316455696202533,anode,0.0175658125556302,0.0184278658055418,0.016553388400226,1.2716526263947154e-05,critical
800,4.040404040404041,2.5316455696202533,anode,0.017690206600235,0.018523611454739,0.0167181751059683,3.070968517009907e-05,critical
800,4.141414141414141,2.5316455696202533,anode,0.0175813746405351,0.0183814755030653,0.0166525640819828,-7.505733965322241e-05,critical
800,4.242424242424242,2.5316455696202533,anode,0.0175641726387125,0.0183607642627042,0.0166405276807627,-5.209168571280614e-05,critical
800,4.343434343434343,2.5316455696202533,anode,0.0175866607070341,0.0184908008571995,0.0165149529997157,6.312153531282985e-05,critical
800,4.444444444444445,2.5316455696202533,anode,0.0175322939496418,0.0184348525842419,0.0164584551022868,-0.0001483133562731,critical
800,4.545454545454545,2.5316455696202533,anode,0.0175709223848232,0.0183945566434532,0.0166112635289112,1.0820031153062336e-05,critical
800,4.646464646464646,2.5316455696202533,anode,0.0174536557281147,0.0182408088920416,0.0165413247932994,-7.00183259543028e-05,critical
800,4.747474747474747,2.5316455696202533,anode,0.0174720980541381,0.0184176875073613,0.0163405444945867,-3.934936030841249e-05,critical
800,4.848484848484849,2.5316455696202533,anode,0.0174224592388463,0.0182612940603147,0.0164397416892121,-6.6019255463551e-05,critical
800,4.94949494949495,2.5316455696202533,anode,0.0175870570871935,0.0183309121097278,0.016734309431804,-9.686169874256433e-06,critical
800,5.05050505050505,2.5316455696202533,anode,0.0174848540486206,0.0183520390565597,0.016463537372421,6.880315585355365e-05,critical
800,5.151515151515151,2.5316455696202533,anode,0.0174332001082488,0.0181815478967982,0.0165732439224395,-2.941745034240219e-05,critical
800,5.252525252525253,2.5316455696202533,anode,0.0173742240459004,0.0182318697793197,0.0163659017755894,1.6679453577434097e-05,critical
800,5.353535353535354,2.5316455696202533,anode,0.0174533135639531,0.0183277243476555,0.0164219982733827,5.324440275273774e-05,critical
800,5.454545454545454,2.5316455696202533,anode,0.0175809562141016,0.0184870619451688,0.0165069973662868,-3.407260059079366e-05,critical
800,5.555555555555555,2.5316455696202533,anode,0.0173874396443479,0.0182188222087113,0.0164154041172414,-2.169083548224234e-05,critical
800,5.656565656565657,2.5316455696202533,anode,0.0175734243739328,0.0184381785703439,0.0165573297758405,-1.4708087701298864e-05,critical
800,5.757575757575758,2.5316455696202533,anode,0.0176475081443987,0.0184509945803963,0.0167137079089785,-0.0001030286061271,critical
800,5.858585858585858,2.5316455696202533,anode,0.0175098550128529,0.0183454755978398,0.016532889586035,-4.409103670822815e-05,critical
800,5.959595959595959,2.5316455696202533,anode,0.0176392572106353,0.0185117369553137,0.0166121235323712,7.21172330139629e-05,critical
800,6.0606060606060606,2.5316455696202533,anode,0.0175970518080539,0.01843389190247,0.0166196164616393,-1.1883402441201464e-05,critical
800,6.161616161616162,2.5316455696202533,anode,0.0174976129382614,0.0183487252609572,0.0164995809042141,1.6800325182747136e-05,critical
800,6.262626262626262,2.5316455696202533,anode,0.017607962478073,0.0184446226862131,0.0166306918825082,3.245964194501848e-05,critical
800,6.363636363636363,2.5316455696202533,anode,0.0175992318979475,0.0184382549058289,0.0166158464653702,-0.0001218992333362,critical
800,6.4646464646464645,2.5316455696202533,anode,0.0178027415819039,0.0186485949931516,0.0168146590515003,-3.881663995697913e-05,critical
800,6.565656565656566,2.5316455696202533,anode,0.0176593279466564,0.0184105922191821,0.0167970803873389,-3.761919697981167e-05,critical
800,6.666666666666667,2.5316455696202533,anode,0.0177351128991638,0.0186607894784053,0.0166353530328355,-3.1706499586389874e-05,critical
800,6.767676767676767,2.5316455696202533,anode,0.0178553969268762,0.0187541114819414,0.016794634801838,4.898021460379314e-05,critical
800,6.8686868686868685,2.5316455696202533,anode,0.0178979889966539,0.0187323009940923,0.0169264775068679,-4.139335273106348e-05,critical
800,6.96969696969697,2.5316455696202533,anode,0.0179160296548333,0.0188310101851883,0.0168334089988535,-3.469766738800678e-05,critical
800,7.070707070707071,2.5316455696202533,anode,0.0178508183891299,0.0186554616970206,0.0169192294125791,-1.981890250799984e-05,critical
800,7.171717171717171,2.5316455696202533,anode,0.017991653893774,0.0188680615311466,0.016960311592219,-0.0001315260360368,critical
800,7.272727272727272,2.5316455696202533,anode,0.018052652104395,0.0189120588974606,0.0170485056997887,3.200819513962669e-05,critical
800,7.373737373737374,2.5316455696202533,anode,0.0180759199854865,0.0190052176909171,0.0169750638094366,-2.9300305295986324e-05,critical
800,7.474747474747475,2.5316455696202533,anode,0.0179928961491875,0.0188763412331138,0.0169551514345958,-2.6567241528914373e-05,critical
800,7.575757575757575,2.5316455696202533,anode,0.0183333284551234,0.0193221317462041,0.0171504789553459,6.0669909345605405e-05,critical
800,7.6767676767676765,2.5316455696202533,anode,0.0183057268581191,0.0191241973680203,0.0173593951733455,-1.4254042882580089e-05,critical
800,7.777777777777778,2.5316455696202533,anode,0.01841747045296,0.0192613687240312,0.0174371419431763,6.375493936070034e-05,critical
800,7.878787878787879,2.5316455696202533,anode,0.0184360481887106,0.0192929756965723,0.0174385984910158,-4.726212903122988e-05,critical
800,7.979797979797979,2.5316455696202533,anode,0.0185719587054583,0.0194027950969745,0.017610498496985,6.436656051165677e-05,critical
800,8.080808080808081,2.5316455696202533,anode,0.0185284938424001,0.019482147448555,0.0173986478168152,-1.9071617000650208e-05,critical
800,8.181818181818182,2.5316455696202533,anode,0.0187849958625786,0.0196025806077754,0.0178436853256329,-5.066493013294674e-06,critical
800,8.282828282828282,2.5316455696202533,anode,0.0188411946122414,0.0198324137379621,0.0176617830729709,3.259692858071288e-05,critical
800,8.383838383838384,2.5316455696202533,anode,0.0189646225827554,0.0199358362334233,0.0178151299940966,4.876395591544381e-07,critical
800,8.484848484848484,2.5316455696202533,anode,0.0191238399327317,0.0200623249999339,0.0180213569845311,4.235787747856488e-05,critical
800,8.585858585858587,2.5316455696202533,anode,0.0191256077092425,0.0201203741968821,0.0179444251986436,4.307536121244249e-05,critical
800,8.686868686868687,2.5316455696202533,anode,0.0193158681837455,0.0201757446637904,0.0183223612379539,1.2269120843617846e-05,critical
800,8.787878787878787,2.5316455696202533,anode,0.0194798999680438,0.0205805589014671,0.0181513084405453,1.976919965658916e-05,critical
800,8.88888888888889,2.5316455696202533,anode,0.0195321951762433,0.020514048244421,0.018373997207855,2.4254202126047625e-05,critical
800,8.98989898989899,2.5316455696202533,anode,0.0196337584566906,0.0204716795597511,0.0186718500950317,-1.782414464802894e-05,critical
800,9.09090909090909,2.5316455696202533,anode,0.0199056883084066,0.0208631981675221,0.0187850698344073,-1.979155174046265e-05,critical
800,9.191919191919192,2.5316455696202533,anode,0.0202051979219795,0.0212115209131883,0.0190182658607706,0.0001053744167253,critical
800,9.292929292929292,2.5316455696202533,anode,0.0201826988734741,0.0211877041602195,0.0189991483192549,3.2778365881210105e-05,critical
800,9.393939393939394,2.5316455696202533,anode,0.0204170038455534,0.0214543447560954,0.0191910459828069,-8.32560214146854e-06,critical
800,9.494949494949497,2.5316455696202533,anode,0.0205749387362064,0.0216201633040786,0.0193386496084014,-7.753846591714421e-05,critical
800,9.595959595959595,2.5316455696202533,anode,0.0208332100949897,0.0220038952880723,0.0194215769346548,3.619200740220357e-05,critical
800,9.696969696969695,2.5316455696202533,anode,0.0209942708796861,0.0220086613581496,0.0198062040578296,-1.3585663037041005e-05,critical
800,9.797979797979798,2.5316455696202533,anode,0.0211488996179668,0.0220849138593193,0.0200680668003706,4.745658505757618e-05,critical
800,9.8989898989899,2.5316455696202533,anode,0.0213984626281665,0.0222911294206974,0.0203769731469614,3.857022929439653e-05,critical
800,10.0,2.5316455696202533,anode,0.0215747309741777,0.0226072160496491,0.0203675038924684,6.956340392217946e-06,critical
800,0.0,2.632911392405063,anode,0.0215768850511383,0.0226043019526022,0.0203765404369447,-2.2908173819736424e-05,critical
800,0.101010101010101,2.632911392405063,anode,0.0214073208750513,0.0224661674331754,0.0201611800801745,-7.296807135507617e-05,critical
800,0.202020202020202,2.632911392405063,anode,0.0211347183628423,0.0221805252808746,0.0199023898725426,0.0001168440844502,critical
800,0.303030303030303,2.632911392405063,anode,0.0210268823213707,0.0221286415735412,0.0197170121339129,-3.229649190809059e-05,critical
800,0.404040404040404,2.632911392405063,anode,0.0208962637553018,0.0219993954128921,0.0195829942850295,1.643041521549281e-05,critical
800,0.5050505050505051,2.632911392405063,anode,0.0205220350442461,0.0215205284697666,0.0193508989338394,4.106341775705693e-05,critical
800,0.6060606060606061,2.632911392405063,anode,0.0203845859764762,0.0213397583542703,0.0192716261718409,2.78634015394448e-05,critical
800,0.7070707070707071,2.632911392405063,anode,0.0202774715117667,0.0212324073561084,0.0191639757426723,-5.832096573661379e-06,critical
800,0.8080808080808081,2.632911392405063,anode,0.0200084650655766,0.0208774952643601,0.0190081054797686,2.8425196209575307e-05,critical
800,0.9090909090909092,2.632911392405063,anode,0.0198921337690038,0.0208352973274184,0.0187895016702241,-9.460810360868738e-05,critical
800,1.0101010101010102,2.632911392405063,anode,0.0196794106622326,0.0206938231445603,0.0184772459507021,-1.9404931435231728e-05,critical
800,1.1111111111111112,2.632911392405063,anode,0.0196538554194946,0.0206153788089413,0.0185236896437804,-9.307763954683562e-05,critical
800,1.2121212121212122,2.632911392405063,anode,0.019576662025179,0.0206142538941189,0.0183403133445841,3.169985443649841e-05,critical
800,1.3131313131313131,2.632911392405063,anode,0.019420618899978,0.0204390474149784,0.018209752457675,1.5149852443012952e-05,critical
800,1.414141414141414,2.632911392405063,anode,0.0191019235074483,0.0200397672479163,0.0179987290213099,9.540142655971202e-05,critical
800,1.5151515151515151,2.632911392405063,anode,0.0189924672811509,0.0200356862423995,0.0177406649233929,9.906803166111877e-06,critical
800,1.616161616161616,2.632911392405063,anode,0.0189241603262673,0.0197779404469865,0.0179356174149482,-6.239313814774189e-06,critical
800,1.7171717171717171,2.632911392405063,anode,0.0188125721301049,0.0197009620594033,0.0177760974113249,2.2697813473724928e-05,critical
800,1.818181818181818,2.632911392405063,anode,0.0188100194068408,0.0197406911518582,0.0177140477626531,-8.563629860505716e-05,critical
800,1.9191919191919191,2.632911392405063,anode,0.0186339675251591,0.0195953849924658,0.0174929922851746,-8.712468992307706e-05,critical
800,2.0202020202020203,2.632911392405063,anode,0.0187135202314816,0.0196929719773785,0.0175490386265205,4.712868605741022e-05,critical
800,2.121212121212121,2.632911392405063,anode,0.0185044301012702,0.0193220632016812,0.0175602444107668,5.708350307061814e-05,critical
800,2.2222222222222223,2.632911392405063,anode,0.0183533736018446,0.0192685876851439,0.0172747731960958,-5.928541755203564e-05,critical
800,2.323232323232323,2.632911392405063,anode,0.018271057916775,0.0191290119179275,0.0172710765165376,1.8302296045523405e-05,critical
800,2.4242424242424243,2.632911392405063,anode,0.0183747402241794,0.019261688053494,0.017334079759733,-0.0001029037503999,critical
800,2.525252525252525,2.632911392405063,anode,0.0181582300390562,0.0190157773035709,0.0171576646694971,-2.831481281904144e-05,critical
800,2.6262626262626263,2.632911392405063,anode,0.0179692942008657,0.0188524085082302,0.0169318311733811,-1.931066339640609e-05,critical
800,2.727272727272727,2.632911392405063,anode,0.0180174148341966,0.0188693437333461,0.0170231589313817,3.163163447526599e-05,critical
800,2.8282828282828283,2.632911392405063,anode,0.0179123609511095,0.0187765860153248,0.0169001620888722,-3.812679035121406e-05,critical
800,2.929292929292929,2.632911392405063,anode,0.0179458190056925,0.0188455654170753,0.0168848089066687,-3.689122087402663e-05,critical
800,3.0303030303030303,2.632911392405063,anode,0.0178335251279179,0.0186592515835622,0.0168733353726913,2.091253980467916e-05,critical
800,3.131313131313131,2.632911392405063,anode,0.0178920723397079,0.0187613593775552,0.0168723931492619,-5.485667690506817e-05,critical
800,3.2323232323232323,2.632911392405063,anode,0.0177709660650796,0.018548270211058,0.0168752449908156,2.322018656914832e-05,critical
800,3.333333333333333,2.632911392405063,anode,0.0178528727809315,0.0185774385359137,0.0170265421833751,5.8441266856700696e-05,critical
800,3.4343434343434343,2.632911392405063,anode,0.0176739497094171,0.0185198287091779,0.0166848507707251,1.608295551536861e-05,critical
800,3.5353535353535355,2.632911392405063,anode,0.0177696951900179,0.0186778417262082,0.0166945759713601,-5.795519122986585e-05,critical
800,3.636363636363636,2.632911392405063,anode,0.0175922208532074,0.0183355882464136,0.0167387345614032,-8.514335517471987e-05,critical
800,3.7373737373737375,2.632911392405063,anode,0.0177157086217295,0.018485802873262,0.0168292435399637,4.638943772534272e-06,critical
800,3.8383838383838382,2.632911392405063,anode,0.0175608799467444,0.0183420188146105,0.0166584765084793,-5.781181001494409e-06,critical
800,3.939393939393939,2.632911392405063,anode,0.0175014334287787,0.0183448484450438,0.0165138516682729,3.4238219518122545e-05,critical
800,4.040404040404041,2.632911392405063,anode,0.0176185327738157,0.0184202936914149,0.0166886353347019,-3.869652658704823e-05,critical
800,4.141414141414141,2.632911392405063,anode,0.0176801168827312,0.0184855045971538,0.0167461480424572,-7.64066336627194e-06,critical
800,4.242424242424242,2.632911392405063,anode,0.0174002766360193,0.0182172331383202,0.0164479510769349,3.2189962468980816e-05,critical
800,4.343434343434343,2.632911392405063,anode,0.017561222408331,0.0185064013407815,0.0164316358631782,2.1853438001322426e-05,critical
800,4.444444444444445,2.632911392405063,anode,0.017423745859885,0.018252425098819,0.0164557738310479,1.987223831903915e-05,critical
800,4.545454545454545,2.632911392405063,anode,0.0175205894308818,0.0183101604660152,0.0166065349732066,1.1460684594344936e-05,critical
800,4.646464646464646,2.632911392405063,anode,0.0176167827016213,0.0184739773684095,0.0166094924373742,-0.0001022110712641,critical
800,4.747474747474747,2.632911392405063,anode,0.0174541873980334,0.0182771792870899,0.0164942341010801,2.373689588803806e-05,critical
800,4.848484848484849,2.632911392405063,anode,0.0173800659835628,0.0181472713701146,0.0164947597445112,1.8417851449829137e-05,critical
800,4.94949494949495,2.632911392405063,anode,0.0172864411802627,0.0181803506769778,0.0162252511513074,7.719838210432708e-05,critical
800,5.05050505050505,2.632911392405063,anode,0.0174961753408313,0.018392146847311,0.0164354501697901,-3.775643367867384e-05,critical
800,5.151515151515151,2.632911392405063,anode,0.0175702321786727,0.018420862650416,0.0165700989966599,0.0001319279969415,critical
800,5.252525252525253,2.632911392405063,anode,0.0175438053714888,0.0184301610541498,0.0164971481190152,3.4015377244754246e-05,critical
800,5.353535353535354,2.632911392405063,anode,0.0175160249388314,0.0183706726544661,0.016513329590833,-1.202848335451554e-05,critical
800,5.454545454545454,2.632911392405063,anode,0.0173514153270557,0.0180973101467119,0.016491729610075,0.0001122191057943,critical
800,5.555555555555555,2.632911392405063,anode,0.0175185054592456,0.0183048343871066,0.0166087092247638,2.251826200802708e-05,critical
800,5.656565656565657,2.632911392405063,anode,0.0175045510356623,0.0183963611240188,0.0164488842773491,-7.533400844009866e-05,critical
800,5.757575757575758,2.632911392405063,anode,0.0176023727537853,0.0184543600625589,0.0166039951964272,-3.449924406546048e-05,critical
800,5.858585858585858,2.632911392405063,anode,0.017609156335752,0.0184193317010273,0.0166680498360045,1.879669808768632e-05,critical
800,5.959595959595959,2.632911392405063,anode,0.0176246382017173,0.0184238247263759,0.0166981172076726,4.69773231872884e-05,critical
800,6.0606060606060606,2.632911392405063,anode,0.0174746147531564,0.0183799190514712,0.0164006592363654,-2.51806829426373e-05,critical
800,6.161616161616162,2.632911392405063,anode,0.0177071010203333,0.0184856177557905,0.0168076472481107,9.327221256206152e-05,critical
800,6.262626262626262,2.632911392405063,anode,0.0177529958136493,0.0186606706687278,0.0166766403441577,-0.000108306213256,critical
800,6.363636363636363,2.632911392405063,anode,0.0177747350333717,0.0187178232353972,0.0166509001497132,1.195480179127684e-05,critical
800,6.4646464646464645,2.632911392405063,anode,0.017654823180254,0.0184801563263692,0.0166931404404743,5.003609228592404e-05,critical
800,6.565656565656566,2.632911392405063,anode,0.0176809347311886,0.018482272821589,0.0167512202940152,7.807378305599267e-05,critical
800,6.666666666666667,2.632911392405063,anode,0.017649957778592,0.0185421987158823,0.0165961803981399,3.806759842783971e-05,critical
800,6.767676767676767,2.632911392405063,anode,0.01774539785647,0.0185296945053315,0.0168402364549761,-1.2106089986490548e-05,critical
800,6.8686868686868685,2.632911392405063,anode,0.0179468267392888,0.0188802868042317,0.0168386733248838,2.177639718678621e-05,critical
800,6.96969696969697,2.632911392405063,anode,0.0179382738156543,0.018782747608297,0.0169508933324066,0.00011779388713,critical
800,7.070707070707071,2.632911392405063,anode,0.0180214953572422,0.018914585916439,0.0169706821416436,-2.650532490643714e-05,critical
800,7.171717171717171,2.632911392405063,anode,0.0179872511937516,0.0189755761059575,0.0168011332984666,2.4633396577089526e-05,critical
800,7.272727272727272,2.632911392405063,anode,0.0180126098680313,0.0189190180878029,0.0169429714748198,-4.070318567727829e-05,critical
800,7.373737373737374,2.632911392405063,anode,0.0181020512643566,0.0190326469269235,0.0169989693593363,-6.59130504226819e-05,critical
800,7.474747474747475,2.632911392405063,anode,0.018178189853654,0.0190306418389885,0.0171844118908369,-5.044279224150808e-05,critical
800,7.575757575757575,2.632911392405063,anode,0.0182725950126732,0.019136653432812,0.0172643689990172,-3.327950469597781e-06,critical
800,7.6767676767676765,2.632911392405063,anode,0.0182716823236512,0.0191625756491093,0.0172266222215958,-1.6086195741783966e-06,critical
800,7.777777777777778,2.632911392405063,anode,0.0184228766798968,0.0193833191329793,0.0172808585309636,-8.494857684127531e-05,critical
800,7.878787878787879,2.632911392405063,anode,0.0185750633657078,0.019464708500471,0.0175344136843875,3.953846139429244e-05,critical
800,7.979797979797979,2.632911392405063,anode,0.018496413783788,0.019350404420013,0.0175032241206328,-5.995113097348464e-05,critical
800,8.080808080808081,2.632911392405063,anode,0.0186642698631656,0.0195776479578554,0.0175892181037302,0.0001232833477901,critical
800,8.181818181818182,2.632911392405063,anode,0.0186759088819628,0.019518989978943,0.0176996115320502,-1.7267590897324126e-05,critical
800,8.282828282828282,2.632911392405063,anode,0.0188416675526961,0.0197754467100143,0.0177430086448449,-2.387290038281112e-05,critical
800,8.383838383838384,2.632911392405063,anode,0.0190104493441456,0.0199516010824308,0.0179033785456185,-1.7339128107082208e-05,critical
800,8.484848484848484,2.632911392405063,anode,0.0189918479035777,0.0198691143207553,0.0179721261699877,2.231060998748252e-05,critical
800,8.585858585858587,2.632911392405063,anode,0.0192054614355133,0.0202474007036591,0.0179576336912854,6.14028855116259e-05,critical
800,8.686868686868687,2.632911392405063,anode,0.0191763763058463,0.020123062687634,0.0180624376040169,7.226869096900365e-05,critical
800,8.787878787878787,2.632911392405063,anode,0.0193687232155547,0.0202458751407762,0.0183525067085728,3.4466737030646028e-06,critical
800,8.88888888888889,2.632911392405063,anode,0.0194174250808107,0.0203135940828085,0.0183759543614795,-9.509572674191756e-06,critical
800,8.98989898989899,2.632911392405063,anode,0.019691580065853,0.0205839231193464,0.0186576313604756,1.259677828414768e-05,critical
800,9.09090909090909,2.632911392405063,anode,0.0199325157912707,0.0208981899301522,0.0188006003000895,-4.756623788522048e-05,critical
800,9.191919191919192,2.632911392405063,anode,0.0199090629506895,0.0207878519526733,0.0188941711343428,-7.194494101714542e-05,critical
800,9.292929292929292,2.632911392405063,anode,0.0201602161481386,0.021083435355641,0.0190875039123946,8.249843637553289e-05,critical
800,9.393939393939394,2.632911392405063,anode,0.0203609482798813,0.0212915493166348,0.0192810582005546,-2.9090514783670455e-05,critical
800,9.494949494949497,2.632911392405063,anode,0.0204396031028454,0.0214978232432395,0.0191844275214085,2.672924791155649e-05,critical
800,9.595959595959595,2.632911392405063,anode,0.0207658697588795,0.0218019435270843,0.0195454130309686,-2.180097955844248e-05,critical
800,9.696969696969695,2.632911392405063,anode,0.0209943287951395,0.0220427237869905,0.0197588451802639,-4.821275659302657e-05,critical
800,9.797979797979798,2.632911392405063,anode,0.0212861251634775,0.0223043948592596,0.0200947593135422,7.115452503869553e-05,critical
800,9.8989898989899,2.632911392405063,anode,0.0215357938174388,0.0225122167226365,0.0204043589565369,-1.517668515114949e-07,critical
800,10.0,2.632911392405063,anode,0.0216425744473664,0.0227996563445101,0.0202608684267973,-7.011240108178405e-05,critical
800,0.0,2.7341772151898733,anode,0.0215765157606164,0.0226741007354882,0.0202790619715702,-1.0451839825813436e-05,critical
800,0.101010101010101,2.7341772151898733,anode,0.0215357439792693,0.0226069536588745,0.0202743321352872,4.567465111675405e-05,critical
800,0.202020202020202,2.7341772151898733,anode,0.0212189675220816,0.0222020867574284,0.0200757264035692,7.188376012771783e-06,critical
800,0.303030303030303,2.7341772151898733,anode,0.0209894275809735,0.0220398021698307,0.0197504400836132,-7.978973449563148e-05,critical
800,0.404040404040404,2.7341772151898733,anode,0.020783732591186,0.0217656708584643,0.0196380585943797,2.0710795421405147e-05,critical
800,0.5050505050505051,2.7341772151898733,anode,0.020496078010615,0.0215261391766931,0.01928073694722,5.0185290090653526e-05,critical
800,0.6060606060606061,2.7341772151898733,anode,0.0201806628470512,0.0212473113004533,0.0189092424703671,8.568521555120703e-05,critical
800,0.7070707070707071,2.7341772151898733,anode,0.020342211895657,0.0213498929992631,0.0191552443647164,9.431263128615272e-05,critical
800,0.8080808080808081,2.7341772151898733,anode,0.020084065579021,0.0209925564617581,0.0190308223003182,-7.2290177159668e-05,critical
800,0.9090909090909092,2.7341772151898733,anode,0.0198615966957139,0.0207995593099656,0.0187648117054312,0.0001197378825896,critical
800,1.0101010101010102,2.7341772151898733,anode,0.0197451701421669,0.0205493572558887,0.0188282736528033,-1.5202754326502789e-05,critical
800,1.1111111111111112,2.7341772151898733,anode,0.0195440497767395,0.0205500543133844,0.0183519983318,-3.591239276207109e-05,critical
800,1.2121212121212122,2.7341772151898733,anode,0.0194433354805008,0.0203631349154496,0.0183699772660528,9.861196301892433e-06,critical
800,1.3131313131313131,2.7341772151898733,anode,0.0193920747442683,0.0203607001056467,0.0182508459778888,1.8945683124325044e-05,critical
800,1.414141414141414,2.7341772151898733,anode,0.0191595668686403,0.0200563290118326,0.0181138312000359,7.904984154778116e-05,critical
800,1.5151515151515151,2.7341772151898733,anode,0.0189817945388765,0.0197923856999997,0.0180500053863982,-8.158076618127239e-05,critical
800,1.616161616161616,2.7341772151898733,anode,0.0188825800892014,0.0197997273723283,0.0178073182881622,2.639146674185181e-05,critical
800,1.7171717171717171,2.7341772151898733,anode,0.0189309112351437,0.0197916487246384,0.0179316295026133,-8.797065893442649e-05,critical
800,1.818181818181818,2.7341772151898733,anode,0.0187144362373631,0.0195559316927769,0.0177405975966273,-1.6031354706667422e-05,critical
800,1.9191919191919191,2.7341772151898733,anode,0.0186666285416518,0.0195948449845263,0.0175738934514587,-1.877992799392809e-05,critical
800,2.0202020202020203,2.7341772151898733,anode,0.0185864539046018,0.019426211023772,0.0176138730673165,1.7172922993325342e-05,critical
800,2.121212121212121,2.7341772151898733,anode,0.0185705569566929,0.0194064816704663,0.0176015878132517,8.765952504150403e-05,critical
800,2.2222222222222223,2.7341772151898733,anode,0.0185211480034426,0.0193740387200809,0.0175303336339816,-1.0203271043661052e-05,critical
800,2.323232323232323,2.7341772151898733,anode,0.0182185849866667,0.0191437184582593,0.0171253209319583,1.3998969909957706e-05,critical
800,2.4242424242424243,2.7341772151898733,anode,0.01819943288232,0.0191152429993244,0.017118847725491,-3.070834574639391e-05,critical
800,2.525252525252525,2.7341772151898733,anode,0.0181111009590588,0.0189355095470723,0.01715497223039,-3.427518447938227e-05,critical
800,2.6262626262626263,2.7341772151898733,anode,0.0181023343555863,0.0189559366569196,0.0171051050729931,-9.245412515021236e-05,critical
800,2.727272727272727,2.7341772151898733,anode,0.0182484566248565,0.0191533958332848,0.0171837025203075,8.586602315083079e-06,critical
800,2.8282828282828283,2.7341772151898733,anode,0.0180209613171674,0.0187635533831946,0.0171723598912679,-5.37231509960259e-05,critical
800,2.929292929292929,2.7341772151898733,anode,0.0180117821891736,0.0188671122843801,0.0170126665746187,4.2576283419941074e-05,critical
800,3.0303030303030303,2.7341772151898733,anode,0.0179639103884051,0.0189085951355912,0.0168397874973812,4.237704316407927e-05,critical
800,3.131313131313131,2.7341772151898733,anode,0.0178540199330304,0.0186276580169802,0.016963456010678,4.8311828329454e-05,critical
800,3.2323232323232323,2.7341772151898733,anode,0.0178164649875156,0.0186612377585329,0.0168298401213039,4.746719559577311e-05,critical
800,3.333333333333333,2.7341772151898733,anode,0.0176604468424264,0.0184964828934098,0.0166844296466806,3.906472859074644e-05,critical
800,3.4343434343434343,2.7341772151898733,anode,0.017729729211297,0.018526381259286,0.0168078653340965,1.8970034106626787e-05,critical
800,3.5353535353535355,2.7341772151898733,anode,0.0177973538150821,0.0187252676377363,0.0166953731637662,3.831280846328514e-07,critical
800,3.636363636363636,2.7341772151898733,anode,0.0175713426270372,0.0184190672629476,0.0165786857436736,-1.9576654937109263e-05,critical
800,3.7373737373737375,2.7341772151898733,anode,0.0176015287354447,0.0183983114184941,0.0166776022271949,6.646857392852904e-05,critical
800,3.8383838383838382,2.7341772151898733,anode,0.0175766620709086,0.018447617224816,0.0165502326529181,9.420611897271577e-05,critical
800,3.939393939393939,2.7341772151898733,anode,0.0174919628186029,0.0183619888295618,0.0164662392959879,8.562502655535966e-05,critical
800,4.040404040404041,2.7341772151898733,anode,0.017641165463473,0.018587292765232,0.0165103159501244,7.02614348893553e-05,critical
800,4.141414141414141,2.7341772151898733,anode,0.0174678941545325,0.0183175964542819,0.016471435378279,-2.52269254605174e-05,critical
800,4.242424242424242,2.7341772151898733,anode,0.0176295533566966,0.0185247511148588,0.0165710229043292,-5.780027298307503e-05,critical
800,4.343434343434343,2.7341772151898733,anode,0.0175410884547771,0.0183763903861747,0.0165651705449606,2.0216473051086907e-05,critical
800,4.444444444444445,2.7341772151898733,anode,0.0174110479521832,0.0182148991144619,0.0164757212577112,7.359943071421035e-05,critical
800,4.545454545454545,2.7341772151898733,anode,0.0175827486426166,0.0183730826627781,0.0166660907651245,-0.0001028999478237,critical
800,4.646464646464646,2.7341772151898733,anode,0.0175380491472964,0.0184207888245307,0.0164965584284177,-1.7186566892172566e-05,critical
800,4.747474747474747,2.7341772151898733,anode,0.0175520718864842,0.018373065132445,0.0165950772753271,-6.20511367252698e-05,critical
800,4.848484848484849,2.7341772151898733,anode,0.0175695863020699,0.0184036178658448,0.0165956454410966,2.367560094969261e-05,critical
800,4.94949494949495,2.7341772151898733,anode,0.0175386768353484,0.0184621522150785,0.0164395999053676,3.683965879887361e-05,critical
800,5.05050505050505,2.7341772151898733,anode,0.0173301911057609,0.0181688592841676,0.0163463391912529,8.084490495019567e-05,critical
800,5.151515151515151,2.7341772151898733,anode,0.0173997048127273,0.0182852436032,0.0163510077553219,-9.362921722893538e-05,critical
800,5.252525252525253,2.7341772151898733,anode,0.017518424713631,0.0184342269264761,0.0164283772648998,-9.545862522388945e-05,critical
800,5.353535353535354,2.7341772151898733,anode,0.0175341975436677,0.0184461034299935,0.016451499306406,-3.454516897178224e-05,critical
800,5.454545454545454,2.7341772151898733,anode,0.0174143871146661,0.0183413250043929,0.0163089995589624,2.496968744245032e-05,critical
800,5.555555555555555,2.7341772151898733,anode,0.0176888261564672,0.0186344970620338,0.0165600012130624,3.53261670308073e-05,critical
800,5.656565656565657,2.7341772151898733,anode,0.0175398885654681,0.0185161870627926,0.0163651882632755,1.6179088625428555e-06,critical
800,5.757575757575758,2.7341772151898733,anode,0.0174895555814912,0.0183149630820711,0.0165267419957958,-7.077305415327188e-06,critical
800,5.858585858585858,2.7341772151898733,anode,0.0177374334641108,0.0186680842659851,0.0166303761335296,-4.840256510003743e-05,critical
800,5.959595959595959,2.7341772151898733,anode,0.0175657944376495,0.0183851285393508,0.0166118413378065,2.4141635696328905e-05,critical
800,6.0606060606060606,2.7341772151898733,anode,0.0175112163068577,0.0183516390230423,0.0165276976286895,4.3180133647941214e-05,critical
800,6.161616161616162,2.7341772151898733,anode,0.0176726563719549,0.0184905623647296,0.0167215940265235,-2.488020966504995e-05,critical
800,6.262626262626262,2.7341772151898733,anode,0.0176254536098686,0.0185122553695281,0.0165790751340698,3.344875866602129e-05,critical
800,6.363636363636363,2.7341772151898733,anode,0.0177732621689893,0.0185893296941825,0.0168255770108205,-2.467286336673512e-05,critical
800,6.4646464646464645,2.7341772151898733,anode,0.0177889608512605,0.0186416004018096,0.0167913852527449,4.296508404545903e-05,critical
800,6.565656565656566,2.7341772151898733,anode,0.017789215285667,0.0186793489727616,0.0167399722875462,-3.273326145210173e-05,critical
800,6.666666666666667,2.7341772151898733,anode,0.0176855934617427,0.0185942341416871,0.016609504732706,3.885432779462315e-06,critical
800,6.767676767676767,2.7341772151898733,anode,0.0177934943785814,0.0186392497522637,0.0168031574099771,0.0001139583550265,critical
800,6.8686868686868685,2.7341772151898733,anode,0.0177947416177084,0.0186571715031265,0.0167841136856419,-1.1490465186336796e-05,critical
800,6.96969696969697,2.7341772151898733,anode,0.0178511077737175,0.0186842558600545,0.0168809229861433,-2.918371562740551e-05,critical
800,7.070707070707071,2.7341772151898733,anode,0.0178605031446175,0.0188137091586471,0.0167232973171414,-1.2897202578114596e-05,critical
800,7.171717171717171,2.7341772151898733,anode,0.0179407391659189,0.0188532076831244,0.0168620732892487,2.1102565325854304e-05,critical
800,7.272727272727272,2.7341772151898733,anode,0.0179560077652799,0.0187665682379645,0.0170174278401764,-8.038059235238398e-07,critical
800,7.373737373737374,2.7341772151898733,anode,0.0179762674564939,0.0187601380776561,0.0170717280780094,-9.572072718861438e-05,critical
800,7.474747474747475,2.7341772151898733,anode,0.0181198396749289,0.0189742055024051,0.0171234081898308,-4.94157452841446e-06,critical
800,7.575757575757575,2.7341772151898733,anode,0.0182464629050848,0.0191478060300685,0.0171862115784983,-4.936279774179301e-05,critical
800,7.6767676767676765,2.7341772151898733,anode,0.0183387399571155,0.0192378098553288,0.0172830580175487,6.942794375563534e-06,critical
800,7.777777777777778,2.7341772151898733,anode,0.0184942310891629,0.0194459456723519,0.0173666938970299,-2.243215081768633e-05,critical
800,7.878787878787879,2.7341772151898733,anode,0.0185303237949532,0.0193864439144405,0.0175344159228547,6.562876223632766e-05,critical
800,7.979797979797979,2.7341772151898733,anode,0.0187366809829499,0.0196636082606073,0.017646348795331,3.156245217407571e-05,critical
800,8.080808080808081,2.7341772151898733,anode,0.0187429979384277,0.0196329422099307,0.0177030443159637,6.48584191603572e-05,critical
800,8.181818181818182,2.7341772151898733,anode,0.0187295291105027,0.0196161284901169,0.0176946941880595,2.553518972791449e-05,critical
800,8.282828282828282,2.7341772151898733,anode,0.0189069079642857,0.0198810174902665,0.017752200365629,5.00015334279346e-05,critical
800,8.383838383838384,2.7341772151898733,anode,0.0190554264951187,0.0200173387480405,0.0179198625031449,2.526043817529538e-05,critical
800,8.484848484848484,2.7341772151898733,anode,0.019071097650385,0.019877245594592,0.018147023137132,9.311833091662971e-06,critical
800,8.585858585858587,2.7341772151898733,anode,0.0191639067745987,0.0200655687553783,0.0181124305359585,-3.809512244569061e-05,critical
800,8.686868686868687,2.7341772151898733,anode,0.0194456342119257,0.0204495109964699,0.0182556463164933,1.4231106441304763e-05,critical
800,8.787878787878787,2.7341772151898733,anode,0.0193992349083207,0.0203669585552215,0.0182594017012724,-3.7167470329651e-06,critical
800,8.88888888888889,2.7341772151898733,anode,0.0196058319596615,0.020469571910613,0.0186093507310646,3.044664349047864e-05,critical
800,8.98989898989899,2.7341772151898733,anode,0.0196645023524275,0.0206110424452304,0.0185564787902078,-3.1879863534506296e-05,critical
800,9.09090909090909,2.7341772151898733,anode,0.0197694087343025,0.0207458757085436,0.018621243107584,-2.2082922088682044e-05,critical
800,9.191919191919192,2.7341772151898733,anode,0.0200241517563202,0.0211033473694852,0.0187331854143576,7.318180658298025e-05,critical
800,9.292929292929292,2.7341772151898733,anode,0.0201009447565951,0.0210524253387159,0.0189900839409664,-4.967804234535924e-05,critical
800,9.393939393939394,2.7341772151898733,anode,0.0203587459437651,0.021376497638785,0.0191595097297017,9.772691620275758e-06,critical
800,9.494949494949497,2.7341772151898733,anode,0.0205916453344476,0.0216300327896959,0.0193650658668881,-7.910487312477098e-05,critical
800,9.595959595959595,2.7341772151898733,anode,0.0208047581149916,0.0217125981645843,0.019758804836986,4.344428777749881e-05,critical
800,9.696969696969695,2.7341772151898733,anode,0.0209869544031589,0.0220404140091978,0.0197447059874095,-1.271936286212448e-05,critical
800,9.797979797979798,2.7341772151898733,anode,0.0212221144699605,0.0222153181174698,0.0200645305681916,6.40989961055311e-05,critical
800,9.8989898989899,2.7341772151898733,anode,0.0215386853891332,0.0225152835618366,0.0204068766051806,-3.149084594105818e-05,critical
800,10.0,2.7341772151898733,anode,0.0216854201820991,0.0227992915336124,0.0203655077182661,7.070387911497583e-05,critical
800,0.0,2.835443037974684,anode,0.0217188142744096,0.022695776344393,0.0205880253693953,3.193825924268028e-05,critical
800,0.101010101010101,2.835443037974684,anode,0.0214133218724968,0.0224082212331414,0.0202557849023439,-2.051108939198281e-05,critical
800,0.202020202020202,2.835443037974684,anode,0.0211610775397733,0.0220980432494552,0.0200772578791935,0.0001147696050793,critical
800,0.303030303030303,2.835443037974684,anode,0.0210877478579523,0.0220749297111173,0.0199367259411613,8.035450158066238e-05,critical
800,0.404040404040404,2.835443037974684,anode,0.0207858657159789,0.0217568752940458,0.0196550262055861,2.8809234101648868e-05,critical
800,0.5050505050505051,2.835443037974684,anode,0.0206708203453373,0.0216160330480893,0.0195740288563961,-7.702514893398768e-06,critical
800,0.6060606060606061,2.835443037974684,anode,0.0203133923222196,0.0212585727545286,0.019213441078735,1.833964684196775e-05,critical
800,0.7070707070707071,2.835443037974684,anode,0.0202534114884689,0.021189921075632,0.0191647376837441,3.172629765000828e-06,critical
800,0.8080808080808081,2.835443037974684,anode,0.0200290976106303,0.0209538683571774,0.0189543305520662,-4.182330539769263e-06,critical
800,0.9090909090909092,2.835443037974684,anode,0.0199075636042998,0.0208002447879002,0.0188728005428763,-0.0001113196845766,critical
800,1.0101010101010102,2.835443037974684,anode,0.0197613568962899,0.0206960641292411,0.0186704924675266,2.9305251869980836e-05,critical
800,1.1111111111111112,2.835443037974684,anode,0.0194756805150841,0.0204325236406253,0.0183516233085442,-2.587300969162269e-05,critical
800,1.2121212121212122,2.835443037974684,anode,0.0194982422905363,0.0203761961725168,0.0184820354064559,3.0715591845193745e-06,critical
800,1.3131313131313131,2.835443037974684,anode,0.0192891553077202,0.0202207748798348,0.0181981380393475,2.387827247982324e-07,critical
800,1.414141414141414,2.835443037974684,anode,0.019285294329314,0.0201785328576631,0.018246635654507,-2.118838753347267e-06,critical
800,1.5151515151515151,2.835443037974684,anode,0.0189856779375643,0.0198971407343672,0.0179187947205156,5.577769583878575e-05,critical
800,1.616161616161616,2.835443037974684,anode,0.0187886786980754,0.0196448490045393,0.0177941929039607,9.180860698587904e-05,critical
800,1.7171717171717171,2.835443037974684,anode,0.0189567382920752,0.0199537642802695,0.0177697252697079,-7.068926763074558e-05,critical
800,1.818181818181818,2.835443037974684,anode,0.0187756863788638,0.019666266448347,0.0177358767679148,-2.248307712009501e-05,critical
800,1.9191919191919191,2.835443037974684,anode,0.0186868869100208,0.0196021436510419,0.0176121855329661,3.275286351454007e-05,critical
800,2.0202020202020203,2.835443037974684,anode,0.0185590139574409,0.0195187554791579,0.0174204406470446,-5.401422335994427e-05,critical
800,2.121212121212121,2.835443037974684,anode,0.0185389159272888,0.0194728435013389,0.017436782363643,2.661245648332669e-05,critical
800,2.2222222222222223,2.835443037974684,anode,0.0183835950564983,0.0192262858402802,0.0174050607739512,-4.095913267415007e-05,critical
800,2.323232323232323,2.835443037974684,anode,0.0183364840142988,0.019245646623549,0.0172667961814297,6.81434076960374e-06,critical
800,2.4242424242424243,2.835443037974684,anode,0.0183636221913925,0.0193714101991862,0.0171543915907009,-2.995695186699789e-05,critical
800,2.525252525252525,2.835443037974684,anode,0.0181396540235289,0.0189671181398339,0.0171796708374562,-3.283218472112165e-05,critical
800,2.6262626262626263,2.835443037974684,anode,0.0180741377700004,0.0189150169934232,0.0170955913419615,-1.5765806244912875e-05,critical
800,2.727272727272727,2.835443037974684,anode,0.0182273516705046,0.0190274840305312,0.0173048954774153,-1.1765066794123016e-05,critical
800,2.8282828282828283,2.835443037974684,anode,0.0180400550954139,0.0189000812514877,0.0170343648380381,-6.274446523020316e-05,critical
800,2.929292929292929,2.835443037974684,anode,0.0179632164967617,0.0188557801758926,0.016912527773888,2.589136617385184e-05,critical
800,3.0303030303030303,2.835443037974684,anode,0.0176684035490188,0.0184521714705362,0.0167633219519103,-1.3906856380357907e-05,critical
800,3.131313131313131,2.835443037974684,anode,0.017791241689251,0.0186826630023203,0.0167403945501169,-1.5537043971149693e-05,critical
800,3.2323232323232323,2.835443037974684,anode,0.0177508698817429,0.0186036736351942,0.0167529709006755,-2.219527681465196e-05,critical
800,3.333333333333333,2.835443037974684,anode,0.0178525405455663,0.0188271977415386,0.0166841151024149,-4.189891493580514e-05,critical
800,3.4343434343434343,2.835443037974684,anode,0.0176389437958171,0.018530376019321,0.0165864727108171,8.151753643650647e-07,critical
800,3.5353535353535355,2.835443037974684,anode,0.0177147973368066,0.0185856490287717,0.0166915453431995,-3.27231615048273e-05,critical
800,3.636363636363636,2.835443037974684,anode,0.0177532168055472,0.0186784581474413,0.0166537375980899,6.075337413411328e-05,critical
800,3.7373737373737375,2.835443037974684,anode,0.0175055520155594,0.0182944578944878,0.0165920472232716,3.483277426592893e-05,critical
800,3.8383838383838382,2.835443037974684,anode,0.017629793010803,0.0185009566093932,0.0166051138048188,4.038013997935081e-05,critical
800,3.939393939393939,2.835443037974684,anode,0.0176278302372939,0.0184813484530713,0.0166272544528359,5.369963502182369e-05,critical
800,4.040404040404041,2.835443037974684,anode,0.017583693651232,0.0185288178181253,0.0164519055984644,-0.0001130729222748,critical
800,4.141414141414141,2.835443037974684,anode,0.017499270762461,0.0183205505242676,0.0165415312373427,-5.6594499682382304e-05,critical
800,4.242424242424242,2.835443037974684,anode,0.0176009411805163,0.018350195381023,0.0167410758777667,2.484363555596738e-05,critical
800,4.343434343434343,2.835443037974684,anode,0.0175362037887626,0.0183691126917447,0.0165630101406728,-5.365664759706148e-05,critical
800,4.444444444444445,2.835443037974684,anode,0.0175430498520014,0.0184440715894071,0.016475837120657,3.2310148167071285e-05,critical
800,4.545454545454545,2.835443037974684,anode,0.0174321463076361,0.0183109351334024,0.0163940814921984,-6.93643368374925e-05,critical
800,4.646464646464646,2.835443037974684,anode,0.017437250558458,0.0183993618844921,0.016281712797725,6.916623712118557e-06,critical
800,4.747474747474747,2.835443037974684,anode,0.0175221182260956,0.018310716539891,0.0166093120199678,2.195046411470882e-05,critical
800,4.848484848484849,2.835443037974684,anode,0.0174405830481103,0.0183194144551131,0.0163988138515115,-0.0001511763444766,critical
800,4.94949494949495,2.835443037974684,anode,0.0175058133647781,0.0183355400481428,0.0165371266827425,-2.621931195585239e-05,critical
800,5.05050505050505,2.835443037974684,anode,0.0174781378880303,0.0183278379853786,0.0164816622734449,-3.513495998810762e-05,critical
800,5.151515151515151,2.835443037974684,anode,0.0174673674930356,0.018363380190929,0.0164065255695759,-1.12617542374355e-05,critical
800,5.252525252525253,2.835443037974684,anode,0.0174285346211081,0.0183708510500466,0.0163013912446143,1.5542302707819058e-05,critical
800,5.353535353535354,2.835443037974684,anode,0.0174560808027905,0.0182451396392084,0.0165421361580092,-1.7813879395339443e-05,critical
800,5.454545454545454,2.835443037974684,anode,0.0175397704153052,0.0184435222156315,0.0164683058504852,5.323446639148477e-05,critical
800,5.555555555555555,2.835443037974684,anode,0.0174705520597413,0.018271339570004,0.0165409321124458,1.7242119715996616e-05,critical
800,5.656565656565657,2.835443037974684,anode,0.0175021511292479,0.0183205650418612,0.0165482112698775,6.184755915110516e-05,critical
800,5.757575757575758,2.835443037974684,anode,0.0175872465864641,0.0185041883255722,0.0164979766084271,-3.954274421935022e-05,critical
800,5.858585858585858,2.835443037974684,anode,0.0176742377703456,0.0184580948096996,0.0167688005210086,-4.023144371541701e-05,critical
800,5.959595959595959,2.835443037974684,anode,0.0177524078182755,0.0186558869823309,0.0166840533127989,-3.6707471128503193e-05,critical
800,6.0606060606060606,2.835443037974684,anode,0.0175382073476533,0.0183831032925754,0.0165491769064255,-8.215869613503992e-06,critical
800,6.161616161616162,2.835443037974684,anode,0.0175342903333465,0.0183405722584522,0.0165977107967946,2.7430068986520516e-05,critical
800,6.262626262626262,2.835443037974684,anode,0.017761194920849,0.0186272256563032,0.0167452709280299,1.081919245623443e-05,critical
800,6.363636363636363,2.835443037974684,anode,0.0177238435112782,0.0186004496560009,0.0166917729112322,7.549876705873625e-05,critical
800,6.4646464646464645,2.835443037974684,anode,0.0176589913359518,0.0184670214182886,0.0167212798108331,6.553252881710775e-06,critical
800,6.565656565656566,2.835443037974684,anode,0.0176726099790919,0.0185243798770297,0.0166754061746045,1.7138054126506016e-05,critical
800,6.666666666666667,2.835443037974684,anode,0.0177406665410479,0.0185504589572267,0.0168012910971971,-2.5240245772804094e-07,critical
800,6.767676767676767,2.835443037974684,anode,0.0178060445842546,0.0186711068518187,0.0167905426199236,-8.303924688341686e-05,critical
800,6.8686868686868685,2.835443037974684,anode,0.0179155863298139,0.0187441754995512,0.0169481901137335,-0.0001447067648334,critical
800,6.96969696969697,2.835443037974684,anode,0.0178722229023404,0.0187812015774209,0.0167970962129451,-5.781430890550187e-05,critical
800,7.070707070707071,2.835443037974684,anode,0.0181106011744318,0.0189974151501536,0.0170694077465312,2.605777431244949e-05,critical
800,7.171717171717171,2.835443037974684,anode,0.0180962953247483,0.0190122765118089,0.0170145141987178,8.196763151573696e-06,critical
800,7.272727272727272,2.835443037974684,anode,0.0180253267443669,0.0190269109276909,0.0168201321015216,-4.9585501615457146e-05,critical
800,7.373737373737374,2.835443037974684,anode,0.0181792772764735,0.0191280823474101,0.0170518808125345,-4.370019490894167e-05,critical
800,7.474747474747475,2.835443037974684,anode,0.0182687604839796,0.0191883888946878,0.0171835464299234,-3.4856014287520406e-05,critical
800,7.575757575757575,2.835443037974684,anode,0.0181849077981514,0.01905330100494,0.0171695494473654,4.381003214858024e-05,critical
800,7.6767676767676765,2.835443037974684,anode,0.0183651318758938,0.0194001762263249,0.0171148764009108,8.917259947917285e-05,critical
800,7.777777777777778,2.835443037974684,anode,0.0184028715669894,0.0192925806967103,0.0173603409751326,4.6015882458795e-05,critical
800,7.878787878787879,2.835443037974684,anode,0.0185586589233976,0.0195180600515671,0.0174204920114465,5.721347397730954e-05,critical
800,7.979797979797979,2.835443037974684,anode,0.0185186858585209,0.0193682530802839,0.0175318563886769,-5.145099464937193e-05,critical
800,8.080808080808081,2.835443037974684,anode,0.0185765311981623,0.0195472027464071,0.017422746391528,-5.241004381792146e-05,critical
800,8.181818181818182,2.835443037974684,anode,0.0189639306570981,0.0198981975896938,0.0178631965112057,-0.0001211374072093,critical
800,8.282828282828282,2.835443037974684,anode,0.0189050486966594,0.0198983577242933,0.0177218149525418,-9.749245507843508e-05,critical
800,8.383838383838384,2.835443037974684,anode,0.0189395222314631,0.0199372051173032,0.0177522013111572,2.570278203174509e-05,critical
800,8.484848484848484,2.835443037974684,anode,0.0191662185537726,0.0200299704190043,0.018166157762272,2.905985953547736e-05,critical
800,8.585858585858587,2.835443037974684,anode,0.0192402922756777,0.0200834165442672,0.0182676164917419,7.203181744679775e-05,critical
800,8.686868686868687,2.835443037974684,anode,0.0193308931255197,0.0203086625263017,0.0181758876148699,-4.737271032847041e-05,critical
800,8.787878787878787,2.835443037974684,anode,0.01949582186037,0.0203856748606693,0.0184631320660655,-4.997334551671517e-05,critical
800,8.88888888888889,2.835443037974684,anode,0.0195391346816151,0.0205604788619336,0.0183251026816477,-5.161107801743361e-05,critical
800,8.98989898989899,2.835443037974684,anode,0.0197358110591962,0.0206466962569748,0.0186770699213379,3.173129954629122e-05,critical
800,9.09090909090909,2.835443037974684,anode,0.0199244155747878,0.0207599440167509,0.0189675882714475,3.52431132453752e-05,critical
800,9.191919191919192,2.835443037974684,anode,0.0199891501711766,0.0208775487115609,0.0189623522127276,5.97632264574599e-05,critical
800,9.292929292929292,2.835443037974684,anode,0.0201867828689488,0.0211316376815627,0.0190861653067222,1.0252963528996105e-05,critical
800,9.393939393939394,2.835443037974684,anode,0.0205588579860889,0.0215140827360258,0.0194470274223705,5.467201544697024e-05,critical
800,9.494949494949497,2.835443037974684,anode,0.0204953938457223,0.0215711166039435,0.0192132495663402,0.0001295957664732,critical
800,9.595959595959595,2.835443037974684,anode,0.0208652985281185,0.0217921831644068,0.0197943827696573,4.712150072560839e-05,critical
800,9.696969696969695,2.835443037974684,anode,0.0210085906153938,0.0219836678323969,0.0198741127988404,3.984541927587687e-05,critical
800,9.797979797979798,2.835443037974684,anode,0.0212576960339427,0.0223452766022822,0.0199702084475563,-5.434570215998294e-05,critical
800,9.8989898989899,2.835443037974684,anode,0.02131539932973,0.0223325996448678,0.0201263754715494,3.889204939665841e-05,critical
800,10.0,2.835443037974684,anode,0.0217425236192971,0.022785701246314,0.0205221900331428,2.1286210465315527e-05,critical
800,0.0,2.9367088607594938,anode,0.0216730225819432,0.0227403211105138,0.0204187489445361,-2.0839400694632563e-05,critical
800,0.101010101010101,2.9367088607594938,anode,0.0213592330271594,0.0222999996332498,0.0202736778508934,5.114327358032538e-05,critical
800,0.202020202020202,2.9367088607594938,anode,0.0213210479416503,0.0223518558749928,0.0201115775674808,0.0001112882562995,critical
800,0.303030303030303,2.9367088607594938,anode,0.0209684774258415,0.0220215842780321,0.0197263348827716,3.5259296377705034e-05,critical
800,0.404040404040404,2.9367088607594938,anode,0.0208462959196322,0.0218744146743931,0.0196377928272598,-1.084263952296991e-05,critical
800,0.5050505050505051,2.9367088607594938,anode,0.020679023270112,0.0217173592829009,0.0194544009994976,-3.0589070450393906e-05,critical
800,0.6060606060606061,2.9367088607594938,anode,0.0204382154926123,0.0215076201967603,0.0191662322178712,-7.855297551846577e-05,critical
800,0.7070707070707071,2.9367088607594938,anode,0.0201155076692799,0.0211322614152714,0.0189148274505358,-3.443397268423952e-05,critical
800,0.8080808080808081,2.9367088607594938,anode,0.0200307496375104,0.0209653303552552,0.0189423406171439,-4.47765561071287e-05,critical
800,0.9090909090909092,2.9367088607594938,anode,0.0198990244441442,0.0208594823046448,0.018773729667271,-5.923956366868469e-05,critical
800,1.0101010101010102,2.9367088607594938,anode,0.0196731107435426,0.0206637895373283,0.0185026836495133,-9.191818832508304e-05,critical
800,1.1111111111111112,2.9367088607594938,anode,0.0196215835609028,0.0205872490950504,0.0184867754692976,3.0002412730868496e-05,critical
800,1.2121212121212122,2.9367088607594938,anode,0.0193429724470006,0.0202865004847677,0.0182358915967622,3.246822021044784e-05,critical
800,1.3131313131313131,2.9367088607594938,anode,0.0193896611882115,0.0203900850002158,0.0182038025749304,2.6129935230957263e-05,critical
800,1.414141414141414,2.9367088607594938,anode,0.0192055255227426,0.0201744082145853,0.0180619035992686,-2.0964341551660047e-05,critical
800,1.5151515151515151,2.9367088607594938,anode,0.019018079795995,0.0200028972091584,0.0178500197315708,1.1072808563978264e-05,critical
800,1.616161616161616,2.9367088607594938,anode,0.0189949077777352,0.0198783894189911,0.0179664343299081,-4.889151716500696e-05,critical
800,1.7171717171717171,2.9367088607594938,anode,0.0188541109328587,0.0198270636558501,0.0177005121585143,4.507952124784507e-05,critical
800,1.818181818181818,2.9367088607594938,anode,0.0186846207582549,0.0196700238510428,0.0175077143417401,0.0001441200732213,critical
800,1.9191919191919191,2.9367088607594938,anode,0.0187196579940317,0.0196815410751934,0.0175798239093686,5.8748053835019945e-05,critical
800,2.0202020202020203,2.9367088607594938,anode,0.0185630991907878,0.0192822553010943,0.0177476985036075,-7.774627301701448e-05,critical
800,2.121212121212121,2.9367088607594938,anode,0.0184940165443975,0.0193838798726822,0.0174525745138349,-5.7651287128256285e-06,critical
800,2.2222222222222223,2.9367088607594938,anode,0.0183613109395483,0.0192582270568088,0.0173075258496105,-8.21413733065996e-05,critical
800,2.323232323232323,2.9367088607594938,anode,0.0182086110754653,0.0190414838781439,0.0172420078660368,-2.574601224362196e-05,critical
800,2.4242424242424243,2.9367088607594938,anode,0.0183193607459926,0.0192548858504135,0.0172126295390571,1.7798319580651325e-05,critical
800,2.525252525252525,2.9367088607594938,anode,0.0182469742494869,0.0190868739085092,0.0172711044914242,-3.491416577620703e-05,critical
800,2.6262626262626263,2.9367088607594938,anode,0.0180408828744422,0.018863103896429,0.0170871062623179,3.379633878997001e-05,critical
800,2.727272727272727,2.9367088607594938,anode,0.0180548773896312,0.0189590184106892,0.0169884980783625,5.887652862906498e-05,critical
800,2.8282828282828283,2.9367088607594938,anode,0.0181159280100495,0.0190000909038988,0.0170784321206899,-2.7763267327771985e-05,critical
800,2.929292929292929,2.9367088607594938,anode,0.0178915514618781,0.0188204834397507,0.0167891995041929,-1.4697515042689424e-05,critical
800,3.0303030303030303,2.9367088607594938,anode,0.0178943918701643,0.0187676888840488,0.0168690047875579,-6.331263254783732e-05,critical
800,3.131313131313131,2.9367088607594938,anode,0.0179227102018233,0.0188466435419339,0.0168277390662004,1.9713777323873657e-05,critical
800,3.2323232323232323,2.9367088607594938,anode,0.0178676169612309,0.018670307974295,0.0169376620518196,-7.811766465946065e-05,critical
800,3.333333333333333,2.9367088607594938,anode,0.0178076911029302,0.0186532592825787,0.0168203139178159,1.2870946437213594e-05,critical
800,3.4343434343434343,2.9367088607594938,anode,0.0177593400969541,0.0186253114457734,0.0167433400422935,-2.841000738213039e-05,critical
800,3.5353535353535355,2.9367088607594938,anode,0.0176724494725916,0.018516438213261,0.0166830173461155,-0.000121076263997,critical
800,3.636363636363636,2.9367088607594938,anode,0.0176536228451512,0.0184267038351611,0.0167627102527634,-3.0339355125825096e-06,critical
800,3.7373737373737375,2.9367088607594938,anode,0.0176193613667733,0.0184997076139792,0.0165821351145063,-7.290366783324116e-06,critical
800,3.8383838383838382,2.9367088607594938,anode,0.0176703584072736,0.0184166084969725,0.0168134002760341,9.215793547533683e-05,critical
800,3.939393939393939,2.9367088607594938,anode,0.017748318640697,0.0185708931811524,0.0167895058030838,-0.0001054431087704,critical
800,4.040404040404041,2.9367088607594938,anode,0.0176375361196884,0.0184538118736281,0.0166869392118623,8.794772698111244e-05,critical
800,4.141414141414141,2.9367088607594938,anode,0.0175644840642787,0.0184741061619998,0.0164853134036616,3.818322318749152e-05,critical
800,4.242424242424242,2.9367088607594938,anode,0.0175951732370854,0.0184628321654167,0.0165752701279346,1.633329119129703e-05,critical
800,4.343434343434343,2.9367088607594938,anode,0.0174452369448288,0.018245012947099,0.0165168227520403,-1.385040005187472e-06,critical
800,4.444444444444445,2.9367088607594938,anode,0.0175116208092879,0.0182558005073744,0.0166576288253204,3.813083628151287e-05,critical
800,4.545454545454545,2.9367088607594938,anode,0.0175949046559774,0.01840526285941,0.0166534535872106,-1.4643965488936852e-05,critical
800,4.646464646464646,2.9367088607594938,anode,0.0174876419272185,0.018365637895926,0.0164518825139991,4.4134470024832194e-05,critical
800,4.747474747474747,2.9367088607594938,anode,0.0173883065033201,0.0182854515102748,0.0163238860546548,-7.26569681915269e-05,critical
800,4.848484848484849,2.9367088607594938,anode,0.0174929623550636,0.0184161760857641,0.0163928628235397,-7.322816056189613e-05,critical
800,4.94949494949495,2.9367088607594938,anode,0.0174523068064553,0.0183310421668759,0.0164146371284159,-6.582613526928045e-05,critical
800,5.05050505050505,2.9367088607594938,anode,0.0174708982193444,0.0182854636658855,0.0165221075493181,-5.311158049417996e-05,critical
800,5.151515151515151,2.9367088607594938,anode,0.0175957077361634,0.0184444717284607,0.0166000377955828,9.672364709923557e-05,critical
800,5.252525252525253,2.9367088607594938,anode,0.0175120059799677,0.0183526960241967,0.0165283842480884,-2.4685418704316808e-05,critical
800,5.353535353535354,2.9367088607594938,anode,0.0176283316290493,0.0184828400884844,0.0166249936744696,-9.896660781043408e-05,critical
800,5.454545454545454,2.9367088607594938,anode,0.0174032760848905,0.0181837402820793,0.0165002254835724,-3.643085278640075e-05,critical
800,5.555555555555555,2.9367088607594938,anode,0.0173031209190048,0.0180506801079414,0.0164429867106963,4.554244996928267e-05,critical
800,5.656565656565657,2.9367088607594938,anode,0.0174082821632951,0.0182354799774662,0.0164418951261568,4.27858754747863e-05,critical
800,5.757575757575758,2.9367088607594938,anode,0.017453034830614,0.0182877569511543,0.0164741977244168,-0.0001201440529088,critical
800,5.858585858585858,2.9367088607594938,anode,0.0175245241483554,0.0183371826629625,0.016579365765463,-7.481171813322119e-06,critical
800,5.959595959595959,2.9367088607594938,anode,0.0175710683247275,0.0184724169314742,0.0165038309321455,2.210045503570596e-05,critical
800,6.0606060606060606,2.9367088607594938,anode,0.0175840468004963,0.0184955437079464,0.016501978660895,-6.14618988673024e-05,critical
800,6.161616161616162,2.9367088607594938,anode,0.0177082522704213,0.0185781163302539,0.0166863152242592,-3.152611967171121e-05,critical
800,6.262626262626262,2.9367088607594938,anode,0.0176688424923833,0.0184913373722446,0.0167115238338507,2.472227847400732e-05,critical
800,6.363636363636363,2.9367088607594938,anode,0.0175682844333808,0.0182872885018754,0.01674784417824,-2.6273146419371382e-05,critical
800,6.4646464646464645,2.9367088607594938,anode,0.0176665084405372,0.0185744042866019,0.0165899252651036,8.038352704475615e-05,critical
800,6.565656565656566,2.9367088607594938,anode,0.0176732650408947,0.0185072918422531,0.0167002990489265,-2.426176136593513e-05,critical
800,6.666666666666667,2.9367088607594938,anode,0.0177230216585001,0.0185689039859626,0.0167343250304429,2.4097049910440747e-05,critical
800,6.767676767676767,2.9367088607594938,anode,0.0179072729240984,0.0188093114798111,0.0168409293843106,-9.934637262453604e-05,critical
800,6.8686868686868685,2.9367088607594938,anode,0.0178854514898672,0.0187404491599974,0.0168857720026675,-2.9415954704371865e-05,critical
800,6.96969696969697,2.9367088607594938,anode,0.0179313050745342,0.0186905818783677,0.0170606842012019,-1.8441569408272047e-05,critical
800,7.070707070707071,2.9367088607594938,anode,0.0178952128084998,0.0187291433455023,0.0169245311276494,-3.943750748075795e-06,critical
800,7.171717171717171,2.9367088607594938,anode,0.0180132326884055,0.0189344431866139,0.0169218496159071,-8.209515002330866e-05,critical
800,7.272727272727272,2.9367088607594938,anode,0.0180537200577353,0.0189580122657909,0.0169875369139954,3.697580261948616e-05,critical
800,7.373737373737374,2.9367088607594938,anode,0.0182240675702077,0.0190774250784404,0.0172292153795538,-6.243436203352552e-05,critical
800,7.474747474747475,2.9367088607594938,anode,0.018236576960729,0.0190849765079832,0.0172491946406173,2.6892887736304375e-05,critical
800,7.575757575757575,2.9367088607594938,anode,0.0183174322481703,0.019254896677908,0.0172079815639979,-1.3609220291319686e-05,critical
800,7.6767676767676765,2.9367088607594938,anode,0.0184534559201641,0.0194194857724273,0.0173053146595104,1.1669057203848026e-06,critical
800,7.777777777777778,2.9367088607594938,anode,0.0183125721715059,0.0191565761215546,0.0173319477231082,9.216862603052756e-06,critical
800,7.878787878787879,2.9367088607594938,anode,0.01838128495976,0.0192833434461661,0.0173219046756472,-7.250727483967486e-06,critical
800,7.979797979797979,2.9367088607594938,anode,0.0186922791883104,0.0196257499460735,0.0175914831129918,-7.530150377480952e-05,critical
800,8.080808080808081,2.9367088607594938,anode,0.0186041996129316,0.0195616729817107,0.0174699110135986,-5.441781604595575e-06,critical
800,8.181818181818182,2.9367088607594938,anode,0.018710749483668,0.0196559105654083,0.0175949330866233,5.382611330276516e-06,critical
800,8.282828282828282,2.9367088607594938,anode,0.0188343267684675,0.0197789882500616,0.0177205070641833,-1.6522925293676757e-05,critical
800,8.383838383838384,2.9367088607594938,anode,0.0188926303172181,0.019788330627454,0.0178462935778669,-6.222166733821084e-05,critical
800,8.484848484848484,2.9367088607594938,anode,0.0189614094041756,0.0198904707933481,0.0178696462119872,-7.220003954827127e-05,critical
800,8.585858585858587,2.9367088607594938,anode,0.0191567320620307,0.0201004333844211,0.0180476911805102,-8.53276560434555e-06,critical
800,8.686868686868687,2.9367088607594938,anode,0.0193344459661988,0.0202824361906746,0.0182212100052976,2.322486634475615e-05,critical
800,8.787878787878787,2.9367088607594938,anode,0.0193936624269089,0.0202489173277213,0.0184064087859343,-5.61391001950924e-05,critical
800,8.88888888888889,2.9367088607594938,anode,0.0195495803680861,0.0204427175049257,0.0185133151200653,-1.8510595056073695e-05,critical
800,8.98989898989899,2.9367088607594938,anode,0.0196976301775714,0.0206062476690089,0.0186406726738684,7.922902707100139e-05,critical
800,9.09090909090909,2.9367088607594938,anode,0.0198617188916477,0.0208968847998076,0.018631902029345,-5.483329833712391e-05,critical
800,9.191919191919192,2.9367088607594938,anode,0.0198821444218121,0.0207345141366539,0.0189030400870489,-2.4293185384605868e-06,critical
800,9.292929292929292,2.9367088607594938,anode,0.0202298588311506,0.0212167101574771,0.0190721086385912,1.2537630976451462e-05,critical
800,9.393939393939394,2.9367088607594938,anode,0.0203415128975274,0.0212739551643329,0.0192587976371001,4.277713595403716e-05,critical
800,9.494949494949497,2.9367088607594938,anode,0.0205891502243233,0.0216140315942679,0.0193822410279609,3.581378613352441e-05,critical
800,9.595959595959595,2.9367088607594938,anode,0.0206746412263863,0.0216367708011462,0.0195546550649019,-4.469961193348255e-05,critical
800,9.696969696969695,2.9367088607594938,anode,0.0210453277652134,0.0219709887118005,0.0199778249381703,-1.357342852773574e-05,critical
800,9.797979797979798,2.9367088607594938,anode,0.0211948356210256,0.0223203190845435,0.0198534136843057,1.738195834195736e-05,critical
800,9.8989898989899,2.9367088607594938,anode,0.021394525690825,0.0224311363532735,0.0201786907840974,8.417062955746668e-05,critical
800,10.0,2.9367088607594938,anode,0.0217519047579859,0.0228766023166388,0.0204181992261948,-2.9388919829285423e-05,critical
800,0.0,3.037974683544304,anode-electrolyte interface,0.0178596920369669,0.0187422050458178,0.0168218246650961,2.9730627366982263e-05,critical
800,0.101010101010101,3.037974683544304,anode-electrolyte interface,0.0176506870692822,0.0186095718111376,0.0165026523051361,1.0817675172053964e-05,critical
800,0.202020202020202,3.037974683544304,anode-electrolyte interface,0.0174129666838621,0.0181966080285082,0.0165056086981221,4.411442040553595e-05,critical
800,0.303030303030303,3.037974683544304,anode-electrolyte interface,0.0172537789128388,0.0180865710733594,0.0162783177774955,-3.721717218001794e-05,critical
800,0.404040404040404,3.037974683544304,anode-electrolyte interface,0.0169582690458923,0.0177610106134716,0.016020255525746,7.468229179601549e-05,critical
800,0.5050505050505051,3.037974683544304,anode-electrolyte interface,0.0169381480098082,0.0177031447380934,0.0160517837324888,-4.765889395318136e-05,critical
800,0.6060606060606061,3.037974683544304,anode-electrolyte interface,0.016643446443187,0.0175437871418918,0.015566130340767,-3.7884749964260295e-05,critical
800,0.7070707070707071,3.037974683544304,anode-electrolyte interface,0.016579710755974,0.0174633531362674,0.0155257097546576,-2.1561854332869012e-05,critical
800,0.8080808080808081,3.037974683544304,anode-electrolyte interface,0.0164911066495288,0.0172714793587258,0.0155800594182163,-4.091642512581767e-05,critical
800,0.9090909090909092,3.037974683544304,anode-electrolyte interface,0.0165329933692991,0.0174364543471912,0.0154483678372732,8.683556325706587e-05,critical
800,1.0101010101010102,3.037974683544304,anode-electrolyte interface,0.0162178508393318,0.0170087452031445,0.0152894796505336,5.147213430970746e-05,critical
800,1.1111111111111112,3.037974683544304,anode-electrolyte interface,0.0160942644647927,0.0169230104554503,0.0151119255948038,4.489041238969691e-05,critical
800,1.2121212121212122,3.037974683544304,anode-electrolyte interface,0.0158787081715455,0.0167060619811694,0.0148960746359682,-2.9285165222265518e-05,critical
800,1.3131313131313131,3.037974683544304,anode-electrolyte interface,0.0159376996842137,0.0167982488995179,0.0149085871458087,2.0753034362736627e-05,critical
800,1.414141414141414,3.037974683544304,anode-electrolyte interface,0.0157627606748416,0.0165534042570033,0.0148304877337109,1.93559762888614e-05,critical
800,1.5151515151515151,3.037974683544304,anode-electrolyte interface,0.0156424650201921,0.0164895438903756,0.0146286771134412,-3.499250497347896e-05,critical
800,1.616161616161616,3.037974683544304,anode-electrolyte interface,0.0154832811540313,0.0161601087907294,0.014703335318905,-2.7736897752366875e-05,critical
800,1.7171717171717171,3.037974683544304,anode-electrolyte interface,0.0154421799187005,0.0161192929817452,0.0146616838225495,1.0312438391882113e-05,critical
800,1.818181818181818,3.037974683544304,anode-electrolyte interface,0.0153956603579524,0.0160901038713483,0.0145914052728527,-3.180093895556383e-05,critical
800,1.9191919191919191,3.037974683544304,anode-electrolyte interface,0.0152364636917782,0.0160084804432868,0.0143225745324495,9.109114564300124e-05,critical
800,2.0202020202020203,3.037974683544304,anode-electrolyte interface,0.0151931983685661,0.0159530649408386,0.0142975732812165,2.89193123290638e-05,critical
800,2.121212121212121,3.037974683544304,anode-electrolyte interface,0.0152396585574186,0.0159771053650629,0.0143757481048441,-1.3783018919633443e-06,critical
800,2.2222222222222223,3.037974683544304,anode-electrolyte interface,0.0150500874991772,0.0157145042306379,0.0142809195572029,0.000103919709259,critical
800,2.323232323232323,3.037974683544304,anode-electrolyte interface,0.014989550747673,0.0157688945955452,0.014063185427538,-7.370926397163705e-05,high
800,2.4242424242424243,3.037974683544304,anode-electrolyte interface,0.0149139625010298,0.0156795035774276,0.0140073565401488,2.4527442285092808e-05,high
800,2.525252525252525,3.037974683544304,anode-electrolyte interface,0.0148098011810255,0.0155094919531154,0.013992614537316,-6.041897437574653e-05,high
800,2.6262626262626263,3.037974683544304,anode-electrolyte interface,0.0148779038697887,0.0155646231979648,0.014079146939836,-5.405792535777985e-05,high
800,2.727272727272727,3.037974683544304,anode-electrolyte interface,0.0147570319089004,0.0154969263596884,0.0138845447224112,-2.8572218844416744e-05,high
800,2.8282828282828283,3.037974683544304,anode-electrolyte interface,0.0147664053739675,0.01542163851094,0.0140093423946409,4.136488883151964e-05,high
800,2.929292929292929,3.037974683544304,anode-electrolyte interface,0.0147620945219231,0.0154758636388773,0.0139257562908144,3.413921885856861e-05,high
800,3.0303030303030303,3.037974683544304,anode-electrolyte interface,0.0147873382227659,0.015440529479321,0.0140322945073319,-7.345968319662577e-05,high
800,3.131313131313131,3.037974683544304,anode-electrolyte interface,0.0145642089685666,0.0152137761235889,0.0138126066486488,-6.055781488975385e-05,high
800,3.2323232323232323,3.037974683544304,anode-electrolyte interface,0.0145950613016711,0.0153145684799653,0.0137485107004353,5.991330224961076e-05,high
800,3.333333333333333,3.037974683544304,anode-electrolyte interface,0.0146157498304243,0.0153564432397631,0.0137391712318275,8.118122720196806e-05,high
800,3.4343434343434343,3.037974683544304,anode-electrolyte interface,0.0146001497491831,0.015211149513758,0.0138989870848347,8.762005379590621e-05,high
800,3.5353535353535355,3.037974683544304,anode-electrolyte interface,0.0144425163508434,0.0150939010978095,0.0136875077846179,5.901303942782404e-05,high
800,3.636363636363636,3.037974683544304,anode-electrolyte interface,0.014484173268352,0.0153194348350485,0.0134715340415283,-9.129578650942128e-06,high
800,3.7373737373737375,3.037974683544304,anode-electrolyte interface,0.0145336655229236,0.0150826415987609,0.0139134706621925,5.34835195095159e-05,high
800,3.8383838383838382,3.037974683544304,anode-electrolyte interface,0.0144184998434874,0.0150861877830775,0.0136417862675145,-3.7827107359751245e-05,high
800,3.939393939393939,3.037974683544304,anode-electrolyte interface,0.0144277638182454,0.0152091023367313,0.0134913937694229,7.715259462656032e-05,high
800,4.040404040404041,3.037974683544304,anode-electrolyte interface,0.0143997035991944,0.0149246037191967,0.0138099883254154,1.2821141908682374e-05,high
800,4.141414141414141,3.037974683544304,anode-electrolyte interface,0.0142851203773515,0.015028993500963,0.0134010253024651,-5.90524148887458e-05,high
800,4.242424242424242,3.037974683544304,anode-electrolyte interface,0.0144336899680899,0.0151026513619455,0.013655715818656,9.460823405253416e-06,high
800,4.343434343434343,3.037974683544304,anode-electrolyte interface,0.0145321901047213,0.0152067519134898,0.013746999837569,-4.6393361268786806e-05,high
800,4.444444444444445,3.037974683544304,anode-electrolyte interface,0.0144348897798113,0.0151890129030816,0.0135388687665493,-1.8392894671646903e-05,high
800,4.545454545454545,3.037974683544304,anode-electrolyte interface,0.0144905043236221,0.0152680114207072,0.0135619533924068,-2.7248618549704027e-06,high
800,4.646464646464646,3.037974683544304,anode-electrolyte interface,0.0142057339483001,0.0148568310758817,0.0134492678293259,5.20976078953063e-05,high
800,4.747474747474747,3.037974683544304,anode-electrolyte interface,0.0142792685888254,0.0150076775680562,0.0134170894534792,5.224449571501511e-05,high
800,4.848484848484849,3.037974683544304,anode-electrolyte interface,0.014330694597973,0.0150735998589252,0.0134493890386848,-3.5663070720990434e-06,high
800,4.94949494949495,3.037974683544304,anode-electrolyte interface,0.0142644153402425,0.0148944501678809,0.0135372153271219,-2.632795905680812e-05,high
800,5.05050505050505,3.037974683544304,anode-electrolyte interface,0.0143404970295187,0.0149974463045214,0.013577939409213,-1.2083212750564132e-05,high
800,5.151515151515151,3.037974683544304,anode-electrolyte interface,0.0142937439017799,0.0150241807823585,0.0134294023154712,-2.600118304493748e-05,high
800,5.252525252525253,3.037974683544304,anode-electrolyte interface,0.0143589542941817,0.0150761927247655,0.013513824725494,2.272037998637119e-05,high
800,5.353535353535354,3.037974683544304,anode-electrolyte interface,0.0143255116152064,0.0149589567881081,0.0135930940794703,-7.347368481728805e-05,high
800,5.454545454545454,3.037974683544304,anode-electrolyte interface,0.01429957711032,0.0149389386798688,0.0135592741210718,-6.649962647320495e-05,high
800,5.555555555555555,3.037974683544304,anode-electrolyte interface,0.0142946052819639,0.0149037963974551,0.0135909977676212,0.0001351990603574,high
800,5.656565656565657,3.037974683544304,anode-electrolyte interface,0.0143713001932525,0.0151059681572488,0.0135019679448206,-1.9619110198115267e-05,high
800,5.757575757575758,3.037974683544304,anode-electrolyte interface,0.0143501688885366,0.0150513387684298,0.0135269966864426,-3.794161976653151e-05,high
800,5.858585858585858,3.037974683544304,anode-electrolyte interface,0.0144630549850707,0.0150841174897395,0.0137493352397628,-2.3997804953835447e-05,high
800,5.959595959595959,3.037974683544304,anode-electrolyte interface,0.0144724738324756,0.0151437696001098,0.0136915485355453,2.5141733608815655e-05,high
800,6.0606060606060606,3.037974683544304,anode-electrolyte interface,0.0144995265855252,0.0151950169215809,0.0136854291701814,4.860797319802562e-05,high
800,6.161616161616162,3.037974683544304,anode-electrolyte interface,0.0145579821402549,0.0151858799322364,0.0138360522989344,-7.754753217096115e-06,high
800,6.262626262626262,3.037974683544304,anode-electrolyte interface,0.014511823691325,0.0151047125367304,0.0138345141145925,-6.649318321035347e-05,high
800,6.363636363636363,3.037974683544304,anode-electrolyte interface,0.0145009739956707,0.0151372214220396,0.0137673772752462,-2.5400921606961947e-05,high
800,6.4646464646464645,3.037974683544304,anode-electrolyte interface,0.0144819047055776,0.0151740695738145,0.0136725370076847,-3.12839102405605e-05,high
800,6.565656565656566,3.037974683544304,anode-electrolyte interface,0.0146300482312439,0.0153710770718034,0.0137544711874413,-3.586994614647652e-05,high
800,6.666666666666667,3.037974683544304,anode-electrolyte interface,0.0145939941357308,0.0152595397523258,0.0138209736781319,6.707017871901544e-05,high
800,6.767676767676767,3.037974683544304,anode-electrolyte interface,0.0145490502028103,0.015198699217249,0.0137980003304167,-2.0392897586764623e-05,high
800,6.8686868686868685,3.037974683544304,anode-electrolyte interface,0.0145526433654127,0.0152331716774248,0.013757860140538,9.493744467725594e-05,high
800,6.96969696969697,3.037974683544304,anode-electrolyte interface,0.014679772897612,0.0153504110630258,0.0139014651375651,3.206135060367421e-05,high
800,7.070707070707071,3.037974683544304,anode-electrolyte interface,0.0147958034712815,0.0155309133362368,0.0139302328392104,-3.822445922676909e-05,high
800,7.171717171717171,3.037974683544304,anode-electrolyte interface,0.014795465196429,0.0154613641810472,0.0140246289898013,-2.370691591246879e-05,high
800,7.272727272727272,3.037974683544304,anode-electrolyte interface,0.0146847816212386,0.0152774046494655,0.0140098425777706,2.6226716385112472e-05,high
800,7.373737373737374,3.037974683544304,anode-electrolyte interface,0.014855535114375,0.0155719336020652,0.0140166829811511,-2.0512897513886917e-05,high
800,7.474747474747475,3.037974683544304,anode-electrolyte interface,0.0148466271330126,0.0155692141842881,0.0139992541408801,-7.671357195892296e-06,high
800,7.575757575757575,3.037974683544304,anode-electrolyte interface,0.0149542325122117,0.0157507248037613,0.014003925343208,-4.392197860435845e-05,high
800,7.6767676767676765,3.037974683544304,anode-electrolyte interface,0.0149937911789814,0.0156870614204473,0.0141878865916822,3.471974092348775e-07,high
800,7.777777777777778,3.037974683544304,anode-electrolyte interface,0.015222984697286,0.0159924823121062,0.0143142738468653,2.650870523299812e-05,critical
800,7.878787878787879,3.037974683544304,anode-electrolyte interface,0.0151340128061539,0.0157943738653879,0.0143734243146748,1.6969904168737128e-06,critical
800,7.979797979797979,3.037974683544304,anode-electrolyte interface,0.0152405586088719,0.0160451840166157,0.0142818225556864,-5.975525061207986e-05,critical
800,8.080808080808081,3.037974683544304,anode-electrolyte interface,0.0153119036996083,0.0160732717224604,0.0144142921844865,7.604128368935984e-05,critical
800,8.181818181818182,3.037974683544304,anode-electrolyte interface,0.0153344483905051,0.0160465732052216,0.0145026071345279,-0.0001215581655563,critical
800,8.282828282828282,3.037974683544304,anode-electrolyte interface,0.0154282495833543,0.0162400485609312,0.0144601323962601,9.921582577878708e-05,critical
800,8.383838383838384,3.037974683544304,anode-electrolyte interface,0.0155010548215868,0.0162899949974694,0.0145683527093254,9.231417959722684e-06,critical
800,8.484848484848484,3.037974683544304,anode-electrolyte interface,0.0156525455348858,0.0164539271355139,0.0147033029084985,-5.894016637205071e-05,critical
800,8.585858585858587,3.037974683544304,anode-electrolyte interface,0.0157293377296431,0.0165271309594714,0.0147867942967166,-1.6228417362822574e-06,critical
800,8.686868686868687,3.037974683544304,anode-electrolyte interface,0.015856771587848,0.0166699349737962,0.0148939256277045,2.7229110565998407e-05,critical
800,8.787878787878787,3.037974683544304,anode-electrolyte interface,0.0159370288525973,0.0167509938236749,0.0149740437458303,2.0188837882533528e-05,critical
800,8.88888888888889,3.037974683544304,anode-electrolyte interface,0.0160696968832369,0.0167781546534206,0.0152524075950624,-3.493150382592691e-07,critical
800,8.98989898989899,3.037974683544304,anode-electrolyte interface,0.0161599256321293,0.0168666050276312,0.0153456595963071,-1.5728228285408615e-05,critical
800,9.09090909090909,3.037974683544304,anode-electrolyte interface,0.0162627087291116,0.0170266653674638,0.0153719966360736,3.616556869500861e-05,critical
800,9.191919191919192,3.037974683544304,anode-electrolyte interface,0.0163460524518465,0.0170513309433506,0.0155347223288635,4.33494577838614e-05,critical
800,9.292929292929292,3.037974683544304,anode-electrolyte interface,0.0166432043307117,0.0174324157739054,0.0157216502295003,3.259955690748932e-05,critical
800,9.393939393939394,3.037974683544304,anode-electrolyte interface,0.0167640825931877,0.017558235108873,0.0158371413006399,-4.118470610611696e-06,critical
800,9.494949494949497,3.037974683544304,anode-electrolyte interface,0.0167395591659375,0.0176436294660494,0.0156583571565026,-2.0681799359720063e-05,critical
800,9.595959595959595,3.037974683544304,anode-electrolyte interface,0.0169881640150474,0.0177428474108029,0.0161164816873459,-1.11916358668414e-05,critical
800,9.696969696969695,3.037974683544304,anode-electrolyte interface,0.0172130275115638,0.0180321270847879,0.0162545023113013,9.149663231656028e-05,critical
800,9.797979797979798,3.037974683544304,anode-electrolyte interface,0.0174160802641886,0.0182742200635169,0.0164075597810304,4.933375769618268e-06,critical
800,9.8989898989899,3.037974683544304,anode-electrolyte interface,0.0175872951933383,0.0185399600130617,0.0164471532498641,3.439228768179824e-05,critical
800,10.0,3.037974683544304,anode-electrolyte interface,0.0176450001880676,0.0185436364715275,0.0165825049924315,4.10656651283958e-06,critical
800,0.0,3.1392405063291138,anode-electrolyte interface,0.0178707245729937,0.0187791841675244,0.0167969592014737,-1.1411235636999054e-05,critical
800,0.101010101010101,3.1392405063291138,anode-electrolyte interface,0.0175682498843144,0.0183897058203508,0.0166115460563813,-5.9624785366744535e-06,critical
800,0.202020202020202,3.1392405063291138,anode-electrolyte interface,0.0173370639510569,0.0182273218020634,0.0162828332077516,1.0162391677698267e-05,critical
800,0.303030303030303,3.1392405063291138,anode-electrolyte interface,0.0173434032457462,0.0182779030028982,0.0162264105831998,9.242502410412766e-06,critical
800,0.404040404040404,3.1392405063291138,anode-electrolyte interface,0.0170599110916169,0.0178768102064597,0.0161043422341321,3.938748317915709e-05,critical
800,0.5050505050505051,3.1392405063291138,anode-electrolyte interface,0.0167806142741923,0.0176055527477593,0.0158092241242399,0.0001034241672241,critical
800,0.6060606060606061,3.1392405063291138,anode-electrolyte interface,0.0166884650495745,0.0175127749334386,0.0157190569709759,-3.232482744066477e-05,critical
800,0.7070707070707071,3.1392405063291138,anode-electrolyte interface,0.0164809123823533,0.0172098985295569,0.0156376030284522,-9.45135737335012e-05,critical
800,0.8080808080808081,3.1392405063291138,anode-electrolyte interface,0.0163983410115644,0.017157930829092,0.0155132363060063,-9.225396734324164e-05,critical
800,0.9090909090909092,3.1392405063291138,anode-electrolyte interface,0.0162630339694114,0.0170951662940774,0.0152779011963545,-4.304988835898239e-05,critical
800,1.0101010101010102,3.1392405063291138,anode-electrolyte interface,0.0162990701164802,0.0170907327507569,0.0153702321414587,-6.064780451591823e-05,critical
800,1.1111111111111112,3.1392405063291138,anode-electrolyte interface,0.0160356801914914,0.01678166180838,0.0151672344778968,-4.188882871763512e-05,critical
800,1.2121212121212122,3.1392405063291138,anode-electrolyte interface,0.0158886601400321,0.0167793495195766,0.0148152362934806,-2.4168140830427384e-05,critical
800,1.3131313131313131,3.1392405063291138,anode-electrolyte interface,0.0158892379934734,0.0166344221911195,0.0150209323523331,-1.1691047366042388e-06,critical
800,1.414141414141414,3.1392405063291138,anode-electrolyte interface,0.0157134276498908,0.0163942142590642,0.0149272706898987,0.0001140337376816,critical
800,1.5151515151515151,3.1392405063291138,anode-electrolyte interface,0.0155899648565218,0.0163721679294078,0.0146675905996104,-1.96971884660066e-05,critical
800,1.616161616161616,3.1392405063291138,anode-electrolyte interface,0.0155968411416875,0.0163203784107883,0.0147552016630649,2.000565511294837e-05,critical
800,1.7171717171717171,3.1392405063291138,anode-electrolyte interface,0.0154634747870086,0.0162172322563311,0.0145793257449544,-1.0003011935124922e-06,critical
800,1.818181818181818,3.1392405063291138,anode-electrolyte interface,0.0153684443145756,0.0160425390359348,0.0145901568560548,-7.41749061523745e-05,critical
800,1.9191919191919191,3.1392405063291138,anode-electrolyte interface,0.0154037822327815,0.0161438834358628,0.0145378301979548,-4.616846419420077e-06,critical
800,2.0202020202020203,3.1392405063291138,anode-electrolyte interface,0.0151661650263037,0.0158523449339615,0.0143713174911434,3.525791530851866e-06,critical
800,2.121212121212121,3.1392405063291138,anode-electrolyte interface,0.0150917573147756,0.0158473675925126,0.0142007859945352,-4.013365703031977e-05,critical
800,2.2222222222222223,3.1392405063291138,anode-electrolyte interface,0.015120039447618,0.0158910218059319,0.014208054475667,-3.005755640524594e-05,critical
800,2.323232323232323,3.1392405063291138,anode-electrolyte interface,0.0152190926125395,0.0160687193148049,0.0141961167256874,1.553991643059515e-05,critical
800,2.4242424242424243,3.1392405063291138,anode-electrolyte interface,0.015007474870105,0.0158114384208612,0.0140469767887483,5.186081074626317e-05,critical
800,2.525252525252525,3.1392405063291138,anode-electrolyte interface,0.0149094921687853,0.0156555473162238,0.0140284801531526,8.577949548678991e-05,high
800,2.6262626262626263,3.1392405063291138,anode-electrolyte interface,0.01491530998609,0.0156318630064114,0.0140767341124356,-2.8675663350603514e-05,high
800,2.727272727272727,3.1392405063291138,anode-electrolyte interface,0.0147580931289406,0.0155429633895017,0.0138221522369538,3.117475826291731e-05,high
800,2.8282828282828283,3.1392405063291138,anode-electrolyte interface,0.0148717766886312,0.0156302689402887,0.0139747416238591,-6.400795655291273e-07,high
800,2.929292929292929,3.1392405063291138,anode-electrolyte interface,0.0146220808969572,0.015314279288108,0.0138099632231165,0.000132475376911,high
800,3.0303030303030303,3.1392405063291138,anode-electrolyte interface,0.0147194517098485,0.015359895542008,0.0139808347231707,-7.368617809779217e-05,high
800,3.131313131313131,3.1392405063291138,anode-electrolyte interface,0.0146613643534873,0.0154144109594721,0.0137689681393322,5.029659966248485e-05,high
800,3.2323232323232323,3.1392405063291138,anode-electrolyte interface,0.0145981281813871,0.015301052096092,0.0137750150153835,3.801251407410518e-05,high
800,3.333333333333333,3.1392405063291138,anode-electrolyte interface,0.0145574708849135,0.0153138921932514,0.0136594493386522,-3.3876317536155456e-05,high
800,3.4343434343434343,3.1392405063291138,anode-electrolyte interface,0.0144267545503209,0.015105003381154,0.0136361076620129,-6.828396839453369e-06,high
800,3.5353535353535355,3.1392405063291138,anode-electrolyte interface,0.0146106871309667,0.0151862614681841,0.0139573833763918,-2.2830600360264605e-05,high
800,3.636363636363636,3.1392405063291138,anode-electrolyte interface,0.0144917440901866,0.0151772999449694,0.013689813734213,-8.87361507631099e-05,high
800,3.7373737373737375,3.1392405063291138,anode-electrolyte interface,0.0142679472891107,0.0149812507508891,0.013427363116182,-1.8790926753401205e-05,high
800,3.8383838383838382,3.1392405063291138,anode-electrolyte interface,0.0143713224659732,0.0150908787175131,0.0135229883545429,3.083328257339256e-05,high
800,3.939393939393939,3.1392405063291138,anode-electrolyte interface,0.0143570489983927,0.0151559703040184,0.0133957505288238,1.7176246871771106e-05,high
800,4.040404040404041,3.1392405063291138,anode-electrolyte interface,0.0145052979394104,0.0151382606904932,0.0137761661162293,-1.977118108268777e-05,high
800,4.141414141414141,3.1392405063291138,anode-electrolyte interface,0.0143619315919249,0.0150353885416456,0.0135772114414425,7.053637581181373e-06,high
800,4.242424242424242,3.1392405063291138,anode-electrolyte interface,0.0144710005412118,0.0151539128304021,0.0136732650090609,-6.848999590004926e-05,high
800,4.343434343434343,3.1392405063291138,anode-electrolyte interface,0.0144601547789687,0.0151985945069108,0.0135866132628491,7.4609262870064385e-06,high
800,4.444444444444445,3.1392405063291138,anode-electrolyte interface,0.0143619919101497,0.0150943238186697,0.0134959309331868,-1.5375333227337922e-07,high
800,4.545454545454545,3.1392405063291138,anode-electrolyte interface,0.0143103269836787,0.0149212173941206,0.0136090402410007,8.196286273646423e-06,high
800,4.646464646464646,3.1392405063291138,anode-electrolyte interface,0.0144632832024492,0.0151699332594555,0.0136333561576608,5.2879707476519405e-05,high
800,4.747474747474747,3.1392405063291138,anode-electrolyte interface,0.0143880866119842,0.0150604165807576,0.0136046790406495,4.370647777046943e-05,high
800,4.848484848484849,3.1392405063291138,anode-electrolyte interface,0.0144141424753561,0.0149259331417774,0.0138410382493554,5.622858113704599e-06,high
800,4.94949494949495,3.1392405063291138,anode-electrolyte interface,0.0143831963389034,0.0151491559530137,0.0134693006450726,4.429829791411116e-05,high
800,5.05050505050505,3.1392405063291138,anode-electrolyte interface,0.0144001694708818,0.0150907166620477,0.0135924711555085,-1.8481899012573536e-06,high
800,5.151515151515151,3.1392405063291138,anode-electrolyte interface,0.014340596070304,0.0151242787768398,0.0134010922995086,2.2122115861999525e-05,high
800,5.252525252525253,3.1392405063291138,anode-electrolyte interface,0.0144026626204212,0.0151201901429135,0.0135576472930031,-1.7752362373733822e-05,high
800,5.353535353535354,3.1392405063291138,anode-electrolyte interface,0.0143193747501586,0.0150740093921657,0.0134207091136726,-4.897685027983328e-05,high
800,5.454545454545454,3.1392405063291138,anode-electrolyte interface,0.014417689887383,0.015224309998498,0.0134461070783579,-4.954110496778908e-06,high
800,5.555555555555555,3.1392405063291138,anode-electrolyte interface,0.014336751941405,0.0150411452804586,0.0135038710585233,0.0001478261998927,high
800,5.656565656565657,3.1392405063291138,anode-electrolyte interface,0.0144288550989345,0.0151189451614597,0.0136220559825592,-4.649928016220053e-06,high
800,5.757575757575758,3.1392405063291138,anode-electrolyte interface,0.0143862563942327,0.0150502395431309,0.0136146248579903,2.4572201860368647e-06,high
800,5.858585858585858,3.1392405063291138,anode-electrolyte interface,0.0142421913332988,0.0149483233828593,0.0134112668858024,2.2486413235565708e-05,high
800,5.959595959595959,3.1392405063291138,anode-electrolyte interface,0.0144235042057055,0.0150952927343903,0.0136408793340354,-5.504098810055467e-05,high
800,6.0606060606060606,3.1392405063291138,anode-electrolyte interface,0.0144396216686146,0.0151677422113523,0.0135796395757074,5.206260325498181e-05,high
800,6.161616161616162,3.1392405063291138,anode-electrolyte interface,0.0144329809241612,0.0150629982097348,0.0137070966095273,2.8853178816626385e-05,high
800,6.262626262626262,3.1392405063291138,anode-electrolyte interface,0.014512046246616,0.0152869664823126,0.0135874684448192,-2.4487444369163577e-06,high
800,6.363636363636363,3.1392405063291138,anode-electrolyte interface,0.0145161536566427,0.0152243138704401,0.0136830881953408,9.61093108448745e-05,high
800,6.4646464646464645,3.1392405063291138,anode-electrolyte interface,0.0145317701679085,0.015257545492644,0.0136764250512435,-3.5237132964877866e-05,high
800,6.565656565656566,3.1392405063291138,anode-electrolyte interface,0.0144360481749619,0.0151461459203188,0.0136017004852347,1.668226637632679e-05,high
800,6.666666666666667,3.1392405063291138,anode-electrolyte interface,0.0146564881433398,0.0153352000711647,0.0138667893681766,4.627957620252528e-05,high
800,6.767676767676767,3.1392405063291138,anode-electrolyte interface,0.0146497333950908,0.0152941201327352,0.0139064083130101,2.9805472601132528e-05,high
800,6.8686868686868685,3.1392405063291138,anode-electrolyte interface,0.0145888502815421,0.0152780772601158,0.013784752418529,-2.645303828303229e-06,high
800,6.96969696969697,3.1392405063291138,anode-electrolyte interface,0.0146627914893996,0.0152955684366886,0.0139351105210367,1.97642270642396e-05,high
800,7.070707070707071,3.1392405063291138,anode-electrolyte interface,0.0146678104285082,0.015318269764551,0.0139163868158975,-3.838216238941978e-05,high
800,7.171717171717171,3.1392405063291138,anode-electrolyte interface,0.0146839900820289,0.0154323614186674,0.0137987484194562,3.4643727748644475e-05,high
800,7.272727272727272,3.1392405063291138,anode-electrolyte interface,0.0148435310696969,0.0156191667097085,0.0139219282496656,1.7107256558695323e-05,high
800,7.373737373737374,3.1392405063291138,anode-electrolyte interface,0.0148535455359086,0.0154700014247797,0.0141454856827438,-0.0001194283190328,high
800,7.474747474747475,3.1392405063291138,anode-electrolyte interface,0.0148861599815121,0.0156001658875809,0.0140507886293074,-2.918697304010224e-05,high
800,7.575757575757575,3.1392405063291138,anode-electrolyte interface,0.0150062139330953,0.0156852097815583,0.0142196809781498,9.59703079603293e-07,critical
800,7.6767676767676765,3.1392405063291138,anode-electrolyte interface,0.0150635065760425,0.0156926872834988,0.0143434737504652,2.0042318801763568e-05,critical
800,7.777777777777778,3.1392405063291138,anode-electrolyte interface,0.0151163539984312,0.0158312737460116,0.0142820964230763,-1.1967836552234129e-05,critical
800,7.878787878787879,3.1392405063291138,anode-electrolyte interface,0.0151529669988727,0.0158155564816224,0.0143892701531561,3.559654286907587e-05,critical
800,7.979797979797979,3.1392405063291138,anode-electrolyte interface,0.0152239391706948,0.0159191123733865,0.0144171617531432,-3.674304373379977e-05,critical
800,8.080808080808081,3.1392405063291138,anode-electrolyte interface,0.0152639157392182,0.015943790441467,0.0144779399986576,4.149221026250022e-05,critical
800,8.181818181818182,3.1392405063291138,anode-electrolyte interface,0.0152722372073869,0.0160826268633814,0.0143062671940036,3.375675096052198e-05,critical
800,8.282828282828282,3.1392405063291138,anode-electrolyte interface,0.0154409448147025,0.0162287181179895,0.0145092225122638,3.1288901966545026e-06,critical
800,8.383838383838384,3.1392405063291138,anode-electrolyte interface,0.0155450199186732,0.0163045841919769,0.0146533641109319,-3.700303374590234e-05,critical
800,8.484848484848484,3.1392405063291138,anode-electrolyte interface,0.0155440259950937,0.0163099698921911,0.0146433960017799,4.445107980020633e-05,critical
800,8.585858585858587,3.1392405063291138,anode-electrolyte interface,0.0156818375018077,0.0163953352847863,0.0148545112416596,-1.9969999065095167e-05,critical
800,8.686868686868687,3.1392405063291138,anode-electrolyte interface,0.0160321340512293,0.0167869508370337,0.0151519298796762,-2.1029576663604134e-05,critical
800,8.787878787878787,3.1392405063291138,anode-electrolyte interface,0.0158621652954651,0.016642580315007,0.014944148733038,-6.933612101238184e-05,critical
800,8.88888888888889,3.1392405063291138,anode-electrolyte interface,0.0160146147488915,0.0168311373593675,0.0150487702539424,-3.2320392137591234e-05,critical
800,8.98989898989899,3.1392405063291138,anode-electrolyte interface,0.0160376438475273,0.0167943703454372,0.0151546277935593,-4.013697962536519e-05,critical
800,9.09090909090909,3.1392405063291138,anode-electrolyte interface,0.0163491498860339,0.0171702960467841,0.0153804829520028,-3.5709258124703496e-05,critical
800,9.191919191919192,3.1392405063291138,anode-electrolyte interface,0.0164136575068631,0.0172302033819566,0.0154510180255373,-7.846269139128252e-05,critical
800,9.292929292929292,3.1392405063291138,anode-electrolyte interface,0.0164802915315262,0.0172294520086821,0.0156118322766683,3.597413192907133e-07,critical
800,9.393939393939394,3.1392405063291138,anode-electrolyte interface,0.0166591612644419,0.0174128553616099,0.0157859030090321,-3.18026646815784e-05,critical
800,9.494949494949497,3.1392405063291138,anode-electrolyte interface,0.0169252257234036,0.0177535443414763,0.0159529235392559,5.62981386101971e-06,critical
800,9.595959595959595,3.1392405063291138,anode-electrolyte interface,0.016953674848115,0.017843797386715,0.015895128110612,-1.0543028369450658e-05,critical
800,9.696969696969695,3.1392405063291138,anode-electrolyte interface,0.0172498199725104,0.0180518799690488,0.0163165476694213,-1.355059939932197e-05,critical
800,9.797979797979798,3.1392405063291138,anode-electrolyte interface,0.0173980585215876,0.018294935754547,0.0163352157704157,-8.462623039172023e-06,critical
800,9.8989898989899,3.1392405063291138,anode-electrolyte interface,0.0175111280415516,0.0183400034648617,0.0165437460949561,-1.531932752585841e-05,critical
800,10.0,3.1392405063291138,anode-electrolyte interface,0.0177510874146313,0.0186436360324055,0.0166981604820131,-2.4514263604485218e-05,critical
800,0.0,3.240506329113924,anode-electrolyte interface,0.0178112678994008,0.0185885462007939,0.0169159136056851,2.0998397472586418e-05,critical
800,0.101010101010101,3.240506329113924,anode-electrolyte interface,0.0175757778770181,0.0183608534180798,0.0166677817025817,-4.75377141590208e-05,critical
800,0.202020202020202,3.240506329113924,anode-electrolyte interface,0.0174289812265445,0.0182837001856554,0.0164244607258653,6.506305559060434e-05,critical
800,0.303030303030303,3.240506329113924,anode-electrolyte interface,0.0171101740343008,0.0178465198226207,0.016263673361788,2.9908336153349147e-05,critical
800,0.404040404040404,3.240506329113924,anode-electrolyte interface,0.0170684137290563,0.0179026561293931,0.0160890095629657,-4.25350445029576e-05,critical
800,0.5050505050505051,3.240506329113924,anode-electrolyte interface,0.0169891422353294,0.0176801646171731,0.0162014442934206,-6.781168562103549e-06,critical
800,0.6060606060606061,3.240506329113924,anode-electrolyte interface,0.0167308509057748,0.0175338028650999,0.0157890923986452,-0.0001072751645924,critical
800,0.7070707070707071,3.240506329113924,anode-electrolyte interface,0.0166701364242734,0.0174895252478764,0.0157073839360427,-3.0181788293193756e-05,critical
800,0.8080808080808081,3.240506329113924,anode-electrolyte interface,0.0163180204863591,0.0170720579173727,0.0154399984018501,-8.490655745922443e-05,critical
800,0.9090909090909092,3.240506329113924,anode-electrolyte interface,0.0162420298938301,0.017022735621375,0.0153284899216161,-8.853819125975875e-06,critical
800,1.0101010101010102,3.240506329113924,anode-electrolyte interface,0.0161015977217816,0.0169183957322108,0.0151332183894103,-0.0001222206131276,critical
800,1.1111111111111112,3.240506329113924,anode-electrolyte interface,0.0159958714774013,0.0165872368438844,0.0153303476037547,-3.008711401275512e-06,critical
800,1.2121212121212122,3.240506329113924,anode-electrolyte interface,0.0159638708625043,0.0168337033415774,0.014921348567443,-4.660791046110192e-05,critical
800,1.3131313131313131,3.240506329113924,anode-electrolyte interface,0.0158261077717436,0.0165553648080246,0.0149776799900204,-7.2207121633058e-05,critical
800,1.414141414141414,3.240506329113924,anode-electrolyte interface,0.0156637823419634,0.0163940868551813,0.0148129237560172,5.669178342133045e-05,critical
800,1.5151515151515151,3.240506329113924,anode-electrolyte interface,0.015704046905446,0.0164196539408331,0.0148736660449111,4.676660186480465e-05,critical
800,1.616161616161616,3.240506329113924,anode-electrolyte interface,0.0156746918769615,0.0163755486750715,0.0148636540717098,-5.671391745470882e-05,critical
800,1.7171717171717171,3.240506329113924,anode-electrolyte interface,0.0154151725824654,0.0160532781802073,0.0146859616430567,-7.3854492906349074e-06,critical
800,1.818181818181818,3.240506329113924,anode-electrolyte interface,0.0152050197680954,0.0159232187604301,0.0143664010265055,-5.656367030863508e-05,critical
800,1.9191919191919191,3.240506329113924,anode-electrolyte interface,0.0153698060496061,0.0161156731548149,0.0144950442432502,4.8663965820742425e-05,critical
800,2.0202020202020203,3.240506329113924,anode-electrolyte interface,0.0153564203285654,0.0159598338261251,0.0146712999388922,-5.104472245249056e-05,critical
800,2.121212121212121,3.240506329113924,anode-electrolyte interface,0.0152554007111075,0.0159756845334811,0.0144146230633703,4.784423877015233e-05,critical
800,2.2222222222222223,3.240506329113924,anode-electrolyte interface,0.0150428969432087,0.0158854820798005,0.0140271327463813,-5.006770535028336e-05,critical
800,2.323232323232323,3.240506329113924,anode-electrolyte interface,0.0149143166567279,0.0155535187973241,0.0141800247613399,1.8919110674773087e-05,high
800,2.4242424242424243,3.240506329113924,anode-electrolyte interface,0.0150302708642159,0.0156805757431014,0.0142813248389472,6.256545897948544e-05,critical
800,2.525252525252525,3.240506329113924,anode-electrolyte interface,0.0149385723946099,0.0156124406832294,0.0141582320681105,-2.3552423391951524e-05,high
800,2.6262626262626263,3.240506329113924,anode-electrolyte interface,0.0148420447927538,0.0154885870078932,0.0140975283867664,1.2308913080072465e-05,high
800,2.727272727272727,3.240506329113924,anode-electrolyte interface,0.0148886783640263,0.0156854858621331,0.0139375576792454,6.49523987034833e-06,high
800,2.8282828282828283,3.240506329113924,anode-electrolyte interface,0.0146828272069231,0.0154520631740278,0.0137681654575831,-3.337078499239284e-05,high
800,2.929292929292929,3.240506329113924,anode-electrolyte interface,0.0147604761507307,0.0155175032607063,0.0138642078504112,-1.125398776430279e-05,high
800,3.0303030303030303,3.240506329113924,anode-electrolyte interface,0.0147093467922713,0.015540030559764,0.0137067800496203,-9.912539107560528e-06,high
800,3.131313131313131,3.240506329113924,anode-electrolyte interface,0.0145238293714658,0.0152173476426761,0.013713250977822,1.3408258040879247e-06,high
800,3.2323232323232323,3.240506329113924,anode-electrolyte interface,0.0145357326349365,0.0152457445883429,0.0137021690731164,-4.134355301638911e-05,high
800,3.333333333333333,3.240506329113924,anode-electrolyte interface,0.0145255396997531,0.0152302885600211,0.0136995495221342,4.049797875133118e-06,high
800,3.4343434343434343,3.240506329113924,anode-electrolyte interface,0.0144085904830447,0.0150966180657269,0.0136036005131329,-5.778416807432514e-05,high
800,3.5353535353535355,3.240506329113924,anode-electrolyte interface,0.0145309807920544,0.0152821277661269,0.0136370796727005,-0.0001149284332466,high
800,3.636363636363636,3.240506329113924,anode-electrolyte interface,0.0145180793698175,0.0151973430380844,0.0137248712684871,-9.106527935733568e-05,high
800,3.7373737373737375,3.240506329113924,anode-electrolyte interface,0.0144523324782249,0.0151121380358271,0.013684267360755,0.0001041827265425,high
800,3.8383838383838382,3.240506329113924,anode-electrolyte interface,0.0143601622341434,0.0149822007444125,0.0136403916480723,-0.0001300279919492,high
800,3.939393939393939,3.240506329113924,anode-electrolyte interface,0.014417572906236,0.0150231730814489,0.0137239602367318,1.847964114134615e-05,high
800,4.040404040404041,3.240506329113924,anode-electrolyte interface,0.0144364017060282,0.0150883008414604,0.013681471723216,1.1026272522747108e-05,high
800,4.141414141414141,3.240506329113924,anode-electrolyte interface,0.014423897391405,0.0151109613514118,0.0136211523863927,-1.387963805220626e-05,high
800,4.242424242424242,3.240506329113924,anode-electrolyte interface,0.0143844097649234,0.0151042247371015,0.0135360739314478,9.0299011164569e-06,high
800,4.343434343434343,3.240506329113924,anode-electrolyte interface,0.0143999698783448,0.0150957730986732,0.013584997370432,-1.4734834952590362e-05,high
800,4.444444444444445,3.240506329113924,anode-electrolyte interface,0.0142600789937072,0.0149892295869485,0.0133973140487915,8.975900302899763e-06,high
800,4.545454545454545,3.240506329113924,anode-electrolyte interface,0.0143490609705556,0.0150085357972502,0.0135829491451278,-3.201539803751524e-05,high
800,4.646464646464646,3.240506329113924,anode-electrolyte interface,0.0142756772032798,0.0150501214483294,0.0133485052457218,3.075066118776411e-05,high
800,4.747474747474747,3.240506329113924,anode-electrolyte interface,0.0142580054121185,0.0149822079535383,0.0133984427851166,-0.0001213124933025,high
800,4.848484848484849,3.240506329113924,anode-electrolyte interface,0.0143831391317928,0.0149692606072089,0.0137129552474465,8.867042634235046e-05,high
800,4.94949494949495,3.240506329113924,anode-electrolyte interface,0.0142174490104338,0.0148073274093827,0.0135421957512806,-6.210722123949067e-05,high
800,5.05050505050505,3.240506329113924,anode-electrolyte interface,0.0143508066644415,0.0150850467385354,0.0134816587381485,3.339991237065246e-05,high
800,5.151515151515151,3.240506329113924,anode-electrolyte interface,0.0143022555899641,0.0150581193333409,0.0134019491040683,3.399129255837964e-05,high
800,5.252525252525253,3.240506329113924,anode-electrolyte interface,0.0142675475489827,0.0149405017272406,0.0134821813700502,-4.3438662035643415e-05,high
800,5.353535353535354,3.240506329113924,anode-electrolyte interface,0.0142693781157924,0.0149056473141127,0.0135339505802222,-2.0862775981925097e-05,high
800,5.454545454545454,3.240506329113924,anode-electrolyte interface,0.0142367235967742,0.0149980162331766,0.013326738375727,-7.414085624612861e-05,high
800,5.555555555555555,3.240506329113924,anode-electrolyte interface,0.0143882650875088,0.0150749852405677,0.0135854063379546,3.4287459005596165e-05,high
800,5.656565656565657,3.240506329113924,anode-electrolyte interface,0.014411974347285,0.0150709681727821,0.0136456476925807,8.234893975967891e-05,high
800,5.757575757575758,3.240506329113924,anode-electrolyte interface,0.0143652166867473,0.0149749170476131,0.0136658208601847,1.9865048530624527e-05,high
800,5.858585858585858,3.240506329113924,anode-electrolyte interface,0.0142664772949559,0.0149221103367954,0.0135048176695296,-3.3048246446636704e-05,high
800,5.959595959595959,3.240506329113924,anode-electrolyte interface,0.0143572198667931,0.0151174331782884,0.0134506343264245,-6.449355406886542e-05,high
800,6.0606060606060606,3.240506329113924,anode-electrolyte interface,0.0144122584754808,0.0151173854051369,0.0135845927925896,-8.492223205364018e-06,high
800,6.161616161616162,3.240506329113924,anode-electrolyte interface,0.0145269568384088,0.0152770665605314,0.013637055677975,5.3640805344233705e-05,high
800,6.262626262626262,3.240506329113924,anode-electrolyte interface,0.0145542010357367,0.0153532542796141,0.0135954908505308,1.5739175158801127e-06,high
800,6.363636363636363,3.240506329113924,anode-electrolyte interface,0.0144716883311231,0.0152072742784149,0.0136022183096011,1.7261335987861976e-05,high
800,6.4646464646464645,3.240506329113924,anode-electrolyte interface,0.0145617548507208,0.0152179324279913,0.0138010634976019,-6.716900491824198e-05,high
800,6.565656565656566,3.240506329113924,anode-electrolyte interface,0.0144779584373655,0.0152330529649545,0.0135810145339457,-2.405426602645446e-05,high
800,6.666666666666667,3.240506329113924,anode-electrolyte interface,0.0145409267520616,0.0152691891015649,0.0136820979191399,4.144053576848102e-05,high
800,6.767676767676767,3.240506329113924,anode-electrolyte interface,0.0145980209332728,0.0153399591942801,0.0137211240413883,5.916684921568472e-06,high
800,6.8686868686868685,3.240506329113924,anode-electrolyte interface,0.0146399636809496,0.0153532050290037,0.0138034022079423,7.823021857454107e-06,high
800,6.96969696969697,3.240506329113924,anode-electrolyte interface,0.0146745368266604,0.0154264994940083,0.0137816947280235,-0.0001054223416772,high
800,7.070707070707071,3.240506329113924,anode-electrolyte interface,0.0146438897468945,0.0153863642619299,0.0137656070316174,6.833458017890575e-05,high
800,7.171717171717171,3.240506329113924,anode-electrolyte interface,0.0148026619154885,0.0154854190965572,0.0140071974364606,-9.369780513207074e-05,high
800,7.272727272727272,3.240506329113924,anode-electrolyte interface,0.0147843016223841,0.0155359825946688,0.0138958308011776,5.510304873984776e-06,high
800,7.373737373737374,3.240506329113924,anode-electrolyte interface,0.0148531661925996,0.015609176541893,0.013959255027356,2.469025141843884e-05,high
800,7.474747474747475,3.240506329113924,anode-electrolyte interface,0.0148757520909021,0.0156112256770579,0.0140102286647531,-5.15343378199645e-05,high
800,7.575757575757575,3.240506329113924,anode-electrolyte interface,0.0149517076501665,0.0156922879577548,0.0140800563487725,-4.461766726132591e-05,high
800,7.6767676767676765,3.240506329113924,anode-electrolyte interface,0.0150638683675779,0.0158913952897121,0.0140707640521746,2.1279968971345084e-05,critical
800,7.777777777777778,3.240506329113924,anode-electrolyte interface,0.0150830073390982,0.0158221398323507,0.0142150652717317,-2.3602913459300068e-05,critical
800,7.878787878787879,3.240506329113924,anode-electrolyte interface,0.0151455770196482,0.015885764257331,0.0142768173368687,-2.3370257151941832e-05,critical
800,7.979797979797979,3.240506329113924,anode-electrolyte interface,0.0152557349012172,0.0159038441901467,0.0145122616521481,8.108714407462354e-06,critical
800,8.080808080808081,3.240506329113924,anode-electrolyte interface,0.0151903564935905,0.0157717725953035,0.0145316846015192,-7.892445376471347e-05,critical
800,8.181818181818182,3.240506329113924,anode-electrolyte interface,0.0154911956690093,0.0163182743937789,0.014503513702906,-6.183475948954377e-05,critical
800,8.282828282828282,3.240506329113924,anode-electrolyte interface,0.0154419075140002,0.0162000362574617,0.0145513463166402,2.576318767801232e-05,critical
800,8.383838383838384,3.240506329113924,anode-electrolyte interface,0.015536031628491,0.0162068834951411,0.0147645376461204,1.6080246557915928e-05,critical
800,8.484848484848484,3.240506329113924,anode-electrolyte interface,0.0156769877350332,0.0164183664133245,0.0148104493535592,-7.99227555740276e-05,critical
800,8.585858585858587,3.240506329113924,anode-electrolyte interface,0.0157958779951563,0.0166191610492554,0.0148181773161464,1.346548031652846e-05,critical
800,8.686868686868687,3.240506329113924,anode-electrolyte interface,0.0159083234538711,0.0166422000223994,0.0150538877566874,8.603894086398537e-05,critical
800,8.787878787878787,3.240506329113924,anode-electrolyte interface,0.0159475952947095,0.0166550400624318,0.0151297463336694,-6.517515667620859e-05,critical
800,8.88888888888889,3.240506329113924,anode-electrolyte interface,0.0161956209056975,0.0170553904492776,0.0151709877119593,-3.826050915810417e-06,critical
800,8.98989898989899,3.240506329113924,anode-electrolyte interface,0.0162781682913356,0.0170316952338415,0.0154013718050518,5.579029742464972e-05,critical
800,9.09090909090909,3.240506329113924,anode-electrolyte interface,0.0162865175072957,0.0170393161747469,0.0154112821288315,2.8570435780147657e-05,critical
800,9.191919191919192,3.240506329113924,anode-electrolyte interface,0.0164414159123553,0.0171277713406631,0.0156559674728121,2.6580609736119345e-05,critical
800,9.292929292929292,3.240506329113924,anode-electrolyte interface,0.0166523102856414,0.0174389193415936,0.015734400111558,3.2236676293664165e-05,critical
800,9.393939393939394,3.240506329113924,anode-electrolyte interface,0.0167901252684208,0.0176324368891909,0.0157959617300263,6.920310751264913e-05,critical
800,9.494949494949497,3.240506329113924,anode-electrolyte interface,0.0168580962108654,0.0177358322447919,0.0158155710768286,4.354854529265074e-05,critical
800,9.595959595959595,3.240506329113924,anode-electrolyte interface,0.0169337161861812,0.0177434003997169,0.0159871014994138,-1.4316795687819198e-05,critical
800,9.696969696969695,3.240506329113924,anode-electrolyte interface,0.0171678507975054,0.0179302503901413,0.0162872753940434,1.6413198111438858e-05,critical
800,9.797979797979798,3.240506329113924,anode-electrolyte interface,0.0173176976041709,0.0181758414908259,0.0163080121197555,2.5951434961100723e-05,critical
800,9.8989898989899,3.240506329113924,anode-electrolyte interface,0.0175748353256967,0.0184291366720943,0.0165729745088818,3.599287844219647e-05,critical
800,10.0,3.240506329113924,anode-electrolyte interface,0.017862295533496,0.0187379892897675,0.0168340573610384,9.280844961604788e-06,critical
800,0.0,3.3417721518987342,anode-electrolyte interface,0.017809612456074,0.0187097735109307,0.0167446439769461,-0.0001033850736764,critical
800,0.101010101010101,3.3417721518987342,anode-electrolyte interface,0.0175572157082038,0.018474975475758,0.016465538241282,7.652934569433772e-05,critical
800,0.202020202020202,3.3417721518987342,anode-electrolyte interface,0.0172556693307806,0.0180740305559603,0.0163002908004872,2.403750767677527e-06,critical
800,0.303030303030303,3.3417721518987342,anode-electrolyte interface,0.0171970801650553,0.0180080088933268,0.0162512988103685,8.911684061073722e-07,critical
800,0.404040404040404,3.3417721518987342,anode-electrolyte interface,0.0170437317494657,0.017779386648178,0.0161970160094698,-6.29415877582083e-05,critical
800,0.5050505050505051,3.3417721518987342,anode-electrolyte interface,0.0168916504318585,0.0178362699015581,0.0157536456815528,3.7657937023518566e-05,critical
800,0.6060606060606061,3.3417721518987342,anode-electrolyte interface,0.0167281690203709,0.0175480329390558,0.0157650527707181,-4.814972099733095e-05,critical
800,0.7070707070707071,3.3417721518987342,anode-electrolyte interface,0.016499157124886,0.0172268820771533,0.0156595124007657,-1.7931494718229986e-05,critical
800,0.8080808080808081,3.3417721518987342,anode-electrolyte interface,0.0164235752005026,0.0172841615790102,0.0154003636069462,3.030186486884513e-05,critical
800,0.9090909090909092,3.3417721518987342,anode-electrolyte interface,0.0162967365137848,0.0171234146533783,0.0153181378231528,9.26838758609258e-05,critical
800,1.0101010101010102,3.3417721518987342,anode-electrolyte interface,0.016228301797211,0.0170914666946545,0.0151989878866541,-3.3206050777077774e-05,critical
800,1.1111111111111112,3.3417721518987342,anode-electrolyte interface,0.0160894451697844,0.0169648508916551,0.0150403706562645,5.46996536734874e-05,critical
800,1.2121212121212122,3.3417721518987342,anode-electrolyte interface,0.0159535203878189,0.0166457720111693,0.0151568777406633,-5.011438834726945e-06,critical
800,1.3131313131313131,3.3417721518987342,anode-electrolyte interface,0.0158035851192326,0.0165763361766885,0.0148964018231166,3.3460152944608294e-05,critical
800,1.414141414141414,3.3417721518987342,anode-electrolyte interface,0.0157310102656653,0.0164875970250958,0.0148444764259119,7.093028510167514e-05,critical
800,1.5151515151515151,3.3417721518987342,anode-electrolyte interface,0.0155998935775393,0.0163419911247296,0.0147328187695703,3.48826001279206e-05,critical
800,1.616161616161616,3.3417721518987342,anode-electrolyte interface,0.01552652081903,0.0163006755583588,0.0146147387968189,1.0808681028575172e-05,critical
800,1.7171717171717171,3.3417721518987342,anode-electrolyte interface,0.0153100959428481,0.0160352534694315,0.0144635177673015,-2.893212492678114e-05,critical
800,1.818181818181818,3.3417721518987342,anode-electrolyte interface,0.0153368527502315,0.0160867467481833,0.0144567520005597,4.515554843864816e-06,critical
800,1.9191919191919191,3.3417721518987342,anode-electrolyte interface,0.0152745797078574,0.0159999829108416,0.014424953972856,0.0001049635505402,critical
800,2.0202020202020203,3.3417721518987342,anode-electrolyte interface,0.0151874714829357,0.0159231348629284,0.0143254866337607,-7.177148269108128e-06,critical
800,2.121212121212121,3.3417721518987342,anode-electrolyte interface,0.015065324864293,0.0158190706551554,0.0141765963258601,-4.36364369668146e-05,critical
800,2.2222222222222223,3.3417721518987342,anode-electrolyte interface,0.0150954187612158,0.0158547370987822,0.0141995288377382,2.681131677913021e-05,critical
800,2.323232323232323,3.3417721518987342,anode-electrolyte interface,0.0150006801711645,0.0157942799610153,0.0140547177768214,-5.825708745471417e-05,critical
800,2.4242424242424243,3.3417721518987342,anode-electrolyte interface,0.0150476843122375,0.0157742250358466,0.0141908352622217,-0.0001594272170681,critical
800,2.525252525252525,3.3417721518987342,anode-electrolyte interface,0.0149068674281435,0.0156909222614701,0.0139741118926467,-1.3605111060000636e-05,high
800,2.6262626262626263,3.3417721518987342,anode-electrolyte interface,0.0147611838069184,0.0154477392348729,0.0139621374207208,2.630966021912045e-05,high
800,2.727272727272727,3.3417721518987342,anode-electrolyte interface,0.0148552806716382,0.0155874141388744,0.0139947659598363,-1.4408543345016349e-05,high
800,2.8282828282828283,3.3417721518987342,anode-electrolyte interface,0.0146980813775117,0.0153254398902849,0.013977677699805,-3.200970545677126e-05,high
800,2.929292929292929,3.3417721518987342,anode-electrolyte interface,0.0146711198275094,0.0152582405343354,0.0140033836917059,-5.616493790366163e-06,high
800,3.0303030303030303,3.3417721518987342,anode-electrolyte interface,0.01465182211895,0.0154868138900782,0.0136418380385471,3.341003368446808e-05,high
800,3.131313131313131,3.3417721518987342,anode-electrolyte interface,0.014504135572866,0.0151792987315709,0.0137181883081322,-2.9589758999834554e-05,high
800,3.2323232323232323,3.3417721518987342,anode-electrolyte interface,0.0144893098706217,0.015078207942967,0.0138145034922213,-0.000122739973799,high
800,3.333333333333333,3.3417721518987342,anode-electrolyte interface,0.014578000311796,0.0151887902369835,0.0138785995122619,-2.802725299227678e-05,high
800,3.4343434343434343,3.3417721518987342,anode-electrolyte interface,0.0146757473123441,0.0153095146171731,0.0139463777145342,-4.879714185494975e-05,high
800,3.5353535353535355,3.3417721518987342,anode-electrolyte interface,0.0143655947971284,0.0152001469985604,0.0133503238267267,-8.482032696499751e-05,high
800,3.636363636363636,3.3417721518987342,anode-electrolyte interface,0.014329390878726,0.0150619282502533,0.0134626711612338,-3.298043771436194e-06,high
800,3.7373737373737375,3.3417721518987342,anode-electrolyte interface,0.0144295933480059,0.0150698350875614,0.0136899608865987,3.492115941013183e-05,high
800,3.8383838383838382,3.3417721518987342,anode-electrolyte interface,0.0144343979080882,0.0151330422269048,0.013615797163556,2.1423956224357188e-05,high
800,3.939393939393939,3.3417721518987342,anode-electrolyte interface,0.0144582238477778,0.0150999867828596,0.0137166694495558,-4.1402877049081575e-05,high
800,4.040404040404041,3.3417721518987342,anode-electrolyte interface,0.0143657144347592,0.014996527072536,0.0136384405871933,-6.022910744750676e-06,high
800,4.141414141414141,3.3417721518987342,anode-electrolyte interface,0.0143498906472863,0.0150300958046393,0.013555471170949,-4.005580440865954e-05,high
800,4.242424242424242,3.3417721518987342,anode-electrolyte interface,0.0143919381102091,0.0151869303451985,0.013436900564507,-1.3424177040128636e-06,high
800,4.343434343434343,3.3417721518987342,anode-electrolyte interface,0.0143081806662599,0.0149611621007076,0.0135506615900593,1.710425955450913e-05,high
800,4.444444444444445,3.3417721518987342,anode-electrolyte interface,0.0144205046545286,0.0151040021897849,0.013622650078734,2.144333258750722e-06,high
800,4.545454545454545,3.3417721518987342,anode-electrolyte interface,0.0143272663734856,0.0149668385993559,0.0135879355382436,-1.5811235671586153e-05,high
800,4.646464646464646,3.3417721518987342,anode-electrolyte interface,0.0142354315326459,0.014939982481465,0.013406646903931,2.100037619479469e-05,high
800,4.747474747474747,3.3417721518987342,anode-electrolyte interface,0.0143834338989547,0.0150898133550328,0.0135537494252225,6.563577384017627e-06,high
800,4.848484848484849,3.3417721518987342,anode-electrolyte interface,0.0143570348593853,0.0149970439243297,0.0136173366941849,1.88093736766982e-05,high
800,4.94949494949495,3.3417721518987342,anode-electrolyte interface,0.0144035995227864,0.0151514732395803,0.013515889801272,-3.1109462948932766e-05,high
800,5.05050505050505,3.3417721518987342,anode-electrolyte interface,0.014269464878418,0.0149505419631998,0.0134734733365929,7.476182469900727e-06,high
800,5.151515151515151,3.3417721518987342,anode-electrolyte interface,0.0144075669629685,0.0150895938594846,0.0136088466779722,-0.0001055214200504,high
800,5.252525252525253,3.3417721518987342,anode-electrolyte interface,0.0144284434914237,0.0151241098151632,0.0136128458848966,6.803640744402716e-05,high
800,5.353535353535354,3.3417721518987342,anode-electrolyte interface,0.014373939225125,0.0150324836175423,0.0136084219540577,6.781627436069152e-05,high
800,5.454545454545454,3.3417721518987342,anode-electrolyte interface,0.0143631310445839,0.0150032506620029,0.0136232356137952,-2.7526528518239987e-05,high
800,5.555555555555555,3.3417721518987342,anode-electrolyte interface,0.014356280474173,0.0151492696328601,0.0134029633659321,5.195371451869586e-05,high
800,5.656565656565657,3.3417721518987342,anode-electrolyte interface,0.0143923782299674,0.0151069952379068,0.0135508565609741,4.567273584464872e-05,high
800,5.757575757575758,3.3417721518987342,anode-electrolyte interface,0.0143178548170296,0.0150330045527788,0.0134749835734803,3.673227850794226e-05,high
800,5.858585858585858,3.3417721518987342,anode-electrolyte interface,0.0144617034604441,0.0151679760191502,0.013632897137187,-1.772903058297668e-05,high
800,5.959595959595959,3.3417721518987342,anode-electrolyte interface,0.0145690449748527,0.0153354565409459,0.0136571372494039,2.504045362112814e-05,high
800,6.0606060606060606,3.3417721518987342,anode-electrolyte interface,0.014380108121131,0.0150575810603923,0.0135868951966006,-0.0001137495547126,high
800,6.161616161616162,3.3417721518987342,anode-electrolyte interface,0.0145011623953844,0.0152715799074048,0.0135814857495978,-7.426903525746717e-05,high
800,6.262626262626262,3.3417721518987342,anode-electrolyte interface,0.0144701930864902,0.0152117490441468,0.013591087174139,7.242405973637478e-05,high
800,6.363636363636363,3.3417721518987342,anode-electrolyte interface,0.0143886709296813,0.0151263843310827,0.0135136349143078,-8.257323535225331e-05,high
800,6.4646464646464645,3.3417721518987342,anode-electrolyte interface,0.0145192645493335,0.0151903486633222,0.0137391123932199,1.869727511976748e-05,high
800,6.565656565656566,3.3417721518987342,anode-electrolyte interface,0.0145123924405539,0.0151212739423111,0.0138134785133961,-8.526970439909428e-05,high
800,6.666666666666667,3.3417721518987342,anode-electrolyte interface,0.0145569958858703,0.0151778560398985,0.0138443181673946,-1.568277798077259e-05,high
800,6.767676767676767,3.3417721518987342,anode-electrolyte interface,0.0147068733480916,0.0154316141188068,0.0138545288214594,-4.8932167503978405e-05,high
800,6.8686868686868685,3.3417721518987342,anode-electrolyte interface,0.0145925008763266,0.0153267723813929,0.0137259733354939,-3.490565407127704e-05,high
800,6.96969696969697,3.3417721518987342,anode-electrolyte interface,0.014698057021195,0.015362131214303,0.0139282651678876,-5.4988673202236553e-05,high
800,7.070707070707071,3.3417721518987342,anode-electrolyte interface,0.0146431303468007,0.0153283859991107,0.013841259385502,0.0001232263685328,high
800,7.171717171717171,3.3417721518987342,anode-electrolyte interface,0.0146992592409611,0.0153250812138229,0.0139799927146766,6.93672385967629e-05,high
800,7.272727272727272,3.3417721518987342,anode-electrolyte interface,0.0147296507746607,0.0154799166987832,0.0138422833955115,-3.354213276542764e-05,high
800,7.373737373737374,3.3417721518987342,anode-electrolyte interface,0.0148170371012947,0.0154938205203534,0.0140309658610857,6.158443562366755e-05,high
800,7.474747474747475,3.3417721518987342,anode-electrolyte interface,0.0148741549042915,0.0155988584828959,0.0140229866984306,6.958740172210824e-05,high
800,7.575757575757575,3.3417721518987342,anode-electrolyte interface,0.0150229748640699,0.0157503778671782,0.0141707226162112,8.702457016920124e-06,critical
800,7.6767676767676765,3.3417721518987342,anode-electrolyte interface,0.0149841166153638,0.015786306146172,0.0140265167164072,-1.2722820017897014e-06,high
800,7.777777777777778,3.3417721518987342,anode-electrolyte interface,0.0150616302662101,0.0158219785799576,0.0141631395453985,6.342665368676827e-05,critical
800,7.878787878787879,3.3417721518987342,anode-electrolyte interface,0.0151117813123274,0.0158194977746804,0.0142869282549098,-4.137375623051103e-05,critical
800,7.979797979797979,3.3417721518987342,anode-electrolyte interface,0.0152408563649674,0.0159897892059686,0.0143592615755443,-8.853744532340071e-05,critical
800,8.080808080808081,3.3417721518987342,anode-electrolyte interface,0.015250962129999,0.0159869878474668,0.0143877858850563,7.53677157602791e-05,critical
800,8.181818181818182,3.3417721518987342,anode-electrolyte interface,0.0153922503784915,0.0161179305872093,0.0145451884586508,5.632038357468719e-05,critical
800,8.282828282828282,3.3417721518987342,anode-electrolyte interface,0.0154119757331943,0.016156393147844,0.0145397743909818,4.174707125166831e-05,critical
800,8.383838383838384,3.3417721518987342,anode-electrolyte interface,0.015478967612444,0.0161586693905985,0.0146951512944517,2.8645636504266843e-05,critical
800,8.484848484848484,3.3417721518987342,anode-electrolyte interface,0.015602466237365,0.0161613062827735,0.0149738283074766,0.0001003713828867,critical
800,8.585858585858587,3.3417721518987342,anode-electrolyte interface,0.0157504455072523,0.016557748606407,0.0147947899233218,-5.719081854302988e-06,critical
800,8.686868686868687,3.3417721518987342,anode-electrolyte interface,0.0157394958031494,0.0165434583913361,0.0147881386028584,-3.4760685824123924e-05,critical
800,8.787878787878787,3.3417721518987342,anode-electrolyte interface,0.0159991836903662,0.0167859898317138,0.0150734904996507,-7.695570195775131e-05,critical
800,8.88888888888889,3.3417721518987342,anode-electrolyte interface,0.0159970670432394,0.0167760815392745,0.0150834262894019,-9.710275192403128e-06,critical
800,8.98989898989899,3.3417721518987342,anode-electrolyte interface,0.0161627997772586,0.0169662771844415,0.0152168390375677,2.8599694683987067e-05,critical
800,9.09090909090909,3.3417721518987342,anode-electrolyte interface,0.0163415693571836,0.017144601365902,0.0153977114320141,-5.046505540233465e-05,critical
800,9.191919191919192,3.3417721518987342,anode-electrolyte interface,0.0164841641240829,0.0172695945727662,0.015566499131074,-1.1365479244743633e-06,critical
800,9.292929292929292,3.3417721518987342,anode-electrolyte interface,0.016557624356898,0.0173901102332985,0.0155755147545393,-2.7380472381973705e-05,critical
800,9.393939393939394,3.3417721518987342,anode-electrolyte interface,0.0165947765553556,0.0173516429626573,0.0157163737303267,-5.032502246124441e-05,critical
800,9.494949494949497,3.3417721518987342,anode-electrolyte interface,0.0168089701820253,0.0176247255829737,0.0158524097173503,-4.473609844517653e-05,critical
800,9.595959595959595,3.3417721518987342,anode-electrolyte interface,0.0170391299937887,0.0178613819828653,0.0160762668645962,1.799659899202271e-05,critical
800,9.696969696969695,3.3417721518987342,anode-electrolyte interface,0.0173247922033115,0.0181738857420633,0.0163268603859827,-6.934705100866557e-05,critical
800,9.797979797979798,3.3417721518987342,anode-electrolyte interface,0.0174018575509033,0.0181158191083923,0.0165867411994601,-3.72549916524411e-05,critical
800,9.8989898989899,3.3417721518987342,anode-electrolyte interface,0.0175346326167748,0.0184619005718713,0.0164293182933743,7.190153104548222e-05,critical
800,10.0,3.3417721518987342,anode-electrolyte interface,0.0177655989209528,0.0185695262275026,0.016834208177937,2.520586948941148e-05,critical
800,0.0,3.4430379746835444,anode-electrolyte interface,0.0178293773956413,0.018760177695997,0.0167229865197717,5.8741549845488285e-05,critical
800,0.101010101010101,3.4430379746835444,anode-electrolyte interface,0.0175158138313177,0.018353839627121,0.0165359434172701,1.7644450185546596e-05,critical
800,0.202020202020202,3.4430379746835444,anode-electrolyte interface,0.0173094225242627,0.0181059724148446,0.0163839885740287,3.07387319801454e-05,critical
800,0.303030303030303,3.4430379746835444,anode-electrolyte interface,0.0172411869888619,0.0181345848308024,0.0161814425737005,2.650213603059203e-06,critical
800,0.404040404040404,3.4430379746835444,anode-electrolyte interface,0.0170068273148549,0.0178288116989078,0.01604403500668,1.492706034170423e-05,critical
800,0.5050505050505051,3.4430379746835444,anode-electrolyte interface,0.0168790929254056,0.017655743835173,0.0159753896986772,8.717754590713574e-05,critical
800,0.6060606060606061,3.4430379746835444,anode-electrolyte interface,0.0167422146178882,0.0176059681298844,0.0157182541753802,3.2681637218441866e-05,critical
800,0.7070707070707071,3.4430379746835444,anode-electrolyte interface,0.0165992667370277,0.0174006780684148,0.0156607343068254,1.6891077059084748e-05,critical
800,0.8080808080808081,3.4430379746835444,anode-electrolyte interface,0.0164538542607903,0.0172856299684589,0.0154716970705349,1.76723116717832e-05,critical
800,0.9090909090909092,3.4430379746835444,anode-electrolyte interface,0.0162568302198215,0.0170392436028448,0.0153410569098868,-1.511003304260199e-05,critical
800,1.0101010101010102,3.4430379746835444,anode-electrolyte interface,0.0162272575484413,0.0170165474037946,0.0153000665792975,-8.80774181193029e-05,critical
800,1.1111111111111112,3.4430379746835444,anode-electrolyte interface,0.0160481916894988,0.0168147137724103,0.0151522438782976,-1.4754364212818246e-06,critical
800,1.2121212121212122,3.4430379746835444,anode-electrolyte interface,0.0158699785505951,0.0165524624106427,0.0150846971407021,6.583289781422814e-05,critical
800,1.3131313131313131,3.4430379746835444,anode-electrolyte interface,0.015769575535179,0.0165040327745526,0.0149141256219401,5.31969218765583e-05,critical
800,1.414141414141414,3.4430379746835444,anode-electrolyte interface,0.0157283079878702,0.0165850501675377,0.0146999227443171,-9.488692585347884e-05,critical
800,1.5151515151515151,3.4430379746835444,anode-electrolyte interface,0.0155774921381018,0.0163017613487717,0.0147346295103773,-2.5464177288764973e-05,critical
800,1.616161616161616,3.4430379746835444,anode-electrolyte interface,0.0154546220378636,0.0162119148259041,0.0145613532073532,0.000133629748523,critical
800,1.7171717171717171,3.4430379746835444,anode-electrolyte interface,0.0154466051873879,0.0161032019567064,0.0146926158515379,5.685749825845854e-05,critical
800,1.818181818181818,3.4430379746835444,anode-electrolyte interface,0.0154227731229273,0.0161490888225123,0.0145753137684542,-4.873813620031484e-05,critical
800,1.9191919191919191,3.4430379746835444,anode-electrolyte interface,0.0152329595442799,0.015942603751463,0.0144068759607032,2.2225303799780703e-05,critical
800,2.0202020202020203,3.4430379746835444,anode-electrolyte interface,0.0150783990535279,0.0157109046320252,0.0143531202717948,6.840050289403042e-05,critical
800,2.121212121212121,3.4430379746835444,anode-electrolyte interface,0.015160096312659,0.0158635378330771,0.0143408937508908,-6.522941740392437e-05,critical
800,2.2222222222222223,3.4430379746835444,anode-electrolyte interface,0.0149746781280719,0.0157487765762094,0.0140568630520286,-2.456099668347813e-06,high
800,2.323232323232323,3.4430379746835444,anode-electrolyte interface,0.015094414569069,0.0159339711178948,0.0140828017058628,-8.076168774339099e-05,critical
800,2.4242424242424243,3.4430379746835444,anode-electrolyte interface,0.0149500170569534,0.015613620067202,0.0141836526589405,3.6254954663717498e-06,high
800,2.525252525252525,3.4430379746835444,anode-electrolyte interface,0.0148465992253273,0.0154317245476622,0.0141812619599345,7.421493612501358e-05,high
800,2.6262626262626263,3.4430379746835444,anode-electrolyte interface,0.0147985481066838,0.015530007938158,0.0139384232886647,-4.4740347927722745e-06,high
800,2.727272727272727,3.4430379746835444,anode-electrolyte interface,0.0147609041543997,0.0155433769335158,0.0138285997100801,-1.5196193366280898e-05,high
800,2.8282828282828283,3.4430379746835444,anode-electrolyte interface,0.0148442747782267,0.0155524823453987,0.0140164848057688,2.628537921318884e-05,high
800,2.929292929292929,3.4430379746835444,anode-electrolyte interface,0.0146754053537796,0.0152907707486138,0.0139706999240307,2.686745117271058e-05,high
800,3.0303030303030303,3.4430379746835444,anode-electrolyte interface,0.0147150809835986,0.0154306767660518,0.013876030878241,6.763615556973045e-06,high
800,3.131313131313131,3.4430379746835444,anode-electrolyte interface,0.0145558164181281,0.0152626119734926,0.0137271928240366,-2.2076194937546635e-05,high
800,3.2323232323232323,3.4430379746835444,anode-electrolyte interface,0.0146179132988994,0.01534971131246,0.0137553981417644,7.39963634421968e-06,high
800,3.333333333333333,3.4430379746835444,anode-electrolyte interface,0.0145132922450717,0.015220620610763,0.0136836254846905,2.926376970556346e-06,high
800,3.4343434343434343,3.4430379746835444,anode-electrolyte interface,0.0144253236831883,0.0151087586816958,0.0136275928565617,-5.752709920168069e-06,high
800,3.5353535353535355,3.4430379746835444,anode-electrolyte interface,0.0144100621854546,0.0151362195325115,0.0135531696462634,-5.601163675668635e-06,high
800,3.636363636363636,3.4430379746835444,anode-electrolyte interface,0.0146571906774661,0.0154093752887799,0.0137633623757742,-0.0001141110015737,high
800,3.7373737373737375,3.4430379746835444,anode-electrolyte interface,0.0144918649120819,0.0152680744106434,0.0135651355651942,-1.4705088010943072e-05,high
800,3.8383838383838382,3.4430379746835444,anode-electrolyte interface,0.0143607633421233,0.0150647067601826,0.0135339774898095,-3.156731644183665e-05,high
800,3.939393939393939,3.4430379746835444,anode-electrolyte interface,0.0143902181071003,0.0151142887882771,0.0135358823796353,-2.432480980126235e-05,high
800,4.040404040404041,3.4430379746835444,anode-electrolyte interface,0.0143914791043325,0.0152073381405389,0.0134058419446331,-2.652518251823869e-05,high
800,4.141414141414141,3.4430379746835444,anode-electrolyte interface,0.0144791966531518,0.015152288854265,0.0136960452106185,4.358081306255688e-06,high
800,4.242424242424242,3.4430379746835444,anode-electrolyte interface,0.0143677666471041,0.0150206667649934,0.0136100728208596,-5.937075875348e-05,high
800,4.343434343434343,3.4430379746835444,anode-electrolyte interface,0.0143927447497159,0.01510973809521,0.0135484127334423,1.1496913408051004e-05,high
800,4.444444444444445,3.4430379746835444,anode-electrolyte interface,0.0142482524561008,0.0149929995734771,0.0133633457208466,9.826503434731623e-06,high
800,4.545454545454545,3.4430379746835444,anode-electrolyte interface,0.014454362875577,0.0151740457910352,0.0136064840457909,4.451347318038098e-05,high
800,4.646464646464646,3.4430379746835444,anode-electrolyte interface,0.0143043804726132,0.0149244687727829,0.0135907959175595,2.006781532559508e-05,high
800,4.747474747474747,3.4430379746835444,anode-electrolyte interface,0.014459920514389,0.0152020429475835,0.0135809847518551,-3.0321281479920244e-05,high
800,4.848484848484849,3.4430379746835444,anode-electrolyte interface,0.0142749891853056,0.0148174596274628,0.0136622893948869,1.2602207646383644e-05,high
800,4.94949494949495,3.4430379746835444,anode-electrolyte interface,0.0142444274190971,0.014939249637288,0.0134291392730131,2.591763996422649e-05,high
800,5.05050505050505,3.4430379746835444,anode-electrolyte interface,0.0142582671421557,0.015029489969657,0.0133356714043431,-1.65424167711368e-05,high
800,5.151515151515151,3.4430379746835444,anode-electrolyte interface,0.0143992151246132,0.0150947913618268,0.0135844304107301,-2.622456269647727e-05,high
800,5.252525252525253,3.4430379746835444,anode-electrolyte interface,0.0142863077825398,0.0149438985821484,0.0135220466829205,4.01371875732369e-05,high
800,5.353535353535354,3.4430379746835444,anode-electrolyte interface,0.0143137074133741,0.0150235358381852,0.0134767074076123,8.513715023882441e-05,high
800,5.454545454545454,3.4430379746835444,anode-electrolyte interface,0.0145043461403307,0.0152530020188704,0.013614288390208,0.0001031282380295,high
800,5.555555555555555,3.4430379746835444,anode-electrolyte interface,0.0142877416474239,0.0148992284731547,0.0135848679709617,-5.153049843662116e-05,high
800,5.656565656565657,3.4430379746835444,anode-electrolyte interface,0.0144274418200516,0.0152211997019191,0.0134746744927351,2.2943684980879083e-06,high
800,5.757575757575758,3.4430379746835444,anode-electrolyte interface,0.0143839782544037,0.0151195261176656,0.0135136012332084,-1.4010703372433708e-05,high
800,5.858585858585858,3.4430379746835444,anode-electrolyte interface,0.014465689915353,0.0152334863976652,0.0135505651611983,-2.317164361586728e-05,high
800,5.959595959595959,3.4430379746835444,anode-electrolyte interface,0.0143616428387944,0.0151558995593396,0.0134071000003569,-2.4658630438591963e-05,high
800,6.0606060606060606,3.4430379746835444,anode-electrolyte interface,0.0143646823080034,0.0149917237944031,0.0136424111286072,-8.033472065542924e-06,high
800,6.161616161616162,3.4430379746835444,anode-electrolyte interface,0.0143900695708616,0.0151107081312087,0.0135372922661142,-0.0001160351233965,high
800,6.262626262626262,3.4430379746835444,anode-electrolyte interface,0.0143910495784769,0.0151649553680369,0.0134647253393881,-8.076097482326263e-05,high
800,6.363636363636363,3.4430379746835444,anode-electrolyte interface,0.014463066676891,0.0151620800102476,0.013641454563178,0.0001082749691858,high
800,6.4646464646464645,3.4430379746835444,anode-electrolyte interface,0.0144804949641427,0.0151518762688404,0.0136994972542607,-2.7338999568084616e-05,high
800,6.565656565656566,3.4430379746835444,anode-electrolyte interface,0.0145363717132962,0.0152471458454472,0.0137021091382248,-1.739482396922626e-05,high
800,6.666666666666667,3.4430379746835444,anode-electrolyte interface,0.0146588781529782,0.0155139154199045,0.0136186705536708,6.285565390014892e-05,high
800,6.767676767676767,3.4430379746835444,anode-electrolyte interface,0.0145802289956532,0.0151690999506806,0.0139093556869986,-3.519133490686788e-05,high
800,6.8686868686868685,3.4430379746835444,anode-electrolyte interface,0.0146584500056281,0.015362804157285,0.0138299083806784,-0.000134428593192,high
800,6.96969696969697,3.4430379746835444,anode-electrolyte interface,0.0147078743112075,0.0154950738461957,0.0137681765011446,1.265834693868288e-05,high
800,7.070707070707071,3.4430379746835444,anode-electrolyte interface,0.0146085479361902,0.01527097504781,0.0138398761445716,-6.639644715388776e-05,high
800,7.171717171717171,3.4430379746835444,anode-electrolyte interface,0.0148631765447257,0.0154866758304389,0.0141478457380376,-7.842265684426462e-05,high
800,7.272727272727272,3.4430379746835444,anode-electrolyte interface,0.0149388429372329,0.0157299382187968,0.0139960785961354,-4.20614216932512e-05,high
800,7.373737373737374,3.4430379746835444,anode-electrolyte interface,0.0149914183799394,0.0157830022453028,0.0140485864387852,4.303311054264171e-05,high
800,7.474747474747475,3.4430379746835444,anode-electrolyte interface,0.0149256827275533,0.0157904352569595,0.0138762169885005,9.439912465375412e-06,high
800,7.575757575757575,3.4430379746835444,anode-electrolyte interface,0.0148838978945405,0.0155798586591508,0.0140733476332509,-4.9691315132120994e-06,high
800,7.6767676767676765,3.4430379746835444,anode-electrolyte interface,0.014988218076026,0.0155909907019827,0.0143016631656697,4.905153675268168e-05,high
800,7.777777777777778,3.4430379746835444,anode-electrolyte interface,0.0150505067658928,0.0158529387581978,0.0140933264411651,1.7101976997289973e-05,critical
800,7.878787878787879,3.4430379746835444,anode-electrolyte interface,0.0152103846648733,0.0159481353240194,0.0143456578819505,-2.1404731884863597e-05,critical
800,7.979797979797979,3.4430379746835444,anode-electrolyte interface,0.0151933009149115,0.0158923626332728,0.0143807488933049,-4.946460603960423e-05,critical
800,8.080808080808081,3.4430379746835444,anode-electrolyte interface,0.0151913215417926,0.0159354391735694,0.0143176415098606,-1.893423771459144e-05,critical
800,8.181818181818182,3.4430379746835444,anode-electrolyte interface,0.0154016616040535,0.0161870671995274,0.0144723606682019,4.4298251378040354e-05,critical
800,8.282828282828282,3.4430379746835444,anode-electrolyte interface,0.0154466110543439,0.0162201408899266,0.0145346655801929,2.967909342689359e-05,critical
800,8.383838383838384,3.4430379746835444,anode-electrolyte interface,0.0155947518445986,0.0163432830147663,0.0147180933191072,6.602776139494725e-05,critical
800,8.484848484848484,3.4430379746835444,anode-electrolyte interface,0.0156262721899246,0.0164124164258549,0.0146979658625959,6.299595179707425e-05,critical
800,8.585858585858587,3.4430379746835444,anode-electrolyte interface,0.0157653425679249,0.016489165291667,0.0149234344882467,-8.069559918320781e-05,critical
800,8.686868686868687,3.4430379746835444,anode-electrolyte interface,0.0158263914103117,0.016588359504779,0.0149336484278462,-6.289537654902505e-05,critical
800,8.787878787878787,3.4430379746835444,anode-electrolyte interface,0.0159898461241411,0.0168491854895369,0.0149630426418918,2.923052572092007e-05,critical
800,8.88888888888889,3.4430379746835444,anode-electrolyte interface,0.016080775289085,0.0168223980139751,0.0152175049683139,8.312010068581834e-05,critical
800,8.98989898989899,3.4430379746835444,anode-electrolyte interface,0.0161193155007265,0.0168997726811731,0.0152049278704956,1.6965329196996349e-06,critical
800,9.09090909090909,3.4430379746835444,anode-electrolyte interface,0.016231750323333,0.0170250247266561,0.0153008190508021,-1.885769183526015e-06,critical
800,9.191919191919192,3.4430379746835444,anode-electrolyte interface,0.0164467441062992,0.017268579127439,0.0154770455523458,8.002784461604686e-05,critical
800,9.292929292929292,3.4430379746835444,anode-electrolyte interface,0.0167156234406041,0.0175565103579224,0.0157229129528493,-5.917051848232063e-05,critical
800,9.393939393939394,3.4430379746835444,anode-electrolyte interface,0.0167333266152129,0.0175178765998855,0.0158191737358053,-9.91253364719513e-06,critical
800,9.494949494949497,3.4430379746835444,anode-electrolyte interface,0.0168812861377779,0.0175894191887703,0.0160704128920473,-2.010506744376032e-05,critical
800,9.595959595959595,3.4430379746835444,anode-electrolyte interface,0.0169710614026685,0.0177405766233389,0.0160786986392597,5.686676186506243e-05,critical
800,9.696969696969695,3.4430379746835444,anode-electrolyte interface,0.0171401736671471,0.0178644819473416,0.0163091850368217,-6.181476074123855e-05,critical
800,9.797979797979798,3.4430379746835444,anode-electrolyte interface,0.0172556487602846,0.0180733017445588,0.0163002187031733,7.028404729120283e-05,critical
800,9.8989898989899,3.4430379746835444,anode-electrolyte interface,0.0175109919984398,0.018373495588155,0.0164945322473113,0.0001184934014111,critical
800,10.0,3.4430379746835444,anode-electrolyte interface,0.0178282898155161,0.0186076797750473,0.0169303291529057,9.47405263373636e-06,critical
800,0.0,4.556962025316456,electrolyte,0.0177774907442681,0.0186268825144147,0.0167843869349166,-3.456245022793831e-05,critical
800,0.101010101010101,4.556962025316456,electrolyte,0.0175649654767881,0.0183611285191617,0.0166417317611747,5.9753217591939816e-05,critical
800,0.202020202020202,4.556962025316456,electrolyte,0.0173804950311905,0.0181829975528367,0.0164477817581327,-1.481235213708014e-05,critical
800,0.303030303030303,4.556962025316456,electrolyte,0.0173398906542401,0.0181929484177337,0.0163374123900156,-3.2109500389391435e-05,critical
800,0.404040404040404,4.556962025316456,electrolyte,0.0169678531064114,0.0178281620108867,0.0159512832743586,-3.318007589597929e-05,critical
800,0.5050505050505051,4.556962025316456,electrolyte,0.0168625856341357,0.0176542645828097,0.0159398432352339,2.116465769831723e-05,critical
800,0.6060606060606061,4.556962025316456,electrolyte,0.016731284285384,0.0174928260338109,0.0158482779447817,-7.447542354577931e-06,critical
800,0.7070707070707071,4.556962025316456,electrolyte,0.016583379728682,0.0174668929642493,0.0155290630322475,-5.4211194875568814e-05,critical
800,0.8080808080808081,4.556962025316456,electrolyte,0.0163671192774316,0.0171726271038282,0.0154204028169779,3.403979759955221e-05,critical
800,0.9090909090909092,4.556962025316456,electrolyte,0.0160883170466884,0.0169988757707311,0.0149888499047933,-6.926646854561384e-06,critical
800,1.0101010101010102,4.556962025316456,electrolyte,0.0161383352800166,0.0170258771377083,0.0150730096785457,1.7920330770821602e-05,critical
800,1.1111111111111112,4.556962025316456,electrolyte,0.0159958446964864,0.0167368902815277,0.0151337681729807,4.0123151864733295e-05,critical
800,1.2121212121212122,4.556962025316456,electrolyte,0.0158137061654146,0.0165122739478206,0.0150065148414721,6.906068659035715e-05,critical
800,1.3131313131313131,4.556962025316456,electrolyte,0.0157748494070661,0.0165601211309982,0.0148495818628954,-5.493885592667687e-05,critical
800,1.414141414141414,4.556962025316456,electrolyte,0.0157122813210406,0.0164647502136911,0.0148293489272994,0.0001150666826064,critical
800,1.5151515151515151,4.556962025316456,electrolyte,0.0156592524657033,0.0163883536727261,0.0148106915014517,1.031818031109572e-05,critical
800,1.616161616161616,4.556962025316456,electrolyte,0.0156557758694652,0.0163737271021121,0.0148223030492317,-4.333210796426574e-06,critical
800,1.7171717171717171,4.556962025316456,electrolyte,0.0154899380886174,0.016342593874982,0.014466347298062,-8.98192867244556e-06,critical
800,1.818181818181818,4.556962025316456,electrolyte,0.0153969052369832,0.0161669050405884,0.0144875843791492,-9.160070503175942e-05,critical
800,1.9191919191919191,4.556962025316456,electrolyte,0.0153393677101534,0.0160969089656051,0.0144486019026098,2.2030787526087915e-05,critical
800,2.0202020202020203,4.556962025316456,electrolyte,0.0152147644853884,0.0159176089539947,0.0143978066794099,-1.4175964910817994e-05,critical
800,2.121212121212121,4.556962025316456,electrolyte,0.0151671655399782,0.0158997419886264,0.0143091733407419,1.6710327564036253e-05,critical
800,2.2222222222222223,4.556962025316456,electrolyte,0.0149764273860626,0.0157182813656245,0.0141029426489421,5.784300895373364e-05,high
800,2.323232323232323,4.556962025316456,electrolyte,0.0150279329087558,0.0158148573665938,0.0140907493583776,8.761239430263582e-05,critical
800,2.4242424242424243,4.556962025316456,electrolyte,0.0150318476937728,0.0157411091092512,0.0142042811885193,3.3985408024270465e-05,critical
800,2.525252525252525,4.556962025316456,electrolyte,0.0148525997938793,0.0155784751575752,0.0139998682128798,-6.088674630947367e-05,high
800,2.6262626262626263,4.556962025316456,electrolyte,0.0148400697690194,0.0155408147826025,0.0140225090507704,-2.0020894581211925e-05,high
800,2.727272727272727,4.556962025316456,electrolyte,0.0147110722546787,0.0153948224769365,0.0139150169658073,-4.692753082066842e-05,high
800,2.8282828282828283,4.556962025316456,electrolyte,0.0146934759132576,0.0154450376698839,0.0138033687611394,-5.658951742407007e-05,high
800,2.929292929292929,4.556962025316456,electrolyte,0.0146996874339961,0.0154661926186486,0.0137888403618681,4.632867869631225e-05,high
800,3.0303030303030303,4.556962025316456,electrolyte,0.0146454161816706,0.0153817275411758,0.0137762292724847,-5.2868482863317225e-05,high
800,3.131313131313131,4.556962025316456,electrolyte,0.0146614095458364,0.0154147384388063,0.0137689589879034,3.385506632213236e-05,high
800,3.2323232323232323,4.556962025316456,electrolyte,0.0146424414032605,0.0153542557564384,0.0138048953517914,0.0001105722420822,high
800,3.333333333333333,4.556962025316456,electrolyte,0.0146238041615684,0.0152902699400091,0.0138505811620894,-3.5681854800850606e-05,high
800,3.4343434343434343,4.556962025316456,electrolyte,0.0145199093364305,0.0151258842935205,0.0138252508061262,-7.52233280890146e-05,high
800,3.5353535353535355,4.556962025316456,electrolyte,0.0145553230377842,0.0153272145328861,0.0136353529790432,3.19002374931527e-05,high
800,3.636363636363636,4.556962025316456,electrolyte,0.0146829853355574,0.0153649249677103,0.0138895207578022,2.4471074723484887e-05,high
800,3.7373737373737375,4.556962025316456,electrolyte,0.0144990661383237,0.0152158064116927,0.0136557238245715,-4.550120374520249e-05,high
800,3.8383838383838382,4.556962025316456,electrolyte,0.0145475275461433,0.0152621134135456,0.0137064570507892,-8.364404696445382e-05,high
800,3.939393939393939,4.556962025316456,electrolyte,0.0142503876896332,0.014896987378111,0.0135008418010718,-2.8617757439012204e-05,high
800,4.040404040404041,4.556962025316456,electrolyte,0.0144500867672118,0.0150129166772555,0.01381208267373,3.346120068070055e-05,high
800,4.141414141414141,4.556962025316456,electrolyte,0.0144002688989078,0.0151060716714551,0.013571547667628,-8.340319181434746e-06,high
800,4.242424242424242,4.556962025316456,electrolyte,0.0144618156382007,0.0150600120048094,0.0137781529940054,2.4491739457053006e-05,high
800,4.343434343434343,4.556962025316456,electrolyte,0.01423838695749,0.0148805818773734,0.013494072735925,5.657250727110294e-05,high
800,4.444444444444445,4.556962025316456,electrolyte,0.0143426617759751,0.0149807148235134,0.0136055428522899,-5.519067914299713e-06,high
800,4.545454545454545,4.556962025316456,electrolyte,0.0144288508458332,0.0151618963144258,0.0135624604018924,-1.7541484170879625e-05,high
800,4.646464646464646,4.556962025316456,electrolyte,0.0144044485000577,0.0151883679142811,0.0134655443218303,1.116742423652553e-05,high
800,4.747474747474747,4.556962025316456,electrolyte,0.0142650891335478,0.0149185642686664,0.0135059656319183,-5.071748333335039e-05,high
800,4.848484848484849,4.556962025316456,electrolyte,0.0144031925646925,0.0150604158326587,0.0136365935414229,0.0001315508315138,high
800,4.94949494949495,4.556962025316456,electrolyte,0.0143787505979479,0.0150855054161776,0.0135482018222441,3.509249271133547e-05,high
800,5.05050505050505,4.556962025316456,electrolyte,0.0143572733290375,0.014991206458224,0.0136255690931955,-2.951070449795149e-05,high
800,5.151515151515151,4.556962025316456,electrolyte,0.0143811542632145,0.0150110259223774,0.0136532443988477,-9.096094597462648e-05,high
800,5.252525252525253,4.556962025316456,electrolyte,0.0142948862917768,0.014919118335513,0.0135756791583146,2.436817694608874e-05,high
800,5.353535353535354,4.556962025316456,electrolyte,0.0143240979799499,0.0150100346989661,0.0135213996920692,4.854619414012754e-05,high
800,5.454545454545454,4.556962025316456,electrolyte,0.0144029789320914,0.015144529476921,0.0135240800214399,3.7045681548628456e-05,high
800,5.555555555555555,4.556962025316456,electrolyte,0.014371267268428,0.0151446507989342,0.0134450855143079,8.883630617046574e-05,high
800,5.656565656565657,4.556962025316456,electrolyte,0.014324010279608,0.0150175467054663,0.0135113472497539,-2.117634666565297e-05,high
800,5.757575757575758,4.556962025316456,electrolyte,0.0143821071686514,0.0149862156882023,0.0136892000641305,6.696347630389794e-05,high
800,5.858585858585858,4.556962025316456,electrolyte,0.0143842247354472,0.0150632230319958,0.0135921697558692,-3.6044991291644e-06,high
800,5.959595959595959,4.556962025316456,electrolyte,0.0144189299994638,0.0151705913755003,0.0135237853171023,9.95845364677983e-05,high
800,6.0606060606060606,4.556962025316456,electrolyte,0.0143962052106319,0.0151420673929155,0.0135105002374441,6.273748595648419e-05,high
800,6.161616161616162,4.556962025316456,electrolyte,0.0144107984197401,0.0150917028876483,0.0136154567568164,-6.159113056303296e-05,high
800,6.262626262626262,4.556962025316456,electrolyte,0.0144684869110286,0.0151611273447899,0.0136575660508218,-6.408019324259854e-05,high
800,6.363636363636363,4.556962025316456,electrolyte,0.0144780560769204,0.0151859116354635,0.0136470240233743,3.3821974122063144e-05,high
800,6.4646464646464645,4.556962025316456,electrolyte,0.0144739558654806,0.0153492990809736,0.01340130459606,-5.277703899216218e-06,high
800,6.565656565656566,4.556962025316456,electrolyte,0.0144925784401128,0.0152042049462834,0.0136567654366202,-2.61445689692713e-07,high
800,6.666666666666667,4.556962025316456,electrolyte,0.0145504023156828,0.0151803968627831,0.0138254218338708,3.0876019321308944e-05,high
800,6.767676767676767,4.556962025316456,electrolyte,0.0145082226519981,0.0152718809599528,0.0135991889594359,4.2548211667722974e-05,high
800,6.8686868686868685,4.556962025316456,electrolyte,0.0145889877665301,0.0152883333025012,0.0137708821013931,-2.627082459730682e-05,high
800,6.96969696969697,4.556962025316456,electrolyte,0.0145844860951735,0.0153259340555678,0.0137080206127806,2.1376062303808742e-05,high
800,7.070707070707071,4.556962025316456,electrolyte,0.0147791995556068,0.015497724421259,0.0139362033451343,4.814046027661437e-05,high
800,7.171717171717171,4.556962025316456,electrolyte,0.0148959056706606,0.0156681183589789,0.0139798196735067,7.83190413489587e-06,high
800,7.272727272727272,4.556962025316456,electrolyte,0.0148918706708157,0.0156457978329993,0.0140011875711492,3.326160356646516e-05,high
800,7.373737373737374,4.556962025316456,electrolyte,0.0148514265592104,0.0154822061976775,0.0141272454044623,-5.1722771884841706e-05,high
800,7.474747474747475,4.556962025316456,electrolyte,0.0149006784312137,0.0156220970270401,0.014055265306895,2.9084394900430656e-05,high
800,7.575757575757575,4.556962025316456,electrolyte,0.0149285938818131,0.0156368938074914,0.0140991217750628,0.0001027983281983,high
800,7.6767676767676765,4.556962025316456,electrolyte,0.0150349922920054,0.0157790588212191,0.0141597816892487,-1.7384094866494975e-05,critical
800,7.777777777777778,4.556962025316456,electrolyte,0.0151341529378379,0.0157916441149307,0.0143751708344662,-9.765019606654374e-05,critical
800,7.878787878787879,4.556962025316456,electrolyte,0.0151261724293278,0.015893076542539,0.0142200875643721,2.049502799530449e-05,critical
800,7.979797979797979,4.556962025316456,electrolyte,0.0152765067634027,0.0160633481378232,0.0143430404855892,-7.058753204552925e-05,critical
800,8.080808080808081,4.556962025316456,electrolyte,0.0152648022846535,0.0160707056939768,0.0143050782626129,3.672363190100301e-05,critical
800,8.181818181818182,4.556962025316456,electrolyte,0.0152120744781557,0.0158800782480974,0.0144416833692994,-3.24969890039652e-05,critical
800,8.282828282828282,4.556962025316456,electrolyte,0.0154687061713578,0.0161543768233633,0.0146770017717855,1.1780127127537414e-05,critical
800,8.383838383838384,4.556962025316456,electrolyte,0.0153959146385326,0.0161136698584388,0.0145600031757208,4.1725630053897216e-05,critical
800,8.484848484848484,4.556962025316456,electrolyte,0.015647595512309,0.016332182193445,0.0148582593050049,4.8299720414493705e-05,critical
800,8.585858585858587,4.556962025316456,electrolyte,0.0157184096012095,0.01635144710758,0.0149976328146619,-2.9368599069648903e-05,critical
800,8.686868686868687,4.556962025316456,electrolyte,0.0157552115045835,0.0164279479517583,0.0149805421111895,0.000103504903428,critical
800,8.787878787878787,4.556962025316456,electrolyte,0.0160060911761412,0.0168119917380501,0.0150552466640742,6.296911529692337e-06,critical
800,8.88888888888889,4.556962025316456,electrolyte,0.0160162039678511,0.0167700308373876,0.0151365045766172,-5.981352983816076e-05,critical
800,8.98989898989899,4.556962025316456,electrolyte,0.0162249982627605,0.0170288897785308,0.0152789923438941,3.719786572280831e-05,critical
800,9.09090909090909,4.556962025316456,electrolyte,0.0163124886590306,0.0170565498257395,0.0154487072760238,-5.911342081951505e-05,critical
800,9.191919191919192,4.556962025316456,electrolyte,0.016313432228714,0.0170264720832734,0.0154916802752497,3.569994085431197e-05,critical
800,9.292929292929292,4.556962025316456,electrolyte,0.0165785277659813,0.0173641577642643,0.0156605932581764,6.439162486976533e-05,critical
800,9.393939393939394,4.556962025316456,electrolyte,0.0168175398208769,0.0175753112857731,0.0159398903588019,-4.658004353882362e-05,critical
800,9.494949494949497,4.556962025316456,electrolyte,0.0169038995646118,0.0178060065923281,0.0158259421782808,9.006414461474625e-05,critical
800,9.595959595959595,4.556962025316456,electrolyte,0.0168937358013061,0.0176948074303548,0.0159573510068469,7.59415038227306e-05,critical
800,9.696969696969695,4.556962025316456,electrolyte,0.0172422586943303,0.0180928591209667,0.0162421451507461,-3.414990433630688e-05,critical
800,9.797979797979798,4.556962025316456,electrolyte,0.017487433450079,0.0183363496793361,0.0164923703136614,-8.157971804281812e-06,critical
800,9.8989898989899,4.556962025316456,electrolyte,0.0175000493923887,0.0182747147341717,0.0166048991141521,-6.74537628135771e-05,critical
800,10.0,4.556962025316456,electrolyte,0.0177009108844187,0.0185470037980266,0.0167091655236272,-0.0001149495348909,critical
800,0.0,4.658227848101266,electrolyte,0.0178272717551161,0.0187843525949398,0.0166841342434939,-3.684920213273584e-06,critical
800,0.101010101010101,4.658227848101266,electrolyte,0.0175892700049267,0.0184699714804385,0.0165510948263116,2.6345653996946705e-05,critical
800,0.202020202020202,4.658227848101266,electrolyte,0.0172619969663163,0.0181479474975186,0.016212655891639,-3.982356306650526e-05,critical
800,0.303030303030303,4.658227848101266,electrolyte,0.0172637049943759,0.0180192144831157,0.0163929434651406,-3.0487161091135407e-05,critical
800,0.404040404040404,4.658227848101266,electrolyte,0.0169403864155346,0.0178223503656262,0.0158931330883225,-2.467317687362015e-05,critical
800,0.5050505050505051,4.658227848101266,electrolyte,0.0169801999451563,0.0178584211322367,0.0159387813213241,-1.5318866501234078e-05,critical
800,0.6060606060606061,4.658227848101266,electrolyte,0.0167040191861036,0.0174331765048272,0.0158594698979689,-0.0001491827525361,critical
800,0.7070707070707071,4.658227848101266,electrolyte,0.0166940776663294,0.0175485743110333,0.0156800479113077,0.0001130667219258,critical
800,0.8080808080808081,4.658227848101266,electrolyte,0.0165487331064649,0.0173424070144484,0.0156203365518853,-1.6396803711459575e-05,critical
800,0.9090909090909092,4.658227848101266,electrolyte,0.0161996543147305,0.01696831187521,0.0153017976995064,4.417692591715741e-05,critical
800,1.0101010101010102,4.658227848101266,electrolyte,0.0161845692748788,0.0169857913868978,0.0152410282242981,7.10825342780353e-05,critical
800,1.1111111111111112,4.658227848101266,electrolyte,0.0159452866265328,0.0167115469442262,0.0150486974270036,5.278400346719653e-06,critical
800,1.2121212121212122,4.658227848101266,electrolyte,0.0159796369198721,0.0166879474591305,0.0151617709696015,-1.5748922390974235e-05,critical
800,1.3131313131313131,4.658227848101266,electrolyte,0.0157436005283323,0.0165312665231908,0.0148143337553939,6.683260844186455e-05,critical
800,1.414141414141414,4.658227848101266,electrolyte,0.0157251921216664,0.0164656009994892,0.014861869349402,5.809303987758582e-06,critical
800,1.5151515151515151,4.658227848101266,electrolyte,0.0155292960911692,0.0163432185667169,0.0145614285289866,-3.48915261623083e-05,critical
800,1.616161616161616,4.658227848101266,electrolyte,0.0154608423507301,0.0162652808945178,0.0145045850301151,7.404164135546435e-05,critical
800,1.7171717171717171,4.658227848101266,electrolyte,0.0154858190729117,0.0161874325248042,0.0146726788648015,3.222124748229895e-05,critical
800,1.818181818181818,4.658227848101266,electrolyte,0.015333401297986,0.0161678667818172,0.0143339170882423,1.7906630053232695e-05,critical
800,1.9191919191919191,4.658227848101266,electrolyte,0.0152032991250995,0.0158608961411759,0.014446315200587,5.085938318284744e-05,critical
800,2.0202020202020203,4.658227848101266,electrolyte,0.0151950375210018,0.0160132409664229,0.0142171914644617,-4.4221021027358e-06,critical
800,2.121212121212121,4.658227848101266,electrolyte,0.0151684267631795,0.0159460150479135,0.0142478329540938,1.9911136196367355e-05,critical
800,2.2222222222222223,4.658227848101266,electrolyte,0.0151401120294003,0.0158717113762065,0.0142831588143294,2.0966476338661232e-05,critical
800,2.323232323232323,4.658227848101266,electrolyte,0.0150359025768047,0.015777752003101,0.0141636808577474,2.6436163945650867e-05,critical
800,2.4242424242424243,4.658227848101266,electrolyte,0.0149151242111652,0.0155929952533067,0.0141279256817221,-7.707851136085585e-05,high
800,2.525252525252525,4.658227848101266,electrolyte,0.0149259413514281,0.0155101744292989,0.0142626299699622,-6.185842327078553e-05,high
800,2.6262626262626263,4.658227848101266,electrolyte,0.0148351716910266,0.0155894102543641,0.0139434461278687,3.172354308089423e-05,high
800,2.727272727272727,4.658227848101266,electrolyte,0.0148394294981197,0.0155452045346772,0.0140144557506927,-5.1299458390100256e-05,high
800,2.8282828282828283,4.658227848101266,electrolyte,0.0147584473962734,0.0154989589670963,0.0138853064927683,5.763786204837265e-06,high
800,2.929292929292929,4.658227848101266,electrolyte,0.0148102617073544,0.0156374030917684,0.0138142961109592,-1.1776540714606857e-05,high
800,3.0303030303030303,4.658227848101266,electrolyte,0.0147275058958567,0.0154011619162821,0.0139457729721863,7.42387016444891e-06,high
800,3.131313131313131,4.658227848101266,electrolyte,0.0146241105644682,0.0154305018197687,0.0136551307473945,4.8810894668956766e-05,high
800,3.2323232323232323,4.658227848101266,electrolyte,0.0144916050377651,0.0152105941798932,0.0136447681627478,5.707962953541932e-05,high
800,3.333333333333333,4.658227848101266,electrolyte,0.0146427504439054,0.0153535533893929,0.013809588298837,4.514048694603718e-06,high
800,3.4343434343434343,4.658227848101266,electrolyte,0.0144737124433063,0.0151546090782116,0.0136793579330125,-4.7131144592983975e-05,high
800,3.5353535353535355,4.658227848101266,electrolyte,0.0145568487702034,0.0153695896731643,0.013578203698414,-2.1315602845469804e-05,high
800,3.636363636363636,4.658227848101266,electrolyte,0.0143825479659094,0.0151335377918704,0.0134876108884126,0.0001054221961521,high
800,3.7373737373737375,4.658227848101266,electrolyte,0.0145898230360611,0.0152097041607054,0.0138780789315369,-5.2394672203444e-05,high
800,3.8383838383838382,4.658227848101266,electrolyte,0.0146100875637412,0.015274441855001,0.0138393286617175,-4.860653932864811e-05,high
800,3.939393939393939,4.658227848101266,electrolyte,0.0144390871628706,0.015170759583856,0.0135746319303137,2.6690550443146786e-05,high
800,4.040404040404041,4.658227848101266,electrolyte,0.0145024605322152,0.0152857126838573,0.0135656242031839,2.842041557586078e-05,high
800,4.141414141414141,4.658227848101266,electrolyte,0.0143936832784417,0.0150792491905963,0.0135926957882791,1.44952718814396e-05,high
800,4.242424242424242,4.658227848101266,electrolyte,0.0144522754682561,0.015197236084315,0.0135687480488601,5.42385521615052e-05,high
800,4.343434343434343,4.658227848101266,electrolyte,0.0143655346976011,0.0150137077051873,0.0136124621181774,0.0001025842135602,high
800,4.444444444444445,4.658227848101266,electrolyte,0.0144024767311047,0.0150491406675271,0.0136539956868449,-3.653631869402952e-05,high
800,4.545454545454545,4.658227848101266,electrolyte,0.0144138669696249,0.0151014794005156,0.0136084186980513,8.77042655525944e-05,high
800,4.646464646464646,4.658227848101266,electrolyte,0.0142742919227056,0.0149025466384666,0.0135497110087038,-3.89052316221951e-06,high
800,4.747474747474747,4.658227848101266,electrolyte,0.014363244046483,0.0151143247370996,0.0134706052988363,-2.4920240765611246e-05,high
800,4.848484848484849,4.658227848101266,electrolyte,0.0142736139074643,0.0149857227031506,0.01343475125766,1.901421868282133e-05,high
800,4.94949494949495,4.658227848101266,electrolyte,0.0143030167272801,0.0150055924149603,0.0134777146222019,1.617245948736323e-05,high
800,5.05050505050505,4.658227848101266,electrolyte,0.0142686732384358,0.0150085387162351,0.0133901155182487,5.678957351185244e-05,high
800,5.151515151515151,4.658227848101266,electrolyte,0.0142901287658954,0.015029722658605,0.0134123228752377,5.261515671546904e-05,high
800,5.252525252525253,4.658227848101266,electrolyte,0.014297913062198,0.0151384439258107,0.0132738254788588,5.308260467489403e-05,high
800,5.353535353535354,4.658227848101266,electrolyte,0.014283289268831,0.0150280494528459,0.0133987939960577,6.836480054117235e-06,high
800,5.454545454545454,4.658227848101266,electrolyte,0.0143605602977819,0.015072300521502,0.0135226661128536,4.703814374971811e-05,high
800,5.555555555555555,4.658227848101266,electrolyte,0.0144168897723289,0.0151464825308421,0.013554337483828,6.123436074858757e-05,high
800,5.656565656565657,4.658227848101266,electrolyte,0.0143117036974512,0.015024017059166,0.0134727311781391,-3.5738797984767575e-05,high
800,5.757575757575758,4.658227848101266,electrolyte,0.0143782835779584,0.0150520443494529,0.0135914425705265,8.695735923672312e-05,high
800,5.858585858585858,4.658227848101266,electrolyte,0.0143788349114613,0.0150657575621567,0.0135750434796382,-5.873946791894776e-05,high
800,5.959595959595959,4.658227848101266,electrolyte,0.0144039008338683,0.0150718076775672,0.0136266243761936,-4.450679687449291e-05,high
800,6.0606060606060606,4.658227848101266,electrolyte,0.0144008547962886,0.0151173575354258,0.0135572936720854,1.101442094074611e-05,high
800,6.161616161616162,4.658227848101266,electrolyte,0.0144739055624816,0.0151327025478412,0.0137098461510381,2.82732228289694e-05,high
800,6.262626262626262,4.658227848101266,electrolyte,0.0144154003094271,0.0151589188354407,0.0135342150413294,-3.4808772408391755e-06,high
800,6.363636363636363,4.658227848101266,electrolyte,0.0144540946943685,0.0151189883130713,0.0136818188950843,-6.770559768774837e-06,high
800,6.4646464646464645,4.658227848101266,electrolyte,0.0144889060444234,0.0152977041371152,0.0135151179266945,-1.3030039025874328e-05,high
800,6.565656565656566,4.658227848101266,electrolyte,0.0145026817894246,0.0151471523143731,0.0137577842007537,4.539652362886193e-05,high
800,6.666666666666667,4.658227848101266,electrolyte,0.0145150952138174,0.0152380952345439,0.0136632826982657,4.301770603157181e-05,high
800,6.767676767676767,4.658227848101266,electrolyte,0.0143949685395385,0.0149638351873473,0.0137489941498326,-2.3079991151507944e-05,high
800,6.8686868686868685,4.658227848101266,electrolyte,0.014657257679965,0.0152983621582859,0.0139147718567411,0.000126044119281,high
800,6.96969696969697,4.658227848101266,electrolyte,0.014725622161406,0.0154107183776678,0.0139283902378971,-7.116086123856837e-06,high
800,7.070707070707071,4.658227848101266,electrolyte,0.0145974542868023,0.0152889369007381,0.0137902409322506,-2.204986897160732e-05,high
800,7.171717171717171,4.658227848101266,electrolyte,0.014887322739143,0.0156855496589527,0.0139332482217106,6.099486395739511e-05,high
800,7.272727272727272,4.658227848101266,electrolyte,0.0148302710944013,0.015532576458766,0.0140105263406804,1.562644442423916e-05,high
800,7.373737373737374,4.658227848101266,electrolyte,0.0149951212239886,0.0158471988739239,0.0139648039644815,-4.907228179318506e-05,high
800,7.474747474747475,4.658227848101266,electrolyte,0.0148517823966084,0.0155685978505657,0.0140123011901147,-2.235226293906695e-05,high
800,7.575757575757575,4.658227848101266,electrolyte,0.0149596338317848,0.0157958665383318,0.0139518680657863,-5.312904653071765e-05,high
800,7.6767676767676765,4.658227848101266,electrolyte,0.0150043689002854,0.015634905235461,0.0142820051386339,3.1360851118642976e-05,critical
800,7.777777777777778,4.658227848101266,electrolyte,0.0151451384939999,0.0157750765729043,0.0144243263393474,4.412593046805719e-05,critical
800,7.878787878787879,4.658227848101266,electrolyte,0.0151213844133172,0.0159468575348131,0.0141320023491316,-2.265014400814585e-05,critical
800,7.979797979797979,4.658227848101266,electrolyte,0.0153042705633966,0.0161161000987863,0.0143368231118662,1.9954214563363983e-05,critical
800,8.080808080808081,4.658227848101266,electrolyte,0.0152991530400936,0.0159393647626558,0.0145658095892356,5.058927277398787e-05,critical
800,8.181818181818182,4.658227848101266,electrolyte,0.0153655043696553,0.0160479409200705,0.0145771377752595,-2.8383340291460625e-05,critical
800,8.282828282828282,4.658227848101266,electrolyte,0.0154315294936274,0.0160975391751809,0.0146654261603001,3.597540431806381e-05,critical
800,8.383838383838384,4.658227848101266,electrolyte,0.0155294298180864,0.0162350083953398,0.0147107670481267,-5.9026158299655495e-05,critical
800,8.484848484848484,4.658227848101266,electrolyte,0.0157581889290882,0.0164589222484391,0.0149487068480894,7.394637050575601e-06,critical
800,8.585858585858587,4.658227848101266,electrolyte,0.0158423595569236,0.016511010459764,0.015076080766107,1.4004368713284531e-06,critical
800,8.686868686868687,4.658227848101266,electrolyte,0.0159010372018812,0.0166649531382265,0.0150064946054652,-5.7648421760858586e-05,critical
800,8.787878787878787,4.658227848101266,electrolyte,0.0158788867782785,0.0164780702281824,0.0152025108880037,3.629338708071981e-05,critical
800,8.88888888888889,4.658227848101266,electrolyte,0.0160870020462049,0.0168914524490471,0.0151390632315893,2.349679993673309e-07,critical
800,8.98989898989899,4.658227848101266,electrolyte,0.0159848358809818,0.0167402501643806,0.0151034121483454,1.6750643164850206e-05,critical
800,9.09090909090909,4.658227848101266,electrolyte,0.0161127412229821,0.0169344090268474,0.0151409801684773,1.279854640292687e-05,critical
800,9.191919191919192,4.658227848101266,electrolyte,0.0164383300818331,0.0171962219025366,0.0155574371082366,-3.623777622833453e-05,critical
800,9.292929292929292,4.658227848101266,electrolyte,0.0166221914703024,0.0173796236134349,0.0157436482171128,2.679217717899426e-05,critical
800,9.393939393939394,4.658227848101266,electrolyte,0.016648092856736,0.0174748629996672,0.0156733076673959,-9.035100422478892e-05,critical
800,9.494949494949497,4.658227848101266,electrolyte,0.0167813356178375,0.0175526946884393,0.0158855013759648,-1.0582253240906552e-05,critical
800,9.595959595959595,4.658227848101266,electrolyte,0.0171366380998497,0.0179584868369324,0.0161753484180081,-6.045890879076643e-07,critical
800,9.696969696969695,4.658227848101266,electrolyte,0.017337730887684,0.0182439431580869,0.0162603086237015,-5.761974194599315e-05,critical
800,9.797979797979798,4.658227848101266,electrolyte,0.01726661601428,0.0181611154757377,0.0162045305574699,-7.177129850492396e-05,critical
800,9.8989898989899,4.658227848101266,electrolyte,0.0174967682393955,0.018360481905085,0.0164813015821931,1.7707484964562535e-05,critical
800,10.0,4.658227848101266,electrolyte,0.0178714369835435,0.0188395952763926,0.0167127733762318,3.163388207513536e-05,critical
800,0.0,4.759493670886076,electrolyte,0.0177411616841316,0.0184979612661612,0.0168724895502527,6.925790037198114e-07,critical
800,0.101010101010101,4.759493670886076,electrolyte,0.017451963185302,0.0182447658655681,0.0165324011326543,5.488831593906312e-05,critical
800,0.202020202020202,4.759493670886076,electrolyte,0.0173952863010543,0.0182285645880332,0.0164199844432951,6.39697756769938e-05,critical
800,0.303030303030303,4.759493670886076,electrolyte,0.0172709355826378,0.01811695184801,0.0162773285961389,4.25198005370677e-05,critical
800,0.404040404040404,4.759493670886076,electrolyte,0.0169483140667178,0.0177439420733155,0.0160209688799935,-2.287148300831741e-05,critical
800,0.5050505050505051,4.759493670886076,electrolyte,0.0169012580657264,0.0177309210165043,0.0159264067077088,4.616240363110915e-05,critical
800,0.6060606060606061,4.759493670886076,electrolyte,0.0166840561028826,0.0174764963951363,0.0157586705137511,-1.229985995979696e-05,critical
800,0.7070707070707071,4.759493670886076,electrolyte,0.0165000877825608,0.0172857948862654,0.0155820978772827,-2.1334864873611208e-05,critical
800,0.8080808080808081,4.759493670886076,electrolyte,0.0165728417315433,0.01735933946963,0.0156545013747313,-1.639651603932916e-05,critical
800,0.9090909090909092,4.759493670886076,electrolyte,0.0163637024232791,0.0171296709626583,0.0154713164841512,-2.6183255357385085e-05,critical
800,1.0101010101010102,4.759493670886076,electrolyte,0.0160870540027558,0.0168218076429353,0.0152344402102853,3.0267452958602318e-05,critical
800,1.1111111111111112,4.759493670886076,electrolyte,0.016141722263648,0.0168779883636099,0.0152875292630079,3.107237073515197e-05,critical
800,1.2121212121212122,4.759493670886076,electrolyte,0.0158982597066164,0.0166372564375456,0.0150384104559921,-1.2410437599733218e-05,critical
800,1.3131313131313131,4.759493670886076,electrolyte,0.0158605220821121,0.0166111480469774,0.0149844819832666,-1.493991332564935e-05,critical
800,1.414141414141414,4.759493670886076,electrolyte,0.0157489075708669,0.0165457811474977,0.0148072143563006,-5.337616453146965e-05,critical
800,1.5151515151515151,4.759493670886076,electrolyte,0.0156130622625914,0.0163641683662687,0.0147337553102112,3.565538056797975e-05,critical
800,1.616161616161616,4.759493670886076,electrolyte,0.0155106591596317,0.0162700313227234,0.014618849916225,-4.083091119109285e-05,critical
800,1.7171717171717171,4.759493670886076,electrolyte,0.0154875776751459,0.0162715421488636,0.0145613958189861,-3.695023303673554e-05,critical
800,1.818181818181818,4.759493670886076,electrolyte,0.0152442644487464,0.0159464511088034,0.0144283992767009,-2.1241266124094663e-05,critical
800,1.9191919191919191,4.759493670886076,electrolyte,0.0153202003984427,0.0161129854687352,0.0143799059131633,-2.4224518717817903e-05,critical
800,2.0202020202020203,4.759493670886076,electrolyte,0.0154128247972034,0.0161427069783587,0.0145606880746456,-3.397756757780877e-05,critical
800,2.121212121212121,4.759493670886076,electrolyte,0.0150727792324117,0.0157687224120806,0.0142638954875947,1.5929611360369436e-05,critical
800,2.2222222222222223,4.759493670886076,electrolyte,0.0150488015819282,0.0157840457817434,0.0141860076680742,6.020699209674465e-06,critical
800,2.323232323232323,4.759493670886076,electrolyte,0.0150085218125189,0.0157353335384181,0.0141557112291147,7.23018975241777e-05,critical
800,2.4242424242424243,4.759493670886076,electrolyte,0.0150379564912137,0.0157227920011132,0.0142434594113888,3.98364115315558e-05,critical
800,2.525252525252525,4.759493670886076,electrolyte,0.0148198956315601,0.015573513837039,0.0139279623980108,-6.868251758512927e-05,high
800,2.6262626262626263,4.759493670886076,electrolyte,0.0148676085594218,0.0155895941216152,0.0140203710673645,-6.172224761600716e-05,high
800,2.727272727272727,4.759493670886076,electrolyte,0.0147761170541284,0.0154810577308567,0.0139512856153313,6.52544794184185e-05,high
800,2.8282828282828283,4.759493670886076,electrolyte,0.014828959650781,0.01553222687715,0.0140069751619049,-6.360149977634534e-05,high
800,2.929292929292929,4.759493670886076,electrolyte,0.014729340018927,0.0152989885964312,0.014084029628024,-4.443507365900802e-05,high
800,3.0303030303030303,4.759493670886076,electrolyte,0.0145949977389104,0.0152645001295876,0.013817117528306,5.049852457392944e-05,high
800,3.131313131313131,4.759493670886076,electrolyte,0.014661040609455,0.0153603033515409,0.0138432813486806,5.084321805390526e-05,high
800,3.2323232323232323,4.759493670886076,electrolyte,0.0145503542352197,0.0152825773638244,0.0136856061954032,6.098088641260574e-05,high
800,3.333333333333333,4.759493670886076,electrolyte,0.0145241743116968,0.0152822789976799,0.013623662003429,-2.909549995059493e-06,high
800,3.4343434343434343,4.759493670886076,electrolyte,0.0146116433370928,0.0152353211208479,0.0138948780934169,-5.888919645502503e-05,high
800,3.5353535353535355,4.759493670886076,electrolyte,0.0146057883102357,0.0152891369856908,0.0138095056653202,3.79451246031599e-05,high
800,3.636363636363636,4.759493670886076,electrolyte,0.0145012217756489,0.0152065755854838,0.0136733348008048,-5.775387053580449e-05,high
800,3.7373737373737375,4.759493670886076,electrolyte,0.0145184153655642,0.0151909171967505,0.0137356510963195,-5.611552471538776e-05,high
800,3.8383838383838382,4.759493670886076,electrolyte,0.0142844714678517,0.0148854959198322,0.0135953897119868,5.044139186217877e-05,high
800,3.939393939393939,4.759493670886076,electrolyte,0.0144487989120556,0.0150956140348636,0.0137004143093479,4.09926631716891e-05,high
800,4.040404040404041,4.759493670886076,electrolyte,0.0144103733345775,0.0151591361849861,0.0135210603851345,-5.154794586249959e-05,high
800,4.141414141414141,4.759493670886076,electrolyte,0.0144103368445814,0.0150983108076737,0.0136062270683928,1.2232346394795456e-05,high
800,4.242424242424242,4.759493670886076,electrolyte,0.0143112918646502,0.0149954810408732,0.0135106751826334,5.583561576941364e-05,high
800,4.343434343434343,4.759493670886076,electrolyte,0.0143429321257995,0.014979839692555,0.0136073536623985,-1.5874177140183875e-06,high
800,4.444444444444445,4.759493670886076,electrolyte,0.014334581424595,0.01499501554026,0.0135667598069344,-4.66763416536145e-05,high
800,4.545454545454545,4.759493670886076,electrolyte,0.0143584558458997,0.014914103835013,0.0137293363551113,-1.6656442887940336e-05,high
800,4.646464646464646,4.759493670886076,electrolyte,0.0144029133352502,0.0150768549370461,0.0136175325474092,3.96983964385111e-05,high
800,4.747474747474747,4.759493670886076,electrolyte,0.0143610271461759,0.0150229089543517,0.0135920107701207,5.500711265834836e-06,high
800,4.848484848484849,4.759493670886076,electrolyte,0.0142613061804869,0.0150062474425059,0.0133724452047743,0.0001229126619214,high
800,4.94949494949495,4.759493670886076,electrolyte,0.0142277543042338,0.015001586794621,0.0133010598885378,-8.091249975873588e-06,high
800,5.05050505050505,4.759493670886076,electrolyte,0.0142306114130737,0.0149871028156268,0.0133287708076489,-1.3876131332706404e-05,high
800,5.151515151515151,4.759493670886076,electrolyte,0.0144018389753873,0.015091758024492,0.0135948445523478,-2.6530267497383756e-05,high
800,5.252525252525253,4.759493670886076,electrolyte,0.0141861682262628,0.0148525693151653,0.0134093881905382,1.559499300180676e-05,high
800,5.353535353535354,4.759493670886076,electrolyte,0.0141813998302119,0.01484005285253,0.0134149925959657,2.6490684300528235e-05,high
800,5.454545454545454,4.759493670886076,electrolyte,0.0142573583630779,0.0150209911963292,0.0133442109726652,7.61578019504775e-05,high
800,5.555555555555555,4.759493670886076,electrolyte,0.0143642641836054,0.0150698191258163,0.0135353579658695,2.6571514775602665e-05,high
800,5.656565656565657,4.759493670886076,electrolyte,0.0143969083997569,0.0152046052718211,0.01342250025373,6.125100435012345e-05,high
800,5.757575757575758,4.759493670886076,electrolyte,0.014290988083447,0.0149583525391653,0.0135137453259258,2.635457572737716e-05,high
800,5.858585858585858,4.759493670886076,electrolyte,0.0143739022290511,0.0150781903019382,0.013545599274688,-7.551250662535654e-05,high
800,5.959595959595959,4.759493670886076,electrolyte,0.0143208985939313,0.015031688621398,0.0134830194718539,7.5740842707069e-05,high
800,6.0606060606060606,4.759493670886076,electrolyte,0.0144660495380355,0.015164366958425,0.0136479944810439,-3.6547638448981584e-05,high
800,6.161616161616162,4.759493670886076,electrolyte,0.0143256058696365,0.015030357229085,0.0134973548779574,3.066952977337226e-05,high
800,6.262626262626262,4.759493670886076,electrolyte,0.014613069721763,0.0154729458562503,0.0135637706611667,9.19560053441342e-05,high
800,6.363636363636363,4.759493670886076,electrolyte,0.0143902626193053,0.0150307890295817,0.013649769912185,4.33305034041498e-05,high
800,6.4646464646464645,4.759493670886076,electrolyte,0.0145751550296363,0.015335117462588,0.013672620721481,-1.145777202263302e-06,high
800,6.565656565656566,4.759493670886076,electrolyte,0.0145051643954852,0.015092109883255,0.0138351356994941,7.836201226740269e-05,high
800,6.666666666666667,4.759493670886076,electrolyte,0.0145730441416648,0.0153262663048281,0.0136799047868847,-2.0375791663650183e-05,high
800,6.767676767676767,4.759493670886076,electrolyte,0.0145858258100949,0.015276224970714,0.0137796942213096,-4.083024265122475e-05,high
800,6.8686868686868685,4.759493670886076,electrolyte,0.0145881009368523,0.0152840349149384,0.0137748256129354,-4.494858064238146e-06,high
800,6.96969696969697,4.759493670886076,electrolyte,0.0146632248066593,0.0152824724640562,0.0139528063979004,-5.406881701764045e-05,high
800,7.070707070707071,4.759493670886076,electrolyte,0.0146819135127542,0.0153979526243697,0.0138418927390558,1.2293653148858563e-05,high
800,7.171717171717171,4.759493670886076,electrolyte,0.0147511779150845,0.0154401347730046,0.0139477052686076,-7.177496182264108e-05,high
800,7.272727272727272,4.759493670886076,electrolyte,0.0148035561565947,0.0155098931139031,0.0139757841099871,9.809301142289531e-05,high
800,7.373737373737374,4.759493670886076,electrolyte,0.0148440828457172,0.0155094792339961,0.0140732250212756,-7.206049340460028e-05,high
800,7.474747474747475,4.759493670886076,electrolyte,0.0148782328336224,0.0155961137626087,0.0140375088100321,-2.5680786595065648e-05,high
800,7.575757575757575,4.759493670886076,electrolyte,0.0150379602702741,0.0156883070022922,0.014289835782174,-1.9971427575935672e-05,critical
800,7.6767676767676765,4.759493670886076,electrolyte,0.0151048967947592,0.0159076760002191,0.0141475716404774,-4.063650469106534e-05,critical
800,7.777777777777778,4.759493670886076,electrolyte,0.0151268813926103,0.0160005807812513,0.0140672127414448,-1.875146410864516e-05,critical
800,7.878787878787879,4.759493670886076,electrolyte,0.0152012574794785,0.0159338231103167,0.0143433357281994,-3.8316835770451744e-05,critical
800,7.979797979797979,4.759493670886076,electrolyte,0.0151577686373233,0.015927990945651,0.0142439062709728,0.0001224727947728,critical
800,8.080808080808081,4.759493670886076,electrolyte,0.015266526836492,0.0159814571454749,0.0144336348819814,-1.3790940824943109e-05,critical
800,8.181818181818182,4.759493670886076,electrolyte,0.0153116405891327,0.016165565372843,0.0142836542588912,2.1613304292573565e-05,critical
800,8.282828282828282,4.759493670886076,electrolyte,0.0154538819693257,0.0161331918368437,0.0146702678524268,3.685908564266878e-05,critical
800,8.383838383838384,4.759493670886076,electrolyte,0.0155240384918799,0.0162930267788745,0.0146194199513936,8.377046205378534e-06,critical
800,8.484848484848484,4.759493670886076,electrolyte,0.0156231163922387,0.0164784313214282,0.014597465678674,-1.1523935672022844e-05,critical
800,8.585858585858587,4.759493670886076,electrolyte,0.0156484070923025,0.0163377769841755,0.0148524622290285,5.8506526158999296e-05,critical
800,8.686868686868687,4.759493670886076,electrolyte,0.0158801952170087,0.0166316874388288,0.0150015789386984,-8.51947000676627e-05,critical
800,8.787878787878787,4.759493670886076,electrolyte,0.0158730034709908,0.0166284803018499,0.0149900209074135,4.62695710835226e-05,critical
800,8.88888888888889,4.759493670886076,electrolyte,0.0161591061100982,0.016987731472953,0.0151778826840523,-3.3477724251410883e-05,critical
800,8.98989898989899,4.759493670886076,electrolyte,0.0160812581254451,0.0168331113273725,0.0152041765104137,-8.13191623093659e-05,critical
800,9.09090909090909,4.759493670886076,electrolyte,0.0162008495508211,0.0170349233557899,0.0152126803943319,6.115668030013568e-06,critical
800,9.191919191919192,4.759493670886076,electrolyte,0.0163782986499638,0.017158947717365,0.0154657789413781,4.224492079478511e-05,critical
800,9.292929292929292,4.759493670886076,electrolyte,0.0165314838853447,0.0173796125377823,0.0155269563286184,4.139057704918909e-05,critical
800,9.393939393939394,4.759493670886076,electrolyte,0.0166956883060757,0.017505541950954,0.015746432735687,2.38324005637266e-05,critical
800,9.494949494949497,4.759493670886076,electrolyte,0.0167638974825424,0.0175740731222954,0.0158147720828783,-3.244308327923648e-05,critical
800,9.595959595959595,4.759493670886076,electrolyte,0.0170988636753492,0.0180160065121859,0.0160035268931377,-2.175658047898131e-05,critical
800,9.696969696969695,4.759493670886076,electrolyte,0.0170225182900527,0.0178508644823914,0.0160476869838676,-0.0001285745427616,critical
800,9.797979797979798,4.759493670886076,electrolyte,0.0172680166245605,0.0180984593532469,0.0162961038017591,2.2659359289576536e-05,critical
800,9.8989898989899,4.759493670886076,electrolyte,0.0176495227560511,0.0185680236292079,0.0165588149299351,-3.771396035807176e-05,critical
800,10.0,4.759493670886076,electrolyte,0.0177559217316293,0.0186401712486389,0.0167146036533984,-2.497681214253876e-05,critical
800,0.0,4.860759493670886,electrolyte,0.0177096738611879,0.0186789484489168,0.0165470625697468,4.427996738812058e-05,critical
800,0.101010101010101,4.860759493670886,electrolyte,0.0175572012793674,0.0184359168472213,0.0165215904144313,1.1559467334968069e-06,critical
800,0.202020202020202,4.860759493670886,electrolyte,0.0173852762343282,0.0182219773282339,0.0164053404887752,-5.749750428999763e-05,critical
800,0.303030303030303,4.860759493670886,electrolyte,0.0170629678245791,0.017893405296715,0.0160883343123227,6.192286731305487e-05,critical
800,0.404040404040404,4.860759493670886,electrolyte,0.0171511885378146,0.0180386838863868,0.0160986001761471,2.4384872881783637e-05,critical
800,0.5050505050505051,4.860759493670886,electrolyte,0.0167967006343526,0.0176400658985186,0.0158020899412477,1.904978239940512e-05,critical
800,0.6060606060606061,4.860759493670886,electrolyte,0.0167903168699506,0.0176139796414447,0.0158228748702496,3.1029331538340764e-05,critical
800,0.7070707070707071,4.860759493670886,electrolyte,0.016513573061791,0.0172496353123066,0.015662455733537,4.935164025167986e-05,critical
800,0.8080808080808081,4.860759493670886,electrolyte,0.0163486795455392,0.0171925196102938,0.0153476403514765,6.0925333053022834e-05,critical
800,0.9090909090909092,4.860759493670886,electrolyte,0.0164003214633254,0.0171379723091341,0.0155465660012987,2.1232297803014737e-05,critical
800,1.0101010101010102,4.860759493670886,electrolyte,0.0160890075816728,0.0168234503774084,0.0152363810212415,-5.4392952055248816e-05,critical
800,1.1111111111111112,4.860759493670886,electrolyte,0.016013189559317,0.0167810885745877,0.0151122153369293,-0.0001120682113615,critical
800,1.2121212121212122,4.860759493670886,electrolyte,0.015881381784625,0.016597909375719,0.0150498407134333,-9.287720440789416e-05,critical
800,1.3131313131313131,4.860759493670886,electrolyte,0.0157951980586158,0.0165802533027416,0.0148711009213565,-1.2378494509774322e-05,critical
800,1.414141414141414,4.860759493670886,electrolyte,0.0156806187094177,0.0163444279540926,0.0149194598739925,-2.026537597302764e-05,critical
800,1.5151515151515151,4.860759493670886,electrolyte,0.0156813761021668,0.0164322597910732,0.0148029458519624,4.099037607269922e-05,critical
800,1.616161616161616,4.860759493670886,electrolyte,0.0155362290238523,0.0163174424121882,0.0146143149291512,-4.292166550311296e-05,critical
800,1.7171717171717171,4.860759493670886,electrolyte,0.0154442737120233,0.0161254992613808,0.014656987958816,-7.706391758346946e-05,critical
800,1.818181818181818,4.860759493670886,electrolyte,0.0152793288837694,0.0160665791261733,0.0143462087599518,-3.520766512985782e-05,critical
800,1.9191919191919191,4.860759493670886,electrolyte,0.0153284761796544,0.0160598512513865,0.0144737634459965,-2.5477679961343563e-06,critical
800,2.0202020202020203,4.860759493670886,electrolyte,0.0153123981066307,0.0160352063541913,0.0144690062395051,3.189663596854586e-05,critical
800,2.121212121212121,4.860759493670886,electrolyte,0.0151389914515781,0.015854588060865,0.0143035431972514,4.667904170612988e-05,critical
800,2.2222222222222223,4.860759493670886,electrolyte,0.0151098727846551,0.015822306524057,0.0142788986917571,1.8582291921544794e-05,critical
800,2.323232323232323,4.860759493670886,electrolyte,0.0150887854199155,0.0159201390174537,0.0140904922397212,2.035383888832288e-05,critical
800,2.4242424242424243,4.860759493670886,electrolyte,0.0149371462117045,0.0156009914393824,0.0141702034743285,-2.5558114102869123e-05,high
800,2.525252525252525,4.860759493670886,electrolyte,0.0149809258484996,0.0156156997560373,0.0142521278033098,-6.288122883923799e-05,high
800,2.6262626262626263,4.860759493670886,electrolyte,0.0148384337340178,0.0155036917016586,0.014067966180036,6.428421465110986e-05,high
800,2.727272727272727,4.860759493670886,electrolyte,0.0148315814498655,0.0156203587370382,0.0138911991732466,1.0018868576634053e-05,high
800,2.8282828282828283,4.860759493670886,electrolyte,0.0147928372674183,0.0155507461500536,0.0138950800406597,5.145129590435823e-05,high
800,2.929292929292929,4.860759493670886,electrolyte,0.0148264777088934,0.0156302815737958,0.0138642993332428,3.07981405865614e-05,high
800,3.0303030303030303,4.860759493670886,electrolyte,0.0145797800918283,0.0153322750451218,0.0136876888800835,2.525358285778071e-05,high
800,3.131313131313131,4.860759493670886,electrolyte,0.0146691264108507,0.015436623467585,0.0137562053679482,5.802890125450476e-05,high
800,3.2323232323232323,4.860759493670886,electrolyte,0.0147443391630922,0.0154512104102089,0.0139175396195288,1.364072761980766e-05,high
800,3.333333333333333,4.860759493670886,electrolyte,0.0145507463968725,0.0152428038079073,0.0137415144693674,-6.094245372988119e-05,high
800,3.4343434343434343,4.860759493670886,electrolyte,0.0146206058809506,0.0154079079541471,0.0136769113051134,0.0001051608940325,high
800,3.5353535353535355,4.860759493670886,electrolyte,0.0144883451790986,0.0150950794103641,0.0137935126107536,-3.606331320495946e-05,high
800,3.636363636363636,4.860759493670886,electrolyte,0.014661736599263,0.0154233784477854,0.0137557530058412,9.194391079391531e-05,high
800,3.7373737373737375,4.860759493670886,electrolyte,0.0145297083244982,0.0154323318977654,0.0134165551794295,1.0579274817877674e-05,high
800,3.8383838383838382,4.860759493670886,electrolyte,0.0144017937908753,0.0150636103727401,0.0136332145437418,8.168075638383232e-06,high
800,3.939393939393939,4.860759493670886,electrolyte,0.0144421851837301,0.0151220452856761,0.0136486771433121,-5.769271324027954e-05,high
800,4.040404040404041,4.860759493670886,electrolyte,0.0143992686967312,0.0151243564196461,0.0135432135106257,4.668297280125638e-05,high
800,4.141414141414141,4.860759493670886,electrolyte,0.0144494279700986,0.0150944452907115,0.0137034047272583,-4.351958109423483e-05,high
800,4.242424242424242,4.860759493670886,electrolyte,0.0143341829355519,0.0150833129204397,0.0134440859715066,1.1251699607411816e-05,high
800,4.343434343434343,4.860759493670886,electrolyte,0.0142268422870499,0.0149164865891211,0.0134182781347482,4.01955294662528e-05,high
800,4.444444444444445,4.860759493670886,electrolyte,0.0144227644271874,0.015113646083682,0.0136147233444291,2.0446588537971816e-05,high
800,4.545454545454545,4.860759493670886,electrolyte,0.0145018114561065,0.0152443065450884,0.0136225687052603,4.430429932828288e-05,high
800,4.646464646464646,4.860759493670886,electrolyte,0.0142657362705824,0.01499661189023,0.013400511349235,-2.1806495563549e-05,high
800,4.747474747474747,4.860759493670886,electrolyte,0.0141749841458583,0.014784722334218,0.0134732751474639,-6.231592603988329e-05,high
800,4.848484848484849,4.860759493670886,electrolyte,0.0144085833507687,0.0151795397168692,0.0134883267942109,1.2658849955393332e-05,high
800,4.94949494949495,4.860759493670886,electrolyte,0.0142349415651886,0.0150189516281835,0.0132928750034447,-5.529970958078644e-05,high
800,5.05050505050505,4.860759493670886,electrolyte,0.0142827001336818,0.0148953844690596,0.0135788556018196,6.17824798565689e-08,high
800,5.151515151515151,4.860759493670886,electrolyte,0.0142804525071402,0.0149948121745596,0.0134384972767873,-2.209957695110714e-05,high
800,5.252525252525253,4.860759493670886,electrolyte,0.014321555900078,0.0150465746339656,0.0134652402636514,-1.4170591777885983e-05,high
800,5.353535353535354,4.860759493670886,electrolyte,0.0144087196559706,0.015124141052681,0.0135666725799999,-2.020202546862784e-05,high
800,5.454545454545454,4.860759493670886,electrolyte,0.0144206241980733,0.015109254527072,0.0136156043697506,-2.4355061861165506e-05,high
800,5.555555555555555,4.860759493670886,electrolyte,0.0144103381903663,0.0151005999488964,0.0136020114470713,6.719598299676947e-05,high
800,5.656565656565657,4.860759493670886,electrolyte,0.014365862375934,0.0150568409411818,0.0135571770921119,1.5822523058596824e-05,high
800,5.757575757575758,4.860759493670886,electrolyte,0.014205710959181,0.0149920072584452,0.0132606401327366,1.8061101771348742e-05,high
800,5.858585858585858,4.860759493670886,electrolyte,0.0144128767860705,0.0150783981217808,0.0136393971242517,-3.336616080716129e-06,high
800,5.959595959595959,4.860759493670886,electrolyte,0.0145583667809151,0.0152331728541255,0.0137735080195274,1.9945167713665665e-05,high
800,6.0606060606060606,4.860759493670886,electrolyte,0.0143642019518475,0.0151415141909874,0.0134340057363092,3.427386044500096e-05,high
800,6.161616161616162,4.860759493670886,electrolyte,0.014546119279081,0.0151775909049872,0.0138171046866697,9.712690215195884e-05,high
800,6.262626262626262,4.860759493670886,electrolyte,0.0143261767886862,0.0150307627295972,0.0134961825875902,9.396265048895956e-05,high
800,6.363636363636363,4.860759493670886,electrolyte,0.0144567775145511,0.0151518916251536,0.0136431747421012,-2.759442378417088e-05,high
800,6.4646464646464645,4.860759493670886,electrolyte,0.0146350356846535,0.0153096500848829,0.0138512090020983,-4.321435849476896e-06,high
800,6.565656565656566,4.860759493670886,electrolyte,0.0145070529683798,0.0152515476344531,0.0136255230026974,-1.0273011962447209e-05,high
800,6.666666666666667,4.860759493670886,electrolyte,0.0145473785884499,0.0152142479806899,0.0137725678685135,5.328967191652272e-05,high
800,6.767676767676767,4.860759493670886,electrolyte,0.0145133113893248,0.0152264267536763,0.0136754834786718,2.6044398735653253e-05,high
800,6.8686868686868685,4.860759493670886,electrolyte,0.0146562025750995,0.0153465231611526,0.0138511830867801,-1.559843682017258e-05,high
800,6.96969696969697,4.860759493670886,electrolyte,0.0147176937570013,0.0154934100359659,0.013794380214626,-2.4619327489175117e-05,high
800,7.070707070707071,4.860759493670886,electrolyte,0.0147779109876566,0.015521554219572,0.0139004969156801,-2.2433760849783317e-05,high
800,7.171717171717171,4.860759493670886,electrolyte,0.0147861288337386,0.0155784610136776,0.0138399272297434,2.792483567570384e-05,high
800,7.272727272727272,4.860759493670886,electrolyte,0.014786360286951,0.0155400291348303,0.0138950304476918,-2.042766383575669e-05,high
800,7.373737373737374,4.860759493670886,electrolyte,0.0148041521662502,0.0155240276362752,0.0139598732381923,-3.1007697178958204e-05,high
800,7.474747474747475,4.860759493670886,electrolyte,0.0150347022211115,0.0156924758822851,0.01427676760355,8.359651486639856e-06,critical
800,7.575757575757575,4.860759493670886,electrolyte,0.0149992131161433,0.0156060729047153,0.0143063791543578,-8.325497654734247e-05,high
800,7.6767676767676765,4.860759493670886,electrolyte,0.0150322746943689,0.0158027938773304,0.0141201424479524,9.41684022398951e-06,critical
800,7.777777777777778,4.860759493670886,electrolyte,0.0150290600486727,0.0156323323927043,0.0143422780743598,4.142332411802132e-05,critical
800,7.878787878787879,4.860759493670886,electrolyte,0.0150569329326231,0.0158090453681215,0.0141703529535342,-4.53276338421113e-05,critical
800,7.979797979797979,4.860759493670886,electrolyte,0.0151243258996238,0.0158751647501054,0.0142403448730707,3.990375657255051e-05,critical
800,8.080808080808081,4.860759493670886,electrolyte,0.0153224675877356,0.0161363937406846,0.0143518741838973,4.475928401884649e-05,critical
800,8.181818181818182,4.860759493670886,electrolyte,0.0153090101605845,0.0159214232529417,0.0146125537084255,-2.6716601074331065e-07,critical
800,8.282828282828282,4.860759493670886,electrolyte,0.0155659274259591,0.0163346936718332,0.0146617207229757,-3.890771491898773e-05,critical
800,8.383838383838384,4.860759493670886,electrolyte,0.0155198961766487,0.0162325978030996,0.0146911886632378,-7.089517545939653e-05,critical
800,8.484848484848484,4.860759493670886,electrolyte,0.0156178496321426,0.0163672823242739,0.0147405405239822,5.275692366901719e-05,critical
800,8.585858585858587,4.860759493670886,electrolyte,0.0156534712423846,0.0164370492724275,0.0147288281772844,-6.992412823612525e-05,critical
800,8.686868686868687,4.860759493670886,electrolyte,0.0156772835828791,0.0163776908108174,0.0148670126409566,-5.07795595832845e-05,critical
800,8.787878787878787,4.860759493670886,electrolyte,0.0158474127313853,0.0165765362803802,0.0150004650451585,1.567053214879862e-05,critical
800,8.88888888888889,4.860759493670886,electrolyte,0.0161058267846198,0.0168348257647083,0.0152597306632051,8.529342679760988e-05,critical
800,8.98989898989899,4.860759493670886,electrolyte,0.0162247436604764,0.0169507822087669,0.015385168357063,1.319153435978496e-05,critical
800,9.09090909090909,4.860759493670886,electrolyte,0.0163613893275627,0.0171570347330908,0.015428478461813,8.428069013279278e-06,critical
800,9.191919191919192,4.860759493670886,electrolyte,0.01644672208149,0.0172554568173633,0.015494761058775,-9.20820764398259e-05,critical
800,9.292929292929292,4.860759493670886,electrolyte,0.0164826730378649,0.0173310972973315,0.015477256664584,-3.625939812173996e-05,critical
800,9.393939393939394,4.860759493670886,electrolyte,0.0167042987861183,0.0174663386394331,0.015820268349888,-2.507436899702232e-05,critical
800,9.494949494949497,4.860759493670886,electrolyte,0.0169170811111703,0.0176061731577825,0.0161314310016183,6.825035314187653e-07,critical
800,9.595959595959595,4.860759493670886,electrolyte,0.017002915897112,0.0178397389077071,0.0160195954147972,-1.660383888727245e-05,critical
800,9.696969696969695,4.860759493670886,electrolyte,0.0171419588046399,0.017920899061557,0.0162381374317218,-6.593707998560175e-05,critical
800,9.797979797979798,4.860759493670886,electrolyte,0.0174952508319297,0.0184164051981425,0.0163985716145542,-5.600528752193723e-05,critical
800,9.8989898989899,4.860759493670886,electrolyte,0.017654665485275,0.0185009989966508,0.0166646108128602,-3.1325746029244304e-05,critical
800,10.0,4.860759493670886,electrolyte,0.0177712283000472,0.0185787495754743,0.016835174989932,9.591341506014542e-07,critical
800,0.0,4.962025316455696,electrolyte,0.0177585512059816,0.018649354614852,0.0167081490712585,-2.3558333858188894e-05,critical
800,0.101010101010101,4.962025316455696,electrolyte,0.0174896305799706,0.0183123076263853,0.0165305442839311,5.324672134415841e-06,critical
800,0.202020202020202,4.962025316455696,electrolyte,0.0174514039008655,0.0182678944575903,0.0164997587435426,-5.580592893329759e-05,critical
800,0.303030303030303,4.962025316455696,electrolyte,0.0171818029157392,0.0179205092218306,0.0163317307152532,-7.572626403282872e-05,critical
800,0.404040404040404,4.962025316455696,electrolyte,0.0169980691599375,0.0177617678246027,0.016111957440022,0.0001089856433957,critical
800,0.5050505050505051,4.962025316455696,electrolyte,0.0168735576681818,0.0177452015756494,0.0158395796881507,-5.483053756096455e-05,critical
800,0.6060606060606061,4.962025316455696,electrolyte,0.0167283807660744,0.0175092153940199,0.0158180520118318,7.529869529823356e-05,critical
800,0.7070707070707071,4.962025316455696,electrolyte,0.0165838525826279,0.017350659608228,0.015692321775248,2.548547905135708e-05,critical
800,0.8080808080808081,4.962025316455696,electrolyte,0.0165275152185934,0.0172590298773277,0.0156821018914594,-6.878067612948567e-05,critical
800,0.9090909090909092,4.962025316455696,electrolyte,0.0163317614437822,0.0170015938818532,0.015566923681293,-4.335455796637648e-05,critical
800,1.0101010101010102,4.962025316455696,electrolyte,0.0162256055486624,0.0169790187093844,0.0153490791673206,2.057633140874321e-05,critical
800,1.1111111111111112,4.962025316455696,electrolyte,0.0159927225351435,0.0167106641341085,0.0151621260082978,1.6808036070986293e-06,critical
800,1.2121212121212122,4.962025316455696,electrolyte,0.0159276564599305,0.0167374866245313,0.0149703385447139,2.299864279457289e-05,critical
800,1.3131313131313131,4.962025316455696,electrolyte,0.0156817339238814,0.0163125134593181,0.0149618658614326,9.467784782835008e-05,critical
800,1.414141414141414,4.962025316455696,electrolyte,0.0158465584509721,0.0165182117036615,0.0150762351731292,-2.3623022197327226e-05,critical
800,1.5151515151515151,4.962025316455696,electrolyte,0.0157934069083164,0.016616993170607,0.0148152837505276,5.034353080751348e-06,critical
800,1.616161616161616,4.962025316455696,electrolyte,0.0154497210545259,0.016230360281921,0.0145280857123294,5.054194580572559e-06,critical
800,1.7171717171717171,4.962025316455696,electrolyte,0.0153214786940628,0.0160809916453158,0.0144276813154442,3.083088724465301e-05,critical
800,1.818181818181818,4.962025316455696,electrolyte,0.0153516125944707,0.0161147428708212,0.0144533312738998,1.1031219104244526e-06,critical
800,1.9191919191919191,4.962025316455696,electrolyte,0.0153253087944288,0.0161818716902402,0.0142919502098745,-8.714345100508343e-05,critical
800,2.0202020202020203,4.962025316455696,electrolyte,0.0151491450779929,0.0159851611876546,0.0141409995167151,-0.0001284623113046,critical
800,2.121212121212121,4.962025316455696,electrolyte,0.0151860015694862,0.0158756151547567,0.0143864110149245,3.554324713655131e-05,critical
800,2.2222222222222223,4.962025316455696,electrolyte,0.0150878120778582,0.0158211429030823,0.0142240381396668,0.0001301148273358,critical
800,2.323232323232323,4.962025316455696,electrolyte,0.014984076782169,0.0157328186365671,0.0141014888256742,4.1448209126499104e-05,high
800,2.4242424242424243,4.962025316455696,electrolyte,0.0150052769254493,0.0157855321571593,0.0140787583026385,3.90158077868901e-05,critical
800,2.525252525252525,4.962025316455696,electrolyte,0.014828904486837,0.0155168251971333,0.0140287784419266,2.7277198658214218e-06,high
800,2.6262626262626263,4.962025316455696,electrolyte,0.0148886497794415,0.0156686308021887,0.0139611593314803,-3.733763106893453e-05,high
800,2.727272727272727,4.962025316455696,electrolyte,0.0147450231447586,0.0154391577435905,0.0139355701194768,-2.2109384200862e-05,high
800,2.8282828282828283,4.962025316455696,electrolyte,0.0147056060984346,0.0153816838408386,0.0139203525658589,1.7315754245830512e-05,high
800,2.929292929292929,4.962025316455696,electrolyte,0.0148215659041229,0.015488072999818,0.0140496612822648,-5.035877490798985e-05,high
800,3.0303030303030303,4.962025316455696,electrolyte,0.0147192730701702,0.0153911867583989,0.0139398315425214,2.3874683946561083e-06,high
800,3.131313131313131,4.962025316455696,electrolyte,0.0146078656353622,0.0153105258646483,0.013785130881238,4.205417389850788e-05,high
800,3.2323232323232323,4.962025316455696,electrolyte,0.0144841624470512,0.0152254671426348,0.0136062003525872,-5.221893269186655e-05,high
800,3.333333333333333,4.962025316455696,electrolyte,0.0146416304649446,0.0153650393076396,0.01379053196341,-4.547381629602544e-05,high
800,3.4343434343434343,4.962025316455696,electrolyte,0.0145692247024575,0.0153191492625119,0.0136807509698004,1.2823617655200256e-05,high
800,3.5353535353535355,4.962025316455696,electrolyte,0.0144323940067223,0.0151179211063349,0.0136315522971924,-3.638838024021728e-05,high
800,3.636363636363636,4.962025316455696,electrolyte,0.0144960915892527,0.0151741631784532,0.0137024038192653,0.0001266020827288,high
800,3.7373737373737375,4.962025316455696,electrolyte,0.01443384242838,0.0150942241992593,0.0136674011435885,-1.9715751494920488e-05,high
800,3.8383838383838382,4.962025316455696,electrolyte,0.0144189765311396,0.015100641237459,0.0136235703573209,1.2877388714273208e-05,high
800,3.939393939393939,4.962025316455696,electrolyte,0.0143059079416945,0.0149742179763283,0.0135270533224439,-5.056834680039618e-05,high
800,4.040404040404041,4.962025316455696,electrolyte,0.0142795371000168,0.0149071206443848,0.0135550350572085,5.916479537316565e-05,high
800,4.141414141414141,4.962025316455696,electrolyte,0.0143651545193428,0.015017234723251,0.0136093638883451,1.356627438136248e-05,high
800,4.242424242424242,4.962025316455696,electrolyte,0.0144481198472602,0.0150856649107209,0.013712496323888,1.2254540143659902e-05,high
800,4.343434343434343,4.962025316455696,electrolyte,0.0143854900109485,0.0151964921243485,0.0134069514012868,-2.0293467133341212e-05,high
800,4.444444444444445,4.962025316455696,electrolyte,0.0143610517820095,0.0150697705836234,0.0135275616477454,-3.7190035909428285e-05,high
800,4.545454545454545,4.962025316455696,electrolyte,0.014328284420063,0.015141449990744,0.0133458198123333,-1.1305023596593605e-05,high
800,4.646464646464646,4.962025316455696,electrolyte,0.0143130214554226,0.0149497016352517,0.0135768491395085,5.168954066505128e-05,high
800,4.747474747474747,4.962025316455696,electrolyte,0.0143854259163568,0.015055389553147,0.0136042991127571,7.481663965503876e-05,high
800,4.848484848484849,4.962025316455696,electrolyte,0.0142905480620035,0.0148454753928276,0.0136604519090878,-8.078899295909261e-05,high
800,4.94949494949495,4.962025316455696,electrolyte,0.0142924079190657,0.0148784298904124,0.0136231476814073,-4.525128423198475e-05,high
800,5.05050505050505,4.962025316455696,electrolyte,0.0144070692231095,0.0151959216623739,0.013460019814405,6.552785664395373e-05,high
800,5.151515151515151,4.962025316455696,electrolyte,0.0143598399367619,0.0149963269793546,0.0136243496724198,-4.992898292701925e-05,high
800,5.252525252525253,4.962025316455696,electrolyte,0.0143006091293977,0.014894900471871,0.0136210937526097,-8.466859697431213e-07,high
800,5.353535353535354,4.962025316455696,electrolyte,0.0143726438846028,0.0150222892550264,0.013620224316985,-7.228071019351923e-06,high
800,5.454545454545454,4.962025316455696,electrolyte,0.0142900385756911,0.0148805079141097,0.0136153353226985,2.187682189482515e-05,high
800,5.555555555555555,4.962025316455696,electrolyte,0.0142757652580508,0.0148941937746233,0.0135631430167533,6.757045333460176e-05,high
800,5.656565656565657,4.962025316455696,electrolyte,0.0142561444653978,0.0149673239703279,0.0134170294563532,-7.575254794439808e-05,high
800,5.757575757575758,4.962025316455696,electrolyte,0.014332430725455,0.0149966252923414,0.0135597480807329,-3.412405519106225e-05,high
800,5.858585858585858,4.962025316455696,electrolyte,0.0144380738689919,0.0151815522113844,0.013555826358829,7.417740845540714e-05,high
800,5.959595959595959,4.962025316455696,electrolyte,0.0143986469381882,0.0151239466710714,0.0135416417754745,-6.89850634531352e-05,high
800,6.0606060606060606,4.962025316455696,electrolyte,0.0143643501455894,0.0150616001567862,0.0135470603649919,1.0292502315019384e-05,high
800,6.161616161616162,4.962025316455696,electrolyte,0.0144665905969542,0.0151521087859139,0.0136639949443158,-9.903340829861776e-05,high
800,6.262626262626262,4.962025316455696,electrolyte,0.0144332039952979,0.0150912348005733,0.0136696878504193,3.702628422752384e-05,high
800,6.363636363636363,4.962025316455696,electrolyte,0.0143795601816785,0.0151026313022828,0.0135260364461784,4.952524724733206e-05,high
800,6.4646464646464645,4.962025316455696,electrolyte,0.0146134686146673,0.0154063604050387,0.0136637929046155,5.035033935318319e-05,high
800,6.565656565656566,4.962025316455696,electrolyte,0.0146221303987488,0.0153056944960295,0.0138260350036147,-8.894338685817596e-06,high
800,6.666666666666667,4.962025316455696,electrolyte,0.0144731915894513,0.0151250804398001,0.0137183292559559,-3.411937729026092e-05,high
800,6.767676767676767,4.962025316455696,electrolyte,0.0145643048312966,0.0152814944295398,0.0137203903466531,-6.797207228981626e-05,high
800,6.8686868686868685,4.962025316455696,electrolyte,0.0146012253326506,0.0152145276121729,0.0138985134769011,3.903395160179329e-05,high
800,6.96969696969697,4.962025316455696,electrolyte,0.01463286308563,0.0152416020993152,0.0139363368927302,4.0262398798020006e-05,high
800,7.070707070707071,4.962025316455696,electrolyte,0.0147011777556832,0.0153724475840948,0.0139211718866978,7.289516880423379e-05,high
800,7.171717171717171,4.962025316455696,electrolyte,0.0145677813285029,0.0152602113128643,0.0137584224760466,-5.306853604586068e-05,high
800,7.272727272727272,4.962025316455696,electrolyte,0.0147172385501353,0.0154818161566892,0.0138096684731241,-2.7593357918186806e-05,high
800,7.373737373737374,4.962025316455696,electrolyte,0.0149170624470567,0.0156291599435107,0.0140846173680979,-2.830013530318321e-05,high
800,7.474747474747475,4.962025316455696,electrolyte,0.014759122907885,0.0154480450668601,0.0139568621299583,2.48145333784629e-05,high
800,7.575757575757575,4.962025316455696,electrolyte,0.014876729927836,0.0155730428767192,0.0140651293032228,4.629000953033745e-05,high
800,7.6767676767676765,4.962025316455696,electrolyte,0.0150895894721895,0.0157344582948822,0.0143490066404731,2.821107935746909e-05,critical
800,7.777777777777778,4.962025316455696,electrolyte,0.0150064496219801,0.0157073817186536,0.014189619047391,5.216611639408269e-05,critical
800,7.878787878787879,4.962025316455696,electrolyte,0.0151904009281173,0.0159634801104075,0.0142762702406563,-2.970507724192245e-05,critical
800,7.979797979797979,4.962025316455696,electrolyte,0.0152174159274498,0.0160218183124972,0.0142581117747321,-7.791111091679739e-05,critical
800,8.080808080808081,4.962025316455696,electrolyte,0.0153843473158074,0.0162091803106263,0.0143994086248018,-9.273848147497768e-06,critical
800,8.181818181818182,4.962025316455696,electrolyte,0.0154267963754512,0.0162229097211533,0.0144831434387819,1.3306721190543551e-05,critical
800,8.282828282828282,4.962025316455696,electrolyte,0.0154349661028161,0.016223599025058,0.014501764903561,-2.9703546915415103e-05,critical
800,8.383838383838384,4.962025316455696,electrolyte,0.0155325052709717,0.0162598406767727,0.0146850505102689,-2.6921471694132733e-05,critical
800,8.484848484848484,4.962025316455696,electrolyte,0.0156320979583353,0.0163945714321548,0.014737379033326,-3.259165358045084e-05,critical
800,8.585858585858587,4.962025316455696,electrolyte,0.0158163564377915,0.0165438847179592,0.0149713335759151,-8.105941708316905e-06,critical
800,8.686868686868687,4.962025316455696,electrolyte,0.0158315570452488,0.0166259773858312,0.0148948456564129,-2.188104327664104e-06,critical
800,8.787878787878787,4.962025316455696,electrolyte,0.0159759520955201,0.0166891148426467,0.0151512047852612,-4.35176135341247e-05,critical
800,8.88888888888889,4.962025316455696,electrolyte,0.0161055295427227,0.0169269597707677,0.0151339989690619,-1.6142024958000082e-05,critical
800,8.98989898989899,4.962025316455696,electrolyte,0.0161541248498966,0.0168648842596813,0.0153342226950769,-3.127233089182232e-05,critical
800,9.09090909090909,4.962025316455696,electrolyte,0.0163605944981235,0.0171209400607278,0.0154759582215518,6.682995747226044e-06,critical
800,9.191919191919192,4.962025316455696,electrolyte,0.016449682946675,0.0173443835730628,0.0153777686810957,-4.682025939280544e-05,critical
800,9.292929292929292,4.962025316455696,electrolyte,0.0164293651285879,0.0171270319819728,0.0156287779656166,-3.9553232755226855e-05,critical
800,9.393939393939394,4.962025316455696,electrolyte,0.0166343888335677,0.0174161373507421,0.0157231493472987,7.184885339209664e-06,critical
800,9.494949494949497,4.962025316455696,electrolyte,0.0168359305400615,0.0176349701800802,0.0159028988947019,-2.112208359178977e-05,critical
800,9.595959595959595,4.962025316455696,electrolyte,0.0169373037598734,0.0176409859496123,0.0161325053543446,3.388539450871774e-05,critical
800,9.696969696969695,4.962025316455696,electrolyte,0.0171813018370793,0.0180241899272316,0.01618859918368,-0.0001174068375898,critical
800,9.797979797979798,4.962025316455696,electrolyte,0.0173574042780064,0.0182238473048062,0.0163366748495561,-1.821599775772333e-05,critical
800,9.8989898989899,4.962025316455696,electrolyte,0.0176199718424995,0.0184227382118903,0.0166882169841241,6.374720690189065e-05,critical
800,10.0,4.962025316455696,electrolyte,0.0177739684554137,0.0186130715758836,0.016794774294942,-4.247979753382072e-05,critical
800,0.0,5.063291139240507,electrolyte-cathode interface,0.0207299388879568,0.0217968365333473,0.0194658640421778,2.987215048766293e-05,critical
800,0.101010101010101,5.063291139240507,electrolyte-cathode interface,0.0204238205092061,0.0213559267189849,0.0193422497394063,-4.427640123550264e-05,critical
800,0.202020202020202,5.063291139240507,electrolyte-cathode interface,0.0202735982818729,0.021269096624789,0.0191042967902753,2.07733020917512e-05,critical
800,0.303030303030303,5.063291139240507,electrolyte-cathode interface,0.0199586610264087,0.0208989862145041,0.0188621126889186,-9.365641493235069e-06,critical
800,0.404040404040404,5.063291139240507,electrolyte-cathode interface,0.0198534250377381,0.0208947634447049,0.0186152372424685,2.0553782827365696e-05,critical
800,0.5050505050505051,5.063291139240507,electrolyte-cathode interface,0.0196491279157214,0.020621696873921,0.0185048734160233,-4.2410772866979686e-05,critical
800,0.6060606060606061,5.063291139240507,electrolyte-cathode interface,0.0194680344634766,0.0202119599956804,0.0186268691255519,4.58955121945606e-05,critical
800,0.7070707070707071,5.063291139240507,electrolyte-cathode interface,0.0193390287307576,0.0202840200634827,0.0182288102873494,-8.28481002397945e-05,critical
800,0.8080808080808081,5.063291139240507,electrolyte-cathode interface,0.0191115786847671,0.0200193810815843,0.0180498779046688,9.32966782689619e-05,critical
800,0.9090909090909092,5.063291139240507,electrolyte-cathode interface,0.0190703130829639,0.0199481617073301,0.0180495702025599,-7.404105123889653e-05,critical
800,1.0101010101010102,5.063291139240507,electrolyte-cathode interface,0.0188371918108454,0.0197383618582474,0.0177835303640804,1.496334016922499e-05,critical
800,1.1111111111111112,5.063291139240507,electrolyte-cathode interface,0.018613740515731,0.0193797485101426,0.0177389404605082,3.0983706353014854e-05,critical
800,1.2121212121212122,5.063291139240507,electrolyte-cathode interface,0.0184508915901621,0.0192778465296688,0.0174942626098973,-2.8977748490525623e-05,critical
800,1.3131313131313131,5.063291139240507,electrolyte-cathode interface,0.0186036689235008,0.0194334830408684,0.0176444788594411,2.7572777369935248e-05,critical
800,1.414141414141414,5.063291139240507,electrolyte-cathode interface,0.0181892398047081,0.0190983696675508,0.0171180371919705,6.472614181664386e-06,critical
800,1.5151515151515151,5.063291139240507,electrolyte-cathode interface,0.0181287199551732,0.0190146002280983,0.0170890988910703,1.3517174991434984e-05,critical
800,1.616161616161616,5.063291139240507,electrolyte-cathode interface,0.0181097625242341,0.0190060250970529,0.0170549315268458,-5.85261670815723e-05,critical
800,1.7171717171717171,5.063291139240507,electrolyte-cathode interface,0.0179358455557351,0.0187509823642101,0.0169908699024838,-1.8779662731634383e-05,critical
800,1.818181818181818,5.063291139240507,electrolyte-cathode interface,0.0178792929689556,0.0186924501402114,0.0169357759781451,-6.341635122075004e-05,critical
800,1.9191919191919191,5.063291139240507,electrolyte-cathode interface,0.0177376115912511,0.0185463841890666,0.0167984040195772,7.697527507674712e-05,critical
800,2.0202020202020203,5.063291139240507,electrolyte-cathode interface,0.0177546303271558,0.0186402543744459,0.0167114730805972,1.4042559377483392e-05,critical
800,2.121212121212121,5.063291139240507,electrolyte-cathode interface,0.0176999006032561,0.0186451877546853,0.0165720176449753,4.711575395253789e-06,critical
800,2.2222222222222223,5.063291139240507,electrolyte-cathode interface,0.017464940304267,0.0183662403653688,0.0163964487180691,3.131774437499804e-05,critical
800,2.323232323232323,5.063291139240507,electrolyte-cathode interface,0.0175748999257317,0.0183358813333669,0.016697446513664,-0.0001004006910409,critical
800,2.4242424242424243,5.063291139240507,electrolyte-cathode interface,0.0174793552023708,0.0183782986523062,0.016414511498795,-1.4186258406055272e-05,critical
800,2.525252525252525,5.063291139240507,electrolyte-cathode interface,0.0173865774652229,0.0182421937227502,0.0163809843698354,3.598821538012973e-05,critical
800,2.6262626262626263,5.063291139240507,electrolyte-cathode interface,0.0173930211528884,0.0182348043428897,0.0164063553422538,4.925928330938861e-05,critical
800,2.727272727272727,5.063291139240507,electrolyte-cathode interface,0.0173243326039562,0.0181662821420011,0.0163370501470128,3.1348271393209696e-05,critical
800,2.8282828282828283,5.063291139240507,electrolyte-cathode interface,0.0171972351607655,0.0180281113266224,0.0162241179974059,-9.996821497932322e-06,critical
800,2.929292929292929,5.063291139240507,electrolyte-cathode interface,0.0170778135904726,0.0178702493387458,0.0161558805874782,3.1845619114060126e-05,critical
800,3.0303030303030303,5.063291139240507,electrolyte-cathode interface,0.0170946340169712,0.0179895016226338,0.0160303373787193,-5.889921820520865e-05,critical
800,3.131313131313131,5.063291139240507,electrolyte-cathode interface,0.0170385818144947,0.0179034634799966,0.0160163758992505,-3.449501265462626e-05,critical
800,3.2323232323232323,5.063291139240507,electrolyte-cathode interface,0.0170669660167037,0.0178710482961195,0.0161292978266538,-7.613032916958904e-06,critical
800,3.333333333333333,5.063291139240507,electrolyte-cathode interface,0.0169832774768439,0.0177471717173482,0.0160992414712831,-3.5047425845385977e-06,critical
800,3.4343434343434343,5.063291139240507,electrolyte-cathode interface,0.017001935137535,0.0178613706461737,0.015987034723653,-2.77521055032256e-05,critical
800,3.5353535353535355,5.063291139240507,electrolyte-cathode interface,0.0168686675236553,0.0176600464158236,0.0159459621429161,-4.975788088428992e-05,critical
800,3.636363636363636,5.063291139240507,electrolyte-cathode interface,0.0168604532416652,0.0176112463059542,0.015992702597296,3.547411586157688e-05,critical
800,3.7373737373737375,5.063291139240507,electrolyte-cathode interface,0.0169167585062467,0.0178091773278064,0.0158541836913707,-3.978899734050596e-05,critical
800,3.8383838383838382,5.063291139240507,electrolyte-cathode interface,0.0168785905541063,0.0175383383232224,0.0161271097899944,-0.0001323448116311,critical
800,3.939393939393939,5.063291139240507,electrolyte-cathode interface,0.016810178357078,0.0175379846364498,0.0159728968056813,7.696343624733782e-06,critical
800,4.040404040404041,5.063291139240507,electrolyte-cathode interface,0.016735229695574,0.0175395654109577,0.0157930452753035,6.935352664202093e-05,critical
800,4.141414141414141,5.063291139240507,electrolyte-cathode interface,0.0167063027806038,0.0174486927931906,0.0158487743518008,1.1814749800406992e-05,critical
800,4.242424242424242,5.063291139240507,electrolyte-cathode interface,0.0166957130800556,0.0175559906875381,0.0156763336115762,-7.248649379859304e-06,critical
800,4.343434343434343,5.063291139240507,electrolyte-cathode interface,0.0168111692980391,0.0176356673444128,0.0158428682086994,-2.4020243686656358e-05,critical
800,4.444444444444445,5.063291139240507,electrolyte-cathode interface,0.0167316419568036,0.017554656403816,0.0157646496082647,1.539526887335266e-05,critical
800,4.545454545454545,5.063291139240507,electrolyte-cathode interface,0.0166081854547864,0.0173951040667413,0.0156895990670663,-1.701234450424825e-05,critical
800,4.646464646464646,5.063291139240507,electrolyte-cathode interface,0.0167331356066809,0.0174992808994885,0.0158426617394965,-7.80004600197882e-05,critical
800,4.747474747474747,5.063291139240507,electrolyte-cathode interface,0.0167210960391098,0.0175614685606876,0.0157299021706612,-8.848263468484336e-06,critical
800,4.848484848484849,5.063291139240507,electrolyte-cathode interface,0.0165388662240824,0.0174315436948241,0.0154706112164369,6.378188965868177e-05,critical
800,4.94949494949495,5.063291139240507,electrolyte-cathode interface,0.0167085064669174,0.0174958021569807,0.0157903871351759,-9.285459098041452e-06,critical
800,5.05050505050505,5.063291139240507,electrolyte-cathode interface,0.0166689630792801,0.01751869536652,0.0156640008618,2.294278232720936e-05,critical
800,5.151515151515151,5.063291139240507,electrolyte-cathode interface,0.0166690138382768,0.0175258991706415,0.0156532932381058,-6.145562781313098e-05,critical
800,5.252525252525253,5.063291139240507,electrolyte-cathode interface,0.0166851192000299,0.0175182050901126,0.0157037040429095,-5.1823671130995935e-06,critical
800,5.353535353535354,5.063291139240507,electrolyte-cathode interface,0.0166198517865688,0.0174256408239254,0.0156755158573095,-1.4456250312380004e-05,critical
800,5.454545454545454,5.063291139240507,electrolyte-cathode interface,0.0167656438416883,0.0175694506212312,0.0158233901752007,-9.968952048942088e-05,critical
800,5.555555555555555,5.063291139240507,electrolyte-cathode interface,0.0165809035042843,0.0173331486594235,0.0157091369380973,-6.8577961120727424e-06,critical
800,5.656565656565657,5.063291139240507,electrolyte-cathode interface,0.0168019080588678,0.0176432190480497,0.0158102953383312,-6.388692422726883e-07,critical
800,5.757575757575758,5.063291139240507,electrolyte-cathode interface,0.0167155977463261,0.01754692585444,0.0157333909970116,0.0001286520817248,critical
800,5.858585858585858,5.063291139240507,electrolyte-cathode interface,0.0167339934501885,0.0175392581832156,0.0157914921499122,-1.625595529930677e-05,critical
800,5.959595959595959,5.063291139240507,electrolyte-cathode interface,0.0167453101601537,0.0175237425229198,0.0158391995481594,4.3484383552799926e-05,critical
800,6.0606060606060606,5.063291139240507,electrolyte-cathode interface,0.0168251291555899,0.0175847005691299,0.0159455802139583,-8.366686710435986e-07,critical
800,6.161616161616162,5.063291139240507,electrolyte-cathode interface,0.0168967999763592,0.0176038794078562,0.0160853298132494,0.0001027136825931,critical
800,6.262626262626262,5.063291139240507,electrolyte-cathode interface,0.0168381863615992,0.0175647612614697,0.0160026688727828,-2.10477264824393e-05,critical
800,6.363636363636363,5.063291139240507,electrolyte-cathode interface,0.0169581709918049,0.0177484117947881,0.0160373021829813,7.076737164592892e-05,critical
800,6.4646464646464645,5.063291139240507,electrolyte-cathode interface,0.0168777922990772,0.0177254533312428,0.0158767600398743,8.049196048132021e-05,critical
800,6.565656565656566,5.063291139240507,electrolyte-cathode interface,0.0169329067000364,0.0178185700696774,0.0158803589201827,2.1437515489941265e-05,critical
800,6.666666666666667,5.063291139240507,electrolyte-cathode interface,0.0171324997920528,0.0180151946742389,0.0160858315465195,-5.977802975433556e-05,critical
800,6.767676767676767,5.063291139240507,electrolyte-cathode interface,0.0170718702062286,0.0179422629877342,0.0160425359328217,1.141283323177782e-05,critical
800,6.8686868686868685,5.063291139240507,electrolyte-cathode interface,0.0171185827508809,0.0180130588724216,0.0160557916120736,1.880353436101972e-05,critical
800,6.96969696969697,5.063291139240507,electrolyte-cathode interface,0.0170967210512234,0.0178683654229165,0.0162026991825705,-5.0586056565995465e-05,critical
800,7.070707070707071,5.063291139240507,electrolyte-cathode interface,0.017271323505309,0.0181505253857783,0.0162315070022633,4.322103944197792e-05,critical
800,7.171717171717171,5.063291139240507,electrolyte-cathode interface,0.0172823135711731,0.0181456361704078,0.0162639269152315,-7.795756419185748e-05,critical
800,7.272727272727272,5.063291139240507,electrolyte-cathode interface,0.0171417337925756,0.0179722436862385,0.016167981500299,-5.407384441169159e-05,critical
800,7.373737373737374,5.063291139240507,electrolyte-cathode interface,0.0173078779777668,0.0181608192464724,0.0163054032953302,-1.402086760192799e-05,critical
800,7.474747474747475,5.063291139240507,electrolyte-cathode interface,0.0172130649017745,0.0181060120123343,0.0161535909590113,1.3458541899527178e-05,critical
800,7.575757575757575,5.063291139240507,electrolyte-cathode interface,0.0173283844975709,0.0181667482729421,0.0163461771581847,-2.2689601956724117e-05,critical
800,7.6767676767676765,5.063291139240507,electrolyte-cathode interface,0.017586977724655,0.0183417054048779,0.0167193249010974,5.396012137755978e-05,critical
800,7.777777777777778,5.063291139240507,electrolyte-cathode interface,0.0175770695599681,0.0183835262861502,0.0166403853020512,-4.4246331629260304e-05,critical
800,7.878787878787879,5.063291139240507,electrolyte-cathode interface,0.0176220829246404,0.0184588226435017,0.0166450096462103,1.423674810704793e-05,critical
800,7.979797979797979,5.063291139240507,electrolyte-cathode interface,0.0177568875661955,0.0186649143933801,0.0166823666972946,-2.319760961454292e-05,critical
800,8.080808080808081,5.063291139240507,electrolyte-cathode interface,0.0178133625849936,0.0186831365238534,0.016791680836554,7.531364002649587e-05,critical
800,8.181818181818182,5.063291139240507,electrolyte-cathode interface,0.017983756238229,0.0188107287827546,0.0170224110285383,-6.696008659839035e-05,critical
800,8.282828282828282,5.063291139240507,electrolyte-cathode interface,0.0179783712369453,0.0187315003193172,0.017114681494058,-8.956812816381067e-05,critical
800,8.383838383838384,5.063291139240507,electrolyte-cathode interface,0.0181433509467756,0.0189808124205507,0.0171693126509646,6.363789464368588e-05,critical
800,8.484848484848484,5.063291139240507,electrolyte-cathode interface,0.0183684584053973,0.019197005834928,0.0174090031906953,2.9296774390070493e-05,critical
800,8.585858585858587,5.063291139240507,electrolyte-cathode interface,0.0184122318872044,0.0192013158258162,0.0175029927160444,-0.0001231403606622,critical
800,8.686868686868687,5.063291139240507,electrolyte-cathode interface,0.0185762370174342,0.0194615501795994,0.0175413445181253,5.044927616817082e-05,critical
800,8.787878787878787,5.063291139240507,electrolyte-cathode interface,0.0186614519658801,0.019560565864736,0.0176089458266767,2.831408294622461e-06,critical
800,8.88888888888889,5.063291139240507,electrolyte-cathode interface,0.0187734904387002,0.0196983835347448,0.0176865203227785,1.2766559881665328e-05,critical
800,8.98989898989899,5.063291139240507,electrolyte-cathode interface,0.0186437680235017,0.019551994356307,0.0175779619454429,-5.498303472683709e-05,critical
800,9.09090909090909,5.063291139240507,electrolyte-cathode interface,0.0189276214554238,0.0198490124833181,0.0178468797165274,3.3566165184342906e-05,critical
800,9.191919191919192,5.063291139240507,electrolyte-cathode interface,0.0192234093856194,0.020142700715794,0.0181476470291772,-7.440069455787055e-05,critical
800,9.292929292929292,5.063291139240507,electrolyte-cathode interface,0.0192984201063908,0.0202169898697084,0.0182240449186062,-8.535713219894219e-05,critical
800,9.393939393939394,5.063291139240507,electrolyte-cathode interface,0.0194599520942141,0.0203305075543084,0.0184529986817821,-4.4222328756816886e-05,critical
800,9.494949494949497,5.063291139240507,electrolyte-cathode interface,0.0196280697044623,0.0206417089124092,0.0184249412236633,-9.089897368920044e-05,critical
800,9.595959595959595,5.063291139240507,electrolyte-cathode interface,0.019821054403186,0.0207224835269375,0.0187752071173739,-6.681325765382197e-05,critical
800,9.696969696969695,5.063291139240507,electrolyte-cathode interface,0.0199868813458771,0.0209584269876104,0.018846381309432,8.978183384051733e-05,critical
800,9.797979797979798,5.063291139240507,electrolyte-cathode interface,0.0201724066671794,0.0211721724614816,0.0189962119612177,-6.079736644925341e-06,critical
800,9.8989898989899,5.063291139240507,electrolyte-cathode interface,0.0205536765213881,0.021561757180329,0.0193698892094381,-1.2722686647786376e-05,critical
800,10.0,5.063291139240507,electrolyte-cathode interface,0.0208035361048827,0.0217607201636267,0.0196914445061144,4.163013830522012e-05,critical
800,0.0,5.1645569620253164,electrolyte-cathode interface,0.0206846184853625,0.0217331928000363,0.0194431550272665,-0.0001256079027649,critical
800,0.101010101010101,5.1645569620253164,electrolyte-cathode interface,0.0204842393886842,0.0215113555097669,0.0192729943087176,4.308965080471624e-05,critical
800,0.202020202020202,5.1645569620253164,electrolyte-cathode interface,0.0201737478495861,0.0211347537050873,0.0190509807868197,8.28560978563377e-06,critical
800,0.303030303030303,5.1645569620253164,electrolyte-cathode interface,0.0201137912900271,0.0210602503939356,0.0190099613070763,-4.607824150140029e-05,critical
800,0.404040404040404,5.1645569620253164,electrolyte-cathode interface,0.0198583573012006,0.0207541926567164,0.0188211446354382,2.467507017362203e-06,critical
800,0.5050505050505051,5.1645569620253164,electrolyte-cathode interface,0.0196280292234598,0.0204377826569441,0.0187012411436945,-0.0001033648228779,critical
800,0.6060606060606061,5.1645569620253164,electrolyte-cathode interface,0.0194126729331018,0.0203286004659579,0.0183441960355793,2.694059994130061e-05,critical
800,0.7070707070707071,5.1645569620253164,electrolyte-cathode interface,0.0192793207850741,0.0202794806114234,0.0180926239959531,-1.6837868605337608e-05,critical
800,0.8080808080808081,5.1645569620253164,electrolyte-cathode interface,0.0191617918240268,0.0200924279033021,0.0180708399655462,-1.1531947123819345e-05,critical
800,0.9090909090909092,5.1645569620253164,electrolyte-cathode interface,0.0189327618414783,0.0198246076561426,0.0178925079901443,3.877687360925985e-05,critical
800,1.0101010101010102,5.1645569620253164,electrolyte-cathode interface,0.0188730905505611,0.0196959600114264,0.0179252445238929,-3.273252333517832e-05,critical
800,1.1111111111111112,5.1645569620253164,electrolyte-cathode interface,0.0188563498680218,0.0198387941950087,0.0176897646207663,9.246168641686752e-07,critical
800,1.2121212121212122,5.1645569620253164,electrolyte-cathode interface,0.0187423834798276,0.0195488157831573,0.0178147818322264,6.370899099496535e-05,critical
800,1.3131313131313131,5.1645569620253164,electrolyte-cathode interface,0.0185037033988572,0.019444181412196,0.0173918870891466,-3.70577147200653e-05,critical
800,1.414141414141414,5.1645569620253164,electrolyte-cathode interface,0.0183520822297521,0.0193290037503036,0.0171872074165594,3.367512457391675e-06,critical
800,1.5151515151515151,5.1645569620253164,electrolyte-cathode interface,0.0183044606846419,0.0191950537633046,0.0172591776285591,7.029000856092778e-05,critical
800,1.616161616161616,5.1645569620253164,electrolyte-cathode interface,0.0180118622189244,0.0188497797714956,0.0170365815341363,3.503697073685266e-05,critical
800,1.7171717171717171,5.1645569620253164,electrolyte-cathode interface,0.0181196032557702,0.019006813539396,0.0170780212506577,1.841123144026822e-05,critical
800,1.818181818181818,5.1645569620253164,electrolyte-cathode interface,0.0178108619842473,0.0185826781338588,0.0169228202054168,1.0882476291958432e-05,critical
800,1.9191919191919191,5.1645569620253164,electrolyte-cathode interface,0.0177465941406054,0.0186896292837126,0.0166209261380305,-8.779334571456305e-05,critical
800,2.0202020202020203,5.1645569620253164,electrolyte-cathode interface,0.0177394098734658,0.0187026891601062,0.0165862028927221,-1.3558389237670022e-05,critical
800,2.121212121212121,5.1645569620253164,electrolyte-cathode interface,0.0176201583260409,0.0184695524394487,0.016624543254575,-7.756098723751028e-05,critical
800,2.2222222222222223,5.1645569620253164,electrolyte-cathode interface,0.0174894933503731,0.0183399373333298,0.0164923471779192,7.627752421190604e-06,critical
800,2.323232323232323,5.1645569620253164,electrolyte-cathode interface,0.0175765602993561,0.0183487172531901,0.0166853157332184,6.934616362602737e-05,critical
800,2.4242424242424243,5.1645569620253164,electrolyte-cathode interface,0.0173842726213073,0.0182831398411308,0.0163181013998304,4.253885006626688e-05,critical
800,2.525252525252525,5.1645569620253164,electrolyte-cathode interface,0.0172889338062684,0.0181989794839709,0.016206022933264,-2.755276931684324e-05,critical
800,2.6262626262626263,5.1645569620253164,electrolyte-cathode interface,0.0173886431562669,0.0181738456686227,0.016479361466973,9.346802134890282e-06,critical
800,2.727272727272727,5.1645569620253164,electrolyte-cathode interface,0.0172109255959115,0.0181237350322353,0.0161229673111717,-3.87337634168909e-05,critical
800,2.8282828282828283,5.1645569620253164,electrolyte-cathode interface,0.0171668371330038,0.017967137624425,0.0162337263658785,-8.560916389317761e-05,critical
800,2.929292929292929,5.1645569620253164,electrolyte-cathode interface,0.0171382023853033,0.0180323286132499,0.0160740884884804,0.0001000513711737,critical
800,3.0303030303030303,5.1645569620253164,electrolyte-cathode interface,0.0170171876963399,0.0178081442477744,0.0160963218982302,5.391077124467198e-05,critical
800,3.131313131313131,5.1645569620253164,electrolyte-cathode interface,0.0170759305334905,0.0178566690737773,0.0161697812104502,3.3570079739532474e-05,critical
800,3.2323232323232323,5.1645569620253164,electrolyte-cathode interface,0.0170178153321678,0.0178261429509733,0.0160731359925655,6.051283509090018e-05,critical
800,3.333333333333333,5.1645569620253164,electrolyte-cathode interface,0.0168707270575463,0.0175919953154394,0.0160421638129855,4.390564380712744e-05,critical
800,3.4343434343434343,5.1645569620253164,electrolyte-cathode interface,0.0169797088671839,0.0177667485789971,0.0160641894699237,-3.361674645566468e-05,critical
800,3.5353535353535355,5.1645569620253164,electrolyte-cathode interface,0.0170016295529593,0.017991525342345,0.0157984226960616,5.159435903848165e-05,critical
800,3.636363636363636,5.1645569620253164,electrolyte-cathode interface,0.0167973958699851,0.017436518971416,0.016073884231735,-8.783930064501855e-05,critical
800,3.7373737373737375,5.1645569620253164,electrolyte-cathode interface,0.0167955536659784,0.0176188606458798,0.0158266538571829,-0.00010166771534,critical
800,3.8383838383838382,5.1645569620253164,electrolyte-cathode interface,0.0170105733337198,0.0176768973646381,0.0162545443960636,-4.691899571464029e-05,critical
800,3.939393939393939,5.1645569620253164,electrolyte-cathode interface,0.0168506407708518,0.017652311968845,0.0159140816718343,2.7781612325458405e-05,critical
800,4.040404040404041,5.1645569620253164,electrolyte-cathode interface,0.0168492672202008,0.0177286092880873,0.0158047591262198,8.306048685109682e-06,critical
800,4.141414141414141,5.1645569620253164,electrolyte-cathode interface,0.0167474352720019,0.0175567545443064,0.0157993471868527,3.0806114166193503e-05,critical
800,4.242424242424242,5.1645569620253164,electrolyte-cathode interface,0.0168058046005085,0.0176934583404064,0.0157489420170032,1.5000612975303366e-05,critical
800,4.343434343434343,5.1645569620253164,electrolyte-cathode interface,0.0167579340998301,0.0176352361862444,0.0157150243983716,3.149098329136153e-05,critical
800,4.444444444444445,5.1645569620253164,electrolyte-cathode interface,0.0166186529888554,0.0174854324048829,0.0155890915389782,2.245087941553369e-05,critical
800,4.545454545454545,5.1645569620253164,electrolyte-cathode interface,0.0168019947711611,0.017576172445506,0.0159023709740889,-2.945273847311426e-05,critical
800,4.646464646464646,5.1645569620253164,electrolyte-cathode interface,0.0168115756235304,0.0176766933782688,0.0157862357669746,4.759452248182893e-05,critical
800,4.747474747474747,5.1645569620253164,electrolyte-cathode interface,0.016740235507532,0.0175477231232927,0.0157924283731472,0.0001053006035544,critical
800,4.848484848484849,5.1645569620253164,electrolyte-cathode interface,0.0167043123674801,0.0175484928554041,0.0157076281332523,-4.784466691009736e-06,critical
800,4.94949494949495,5.1645569620253164,electrolyte-cathode interface,0.0165066716466724,0.0173676637542492,0.0154839309946559,2.615742286294237e-05,critical
800,5.05050505050505,5.1645569620253164,electrolyte-cathode interface,0.0166235907605807,0.0173650892781422,0.0157661112162864,4.868296428614143e-05,critical
800,5.151515151515151,5.1645569620253164,electrolyte-cathode interface,0.0167417642717058,0.0175637728995234,0.015775136963656,-7.422786932873433e-05,critical
800,5.252525252525253,5.1645569620253164,electrolyte-cathode interface,0.0166811006196578,0.01741417497957,0.0158354357200326,4.3404021167109264e-05,critical
800,5.353535353535354,5.1645569620253164,electrolyte-cathode interface,0.0167971593943001,0.0175949690143414,0.0158654508613931,-2.0119405054001653e-05,critical
800,5.454545454545454,5.1645569620253164,electrolyte-cathode interface,0.0167604249712627,0.0174601958889465,0.0159597382025013,-1.0272885629416014e-05,critical
800,5.555555555555555,5.1645569620253164,electrolyte-cathode interface,0.0166575198007214,0.0175735470450911,0.0155573105325144,-5.951946052657268e-05,critical
800,5.656565656565657,5.1645569620253164,electrolyte-cathode interface,0.0167595591151624,0.0175832589188864,0.01579170857117,3.4002488831891846e-05,critical
800,5.757575757575758,5.1645569620253164,electrolyte-cathode interface,0.0166497361600377,0.017449600101012,0.0157137093958895,-2.8592522039191684e-05,critical
800,5.858585858585858,5.1645569620253164,electrolyte-cathode interface,0.0167026538150301,0.0174684771750344,0.0158136250488588,-7.31857660333978e-06,critical
800,5.959595959595959,5.1645569620253164,electrolyte-cathode interface,0.0168617723130441,0.0178014003407324,0.0157307192242515,3.063055247666289e-05,critical
800,6.0606060606060606,5.1645569620253164,electrolyte-cathode interface,0.0168957908787246,0.0175812107814182,0.0161146424489204,2.5827517952873894e-05,critical
800,6.161616161616162,5.1645569620253164,electrolyte-cathode interface,0.0168830821093118,0.0175892489432647,0.0160747535388933,-2.5321155060403577e-05,critical
800,6.262626262626262,5.1645569620253164,electrolyte-cathode interface,0.0168987438420632,0.0177576517403858,0.0158827570520309,6.283560595175526e-05,critical
800,6.363636363636363,5.1645569620253164,electrolyte-cathode interface,0.0168135751478759,0.0175678936205278,0.0159407105283275,3.595200710480953e-05,critical
800,6.4646464646464645,5.1645569620253164,electrolyte-cathode interface,0.0168926676745603,0.0176147527730378,0.0160634889445358,-2.171993779125465e-05,critical
800,6.565656565656566,5.1645569620253164,electrolyte-cathode interface,0.016965520402433,0.0177350179020744,0.0160737677744018,1.3799829399338454e-05,critical
800,6.666666666666667,5.1645569620253164,electrolyte-cathode interface,0.0168839457243787,0.0176917461428928,0.0159383866494778,7.179410557159146e-05,critical
800,6.767676767676767,5.1645569620253164,electrolyte-cathode interface,0.0169796070682155,0.017846889376679,0.0159534320613067,3.021263174532466e-05,critical
800,6.8686868686868685,5.1645569620253164,electrolyte-cathode interface,0.0170139328078955,0.0177855416520382,0.0161197586406794,1.2080646291734009e-05,critical
800,6.96969696969697,5.1645569620253164,electrolyte-cathode interface,0.0170977303839107,0.0179681240687101,0.0160685101837984,-3.0912712235658585e-05,critical
800,7.070707070707071,5.1645569620253164,electrolyte-cathode interface,0.0170608895860211,0.0178065847981351,0.0162011803342916,5.458486185440015e-05,critical
800,7.171717171717171,5.1645569620253164,electrolyte-cathode interface,0.0170401204361487,0.0177622887964977,0.0162112775148214,-5.965317577043027e-05,critical
800,7.272727272727272,5.1645569620253164,electrolyte-cathode interface,0.0172883856466606,0.0181783605670414,0.0162334369963962,5.253446224398108e-05,critical
800,7.373737373737374,5.1645569620253164,electrolyte-cathode interface,0.01723642414565,0.018128570383025,0.0161783799823038,-7.627519567447523e-06,critical
800,7.474747474747475,5.1645569620253164,electrolyte-cathode interface,0.0174276462368972,0.0183465132853303,0.0163338506485819,-3.0738381349834336e-05,critical
800,7.575757575757575,5.1645569620253164,electrolyte-cathode interface,0.0174072722309572,0.0181910994399079,0.0164997527352482,3.573096928770679e-05,critical
800,7.6767676767676765,5.1645569620253164,electrolyte-cathode interface,0.0175541132196198,0.0184779645391653,0.016454809057184,2.801526713735965e-05,critical
800,7.777777777777778,5.1645569620253164,electrolyte-cathode interface,0.0174399078780951,0.0182792222956119,0.0164572023980836,-4.385312989764273e-05,critical
800,7.878787878787879,5.1645569620253164,electrolyte-cathode interface,0.0178568846615254,0.0186627397313582,0.0169237038142353,2.163575982522803e-05,critical
800,7.979797979797979,5.1645569620253164,electrolyte-cathode interface,0.0178073009615826,0.0186785027073203,0.0167845758649601,2.746462747938932e-05,critical
800,8.080808080808081,5.1645569620253164,electrolyte-cathode interface,0.0177558272648358,0.0185530137515593,0.0168319131173961,9.03676447764732e-05,critical
800,8.181818181818182,5.1645569620253164,electrolyte-cathode interface,0.0178267880842401,0.0185232552570625,0.0170364876956574,-6.502652866376637e-05,critical
800,8.282828282828282,5.1645569620253164,electrolyte-cathode interface,0.0179426448678647,0.0188704784900501,0.0168423307251979,2.757913511248239e-05,critical
800,8.383838383838384,5.1645569620253164,electrolyte-cathode interface,0.0179617735254019,0.0186992271619278,0.017116574630927,-0.0001339177435998,critical
800,8.484848484848484,5.1645569620253164,electrolyte-cathode interface,0.018111992236833,0.0190172373118598,0.0170453042048942,1.9557534243762184e-05,critical
800,8.585858585858587,5.1645569620253164,electrolyte-cathode interface,0.0183129578463043,0.019212166408823,0.0172568268845537,-3.7696619597026793e-06,critical
800,8.686868686868687,5.1645569620253164,electrolyte-cathode interface,0.0184516461440505,0.0192969888428065,0.0174695951622703,6.657033101052464e-05,critical
800,8.787878787878787,5.1645569620253164,electrolyte-cathode interface,0.0186385151613053,0.0194053406205457,0.0177628567777757,-2.712979752489545e-05,critical
800,8.88888888888889,5.1645569620253164,electrolyte-cathode interface,0.018802549499369,0.0197092658865225,0.0177401691610177,-6.535772192234412e-05,critical
800,8.98989898989899,5.1645569620253164,electrolyte-cathode interface,0.0186786114279603,0.0195450825621728,0.0176695781178959,-8.092136756992135e-05,critical
800,9.09090909090909,5.1645569620253164,electrolyte-cathode interface,0.0188630420915311,0.0197851631161249,0.017780806885705,-1.5795341732861403e-05,critical
800,9.191919191919192,5.1645569620253164,electrolyte-cathode interface,0.019306844843149,0.0201941258528571,0.0182763762125118,-1.873272320158404e-05,critical
800,9.292929292929292,5.1645569620253164,electrolyte-cathode interface,0.019292400619921,0.0202583894614603,0.0181522230530484,9.306008749189176e-05,critical
800,9.393939393939394,5.1645569620253164,electrolyte-cathode interface,0.0192827150370062,0.0202009978151331,0.0182096456709656,-3.917236602601041e-05,critical
800,9.494949494949497,5.1645569620253164,electrolyte-cathode interface,0.0196281705068175,0.020616856521063,0.0184612220680758,4.4538256190001e-05,critical
800,9.595959595959595,5.1645569620253164,electrolyte-cathode interface,0.0199188006741198,0.0207639722532831,0.0189494018956965,1.9144486866142103e-05,critical
800,9.696969696969695,5.1645569620253164,electrolyte-cathode interface,0.0200810687979556,0.0211537303192661,0.0188011059459099,1.7867497371952763e-05,critical
800,9.797979797979798,5.1645569620253164,electrolyte-cathode interface,0.0203136313185152,0.021307855298347,0.0191461838006965,-4.718665068175372e-05,critical
800,9.8989898989899,5.1645569620253164,electrolyte-cathode interface,0.0204840823444258,0.0214118799867687,0.0194091322522409,1.438254447720305e-05,critical
800,10.0,5.1645569620253164,electrolyte-cathode interface,0.0207122451173365,0.0217401049050839,0.0195027180602538,-4.521910269657807e-06,critical
800,0.0,5.265822784810126,electrolyte-cathode interface,0.0207613288253615,0.0218606746138349,0.0194516478560348,3.2762739583342745e-05,critical
800,0.101010101010101,5.265822784810126,electrolyte-cathode interface,0.0204589503942313,0.0214489473823296,0.0192991553086219,1.2629798151401515e-05,critical
800,0.202020202020202,5.265822784810126,electrolyte-cathode interface,0.0203068605729458,0.0212530969479344,0.019204811810787,6.160910244557497e-05,critical
800,0.303030303030303,5.265822784810126,electrolyte-cathode interface,0.0201254727618563,0.0212771882845783,0.0187312709172397,3.732975287867337e-05,critical
800,0.404040404040404,5.265822784810126,electrolyte-cathode interface,0.019765748235279,0.020653187243511,0.0187378120693372,-8.286543479065143e-05,critical
800,0.5050505050505051,5.265822784810126,electrolyte-cathode interface,0.0197419498410171,0.0206993095118495,0.0186199923627242,3.5913918524884912e-06,critical
800,0.6060606060606061,5.265822784810126,electrolyte-cathode interface,0.0193774165556206,0.0203430703666631,0.0182400943864259,2.733007466588992e-05,critical
800,0.7070707070707071,5.265822784810126,electrolyte-cathode interface,0.0192553321280983,0.0202186636026115,0.0181188024433254,8.251664746316177e-05,critical
800,0.8080808080808081,5.265822784810126,electrolyte-cathode interface,0.0190555957494966,0.0200051461632325,0.0179373089000231,2.075332183942476e-05,critical
800,0.9090909090909092,5.265822784810126,electrolyte-cathode interface,0.0189502740819289,0.0198519183247227,0.0178968409050599,-3.622221024819925e-05,critical
800,1.0101010101010102,5.265822784810126,electrolyte-cathode interface,0.0188719806138459,0.0197817421427809,0.0178068152135017,2.227835830541997e-05,critical
800,1.1111111111111112,5.265822784810126,electrolyte-cathode interface,0.0186560676414139,0.0196185980776654,0.0175151750752762,-2.074811029098344e-05,critical
800,1.2121212121212122,5.265822784810126,electrolyte-cathode interface,0.0186294179914327,0.0195118743580052,0.0175993995131963,1.1292913222132078e-05,critical
800,1.3131313131313131,5.265822784810126,electrolyte-cathode interface,0.0183373227023288,0.0193856396089398,0.0170681009890179,-5.877656115385092e-05,critical
800,1.414141414141414,5.265822784810126,electrolyte-cathode interface,0.0183085878162978,0.019282185640594,0.0171476558720017,-3.599383799376949e-05,critical
800,1.5151515151515151,5.265822784810126,electrolyte-cathode interface,0.018371656007807,0.0192549298895392,0.0173380661857066,-6.56211733279097e-06,critical
800,1.616161616161616,5.265822784810126,electrolyte-cathode interface,0.0182047922176124,0.0190973004752497,0.0171565329789411,3.836578052300744e-05,critical
800,1.7171717171717171,5.265822784810126,electrolyte-cathode interface,0.0179187018731317,0.0188488760963682,0.0168139703362543,6.974192799096137e-05,critical
800,1.818181818181818,5.265822784810126,electrolyte-cathode interface,0.017864311180104,0.0186927794896067,0.0168998439207943,6.816686755478426e-05,critical
800,1.9191919191919191,5.265822784810126,electrolyte-cathode interface,0.0178786071863515,0.0188252973286754,0.0167492195209522,9.212012982901458e-05,critical
800,2.0202020202020203,5.265822784810126,electrolyte-cathode interface,0.0176982888648007,0.0185967932178146,0.0166364352769285,-2.632336691173286e-05,critical
800,2.121212121212121,5.265822784810126,electrolyte-cathode interface,0.0176309050268165,0.0185036579014557,0.0166039386122382,-4.574854886420993e-05,critical
800,2.2222222222222223,5.265822784810126,electrolyte-cathode interface,0.0175081032887944,0.0183122788880661,0.0165737255083924,-5.300689634926848e-05,critical
800,2.323232323232323,5.265822784810126,electrolyte-cathode interface,0.0175889414077501,0.0184580177796856,0.0165668551437036,-3.192143257419296e-05,critical
800,2.4242424242424243,5.265822784810126,electrolyte-cathode interface,0.0173811362353619,0.0181467860903341,0.0164976834154872,3.840691397322374e-05,critical
800,2.525252525252525,5.265822784810126,electrolyte-cathode interface,0.0175311820287372,0.0185251344449397,0.0163303440832493,-3.375854771497955e-05,critical
800,2.6262626262626263,5.265822784810126,electrolyte-cathode interface,0.0173845171112674,0.0182440940977021,0.0163736766698059,-5.0315035189305405e-06,critical
800,2.727272727272727,5.265822784810126,electrolyte-cathode interface,0.0173538855331926,0.0182243729131751,0.0163275508709191,3.33709925011474e-06,critical
800,2.8282828282828283,5.265822784810126,electrolyte-cathode interface,0.0172301186379685,0.0180856591715752,0.016222415320339,6.386497712450217e-05,critical
800,2.929292929292929,5.265822784810126,electrolyte-cathode interface,0.0171987661592777,0.0180349160460343,0.0162173122404077,7.305034613266295e-05,critical
800,3.0303030303030303,5.265822784810126,electrolyte-cathode interface,0.0170941726014799,0.0179295933813452,0.0161137557839648,-1.127972130957483e-05,critical
800,3.131313131313131,5.265822784810126,electrolyte-cathode interface,0.0170929480411701,0.0179076952405853,0.0161405551355419,4.452043028933045e-05,critical
800,3.2323232323232323,5.265822784810126,electrolyte-cathode interface,0.0170681645805557,0.0179169279770732,0.016069016524204,4.230237563879993e-06,critical
800,3.333333333333333,5.265822784810126,electrolyte-cathode interface,0.0170119648256301,0.017756804168126,0.0161535843663916,-1.4133747842801018e-05,critical
800,3.4343434343434343,5.265822784810126,electrolyte-cathode interface,0.0169166741470347,0.0178681275926492,0.0157689825715276,-4.187991935444698e-05,critical
800,3.5353535353535355,5.265822784810126,electrolyte-cathode interface,0.0168950539837504,0.0177035412218201,0.0159497318435814,-9.427067770516878e-06,critical
800,3.636363636363636,5.265822784810126,electrolyte-cathode interface,0.0167999454789249,0.0175760389923034,0.0158978676099221,1.1073989621983926e-05,critical
800,3.7373737373737375,5.265822784810126,electrolyte-cathode interface,0.0168270777946562,0.0176368338668468,0.0158792407622798,2.504882033072629e-05,critical
800,3.8383838383838382,5.265822784810126,electrolyte-cathode interface,0.0168792356175796,0.0175952260781566,0.0160556162591717,-0.0001095425865432,critical
800,3.939393939393939,5.265822784810126,electrolyte-cathode interface,0.0167654858482874,0.0175998699540736,0.0157825715455622,5.077886958764513e-05,critical
800,4.040404040404041,5.265822784810126,electrolyte-cathode interface,0.0167934237245352,0.0177019018829758,0.0157027599394534,-0.000133910593685,critical
800,4.141414141414141,5.265822784810126,electrolyte-cathode interface,0.0167273198306663,0.0175619063228422,0.0157428558111624,-8.108625801195704e-05,critical
800,4.242424242424242,5.265822784810126,electrolyte-cathode interface,0.01674242861452,0.0176070071334669,0.0157166123784248,-6.536390835299474e-05,critical
800,4.343434343434343,5.265822784810126,electrolyte-cathode interface,0.0168442705145597,0.0177240695933128,0.0157989655640239,-2.2049073812364517e-05,critical
800,4.444444444444445,5.265822784810126,electrolyte-cathode interface,0.0167067160356643,0.0176254251428715,0.0156035065387442,5.089004376817738e-05,critical
800,4.545454545454545,5.265822784810126,electrolyte-cathode interface,0.016746808669473,0.0175844051340392,0.015758736317054,-6.959449942062103e-05,critical
800,4.646464646464646,5.265822784810126,electrolyte-cathode interface,0.0167023461304399,0.0175287152576163,0.0157300605022104,-4.264506049553206e-05,critical
800,4.747474747474747,5.265822784810126,electrolyte-cathode interface,0.0168021255620572,0.0175817489192309,0.0158948473212481,-4.680345486858593e-05,critical
800,4.848484848484849,5.265822784810126,electrolyte-cathode interface,0.0166267048813512,0.0174887556771998,0.0156038167333434,3.152728045779737e-05,critical
800,4.94949494949495,5.265822784810126,electrolyte-cathode interface,0.0166114947885498,0.0174311818471995,0.01564726422469,5.504214860089334e-05,critical
800,5.05050505050505,5.265822784810126,electrolyte-cathode interface,0.0167723124807229,0.0176118070258989,0.0157821718257982,-5.86979273547629e-05,critical
800,5.151515151515151,5.265822784810126,electrolyte-cathode interface,0.0166745041927825,0.0174816640487328,0.0157286909400991,2.8777389089917443e-05,critical
800,5.252525252525253,5.265822784810126,electrolyte-cathode interface,0.0165978646363769,0.017372458447847,0.0156958648339798,2.819403064337644e-05,critical
800,5.353535353535354,5.265822784810126,electrolyte-cathode interface,0.0166790704114172,0.0174866520172847,0.0157328938271371,5.241484183514231e-06,critical
800,5.454545454545454,5.265822784810126,electrolyte-cathode interface,0.0166442295983407,0.0174225058544943,0.0157374842314657,-3.9454169550180745e-05,critical
800,5.555555555555555,5.265822784810126,electrolyte-cathode interface,0.0166573999721435,0.0175758134408986,0.0155538867634636,-5.346122439722785e-05,critical
800,5.656565656565657,5.265822784810126,electrolyte-cathode interface,0.0166960025736578,0.0174880565380124,0.0157710265497803,-3.514728081603256e-05,critical
800,5.757575757575758,5.265822784810126,electrolyte-cathode interface,0.0167325014690979,0.0175176335057012,0.0158170408300127,-4.988506751243784e-05,critical
800,5.858585858585858,5.265822784810126,electrolyte-cathode interface,0.0166499569483113,0.0174582707106571,0.0157017310760351,5.933841157279735e-05,critical
800,5.959595959595959,5.265822784810126,electrolyte-cathode interface,0.0167964204218111,0.0176330368488485,0.015808660981876,0.0001105894176178,critical
800,6.0606060606060606,5.265822784810126,electrolyte-cathode interface,0.0167649764153078,0.0175884782899464,0.015797696451249,5.5841460471269206e-06,critical
800,6.161616161616162,5.265822784810126,electrolyte-cathode interface,0.0167317037918156,0.017584480423664,0.0157228599446064,4.456481821172884e-05,critical
800,6.262626262626262,5.265822784810126,electrolyte-cathode interface,0.0169026922716571,0.017784071436672,0.0158555170178526,-4.485745248436684e-05,critical
800,6.363636363636363,5.265822784810126,electrolyte-cathode interface,0.0168304567204139,0.0176162102179717,0.0159155429428678,1.2302064891216947e-05,critical
800,6.4646464646464645,5.265822784810126,electrolyte-cathode interface,0.0169583543544257,0.0177663703804856,0.0160142877802135,-8.580775717575463e-06,critical
800,6.565656565656566,5.265822784810126,electrolyte-cathode interface,0.0168645824648258,0.0177616361036276,0.015794474313928,-5.388566282173995e-05,critical
800,6.666666666666667,5.265822784810126,electrolyte-cathode interface,0.0170507554344477,0.0178456982151068,0.0161253410711002,-1.4852742654211176e-05,critical
800,6.767676767676767,5.265822784810126,electrolyte-cathode interface,0.0169928929626302,0.0177930781444386,0.0160598550485983,5.569900808170776e-06,critical
800,6.8686868686868685,5.265822784810126,electrolyte-cathode interface,0.0170464817519656,0.0178126668480237,0.0161598663180198,-1.2589633695739787e-05,critical
800,6.96969696969697,5.265822784810126,electrolyte-cathode interface,0.0171442294641145,0.0179226534274134,0.0162419884184074,1.2105791109130325e-05,critical
800,7.070707070707071,5.265822784810126,electrolyte-cathode interface,0.0172659959194334,0.0181266873084645,0.0162515754609493,-6.149254333243189e-05,critical
800,7.171717171717171,5.265822784810126,electrolyte-cathode interface,0.0171562830900212,0.017983254326522,0.0161880640716063,2.056015461849092e-05,critical
800,7.272727272727272,5.265822784810126,electrolyte-cathode interface,0.0172581125851445,0.0181560302640815,0.0161917860973949,4.3345285498923885e-05,critical
800,7.373737373737374,5.265822784810126,electrolyte-cathode interface,0.0172385433029656,0.0180310421443989,0.0163173454517161,-6.29161587559039e-05,critical
800,7.474747474747475,5.265822784810126,electrolyte-cathode interface,0.0173261081076313,0.0182167879657736,0.0162711583256951,1.0104194779561897e-05,critical
800,7.575757575757575,5.265822784810126,electrolyte-cathode interface,0.0174169736920014,0.0183788199215718,0.0162612931408085,-3.4998065694765924e-05,critical
800,7.6767676767676765,5.265822784810126,electrolyte-cathode interface,0.0174465236622631,0.0182650352837179,0.0164925086157273,-3.206933056434874e-05,critical
800,7.777777777777778,5.265822784810126,electrolyte-cathode interface,0.017611539511157,0.0184455434896603,0.0166379539796463,3.07701467821438e-05,critical
800,7.878787878787879,5.265822784810126,electrolyte-cathode interface,0.0175913904480594,0.0183425978543165,0.0167288361749376,-2.8732157478308665e-05,critical
800,7.979797979797979,5.265822784810126,electrolyte-cathode interface,0.0178158887184386,0.01857138360969,0.0169494001847766,-2.0394537325121136e-05,critical
800,8.080808080808081,5.265822784810126,electrolyte-cathode interface,0.0178992817257264,0.0187688224351542,0.0168798071148115,-2.4528479267173605e-05,critical
800,8.181818181818182,5.265822784810126,electrolyte-cathode interface,0.0178744516574777,0.0186965353811379,0.0169192411945022,-4.492888692376044e-05,critical
800,8.282828282828282,5.265822784810126,electrolyte-cathode interface,0.0180281739580495,0.0189800066908264,0.0168949439276372,2.176195124349564e-05,critical
800,8.383838383838384,5.265822784810126,electrolyte-cathode interface,0.0180780105143233,0.0188748370381386,0.01715836813549,-4.759644405567958e-05,critical
800,8.484848484848484,5.265822784810126,electrolyte-cathode interface,0.0182640888614775,0.0191145149522839,0.017274137814383,3.260055930953696e-05,critical
800,8.585858585858587,5.265822784810126,electrolyte-cathode interface,0.0181721560453758,0.0190806821488726,0.0171004253948767,-7.758211905375557e-05,critical
800,8.686868686868687,5.265822784810126,electrolyte-cathode interface,0.0184551943200488,0.0192420106647307,0.0175520158829569,-2.606543662581384e-05,critical
800,8.787878787878787,5.265822784810126,electrolyte-cathode interface,0.0185749795974787,0.0194894818670298,0.0175003694351711,-7.438796630842818e-06,critical
800,8.88888888888889,5.265822784810126,electrolyte-cathode interface,0.0187086405263696,0.0195279695091201,0.0177642116533627,3.3690012124526315e-05,critical
800,8.98989898989899,5.265822784810126,electrolyte-cathode interface,0.0189245402352519,0.0198203745890142,0.0178779891359474,7.510058716426637e-05,critical
800,9.09090909090909,5.265822784810126,electrolyte-cathode interface,0.0190024328917956,0.0198842401423474,0.017976608417862,-2.7069572220955916e-05,critical
800,9.191919191919192,5.265822784810126,electrolyte-cathode interface,0.0190871195498267,0.0200399313270079,0.0179624499888147,-0.0001094528181095,critical
800,9.292929292929292,5.265822784810126,electrolyte-cathode interface,0.0194006894573764,0.0203624925801202,0.0182690533552469,1.6332393995850084e-05,critical
800,9.393939393939394,5.265822784810126,electrolyte-cathode interface,0.01943698625468,0.0203546846884424,0.0183659312904463,-5.339837683950706e-05,critical
800,9.494949494949497,5.265822784810126,electrolyte-cathode interface,0.0196535264019121,0.0206918147202226,0.0184173087182722,-7.806709033772236e-06,critical
800,9.595959595959595,5.265822784810126,electrolyte-cathode interface,0.0197881756208662,0.0207967758171127,0.0185926435979738,0.0001247060654238,critical
800,9.696969696969695,5.265822784810126,electrolyte-cathode interface,0.0199757910416513,0.0209210865537416,0.0188724973132594,2.804809881247264e-05,critical
800,9.797979797979798,5.265822784810126,electrolyte-cathode interface,0.0202900406296911,0.0212783313070471,0.0191307404701163,-3.3508602753125235e-05,critical
800,9.8989898989899,5.265822784810126,electrolyte-cathode interface,0.0204887428949968,0.0214661329405219,0.0193465671561573,-3.820393852125066e-06,critical
800,10.0,5.265822784810126,electrolyte-cathode interface,0.0206035951008528,0.0216117450647128,0.0194184700129847,0.0001010810894859,critical
800,0.0,5.367088607594937,electrolyte-cathode interface,0.0206959615322471,0.021626668417262,0.0196188195706739,2.3531258998784915e-05,critical
800,0.101010101010101,5.367088607594937,electrolyte-cathode interface,0.0204801251533288,0.0214728635551783,0.0193149981599154,-0.0001013626748472,critical
800,0.202020202020202,5.367088607594937,electrolyte-cathode interface,0.0201263186205914,0.0211491361262681,0.0189170443631206,4.940052686202532e-05,critical
800,0.303030303030303,5.367088607594937,electrolyte-cathode interface,0.0201129740960192,0.0210181167540321,0.019065377237172,8.379257796176864e-06,critical
800,0.404040404040404,5.367088607594937,electrolyte-cathode interface,0.0198111599497717,0.0207667372005379,0.0186921923613107,2.8727433071829525e-05,critical
800,0.5050505050505051,5.367088607594937,electrolyte-cathode interface,0.0196391696299191,0.0206571200012353,0.018431483445926,-2.6834884822675196e-05,critical
800,0.6060606060606061,5.367088607594937,electrolyte-cathode interface,0.0194397529394965,0.0204281889651095,0.0182706768546286,-6.402222266867319e-05,critical
800,0.7070707070707071,5.367088607594937,electrolyte-cathode interface,0.0192192700493647,0.0201800349012728,0.0180867283617052,5.033015252177359e-05,critical
800,0.8080808080808081,5.367088607594937,electrolyte-cathode interface,0.019160794037578,0.0200416488830435,0.0181367908104826,7.382543595591861e-05,critical
800,0.9090909090909092,5.367088607594937,electrolyte-cathode interface,0.0189779195277107,0.0198869116858909,0.0179147508375792,3.132308506576032e-05,critical
800,1.0101010101010102,5.367088607594937,electrolyte-cathode interface,0.0189656586993329,0.0199006793156894,0.0178666699210458,-7.003429514600339e-06,critical
800,1.1111111111111112,5.367088607594937,electrolyte-cathode interface,0.0186652592395519,0.0194641508890307,0.0177473859754725,4.768717084155167e-05,critical
800,1.2121212121212122,5.367088607594937,electrolyte-cathode interface,0.0186905805885569,0.0195384834787762,0.0177077226610308,-3.683705673712524e-05,critical
800,1.3131313131313131,5.367088607594937,electrolyte-cathode interface,0.0183996406894521,0.01929126058165,0.0173546291413275,-3.4463033577214826e-05,critical
800,1.414141414141414,5.367088607594937,electrolyte-cathode interface,0.0183616051132041,0.0192223499381304,0.0173567193624303,-0.0001017046798295,critical
800,1.5151515151515151,5.367088607594937,electrolyte-cathode interface,0.0180938189282799,0.0190210684373319,0.0169956001890791,-5.564007756439378e-05,critical
800,1.616161616161616,5.367088607594937,electrolyte-cathode interface,0.0179819303088393,0.0188460116243859,0.0169697026012392,-7.760926981633848e-05,critical
800,1.7171717171717171,5.367088607594937,electrolyte-cathode interface,0.0179573048040092,0.0188288872740301,0.0169356424642809,-1.9296296930540658e-05,critical
800,1.818181818181818,5.367088607594937,electrolyte-cathode interface,0.0178249792784421,0.0186087208412431,0.016921168789609,1.5790677893006756e-05,critical
800,1.9191919191919191,5.367088607594937,electrolyte-cathode interface,0.017810266835327,0.0187604966914176,0.0166767124784277,-3.597405415289578e-06,critical
800,2.0202020202020203,5.367088607594937,electrolyte-cathode interface,0.0176966019141293,0.0184827216598531,0.016788447223662,3.139164410026995e-05,critical
800,2.121212121212121,5.367088607594937,electrolyte-cathode interface,0.0175648123070002,0.0183226495267665,0.0166932802084057,-2.9800972050912116e-05,critical
800,2.2222222222222223,5.367088607594937,electrolyte-cathode interface,0.017561933165696,0.018382037811017,0.0166063744833782,5.631046642397993e-05,critical
800,2.323232323232323,5.367088607594937,electrolyte-cathode interface,0.0173667069261934,0.0182249768639345,0.0163573940933795,2.2473312470009573e-05,critical
800,2.4242424242424243,5.367088607594937,electrolyte-cathode interface,0.017415646684481,0.0182994883396164,0.0163712457271235,2.007965428572563e-05,critical
800,2.525252525252525,5.367088607594937,electrolyte-cathode interface,0.0175722547618921,0.0183841956370127,0.0166284952186541,6.933227960864403e-06,critical
800,2.6262626262626263,5.367088607594937,electrolyte-cathode interface,0.017254088324492,0.018140194519143,0.0162047702815557,-1.9903503176360435e-06,critical
800,2.727272727272727,5.367088607594937,electrolyte-cathode interface,0.0172434165147859,0.0181620347291069,0.0161473697048538,-4.982830240051144e-05,critical
800,2.8282828282828283,5.367088607594937,electrolyte-cathode interface,0.0171585682165653,0.017912660194216,0.0162883587675385,-5.85160759175125e-05,critical
800,2.929292929292929,5.367088607594937,electrolyte-cathode interface,0.0170454658650416,0.0178572226878296,0.0160968946019023,-3.326708835525825e-05,critical
800,3.0303030303030303,5.367088607594937,electrolyte-cathode interface,0.0171088850603605,0.0178923221393198,0.0161993198076218,-3.7606194787386e-05,critical
800,3.131313131313131,5.367088607594937,electrolyte-cathode interface,0.0171099309308554,0.0179000467730761,0.016191390605524,-3.455140953901364e-05,critical
800,3.2323232323232323,5.367088607594937,electrolyte-cathode interface,0.0171022455479214,0.0178474449678638,0.0162441213056964,5.626159448236281e-06,critical
800,3.333333333333333,5.367088607594937,electrolyte-cathode interface,0.0170190619396641,0.0180199131133144,0.0157999264930205,4.770084155387618e-05,critical
800,3.4343434343434343,5.367088607594937,electrolyte-cathode interface,0.0168787054625515,0.0177345192729479,0.015867608489328,-1.7641315062258983e-05,critical
800,3.5353535353535355,5.367088607594937,electrolyte-cathode interface,0.0169010718479822,0.0176918859063662,0.0159799536676159,-4.258735046017999e-07,critical
800,3.636363636363636,5.367088607594937,electrolyte-cathode interface,0.0168826679265195,0.0177444032439306,0.0158632476874672,2.4942365225042866e-05,critical
800,3.7373737373737375,5.367088607594937,electrolyte-cathode interface,0.0169033956516694,0.0177378053699743,0.0159207775990233,8.858187614911876e-05,critical
800,3.8383838383838382,5.367088607594937,electrolyte-cathode interface,0.016928402219821,0.017786403913355,0.0159147494517113,2.272564093023109e-05,critical
800,3.939393939393939,5.367088607594937,electrolyte-cathode interface,0.0167860281625595,0.0176305698834317,0.0157894497648134,3.660912265116424e-05,critical
800,4.040404040404041,5.367088607594937,electrolyte-cathode interface,0.0167399734832837,0.0175047148997166,0.0158515907127931,-7.374846712399636e-05,critical
800,4.141414141414141,5.367088607594937,electrolyte-cathode interface,0.0168570403512513,0.0177426262496734,0.0158037869109823,2.9961874304416846e-06,critical
800,4.242424242424242,5.367088607594937,electrolyte-cathode interface,0.0167578517302059,0.0176004590266671,0.0157628527662013,-7.153923899760311e-05,critical
800,4.343434343434343,5.367088607594937,electrolyte-cathode interface,0.016761897645508,0.0175219305891209,0.015881187457474,-6.064974979774372e-06,critical
800,4.444444444444445,5.367088607594937,electrolyte-cathode interface,0.0168287779623978,0.017683097298638,0.0158192624408882,1.0494376367814843e-05,critical
800,4.545454545454545,5.367088607594937,electrolyte-cathode interface,0.0166620232790812,0.0173865148534105,0.0158255155153565,-0.0001091485968954,critical
800,4.646464646464646,5.367088607594937,electrolyte-cathode interface,0.0167421993760838,0.0176130698017937,0.0157083224664027,2.158291782236635e-05,critical
800,4.747474747474747,5.367088607594937,electrolyte-cathode interface,0.0167162642268781,0.0174671043709964,0.015847403320286,2.4565588547277502e-05,critical
800,4.848484848484849,5.367088607594937,electrolyte-cathode interface,0.0167594551271431,0.0176709825994249,0.0156678049099528,-1.9212566754602652e-05,critical
800,4.94949494949495,5.367088607594937,electrolyte-cathode interface,0.0166842154577086,0.0174923773088398,0.0157367207326563,-5.182909826352412e-05,critical
800,5.05050505050505,5.367088607594937,electrolyte-cathode interface,0.016716334767913,0.017537496892646,0.015751684088946,2.316563004736396e-05,critical
800,5.151515151515151,5.367088607594937,electrolyte-cathode interface,0.016763812561768,0.0176010271185977,0.0157773478627118,-2.631847640964968e-05,critical
800,5.252525252525253,5.367088607594937,electrolyte-cathode interface,0.0164893250805348,0.017270023100351,0.0155780308009622,-2.6152627446340144e-05,critical
800,5.353535353535354,5.367088607594937,electrolyte-cathode interface,0.0166514197292557,0.0175091612230303,0.0156351124623476,2.265610598760433e-06,critical
800,5.454545454545454,5.367088607594937,electrolyte-cathode interface,0.0167399917711777,0.0175512657455579,0.0157891799481142,2.7598114407128867e-05,critical
800,5.555555555555555,5.367088607594937,electrolyte-cathode interface,0.016635756073493,0.0174904726786604,0.0156229650207476,5.083446777736382e-05,critical
800,5.656565656565657,5.367088607594937,electrolyte-cathode interface,0.0166777298749432,0.0175853586899327,0.0155906786829209,9.10297658907905e-06,critical
800,5.757575757575758,5.367088607594937,electrolyte-cathode interface,0.0167214275301338,0.0175451031655838,0.0157534596570566,5.075626316273906e-06,critical
800,5.858585858585858,5.367088607594937,electrolyte-cathode interface,0.0166709516125464,0.0175977954224212,0.0155549366258746,7.01499687964761e-05,critical
800,5.959595959595959,5.367088607594937,electrolyte-cathode interface,0.0167308534535278,0.0174718875374085,0.0158751725174364,-3.0163812822712545e-05,critical
800,6.0606060606060606,5.367088607594937,electrolyte-cathode interface,0.0167374614001742,0.0175398186235952,0.0157974873133654,8.531030172349059e-05,critical
800,6.161616161616162,5.367088607594937,electrolyte-cathode interface,0.0168553445580671,0.0176245466957662,0.0159630417638637,-1.4905913202383748e-05,critical
800,6.262626262626262,5.367088607594937,electrolyte-cathode interface,0.0169046844355063,0.0177484918507872,0.015910580395569,-2.3315622621942416e-05,critical
800,6.363636363636363,5.367088607594937,electrolyte-cathode interface,0.0169145426791207,0.0177470048894157,0.0159364050180169,-2.8504404229522782e-06,critical
800,6.4646464646464645,5.367088607594937,electrolyte-cathode interface,0.0168563024623582,0.0177266807565544,0.0158235596299988,6.800168348698755e-05,critical
800,6.565656565656566,5.367088607594937,electrolyte-cathode interface,0.0169871012870794,0.0176233531080535,0.016269783448006,-2.098107973958031e-05,critical
800,6.666666666666667,5.367088607594937,electrolyte-cathode interface,0.0170213669776166,0.0177231424325873,0.0162198230559896,-1.560326862402682e-05,critical
800,6.767676767676767,5.367088607594937,electrolyte-cathode interface,0.0171036741537842,0.0178961330428786,0.0161821247396826,1.1370100880173868e-05,critical
800,6.8686868686868685,5.367088607594937,electrolyte-cathode interface,0.0170338613397793,0.0177956061111063,0.0161523811872821,-6.008501541574342e-05,critical
800,6.96969696969697,5.367088607594937,electrolyte-cathode interface,0.0172179805488833,0.0180838946328344,0.016196133179791,-4.48887344180994e-05,critical
800,7.070707070707071,5.367088607594937,electrolyte-cathode interface,0.0170461661123788,0.0178466624580872,0.016112815792546,-4.308972150620802e-05,critical
800,7.171717171717171,5.367088607594937,electrolyte-cathode interface,0.0172949636314304,0.0181766800981285,0.0162508817341879,-8.1627362832413e-05,critical
800,7.272727272727272,5.367088607594937,electrolyte-cathode interface,0.0172872419681743,0.0181968946346679,0.0162046376739419,-4.30608985668975e-05,critical
800,7.373737373737374,5.367088607594937,electrolyte-cathode interface,0.017266692829224,0.0180772856653233,0.016321986483402,1.1456507901493434e-05,critical
800,7.474747474747475,5.367088607594937,electrolyte-cathode interface,0.0173831080304863,0.0181844658409306,0.0164519713959621,1.409411071222046e-05,critical
800,7.575757575757575,5.367088607594937,electrolyte-cathode interface,0.0175059454378495,0.0184495739618279,0.0163779648593829,5.396981481821748e-06,critical
800,7.6767676767676765,5.367088607594937,electrolyte-cathode interface,0.0175543887574445,0.0184153905414037,0.0165433236829375,-7.390326542551526e-06,critical
800,7.777777777777778,5.367088607594937,electrolyte-cathode interface,0.0175631010917652,0.0184780824130528,0.0164766123100083,-1.2072474616547998e-05,critical
800,7.878787878787879,5.367088607594937,electrolyte-cathode interface,0.0176293701917888,0.0184524836085093,0.0166704101576555,5.303267428698533e-05,critical
800,7.979797979797979,5.367088607594937,electrolyte-cathode interface,0.0177868840584855,0.0186207572754409,0.0168147345336239,5.302818263531475e-05,critical
800,8.080808080808081,5.367088607594937,electrolyte-cathode interface,0.0177864556201759,0.0186654821305435,0.0167528332576888,4.761312466376346e-06,critical
800,8.181818181818182,5.367088607594937,electrolyte-cathode interface,0.0179372243382767,0.0187002244706196,0.0170617809459139,-1.1346378083790658e-05,critical
800,8.282828282828282,5.367088607594937,electrolyte-cathode interface,0.01796102610934,0.0188241159212343,0.0169504640745895,5.88415928999146e-05,critical
800,8.383838383838384,5.367088607594937,electrolyte-cathode interface,0.017963952437767,0.0189408134923493,0.0167941062954584,-2.000236824533303e-05,critical
800,8.484848484848484,5.367088607594937,electrolyte-cathode interface,0.0182888017281434,0.0192310984147151,0.0171719609653416,3.8945764839753286e-05,critical
800,8.585858585858587,5.367088607594937,electrolyte-cathode interface,0.0182884810470931,0.0191777336382361,0.0172457064750677,-2.73548814145988e-05,critical
800,8.686868686868687,5.367088607594937,electrolyte-cathode interface,0.0185213754993605,0.0194195192302658,0.0174686284848582,-3.166964752702148e-05,critical
800,8.787878787878787,5.367088607594937,electrolyte-cathode interface,0.018557066023178,0.0195551031138529,0.0173645874632369,3.75055008960384e-06,critical
800,8.88888888888889,5.367088607594937,electrolyte-cathode interface,0.0186994870353391,0.0196446003117354,0.0175833226877123,3.917307383525739e-05,critical
800,8.98989898989899,5.367088607594937,electrolyte-cathode interface,0.0188484104232317,0.0197666554450129,0.0177713199307066,2.347903014586647e-05,critical
800,9.09090909090909,5.367088607594937,electrolyte-cathode interface,0.0190263379891377,0.0199210151039757,0.0179833688780265,5.8120689463977815e-06,critical
800,9.191919191919192,5.367088607594937,electrolyte-cathode interface,0.0191123873554504,0.0200849640069921,0.0179622108905387,-4.799447500973e-05,critical
800,9.292929292929292,5.367088607594937,electrolyte-cathode interface,0.0192967554841144,0.0201631794417778,0.0182938217559291,5.37379920240314e-05,critical
800,9.393939393939394,5.367088607594937,electrolyte-cathode interface,0.0195784821639418,0.0205763000610177,0.0183984123655925,-2.8957147253347144e-05,critical
800,9.494949494949497,5.367088607594937,electrolyte-cathode interface,0.0195689439959009,0.0205935082724348,0.0183511824589569,-1.0267804516645816e-05,critical
800,9.595959595959595,5.367088607594937,electrolyte-cathode interface,0.0198715445450056,0.0209000919413767,0.018651166615795,5.63335307070102e-05,critical
800,9.696969696969695,5.367088607594937,electrolyte-cathode interface,0.0200113895475333,0.0208553377129125,0.0190433393644023,7.549830442049772e-05,critical
800,9.797979797979798,5.367088607594937,electrolyte-cathode interface,0.0204041880629972,0.0214348750472102,0.0191819237581991,0.0001760322672988,critical
800,9.8989898989899,5.367088607594937,electrolyte-cathode interface,0.0205196035803215,0.0216516784751619,0.0191596440320568,-4.259556812292773e-05,critical
800,10.0,5.367088607594937,electrolyte-cathode interface,0.0206581595360035,0.0215995909268317,0.0195659353837899,-5.033274793152978e-05,critical
800,0.0,5.468354430379747,electrolyte-cathode interface,0.0206705701660274,0.0217044391097892,0.0194499808226893,-0.0001139654447056,critical
800,0.101010101010101,5.468354430379747,electrolyte-cathode interface,0.0206046366650383,0.0216173036277098,0.0194139355900125,8.016884388956182e-05,critical
800,0.202020202020202,5.468354430379747,electrolyte-cathode interface,0.0202859551421986,0.0213973333475974,0.0189530923029879,-3.042604475486188e-06,critical
800,0.303030303030303,5.468354430379747,electrolyte-cathode interface,0.0199304510007629,0.0209551278611909,0.0187165376140922,3.72020488373471e-05,critical
800,0.404040404040404,5.468354430379747,electrolyte-cathode interface,0.0199507727692559,0.0209135365588106,0.0188232887231016,2.9783710114224007e-05,critical
800,0.5050505050505051,5.468354430379747,electrolyte-cathode interface,0.0196337922936693,0.0205981269546002,0.0185010324994748,-2.1435654584795155e-05,critical
800,0.6060606060606061,5.468354430379747,electrolyte-cathode interface,0.0194113767798687,0.0203750613027598,0.0182772868937159,-4.0870199623029525e-06,critical
800,0.7070707070707071,5.468354430379747,electrolyte-cathode interface,0.0193033212330075,0.0202646874905427,0.0181710100791749,4.03521161169275e-05,critical
800,0.8080808080808081,5.468354430379747,electrolyte-cathode interface,0.0191863254112785,0.0200087980591503,0.0182409849293784,5.696687265862336e-05,critical
800,0.9090909090909092,5.468354430379747,electrolyte-cathode interface,0.0188434309604018,0.0197026395425934,0.0178466343951795,3.799436595376749e-05,critical
800,1.0101010101010102,5.468354430379747,electrolyte-cathode interface,0.0188174799422794,0.0197098124213871,0.0177757536804503,-8.113245086539864e-06,critical
800,1.1111111111111112,5.468354430379747,electrolyte-cathode interface,0.018729234687318,0.019685223707763,0.0175942989028501,0.0001466919095517,critical
800,1.2121212121212122,5.468354430379747,electrolyte-cathode interface,0.0186161802233375,0.0195825095190708,0.017469455488196,2.1528119623653737e-05,critical
800,1.3131313131313131,5.468354430379747,electrolyte-cathode interface,0.0183932755712611,0.0192228592334265,0.0174324218423855,-4.445602781064848e-05,critical
800,1.414141414141414,5.468354430379747,electrolyte-cathode interface,0.0183673944674879,0.0193474004456351,0.0171982605831668,-1.5736422121815546e-05,critical
800,1.5151515151515151,5.468354430379747,electrolyte-cathode interface,0.0181331265437907,0.0189911271136625,0.0171316401977365,3.3813221687307674e-05,critical
800,1.616161616161616,5.468354430379747,electrolyte-cathode interface,0.0181693054275536,0.0190402170702137,0.0171483551208355,-0.0001097181030409,critical
800,1.7171717171717171,5.468354430379747,electrolyte-cathode interface,0.0180064733258131,0.0189384608487243,0.0169008246675829,4.287247893786575e-05,critical
800,1.818181818181818,5.468354430379747,electrolyte-cathode interface,0.0178098507110755,0.0185233951415103,0.0169973997773345,6.472517677137827e-05,critical
800,1.9191919191919191,5.468354430379747,electrolyte-cathode interface,0.0178845721072132,0.0187498688031076,0.0168693020110315,8.979326591485607e-05,critical
800,2.0202020202020203,5.468354430379747,electrolyte-cathode interface,0.0177014412254888,0.0186189502072982,0.0166128025265303,3.391114486086732e-05,critical
800,2.121212121212121,5.468354430379747,electrolyte-cathode interface,0.0176733305768614,0.0184725184107271,0.0167469029145115,-6.162366231810115e-05,critical
800,2.2222222222222223,5.468354430379747,electrolyte-cathode interface,0.0176406889208537,0.0184789015246687,0.0166618160081081,-4.024585179403428e-06,critical
800,2.323232323232323,5.468354430379747,electrolyte-cathode interface,0.0175382130126777,0.0183649037579025,0.0165737597869452,-4.1695561395673526e-05,critical
800,2.4242424242424243,5.468354430379747,electrolyte-cathode interface,0.0174125576484155,0.018344811039348,0.0162988304248428,6.367332865449469e-05,critical
800,2.525252525252525,5.468354430379747,electrolyte-cathode interface,0.0173324611665312,0.018185715436558,0.0163298284767099,-9.658784041809708e-06,critical
800,2.6262626262626263,5.468354430379747,electrolyte-cathode interface,0.0172246671093219,0.0179980657600667,0.0163292275664088,-5.664085400479807e-05,critical
800,2.727272727272727,5.468354430379747,electrolyte-cathode interface,0.0174007285161866,0.0182967751465545,0.0163391010259355,-1.5666425438041646e-06,critical
800,2.8282828282828283,5.468354430379747,electrolyte-cathode interface,0.017223351531057,0.0180833818828085,0.0162101532439238,-1.2395430667409472e-05,critical
800,2.929292929292929,5.468354430379747,electrolyte-cathode interface,0.0171517355334627,0.0179451204801692,0.0162280046005217,8.17458594382907e-05,critical
800,3.0303030303030303,5.468354430379747,electrolyte-cathode interface,0.0170509987494897,0.0176822109221753,0.0163393701864944,-7.560233814412721e-05,critical
800,3.131313131313131,5.468354430379747,electrolyte-cathode interface,0.0169891028354354,0.0178486218758111,0.015973437047938,-5.6151843534960826e-05,critical
800,3.2323232323232323,5.468354430379747,electrolyte-cathode interface,0.0170391352019048,0.0178458218649872,0.0160970988211015,-5.208339499151991e-05,critical
800,3.333333333333333,5.468354430379747,electrolyte-cathode interface,0.0167973610342433,0.0176227853131698,0.0158274760734582,-3.646713878715592e-05,critical
800,3.4343434343434343,5.468354430379747,electrolyte-cathode interface,0.0170636991651315,0.01790533259071,0.0160744012515774,2.5181656307245545e-06,critical
800,3.5353535353535355,5.468354430379747,electrolyte-cathode interface,0.0169123292290714,0.017709128660973,0.015983164064288,2.4041337486758404e-06,critical
800,3.636363636363636,5.468354430379747,electrolyte-cathode interface,0.0168996050868698,0.0177717619879376,0.0158655208969503,3.930987974384808e-05,critical
800,3.7373737373737375,5.468354430379747,electrolyte-cathode interface,0.0168552350949641,0.0178187218705537,0.0156880364319999,-7.825554617622198e-05,critical
800,3.8383838383838382,5.468354430379747,electrolyte-cathode interface,0.0166395840330039,0.0174762598628049,0.0156525007505721,-2.880319541599369e-05,critical
800,3.939393939393939,5.468354430379747,electrolyte-cathode interface,0.0167095373850104,0.0174538346355428,0.015848078181026,-8.25630406738335e-05,critical
800,4.040404040404041,5.468354430379747,electrolyte-cathode interface,0.0167735796973947,0.0175749253491591,0.0158330757030347,0.00013393051274,critical
800,4.141414141414141,5.468354430379747,electrolyte-cathode interface,0.0167524452955711,0.0174866242174906,0.015905769862839,4.86566512410212e-05,critical
800,4.242424242424242,5.468354430379747,electrolyte-cathode interface,0.0167510161201102,0.0175433522082851,0.0158264287411588,5.80972593364471e-06,critical
800,4.343434343434343,5.468354430379747,electrolyte-cathode interface,0.016828041446084,0.0176272126655086,0.0158948459831318,-4.248872090740598e-06,critical
800,4.444444444444445,5.468354430379747,electrolyte-cathode interface,0.01662451496156,0.017362407417412,0.0157723626444685,4.801344852885585e-06,critical
800,4.545454545454545,5.468354430379747,electrolyte-cathode interface,0.0167048343048207,0.0176585299553753,0.0155509401787506,-3.061320120245028e-05,critical
800,4.646464646464646,5.468354430379747,electrolyte-cathode interface,0.0168315926302792,0.0176386645227797,0.0158876132506127,-4.070982015045813e-06,critical
800,4.747474747474747,5.468354430379747,electrolyte-cathode interface,0.0167892499105277,0.0176084067193655,0.0158268605388985,8.001730108098488e-05,critical
800,4.848484848484849,5.468354430379747,electrolyte-cathode interface,0.0167644567027741,0.0176014598039817,0.015777815699902,5.398112135342213e-05,critical
800,4.94949494949495,5.468354430379747,electrolyte-cathode interface,0.0166889421800822,0.0175683529282685,0.015641729896954,5.622439268201731e-05,critical
800,5.05050505050505,5.468354430379747,electrolyte-cathode interface,0.0166710216807708,0.0174043089804329,0.0158253238715986,-1.773443059434324e-05,critical
800,5.151515151515151,5.468354430379747,electrolyte-cathode interface,0.0165135543216439,0.017370667894257,0.0154964893138128,-1.3681926558921485e-05,critical
800,5.252525252525253,5.468354430379747,electrolyte-cathode interface,0.0166636963595448,0.0173610048299459,0.0158655708999926,8.179234482202102e-06,critical
800,5.353535353535354,5.468354430379747,electrolyte-cathode interface,0.0165918484591471,0.0173836670218343,0.0156660105086679,-4.611995533946649e-05,critical
800,5.454545454545454,5.468354430379747,electrolyte-cathode interface,0.0167907217000126,0.0175931884864989,0.0158522667786656,4.324133493988976e-05,critical
800,5.555555555555555,5.468354430379747,electrolyte-cathode interface,0.0166558184652769,0.0175032507400739,0.015654048607343,8.848602424490622e-07,critical
800,5.656565656565657,5.468354430379747,electrolyte-cathode interface,0.0167932878318023,0.0175396002673521,0.0159311464437526,2.2000568462801587e-05,critical
800,5.757575757575758,5.468354430379747,electrolyte-cathode interface,0.0168080467900336,0.0176482120027938,0.0158180303157918,1.7506273225515192e-05,critical
800,5.858585858585858,5.468354430379747,electrolyte-cathode interface,0.0167933128329868,0.0175869205452294,0.0158663023115659,7.1718664336874e-05,critical
800,5.959595959595959,5.468354430379747,electrolyte-cathode interface,0.0167850734228063,0.0176273206251697,0.0157919735204821,-1.849737329602745e-06,critical
800,6.0606060606060606,5.468354430379747,electrolyte-cathode interface,0.016927813573129,0.0177745095338281,0.0159297783632214,3.578587223520342e-05,critical
800,6.161616161616162,5.468354430379747,electrolyte-cathode interface,0.0168276504469215,0.0175202263908148,0.0160363233705305,-5.1105975389626096e-05,critical
800,6.262626262626262,5.468354430379747,electrolyte-cathode interface,0.0169318948623079,0.0177033620238549,0.016037200098556,-1.4246323438067994e-05,critical
800,6.363636363636363,5.468354430379747,electrolyte-cathode interface,0.0168879941235659,0.0176757053671168,0.0159708060338886,2.829517490325508e-05,critical
800,6.4646464646464645,5.468354430379747,electrolyte-cathode interface,0.0169488730862664,0.017736164081218,0.0160329168721701,-1.6365552220512166e-05,critical
800,6.565656565656566,5.468354430379747,electrolyte-cathode interface,0.0170285667307721,0.01779943309108,0.0161355425935989,-3.765355841697962e-06,critical
800,6.666666666666667,5.468354430379747,electrolyte-cathode interface,0.0169928210138469,0.0178319164070375,0.0160056938212915,-5.379844496417833e-05,critical
800,6.767676767676767,5.468354430379747,electrolyte-cathode interface,0.0170960582031779,0.0179526663390599,0.0160862257107402,-1.791300904292697e-05,critical
800,6.8686868686868685,5.468354430379747,electrolyte-cathode interface,0.0170236869666887,0.0179633456133127,0.0158945473384431,-4.741459019608204e-05,critical
800,6.96969696969697,5.468354430379747,electrolyte-cathode interface,0.0170693335492367,0.0177974020001336,0.0162333847692854,3.616330962721624e-05,critical
800,7.070707070707071,5.468354430379747,electrolyte-cathode interface,0.0170852066551917,0.017786424382995,0.0162842604047093,5.484375255725149e-05,critical
800,7.171717171717171,5.468354430379747,electrolyte-cathode interface,0.0173446532330659,0.0182017426025615,0.0163366083447709,3.430201812316912e-05,critical
800,7.272727272727272,5.468354430379747,electrolyte-cathode interface,0.0171130870956184,0.017859227542005,0.0162536877784639,2.3689502718151e-05,critical
800,7.373737373737374,5.468354430379747,electrolyte-cathode interface,0.0173745916473222,0.0181555393481519,0.0164708328778045,2.117081445425576e-05,critical
800,7.474747474747475,5.468354430379747,electrolyte-cathode interface,0.0174243999967969,0.0183366425344998,0.0163401206043636,-1.4887780551164327e-05,critical
800,7.575757575757575,5.468354430379747,electrolyte-cathode interface,0.0174215751559064,0.0183438763655367,0.0163221132533559,6.564370310190835e-05,critical
800,7.6767676767676765,5.468354430379747,electrolyte-cathode interface,0.0174318361498119,0.0182253299181338,0.0165116880455491,2.145499923251284e-05,critical
800,7.777777777777778,5.468354430379747,electrolyte-cathode interface,0.0172922017935811,0.0180119261952246,0.0164688977104013,3.0198722388603805e-05,critical
800,7.878787878787879,5.468354430379747,electrolyte-cathode interface,0.0177232569251292,0.0185227284233478,0.0167972635488859,4.264594441354018e-05,critical
800,7.979797979797979,5.468354430379747,electrolyte-cathode interface,0.0178194239213985,0.0185930110460281,0.0169267306873281,0.0001102845019079,critical
800,8.080808080808081,5.468354430379747,electrolyte-cathode interface,0.0177810318116268,0.0186216839794811,0.0167999426459979,3.22902089448133e-05,critical
800,8.181818181818182,5.468354430379747,electrolyte-cathode interface,0.0178407038609753,0.0186939906493419,0.0168426323491024,-4.890485569386473e-05,critical
800,8.282828282828282,5.468354430379747,electrolyte-cathode interface,0.0180875938742102,0.0189489931241234,0.0170810738001873,-3.04388197361442e-05,critical
800,8.383838383838384,5.468354430379747,electrolyte-cathode interface,0.0181349825969152,0.019117580797022,0.0169591397242751,-1.827565851023346e-05,critical
800,8.484848484848484,5.468354430379747,electrolyte-cathode interface,0.0181902526141061,0.0190834402676715,0.0171410817955791,2.3966376990141724e-05,critical
800,8.585858585858587,5.468354430379747,electrolyte-cathode interface,0.0183361825700994,0.0191720083422136,0.0173668171050356,-6.148869595829773e-06,critical
800,8.686868686868687,5.468354430379747,electrolyte-cathode interface,0.0183268951308864,0.0192157712274615,0.0172851676875166,-3.0110037638946204e-06,critical
800,8.787878787878787,5.468354430379747,electrolyte-cathode interface,0.0186217691034144,0.0195646306036585,0.0175079803675105,3.319558496818336e-05,critical
800,8.88888888888889,5.468354430379747,electrolyte-cathode interface,0.0186897279732678,0.0196441262791046,0.017560333813195,4.59192920017677e-05,critical
800,8.98989898989899,5.468354430379747,electrolyte-cathode interface,0.0187613035682506,0.0196811224868233,0.0176802871981892,-7.134838945711145e-05,critical
800,9.09090909090909,5.468354430379747,electrolyte-cathode interface,0.0189627871297463,0.0199035129729056,0.0178558568026685,-6.388069750112448e-06,critical
800,9.191919191919192,5.468354430379747,electrolyte-cathode interface,0.0191710427516587,0.0201322885093304,0.0180373793065936,4.658850232789463e-05,critical
800,9.292929292929292,5.468354430379747,electrolyte-cathode interface,0.0193388002980803,0.0202381929734694,0.0182917835012565,-5.177775634959736e-05,critical
800,9.393939393939394,5.468354430379747,electrolyte-cathode interface,0.0195161549737952,0.0203774702325359,0.0185202242641077,-0.0001089705345579,critical
800,9.494949494949497,5.468354430379747,electrolyte-cathode interface,0.0195412277589968,0.0204292543852894,0.0185118404631903,-1.6550851815813623e-06,critical
800,9.595959595959595,5.468354430379747,electrolyte-cathode interface,0.0199326071408788,0.0208712882210673,0.0188375860958746,-5.226312412714083e-05,critical
800,9.696969696969695,5.468354430379747,electrolyte-cathode interface,0.0200375316259708,0.0210810693947647,0.0187984998342274,4.8421850429851024e-06,critical
800,9.797979797979798,5.468354430379747,electrolyte-cathode interface,0.0202976125899309,0.0211700551809191,0.0192948332145204,-3.621956021545631e-05,critical
800,9.8989898989899,5.468354430379747,electrolyte-cathode interface,0.0205655495068491,0.0215240451254271,0.0194477426943459,-0.000110609512176,critical
800,10.0,5.468354430379747,electrolyte-cathode interface,0.0206958737543142,0.0217359330598928,0.0194691134161694,2.1394765898980148e-05,critical
800,0.0,5.5696202531645564,cathode,0.0107507479726897,0.0112403218424574,0.0101827843890703,2.8417843413906992e-05,high
800,0.101010101010101,5.5696202531645564,cathode,0.0106185426391613,0.0112482775745223,0.0098501273310365,2.3503988604651787e-05,high
800,0.202020202020202,5.5696202531645564,cathode,0.010566646765949,0.0111758226055738,0.0098266209837584,6.60957218449869e-05,high
800,0.303030303030303,5.5696202531645564,cathode,0.0103495643025707,0.0108478628567479,0.0097663192911768,-4.18261960504725e-06,high
800,0.404040404040404,5.5696202531645564,cathode,0.0102436789119979,0.0106923196016258,0.0097266250358805,8.329245483722777e-06,high
800,0.5050505050505051,5.5696202531645564,cathode,0.0101827218302812,0.0106394851166262,0.0096543292106134,-8.160196110939821e-06,high
800,0.6060606060606061,5.5696202531645564,cathode,0.0100305803817525,0.0106210601641283,0.009310738558109,4.353422198688146e-05,high
800,9.292929292929292,5.5696202531645564,cathode,0.0101239418973901,0.0106738100362193,0.00946365662316,-7.406126961723579e-05,high
800,9.393939393939394,5.5696202531645564,cathode,0.0100949799287863,0.0105600434362928,0.0095528411199952,-7.244788814628515e-05,high
800,9.494949494949497,5.5696202531645564,cathode,0.0100629010098892,0.0105158427521968,0.0095364899655773,7.877387100091897e-05,high
800,9.595959595959595,5.5696202531645564,cathode,0.0103925766990022,0.0108774320971808,0.0098280038830588,1.737794815798925e-05,high
800,9.696969696969695,5.5696202531645564,cathode,0.0104352210917687,0.0109154962438816,0.0098759766168393,6.338378687885675e-05,high
800,9.797979797979798,5.5696202531645564,cathode,0.0105179669064579,0.0110716462285026,0.009859048405452,-2.112084300613536e-05,high
800,9.8989898989899,5.5696202531645564,cathode,0.0105539784987384,0.0110407894155367,0.0099865907680811,7.137159567743727e-05,high
800,10.0,5.5696202531645564,cathode,0.0106859161281799,0.0112159030487299,0.0100621009346121,-2.5791670549398523e-05,high
800,0.0,5.670886075949367,cathode,0.0107518472599327,0.0111593636892085,0.0102900425070923,-7.342449452587173e-05,high
800,0.101010101010101,5.670886075949367,cathode,0.0105855352124136,0.0110935570053886,0.0099904410678559,-4.886534687564365e-05,high
800,0.202020202020202,5.670886075949367,cathode,0.0105340972798418,0.0109005660909804,0.010124093387311,4.452176241774723e-05,high
800,0.303030303030303,5.670886075949367,cathode,0.0103979128567428,0.0109111888926914,0.0097943913180363,-1.7331989990148616e-05,high
800,0.404040404040404,5.670886075949367,cathode,0.0103501985626876,0.0107575189891461,0.0098826029352621,0.000127597606357,high
800,0.5050505050505051,5.670886075949367,cathode,0.0101111509429257,0.0105979721558085,0.0095400146260465,6.134569531101035e-05,high
800,0.6060606060606061,5.670886075949367,cathode,0.0101482309573765,0.0106139709747395,0.0096071582824175,-3.066272180822844e-05,high
800,0.7070707070707071,5.670886075949367,cathode,0.0100389708826467,0.0104630010124332,0.0095527611859478,-2.483197403433629e-05,high
800,9.191919191919192,5.670886075949367,cathode,0.0100823413944597,0.0105583771544646,0.0095257109644732,6.09904559655304e-05,high
800,9.292929292929292,5.670886075949367,cathode,0.0100701018746511,0.0105143867571381,0.0095545853607401,9.151913900460638e-05,high
800,9.393939393939394,5.670886075949367,cathode,0.0100578059417956,0.0105428920413117,0.0094898230926034,-1.0421062337399478e-05,high
800,9.494949494949497,5.670886075949367,cathode,0.010180026110521,0.0106410578899357,0.0096458837253932,-7.138431632730433e-06,high
800,9.595959595959595,5.670886075949367,cathode,0.0103345231332245,0.0107788364561645,0.0098214917656093,-8.486467178185576e-05,high
800,9.696969696969695,5.670886075949367,cathode,0.0104031147575917,0.0108582804223204,0.0098786140466369,9.814100763192228e-06,high
800,9.797979797979798,5.670886075949367,cathode,0.0105634590198437,0.0110733251741086,0.0099662912532488,-1.965141966048928e-05,high
800,9.8989898989899,5.670886075949367,cathode,0.0106978698853652,0.0112569051509563,0.0100327234683714,-5.286083299943285e-05,high
800,10.0,5.670886075949367,cathode,0.0107942138369548,0.0112231164700702,0.0103026018000783,-0.0001160533687606,high
800,0.0,5.772151898734177,cathode,0.010818251860016,0.0113634264877604,0.0101749072424743,7.849430706231792e-06,high
800,0.101010101010101,5.772151898734177,cathode,0.0105749519724357,0.0111342956216467,0.0099077099094758,-5.693752248029397e-05,high
800,0.202020202020202,5.772151898734177,cathode,0.0106030812467454,0.0110529802071965,0.0100866601645964,3.606634789820383e-05,high
800,0.303030303030303,5.772151898734177,cathode,0.0102843003945268,0.0108191083253062,0.0096494815382777,-2.691855623082918e-06,high
800,0.404040404040404,5.772151898734177,cathode,0.0102570675904711,0.0108494911604844,0.0095361788809297,8.156375506219581e-05,high
800,0.5050505050505051,5.772151898734177,cathode,0.0102133186452512,0.010707235494674,0.0096316423644651,9.43648431652075e-05,high
800,0.6060606060606061,5.772151898734177,cathode,0.0100465877105406,0.0106100367468078,0.009366144429484,-6.196761453803179e-05,high
800,0.7070707070707071,5.772151898734177,cathode,0.0101246774104809,0.0106231512108283,0.009538876805116,1.3051145681388784e-05,high
800,9.393939393939394,5.772151898734177,cathode,0.0101242442773773,0.0106111657892201,0.0095534120004853,-5.366724808298196e-05,high
800,9.494949494949497,5.772151898734177,cathode,0.0102854191602973,0.0107937147810052,0.0096872233900553,-3.828756380298031e-05,high
800,9.595959595959595,5.772151898734177,cathode,0.0103284021707307,0.0108700379043639,0.0096842162933763,-2.530035710785104e-05,high
800,9.696969696969695,5.772151898734177,cathode,0.0104924466732773,0.0109545636005509,0.0099585754455411,-5.032129298793462e-05,high
800,9.797979797979798,5.772151898734177,cathode,0.0104591910343543,0.0110343063154448,0.0097688556459399,-1.5980691512694755e-05,high
800,9.8989898989899,5.772151898734177,cathode,0.0105768371814164,0.0110976427248415,0.0099644908660897,-3.2104311191802764e-05,high
800,10.0,5.772151898734177,cathode,0.0107040592620913,0.0112327762997729,0.0100824032671689,6.978729885642772e-06,high
800,0.0,5.873417721518988,cathode,0.0107828815367177,0.0113433936418037,0.0101175893446669,6.817070058145352e-06,high
800,0.101010101010101,5.873417721518988,cathode,0.0106932731232492,0.0113104452601575,0.0099444922703605,3.477093659729247e-05,high
800,0.202020202020202,5.873417721518988,cathode,0.0104174009797771,0.0108815102820784,0.0098804336718861,-4.4900638316358057e-05,high
800,0.303030303030303,5.873417721518988,cathode,0.0104207268499516,0.0109134481481893,0.0098456350739961,2.232676893716153e-05,high
800,0.404040404040404,5.873417721518988,cathode,0.0103840496976199,0.0108983371593061,0.0097772038174961,-7.367603453705935e-05,high
800,0.5050505050505051,5.873417721518988,cathode,0.0102288026215414,0.0106627177654065,0.0097307613751661,-3.414757788465902e-05,high
800,0.6060606060606061,5.873417721518988,cathode,0.010080915722977,0.0106209164580456,0.0094362257620736,-1.1930913748683186e-06,high
800,9.191919191919192,5.873417721518988,cathode,0.0100597214442559,0.0105152175196989,0.0095317749798187,-2.676468542892237e-05,high
800,9.393939393939394,5.873417721518988,cathode,0.0100846532554535,0.0105338905442809,0.0095655477988288,6.058083006962443e-06,high
800,9.494949494949497,5.873417721518988,cathode,0.0100959505619787,0.0105879306608681,0.0095188607903532,-9.47528646002873e-06,high
800,9.595959595959595,5.873417721518988,cathode,0.0101739638963932,0.0106992134925393,0.0095512452246989,-1.7305514479781248e-05,high
800,9.696969696969695,5.873417721518988,cathode,0.0104370146540343,0.0108309264151879,0.0099908706978027,-7.117098813965082e-05,high
800,9.797979797979798,5.873417721518988,cathode,0.0104932247098719,0.0109648194617879,0.0099473959773646,2.0110183933859967e-05,high
800,9.8989898989899,5.873417721518988,cathode,0.0105561356782857,0.0111216954052314,0.0098785637937093,-8.21516890248653e-05,high
800,10.0,5.873417721518988,cathode,0.0107508330828043,0.011201411982977,0.0102337389205813,6.243674926656116e-05,high
800,0.0,5.974683544303797,cathode,0.0107390930000682,0.0113239709963632,0.0100384170436601,1.5556852697401035e-05,high
800,0.101010101010101,5.974683544303797,cathode,0.0106704884828547,0.0111973188974901,0.0100508130122374,2.9945732867284486e-05,high
800,0.202020202020202,5.974683544303797,cathode,0.0105341290167194,0.0110628946559435,0.0099106022164344,-7.023232049669712e-06,high
800,0.303030303030303,5.974683544303797,cathode,0.0105927912434673,0.011185912637611,0.0098782106953058,1.0647443577020452e-05,high
800,0.404040404040404,5.974683544303797,cathode,0.0103110307913813,0.0107690118953037,0.0097812512768028,4.923951836797178e-05,high
800,0.5050505050505051,5.974683544303797,cathode,0.0102025199325849,0.0106473244365314,0.0096878602401704,8.376625777962266e-05,high
800,0.6060606060606061,5.974683544303797,cathode,0.0101584975734941,0.0105647461678817,0.0096963046637037,-2.506502230387025e-05,high
800,0.8080808080808081,5.974683544303797,cathode,0.0100377988431681,0.0105959858724259,0.0093658955629343,-3.3597514456995095e-05,high
800,9.292929292929292,5.974683544303797,cathode,0.0100417041842553,0.0104986607865519,0.0095091202748505,-8.87024156267255e-05,high
800,9.393939393939394,5.974683544303797,cathode,0.0101259712876011,0.0105535580431465,0.0096336755194436,-8.074011109970836e-05,high
800,9.494949494949497,5.974683544303797,cathode,0.010295850404142,0.0108140335785898,0.0096831915868321,6.157100570017277e-05,high
800,9.595959595959595,5.974683544303797,cathode,0.0103421864241995,0.0109028453872699,0.0096712320017605,-6.536866040866877e-07,high
800,9.696969696969695,5.974683544303797,cathode,0.0104899169248962,0.010954404810046,0.0099532516224436,-3.697718974180682e-05,high
800,9.797979797979798,5.974683544303797,cathode,0.0105063609038882,0.0109748646281466,0.0099627446898491,8.053648732394598e-05,high
800,9.8989898989899,5.974683544303797,cathode,0.0105498016143257,0.0111357533280864,0.0098450642456207,-8.734140634190448e-06,high
800,10.0,5.974683544303797,cathode,0.0106454428827705,0.0111942441867787,0.0099950905535832,3.690291575561272e-07,high
800,0.0,6.075949367088607,cathode,0.0107694338866666,0.0113580671231646,0.0100635631840638,2.7926380182706185e-05,high
800,0.101010101010101,6.075949367088607,cathode,0.0106530448214511,0.0110973427687827,0.0101447281345299,-1.101395267288598e-05,high
800,0.202020202020202,6.075949367088607,cathode,0.0105660777426541,0.0111213333894093,0.0099049334638493,-4.583606121694067e-05,high
800,0.303030303030303,6.075949367088607,cathode,0.0104814205686243,0.0108154907552127,0.0101116021096267,3.0434486678798817e-05,high
800,0.404040404040404,6.075949367088607,cathode,0.0103085817935041,0.0107986984334385,0.0097348848987397,6.075374071275586e-05,high
800,0.5050505050505051,6.075949367088607,cathode,0.0102505908256495,0.0107297876721269,0.0096906492431417,-7.347293453704485e-05,high
800,0.6060606060606061,6.075949367088607,cathode,0.0102492452253438,0.0107751246129704,0.0096259732087784,-4.249664212034095e-05,high
800,0.7070707070707071,6.075949367088607,cathode,0.010091322036893,0.0105500165110935,0.0095579111238591,6.925119644000413e-05,high
800,9.292929292929292,6.075949367088607,cathode,0.0101463091750707,0.0106583283948294,0.0095412354783504,-4.4989893017601983e-05,high
800,9.393939393939394,6.075949367088607,cathode,0.0101875563360579,0.0107279183314573,0.0095428050345935,-4.959001852665673e-05,high
800,9.494949494949497,6.075949367088607,cathode,0.0101868238310442,0.0106078677068968,0.0097057767653353,-2.2933624168209185e-06,high
800,9.595959595959595,6.075949367088607,cathode,0.01034735672628,0.0108933355114995,0.0096956591599928,-7.140108073143215e-05,high
800,9.696969696969695,6.075949367088607,cathode,0.0104617806264028,0.0109874055634963,0.0098409078976052,5.2759811351194754e-05,high
800,9.797979797979798,6.075949367088607,cathode,0.0104967123552482,0.0110212719842205,0.0098776333760099,-5.4702240088531134e-05,high
800,9.8989898989899,6.075949367088607,cathode,0.0107523382720752,0.0112677054123202,0.0101495369389025,1.271853203598887e-05,high
800,10.0,6.075949367088607,cathode,0.0107191802230167,0.0112425814458385,0.010104883564712,2.229878773930475e-05,high
800,0.0,6.177215189873418,cathode,0.0107340392259673,0.0113147065759825,0.0100372384371783,-8.013636107688468e-05,high
800,0.101010101010101,6.177215189873418,cathode,0.0105497954869233,0.0110609232961392,0.0099492319653299,-6.984644323979881e-05,high
800,0.202020202020202,6.177215189873418,cathode,0.0104369123319036,0.0109997248823524,0.0097624722181834,6.791243681471975e-05,high
800,0.303030303030303,6.177215189873418,cathode,0.0103800301218696,0.0109779989164063,0.0096497552459934,-0.0001235468181531,high
800,0.404040404040404,6.177215189873418,cathode,0.0102529850934987,0.0106570614238765,0.0097943869242148,-6.136626918234882e-06,high
800,0.5050505050505051,6.177215189873418,cathode,0.0101093990352209,0.0105362479514564,0.0096199068089666,-2.912246972921408e-05,high
800,0.6060606060606061,6.177215189873418,cathode,0.010153949107349,0.0106243444074241,0.0096067512951276,2.4168412838139552e-05,high
800,0.7070707070707071,6.177215189873418,cathode,0.0100656788708035,0.010595136645071,0.0094328891513532,-9.004142952154072e-05,high
800,9.292929292929292,6.177215189873418,cathode,0.0100504847147424,0.0105757912609033,0.0094262255773356,1.777316653055778e-05,high
800,9.393939393939394,6.177215189873418,cathode,0.010117861125873,0.0106719479103507,0.0094530606292019,3.0859520817832665e-05,high
800,9.494949494949497,6.177215189873418,cathode,0.0103155994318112,0.0107813359757337,0.0097758945868617,3.4035505061923065e-05,high
800,9.595959595959595,6.177215189873418,cathode,0.0104676066596423,0.0109885034493294,0.0098542389116325,-1.7271059815748618e-05,high
800,9.696969696969695,6.177215189873418,cathode,0.0104635033236169,0.0109537289202142,0.0098880120025292,-0.0001133522815139,high
800,9.797979797979798,6.177215189873418,cathode,0.01055073236165,0.0109917413170953,0.0100455448479727,3.930755140619309e-05,high
800,9.8989898989899,6.177215189873418,cathode,0.0106194186553765,0.0111611235910811,0.0099787477358235,-1.0249091533775702e-06,high
800,10.0,6.177215189873418,cathode,0.0108785604953487,0.0114583146288987,0.0101869808700068,-1.96383752963868e-05,high
800,0.0,6.278481012658228,cathode,0.0107245297598015,0.0112031140128884,0.0101695644999494,-7.421459608363427e-05,high
800,0.101010101010101,6.278481012658228,cathode,0.0105439804265148,0.011110477722178,0.0098672516459898,3.294759466126086e-06,high
800,0.202020202020202,6.278481012658228,cathode,0.0106417796357414,0.0111058296395161,0.0101071176044299,2.659464421671133e-05,high
800,0.303030303030303,6.278481012658228,cathode,0.0105955421723577,0.0112018122468716,0.0098614939201541,-2.8620167959998903e-05,high
800,0.404040404040404,6.278481012658228,cathode,0.0103234100547302,0.0107883176166691,0.0097818259839162,0.00010053882472,high
800,0.5050505050505051,6.278481012658228,cathode,0.0101585670629039,0.0106014695082087,0.0096471590729172,-6.24862978030792e-05,high
800,0.6060606060606061,6.278481012658228,cathode,0.0101259813776492,0.0106468468421245,0.0095089333815555,1.2838371744726292e-05,high
800,0.7070707070707071,6.278481012658228,cathode,0.0101682519287596,0.0105925418024345,0.0096827500928327,1.51790536234041e-05,high
800,9.393939393939394,6.278481012658228,cathode,0.0101868418091783,0.0106999299131529,0.0095810231680585,3.424104011975218e-05,high
800,9.494949494949497,6.278481012658228,cathode,0.0101331474983529,0.0105343998357988,0.0096771355286488,3.141765460619626e-05,high
800,9.595959595959595,6.278481012658228,cathode,0.0104613071753696,0.0109986198101822,0.0098234514350331,6.713059355176217e-05,high
800,9.696969696969695,6.278481012658228,cathode,0.0103387291209035,0.0107219052285653,0.0099067593516301,4.290355211219208e-05,high
800,9.797979797979798,6.278481012658228,cathode,0.0105177149301848,0.010880071705181,0.0101121435917034,6.262692270418035e-05,high
800,9.8989898989899,6.278481012658228,cathode,0.0105085737843433,0.0110132878757681,0.0099175538153089,3.922014073701392e-05,high
800,10.0,6.278481012658228,cathode,0.010886416908418,0.0115505429405592,0.010070211804392,-4.574918588231839e-05,high
800,0.0,6.379746835443038,cathode,0.0107854940328951,0.0113152074400005,0.0101631384622319,2.308435600277687e-05,high
800,0.101010101010101,6.379746835443038,cathode,0.0106142937396455,0.0110548846307607,0.0101105857778879,-7.570644622141943e-06,high
800,0.202020202020202,6.379746835443038,cathode,0.010513994636433,0.0110264521097625,0.0099123529292709,3.992226321792174e-05,high
800,0.303030303030303,6.379746835443038,cathode,0.0104737890196754,0.0109411750044258,0.0099312137942788,8.383844205583083e-05,high
800,0.404040404040404,6.379746835443038,cathode,0.0102520292377005,0.0107645508364819,0.009647477461585,4.2774551299052464e-05,high
800,0.5050505050505051,6.379746835443038,cathode,0.0101168522099757,0.0106198665220375,0.0095247291599979,2.6114503808365555e-06,high
800,0.6060606060606061,6.379746835443038,cathode,0.0100677883816399,0.0106830436818934,0.0093113947380229,-4.043656188736614e-05,high
800,0.7070707070707071,6.379746835443038,cathode,0.010130500739451,0.0106961644511121,0.0094492782361777,2.0704593306618652e-05,high
800,9.292929292929292,6.379746835443038,cathode,0.0100002310334087,0.0105103456242721,0.0093968226371639,-1.6669254690104756e-05,high
800,9.393939393939394,6.379746835443038,cathode,0.0100907280269589,0.0106182785666239,0.0094631633426308,4.470808963110714e-05,high
800,9.494949494949497,6.379746835443038,cathode,0.0101171600658596,0.0105917717727842,0.0095629340053914,5.7752873835210055e-05,high
800,9.595959595959595,6.379746835443038,cathode,0.0102670719087644,0.0108199638308005,0.0096048758033987,-6.30287587774546e-05,high
800,9.696969696969695,6.379746835443038,cathode,0.010427333237665,0.0110028105039182,0.0097361275009143,2.982430031174697e-06,high
800,9.797979797979798,6.379746835443038,cathode,0.0104568163816502,0.0109408132487692,0.0098939051902478,2.3262050791171275e-05,high
800,9.8989898989899,6.379746835443038,cathode,0.0106959586206517,0.0112350921064399,0.0100587390023433,-5.435998286146956e-05,high
800,10.0,6.379746835443038,cathode,0.0109121915916659,0.0114269742415109,0.0103110271073871,-4.742069671620567e-05,high
800,0.0,6.481012658227848,cathode,0.0108498679841457,0.0114444398838691,0.010135630497193,5.784851626971905e-05,high
800,0.101010101010101,6.481012658227848,cathode,0.0106638959633189,0.0112149736902858,0.0100103641483019,2.3255210628618175e-05,high
800,0.202020202020202,6.481012658227848,cathode,0.0106260293005725,0.0111866611343886,0.0099586183451784,-1.5500648134648098e-05,high
800,0.303030303030303,6.481012658227848,cathode,0.0105362257649349,0.0110587919394958,0.0099211726803911,2.3743930714241515e-05,high
800,0.404040404040404,6.481012658227848,cathode,0.010307569669548,0.0107674881330109,0.0097757136973106,-2.883709285011506e-05,high
800,0.5050505050505051,6.481012658227848,cathode,0.0102262750337343,0.010838123334392,0.009476950804911,-6.204501853046336e-05,high
800,0.6060606060606061,6.481012658227848,cathode,0.0100534253989951,0.0105784932790884,0.0094294138163789,2.574204880967516e-05,high
800,0.7070707070707071,6.481012658227848,cathode,0.010126224487786,0.0104911317409619,0.0097168532390653,6.525332958778743e-06,high
800,9.292929292929292,6.481012658227848,cathode,0.0100997132654879,0.0106454979963479,0.0094463550429901,-4.127363784334836e-05,high
800,9.393939393939394,6.481012658227848,cathode,0.0100994792434779,0.0105213920917722,0.0096162582550352,3.554419815495335e-05,high
800,9.494949494949497,6.481012658227848,cathode,0.0100468813508418,0.0105259994100604,0.0094869200743604,1.657212524852338e-05,high
800,9.595959595959595,6.481012658227848,cathode,0.0104040696635936,0.010988243686827,0.0096998922722002,3.4724837952315686e-06,high
800,9.696969696969695,6.481012658227848,cathode,0.0104153886473428,0.01081155154144,0.0099675539042867,3.2994370225419626e-05,high
800,9.797979797979798,6.481012658227848,cathode,0.010623577337063,0.0111840582099492,0.009955791836201,-4.321160904754223e-05,high
800,9.8989898989899,6.481012658227848,cathode,0.0107973052564629,0.0112096150499457,0.010329416010792,-7.80454589540756e-05,high
800,10.0,6.481012658227848,cathode,0.010696460053695,0.0111327957688435,0.0101984513955343,-3.643133906983322e-05,high
800,0.0,6.582278481012658,cathode,0.0106938951934893,0.0111840262192091,0.0101249510794106,3.460118368349738e-06,high
800,0.101010101010101,6.582278481012658,cathode,0.0106882649194893,0.0112520048876347,0.01001709111306,-2.335804300310947e-05,high
800,0.202020202020202,6.582278481012658,cathode,0.010632831596644,0.0110983344260435,0.0100958512979604,4.083021809861231e-05,high
800,0.303030303030303,6.582278481012658,cathode,0.0104046768825272,0.0109368665532978,0.0097749337674892,-4.727532986655203e-06,high
800,0.404040404040404,6.582278481012658,cathode,0.010216650980925,0.010655881096866,0.0097117255567799,-2.261860384462153e-05,high
800,0.5050505050505051,6.582278481012658,cathode,0.0100937479849734,0.0105188297676405,0.0096061232928306,-4.297142749371424e-05,high
800,0.6060606060606061,6.582278481012658,cathode,0.0101731445137101,0.0105670309600849,0.0097242513361516,-9.332179015254112e-05,high
800,0.7070707070707071,6.582278481012658,cathode,0.0100224399816993,0.0105402722799789,0.0094065651297227,-7.36061537093982e-05,high
800,9.292929292929292,6.582278481012658,cathode,0.0100955314447454,0.0105567774416791,0.0095600813151512,3.0006748139743685e-05,high
800,9.393939393939394,6.582278481012658,cathode,0.010080191968667,0.0104664827621419,0.0096426418885001,-4.834332977814247e-05,high
800,9.494949494949497,6.582278481012658,cathode,0.010254530808722,0.0108307163395223,0.0095596860058885,2.3356464711383816e-05,high
800,9.595959595959595,6.582278481012658,cathode,0.0103609970790373,0.0109212131140418,0.0096860829997885,-0.0001168152268867,high
800,9.696969696969695,6.582278481012658,cathode,0.0104026999226852,0.0110826841671526,0.0095533529542989,1.314271658839959e-05,high
800,9.797979797979798,6.582278481012658,cathode,0.0106357685909333,0.0111339642425844,0.0100553623473048,6.991667920803739e-06,high
800,9.8989898989899,6.582278481012658,cathode,0.0104952490776308,0.0110089164105954,0.0098911378822588,5.8063791469680176e-05,high
800,10.0,6.582278481012658,cathode,0.0106120065866602,0.0110167618172285,0.0101546525183028,-4.590612300582921e-06,high
800,0.0,6.6835443037974684,cathode,0.0108201813637294,0.0114155920907423,0.0101052719170538,-2.396953136719796e-05,high
800,0.101010101010101,6.6835443037974684,cathode,0.0107162489308699,0.011292856981763,0.0100271373734985,-1.7480715241372143e-05,high
800,0.202020202020202,6.6835443037974684,cathode,0.0106236897913602,0.0111587164279733,0.0099919729367201,-3.606407180481981e-05,high
800,0.303030303030303,6.6835443037974684,cathode,0.0103830543002388,0.0109004000946623,0.0097737503833797,1.5137432370733962e-05,high
800,0.404040404040404,6.6835443037974684,cathode,0.010284579372968,0.0107976144611639,0.0096802482553679,-1.261072569422079e-05,high
800,0.5050505050505051,6.6835443037974684,cathode,0.0102017494019427,0.0106901713822712,0.0096305362301923,-1.61389858210749e-05,high
800,0.6060606060606061,6.6835443037974684,cathode,0.0101388110216104,0.0106413678617853,0.0095473750995814,-2.264375615986356e-05,high
800,0.7070707070707071,6.6835443037974684,cathode,0.010062192419948,0.0105136225918713,0.0095395300675989,-3.578275037015605e-05,high
800,9.191919191919192,6.6835443037974684,cathode,0.0100645053102209,0.0106578676613454,0.0093414241760981,2.29568600318622e-05,high
800,9.292929292929292,6.6835443037974684,cathode,0.0101250528131883,0.010557189504294,0.0096278879727984,-5.6731174455873646e-05,high
800,9.393939393939394,6.6835443037974684,cathode,0.0100205932660381,0.0104633753574283,0.0095092547077087,-3.1842387883934666e-05,high
800,9.494949494949497,6.6835443037974684,cathode,0.0103053483112476,0.010775798774708,0.0097595449976037,-1.3404598338416112e-05,high
800,9.595959595959595,6.6835443037974684,cathode,0.0102185861341225,0.0107201065337173,0.0096285632001068,-5.419858410174019e-05,high
800,9.696969696969695,6.6835443037974684,cathode,0.0104471533402258,0.0109220793665171,0.0098946273171997,7.626781754839715e-05,high
800,9.797979797979798,6.6835443037974684,cathode,0.0106315016889698,0.0111716922226772,0.0099927297993058,-3.252683316319343e-05,high
800,9.8989898989899,6.6835443037974684,cathode,0.0107408783753165,0.0111926003606457,0.0102233616413641,1.8649255962486e-05,high
800,10.0,6.6835443037974684,cathode,0.0106038229197087,0.0111813850731834,0.0099098657357964,7.804757460337707e-05,high
800,0.0,6.784810126582278,cathode,0.010743744427854,0.0113337967774368,0.0100356981453177,-1.1845865742368065e-05,high
800,0.101010101010101,6.784810126582278,cathode,0.0106624150402948,0.0111966835449679,0.0100325964001673,7.928508830961883e-06,high
800,0.202020202020202,6.784810126582278,cathode,0.0105679392371868,0.0110454622906536,0.0100125501780469,8.403741946005e-05,high
800,0.303030303030303,6.784810126582278,cathode,0.0102545536281974,0.0106396323407661,0.0098202219410759,1.7182866313963402e-05,high
800,0.404040404040404,6.784810126582278,cathode,0.010375397076878,0.0109327613566902,0.0097066007949476,9.209542857793916e-05,high
800,0.5050505050505051,6.784810126582278,cathode,0.0102041232798625,0.010692990740424,0.009631947865187,3.647187432440966e-05,high
800,0.6060606060606061,6.784810126582278,cathode,0.0102384011892697,0.0107127793096785,0.0096863180434349,3.581740110049099e-05,high
800,0.7070707070707071,6.784810126582278,cathode,0.0100973592162232,0.0105460236764113,0.0095779457905822,5.843877009774434e-05,high
800,9.292929292929292,6.784810126582278,cathode,0.0100878032715482,0.0105494914868478,0.0095513996121481,-4.1547399754368585e-05,high
800,9.393939393939394,6.784810126582278,cathode,0.0101168252173724,0.0106502491709882,0.0094787340122445,-9.456154216690866e-05,high
800,9.494949494949497,6.784810126582278,cathode,0.0102545878072788,0.0107545017633867,0.0096651398634801,9.32702936763926e-05,high
800,9.595959595959595,6.784810126582278,cathode,0.010333361025299,0.0107918918442366,0.009803697464439,-2.1441681080190828e-05,high
800,9.696969696969695,6.784810126582278,cathode,0.0104702639723175,0.0110358941606519,0.0097923678176809,6.464019968417194e-05,high
800,9.797979797979798,6.784810126582278,cathode,0.0106480077734357,0.0111904138164049,0.0100058028157049,-5.063676885398053e-05,high
800,9.8989898989899,6.784810126582278,cathode,0.0106467443273049,0.0112224236379538,0.0099549256209124,9.698959668676134e-05,high
800,10.0,6.784810126582278,cathode,0.0107824785645788,0.0113603025174053,0.0100922042931414,-3.305072706303269e-05,high
800,0.0,6.886075949367089,cathode,0.010816504540248,0.0113388723266035,0.0102046487767303,-1.9129305123729576e-05,high
800,0.101010101010101,6.886075949367089,cathode,0.0105628732700878,0.0111053297115906,0.0099181508162052,-8.279099597929845e-05,high
800,0.202020202020202,6.886075949367089,cathode,0.0104152764317136,0.010845237319696,0.0099240862151397,-1.1454362615338476e-05,high
800,0.303030303030303,6.886075949367089,cathode,0.0102796559803251,0.0106902802542164,0.0098127540975618,-7.821968496317009e-06,high
800,0.404040404040404,6.886075949367089,cathode,0.0102062487539763,0.0105632308075369,0.0098066930118314,-4.001020319057702e-05,high
800,0.5050505050505051,6.886075949367089,cathode,0.0100747941698044,0.0105256630633649,0.0095534228583696,-6.229999158333629e-06,high
800,0.6060606060606061,6.886075949367089,cathode,0.0100646811388504,0.0105563571486457,0.0094867424963376,5.2564099678441614e-05,high
800,9.191919191919192,6.886075949367089,cathode,0.0100041955306265,0.0104737725962432,0.0094569157944161,-1.0723293168754046e-05,high
800,9.393939393939394,6.886075949367089,cathode,0.0100218977164442,0.010489427442179,0.009477300370241,-2.931465925030005e-05,high
800,9.494949494949497,6.886075949367089,cathode,0.0101145959317139,0.0104933777520305,0.0096864982568465,-5.747764382711666e-05,high
800,9.595959595959595,6.886075949367089,cathode,0.0102591086151106,0.0107016847227027,0.0097502303431405,-7.142227250760021e-06,high
800,9.696969696969695,6.886075949367089,cathode,0.0104661345170433,0.0109622766135311,0.0098862690101432,4.532770060468329e-05,high
800,9.797979797979798,6.886075949367089,cathode,0.0105838786571655,0.0111198410556944,0.0099506702667573,2.348994065140772e-05,high
800,9.8989898989899,6.886075949367089,cathode,0.0106894735210934,0.0111338742984717,0.0101808464784039,-3.793498713224433e-05,high
800,10.0,6.886075949367089,cathode,0.0108125699162096,0.0113541562287559,0.0101741905677991,8.936304595473682e-08,high
800,0.0,6.987341772151899,cathode,0.0106703853677061,0.0111637260326388,0.0100968427056477,-1.2885410950798267e-05,high
800,0.101010101010101,6.987341772151899,cathode,0.0107384586920665,0.0112793712142148,0.0101001682570935,-1.1949467903855354e-05,high
800,0.202020202020202,6.987341772151899,cathode,0.0104607513229459,0.0109523609480131,0.0098870932988324,4.2850673384556325e-05,high
800,0.303030303030303,6.987341772151899,cathode,0.0104227626951452,0.0110178104960863,0.0097020961719206,-4.837692104548814e-05,high
800,0.404040404040404,6.987341772151899,cathode,0.0104459183596258,0.01094393717974,0.0098639123191556,-1.5490956339714684e-05,high
800,0.5050505050505051,6.987341772151899,cathode,0.0102880205448131,0.0107903980452246,0.0096966730454696,-7.341770992095514e-05,high
800,0.6060606060606061,6.987341772151899,cathode,0.0102555178240989,0.010748855059866,0.0096779743456,-2.3922250914172946e-05,high
800,9.292929292929292,6.987341772151899,cathode,0.0101564478793968,0.0105232324752312,0.0097443940012391,-3.795063919488348e-05,high
800,9.393939393939394,6.987341772151899,cathode,0.0101232618166249,0.010497627475513,0.0097017882098483,-2.090612231210061e-05,high
800,9.494949494949497,6.987341772151899,cathode,0.0102125656168333,0.0107245043793752,0.0096085784586599,3.6350415560527886e-05,high
800,9.595959595959595,6.987341772151899,cathode,0.0103206204606217,0.0107782106667338,0.0097919295885407,-3.1498083995672494e-05,high
800,9.696969696969695,6.987341772151899,cathode,0.0103984522426013,0.0108910958061144,0.009823426602814,1.93549341493152e-06,high
800,9.797979797979798,6.987341772151899,cathode,0.0105828331550225,0.0112257819692731,0.0097899496718573,0.0001078620945404,high
800,9.8989898989899,6.987341772151899,cathode,0.0107239569108722,0.0112206680273442,0.010146275545875,1.7729521347538554e-05,high
800,10.0,6.987341772151899,cathode,0.0107660361204564,0.0112324670723832,0.0102289115280137,3.872162015727889e-05,high
800,0.0,7.0886075949367084,cathode,0.0107991719272023,0.0112598163069605,0.0102699170923903,-4.014104399051542e-05,high
800,0.101010101010101,7.0886075949367084,cathode,0.0105837931157017,0.0111515904310419,0.0099055303936259,-2.304450170350725e-05,high
800,0.202020202020202,7.0886075949367084,cathode,0.0105601226979711,0.0111509907969692,0.009846886770392,6.572754022099802e-05,high
800,0.303030303030303,7.0886075949367084,cathode,0.010364145850618,0.0108011278725217,0.0098630499236365,-3.3987921548341914e-05,high
800,0.404040404040404,7.0886075949367084,cathode,0.0103677755560999,0.0108023569429384,0.0098688798799147,-6.38421612274073e-05,high
800,0.5050505050505051,7.0886075949367084,cathode,0.0101743027198301,0.0106487625163274,0.009621976196483,1.4415292427905903e-06,high
800,0.6060606060606061,7.0886075949367084,cathode,0.0101374951642765,0.010694922574593,0.0094672736100609,5.752672863865323e-05,high
800,0.8080808080808081,7.0886075949367084,cathode,0.0100129899540874,0.0105221134145318,0.0094088644523303,8.0634358756977e-05,high
800,9.292929292929292,7.0886075949367084,cathode,0.010009114851923,0.0105223913659734,0.0093997741096365,-6.833418231871632e-05,high
800,9.393939393939394,7.0886075949367084,cathode,0.0101118433000301,0.0105563317064406,0.0095990538633811,-2.7064156548950063e-05,high
800,9.494949494949497,7.0886075949367084,cathode,0.0101451811976204,0.0105369737435756,0.009701376781399,3.330078686373668e-05,high
800,9.595959595959595,7.0886075949367084,cathode,0.0102650934006766,0.0106876827784385,0.0097812697451141,-6.177845232966971e-05,high
800,9.696969696969695,7.0886075949367084,cathode,0.0103899934221517,0.0109078010261748,0.0097801028543786,1.6774927678277372e-05,high
800,9.797979797979798,7.0886075949367084,cathode,0.0104963088073353,0.0110797373442275,0.0097933210239818,5.832939948140786e-05,high
800,9.8989898989899,7.0886075949367084,cathode,0.0105654341834873,0.0110953536644747,0.0099385671002683,7.8161019447797e-05,high
800,10.0,7.0886075949367084,cathode,0.0106444425701715,0.01106236420989,0.0101700495349691,3.2353063474296504e-05,high
800,0.0,7.189873417721519,cathode,0.0108543257039913,0.0113918318224592,0.0102212446653085,-4.97056416526484e-05,high
800,0.101010101010101,7.189873417721519,cathode,0.0107144514071408,0.0112409189282884,0.0100957734262406,-2.7929270076552715e-05,high
800,0.202020202020202,7.189873417721519,cathode,0.0106134032934138,0.0111676873059982,0.0099548821913028,-1.185667034848358e-05,high
800,0.303030303030303,7.189873417721519,cathode,0.0106017453201936,0.0111588243177802,0.0099390998639595,-1.4222425982006365e-05,high
800,0.404040404040404,7.189873417721519,cathode,0.0102613338316325,0.0108618975009228,0.0095294546127383,6.220586969249629e-05,high
800,0.5050505050505051,7.189873417721519,cathode,0.01023712412377,0.0107725883182078,0.009600004700555,4.781733698022974e-05,high
800,0.6060606060606061,7.189873417721519,cathode,0.0101528135333423,0.0106048382966935,0.009627662330481,9.119134454097244e-05,high
800,0.7070707070707071,7.189873417721519,cathode,0.0100500284763889,0.0105774596415193,0.0094226668802586,-2.3433689078914535e-05,high
800,9.292929292929292,7.189873417721519,cathode,0.0100595316170843,0.0105672453854476,0.0094601612493871,1.5228948580924649e-05,high
800,9.393939393939394,7.189873417721519,cathode,0.0100941316561001,0.0105524857616646,0.0095600705598577,8.962420524318973e-05,high
800,9.494949494949497,7.189873417721519,cathode,0.0102478124430568,0.0107261277144466,0.0096893401545083,6.740785724827273e-05,high
800,9.595959595959595,7.189873417721519,cathode,0.010406537882457,0.0108407475346856,0.0099088117170999,-5.3541688114983736e-05,high
800,9.696969696969695,7.189873417721519,cathode,0.0104036387577658,0.0109978877287757,0.0096846954821134,3.2621939299193257e-06,high
800,9.797979797979798,7.189873417721519,cathode,0.0104814703236184,0.010986931662838,0.0098891927972351,-3.787727544791209e-05,high
800,9.8989898989899,7.189873417721519,cathode,0.0107273825383101,0.0112085097160198,0.0101706640209256,2.328046031885819e-05,high
800,10.0,7.189873417721519,cathode,0.0107875987690969,0.0113513288353108,0.010115821860443,7.700506641154778e-05,high
800,0.0,7.291139240506329,cathode,0.010662755008799,0.0111113164696503,0.0101486381828069,-3.089934499718262e-05,high
800,0.101010101010101,7.291139240506329,cathode,0.0106182088376626,0.0111590962311921,0.0099785198499713,2.109563643880388e-05,high
800,0.202020202020202,7.291139240506329,cathode,0.0103846291648157,0.010883904578651,0.009800199788906,-2.3575872248402108e-05,high
800,0.303030303030303,7.291139240506329,cathode,0.0104016379515407,0.0109015028727746,0.0098161949050399,-4.042166537578072e-05,high
800,0.404040404040404,7.291139240506329,cathode,0.010224585414101,0.0108517554433196,0.0094482374139045,0.0001187746398849,high
800,0.5050505050505051,7.291139240506329,cathode,0.0102534290915772,0.0107823354766796,0.0096258626090064,4.508783872469904e-05,high
800,9.393939393939394,7.291139240506329,cathode,0.0102301296603782,0.0107848310601196,0.0095660777279599,2.3529977189872536e-05,high
800,9.494949494949497,7.291139240506329,cathode,0.0102292489187755,0.0107807666715143,0.0095697911393127,-2.1496779790286625e-05,high
800,9.595959595959595,7.291139240506329,cathode,0.0102235974906234,0.0106923043607025,0.0096790933150204,-3.433835246508911e-05,high
800,9.696969696969695,7.291139240506329,cathode,0.0104830044519138,0.0109821649444853,0.0098997376532445,-1.984677101839996e-05,high
800,9.797979797979798,7.291139240506329,cathode,0.010560041617712,0.0109551653138998,0.0101145649083149,1.948740773869947e-05,high
800,9.8989898989899,7.291139240506329,cathode,0.0106576919083087,0.0112325517041659,0.0099703623328992,1.488164342260296e-05,high
800,10.0,7.291139240506329,cathode,0.0108182523927865,0.0113446319650904,0.0102008530620262,-2.1839843430751644e-05,high
800,0.0,7.3924050632911396,cathode,0.0107766684670232,0.0113478086982554,0.0100944161452882,7.322799780531778e-05,high
800,0.101010101010101,7.3924050632911396,cathode,0.0105877355016867,0.0111082896379261,0.0099750343452622,-5.860841774667757e-05,high
800,0.202020202020202,7.3924050632911396,cathode,0.0103994383709207,0.0107600622723149,0.009996607495508,-2.110348148696213e-05,high
800,0.303030303030303,7.3924050632911396,cathode,0.0104184836335928,0.0109627045560715,0.0097683613555297,0.0001011368794311,high
800,0.404040404040404,7.3924050632911396,cathode,0.0103366066866006,0.0108281063356472,0.0097621338399501,-3.520014248433163e-05,high
800,0.5050505050505051,7.3924050632911396,cathode,0.0101228678277893,0.0105321667539641,0.0096566971721978,-4.515166000652456e-06,high
800,0.6060606060606061,7.3924050632911396,cathode,0.0101615961602551,0.0106254548121709,0.009623483090774,-8.25584487070269e-06,high
800,0.8080808080808081,7.3924050632911396,cathode,0.0100367989537203,0.010487681958334,0.0095147164441469,3.3423323496279055e-05,high
800,9.393939393939394,7.3924050632911396,cathode,0.0100350720702857,0.0105277321748451,0.0094564557494836,-1.267866400626144e-06,high
800,9.494949494949497,7.3924050632911396,cathode,0.0102427904222781,0.0106360524438186,0.0097978889932912,2.1420345102099856e-05,high
800,9.595959595959595,7.3924050632911396,cathode,0.0103488054563784,0.0108727856171208,0.0097288831710652,5.537916235433587e-05,high
800,9.696969696969695,7.3924050632911396,cathode,0.0105330567386405,0.011127757705316,0.0098151717784307,2.2723391250558372e-05,high
800,9.797979797979798,7.3924050632911396,cathode,0.0106089878994638,0.0111141994842921,0.0100170064279081,-7.253498646670706e-05,high
800,9.8989898989899,7.3924050632911396,cathode,0.0106663155622142,0.0111072878654435,0.0101624799307064,-3.4458691571166078e-06,high
800,10.0,7.3924050632911396,cathode,0.010782617904846,0.0112781509069162,0.0102062468417243,5.253088845876616e-05,high
800,0.0,7.493670886075949,cathode,0.0107293849518763,0.0112637845859418,0.0100995170117106,4.242019637015217e-05,high
800,0.101010101010101,7.493670886075949,cathode,0.010688916749702,0.0112842458109122,0.0099725136784506,1.2102902370344765e-06,high
800,0.202020202020202,7.493670886075949,cathode,0.0105183374174323,0.0109471597128354,0.010029069228428,-3.005148200615968e-05,high
800,0.303030303030303,7.493670886075949,cathode,0.0104027243218695,0.0109381801283517,0.0097632412949323,-0.0001212437407416,high
800,0.404040404040404,7.493670886075949,cathode,0.0104835933868556,0.011036915270992,0.0098246596203454,-2.7268677445969612e-05,high
800,0.5050505050505051,7.493670886075949,cathode,0.0102930088847998,0.010673509545835,0.0098644906465538,3.046988885604617e-05,high
800,0.6060606060606061,7.493670886075949,cathode,0.0101204520058359,0.0106754791315803,0.0094538061583064,4.883165569937192e-05,high
800,0.7070707070707071,7.493670886075949,cathode,0.0100545232486871,0.0106392757883703,0.0093432785091975,-5.1999948272311424e-05,high
800,9.393939393939394,7.493670886075949,cathode,0.0101925976373803,0.0106284527570194,0.0096890880459242,-9.420895635487956e-05,high
800,9.494949494949497,7.493670886075949,cathode,0.0101544836611507,0.0106644208408622,0.0095529109736667,2.463981352009288e-05,high
800,9.595959595959595,7.493670886075949,cathode,0.0103656747776951,0.0109806286859871,0.009615422847259,3.590280332273887e-06,high
800,9.696969696969695,7.493670886075949,cathode,0.0104486816994347,0.0109389199404137,0.0098773452956583,-1.3154424929031035e-05,high
800,9.797979797979798,7.493670886075949,cathode,0.0104758854319141,0.0109872029988373,0.0098757823036272,-2.3767474766097968e-05,high
800,9.8989898989899,7.493670886075949,cathode,0.0106761198140539,0.0111921348097258,0.0100709728925753,-4.776316841150347e-05,high
800,10.0,7.493670886075949,cathode,0.0106876275596084,0.0112811467378752,0.0099733418637137,3.784279972154851e-05,high
800,0.0,7.594936708860759,cathode,0.0106166530051649,0.0111282501762937,0.0100173175442586,3.621229658071352e-05,high
800,0.101010101010101,7.594936708860759,cathode,0.0106528451134601,0.0111197248854048,0.0101145082837546,2.6452023480269795e-05,high
800,0.202020202020202,7.594936708860759,cathode,0.0105966441278141,0.0110991344546479,0.0100093695325643,-4.450070391343343e-05,high
800,0.303030303030303,7.594936708860759,cathode,0.0103847099719405,0.010820476915222,0.0098850517822565,4.548408606928646e-05,high
800,0.404040404040404,7.594936708860759,cathode,0.0102516583348447,0.0108442974924288,0.0095297990356837,9.058446443604934e-05,high
800,0.5050505050505051,7.594936708860759,cathode,0.0101368916281951,0.0106256062793018,0.0095621939718417,8.488783778381372e-05,high
800,0.6060606060606061,7.594936708860759,cathode,0.0101895126020934,0.0107062804033271,0.0095785229248847,-3.6413617075857966e-05,high
800,0.7070707070707071,7.594936708860759,cathode,0.0101313406048005,0.0105989783737375,0.0095834556515757,-0.0001124527375228,high
800,0.8080808080808081,7.594936708860759,cathode,0.0100267259203248,0.0104616121383073,0.0095262891777018,-4.51465048503512e-06,high
800,9.393939393939394,7.594936708860759,cathode,0.010279502893997,0.0107863751496599,0.0096831077337627,-4.2222133910498186e-05,high
800,9.494949494949497,7.594936708860759,cathode,0.0102499695347564,0.0108314226906582,0.009545767758385,-7.005084018449441e-05,high
800,9.595959595959595,7.594936708860759,cathode,0.0102238677983251,0.0106748705990429,0.0097016468127402,7.412578450617424e-05,high
800,9.696969696969695,7.594936708860759,cathode,0.0104709485678351,0.0109551749600085,0.0099080249005091,5.6086225312335055e-06,high
800,9.797979797979798,7.594936708860759,cathode,0.0105990744598138,0.011135940142943,0.0099649138509957,1.1440483301681122e-05,high
800,9.8989898989899,7.594936708860759,cathode,0.0107119840318011,0.0111847429168673,0.0101659743965244,-4.042472403948243e-05,high
800,10.0,7.594936708860759,cathode,0.0109103918713354,0.0114460777713333,0.0102802226866819,5.539052057294809e-05,high
800,0.0,7.69620253164557,cathode,0.0106472729073406,0.0111675513229389,0.010035713589636,-5.482436893078904e-05,high
800,0.101010101010101,7.69620253164557,cathode,0.0106045790622904,0.0110920102009431,0.0100380699670269,3.6205891132051393e-05,high
800,0.202020202020202,7.69620253164557,cathode,0.0105004959296554,0.0110420584636229,0.0098569037034596,-7.145161362822572e-05,high
800,0.303030303030303,7.69620253164557,cathode,0.010512347361291,0.0110570548491164,0.0098659907522785,2.5900275720485437e-05,high
800,0.404040404040404,7.69620253164557,cathode,0.010283540595359,0.0107883194108121,0.009689044418564,-6.903065695773688e-05,high
800,0.5050505050505051,7.69620253164557,cathode,0.0102649815738969,0.0107586005002069,0.0096868730815367,3.67399512414462e-05,high
800,0.7070707070707071,7.69620253164557,cathode,0.0100350259355603,0.010489701956056,0.0095080556439808,2.195570086185505e-05,high
800,9.393939393939394,7.69620253164557,cathode,0.0100438129320175,0.0106043369593924,0.0093683844199322,-4.120833038997114e-05,high
800,9.494949494949497,7.69620253164557,cathode,0.0101694823505328,0.0106498128824258,0.0096078142700602,-6.106276657256258e-05,high
800,9.595959595959595,7.69620253164557,cathode,0.0101849167021714,0.010759498106048,0.0094875112970059,0.0001060156537963,high
800,9.696969696969695,7.69620253164557,cathode,0.0104857457920884,0.0108752950262043,0.0100452465464551,-7.497673840702725e-05,high
800,9.797979797979798,7.69620253164557,cathode,0.0105833110082536,0.0111840680876554,0.0098573921954691,1.4804207336899127e-05,high
800,9.8989898989899,7.69620253164557,cathode,0.0106050674793982,0.0110975825697868,0.0100319971096612,1.8864476585207057e-05,high
800,10.0,7.69620253164557,cathode,0.0108393207016878,0.0114001358936959,0.0101735641409178,-4.61204207532297e-05,high
800,0.0,7.7974683544303796,cathode,0.0107414104450623,0.0112212985865719,0.0101858180615826,-5.024146410597184e-05,high
800,0.101010101010101,7.7974683544303796,cathode,0.0106149426963532,0.0110297209639056,0.0101447507220066,-4.704809672674932e-06,high
800,0.202020202020202,7.7974683544303796,cathode,0.0104684195122603,0.0110280871031474,0.0097991530537722,-6.222210991312843e-05,high
800,0.303030303030303,7.7974683544303796,cathode,0.0103902022724444,0.0108599697984899,0.0098454672506598,4.3246767000969335e-05,high
800,0.404040404040404,7.7974683544303796,cathode,0.0102770173107063,0.0107171062042814,0.0097714984010529,1.554078484015778e-05,high
800,0.5050505050505051,7.7974683544303796,cathode,0.0102169502776701,0.0106868558755317,0.0096669679676559,0.0001101638295642,high
800,0.6060606060606061,7.7974683544303796,cathode,0.0100175641199887,0.0104745219995253,0.0094862397481512,6.072384189202869e-05,high
800,9.191919191919192,7.7974683544303796,cathode,0.0100144262336824,0.0105379244829173,0.0093924080673957,3.5592451455767823e-06,high
800,9.292929292929292,7.7974683544303796,cathode,0.0101125695013043,0.0106925810438826,0.0094094224832127,-4.6738809734971645e-05,high
800,9.393939393939394,7.7974683544303796,cathode,0.0100291170447234,0.0105247611552004,0.0094454381086605,-4.922857601641233e-05,high
800,9.494949494949497,7.7974683544303796,cathode,0.010178605743729,0.0106011702707555,0.0096954276940154,-1.597329955590371e-05,high
800,9.595959595959595,7.7974683544303796,cathode,0.0103010129323679,0.0107092438149691,0.0098372035874551,2.1614800974327425e-05,high
800,9.696969696969695,7.7974683544303796,cathode,0.0104378519345458,0.0109403087095518,0.0098485771633041,5.888044961502357e-05,high
800,9.797979797979798,7.7974683544303796,cathode,0.010529151647759,0.0111338681894252,0.0097945456875496,-7.760798282743741e-05,high
800,9.8989898989899,7.7974683544303796,cathode,0.0107536528521057,0.0112015632186231,0.0102403708554574,5.476429810754821e-05,high
800,10.0,7.7974683544303796,cathode,0.0107975592841734,0.0114012534963067,0.0100705016623982,-3.819415698316924e-06,high
800,0.0,7.898734177215189,cathode,0.0108130768942073,0.0113581040889045,0.0101699018207042,-1.1308381209982815e-06,high
800,0.101010101010101,7.898734177215189,cathode,0.0106593094031406,0.0111164386086485,0.0101332455779211,-5.3560068745752135e-05,high
800,0.202020202020202,7.898734177215189,cathode,0.0105165797811935,0.0110066495635364,0.0099387964729226,0.0001475242469372,high
800,0.303030303030303,7.898734177215189,cathode,0.0103336558013729,0.0108522254602883,0.009721799367704,3.376611931121834e-05,high
800,0.404040404040404,7.898734177215189,cathode,0.0104359955108567,0.0109620104173905,0.009815189297157,1.4098424397035087e-05,high
800,0.5050505050505051,7.898734177215189,cathode,0.0101880677994276,0.0106962690331156,0.0095891655384242,-3.0292659779128447e-05,high
800,0.6060606060606061,7.898734177215189,cathode,0.0100628718986632,0.0104500088909092,0.0096246054171934,3.102565239625622e-05,high
800,9.292929292929292,7.898734177215189,cathode,0.0100975376135181,0.0105952155327531,0.0095125055457199,-1.7873882070861424e-05,high
800,9.393939393939394,7.898734177215189,cathode,0.0102687280946867,0.0107987876777952,0.0096372208146093,-9.528505297909272e-05,high
800,9.494949494949497,7.898734177215189,cathode,0.0101843737967018,0.0106655393683954,0.0096227535380483,2.7145598489279984e-05,high
800,9.595959595959595,7.898734177215189,cathode,0.0103756644563219,0.010899249728154,0.0097576573993896,3.4208854480575376e-06,high
800,9.696969696969695,7.898734177215189,cathode,0.0104320604300718,0.0108994714259433,0.0098900906199069,6.396638025642458e-05,high
800,9.797979797979798,7.898734177215189,cathode,0.0104622685202352,0.0108878858960264,0.0099750307460722,7.908116530282995e-05,high
800,9.8989898989899,7.898734177215189,cathode,0.0106354252300946,0.0110952112694004,0.0101064518036767,-2.165331437343529e-05,high
800,10.0,7.898734177215189,cathode,0.0107614789633859,0.0112165458021591,0.0102364978657157,0.0001013054081568,high
800,0.0,8.0,cathode,0.0107371550799301,0.0112484991729507,0.0101385140686887,6.15498773129561e-05,high
800,0.101010101010101,8.0,cathode,0.0105194552081317,0.0110316655152735,0.0099184851605546,2.802775002914259e-05,high
800,0.202020202020202,8.0,cathode,0.0104968163499802,0.0110093814723295,0.0098896316026155,0.0001298547656527,high
800,0.303030303030303,8.0,cathode,0.0104769039739771,0.01108404303102,0.0097396494391332,3.38095628957943e-05,high
800,0.404040404040404,8.0,cathode,0.0103891640788088,0.0108244504784202,0.0098897000163029,-5.888903995697184e-05,high
800,0.5050505050505051,8.0,cathode,0.0101222903772745,0.0105342634330884,0.0096506176247856,7.699397343168213e-05,high
800,0.6060606060606061,8.0,cathode,0.0101604119091406,0.0106914078377349,0.0095286530474588,4.917854016860631e-05,high
800,0.7070707070707071,8.0,cathode,0.0101444370653005,0.0107017370844274,0.0094753355673588,-3.158407920391662e-05,high
800,9.292929292929292,8.0,cathode,0.010065607776686,0.0105629659794761,0.0094806250451591,2.219759594447812e-05,high
800,9.393939393939394,8.0,cathode,0.0101021665402993,0.0106304311181397,0.0094744047615191,-1.1025244321525327e-05,high
800,9.494949494949497,8.0,cathode,0.0102763389417176,0.0108511647326628,0.0095836562504476,3.0174922005369777e-05,high
800,9.595959595959595,8.0,cathode,0.0103524101528936,0.010766697687002,0.0098811636492632,-1.553098331931973e-05,high
800,9.696969696969695,8.0,cathode,0.0105341350342586,0.0110909825042829,0.0098710116707082,1.2306445795960816e-05,high
800,9.797979797979798,8.0,cathode,0.0105475527129886,0.0110998567207662,0.0098880302124925,9.42092314026708e-05,high
800,9.8989898989899,8.0,cathode,0.0107020007858665,0.0111616470591054,0.0101734908989992,3.3928602882374616e-05,high
800,10.0,8.0,cathode,0.0108399517280192,0.0113888706696594,0.0101915402584574,1.6526988027257473e-05,high
1200,0.0,0.0,anode,0.0178714069600739,0.0188182277759905,0.0167434784993847,-1.826470019382503e-06,critical
1200,0.101010101010101,0.0,anode,0.0175802873857035,0.0183198763530943,0.0167329488809095,-2.9502774127213832e-05,critical
1200,0.202020202020202,0.0,anode,0.0174616560121774,0.0184004181592515,0.01633938354229,-5.795789496926258e-05,critical
1200,0.303030303030303,0.0,anode,0.0173389323108752,0.0181869613363702,0.0163434433468012,-2.853566081673575e-05,critical
1200,0.404040404040404,0.0,anode,0.0171624517512216,0.0179900116517947,0.0161935709882071,-2.600846453562364e-06,critical
1200,0.5050505050505051,0.0,anode,0.0168562115859402,0.0176836756332903,0.0158818302505441,-0.0001096777599161,critical
1200,0.6060606060606061,0.0,anode,0.0167434109415058,0.0175358761460229,0.0158181048467279,4.741400085030976e-05,critical
1200,0.7070707070707071,0.0,anode,0.0166323278400591,0.0175323056723399,0.015555468029533,3.277164986115976e-05,critical
1200,0.8080808080808081,0.0,anode,0.0163144231687139,0.0170623527085699,0.015445948650228,3.37513426716075e-05,critical
1200,0.9090909090909092,0.0,anode,0.0162830931539138,0.0169668558930668,0.0154985846321693,-8.376587001890124e-05,critical
1200,1.0101010101010102,0.0,anode,0.0162048457316458,0.0170819192686613,0.0151549363892318,5.27959792354242e-05,critical
1200,1.1111111111111112,0.0,anode,0.0161447025041913,0.0168371259779402,0.0153492635130063,8.181222259561101e-06,critical
1200,1.2121212121212122,0.0,anode,0.0159427776118315,0.0166879446003604,0.0150749645780481,9.65569049592654e-06,critical
1200,1.3131313131313131,0.0,anode,0.015823813173787,0.0165398398989794,0.0149938263493055,4.9726493699907214e-05,critical
1200,1.414141414141414,0.0,anode,0.0157925324061364,0.0165811691401981,0.014863342196365,2.279943959238976e-05,critical
1200,1.5151515151515151,0.0,anode,0.0156992735304093,0.0165534269260401,0.0146762920147864,1.445101575027872e-05,critical
1200,1.616161616161616,0.0,anode,0.0156776151290004,0.0164443369485691,0.0147741862916372,0.0001245196043484,critical
1200,1.7171717171717171,0.0,anode,0.0154480254323575,0.0162227180415066,0.014534090099335,-5.026516460034087e-05,critical
1200,1.818181818181818,0.0,anode,0.0153637278442545,0.0160877065304711,0.0145193855798851,-1.720907056630897e-05,critical
1200,1.9191919191919191,0.0,anode,0.0151695387996204,0.0158732957177028,0.0143503693215456,-5.146741989684476e-05,critical
1200,2.0202020202020203,0.0,anode,0.0151933481973397,0.0160088496065824,0.0142193141082777,-1.3305108539252878e-05,critical
1200,2.121212121212121,0.0,anode,0.0150331812617087,0.0157859906532684,0.0141457721769366,-1.995686102090173e-05,critical
1200,2.2222222222222223,0.0,anode,0.0151192101343585,0.0158805562182321,0.0142209128376098,5.572067371351237e-06,critical
1200,2.323232323232323,0.0,anode,0.015102296750184,0.0158689657495705,0.0141963431512274,-1.1797431244315606e-05,critical
1200,2.4242424242424243,0.0,anode,0.0149846600934778,0.0157080691901486,0.0141373936323601,-2.489353163445313e-05,high
1200,2.525252525252525,0.0,anode,0.0149918656155726,0.0158056266417318,0.0140168278177279,6.187679743453804e-05,high
1200,2.6262626262626263,0.0,anode,0.014955644005509,0.0157191045540167,0.0140524393144488,-2.4164546615640695e-05,high
1200,2.727272727272727,0.0,anode,0.0149293026376419,0.0156134766782853,0.0141345577674582,-4.928840774677144e-05,high
1200,2.8282828282828283,0.0,anode,0.0147648370744175,0.0154470129718908,0.0139713233666311,-5.013563001754157e-05,high
1200,2.929292929292929,0.0,anode,0.0146793733082594,0.0153192082215171,0.013942546800037,-2.9712979060800243e-06,high
1200,3.0303030303030303,0.0,anode,0.0147513782657207,0.0154016039870625,0.014001235085356,1.4714653625697622e-05,high
1200,3.131313131313131,0.0,anode,0.0147789550261993,0.0154594226234476,0.0139875100514118,-6.36545683317626e-05,high
1200,3.2323232323232323,0.0,anode,0.0146328638866691,0.0153612363269864,0.0137752895551207,-1.0601240446975937e-07,high
1200,3.333333333333333,0.0,anode,0.0146264337737029,0.0152466795595442,0.0139148487161093,3.440952842556966e-05,high
1200,3.4343434343434343,0.0,anode,0.0145802521985807,0.0153771458614909,0.0136237247024915,-7.133602732415578e-05,high
1200,3.5353535353535355,0.0,anode,0.0145355371016803,0.0152635918791466,0.0136771353790169,-3.045273041374469e-05,high
1200,3.636363636363636,0.0,anode,0.0144473207056995,0.0151860520828719,0.0135731470816447,1.9100785431006804e-05,high
1200,3.7373737373737375,0.0,anode,0.0145431167885979,0.0152585026639692,0.0137022646287971,3.798141550337426e-05,high
1200,3.8383838383838382,0.0,anode,0.0143801892545282,0.0150404865861886,0.0136132753279239,-2.9586351587070067e-05,high
1200,3.939393939393939,0.0,anode,0.0143737403274704,0.0150360244108269,0.0136040342490619,3.278273700583603e-05,high
1200,4.040404040404041,0.0,anode,0.0143926537467221,0.0150639685153508,0.0136102099845238,-6.135501310541967e-05,high
1200,4.141414141414141,0.0,anode,0.0142743270482022,0.0149669669178677,0.0134623721277115,2.4006422673525832e-05,high
1200,4.242424242424242,0.0,anode,0.0145024442635283,0.0151719665582073,0.0137243298231585,-7.402461677874158e-06,high
1200,4.343434343434343,0.0,anode,0.0143285299371615,0.0149900594589676,0.0135591492420924,4.765416874112651e-05,high
1200,4.444444444444445,0.0,anode,0.0143821615551826,0.0151348197934289,0.0134874376366135,-3.03585436763284e-05,high
1200,4.545454545454545,0.0,anode,0.0143008062707366,0.0149810183577809,0.0135063043007631,5.346888994870354e-06,high
1200,4.646464646464646,0.0,anode,0.014336052073001,0.015026539994682,0.0135278116156884,2.6641184405811056e-08,high
1200,4.747474747474747,0.0,anode,0.0142813543523071,0.0149731881230269,0.0134702776381538,-4.219425371924946e-05,high
1200,4.848484848484849,0.0,anode,0.0144694548789912,0.0152527077970069,0.0135323683937015,-9.9318010705144e-06,high
1200,4.94949494949495,0.0,anode,0.0143967007929777,0.0151673240624957,0.0134768087578863,-2.942123074307117e-06,high
1200,5.05050505050505,0.0,anode,0.0143221064337395,0.0150684324612416,0.0134352702107691,-4.848365184042049e-05,high
1200,5.151515151515151,0.0,anode,0.0143221929229057,0.0149464961269034,0.0136032177821743,1.1128264635525135e-05,high
1200,5.252525252525253,0.0,anode,0.0143339525238866,0.0151154175109934,0.0133965998685261,6.496313951390602e-05,high
1200,5.353535353535354,0.0,anode,0.0142720921094736,0.0149087237530784,0.0135362538702949,-1.4944323160319344e-05,high
1200,5.454545454545454,0.0,anode,0.0143438257174996,0.0151043820224296,0.0134376430628691,2.778012543638552e-06,high
1200,5.555555555555555,0.0,anode,0.0144186961150217,0.0151239699100516,0.0135906201700098,3.418441109501762e-05,high
1200,5.656565656565657,0.0,anode,0.0144626874418053,0.0152711575844253,0.0134847218972233,0.0001299519144356,high
1200,5.757575757575758,0.0,anode,0.0145135517557796,0.0152483464518918,0.0136445176077756,6.972793359994234e-05,high
1200,5.858585858585858,0.0,anode,0.0143848321785593,0.0150333435058084,0.0136331826492002,-5.952181135845225e-05,high
1200,5.959595959595959,0.0,anode,0.0144419415687653,0.0151645080988241,0.0135903666787545,1.3285321358334234e-05,high
1200,6.0606060606060606,0.0,anode,0.0144247221022967,0.0150780361054446,0.0136677424274063,-1.794129150630561e-05,high
1200,6.161616161616162,0.0,anode,0.0143824635862124,0.0150883586540172,0.0135527442552026,-5.3170036081718e-05,high
1200,6.262626262626262,0.0,anode,0.0143962669174959,0.0150900281456639,0.0135834972737354,-5.003237118180637e-05,high
1200,6.363636363636363,0.0,anode,0.0146269125049505,0.0154864330490314,0.013579092498788,7.508795684734827e-05,high
1200,6.4646464646464645,0.0,anode,0.0145419387990559,0.0152982151852277,0.0136423717013387,8.607839142367601e-05,high
1200,6.565656565656566,0.0,anode,0.0144542767771376,0.0151926684443605,0.0135796208794562,-6.712446589221195e-05,high
1200,6.666666666666667,0.0,anode,0.0146625496887592,0.0154882601488819,0.0136660489689661,4.686204013472243e-05,high
1200,6.767676767676767,0.0,anode,0.0146230683853779,0.0153004520209342,0.0138326407808637,-0.0001064621631341,high
1200,6.8686868686868685,0.0,anode,0.0145859434469136,0.0153320040417069,0.0137030889811414,-1.3739472263252278e-05,high
1200,6.96969696969697,0.0,anode,0.0145989088132425,0.0152560085395444,0.0138383435367725,1.261357911537122e-05,high
1200,7.070707070707071,0.0,anode,0.0148708959065906,0.0156230339717006,0.0139827527774721,-5.797059304900072e-07,high
1200,7.171717171717171,0.0,anode,0.014890265143005,0.0156896667129392,0.0139354514434246,6.7373464431184125e-06,high
1200,7.272727272727272,0.0,anode,0.0147694832430203,0.0154696160083826,0.0139516802913405,-4.607836090048118e-05,high
1200,7.373737373737374,0.0,anode,0.0149225210781559,0.0156964480183538,0.0140037486407101,-4.930024993485124e-05,high
1200,7.474747474747475,0.0,anode,0.0150166904834593,0.0157286974508168,0.0141833610359904,-9.510322503016112e-05,critical
1200,7.575757575757575,0.0,anode,0.0149882120863194,0.0156792982197956,0.0141845809162994,5.179259162717543e-05,high
1200,7.6767676767676765,0.0,anode,0.0151132426569257,0.0158507158584685,0.0142471078387306,-6.241466032992136e-05,critical
1200,7.777777777777778,0.0,anode,0.0151738906073671,0.0158564096008341,0.0143836858123523,3.841439322068367e-05,critical
1200,7.878787878787879,0.0,anode,0.0151220990371461,0.0159110091164091,0.014185064955619,9.970245402478138e-06,critical
1200,7.979797979797979,0.0,anode,0.0151398757960558,0.0158186794166298,0.0143543139388669,-4.156289585448051e-05,critical
1200,8.080808080808081,0.0,anode,0.0152783421439059,0.0160099978815755,0.0144224042206177,3.925988038362697e-05,critical
1200,8.181818181818182,0.0,anode,0.0152975841223006,0.0160638816976938,0.0143934582316106,-6.042948930307366e-05,critical
1200,8.282828282828282,0.0,anode,0.0154342718475719,0.016291059252821,0.0144039258094652,-9.41623567200048e-06,critical
1200,8.383838383838384,0.0,anode,0.0156371552160281,0.0163673538389291,0.0147868927869701,1.2378620663668165e-05,critical
1200,8.484848484848484,0.0,anode,0.0156415369266092,0.0162857578622227,0.014905804802703,1.8966827383981218e-05,critical
1200,8.585858585858587,0.0,anode,0.0157747315079583,0.0165704689062991,0.014835541987169,9.92516952112882e-06,critical
1200,8.686868686868687,0.0,anode,0.0158040951350377,0.0167219506844801,0.0146881141466382,7.960646238723886e-05,critical
1200,8.787878787878787,0.0,anode,0.0160369749912337,0.0167588899682757,0.0152014145012227,1.162015551180005e-06,critical
1200,8.88888888888889,0.0,anode,0.016150649511748,0.0169228162782844,0.0152479024277253,-1.5185858881417287e-05,critical
1200,8.98989898989899,0.0,anode,0.0162085137474091,0.017036071217604,0.0152292713131799,-3.847649402054884e-05,critical
1200,9.09090909090909,0.0,anode,0.0163754915288851,0.0171150701946295,0.015517823177812,7.503737680576077e-05,critical
1200,9.191919191919192,0.0,anode,0.0164205895024858,0.0171292759605141,0.0156051119947148,5.295929980379021e-05,critical
1200,9.292929292929292,0.0,anode,0.0165827768526846,0.0174341407454703,0.0155746603447922,-3.007910053038024e-07,critical
1200,9.393939393939394,0.0,anode,0.0165663136985635,0.0173584823604199,0.0156382814034112,9.456274517182056e-05,critical
1200,9.494949494949497,0.0,anode,0.0169102087305653,0.0176592500352824,0.0160453879589726,1.9066806488450597e-05,critical
1200,9.595959595959595,0.0,anode,0.0170020184497582,0.0178459962964221,0.0160087496362985,1.8879936899480123e-05,critical
1200,9.696969696969695,0.0,anode,0.0172027319436953,0.0181009608792112,0.0161356734721631,1.2075525973807216e-05,critical
1200,9.797979797979798,0.0,anode,0.017484695547255,0.0183779268914871,0.0164220818889432,0.0001687486742782,critical
1200,9.8989898989899,0.0,anode,0.0176196057464732,0.018458094865867,0.0166401199879514,1.367098389552961e-05,critical
1200,10.0,0.0,anode,0.017877684997374,0.0187465805246773,0.0168588513086649,-2.7602300006744064e-05,critical
1200,0.0,0.1012658227848101,anode,0.0177642800281586,0.018600955754592,0.0167884223592912,3.4957665710226084e-05,critical
1200,0.101010101010101,0.1012658227848101,anode,0.0175592318752171,0.0183898341073609,0.0165896074020842,-4.351178642023667e-05,critical
1200,0.202020202020202,0.1012658227848101,anode,0.0174434011198901,0.0182474618578776,0.0165091337957197,-1.4932444606865854e-05,critical
1200,0.303030303030303,0.1012658227848101,anode,0.0173273851199433,0.0182199310457114,0.0162674700165124,0.0001064409621266,critical
1200,0.404040404040404,0.1012658227848101,anode,0.0171716473767489,0.0180906080267966,0.0160735094361165,-7.578056717364565e-05,critical
1200,0.5050505050505051,0.1012658227848101,anode,0.0170602249758633,0.0179915357417373,0.0159407780043313,-0.0001246217122779,critical
1200,0.6060606060606061,0.1012658227848101,anode,0.0168023288809325,0.017635541820116,0.0158219562641328,-1.1429231368190549e-05,critical
1200,0.7070707070707071,0.1012658227848101,anode,0.0167482734337798,0.0175291805205827,0.0158387293679504,-4.8619631701990674e-05,critical
1200,0.8080808080808081,0.1012658227848101,anode,0.0164469686094194,0.0173193642983685,0.0154072142405273,3.3178008888755935e-05,critical
1200,0.9090909090909092,0.1012658227848101,anode,0.0162412435350965,0.0169158527623023,0.0154698835843102,1.724084746073779e-05,critical
1200,1.0101010101010102,0.1012658227848101,anode,0.0162718923522086,0.0169495734160223,0.0154966355777192,-2.639402707407888e-05,critical
1200,1.1111111111111112,0.1012658227848101,anode,0.0160695213281794,0.0168064812389451,0.0152133964726696,-5.142711904597956e-05,critical
1200,1.2121212121212122,0.1012658227848101,anode,0.0160294072210932,0.0168512870338548,0.0150564407926431,2.4031212871392443e-06,critical
1200,1.3131313131313131,0.1012658227848101,anode,0.0158086804211797,0.0164882060100272,0.0150276290165358,-2.8568270092272388e-05,critical
1200,1.414141414141414,0.1012658227848101,anode,0.0155735637829345,0.0162644124774677,0.0147757785098724,1.2928668187527033e-05,critical
1200,1.5151515151515151,0.1012658227848101,anode,0.015583962069124,0.0163128282986648,0.0147350310947723,-1.1511310051470757e-05,critical
1200,1.616161616161616,0.1012658227848101,anode,0.0154731182796277,0.0163297890603759,0.0144425177285718,-6.410462069609989e-05,critical
1200,1.7171717171717171,0.1012658227848101,anode,0.0154551371347331,0.01621357738246,0.0145641583824634,-3.4505416883927155e-05,critical
1200,1.818181818181818,0.1012658227848101,anode,0.0154504860257886,0.0161772151410564,0.0146024334242884,6.020490001121149e-05,critical
1200,1.9191919191919191,0.1012658227848101,anode,0.0153769337816932,0.0160051403287606,0.0146596748213173,5.6752109142016186e-05,critical
1200,2.0202020202020203,0.1012658227848101,anode,0.015367126184777,0.016128123197503,0.0144717430348592,-3.118432749331065e-05,critical
1200,2.121212121212121,0.1012658227848101,anode,0.015199313385432,0.0159100223007704,0.0143714628599505,2.357710138991693e-05,critical
1200,2.2222222222222223,0.1012658227848101,anode,0.0150528594797227,0.015835540108134,0.0141234807015701,3.866949057783437e-05,critical
1200,2.323232323232323,0.1012658227848101,anode,0.0151001638655172,0.0159059864457771,0.0141388119205698,9.869058615898126e-06,critical
1200,2.4242424242424243,0.1012658227848101,anode,0.0149803052779281,0.0157403006914566,0.0140823595528099,8.238006814437506e-06,high
1200,2.525252525252525,0.1012658227848101,anode,0.015031430184438,0.0156700393503117,0.0142979295189757,-6.348178229889435e-05,critical
1200,2.6262626262626263,0.1012658227848101,anode,0.0149593011110515,0.0157480624612115,0.014019965586959,-4.85700759638806e-05,high
1200,2.727272727272727,0.1012658227848101,anode,0.0149097693902849,0.0156161135911122,0.0140833366565678,9.098199376730816e-05,high
1200,2.8282828282828283,0.1012658227848101,anode,0.0147961842461695,0.0154840840261229,0.0139954969189189,-3.524386933168372e-05,high
1200,2.929292929292929,0.1012658227848101,anode,0.0147324482436513,0.0154655552281731,0.0138688595321868,4.465071658572764e-05,high
1200,3.0303030303030303,0.1012658227848101,anode,0.0148250570898519,0.0155096761880192,0.0140284544227521,-6.195235856820541e-05,high
1200,3.131313131313131,0.1012658227848101,anode,0.0146902577495839,0.0153712660902799,0.0138981662654803,2.0312736033032992e-05,high
1200,3.2323232323232323,0.1012658227848101,anode,0.0145836007979572,0.0152833678912601,0.0137624506864135,0.0001026745090055,high
1200,3.333333333333333,0.1012658227848101,anode,0.0145144346308011,0.0152521904290732,0.0136423656617098,-2.095944286414816e-05,high
1200,3.4343434343434343,0.1012658227848101,anode,0.014497402090512,0.0152361303042714,0.0136225197678616,7.40318740285233e-05,high
1200,3.5353535353535355,0.1012658227848101,anode,0.0145364652596816,0.015190248617995,0.0137783666234457,-7.873355780186882e-05,high
1200,3.636363636363636,0.1012658227848101,anode,0.0145897305673892,0.0152963910676411,0.0137612192672141,4.652631269708535e-05,high
1200,3.7373737373737375,0.1012658227848101,anode,0.0143804676533257,0.0150348218424687,0.0136212040255149,-4.884940260191454e-05,high
1200,3.8383838383838382,0.1012658227848101,anode,0.0145543483781627,0.0151369754703209,0.0138884094890948,-0.0001177935273428,high
1200,3.939393939393939,0.1012658227848101,anode,0.014475994119739,0.0151794898895898,0.0136505938055801,5.10942277158734e-05,high
1200,4.040404040404041,0.1012658227848101,anode,0.0143771799961325,0.0151300624440555,0.0134823118141498,9.771598203391688e-07,high
1200,4.141414141414141,0.1012658227848101,anode,0.0144424121601497,0.0151757584335532,0.0135752307931697,-4.884355682885263e-05,high
1200,4.242424242424242,0.1012658227848101,anode,0.0145125345630802,0.0151981581042751,0.0137120571976266,-4.8820472017074485e-05,high
1200,4.343434343434343,0.1012658227848101,anode,0.0144415618788737,0.0151401067667575,0.0136232781245406,-4.283795546563374e-06,high
1200,4.444444444444445,0.1012658227848101,anode,0.0144781287125828,0.0152983916207953,0.0134874488204144,1.1876752210328052e-05,high
1200,4.545454545454545,0.1012658227848101,anode,0.0143601453236653,0.015047039372529,0.0135566900629967,-3.9087565283557926e-05,high
1200,4.646464646464646,0.1012658227848101,anode,0.0143472126614642,0.0150231672343607,0.013558966816956,8.707607560169095e-07,high
1200,4.747474747474747,0.1012658227848101,anode,0.0143189454190005,0.0150904543877239,0.0133967127651878,-1.783535719367724e-05,high
1200,4.848484848484849,0.1012658227848101,anode,0.0143897394744045,0.0150385429722009,0.0136385187993668,1.9003642349776208e-05,high
1200,4.94949494949495,0.1012658227848101,anode,0.014463118168338,0.0151277519233235,0.0136912789767755,4.500054500249465e-06,high
1200,5.05050505050505,0.1012658227848101,anode,0.0143636037756412,0.0151324045018944,0.0134458421952474,-1.5253876963136811e-05,high
1200,5.151515151515151,0.1012658227848101,anode,0.0144842100300763,0.015189416736122,0.0136565559042943,-5.019646447746362e-05,high
1200,5.252525252525253,0.1012658227848101,anode,0.0143912306642292,0.0152173353395913,0.0133899019380983,5.591433290234728e-05,high
1200,5.353535353535354,0.1012658227848101,anode,0.0143151851639372,0.0149867347794623,0.0135325978879862,1.3622949941801426e-05,high
1200,5.454545454545454,0.1012658227848101,anode,0.0144680244612289,0.0151880305277203,0.0136199227773168,-4.068974793922205e-05,high
1200,5.555555555555555,0.1012658227848101,anode,0.0143346609865563,0.015036718798263,0.0135102482138074,2.938178877198326e-05,high
1200,5.656565656565657,0.1012658227848101,anode,0.0144249008392025,0.0150556869442332,0.0136979820254433,2.498287087798632e-05,high
1200,5.757575757575758,0.1012658227848101,anode,0.0144797383371243,0.0150840817851809,0.0137871938359628,-6.768689915867735e-05,high
1200,5.858585858585858,0.1012658227848101,anode,0.0145204982724903,0.015221874828935,0.0136978888657575,7.02071463798255e-05,high
1200,5.959595959595959,0.1012658227848101,anode,0.01439937157321,0.0150517665418876,0.0136433780637816,-2.1618968178382408e-05,high
1200,6.0606060606060606,0.1012658227848101,anode,0.0144537392082352,0.0151494953269954,0.0136394104109632,3.4814837662025665e-06,high
1200,6.161616161616162,0.1012658227848101,anode,0.0144331491572995,0.0151278246998838,0.0136199661156907,-2.3785642766370457e-05,high
1200,6.262626262626262,0.1012658227848101,anode,0.0145167345935622,0.0151878889790136,0.0137358982774801,-5.166622750761505e-05,high
1200,6.363636363636363,0.1012658227848101,anode,0.0145719227359568,0.0152369622811271,0.0138004206061286,-1.6248070810806794e-05,high
1200,6.4646464646464645,0.1012658227848101,anode,0.0145606905923528,0.0152673907406838,0.0137323611685545,4.864374028353369e-06,high
1200,6.565656565656566,0.1012658227848101,anode,0.0145540641639939,0.0153964917505852,0.0135311247171566,5.579556854750558e-05,high
1200,6.666666666666667,0.1012658227848101,anode,0.0146552383859552,0.0152927686116047,0.0139208144223191,4.457206173410093e-05,high
1200,6.767676767676767,0.1012658227848101,anode,0.014674178288566,0.01540905889844,0.0138069601221386,6.461740000096988e-05,high
1200,6.8686868686868685,0.1012658227848101,anode,0.0147352404300396,0.0153910905652316,0.0139760689322452,7.763510191082717e-05,high
1200,6.96969696969697,0.1012658227848101,anode,0.0145984602552294,0.0153041875382857,0.0137702233409353,8.147639946173541e-05,high
1200,7.070707070707071,0.1012658227848101,anode,0.0147574279007725,0.0153835793643814,0.014039191537712,-2.0675153032691e-05,high
1200,7.171717171717171,0.1012658227848101,anode,0.0147293986431317,0.0154326976529047,0.0139070136416282,3.9732018805374506e-05,high
1200,7.272727272727272,0.1012658227848101,anode,0.0148195765377909,0.0155512438950358,0.0139590114633237,3.938207332997738e-05,high
1200,7.373737373737374,0.1012658227848101,anode,0.0149569589001288,0.0157256731736622,0.0140463174344944,2.936308960247165e-05,high
1200,7.474747474747475,0.1012658227848101,anode,0.01496205261086,0.0157489564673051,0.0140242117668252,8.480063740275088e-05,high
1200,7.575757575757575,0.1012658227848101,anode,0.0151258941245134,0.0158787116291491,0.0142395427203532,8.281847357822017e-06,critical
1200,7.6767676767676765,0.1012658227848101,anode,0.0150447621688068,0.0156518767770307,0.0143531940803499,3.5902028067080896e-05,critical
1200,7.777777777777778,0.1012658227848101,anode,0.0149861025031307,0.0157675531532947,0.0140579670013656,1.67481558875671e-05,high
1200,7.878787878787879,0.1012658227848101,anode,0.0151191010610522,0.0159014189961319,0.0141913544473404,-8.620585751050698e-06,critical
1200,7.979797979797979,0.1012658227848101,anode,0.0152317439068654,0.0160150171271951,0.0143033374899157,-5.157643713959061e-05,critical
1200,8.080808080808081,0.1012658227848101,anode,0.0152034192698122,0.0159350891412973,0.0143468961823241,-2.904624183326109e-05,critical
1200,8.181818181818182,0.1012658227848101,anode,0.0155070445236111,0.0161621277111375,0.0147541553582569,-9.574365195584534e-05,critical
1200,8.282828282828282,0.1012658227848101,anode,0.0154740315728298,0.0162471214108956,0.0145631345206311,-1.6599100898817616e-05,critical
1200,8.383838383838384,0.1012658227848101,anode,0.0154838773301794,0.0161620024012901,0.0147019328086257,-4.464901642714211e-05,critical
1200,8.484848484848484,0.1012658227848101,anode,0.0156395622637815,0.0164060053917457,0.0147396320906314,1.442535711909159e-05,critical
1200,8.585858585858587,0.1012658227848101,anode,0.0158166818988806,0.0166149458597916,0.0148742583814864,-2.849374376589915e-05,critical
1200,8.686868686868687,0.1012658227848101,anode,0.0159308509005874,0.0167546704322164,0.0149536827524954,3.841669888281442e-05,critical
1200,8.787878787878787,0.1012658227848101,anode,0.0159688933726524,0.016771647950316,0.0150218404028347,-3.0057121954598188e-05,critical
1200,8.88888888888889,0.1012658227848101,anode,0.0162400197367683,0.0170009988265452,0.0153533281572981,2.242342924800681e-05,critical
1200,8.98989898989899,0.1012658227848101,anode,0.0163257260019714,0.0171207741472735,0.0153932908285589,-5.00719332337564e-06,critical
1200,9.09090909090909,0.1012658227848101,anode,0.0163007114641896,0.0170514477627938,0.0154285375912658,1.230203430485345e-05,critical
1200,9.191919191919192,0.1012658227848101,anode,0.0162865547553069,0.0170418974206072,0.0154064065058423,-8.686382559695259e-05,critical
1200,9.292929292929292,0.1012658227848101,anode,0.0165929874723513,0.0174482971623746,0.0155791558935551,-3.560245823045744e-05,critical
1200,9.393939393939394,0.1012658227848101,anode,0.0167226749860533,0.0174733308540759,0.0158535230509273,5.838920693872146e-05,critical
1200,9.494949494949497,0.1012658227848101,anode,0.0169814357666748,0.0177919057891074,0.0160336329294792,5.400836469855075e-05,critical
1200,9.595959595959595,0.1012658227848101,anode,0.0170654441914504,0.0177920292574262,0.0162308537146391,-6.401096845294226e-05,critical
1200,9.696969696969695,0.1012658227848101,anode,0.0171838561560602,0.0179433273827533,0.0163072507625841,2.467481444436093e-05,critical
1200,9.797979797979798,0.1012658227848101,anode,0.017344505006379,0.0182432766743535,0.0162783322177636,-1.5585817473285676e-05,critical
1200,9.8989898989899,0.1012658227848101,anode,0.0178122443667278,0.0185484999703693,0.0169695023891842,8.944543154844643e-05,critical
1200,10.0,0.1012658227848101,anode,0.0178007921705746,0.0186572023026821,0.0167981865417021,4.12216516364659e-05,critical
1200,0.0,0.2025316455696202,anode,0.0177880776025689,0.0185856634461228,0.0168651993710626,-3.995288521074055e-05,critical
1200,0.101010101010101,0.2025316455696202,anode,0.0176437381050626,0.0183739409952168,0.0168092398412892,2.0195714405062867e-05,critical
1200,0.202020202020202,0.2025316455696202,anode,0.0174180602041946,0.018289362262989,0.0163906223716962,-5.650318679869069e-05,critical
1200,0.303030303030303,0.2025316455696202,anode,0.0172506059665177,0.0180730356226972,0.0162893175113064,3.803621033229194e-05,critical
1200,0.404040404040404,0.2025316455696202,anode,0.0170667313255261,0.0178584048931627,0.016145225969936,-5.8747062294682384e-05,critical
1200,0.5050505050505051,0.2025316455696202,anode,0.016982057080198,0.0178061706349728,0.016016117550678,9.139900693525871e-06,critical
1200,0.6060606060606061,0.2025316455696202,anode,0.0168310835919449,0.0176471007600729,0.015874685651349,2.409936073925709e-05,critical
1200,0.7070707070707071,0.2025316455696202,anode,0.0165475683645676,0.0173811932896747,0.0155637644354109,2.6914512108953364e-05,critical
1200,0.8080808080808081,0.2025316455696202,anode,0.0165186807332211,0.0173735693928356,0.0155030320430117,9.110468408498222e-05,critical
1200,0.9090909090909092,0.2025316455696202,anode,0.0163442856804844,0.0171652436380031,0.0153756861946484,4.381373301132649e-05,critical
1200,1.0101010101010102,0.2025316455696202,anode,0.0162950955922137,0.0170376042209754,0.0154339793999585,-1.2848107768194784e-05,critical
1200,1.1111111111111112,0.2025316455696202,anode,0.0160017051942738,0.0166788137780036,0.0152252912166197,2.6104725765447617e-05,critical
1200,1.2121212121212122,0.2025316455696202,anode,0.0157790686335847,0.0164128203937114,0.0150578976531957,-1.4394696035220487e-05,critical
1200,1.3131313131313131,0.2025316455696202,anode,0.0157814942602292,0.0164514930455944,0.0150124501120149,4.999301890514301e-05,critical
1200,1.414141414141414,0.2025316455696202,anode,0.0157807555089723,0.0164584234204547,0.0150015123492156,5.295398597034381e-05,critical
1200,1.5151515151515151,0.2025316455696202,anode,0.0158113292542395,0.0165601817077951,0.0149372940657772,-4.638078466083595e-06,critical
1200,1.616161616161616,0.2025316455696202,anode,0.0156924036693011,0.0165460722529875,0.0146688656933923,-7.191852025461086e-05,critical
1200,1.7171717171717171,0.2025316455696202,anode,0.0154750567085938,0.0162455521759693,0.0145675842780533,3.3433520161693235e-05,critical
1200,1.818181818181818,0.2025316455696202,anode,0.0154519284775941,0.0161866520254322,0.0145937867770676,-1.0419268837211986e-05,critical
1200,1.9191919191919191,0.2025316455696202,anode,0.0153766145083234,0.0161486166978924,0.014464271936657,9.178442809825536e-05,critical
1200,2.0202020202020203,0.2025316455696202,anode,0.0153394352604365,0.0161447016568908,0.014381829982928,8.230345531755712e-06,critical
1200,2.121212121212121,0.2025316455696202,anode,0.0152257356599663,0.0159093121222924,0.0144343025737255,-5.016076088130568e-05,critical
1200,2.2222222222222223,0.2025316455696202,anode,0.0150477596928181,0.0158240881696254,0.0141273891416404,3.282680464511886e-05,critical
1200,2.323232323232323,0.2025316455696202,anode,0.0151754780676999,0.0160953424057272,0.014047148509584,-4.608420260121206e-05,critical
1200,2.4242424242424243,0.2025316455696202,anode,0.0149302743450818,0.0157800156762542,0.0139025339580169,4.4536950683721065e-05,high
1200,2.525252525252525,0.2025316455696202,anode,0.0148937492269259,0.0155815016610023,0.0140943720952367,1.5593550645103934e-05,high
1200,2.6262626262626263,0.2025316455696202,anode,0.0149128584729062,0.015504539878875,0.0142403896241305,-3.908600905319846e-05,high
1200,2.727272727272727,0.2025316455696202,anode,0.0147988807289579,0.0154505065903726,0.01404682347858,4.474305156065415e-05,high
1200,2.8282828282828283,0.2025316455696202,anode,0.0148701388443377,0.0155244008849345,0.0141155248249814,-1.8541964262869893e-05,high
1200,2.929292929292929,0.2025316455696202,anode,0.0147447109174767,0.0154492189137107,0.0139209805228944,3.0065867089640947e-05,high
1200,3.0303030303030303,0.2025316455696202,anode,0.0146904029190555,0.0153871485729163,0.013876778789987,2.979982093968774e-05,high
1200,3.131313131313131,0.2025316455696202,anode,0.0144475842917748,0.0151000872800463,0.0136912837907954,5.2865804061109126e-05,high
1200,3.2323232323232323,0.2025316455696202,anode,0.0146577689915558,0.0153257236841879,0.013882736261559,4.082149286842804e-05,high
1200,3.333333333333333,0.2025316455696202,anode,0.0146335110749842,0.0153576435791374,0.0137815731827113,3.24529778617801e-05,high
1200,3.4343434343434343,0.2025316455696202,anode,0.0146021334696476,0.0154153515079689,0.0136233841270021,2.5164294366174707e-05,high
1200,3.5353535353535355,0.2025316455696202,anode,0.0145453023690858,0.0152889041589391,0.0136648477098861,5.071053630187358e-05,high
1200,3.636363636363636,0.2025316455696202,anode,0.0145926053894854,0.0154598489791822,0.0135341297552059,6.719213917254025e-06,high
1200,3.7373737373737375,0.2025316455696202,anode,0.0145155659050558,0.0152406207505534,0.0136611825673781,-2.6621144883018063e-05,high
1200,3.8383838383838382,0.2025316455696202,anode,0.0145337301698553,0.0152071124227654,0.0137506204553545,-1.5412675263861423e-05,high
1200,3.939393939393939,0.2025316455696202,anode,0.0144256757880708,0.0150860488914161,0.0136577365540228,-7.908731317078035e-05,high
1200,4.040404040404041,0.2025316455696202,anode,0.0144551176114383,0.0152178231992568,0.0135471357394937,2.091277404562657e-05,high
1200,4.141414141414141,0.2025316455696202,anode,0.0145473871940099,0.0153129930681755,0.0136365175737847,-1.2919924404750512e-06,high
1200,4.242424242424242,0.2025316455696202,anode,0.0142784691321877,0.0150493814327289,0.0133562818050567,-3.7925375395857845e-05,high
1200,4.343434343434343,0.2025316455696202,anode,0.0143952146922926,0.0151181463253903,0.0135426457242225,1.0069776565440514e-05,high
1200,4.444444444444445,0.2025316455696202,anode,0.0144555587774613,0.0150948170633274,0.0137124136437862,-0.000148059565323,high
1200,4.545454545454545,0.2025316455696202,anode,0.0143948628581974,0.0150895205846591,0.0135810965736669,3.871863799098721e-05,high
1200,4.646464646464646,0.2025316455696202,anode,0.0144207576981895,0.0151590741922625,0.0135469450651184,6.998730148243454e-06,high
1200,4.747474747474747,0.2025316455696202,anode,0.0145019483393053,0.0152504715403236,0.0136140663009587,5.083587187658561e-05,high
1200,4.848484848484849,0.2025316455696202,anode,0.0143344407219355,0.0149982471956359,0.013559903489901,0.000104201254555,high
1200,4.94949494949495,0.2025316455696202,anode,0.0144242685879237,0.0150549231227317,0.0136975682527906,2.0615847279046035e-05,high
1200,5.05050505050505,0.2025316455696202,anode,0.0144243916065496,0.0152141173552167,0.013477055821801,-3.733440119900976e-05,high
1200,5.151515151515151,0.2025316455696202,anode,0.0143597868374855,0.0149511506621588,0.0136844836541289,9.235115193287467e-06,high
1200,5.252525252525253,0.2025316455696202,anode,0.0143582818847242,0.0150295110237121,0.0135754723141228,6.663161163062647e-05,high
1200,5.353535353535354,0.2025316455696202,anode,0.014345045207464,0.015127297200635,0.0134070740221484,5.279171788456315e-05,high
1200,5.454545454545454,0.2025316455696202,anode,0.0144412416564446,0.0152360752443307,0.013486040182967,6.4588151846834e-05,high
1200,5.555555555555555,0.2025316455696202,anode,0.014294950928033,0.0149266591627652,0.0135639854073691,-8.898540462079531e-05,high
1200,5.656565656565657,0.2025316455696202,anode,0.0144510991453314,0.0151704425358448,0.0136039397704832,2.9149300184591057e-05,high
1200,5.757575757575758,0.2025316455696202,anode,0.0143761086601004,0.0150646739169612,0.013570831247657,1.6194220355554263e-05,high
1200,5.858585858585858,0.2025316455696202,anode,0.0144727192041724,0.0151471326739183,0.0136872736287063,-4.26736948516672e-05,high
1200,5.959595959595959,0.2025316455696202,anode,0.014540384256928,0.015093331268061,0.0139157295920557,-2.091301137594436e-05,high
1200,6.0606060606060606,0.2025316455696202,anode,0.0144742058617426,0.0151973527030039,0.0136219075782122,3.499539523252523e-05,high
1200,6.161616161616162,0.2025316455696202,anode,0.0145090489652948,0.0152325637580895,0.0136568125747698,-2.0345418221882597e-05,high
1200,6.262626262626262,0.2025316455696202,anode,0.0146052733545563,0.0153976622628308,0.0136567984083365,-1.4529490654884312e-05,high
1200,6.363636363636363,0.2025316455696202,anode,0.0145074679720653,0.0151785672331321,0.0137272577359312,8.626170838616047e-06,high
1200,6.4646464646464645,0.2025316455696202,anode,0.0145891868044259,0.0152811042343166,0.0137804660548801,6.249929804829014e-05,high
1200,6.565656565656566,0.2025316455696202,anode,0.0146858637355018,0.0154568006299965,0.013769069859893,1.1413741912458691e-05,high
1200,6.666666666666667,0.2025316455696202,anode,0.0145951448994655,0.0153272081283057,0.0137319911620974,1.225982048814225e-05,high
1200,6.767676767676767,0.2025316455696202,anode,0.0144737540159073,0.0151316069463088,0.0137111591111457,-2.066592595625081e-06,high
1200,6.8686868686868685,0.2025316455696202,anode,0.014633651264058,0.0153984548677739,0.0137247831926592,-2.656990679121908e-05,high
1200,6.96969696969697,0.2025316455696202,anode,0.0147996870379522,0.015500239720353,0.0139819048927631,2.8972329624547285e-05,high
1200,7.070707070707071,0.2025316455696202,anode,0.0145931426144904,0.0152247165479592,0.0138637384978098,0.0001096375691143,high
1200,7.171717171717171,0.2025316455696202,anode,0.0147504532032963,0.0155520186996024,0.0137906953922864,-1.2346232649530866e-05,high
1200,7.272727272727272,0.2025316455696202,anode,0.0148394131560191,0.0155558365530177,0.0140004691012153,-1.4024771983963172e-06,high
1200,7.373737373737374,0.2025316455696202,anode,0.0150033837595916,0.015655298768628,0.0142528758234655,-2.383828818917457e-05,critical
1200,7.474747474747475,0.2025316455696202,anode,0.0148318518283167,0.0154993809832819,0.0140588500971916,4.173559687330286e-05,high
1200,7.575757575757575,0.2025316455696202,anode,0.014993091813889,0.0156295361974649,0.0142627216938445,-4.03949835498834e-05,high
1200,7.6767676767676765,0.2025316455696202,anode,0.014886423069365,0.0156722920797288,0.0139499907773447,-6.038777983083921e-05,high
1200,7.777777777777778,0.2025316455696202,anode,0.015233761116035,0.0160956411328565,0.0141918756941114,7.26101924323744e-05,critical
1200,7.878787878787879,0.2025316455696202,anode,0.015087744935693,0.0158535272292457,0.0141828650608757,-1.28806366132995e-05,critical
1200,7.979797979797979,0.2025316455696202,anode,0.0152900150408866,0.0160501750254607,0.0143951731212282,1.2656092166979752e-05,critical
1200,8.080808080808081,0.2025316455696202,anode,0.0152435992650344,0.0159194171876157,0.0144632781279132,-2.528042727349524e-06,critical
1200,8.181818181818182,0.2025316455696202,anode,0.0153514537550877,0.0161102009230192,0.0144592550785978,-1.378403550575456e-06,critical
1200,8.282828282828282,0.2025316455696202,anode,0.0155671636624624,0.0163031060515365,0.0147065736911512,-9.099152810240824e-05,critical
1200,8.383838383838384,0.2025316455696202,anode,0.0155786068835169,0.016263755919458,0.0147884699727426,-1.2352431137817038e-05,critical
1200,8.484848484848484,0.2025316455696202,anode,0.0156933450732005,0.0163606866757306,0.0149238260230816,-0.0001322491142514,critical
1200,8.585858585858587,0.2025316455696202,anode,0.0157224871139889,0.0164619838436461,0.0148603711975854,9.081414947043177e-06,critical
1200,8.686868686868687,0.2025316455696202,anode,0.0157830262706116,0.0165378160463751,0.014900558700359,-1.4234546959072904e-05,critical
1200,8.787878787878787,0.2025316455696202,anode,0.0159093655124691,0.0167478012853298,0.0149114937427921,1.9592063351843534e-05,critical
1200,8.88888888888889,0.2025316455696202,anode,0.0160278096539272,0.016800882721714,0.0151215465210824,7.113966574030832e-05,critical
1200,8.98989898989899,0.2025316455696202,anode,0.016206209337653,0.0170508827280366,0.015202931273304,3.108189867671026e-05,critical
1200,9.09090909090909,0.2025316455696202,anode,0.016267744444533,0.0169694954667091,0.015460329240679,-5.144463468066726e-05,critical
1200,9.191919191919192,0.2025316455696202,anode,0.0165226163810901,0.0172794260519792,0.0156438149884927,-4.275613470078508e-05,critical
1200,9.292929292929292,0.2025316455696202,anode,0.016551774775351,0.0173690820799089,0.0155908437264806,-1.254581028983313e-05,critical
1200,9.393939393939394,0.2025316455696202,anode,0.0168685652494192,0.0176250691956341,0.0159933453619784,-2.6784510756435243e-05,critical
1200,9.494949494949497,0.2025316455696202,anode,0.0169604974428475,0.0177992073647133,0.0159740892949619,2.073416529027494e-05,critical
1200,9.595959595959595,0.2025316455696202,anode,0.0169586632133827,0.0176697426434622,0.0161431297040962,-8.31937235065619e-05,critical
1200,9.696969696969695,0.2025316455696202,anode,0.0172111836762169,0.0181482285573036,0.0160884859793653,3.993058396698435e-05,critical
1200,9.797979797979798,0.2025316455696202,anode,0.0175447635138791,0.0184373949825849,0.0164878051914202,-9.246565849247037e-05,critical
1200,9.8989898989899,0.2025316455696202,anode,0.017661148234025,0.0184739936648533,0.0167169137724129,-1.4922782706992597e-05,critical
1200,10.0,0.2025316455696202,anode,0.01786398462673,0.0188909752466701,0.0166192590422385,-4.912923651675416e-05,critical
1200,0.0,0.3037974683544304,anode,0.0179307556291883,0.0187599076695285,0.016966305759328,-5.37279672955861e-05,critical
1200,0.101010101010101,0.3037974683544304,anode,0.0177089005277872,0.0185346333698111,0.0167426411905618,0.000158330691074,critical
1200,0.202020202020202,0.3037974683544304,anode,0.0173567863945645,0.0181685113746332,0.016411345346068,1.513166134865274e-05,critical
1200,0.303030303030303,0.3037974683544304,anode,0.0172055007913737,0.0181092642805002,0.0161306409462462,9.43881480734167e-06,critical
1200,0.404040404040404,0.3037974683544304,anode,0.0170726958277075,0.0179275758963339,0.0160646441576261,4.582858968588154e-05,critical
1200,0.5050505050505051,0.3037974683544304,anode,0.0169816852412256,0.0177634259115331,0.0160702733219413,0.000126172379476,critical
1200,0.6060606060606061,0.3037974683544304,anode,0.0166633451174495,0.0174560532048178,0.0157374196089389,-6.70984763537397e-06,critical
1200,0.7070707070707071,0.3037974683544304,anode,0.0165417679655177,0.0173994688850208,0.015524244651695,1.7999219720799752e-06,critical
1200,0.8080808080808081,0.3037974683544304,anode,0.0165538105978306,0.0174048803418822,0.0155446421840297,7.19308336958691e-05,critical
1200,0.9090909090909092,0.3037974683544304,anode,0.0164033332357559,0.0171303580463196,0.0155633800087743,-5.049459333830952e-05,critical
1200,1.0101010101010102,0.3037974683544304,anode,0.0161677994388275,0.016808056178511,0.0154405839334296,-2.2775505714740864e-05,critical
1200,1.1111111111111112,0.3037974683544304,anode,0.0159082565389573,0.0166778834998768,0.0150059966027819,-5.524844448643936e-05,critical
1200,1.2121212121212122,0.3037974683544304,anode,0.0159936366928943,0.016741723082914,0.0151223355688121,-3.842026987594982e-06,critical
1200,1.3131313131313131,0.3037974683544304,anode,0.0158914973289976,0.0166782673819778,0.0149660614464198,4.609167676980767e-06,critical
1200,1.414141414141414,0.3037974683544304,anode,0.0157896020577899,0.0165173658634691,0.0149436827238234,-3.99150028804512e-05,critical
1200,1.5151515151515151,0.3037974683544304,anode,0.0156376628166552,0.0162733516994954,0.0149130464688294,1.651210307007841e-05,critical
1200,1.616161616161616,0.3037974683544304,anode,0.0155707089721999,0.0163194689586619,0.0146932678644992,7.330093744478543e-05,critical
1200,1.7171717171717171,0.3037974683544304,anode,0.0156550203883429,0.0165224551007299,0.0146114114532515,6.106237855580318e-05,critical
1200,1.818181818181818,0.3037974683544304,anode,0.0152815616608384,0.0159752019882929,0.0144772800603409,4.0346361815979687e-05,critical
1200,1.9191919191919191,0.3037974683544304,anode,0.0152983277272577,0.0161191555072894,0.014316896967206,6.9298410387059e-05,critical
1200,2.0202020202020203,0.3037974683544304,anode,0.0152982889424485,0.0161166913413821,0.0143212546598006,3.060890794105848e-05,critical
1200,2.121212121212121,0.3037974683544304,anode,0.0152472427098952,0.0159608242527753,0.0144151777672348,6.128697752118006e-05,critical
1200,2.2222222222222223,0.3037974683544304,anode,0.0150334475305115,0.0157523294818602,0.0141928048820712,-2.993827626883248e-05,critical
1200,2.323232323232323,0.3037974683544304,anode,0.0150373018542753,0.0157596461802555,0.0141919282496333,3.1303443923104346e-05,critical
1200,2.4242424242424243,0.3037974683544304,anode,0.0150150117636476,0.0157799126283387,0.0141100271067351,-4.853067566807268e-05,critical
1200,2.525252525252525,0.3037974683544304,anode,0.0149674021845791,0.0155597711314625,0.0142945988730826,-2.4361378864900216e-05,high
1200,2.6262626262626263,0.3037974683544304,anode,0.0149411954455538,0.0156623141468988,0.0140958554423232,6.274913587478156e-05,high
1200,2.727272727272727,0.3037974683544304,anode,0.0147360578660032,0.0154327738817547,0.0139218068236248,-7.367325378410332e-05,high
1200,2.8282828282828283,0.3037974683544304,anode,0.0148106437095424,0.015494812417627,0.014014979385251,4.391156234164175e-05,high
1200,2.929292929292929,0.3037974683544304,anode,0.0148187023097068,0.0156669063003702,0.0137920455999398,-7.056746208755257e-06,high
1200,3.0303030303030303,0.3037974683544304,anode,0.0147209930229058,0.0153557167085739,0.0139912112468009,-1.510087794471208e-05,high
1200,3.131313131313131,0.3037974683544304,anode,0.0147912532166299,0.0155856509540732,0.013842048596258,3.5045806640447634e-05,high
1200,3.2323232323232323,0.3037974683544304,anode,0.0144798821024073,0.0151033256962503,0.0137610490944549,-9.604309492036955e-05,high
1200,3.333333333333333,0.3037974683544304,anode,0.0144869630991461,0.0151741801028099,0.0136838957735091,5.553821073341623e-05,high
1200,3.4343434343434343,0.3037974683544304,anode,0.0145194124407789,0.0151325901568444,0.0138140650595636,0.0001036729584256,high
1200,3.5353535353535355,0.3037974683544304,anode,0.014501056746492,0.0152055584745918,0.013674624145359,-4.6867843403746646e-05,high
1200,3.636363636363636,0.3037974683544304,anode,0.0145008995110984,0.0151319773363495,0.0137743161385663,8.227403571798446e-06,high
1200,3.7373737373737375,0.3037974683544304,anode,0.0144752822243713,0.0151575149450621,0.0136795876091044,1.800590219381356e-05,high
1200,3.8383838383838382,0.3037974683544304,anode,0.0143675748386728,0.0151225624039526,0.0134695794150069,-9.978722108544626e-06,high
1200,3.939393939393939,0.3037974683544304,anode,0.0144171812581096,0.0151289552548004,0.0135799374313799,-4.240066657229869e-05,high
1200,4.040404040404041,0.3037974683544304,anode,0.0143954040238857,0.0150027279452254,0.01369921958085,3.086811467010528e-05,high
1200,4.141414141414141,0.3037974683544304,anode,0.014446846469596,0.0150412100008203,0.0137682169349182,-8.550151821052447e-06,high
1200,4.242424242424242,0.3037974683544304,anode,0.0144308201108054,0.0151676183173439,0.013559264401119,2.5593272964548246e-06,high
1200,4.343434343434343,0.3037974683544304,anode,0.014464092675029,0.0152010865395464,0.0135919641572002,-5.189307740992807e-05,high
1200,4.444444444444445,0.3037974683544304,anode,0.0143960948036692,0.0149879024299547,0.0137204422612563,-1.2116235065459624e-05,high
1200,4.545454545454545,0.3037974683544304,anode,0.0143586928751955,0.0150670735197445,0.0135248735820518,6.687259116267787e-05,high
1200,4.646464646464646,0.3037974683544304,anode,0.0142575794372323,0.0148554176759154,0.0135730776787204,1.2075809800982107e-05,high
1200,4.747474747474747,0.3037974683544304,anode,0.0143594924111151,0.0151060996228071,0.0134725732450538,-5.347978655079208e-05,high
1200,4.848484848484849,0.3037974683544304,anode,0.0143297982208698,0.0151607236591708,0.01332035947084,-5.7410007634820674e-05,high
1200,4.94949494949495,0.3037974683544304,anode,0.0143580962530456,0.0150612622153758,0.0135321273569447,-4.380312640779613e-05,high
1200,5.05050505050505,0.3037974683544304,anode,0.0143781975595781,0.0150274255775374,0.0136252661371169,6.79242623130583e-05,high
1200,5.151515151515151,0.3037974683544304,anode,0.0143225782225222,0.0150511584505451,0.0134612758716239,1.553743006642397e-05,high
1200,5.252525252525253,0.3037974683544304,anode,0.0142459094822372,0.0149718475209924,0.0133866938651219,5.681990428027263e-05,high
1200,5.353535353535354,0.3037974683544304,anode,0.0143115963240115,0.0150036488273763,0.0135006853702836,3.340640392440703e-05,high
1200,5.454545454545454,0.3037974683544304,anode,0.0143347270354309,0.0150257176619176,0.0135256976090075,1.8489346117847387e-05,high
1200,5.555555555555555,0.3037974683544304,anode,0.0142327286882736,0.0149553014955042,0.0133786772406273,2.9833584647249945e-05,high
1200,5.656565656565657,0.3037974683544304,anode,0.0144433565265511,0.0152115172343938,0.0135275646796942,-4.770815569075117e-06,high
1200,5.757575757575758,0.3037974683544304,anode,0.0144627448339943,0.015093272209487,0.0137357452560138,-5.990702417238024e-05,high
1200,5.858585858585858,0.3037974683544304,anode,0.0143480124868548,0.0151370594104612,0.0133999126637258,6.4574033579021e-05,high
1200,5.959595959595959,0.3037974683544304,anode,0.0142669165723133,0.014860053287197,0.0135879480503535,-5.484722972384327e-05,high
1200,6.0606060606060606,0.3037974683544304,anode,0.0143910759463122,0.015112519813608,0.0135397828243767,5.57645343886985e-05,high
1200,6.161616161616162,0.3037974683544304,anode,0.0145375542326933,0.0152508472018415,0.0136982845162814,-8.080447749173642e-05,high
1200,6.262626262626262,0.3037974683544304,anode,0.0145021279713974,0.0151802620549349,0.0137102859844309,-9.156411082026008e-05,high
1200,6.363636363636363,0.3037974683544304,anode,0.0144634731535076,0.0151974446739309,0.0135932503654513,0.0001094621929258,high
1200,6.4646464646464645,0.3037974683544304,anode,0.0144105391053978,0.0150838738518753,0.0136253272182527,6.72360892689035e-05,high
1200,6.565656565656566,0.3037974683544304,anode,0.0145782351804686,0.0152440249836084,0.0138006887565224,0.0001456906736922,high
1200,6.666666666666667,0.3037974683544304,anode,0.0146683593834587,0.0153824676000974,0.0138305391149921,3.8579576520540696e-05,high
1200,6.767676767676767,0.3037974683544304,anode,0.0146079775751488,0.0153380338476325,0.013747793692745,2.588193863470732e-06,high
1200,6.8686868686868685,0.3037974683544304,anode,0.014718628532717,0.0153875672268916,0.0139427788742981,-4.149394484659271e-05,high
1200,6.96969696969697,0.3037974683544304,anode,0.014866310420228,0.0155671854796947,0.0140480571819464,-5.978557475206458e-05,high
1200,7.070707070707071,0.3037974683544304,anode,0.0148651342013729,0.0155775031539634,0.014031203721615,5.788685223127124e-05,high
1200,7.171717171717171,0.3037974683544304,anode,0.0148171429753848,0.0155947058005696,0.0138921373891353,-4.159820798861361e-05,high
1200,7.272727272727272,0.3037974683544304,anode,0.0148860769903784,0.0156935259311413,0.0139192805803128,-3.9794759140963794e-05,high
1200,7.373737373737374,0.3037974683544304,anode,0.0147671583721556,0.0154981290101738,0.0139068772354419,4.584995168368184e-05,high
1200,7.474747474747475,0.3037974683544304,anode,0.015002952852907,0.0157617659654966,0.0141069249311396,-3.92428796287043e-06,critical
1200,7.575757575757575,0.3037974683544304,anode,0.0150610818640016,0.0158117267689986,0.0141770111085015,-1.698602170883578e-05,critical
1200,7.6767676767676765,0.3037974683544304,anode,0.0150565346288917,0.0158120428666231,0.0141656847166821,-1.0422697864127196e-05,critical
1200,7.777777777777778,0.3037974683544304,anode,0.0152437388935559,0.0159048077111809,0.014482774374511,-3.490507743824595e-05,critical
1200,7.878787878787879,0.3037974683544304,anode,0.015253438843296,0.0159608293481418,0.0144307080479796,-4.352252381164257e-06,critical
1200,7.979797979797979,0.3037974683544304,anode,0.0151809727966634,0.0158519976827264,0.014406551419019,-3.8357964461902425e-07,critical
1200,8.080808080808081,0.3037974683544304,anode,0.0154190115621517,0.0161320789128072,0.0145897524425901,-3.700851636658117e-05,critical
1200,8.181818181818182,0.3037974683544304,anode,0.0154162627174859,0.0161683442120215,0.0145339088818745,-1.3363854323316962e-05,critical
1200,8.282828282828282,0.3037974683544304,anode,0.0153234434688455,0.0159606430406076,0.0145947776416483,9.920676046509646e-06,critical
1200,8.383838383838384,0.3037974683544304,anode,0.0155236137451612,0.0161694302192026,0.0147850455844299,1.00004465675207e-05,critical
1200,8.484848484848484,0.3037974683544304,anode,0.0156470130921133,0.0163482847892685,0.0148335819960707,0.0001017697340624,critical
1200,8.585858585858587,0.3037974683544304,anode,0.0157076885452901,0.0163781410707227,0.0149373804147156,5.527057287955801e-05,critical
1200,8.686868686868687,0.3037974683544304,anode,0.0159044340720877,0.0167126486863464,0.0149492205705712,-9.537700969525751e-06,critical
1200,8.787878787878787,0.3037974683544304,anode,0.0159418441596544,0.0166772138692846,0.015086318272828,-6.755263585703058e-05,critical
1200,8.88888888888889,0.3037974683544304,anode,0.0160122870746342,0.0168389488648517,0.015032222960226,2.7356374972595668e-05,critical
1200,8.98989898989899,0.3037974683544304,anode,0.0162529956139537,0.017003921345789,0.0153794557032925,5.7511400940328205e-05,critical
1200,9.09090909090909,0.3037974683544304,anode,0.016460010180188,0.0172266422587882,0.0155673665759135,-4.196993143459469e-05,critical
1200,9.191919191919192,0.3037974683544304,anode,0.0165034654718646,0.0172286368840018,0.0156646049421774,0.0001131167330193,critical
1200,9.292929292929292,0.3037974683544304,anode,0.0166324192622214,0.0174187899611003,0.0157148046451361,1.7541987154440768e-05,critical
1200,9.393939393939394,0.3037974683544304,anode,0.0166887117547446,0.0173673736695142,0.0159149140993611,-3.266572206583731e-05,critical
1200,9.494949494949497,0.3037974683544304,anode,0.0168294812574128,0.0176880024895365,0.0158130423653717,7.031168836284653e-05,critical
1200,9.595959595959595,0.3037974683544304,anode,0.017060021666528,0.0178303055206452,0.0161671654308755,-6.533316891240053e-05,critical
1200,9.696969696969695,0.3037974683544304,anode,0.017264827315817,0.0181319781213472,0.016240036291264,0.0001013831568487,critical
1200,9.797979797979798,0.3037974683544304,anode,0.017335897593789,0.0181376720949747,0.0164016868204218,-0.0001021162011268,critical
1200,9.8989898989899,0.3037974683544304,anode,0.0176391870474032,0.0184646276302,0.0166777083153675,7.42265009359487e-06,critical
1200,10.0,0.3037974683544304,anode,0.0177957290966738,0.0187271155338654,0.0166887373062445,1.8944084334596608e-05,critical
1200,0.0,0.4050632911392405,anode,0.0179295625388274,0.0186915686006235,0.0170550985730413,3.930103539432122e-05,critical
1200,0.101010101010101,0.4050632911392405,anode,0.017488427903792,0.0182055530379619,0.0166699920462252,-1.569125903993465e-05,critical
1200,0.202020202020202,0.4050632911392405,anode,0.0174786177581179,0.0182590832134174,0.0165761196714113,4.067765483240024e-05,critical
1200,0.303030303030303,0.4050632911392405,anode,0.0172680677966672,0.0182227084843434,0.0161210391784107,7.168122458869055e-06,critical
1200,0.404040404040404,0.4050632911392405,anode,0.0170991369715089,0.0179522390930472,0.0160942477795674,-1.3775436083628671e-05,critical
1200,0.5050505050505051,0.4050632911392405,anode,0.0169844271946529,0.0177324643952235,0.0161214752681433,2.5787413386511795e-05,critical
1200,0.6060606060606061,0.4050632911392405,anode,0.0167372474509388,0.0174959321019312,0.0158578076187212,4.0311407945661234e-05,critical
1200,0.7070707070707071,0.4050632911392405,anode,0.0166087732089827,0.0173830602244315,0.0157071870099282,3.567784719244769e-05,critical
1200,0.8080808080808081,0.4050632911392405,anode,0.0164262920744839,0.0173015548042198,0.0153807001017098,-8.824736275058518e-05,critical
1200,0.9090909090909092,0.4050632911392405,anode,0.0163694282905091,0.0172174251154409,0.0153635750091375,-8.565749536005396e-06,critical
1200,1.0101010101010102,0.4050632911392405,anode,0.0162384390907922,0.01705683005252,0.0152724252295163,3.484204037149755e-05,critical
1200,1.1111111111111112,0.4050632911392405,anode,0.016006790590408,0.0168128664228783,0.015054984916416,5.700063234214239e-05,critical
1200,1.2121212121212122,0.4050632911392405,anode,0.0159022912611191,0.0166394088697616,0.0150449479212887,2.252221618128551e-05,critical
1200,1.3131313131313131,0.4050632911392405,anode,0.0158331765260603,0.0165687489694846,0.0149772614192778,-2.6842606462449427e-05,critical
1200,1.414141414141414,0.4050632911392405,anode,0.0159022004045516,0.0166741140148853,0.0149971740957358,3.296179960216433e-05,critical
1200,1.5151515151515151,0.4050632911392405,anode,0.0157423669520963,0.0166380126645139,0.0146587851155436,-6.251177234976487e-05,critical
1200,1.616161616161616,0.4050632911392405,anode,0.0154869793329344,0.0162480774282949,0.0145924290783106,-4.63316617366529e-05,critical
1200,1.7171717171717171,0.4050632911392405,anode,0.0154854619852452,0.0162572781037689,0.0145762972623643,3.1187550104027134e-05,critical
1200,1.818181818181818,0.4050632911392405,anode,0.0153712891030039,0.0160808034633286,0.0145467307909138,3.2063085115013717e-06,critical
1200,1.9191919191919191,0.4050632911392405,anode,0.0153780848922679,0.0161556728705884,0.0144594399556779,-4.58513406814416e-05,critical
1200,2.0202020202020203,0.4050632911392405,anode,0.0152383747373368,0.0159778773576922,0.0143715645062028,1.5583542312162587e-05,critical
1200,2.121212121212121,0.4050632911392405,anode,0.0152844463268445,0.0161421509157474,0.0142499447340968,-5.5066158579485085e-05,critical
1200,2.2222222222222223,0.4050632911392405,anode,0.0151610469094619,0.0159179565985753,0.0142692764416662,2.2166337858879024e-05,critical
1200,2.323232323232323,0.4050632911392405,anode,0.0151760741769013,0.0158843724327162,0.0143501785503449,7.279190534853806e-05,critical
1200,2.4242424242424243,0.4050632911392405,anode,0.0149239860490283,0.0156249668487488,0.0141069702324782,-5.877806409086943e-06,high
1200,2.525252525252525,0.4050632911392405,anode,0.0149292485705001,0.01562740140859,0.0141151661177556,6.387600967985209e-05,high
1200,2.6262626262626263,0.4050632911392405,anode,0.0149397882124951,0.0157258486958741,0.0140037671246049,-5.939675161983684e-05,high
1200,2.727272727272727,0.4050632911392405,anode,0.0148376122458665,0.015606377283772,0.0139256376305368,-1.911890410167875e-05,high
1200,2.8282828282828283,0.4050632911392405,anode,0.0147904763905924,0.0155469152037813,0.013895185447877,3.00598024632056e-05,high
1200,2.929292929292929,0.4050632911392405,anode,0.0147813038418766,0.0155105774136195,0.0139240061586486,1.0946648505987326e-05,high
1200,3.0303030303030303,0.4050632911392405,anode,0.0147072441505355,0.0154483588272866,0.0138325979151291,2.168772090728268e-05,high
1200,3.131313131313131,0.4050632911392405,anode,0.0146382393112873,0.0153307230055732,0.0138297770547227,3.97078176948329e-05,high
1200,3.2323232323232323,0.4050632911392405,anode,0.0145616259876157,0.0152393249972111,0.0137727590003049,2.93545340789006e-05,high
1200,3.333333333333333,0.4050632911392405,anode,0.0146188303096198,0.0153329129503613,0.0137791630034143,-8.436797107559255e-05,high
1200,3.4343434343434343,0.4050632911392405,anode,0.0144910472969143,0.0151090485740068,0.0137812048149324,4.615104095972403e-05,high
1200,3.5353535353535355,0.4050632911392405,anode,0.0145752669749363,0.0153046725069751,0.0137145389050523,-6.672329106680668e-05,high
1200,3.636363636363636,0.4050632911392405,anode,0.014646140885284,0.0152332479113008,0.0139781160875048,2.5685550926920318e-05,high
1200,3.7373737373737375,0.4050632911392405,anode,0.0145948745993296,0.0152962046199454,0.0137732910516352,-6.329986239304903e-05,high
1200,3.8383838383838382,0.4050632911392405,anode,0.0143448607585874,0.0150597806505544,0.0135027654344069,2.612905082697895e-05,high
1200,3.939393939393939,0.4050632911392405,anode,0.0144305876994345,0.0152142786730064,0.0134922567071661,-2.2717318425286037e-05,high
1200,4.040404040404041,0.4050632911392405,anode,0.0144302389561658,0.0151469044590098,0.0135864418673504,3.748746203711148e-05,high
1200,4.141414141414141,0.4050632911392405,anode,0.0142335650640635,0.0148684365656424,0.0134993834113869,4.219781297420434e-05,high
1200,4.242424242424242,0.4050632911392405,anode,0.0144075324587039,0.0151932380743666,0.0134632762825653,0.0001056123817329,high
1200,4.343434343434343,0.4050632911392405,anode,0.0143325027884671,0.0150764577147543,0.0134492842123376,4.233931753917727e-05,high
1200,4.444444444444445,0.4050632911392405,anode,0.0144291304314357,0.0151882303499487,0.0135257866206189,-3.3281606434433285e-05,high
1200,4.545454545454545,0.4050632911392405,anode,0.0143283581334234,0.0149602822791973,0.0135993163464002,1.547380202274759e-06,high
1200,4.646464646464646,0.4050632911392405,anode,0.0143084195654963,0.0150001021193088,0.0134956092682197,-0.0001030445497731,high
1200,4.747474747474747,0.4050632911392405,anode,0.0143708167325118,0.0150582037453368,0.0135668222781466,3.733112042212571e-05,high
1200,4.848484848484849,0.4050632911392405,anode,0.0143002726182489,0.0150702205652732,0.0133774836240663,-0.0001013406484813,high
1200,4.94949494949495,0.4050632911392405,anode,0.0143415821047442,0.0150517664700436,0.0135061081320789,1.94254660263981e-05,high
1200,5.05050505050505,0.4050632911392405,anode,0.0142013354141037,0.0147673759343486,0.0135574774877917,4.361387090903051e-05,high
1200,5.151515151515151,0.4050632911392405,anode,0.0143366355592384,0.0150331434174871,0.0135199001800497,-2.9527760794312996e-05,high
1200,5.252525252525253,0.4050632911392405,anode,0.0142650274499805,0.0149896161640637,0.0134083651593511,-3.832441569649008e-05,high
1200,5.353535353535354,0.4050632911392405,anode,0.0141681388258335,0.0147905913044488,0.0134504466003209,-6.094599552360719e-06,high
1200,5.454545454545454,0.4050632911392405,anode,0.0143727460395696,0.0151251614921517,0.0134780447400737,4.176055127542974e-05,high
1200,5.555555555555555,0.4050632911392405,anode,0.0143903628951161,0.015095523299764,0.0135623040426302,2.384875036142277e-05,high
1200,5.656565656565657,0.4050632911392405,anode,0.014484361638304,0.0152357375619818,0.0135928361089187,-1.5526388062228625e-05,high
1200,5.757575757575758,0.4050632911392405,anode,0.0143404514039183,0.0150839013232559,0.0134581071683518,3.906963356551106e-05,high
1200,5.858585858585858,0.4050632911392405,anode,0.0145527647045772,0.0151873137124739,0.0138190762496011,-0.0001099099217409,high
1200,5.959595959595959,0.4050632911392405,anode,0.0144034028603098,0.0150394260490734,0.0136684703198426,-6.466778085402705e-05,high
1200,6.0606060606060606,0.4050632911392405,anode,0.0145041043707945,0.0152080842185525,0.0136788346752,2.2874155413899328e-05,high
1200,6.161616161616162,0.4050632911392405,anode,0.0145289890544186,0.0153432770401496,0.0135458090914446,-8.856314843215236e-05,high
1200,6.262626262626262,0.4050632911392405,anode,0.014466975117096,0.0151154811488552,0.0137167816675144,-2.044571099634001e-05,high
1200,6.363636363636363,0.4050632911392405,anode,0.0144527945940763,0.0150458057823309,0.0137759792759204,5.875805370681114e-06,high
1200,6.4646464646464645,0.4050632911392405,anode,0.0146819808769723,0.0154670414066279,0.013744307070676,5.471840628420564e-05,high
1200,6.565656565656566,0.4050632911392405,anode,0.0145720523100864,0.0152231822206837,0.0138163100286442,0.0001113762087838,high
1200,6.666666666666667,0.4050632911392405,anode,0.0146483832690836,0.0154805869270897,0.013641045552687,-8.129878036782274e-05,high
1200,6.767676767676767,0.4050632911392405,anode,0.0146831942338964,0.0154098438180631,0.013828379993648,-2.5749585448671194e-05,high
1200,6.8686868686868685,0.4050632911392405,anode,0.0147735859383251,0.0154194182267824,0.0140281853215371,7.495786560604646e-05,high
1200,6.96969696969697,0.4050632911392405,anode,0.014671975719891,0.0153188681156562,0.0139253892165723,3.599636568688019e-05,high
1200,7.070707070707071,0.4050632911392405,anode,0.014798041994006,0.0155191111832486,0.0139464492473583,0.0001552254387225,high
1200,7.171717171717171,0.4050632911392405,anode,0.0148392424489007,0.0154842840912604,0.014096034349157,5.440186361423152e-05,high
1200,7.272727272727272,0.4050632911392405,anode,0.0147473276905583,0.0154674330039333,0.0139012689387531,6.796605481654398e-05,high
1200,7.373737373737374,0.4050632911392405,anode,0.0149661672939083,0.015675478655022,0.0141381866381377,-4.237028416504831e-06,high
1200,7.474747474747475,0.4050632911392405,anode,0.0148539494582578,0.0156830049242858,0.0138556037538918,-3.118530467098612e-05,high
1200,7.575757575757575,0.4050632911392405,anode,0.014880731441044,0.0155851712598138,0.0140576069319775,6.45598089199135e-05,high
1200,7.6767676767676765,0.4050632911392405,anode,0.0149807831587953,0.0157259866563493,0.014103443243772,1.479487531711485e-05,high
1200,7.777777777777778,0.4050632911392405,anode,0.0151869072078573,0.0158747347733659,0.0143898598930427,-2.6381192205809367e-05,critical
1200,7.878787878787879,0.4050632911392405,anode,0.015192553651579,0.0160639681807395,0.0141373279402358,-7.249072395933099e-06,critical
1200,7.979797979797979,0.4050632911392405,anode,0.0152466763506134,0.0159973509098299,0.0143644101485313,2.6673655334473807e-05,critical
1200,8.080808080808081,0.4050632911392405,anode,0.015472870484088,0.0163434046666112,0.0144221764174348,-6.093074903802193e-05,critical
1200,8.181818181818182,0.4050632911392405,anode,0.0154339217041613,0.0162023204193509,0.0145288311667821,-3.913655095628928e-05,critical
1200,8.282828282828282,0.4050632911392405,anode,0.015469561065557,0.0162715129392311,0.0145175809899707,5.175375579178992e-05,critical
1200,8.383838383838384,0.4050632911392405,anode,0.0154676405911854,0.0161965376306974,0.0146173828649467,-3.25783643464172e-05,critical
1200,8.484848484848484,0.4050632911392405,anode,0.0156444735783231,0.0164125454364841,0.014742058345828,-3.796487235255689e-05,critical
1200,8.585858585858587,0.4050632911392405,anode,0.0158138653452342,0.0165847223060207,0.0149095840915344,1.7675436867595396e-05,critical
1200,8.686868686868687,0.4050632911392405,anode,0.0157645989874219,0.0165533957461579,0.0148349284923483,1.8342409980973133e-05,critical
1200,8.787878787878787,0.4050632911392405,anode,0.0161235434348571,0.0168522581257025,0.0152794517124584,-2.358392549721452e-05,critical
1200,8.88888888888889,0.4050632911392405,anode,0.0162254241716582,0.0169935159385776,0.015328888977597,2.3716868291368745e-05,critical
1200,8.98989898989899,0.4050632911392405,anode,0.0162256915722938,0.0170398999173767,0.0152642869836721,-7.819462253220415e-05,critical
1200,9.09090909090909,0.4050632911392405,anode,0.0163264169839369,0.0170639170110886,0.0154718891462611,-4.584908008602946e-05,critical
1200,9.191919191919192,0.4050632911392405,anode,0.0164540410429047,0.0171622778099402,0.0156397262830205,-3.640580927185246e-05,critical
1200,9.292929292929292,0.4050632911392405,anode,0.0166933173483696,0.0176138039448123,0.0155868684270338,6.911804584919717e-05,critical
1200,9.393939393939394,0.4050632911392405,anode,0.016719152712307,0.0176028599897782,0.0156665814512495,3.7652064450638055e-05,critical
1200,9.494949494949497,0.4050632911392405,anode,0.0170098282904787,0.017790672336359,0.0161030906310336,-2.2490294266168896e-05,critical
1200,9.595959595959595,0.4050632911392405,anode,0.0170542588231769,0.0178492235607109,0.016128619338786,3.620688610498513e-05,critical
1200,9.696969696969695,0.4050632911392405,anode,0.0172794673794063,0.0181803240024765,0.0162086399794357,6.862595140181531e-05,critical
1200,9.797979797979798,0.4050632911392405,anode,0.0173855549661184,0.0181796458407926,0.0164632169744054,-7.289131576333543e-05,critical
1200,9.8989898989899,0.4050632911392405,anode,0.0175257603678227,0.0184506165378792,0.016424306950934,5.084773377690085e-05,critical
1200,10.0,0.4050632911392405,anode,0.0177857216787639,0.0185612230675279,0.0168921615762378,4.813267591420014e-05,critical
1200,0.0,0.5063291139240507,anode,0.0178230611076943,0.0187527332918538,0.0167184859951773,4.485633889338861e-05,critical
1200,0.101010101010101,0.5063291139240507,anode,0.0175808950210765,0.0184072400289385,0.0166175593653451,2.242715192522834e-05,critical
1200,0.202020202020202,0.5063291139240507,anode,0.0173395456567774,0.0181372738586035,0.016412867887146,-2.3006917961031257e-05,critical
1200,0.303030303030303,0.5063291139240507,anode,0.01718034137305,0.0178817954108759,0.0163801315743735,3.1484390298866155e-05,critical
1200,0.404040404040404,0.5063291139240507,anode,0.0168941983065095,0.0177892305843723,0.0158270715029523,-6.440423769958814e-05,critical
1200,0.5050505050505051,0.5063291139240507,anode,0.01700847251887,0.0179039839605945,0.0159429568330698,4.711918766190512e-06,critical
1200,0.6060606060606061,0.5063291139240507,anode,0.0168568825440706,0.017702179104645,0.015855265489665,-0.000153459824978,critical
1200,0.7070707070707071,0.5063291139240507,anode,0.0166283029699938,0.0174390014072378,0.0156771367639597,2.990291245050468e-05,critical
1200,0.8080808080808081,0.5063291139240507,anode,0.0163749500352319,0.0172152050303475,0.0153793945076893,5.585304756395471e-05,critical
1200,0.9090909090909092,0.5063291139240507,anode,0.0163767029523618,0.0171844534863761,0.0154271597151809,-1.834520093694571e-05,critical
1200,1.0101010101010102,0.5063291139240507,anode,0.0162073523827491,0.0169786598560262,0.0153061562859745,3.152662382921102e-05,critical
1200,1.1111111111111112,0.5063291139240507,anode,0.0161671773564299,0.0169912873403136,0.0151917487228449,6.302562124199554e-05,critical
1200,1.2121212121212122,0.5063291139240507,anode,0.0160978132687732,0.0169707404366046,0.0150530552559493,1.3929077534337549e-05,critical
1200,1.3131313131313131,0.5063291139240507,anode,0.0158993868240228,0.016621794018173,0.0150619889636638,8.784718191411138e-06,critical
1200,1.414141414141414,0.5063291139240507,anode,0.01572557482066,0.0165616575212366,0.0147287136668123,2.6512818299442787e-05,critical
1200,1.5151515151515151,0.5063291139240507,anode,0.0156794552026206,0.0163509156346351,0.0149082656113992,9.71409152015586e-06,critical
1200,1.616161616161616,0.5063291139240507,anode,0.0155563837729135,0.0163483217606871,0.0146199442760315,2.7289881046530107e-05,critical
1200,1.7171717171717171,0.5063291139240507,anode,0.015576694540188,0.0163344404048144,0.0146873415147301,-6.047965798504517e-05,critical
1200,1.818181818181818,0.5063291139240507,anode,0.0154414130323633,0.0161564316453561,0.014609652267241,4.025656624196025e-05,critical
1200,1.9191919191919191,0.5063291139240507,anode,0.0153446789535165,0.0160944634457062,0.0144647394321935,1.781182349035862e-05,critical
1200,2.0202020202020203,0.5063291139240507,anode,0.0151984658877971,0.0159201736981078,0.014355521374836,-3.0738876165168456e-05,critical
1200,2.121212121212121,0.5063291139240507,anode,0.0151408730695643,0.0157938794752,0.0143900279147932,-1.7044784090884487e-05,critical
1200,2.2222222222222223,0.5063291139240507,anode,0.0150648362063949,0.0156983623247913,0.0143383686412175,-6.000286072662602e-05,critical
1200,2.323232323232323,0.5063291139240507,anode,0.015142131410161,0.0158430685252406,0.0143268569038029,-3.591788476516366e-05,critical
1200,2.4242424242424243,0.5063291139240507,anode,0.0149956946599895,0.0156601106676438,0.0142280019040486,-5.1115646732952e-05,high
1200,2.525252525252525,0.5063291139240507,anode,0.014899825494055,0.0156043460498893,0.0140774624322368,3.573455141971901e-05,high
1200,2.6262626262626263,0.5063291139240507,anode,0.0149215384107755,0.015661635295521,0.0140498769660704,-5.91457019022425e-05,high
1200,2.727272727272727,0.5063291139240507,anode,0.0148600476771732,0.0156221156797468,0.0139571581507147,5.352321425679793e-05,high
1200,2.8282828282828283,0.5063291139240507,anode,0.0147485943971443,0.0154485652628355,0.0139306030562371,-5.476302244393686e-05,high
1200,2.929292929292929,0.5063291139240507,anode,0.0148309396882727,0.0155027932929309,0.0140522181555518,-3.6379643157192494e-05,high
1200,3.0303030303030303,0.5063291139240507,anode,0.0148737584486938,0.015547713948044,0.0140928825693607,-4.047958020074319e-06,high
1200,3.131313131313131,0.5063291139240507,anode,0.0146819411150615,0.0154696779631273,0.0137410596309743,-2.2406878243986252e-05,high
1200,3.2323232323232323,0.5063291139240507,anode,0.0147343290481476,0.0153780807557192,0.0139926836254996,1.301932542488568e-05,high
1200,3.333333333333333,0.5063291139240507,anode,0.0146119758641812,0.0153033619975791,0.0138014759363253,0.0001227389641499,high
1200,3.4343434343434343,0.5063291139240507,anode,0.0145266698211772,0.015126364731993,0.0138408019521547,-5.90082508998295e-05,high
1200,3.5353535353535355,0.5063291139240507,anode,0.0144479837555816,0.0150955641523522,0.0136987717307027,-2.8971613234445423e-05,high
1200,3.636363636363636,0.5063291139240507,anode,0.0144957792708442,0.0151625566155178,0.0137211132024752,3.00099737534347e-05,high
1200,3.7373737373737375,0.5063291139240507,anode,0.014394200748221,0.0150889310029695,0.0135795193250944,-6.894784729518512e-05,high
1200,3.8383838383838382,0.5063291139240507,anode,0.0144452341046827,0.0151359634187548,0.0136376647370891,-1.5218648483370346e-05,high
1200,3.939393939393939,0.5063291139240507,anode,0.0143414979187045,0.0149850471296367,0.0135959241089105,-6.667393920292125e-05,high
1200,4.040404040404041,0.5063291139240507,anode,0.0144107833069643,0.0150806709051272,0.013631307880006,1.585556532158063e-05,high
1200,4.141414141414141,0.5063291139240507,anode,0.0143532222700502,0.0150297254158467,0.0135639453984082,3.698459287641779e-05,high
1200,4.242424242424242,0.5063291139240507,anode,0.0144107524789462,0.0151919209032533,0.0134750336859722,5.898973534246455e-05,high
1200,4.343434343434343,0.5063291139240507,anode,0.0144289058776545,0.015092236230797,0.0136554405145592,-0.0001122628087594,high
1200,4.444444444444445,0.5063291139240507,anode,0.0144976773652759,0.0152240834154599,0.0136413564935876,-1.2587295339245185e-05,high
1200,4.545454545454545,0.5063291139240507,anode,0.0143274878068962,0.0150908475215573,0.0134170716413463,-1.1530166470772705e-05,high
1200,4.646464646464646,0.5063291139240507,anode,0.0142981481277557,0.0150819221729238,0.013358021988723,-1.3662845370854437e-05,high
1200,4.747474747474747,0.5063291139240507,anode,0.0144715123543307,0.0151680990575939,0.0136562158748785,-3.826282918799485e-06,high
1200,4.848484848484849,0.5063291139240507,anode,0.014273111424036,0.0149914546372272,0.0134252524696522,-3.940008933310381e-05,high
1200,4.94949494949495,0.5063291139240507,anode,0.0143810279688255,0.0150926005390091,0.0135440895719481,-1.3486426034283292e-05,high
1200,5.05050505050505,0.5063291139240507,anode,0.0143770221188535,0.0150909733719421,0.0135367843592986,1.7522447014305142e-06,high
1200,5.151515151515151,0.5063291139240507,anode,0.0143589365943722,0.0150875287138122,0.013496415332022,8.13725426053137e-05,high
1200,5.252525252525253,0.5063291139240507,anode,0.0143518215362863,0.0150982233462368,0.0134654148682828,4.031853445964817e-05,high
1200,5.353535353535354,0.5063291139240507,anode,0.0143545310518083,0.0150004281882259,0.0136070068506479,1.7863809707828185e-06,high
1200,5.454545454545454,0.5063291139240507,anode,0.0142957492620349,0.0149217430523342,0.0135735765702517,-5.619079723146748e-05,high
1200,5.555555555555555,0.5063291139240507,anode,0.0144309271447648,0.0151377383854035,0.0136010372050975,2.0532568036116824e-05,high
1200,5.656565656565657,0.5063291139240507,anode,0.0144196821574223,0.0151346717909261,0.0135779875352553,-4.313823460533656e-05,high
1200,5.757575757575758,0.5063291139240507,anode,0.0142622689042878,0.01507909177323,0.013273001304853,4.29989774000371e-05,high
1200,5.858585858585858,0.5063291139240507,anode,0.0144784130178843,0.015124531064409,0.013731497335961,2.1928134554346862e-05,high
1200,5.959595959595959,0.5063291139240507,anode,0.0145250607012565,0.015312051117239,0.0135833486823319,-3.953883495030467e-06,high
1200,6.0606060606060606,0.5063291139240507,anode,0.0143932391444995,0.0150927986274951,0.0135702623027057,-0.0001064267407243,high
1200,6.161616161616162,0.5063291139240507,anode,0.0145383829015927,0.0152367741269815,0.0137211772101877,-1.884561142307823e-05,high
1200,6.262626262626262,0.5063291139240507,anode,0.0145726912745222,0.0153241369703994,0.0136818462287739,3.524431317374679e-05,high
1200,6.363636363636363,0.5063291139240507,anode,0.0145710858661632,0.0151936797592474,0.0138562133077034,-1.692273645764677e-05,high
1200,6.4646464646464645,0.5063291139240507,anode,0.0144728718655797,0.0152134806762622,0.0135960024285928,4.18884788977875e-05,high
1200,6.565656565656566,0.5063291139240507,anode,0.0143929118440696,0.0150294266841565,0.0136580347931475,3.0348306732702065e-05,high
1200,6.666666666666667,0.5063291139240507,anode,0.0145733656037178,0.015230645794414,0.0138115883126237,5.730455235057e-05,high
1200,6.767676767676767,0.5063291139240507,anode,0.0145717408988701,0.015164289301164,0.0138961129629807,-2.9913579862415788e-05,high
1200,6.8686868686868685,0.5063291139240507,anode,0.014676298193327,0.0154148772213105,0.0138048506897104,-2.209665575223245e-05,high
1200,6.96969696969697,0.5063291139240507,anode,0.0147269932960226,0.01538997596123,0.0139596339757335,2.709951634036945e-06,high
1200,7.070707070707071,0.5063291139240507,anode,0.014678117078572,0.0153310083093346,0.0139238731870606,-5.039543059036046e-06,high
1200,7.171717171717171,0.5063291139240507,anode,0.0147496511474261,0.0154383013786386,0.0139472451806343,-4.894175028891112e-05,high
1200,7.272727272727272,0.5063291139240507,anode,0.0148907151004783,0.0156322203682943,0.0140176133176645,-2.572702886741995e-06,high
1200,7.373737373737374,0.5063291139240507,anode,0.0147770924630541,0.015386261758424,0.0140810628659571,3.6507626207982645e-05,high
1200,7.474747474747475,0.5063291139240507,anode,0.0149105788462629,0.0154877427614128,0.0142567682137886,-4.0433028905576463e-05,high
1200,7.575757575757575,0.5063291139240507,anode,0.0149701938505572,0.0157247726264216,0.0140792826516188,4.300475266139273e-05,high
1200,7.6767676767676765,0.5063291139240507,anode,0.0148931540726878,0.0155789410769463,0.0140964691919628,-9.172576393234407e-06,high
1200,7.777777777777778,0.5063291139240507,anode,0.0150638311572115,0.0158052766250962,0.0141911503883819,-7.863016428912938e-05,critical
1200,7.878787878787879,0.5063291139240507,anode,0.0151148371189751,0.0158950647503,0.0141900060682852,-1.8939809218105264e-06,critical
1200,7.979797979797979,0.5063291139240507,anode,0.0151692475038768,0.0157481870368487,0.0145145415330726,4.6453517808365193e-05,critical
1200,8.080808080808081,0.5063291139240507,anode,0.0154278988001139,0.016240392481686,0.014460798739061,3.678938590337577e-05,critical
1200,8.181818181818182,0.5063291139240507,anode,0.0155066542289587,0.0162651810487594,0.0146145351253345,8.875745028534329e-05,critical
1200,8.282828282828282,0.5063291139240507,anode,0.015534427800285,0.0163527466330603,0.0145601888202369,-4.511046848397111e-05,critical
1200,8.383838383838384,0.5063291139240507,anode,0.0156357927422456,0.0163336816124941,0.0148286240023738,4.75852306075385e-05,critical
1200,8.484848484848484,0.5063291139240507,anode,0.0156828518496119,0.0164551687867281,0.0147751798309935,2.1612282194980127e-05,critical
1200,8.585858585858587,0.5063291139240507,anode,0.0157532414002444,0.0164345406498958,0.0149672259562888,0.0001034711062688,critical
1200,8.686868686868687,0.5063291139240507,anode,0.0157949189777468,0.0164507644784471,0.015044789570257,3.834154852353882e-05,critical
1200,8.787878787878787,0.5063291139240507,anode,0.0160201127642179,0.0168136227948215,0.0150862365402426,4.419322970418912e-05,critical
1200,8.88888888888889,0.5063291139240507,anode,0.0159574331348859,0.0167883250656679,0.0149706377241063,3.5366792500484365e-05,critical
1200,8.98989898989899,0.5063291139240507,anode,0.0162386385050575,0.0170692024396347,0.0152548638306814,6.63249451211704e-05,critical
1200,9.09090909090909,0.5063291139240507,anode,0.016274478672046,0.0171099342216591,0.0152851775639193,-1.3372881482776684e-05,critical
1200,9.191919191919192,0.5063291139240507,anode,0.0164149879284249,0.0171045362038864,0.0156251854193746,2.44965886687306e-05,critical
1200,9.292929292929292,0.5063291139240507,anode,0.0167099921685256,0.0176193417092666,0.0156208804111339,-1.0968875601173666e-05,critical
1200,9.393939393939394,0.5063291139240507,anode,0.0164690837700245,0.017232724023606,0.0155780940298067,-0.0001153611405704,critical
1200,9.494949494949497,0.5063291139240507,anode,0.0169442498663385,0.0177739910049288,0.0159699666473962,-3.1917134945814525e-05,critical
1200,9.595959595959595,0.5063291139240507,anode,0.0170676349157964,0.0178502018837281,0.0161587301764487,4.650895285874388e-05,critical
1200,9.696969696969695,0.5063291139240507,anode,0.017185887910869,0.0180265091493168,0.0161991346675005,2.3068690521207342e-05,critical
1200,9.797979797979798,0.5063291139240507,anode,0.0173898614580672,0.0181889298579533,0.0164616977562243,-3.309061667790198e-05,critical
1200,9.8989898989899,0.5063291139240507,anode,0.0176611430349311,0.01845527237999,0.0167419190108321,-3.520428028989749e-05,critical
1200,10.0,0.5063291139240507,anode,0.0178628770491855,0.0187582099203785,0.0168061978980109,-7.710902354661691e-05,critical
1200,0.0,0.6075949367088608,anode,0.0177577973116347,0.0185193976464711,0.0168828518785679,-1.669296245874964e-05,critical
1200,0.101010101010101,0.6075949367088608,anode,0.017644730406398,0.0184435812784549,0.0167180119002137,-7.93938275847441e-05,critical
1200,0.202020202020202,0.6075949367088608,anode,0.017420279999292,0.0181861983755878,0.0165369409595115,-2.592562562634217e-05,critical
1200,0.303030303030303,0.6075949367088608,anode,0.0172215575951113,0.0180452031560528,0.0162583630000764,-3.551965416179588e-05,critical
1200,0.404040404040404,0.6075949367088608,anode,0.0170786342964282,0.0179912539415311,0.0159892457010593,-4.136300652048559e-05,critical
1200,0.5050505050505051,0.6075949367088608,anode,0.0169192545590105,0.0176838409444403,0.0160337560703641,9.399768634617756e-07,critical
1200,0.6060606060606061,0.6075949367088608,anode,0.0167820376746423,0.0175986543669412,0.0158232983995297,-7.334899179821168e-05,critical
1200,0.7070707070707071,0.6075949367088608,anode,0.0166538177951336,0.0175278111433691,0.0156137957862103,5.924129821111348e-05,critical
1200,0.8080808080808081,0.6075949367088608,anode,0.0164838312122921,0.017343600376842,0.0154610741647746,-8.581916190102431e-05,critical
1200,0.9090909090909092,0.6075949367088608,anode,0.0162482072323553,0.0168854881037942,0.0155247609344645,-5.625466813818203e-05,critical
1200,1.0101010101010102,0.6075949367088608,anode,0.0162547251611347,0.0169777685013651,0.0154193861505966,-1.5979308015525118e-05,critical
1200,1.1111111111111112,0.6075949367088608,anode,0.0160345630932779,0.0167834616163115,0.0151621831558936,3.9794177423730464e-05,critical
1200,1.2121212121212122,0.6075949367088608,anode,0.0159533158179993,0.0166503684981047,0.0151494876594555,6.080079379698874e-05,critical
1200,1.3131313131313131,0.6075949367088608,anode,0.015838052564822,0.0166820451987665,0.0148314661227721,5.095929708332159e-06,critical
1200,1.414141414141414,0.6075949367088608,anode,0.0157983265059927,0.0165368264691213,0.0149359830295022,0.0001010959398492,critical
1200,1.5151515151515151,0.6075949367088608,anode,0.0155817243246999,0.016388704175748,0.0146198811581514,0.000141998448149,critical
1200,1.616161616161616,0.6075949367088608,anode,0.015567189712961,0.0164155384058497,0.0145506473223774,-3.09130805298071e-05,critical
1200,1.7171717171717171,0.6075949367088608,anode,0.01542068491631,0.0161389863684188,0.0145836405825291,6.644850404463246e-05,critical
1200,1.818181818181818,0.6075949367088608,anode,0.0152626938902572,0.0160277191681079,0.0143608119844842,7.825504619278513e-06,critical
1200,1.9191919191919191,0.6075949367088608,anode,0.0152951425944146,0.0160749262120017,0.0143729927313712,-1.9839822208208675e-06,critical
1200,2.0202020202020203,0.6075949367088608,anode,0.0152489256901943,0.0160089068417601,0.0143536215444775,3.640120073760866e-05,critical
1200,2.121212121212121,0.6075949367088608,anode,0.0151284778501133,0.0158168005515384,0.014329688265705,-5.63259748161434e-05,critical
1200,2.2222222222222223,0.6075949367088608,anode,0.0151981990952762,0.0159800589195434,0.0142708339371535,7.080148891080369e-05,critical
1200,2.323232323232323,0.6075949367088608,anode,0.0150124862565846,0.0156422660100004,0.0142913618620511,1.3136410203929334e-05,critical
1200,2.4242424242424243,0.6075949367088608,anode,0.0149633628866514,0.0156453378518763,0.014172449218417,4.890137966623224e-06,high
1200,2.525252525252525,0.6075949367088608,anode,0.0150422796870883,0.0157496059440758,0.0142176750402804,-1.398290916831432e-05,critical
1200,2.6262626262626263,0.6075949367088608,anode,0.0148766754247382,0.0154590731732127,0.0142156853695326,5.2083675289202096e-05,high
1200,2.727272727272727,0.6075949367088608,anode,0.0149943501760084,0.0157023499791748,0.0141682407429034,-2.81147510380804e-05,high
1200,2.8282828282828283,0.6075949367088608,anode,0.0146273678588648,0.0152497481795558,0.0139111344413112,-9.435149953386033e-05,high
1200,2.929292929292929,0.6075949367088608,anode,0.0147747162908041,0.0155416977225962,0.0138644562959527,2.525754448078349e-05,high
1200,3.0303030303030303,0.6075949367088608,anode,0.0146686871031976,0.015316485624256,0.0139210373444356,2.4062897320446047e-05,high
1200,3.131313131313131,0.6075949367088608,anode,0.0146992482237809,0.0153440649505471,0.0139555889951596,3.902520881301594e-05,high
1200,3.2323232323232323,0.6075949367088608,anode,0.0146110935631114,0.0153712008125745,0.0137087656731053,7.625903764892962e-06,high
1200,3.333333333333333,0.6075949367088608,anode,0.0145521949848792,0.015180246183608,0.0138299751968386,1.548051496106532e-05,high
1200,3.4343434343434343,0.6075949367088608,anode,0.0144638541617709,0.0151711075438947,0.0136336389603812,-2.4931139234325213e-05,high
1200,3.5353535353535355,0.6075949367088608,anode,0.0145831543407619,0.0152806098266593,0.0137676590966339,-1.952547805228388e-05,high
1200,3.636363636363636,0.6075949367088608,anode,0.0145504465806988,0.0153070756980935,0.0136522666467679,-1.656994052359181e-05,high
1200,3.7373737373737375,0.6075949367088608,anode,0.0144540963581119,0.0150428024414299,0.013782349154122,-4.831678739491757e-05,high
1200,3.8383838383838382,0.6075949367088608,anode,0.0144095756951307,0.0151164859773928,0.0135788375386759,-4.899574785192861e-05,high
1200,3.939393939393939,0.6075949367088608,anode,0.0144489513705946,0.0150959359882697,0.0137006999225455,1.441070748814141e-05,high
1200,4.040404040404041,0.6075949367088608,anode,0.0145198423837608,0.0151743373868642,0.013762141115308,7.120171807192736e-06,high
1200,4.141414141414141,0.6075949367088608,anode,0.0143355592655633,0.0150626142359544,0.0134748241509638,8.38729578833489e-05,high
1200,4.242424242424242,0.6075949367088608,anode,0.0143687869894417,0.0150384128980847,0.0135889693481914,-3.92471914255354e-05,high
1200,4.343434343434343,0.6075949367088608,anode,0.0144356619474032,0.015093818290032,0.0136716118611583,5.428188526851787e-05,high
1200,4.444444444444445,0.6075949367088608,anode,0.0144160273602447,0.0151251098069218,0.0135796107677173,-0.0001157203153566,high
1200,4.545454545454545,0.6075949367088608,anode,0.0142601579083481,0.0148270385603516,0.0136156579494178,3.9896306846027e-05,high
1200,4.646464646464646,0.6075949367088608,anode,0.0143346481659929,0.0150409915587144,0.0135044308768923,1.904809090894296e-05,high
1200,4.747474747474747,0.6075949367088608,anode,0.014432636326518,0.0151345438444517,0.0136055824841988,-0.0001277808748967,high
1200,4.848484848484849,0.6075949367088608,anode,0.0143477872134907,0.015054092676746,0.0135178466943201,3.12403310512926e-06,high
1200,4.94949494949495,0.6075949367088608,anode,0.0143064990100771,0.0149790337637498,0.0135213442655881,6.92410445644492e-05,high
1200,5.05050505050505,0.6075949367088608,anode,0.0143733783884725,0.015084723004309,0.0135367067487795,-7.75187987737101e-06,high
1200,5.151515151515151,0.6075949367088608,anode,0.0143775126534059,0.0150764250966928,0.0135578174587511,3.30733998606567e-05,high
1200,5.252525252525253,0.6075949367088608,anode,0.0143655030032801,0.0149964692002258,0.0136380044819908,-1.0582687801157676e-05,high
1200,5.353535353535354,0.6075949367088608,anode,0.0143914291166921,0.0151195065734101,0.013530320232524,7.292255874957383e-05,high
1200,5.454545454545454,0.6075949367088608,anode,0.0143461173364684,0.0149397067609809,0.0136675647297178,3.330708284819057e-05,high
1200,5.555555555555555,0.6075949367088608,anode,0.0143751179558491,0.0150976809518843,0.0135226580560644,-2.910996582867904e-05,high
1200,5.656565656565657,0.6075949367088608,anode,0.0145328117939776,0.0152105514513207,0.0137436808756845,2.5457568465618627e-05,high
1200,5.757575757575758,0.6075949367088608,anode,0.0144995501241323,0.0151126400603691,0.0137963233323713,-4.240831372271454e-05,high
1200,5.858585858585858,0.6075949367088608,anode,0.0143961885411643,0.0151667909452174,0.0134762738158844,-1.376786300870819e-05,high
1200,5.959595959595959,0.6075949367088608,anode,0.0143738263994508,0.0151301646135717,0.013472571830127,-7.537012633226922e-05,high
1200,6.0606060606060606,0.6075949367088608,anode,0.0144901977388471,0.0150834530718139,0.013812838858977,4.495670183799462e-05,high
1200,6.161616161616162,0.6075949367088608,anode,0.0144571953918091,0.0152606994025304,0.0134900918078292,-4.9028395558827045e-05,high
1200,6.262626262626262,0.6075949367088608,anode,0.0146471530952514,0.0153606324488605,0.0138091451089598,7.018636655168665e-05,high
1200,6.363636363636363,0.6075949367088608,anode,0.0144209324186455,0.015102970085633,0.013624599788775,-4.3931954645326965e-05,high
1200,6.4646464646464645,0.6075949367088608,anode,0.0144641703018808,0.0151256833964656,0.0136952822528234,7.227657213074458e-05,high
1200,6.565656565656566,0.6075949367088608,anode,0.0145841524502433,0.0152639496353434,0.0137927055257377,-2.436515205622472e-05,high
1200,6.666666666666667,0.6075949367088608,anode,0.0146494994679546,0.0153572677287411,0.013820240448551,-3.7634902153394055e-05,high
1200,6.767676767676767,0.6075949367088608,anode,0.0146523739708405,0.0154356660266247,0.0137164820848078,6.691545484048723e-05,high
1200,6.8686868686868685,0.6075949367088608,anode,0.0145961011082925,0.0152605255372083,0.0138256458469838,-1.490326346403624e-05,high
1200,6.96969696969697,0.6075949367088608,anode,0.014759037445276,0.0155518333048827,0.0138119297471009,-1.9086426363932685e-05,high
1200,7.070707070707071,0.6075949367088608,anode,0.014728305241228,0.0155008180659834,0.0138071420497491,-0.0001039870287836,high
1200,7.171717171717171,0.6075949367088608,anode,0.0146788466682995,0.0153178537912121,0.0139429986669037,-2.2345080844019603e-05,high
1200,7.272727272727272,0.6075949367088608,anode,0.014777139883789,0.0155226003986791,0.0138972922301395,6.392449268096682e-06,high
1200,7.373737373737374,0.6075949367088608,anode,0.014782158425365,0.0155085910638325,0.0139266683939426,9.4381099486087e-05,high
1200,7.474747474747475,0.6075949367088608,anode,0.0148372150577555,0.0155257454337762,0.0140362113978856,2.305072499782904e-05,high
1200,7.575757575757575,0.6075949367088608,anode,0.0149800409001874,0.0157245193641642,0.0141037481380568,4.665466792310049e-06,high
1200,7.6767676767676765,0.6075949367088608,anode,0.0149894085718318,0.0156658426689325,0.0142034935582805,-0.0001067847970778,high
1200,7.777777777777778,0.6075949367088608,anode,0.015130219904462,0.015939781211982,0.0141638672457737,-1.569425386204919e-05,critical
1200,7.878787878787879,0.6075949367088608,anode,0.0152177029394581,0.0159505719427773,0.0143589974797712,6.096762815367315e-05,critical
1200,7.979797979797979,0.6075949367088608,anode,0.0152810265317751,0.0160759090862856,0.0143370385789452,-4.15229327145698e-05,critical
1200,8.080808080808081,0.6075949367088608,anode,0.0153862027538189,0.0161249429155076,0.0145219343418032,8.877122803344704e-06,critical
1200,8.181818181818182,0.6075949367088608,anode,0.015506701319359,0.0162042128660097,0.0146982236146301,-7.44714237424557e-05,critical
1200,8.282828282828282,0.6075949367088608,anode,0.0154271473274056,0.0161492740225622,0.0145859587948933,9.569045286915791e-06,critical
1200,8.383838383838384,0.6075949367088608,anode,0.0154828964697334,0.0161347931745764,0.0147350043295365,-6.934694952934034e-05,critical
1200,8.484848484848484,0.6075949367088608,anode,0.0156799072357022,0.0164426994469348,0.0147826792308669,-0.0001105624844205,critical
1200,8.585858585858587,0.6075949367088608,anode,0.0155585339593593,0.0164019498733499,0.0145482057467136,6.498787764374665e-05,critical
1200,8.686868686868687,0.6075949367088608,anode,0.01592618928552,0.0166248753709515,0.0151207884223753,1.2351541916234976e-06,critical
1200,8.787878787878787,0.6075949367088608,anode,0.0159691323063506,0.0167519892045566,0.0150498991195252,1.046231679172777e-05,critical
1200,8.88888888888889,0.6075949367088608,anode,0.0160426471353404,0.0167971779381531,0.0151629449197314,1.937065996984676e-05,critical
1200,8.98989898989899,0.6075949367088608,anode,0.0162468929846184,0.0170278448228522,0.0153327431613408,3.911841350038959e-05,critical
1200,9.09090909090909,0.6075949367088608,anode,0.0163821922296661,0.0171210356837784,0.01552677732912,4.236444653099708e-06,critical
1200,9.191919191919192,0.6075949367088608,anode,0.0165098758094538,0.0172776487824707,0.0156164967598236,8.69813045995524e-06,critical
1200,9.292929292929292,0.6075949367088608,anode,0.0166485268151946,0.0176428426119584,0.0154335887824695,-9.395146709097664e-06,critical
1200,9.393939393939394,0.6075949367088608,anode,0.0168727637818826,0.0176578509365497,0.0159590970848433,1.857941904287693e-05,critical
1200,9.494949494949497,0.6075949367088608,anode,0.0168937092073049,0.017801304408763,0.015807967855222,-8.479836977575046e-05,critical
1200,9.595959595959595,0.6075949367088608,anode,0.0170627076314207,0.0178856736836719,0.0160980187705836,7.387138094939758e-05,critical
1200,9.696969696969695,0.6075949367088608,anode,0.0174263535629146,0.0182882878407761,0.0164109437002455,-9.186103428484896e-05,critical
1200,9.797979797979798,0.6075949367088608,anode,0.0174379950660329,0.0183573263780433,0.0163434736374004,-4.31638324151908e-05,critical
1200,9.8989898989899,0.6075949367088608,anode,0.0176177857900259,0.0184418005630021,0.0166580593112969,-3.449860205791309e-06,critical
1200,10.0,0.6075949367088608,anode,0.0177006166481912,0.0185474184866804,0.0167099935064205,5.3093297904200136e-05,critical
1200,0.0,0.7088607594936709,anode,0.0178812101288526,0.0187619272371771,0.0168460159734805,-3.2831748141352524e-05,critical
1200,0.101010101010101,0.7088607594936709,anode,0.0175855481093011,0.018634013264333,0.0163049645423025,6.022159329264126e-06,critical
1200,0.202020202020202,0.7088607594936709,anode,0.017414088745168,0.0182969267051044,0.0163708833684075,3.647282179027849e-05,critical
1200,0.303030303030303,0.7088607594936709,anode,0.0172316528702825,0.018060490125923,0.0162606724947948,7.024268285662644e-05,critical
1200,0.404040404040404,0.7088607594936709,anode,0.0170686919576742,0.0178106768436187,0.0162144881997088,-2.173667672229984e-05,critical
1200,0.5050505050505051,0.7088607594936709,anode,0.0168809480471356,0.0176757000583786,0.0159537755105305,-4.909887564042388e-05,critical
1200,0.6060606060606061,0.7088607594936709,anode,0.0167892514095354,0.0176274178923744,0.0158018562005966,-1.102540966528798e-05,critical
1200,0.7070707070707071,0.7088607594936709,anode,0.016659683326919,0.0174586599261907,0.0157238536803771,-7.763527510644613e-05,critical
1200,0.8080808080808081,0.7088607594936709,anode,0.0164342115227961,0.017270007592508,0.0154461032741114,-2.805111269425189e-05,critical
1200,0.9090909090909092,0.7088607594936709,anode,0.0162016021026222,0.016940743862124,0.0153414006102202,-0.0001144168261355,critical
1200,1.0101010101010102,0.7088607594936709,anode,0.0163129627250458,0.0172038901800715,0.0152446560954553,4.74881432294212e-05,critical
1200,1.1111111111111112,0.7088607594936709,anode,0.0161669430785315,0.0170411174542649,0.015121128340675,-3.036562595108221e-05,critical
1200,1.2121212121212122,0.7088607594936709,anode,0.0158781867327787,0.0165409952907547,0.0151196000474587,-3.2742939271396005e-05,critical
1200,1.3131313131313131,0.7088607594936709,anode,0.0158761458968058,0.0167705773191834,0.0147971911973613,1.027405754650026e-05,critical
1200,1.414141414141414,0.7088607594936709,anode,0.0156901008814376,0.0163817343444869,0.0148917538723076,4.6432756346889137e-05,critical
1200,1.5151515151515151,0.7088607594936709,anode,0.0158311840413269,0.0165680326975231,0.014973672734851,5.915707018733822e-06,critical
1200,1.616161616161616,0.7088607594936709,anode,0.0155906252032556,0.0164623775998922,0.0145406906663126,-1.1154156667589658e-05,critical
1200,1.7171717171717171,0.7088607594936709,anode,0.0156131066267022,0.0163479638272198,0.0147561315385152,-2.8658216189290383e-05,critical
1200,1.818181818181818,0.7088607594936709,anode,0.0154606004233563,0.0161906505758469,0.0146088607776666,1.95475715622149e-05,critical
1200,1.9191919191919191,0.7088607594936709,anode,0.0152478143700834,0.0159974577243862,0.0143666614601446,-4.5779397932953e-05,critical
1200,2.0202020202020203,0.7088607594936709,anode,0.0152785595856922,0.0160615155727066,0.0143517198297481,1.4259386233588984e-05,critical
1200,2.121212121212121,0.7088607594936709,anode,0.0152440365588688,0.0159518859032089,0.014419419264669,-7.133421188691436e-05,critical
1200,2.2222222222222223,0.7088607594936709,anode,0.0150695349601547,0.0157954516951422,0.0142185560587086,7.249980946308328e-05,critical
1200,2.323232323232323,0.7088607594936709,anode,0.0151252586365941,0.0158192776377016,0.0143194974858088,-8.081817646927324e-07,critical
1200,2.4242424242424243,0.7088607594936709,anode,0.0150234543335073,0.0157822925454394,0.0141275686550566,-1.4691127631535046e-05,critical
1200,2.525252525252525,0.7088607594936709,anode,0.0150689703338593,0.0158735673635037,0.014108846799342,2.515394235170936e-05,critical
1200,2.6262626262626263,0.7088607594936709,anode,0.0148478356417238,0.0156169121597377,0.0139321741702883,0.0001188008683885,high
1200,2.727272727272727,0.7088607594936709,anode,0.0148867052018208,0.0155345381547312,0.0141407691034051,-1.8994941377432517e-05,high
1200,2.8282828282828283,0.7088607594936709,anode,0.0149306332838013,0.015662356150565,0.0140713674581174,-2.447162543471224e-05,high
1200,2.929292929292929,0.7088607594936709,anode,0.0147904231048325,0.0154355748955486,0.0140473341066603,-1.5550411358040132e-05,high
1200,3.0303030303030303,0.7088607594936709,anode,0.0147019648438759,0.0153994385221231,0.013887579356529,-1.9387384210157656e-05,high
1200,3.131313131313131,0.7088607594936709,anode,0.0146378652218818,0.015340920019667,0.0138143544097691,6.268856634928537e-05,high
1200,3.2323232323232323,0.7088607594936709,anode,0.0147906951475366,0.0155542222815799,0.0138840046687348,-8.193757198943715e-05,high
1200,3.333333333333333,0.7088607594936709,anode,0.0145765235825356,0.0152560518987339,0.0137831980172166,-9.756521704879778e-05,high
1200,3.4343434343434343,0.7088607594936709,anode,0.0145772487049384,0.0152588142551995,0.013782287792139,6.995231127439391e-05,high
1200,3.5353535353535355,0.7088607594936709,anode,0.0146225658440874,0.0154247131884439,0.0136601782290981,-2.2486700167139105e-05,high
1200,3.636363636363636,0.7088607594936709,anode,0.0145414954827493,0.0152603463499714,0.0136954895912198,5.291378196226464e-05,high
1200,3.7373737373737375,0.7088607594936709,anode,0.0144601232429305,0.0151227580533419,0.013690958383139,4.573786222237337e-06,high
1200,3.8383838383838382,0.7088607594936709,anode,0.0144615730804748,0.0151994999347082,0.0135887803428463,2.0350634255649625e-06,high
1200,3.939393939393939,0.7088607594936709,anode,0.0144428698346615,0.0151646541696785,0.0135920247038913,-4.0708410572353565e-05,high
1200,4.040404040404041,0.7088607594936709,anode,0.0143209797096857,0.0149853798812334,0.0135477689425569,4.191454336974879e-05,high
1200,4.141414141414141,0.7088607594936709,anode,0.0143305171891414,0.0149640340895882,0.0135986437037944,5.435698947632499e-05,high
1200,4.242424242424242,0.7088607594936709,anode,0.0144069325165809,0.0150257477197178,0.0136958482522594,1.539802783405768e-05,high
1200,4.343434343434343,0.7088607594936709,anode,0.0143906622982517,0.0150308928246787,0.0136507437739264,-3.4075098393068244e-05,high
1200,4.444444444444445,0.7088607594936709,anode,0.0143876181428472,0.0151322387980903,0.013504010433149,-4.661047691073433e-05,high
1200,4.545454545454545,0.7088607594936709,anode,0.0143698393590155,0.0151208068231608,0.0134768132149399,-5.561476157023475e-05,high
1200,4.646464646464646,0.7088607594936709,anode,0.0143576289587098,0.0150702612888889,0.0135189789945955,-1.2737763249742898e-05,high
1200,4.747474747474747,0.7088607594936709,anode,0.0143955537963869,0.0150803859859739,0.0135952074852832,4.1783123724362416e-05,high
1200,4.848484848484849,0.7088607594936709,anode,0.0142087169507237,0.014850340909762,0.0134636573004081,-9.100393776582194e-05,high
1200,4.94949494949495,0.7088607594936709,anode,0.0142596886775302,0.0149775053187025,0.0134116525385095,-6.76486578572619e-05,high
1200,5.05050505050505,0.7088607594936709,anode,0.0144153049026234,0.0151199006370962,0.0135878058734673,-4.975402121848328e-05,high
1200,5.151515151515151,0.7088607594936709,anode,0.0143259030238067,0.014964049075135,0.0135877136477084,5.768996312710211e-05,high
1200,5.252525252525253,0.7088607594936709,anode,0.0143588617212848,0.0150405633458271,0.0135616056986001,-7.165804854428986e-05,high
1200,5.353535353535354,0.7088607594936709,anode,0.0144482990907916,0.0150516310691997,0.0137575361089986,4.205915323082019e-05,high
1200,5.454545454545454,0.7088607594936709,anode,0.0143560882251347,0.0150958802775865,0.013479347540086,-2.2168681530476597e-05,high
1200,5.555555555555555,0.7088607594936709,anode,0.0143388194956337,0.0150922933677896,0.0134411631031501,7.64561323166179e-05,high
1200,5.656565656565657,0.7088607594936709,anode,0.014438351360055,0.015216572224084,0.0135072404934834,5.852211548480203e-05,high
1200,5.757575757575758,0.7088607594936709,anode,0.0143019872995768,0.0151040232039249,0.0133350528679899,-3.9313798061746815e-05,high
1200,5.858585858585858,0.7088607594936709,anode,0.0144359904680972,0.0150887140298613,0.0136796107216662,3.879193550553482e-05,high
1200,5.959595959595959,0.7088607594936709,anode,0.0145114477974077,0.0151820456512923,0.0137315810823572,3.991179602274826e-05,high
1200,6.0606060606060606,0.7088607594936709,anode,0.0143932416238972,0.0150712233437233,0.0136008725873951,-8.501894513946501e-05,high
1200,6.161616161616162,0.7088607594936709,anode,0.0144239300405332,0.0151280154458592,0.0135975488558633,3.415998526140829e-05,high
1200,6.262626262626262,0.7088607594936709,anode,0.0144657842915116,0.0151720654752162,0.0136354436234421,8.137365403198141e-05,high
1200,6.363636363636363,0.7088607594936709,anode,0.0145046859996912,0.0152008755547009,0.0136898897592093,3.8847085460335615e-05,high
1200,6.4646464646464645,0.7088607594936709,anode,0.0145518064734444,0.0151974111658474,0.0138059852825703,-3.5453081982995216e-05,high
1200,6.565656565656566,0.7088607594936709,anode,0.0144971636680601,0.0153754961068415,0.0134203911413887,7.0058516261926735e-06,high
1200,6.666666666666667,0.7088607594936709,anode,0.0145528880941547,0.0152021441504888,0.0138024647623017,1.1409684813555323e-05,high
1200,6.767676767676767,0.7088607594936709,anode,0.0145661630685904,0.0152984265895192,0.0137023762160725,-1.7636161973476412e-05,high
1200,6.8686868686868685,0.7088607594936709,anode,0.0146250925301604,0.015299413780939,0.0138411453212124,-4.232864981142643e-05,high
1200,6.96969696969697,0.7088607594936709,anode,0.014858349593994,0.015681982547881,0.0138680953078835,-1.9469183654704027e-05,high
1200,7.070707070707071,0.7088607594936709,anode,0.0146965735050422,0.0154484210296176,0.0138056607786352,-7.059567141390781e-05,high
1200,7.171717171717171,0.7088607594936709,anode,0.0148253033921675,0.01561739245381,0.0138800937392606,1.344897190294066e-05,high
1200,7.272727272727272,0.7088607594936709,anode,0.0147530312860614,0.0154523336490641,0.013935792831967,6.195582779967334e-05,high
1200,7.373737373737374,0.7088607594936709,anode,0.0148485045703234,0.0155160463635045,0.0140743547027169,8.420812780952863e-05,high
1200,7.474747474747475,0.7088607594936709,anode,0.0149639969050645,0.015659999588075,0.0141540310327258,-1.9510193868871228e-05,high
1200,7.575757575757575,0.7088607594936709,anode,0.015031934643567,0.015715246261266,0.0142397465128057,-1.6698043976981807e-05,critical
1200,7.6767676767676765,0.7088607594936709,anode,0.0150277931490237,0.0157088625325347,0.0142370307392375,8.310504985024639e-05,critical
1200,7.777777777777778,0.7088607594936709,anode,0.0151772718432192,0.0158996763344139,0.0143331549854685,-3.197054025664158e-05,critical
1200,7.878787878787879,0.7088607594936709,anode,0.0153083710809465,0.0160665886465086,0.0144164574696559,3.397499623833472e-07,critical
1200,7.979797979797979,0.7088607594936709,anode,0.0152184475350639,0.016023779965824,0.0142592804005886,6.1927850132649e-06,critical
1200,8.080808080808081,0.7088607594936709,anode,0.0152547157275059,0.015969286151401,0.0144199618525768,-9.90774579199559e-05,critical
1200,8.181818181818182,0.7088607594936709,anode,0.0154026738930092,0.0162639537720015,0.0143651857145868,2.784798180855493e-05,critical
1200,8.282828282828282,0.7088607594936709,anode,0.0154390980018836,0.0160972254749117,0.014683694071113,1.771830421499973e-05,critical
1200,8.383838383838384,0.7088607594936709,anode,0.0155988403887841,0.0163220128007515,0.0147573246176883,4.593854514423031e-05,critical
1200,8.484848484848484,0.7088607594936709,anode,0.0157714145196353,0.01656334465283,0.0148373406806481,-2.8512062617058437e-05,critical
1200,8.585858585858587,0.7088607594936709,anode,0.0157533036377727,0.0164502303790029,0.0149456490123743,0.0001203342536204,critical
1200,8.686868686868687,0.7088607594936709,anode,0.0160270930545295,0.0168491361588364,0.0150538686174476,-3.837567522704555e-06,critical
1200,8.787878787878787,0.7088607594936709,anode,0.0159722633391817,0.0167662725466517,0.0150376278630763,-2.3471013177330862e-06,critical
1200,8.88888888888889,0.7088607594936709,anode,0.0160660572638414,0.0168016546144219,0.0152102213030005,9.772594058845454e-05,critical
1200,8.98989898989899,0.7088607594936709,anode,0.0162565886480369,0.0170952051815684,0.0152624917568009,-2.8330252689686905e-05,critical
1200,9.09090909090909,0.7088607594936709,anode,0.0163107812171231,0.0171345001153674,0.0153370675869037,7.710140784610614e-05,critical
1200,9.191919191919192,0.7088607594936709,anode,0.016489238410953,0.0173273653213667,0.0154986506272489,-1.2293896117716954e-06,critical
1200,9.292929292929292,0.7088607594936709,anode,0.0166842762547407,0.0174519608021245,0.0157906558044668,-9.527803151015788e-05,critical
1200,9.393939393939394,0.7088607594936709,anode,0.0167160738243872,0.0174984594217606,0.0158046989825939,1.1773657238465022e-05,critical
1200,9.494949494949497,0.7088607594936709,anode,0.0168658442378088,0.0177083951126432,0.0158729578748825,3.297648408152775e-05,critical
1200,9.595959595959595,0.7088607594936709,anode,0.0169995786018796,0.0178513747559679,0.0159954259006891,1.6169452223357113e-05,critical
1200,9.696969696969695,0.7088607594936709,anode,0.0173908746202083,0.0182243384428465,0.0164149026411765,7.685678513414196e-05,critical
1200,9.797979797979798,0.7088607594936709,anode,0.0173874795184399,0.0183067286424668,0.016292844874902,2.9572661765569023e-06,critical
1200,9.8989898989899,0.7088607594936709,anode,0.0175343784700563,0.0183858423578081,0.0165361082386889,2.9623929249369385e-05,critical
1200,10.0,0.7088607594936709,anode,0.0178189050067184,0.0185990146971099,0.0169185162807834,-8.478944823009339e-05,critical
1200,0.0,0.810126582278481,anode,0.0178552002324022,0.0186953189256037,0.016875098063567,5.666025461539103e-05,critical
1200,0.101010101010101,0.810126582278481,anode,0.0176959602038707,0.0186782737199337,0.0165146612435686,1.1909236454904368e-05,critical
1200,0.202020202020202,0.810126582278481,anode,0.0174062824623571,0.0182644347479829,0.0163976463457778,3.083169046953397e-06,critical
1200,0.303030303030303,0.810126582278481,anode,0.0172407713486957,0.0181097117792499,0.0162153606754493,6.386563142345008e-06,critical
1200,0.404040404040404,0.810126582278481,anode,0.0169247754551508,0.0177215301637019,0.0159952968118763,4.833112622887547e-05,critical
1200,0.5050505050505051,0.810126582278481,anode,0.0167789459430365,0.0175736668243705,0.0158507991744762,-5.193081307109504e-05,critical
1200,0.6060606060606061,0.810126582278481,anode,0.0167415032285405,0.0175253828394742,0.0158282782910453,1.9405863584744725e-05,critical
1200,0.7070707070707071,0.810126582278481,anode,0.0165020669379345,0.0174352984684314,0.01537529710841,2.389905745865663e-05,critical
1200,0.8080808080808081,0.810126582278481,anode,0.0164892076372244,0.0173483623245954,0.0154681995348342,-6.062548434550883e-05,critical
1200,0.9090909090909092,0.810126582278481,anode,0.0161538863688649,0.0169302022059319,0.0152453493886292,-2.8681891238034516e-05,critical
1200,1.0101010101010102,0.810126582278481,anode,0.0163321836037539,0.0171280974862385,0.0153972701881832,7.855640410550424e-05,critical
1200,1.1111111111111112,0.810126582278481,anode,0.0161164987866855,0.0169125594024505,0.0151804823728078,1.451914432537994e-05,critical
1200,1.2121212121212122,0.810126582278481,anode,0.0158512955273275,0.0166075592945732,0.0149652398787449,0.0001004127935034,critical
1200,1.3131313131313131,0.810126582278481,anode,0.0158613892378682,0.0166218916377115,0.0149718074489797,1.940521953012379e-05,critical
1200,1.414141414141414,0.810126582278481,anode,0.0157699027057402,0.0164922293887584,0.0149313963107969,-2.3226415488404974e-05,critical
1200,1.5151515151515151,0.810126582278481,anode,0.0156692373726334,0.0163746419402444,0.0148522148790935,-5.0050037234212665e-05,critical
1200,1.616161616161616,0.810126582278481,anode,0.0155867600738186,0.0164424148375158,0.014557994201273,9.568804349978356e-05,critical
1200,1.7171717171717171,0.810126582278481,anode,0.0154558175270944,0.016147500086528,0.0146559968003416,1.1219719690284909e-06,critical
1200,1.818181818181818,0.810126582278481,anode,0.0153085948528604,0.016032321383153,0.0144637938902924,-3.918249741210475e-05,critical
1200,1.9191919191919191,0.810126582278481,anode,0.0153529238065271,0.0160770916157654,0.0145080686027649,3.102740316834628e-05,critical
1200,2.0202020202020203,0.810126582278481,anode,0.015383216305488,0.016217241248955,0.0143847957744614,-3.551569161346712e-05,critical
1200,2.121212121212121,0.810126582278481,anode,0.0152717516364471,0.016027715194326,0.0143821213687933,-4.424860616707232e-05,critical
1200,2.2222222222222223,0.810126582278481,anode,0.0150873152987875,0.0158107335442335,0.0142410590852916,2.319793626449189e-05,critical
1200,2.323232323232323,0.810126582278481,anode,0.0150899875316316,0.0158673621119642,0.0141687409511928,2.494336107624723e-05,critical
1200,2.4242424242424243,0.810126582278481,anode,0.0150423794962269,0.0157662490873744,0.0141949557420566,3.167605797625078e-05,critical
1200,2.525252525252525,0.810126582278481,anode,0.0149682696474937,0.0156313767553496,0.0141997161128249,-0.000113036374901,high
1200,2.6262626262626263,0.810126582278481,anode,0.0148150347784638,0.0155589051380369,0.0139371755999345,5.181936830113572e-05,high
1200,2.727272727272727,0.810126582278481,anode,0.0148137561363688,0.0155185422398009,0.0139904931608816,-1.1222112561863356e-05,high
1200,2.8282828282828283,0.810126582278481,anode,0.0148172994710896,0.0155613616654849,0.0139398271817691,9.95329436685205e-06,high
1200,2.929292929292929,0.810126582278481,anode,0.0146047538635146,0.0151781848179389,0.013953511474466,5.783481349245774e-05,high
1200,3.0303030303030303,0.810126582278481,anode,0.0147044600900751,0.0154636392825444,0.0138045058694209,-1.3211353406682853e-05,high
1200,3.131313131313131,0.810126582278481,anode,0.014720174517808,0.0154019304833444,0.0139272447003034,-2.8195610898095724e-05,high
1200,3.2323232323232323,0.810126582278481,anode,0.0146015080610592,0.0152951786899796,0.0137912035102772,3.2528328431059846e-05,high
1200,3.333333333333333,0.810126582278481,anode,0.0146291918339676,0.0152411283665595,0.0139286467142572,2.800644534933837e-05,high
1200,3.4343434343434343,0.810126582278481,anode,0.0145871880157073,0.0153364581275138,0.0136992144394489,5.182882417194609e-05,high
1200,3.5353535353535355,0.810126582278481,anode,0.0146351970524154,0.0153193258303974,0.0138377011618028,-5.6356789344533415e-05,high
1200,3.636363636363636,0.810126582278481,anode,0.0144804219540805,0.0151324024692676,0.0137254412950036,-3.7320584266364336e-05,high
1200,3.7373737373737375,0.810126582278481,anode,0.0143879316109795,0.0150414954747182,0.0136297500905033,5.075005591955372e-05,high
1200,3.8383838383838382,0.810126582278481,anode,0.0145997361958472,0.0153402438151928,0.0137242320256706,-5.078528130059776e-05,high
1200,3.939393939393939,0.810126582278481,anode,0.014542850193069,0.015327232813699,0.0136048628649666,-3.179605823269189e-05,high
1200,4.040404040404041,0.810126582278481,anode,0.0144312775178831,0.015118738048426,0.013627996495799,-2.122323079290133e-05,high
1200,4.141414141414141,0.810126582278481,anode,0.0144671004747027,0.0152245675716455,0.0135664636944268,3.716832620497479e-05,high
1200,4.242424242424242,0.810126582278481,anode,0.0143639829266123,0.0151079156174573,0.0134815494020183,-1.6610147644223445e-05,high
1200,4.343434343434343,0.810126582278481,anode,0.0143417202334355,0.0150307212737482,0.0135339278689649,-8.134539550048376e-05,high
1200,4.444444444444445,0.810126582278481,anode,0.014443704492818,0.015199270922704,0.0135455319761398,-3.433499171766818e-05,high
1200,4.545454545454545,0.810126582278481,anode,0.014217692110798,0.0148976773540248,0.0134216714180148,-6.440780747144734e-05,high
1200,4.646464646464646,0.810126582278481,anode,0.014296516887663,0.0149473986874392,0.013541779893751,9.090592558756316e-06,high
1200,4.747474747474747,0.810126582278481,anode,0.0143206545834725,0.0149357210699205,0.0136136891816243,-3.22233669142894e-05,high
1200,4.848484848484849,0.810126582278481,anode,0.0144851060894001,0.0152038870056002,0.013638753048098,-4.688239072969368e-05,high
1200,4.94949494949495,0.810126582278481,anode,0.0143805268860057,0.0150683262124839,0.0135737483948842,0.0001034761260325,high
1200,5.05050505050505,0.810126582278481,anode,0.0144908858682702,0.0152802737978455,0.0135452687483174,6.207137194509352e-06,high
1200,5.151515151515151,0.810126582278481,anode,0.0144011649262038,0.0150678658203676,0.0136247403212452,-7.113608468222933e-05,high
1200,5.252525252525253,0.810126582278481,anode,0.0143730577036461,0.0151180426645864,0.0134892034838036,-2.095149999295731e-05,high
1200,5.353535353535354,0.810126582278481,anode,0.0143686082403399,0.0150756198527562,0.0135372485151112,-5.132876312051024e-05,high
1200,5.454545454545454,0.810126582278481,anode,0.014417423832077,0.0150298615667541,0.0137148842617201,6.652901137648946e-06,high
1200,5.555555555555555,0.810126582278481,anode,0.0144915795146048,0.0153058869962456,0.0135095504549886,3.36611770642427e-05,high
1200,5.656565656565657,0.810126582278481,anode,0.0144764730005169,0.0151173318561162,0.0137356881588753,-6.422631528530079e-05,high
1200,5.757575757575758,0.810126582278481,anode,0.0144925031282415,0.0152640276838759,0.0135725305998028,7.574121667404945e-07,high
1200,5.858585858585858,0.810126582278481,anode,0.0144464543154603,0.0152138253795707,0.0135310373199722,5.605843571084328e-05,high
1200,5.959595959595959,0.810126582278481,anode,0.0144908342561518,0.0151396576292351,0.0137391188906603,7.574639498748708e-05,high
1200,6.0606060606060606,0.810126582278481,anode,0.014480514572562,0.0151875907209378,0.0136469163448936,-0.0001262863202666,high
1200,6.161616161616162,0.810126582278481,anode,0.0143796040965002,0.0150270001364128,0.0136302656151815,6.913528058167535e-06,high
1200,6.262626262626262,0.810126582278481,anode,0.0144555289693647,0.015213909031945,0.0135534933027817,-3.5228856037457095e-05,high
1200,6.363636363636363,0.810126582278481,anode,0.0145975647584898,0.0152168067818899,0.0138869530586669,-4.2049455893255e-05,high
1200,6.4646464646464645,0.810126582278481,anode,0.0145512374435618,0.0151283018632053,0.0138947268500436,6.628657877099806e-05,high
1200,6.565656565656566,0.810126582278481,anode,0.014510487883666,0.0151370400296607,0.0137899166523331,-1.8228697370234075e-05,high
1200,6.666666666666667,0.810126582278481,anode,0.0145888250928489,0.0152346267018287,0.0138432517462249,1.9327264695079657e-05,high
1200,6.767676767676767,0.810126582278481,anode,0.0146707287515002,0.0154350494626478,0.0137626161258887,-4.686219395076092e-05,high
1200,6.8686868686868685,0.810126582278481,anode,0.01474384478668,0.0153510132217648,0.0140504538757691,1.634281214676662e-05,high
1200,6.96969696969697,0.810126582278481,anode,0.0147551829684028,0.0155163701712951,0.0138529387815978,-1.909927791527495e-05,high
1200,7.070707070707071,0.810126582278481,anode,0.01473753261127,0.0155111285681331,0.0138163357549916,-7.207531385444402e-05,high
1200,7.171717171717171,0.810126582278481,anode,0.0148143846937608,0.015546296533611,0.0139537910456218,-6.994335229108816e-06,high
1200,7.272727272727272,0.810126582278481,anode,0.0148821178512393,0.0156012947224051,0.0140397979443109,6.682763032089787e-06,high
1200,7.373737373737374,0.810126582278481,anode,0.0148295175871172,0.0154894346902022,0.0140668895403716,3.0497723627574253e-05,high
1200,7.474747474747475,0.810126582278481,anode,0.0148181231294985,0.0155065327491468,0.014017143293474,-2.000500414557177e-05,high
1200,7.575757575757575,0.810126582278481,anode,0.0150326632289408,0.0157693660781471,0.0141675168637174,-2.758626891334246e-05,critical
1200,7.6767676767676765,0.810126582278481,anode,0.0149882212358586,0.0156837878737977,0.0141791458027445,-6.138706858932278e-06,high
1200,7.777777777777778,0.810126582278481,anode,0.0151367060492378,0.0158346819152051,0.01432460418352,-6.827507609215876e-05,critical
1200,7.878787878787879,0.810126582278481,anode,0.015115280808972,0.015872343083042,0.0142228464663253,1.803805762427277e-05,critical
1200,7.979797979797979,0.810126582278481,anode,0.0151908261319305,0.0158696357537993,0.0144060138329765,1.650504871231012e-05,critical
1200,8.080808080808081,0.810126582278481,anode,0.0153800210597601,0.0161144458211973,0.0145215506177794,1.8184238710221844e-05,critical
1200,8.181818181818182,0.810126582278481,anode,0.0155182594391463,0.0160979325946628,0.0148646639203134,-4.109568509111176e-05,critical
1200,8.282828282828282,0.810126582278481,anode,0.0153526181209156,0.0161175879780121,0.014451651799414,-2.4293420591499348e-05,critical
1200,8.383838383838384,0.810126582278481,anode,0.0156202003183617,0.0163287628083367,0.0147964971306846,0.0001069701479445,critical
1200,8.484848484848484,0.810126582278481,anode,0.0157082462224445,0.0164303487816126,0.014868671545464,6.507478729533477e-05,critical
1200,8.585858585858587,0.810126582278481,anode,0.0157958011198323,0.0166123984473969,0.0148275636928142,1.0030735162828594e-05,critical
1200,8.686868686868687,0.810126582278481,anode,0.0158090405502073,0.016478718882316,0.0150409965273531,2.807171765575002e-05,critical
1200,8.787878787878787,0.810126582278481,anode,0.0160320586139553,0.016799633175885,0.0151317414236268,0.0001115575707468,critical
1200,8.88888888888889,0.810126582278481,anode,0.0160828207816523,0.016894192956031,0.0151251805377149,-5.35297316721857e-07,critical
1200,8.98989898989899,0.810126582278481,anode,0.0163688799544493,0.0171324184413049,0.0154791413457777,-6.266088788467145e-05,critical
1200,9.09090909090909,0.810126582278481,anode,0.0164194264149874,0.0172180693615112,0.0154829282901589,1.5449276505731452e-05,critical
1200,9.191919191919192,0.810126582278481,anode,0.0164288786293398,0.0172056447369071,0.0155223918534191,-2.5515033574260104e-05,critical
1200,9.292929292929292,0.810126582278481,anode,0.0166410857851962,0.0174821438485472,0.0156463121442415,9.014517702669656e-05,critical
1200,9.393939393939394,0.810126582278481,anode,0.0167896791506725,0.017624150710946,0.0158055784497639,9.34955276404602e-05,critical
1200,9.494949494949497,0.810126582278481,anode,0.0169960296899516,0.0177898337082943,0.016071430759478,-3.6678157596458775e-05,critical
1200,9.595959595959595,0.810126582278481,anode,0.0171448016824649,0.0179845772582139,0.0161589098524621,4.48891280567284e-07,critical
1200,9.696969696969695,0.810126582278481,anode,0.0172601459445474,0.0180531383944124,0.0163381158888486,7.542896692945165e-05,critical
1200,9.797979797979798,0.810126582278481,anode,0.0174481205258927,0.0183275051041351,0.0164044963040151,0.0001687772675613,critical
1200,9.8989898989899,0.810126582278481,anode,0.0175804915145791,0.0184765195693068,0.0165203486416475,-5.332987529494912e-05,critical
1200,10.0,0.810126582278481,anode,0.0178012378869455,0.0186047632674119,0.0168704913536351,-4.0304662307899705e-05,critical
1200,0.0,0.9113924050632912,anode,0.0178280412098296,0.0187009655454296,0.0168032808086785,9.49677153932208e-06,critical
1200,0.101010101010101,0.9113924050632912,anode,0.0175815115573031,0.0185799380815692,0.0163742394313151,-6.347528974752602e-05,critical
1200,0.202020202020202,0.9113924050632912,anode,0.0175011645300151,0.0182496563418955,0.0166376490030299,0.0001423793099748,critical
1200,0.303030303030303,0.9113924050632912,anode,0.0172752689459309,0.0180371998382565,0.0163956089571807,-5.544156935522296e-05,critical
1200,0.404040404040404,0.9113924050632912,anode,0.0170734653600893,0.0179033654427414,0.0161003136295319,2.843066884793809e-05,critical
1200,0.5050505050505051,0.9113924050632912,anode,0.0168095829946121,0.0176189657428899,0.0158614263926769,6.1121843512595e-05,critical
1200,0.6060606060606061,0.9113924050632912,anode,0.0167692779046505,0.0175934465395489,0.0158011262123841,4.467288111949477e-08,critical
1200,0.7070707070707071,0.9113924050632912,anode,0.0166007441628152,0.0174569398889381,0.0155857742998727,3.4258926362947095e-05,critical
1200,0.8080808080808081,0.9113924050632912,anode,0.0163987029718357,0.017205997461091,0.0154499418560585,2.625211852777326e-05,critical
1200,0.9090909090909092,0.9113924050632912,anode,0.0163715152196669,0.0172431006347882,0.0153302254425916,-9.451459545948074e-05,critical
1200,1.0101010101010102,0.9113924050632912,anode,0.0163497560738414,0.0170701448266238,0.0155187753682875,-3.337131701657379e-06,critical
1200,1.1111111111111112,0.9113924050632912,anode,0.016108005933831,0.0169290097180199,0.0151366100118035,4.946537439208575e-05,critical
1200,1.2121212121212122,0.9113924050632912,anode,0.0158826391824968,0.0167469575202948,0.014845850549962,8.404597129842819e-05,critical
1200,1.3131313131313131,0.9113924050632912,anode,0.0157684403491817,0.0165172498780366,0.014894052469654,7.185199104039687e-06,critical
1200,1.414141414141414,0.9113924050632912,anode,0.015806315957573,0.016686603779647,0.0147468295289192,2.827632559470609e-05,critical
1200,1.5151515151515151,0.9113924050632912,anode,0.0156482463398586,0.0164225023545358,0.0147375201653534,-2.2277937527540976e-05,critical
1200,1.616161616161616,0.9113924050632912,anode,0.0155856372897045,0.016293124889465,0.0147656662493225,6.206247186044908e-06,critical
1200,1.7171717171717171,0.9113924050632912,anode,0.0155728096871996,0.016342595744014,0.0146676055802389,-4.508307309351954e-06,critical
1200,1.818181818181818,0.9113924050632912,anode,0.0154824250461168,0.0161794768811076,0.0146755505847908,-1.7884814087055827e-05,critical
1200,1.9191919191919191,0.9113924050632912,anode,0.0153588409856633,0.0160573422517769,0.0145488957950221,-2.573288354986672e-05,critical
1200,2.0202020202020203,0.9113924050632912,anode,0.0153411064507022,0.0160169833190611,0.0145614590619827,-1.0791537824049196e-05,critical
1200,2.121212121212121,0.9113924050632912,anode,0.0152428635785925,0.0159084096684548,0.0144758638196444,3.970944040091362e-05,critical
1200,2.2222222222222223,0.9113924050632912,anode,0.0151241200735956,0.0159877966657411,0.0140791667363336,2.069452053931578e-05,critical
1200,2.323232323232323,0.9113924050632912,anode,0.0150285101439117,0.0157587953029938,0.0141722162278179,-2.4694533269304865e-05,critical
1200,2.4242424242424243,0.9113924050632912,anode,0.0150458521076086,0.0156974523756822,0.0142951743344276,6.699159721519269e-05,critical
1200,2.525252525252525,0.9113924050632912,anode,0.0149785078315525,0.015719252633321,0.0141059278286389,7.796744771738092e-05,high
1200,2.6262626262626263,0.9113924050632912,anode,0.0148771194159336,0.0156760833024637,0.0139205062640167,-9.594368284375512e-05,high
1200,2.727272727272727,0.9113924050632912,anode,0.0147801057391134,0.0154747567100954,0.0139703590653922,1.1628934648478597e-05,high
1200,2.8282828282828283,0.9113924050632912,anode,0.0148288819262416,0.0155410261309503,0.0139931811520334,-0.0001025039264012,high
1200,2.929292929292929,0.9113924050632912,anode,0.0148843053083583,0.0155731273467845,0.0140833384037127,2.1992336887247247e-05,high
1200,3.0303030303030303,0.9113924050632912,anode,0.0146881419962964,0.015370809791579,0.0138934832118206,4.055321077708477e-05,high
1200,3.131313131313131,0.9113924050632912,anode,0.0146273222509774,0.0153961679641264,0.013712674606634,-2.4254677020418065e-05,high
1200,3.2323232323232323,0.9113924050632912,anode,0.0146365768059748,0.0153761430377593,0.0137633252575264,-2.1146867641337365e-05,high
1200,3.333333333333333,0.9113924050632912,anode,0.0144570187104626,0.0152243529749712,0.0135424596985221,-2.189674008058459e-05,high
1200,3.4343434343434343,0.9113924050632912,anode,0.014614178661451,0.0152111875253281,0.0139316483669538,-8.181614415492749e-05,high
1200,3.5353535353535355,0.9113924050632912,anode,0.0144524336723139,0.015108344580236,0.0136922576060645,7.973715889835098e-06,high
1200,3.636363636363636,0.9113924050632912,anode,0.0145534684078214,0.0152386039426328,0.0137543087853381,3.580735048044349e-05,high
1200,3.7373737373737375,0.9113924050632912,anode,0.0143750634593426,0.0150259959820987,0.0136201584312115,5.664032048004117e-05,high
1200,3.8383838383838382,0.9113924050632912,anode,0.014506853024018,0.0151399236831976,0.0137769100910389,-5.660164734536847e-05,high
1200,3.939393939393939,0.9113924050632912,anode,0.0145584607751599,0.0152611477261472,0.013735395666453,3.140303268804796e-05,high
1200,4.040404040404041,0.9113924050632912,anode,0.0146122345129722,0.0152853709726026,0.0138295185422542,-5.344739564160801e-05,high
1200,4.141414141414141,0.9113924050632912,anode,0.0144182423302755,0.0150853835726118,0.0136425891251991,1.1048376807560504e-05,high
1200,4.242424242424242,0.9113924050632912,anode,0.0143531068146914,0.0150299763478529,0.0135617221256571,8.858515331711936e-05,high
1200,4.343434343434343,0.9113924050632912,anode,0.0144025645987474,0.0151118670358838,0.01356901228952,1.09045130778971e-05,high
1200,4.444444444444445,0.9113924050632912,anode,0.0144186015924463,0.0152190355861166,0.0134550280942603,-6.27111675960803e-05,high
1200,4.545454545454545,0.9113924050632912,anode,0.0143648778735483,0.0149436878512956,0.0137058424009252,-2.326932513385363e-05,high
1200,4.646464646464646,0.9113924050632912,anode,0.0144312030428619,0.0151098156568157,0.0136401122798583,1.92882862520177e-06,high
1200,4.747474747474747,0.9113924050632912,anode,0.0143876160544771,0.0149628912364208,0.0137290476172258,-0.0001352520834435,high
1200,4.848484848484849,0.9113924050632912,anode,0.0143108980341673,0.0149636811443336,0.0135517654625785,8.944146526993433e-05,high
1200,4.94949494949495,0.9113924050632912,anode,0.0143560506126464,0.0151294139314636,0.0134304261881394,-7.106983553322039e-05,high
1200,5.05050505050505,0.9113924050632912,anode,0.0143840175967021,0.0150964832503198,0.0135450717216186,-5.812664636153163e-05,high
1200,5.151515151515151,0.9113924050632912,anode,0.0144175987197676,0.0151046282313939,0.0136148712629487,-8.330147776894293e-06,high
1200,5.252525252525253,0.9113924050632912,anode,0.0143553637557305,0.0150999871931455,0.0134718340282792,-1.883733773217849e-05,high
1200,5.353535353535354,0.9113924050632912,anode,0.0144603035790409,0.0150807267494609,0.0137475417363708,-5.063459887683146e-06,high
1200,5.454545454545454,0.9113924050632912,anode,0.0144267929838817,0.0150752972404094,0.0136763053439372,1.6424198920674783e-05,high
1200,5.555555555555555,0.9113924050632912,anode,0.0144184617713608,0.0151436140929516,0.0135626811920695,-3.950095638864584e-05,high
1200,5.656565656565657,0.9113924050632912,anode,0.014410371486727,0.0152243431555061,0.0134260301658522,8.638347759768539e-05,high
1200,5.757575757575758,0.9113924050632912,anode,0.0143363291144929,0.0150188987082837,0.0135382549831629,-5.274580323841002e-05,high
1200,5.858585858585858,0.9113924050632912,anode,0.0144357518205414,0.0150809083798451,0.0136885776895568,7.339365673786521e-05,high
1200,5.959595959595959,0.9113924050632912,anode,0.0142957471764064,0.0149745674579092,0.0135013245220508,-8.455325166429622e-05,high
1200,6.0606060606060606,0.9113924050632912,anode,0.0144303780952579,0.0151788914593644,0.0135417603556918,-4.726913621680407e-05,high
1200,6.161616161616162,0.9113924050632912,anode,0.0144464660801014,0.0151828532196998,0.0135756556451996,-6.0865366901613335e-06,high
1200,6.262626262626262,0.9113924050632912,anode,0.0145642609761875,0.0151673330743334,0.0138745756336541,4.533608350935009e-05,high
1200,6.363636363636363,0.9113924050632912,anode,0.0145278329265441,0.0153678909980392,0.0135082912999877,-4.4235116567752805e-05,high
1200,6.4646464646464645,0.9113924050632912,anode,0.0145397363271953,0.0152336582828291,0.0137285606543494,2.835412759645472e-05,high
1200,6.565656565656566,0.9113924050632912,anode,0.0146214018255522,0.0153749652365375,0.0137283301176092,2.149275397057308e-05,high
1200,6.666666666666667,0.9113924050632912,anode,0.0147166120611358,0.0153983879882599,0.013923366499879,4.313814593584306e-05,high
1200,6.767676767676767,0.9113924050632912,anode,0.0146699117546949,0.0154184165785811,0.0137828153405747,-8.550035892639626e-05,high
1200,6.8686868686868685,0.9113924050632912,anode,0.0146996603351507,0.0154949134704765,0.0137477895061392,-4.747986973450832e-05,high
1200,6.96969696969697,0.9113924050632912,anode,0.0146221754687136,0.0153242356459591,0.0138000010987578,5.84685987165753e-05,high
1200,7.070707070707071,0.9113924050632912,anode,0.0146718374148118,0.0153534777115007,0.0138787126692979,-2.141311576413049e-05,high
1200,7.171717171717171,0.9113924050632912,anode,0.0148198610939316,0.015553266838609,0.013957172927593,1.9426915883150757e-05,high
1200,7.272727272727272,0.9113924050632912,anode,0.0147770458045349,0.0155277872155499,0.0138898150643969,-3.5193784719114774e-06,high
1200,7.373737373737374,0.9113924050632912,anode,0.0149592128933642,0.015725549586,0.0140521422606236,5.727227604813526e-06,high
1200,7.474747474747475,0.9113924050632912,anode,0.0150261759246982,0.0156900268641236,0.0142592264165787,6.0902822990864274e-05,critical
1200,7.575757575757575,0.9113924050632912,anode,0.0149248736080412,0.0155117405931291,0.0142589821314405,1.649755238436003e-05,high
1200,7.6767676767676765,0.9113924050632912,anode,0.0150684048829148,0.0158320138795639,0.0141663620090604,-1.1396071938324488e-05,critical
1200,7.777777777777778,0.9113924050632912,anode,0.0150508294433187,0.0157768756497018,0.0142007237458403,-7.2900373625990195e-06,critical
1200,7.878787878787879,0.9113924050632912,anode,0.01516459111493,0.0160171493494621,0.014136046993562,4.865423155604552e-05,critical
1200,7.979797979797979,0.9113924050632912,anode,0.0152537621512791,0.0159271610889595,0.0144761883082204,4.951302256201129e-05,critical
1200,8.080808080808081,0.9113924050632912,anode,0.0153543781505517,0.016105317160921,0.0144724565897596,-4.896008424008116e-05,critical
1200,8.181818181818182,0.9113924050632912,anode,0.0153780998782503,0.0161435609560906,0.0144760272209157,5.9607786448178506e-05,critical
1200,8.282828282828282,0.9113924050632912,anode,0.0154996477109108,0.0162138342196573,0.0146696660602381,3.209516758194322e-05,critical
1200,8.383838383838384,0.9113924050632912,anode,0.0156293092527232,0.0163964480429551,0.0147276550209577,5.539922169198798e-05,critical
1200,8.484848484848484,0.9113924050632912,anode,0.0156190353963759,0.0163169618607858,0.0148116688737605,-4.8040360529377024e-05,critical
1200,8.585858585858587,0.9113924050632912,anode,0.0157178246542943,0.0164612482105651,0.0148495988250424,-5.6762766390969536e-05,critical
1200,8.686868686868687,0.9113924050632912,anode,0.0158243199323501,0.016564981008894,0.0149600437907127,-8.253597536953066e-05,critical
1200,8.787878787878787,0.9113924050632912,anode,0.0160559880059482,0.0168607205927484,0.0151064159202342,6.352945309596776e-05,critical
1200,8.88888888888889,0.9113924050632912,anode,0.0159449632904832,0.0167061446191708,0.0150552821917549,1.618644205932912e-05,critical
1200,8.98989898989899,0.9113924050632912,anode,0.0162644261990578,0.0170735542004481,0.0153117575920578,-2.242872517007072e-05,critical
1200,9.09090909090909,0.9113924050632912,anode,0.0161958408305296,0.0169761886323241,0.0152820848057297,3.520452303645065e-05,critical
1200,9.191919191919192,0.9113924050632912,anode,0.0163875575966233,0.0171119550925781,0.0155509775345707,5.08718284119333e-05,critical
1200,9.292929292929292,0.9113924050632912,anode,0.0165125444399586,0.0173200441152002,0.0155647789846356,-1.303259761855342e-05,critical
1200,9.393939393939394,0.9113924050632912,anode,0.016859389783308,0.0175759312531439,0.0160372708309437,-2.293729094380924e-05,critical
1200,9.494949494949497,0.9113924050632912,anode,0.0169015715599391,0.0176916821759488,0.015980654829574,-6.01121378091404e-05,critical
1200,9.595959595959595,0.9113924050632912,anode,0.01696813988887,0.0177815012509984,0.0160168590431834,-1.8305943251698891e-06,critical
1200,9.696969696969695,0.9113924050632912,anode,0.0173579833187258,0.0182138770827315,0.0163519775386315,1.4180530533200811e-06,critical
1200,9.797979797979798,0.9113924050632912,anode,0.0173328076647561,0.0181667885439516,0.0163565494429145,3.3070139529411944e-05,critical
1200,9.8989898989899,0.9113924050632912,anode,0.0176308242407439,0.0184986829236485,0.0166104438001072,5.532733219689151e-05,critical
1200,10.0,0.9113924050632912,anode,0.0177215007344886,0.0186070800608156,0.0166780142357988,-1.955491670413122e-05,critical
1200,0.0,1.0126582278481011,anode,0.0177766250549836,0.0185217993492413,0.0169214884170154,0.000101636796485,critical
1200,0.101010101010101,1.0126582278481011,anode,0.0176328328963806,0.0184610435071281,0.0166675349393771,-3.430095656270021e-06,critical
1200,0.202020202020202,1.0126582278481011,anode,0.0175384640996383,0.018415327916752,0.0165044244106148,6.267154010463704e-05,critical
1200,0.303030303030303,1.0126582278481011,anode,0.0171728987648728,0.0179821546352649,0.0162290747716967,-2.183917423264851e-05,critical
1200,0.404040404040404,1.0126582278481011,anode,0.017091040281027,0.0178750153810807,0.0161802903540292,-5.362220233443384e-05,critical
1200,0.5050505050505051,1.0126582278481011,anode,0.0169183020809935,0.0177644137647755,0.0159212416729484,6.7630471115700496e-06,critical
1200,0.6060606060606061,1.0126582278481011,anode,0.016850441706243,0.0176893134534248,0.0158620451416275,-5.711885144658251e-05,critical
1200,0.7070707070707071,1.0126582278481011,anode,0.0165871895941826,0.0174540328227902,0.0155572657019133,-5.970160680397753e-06,critical
1200,0.8080808080808081,1.0126582278481011,anode,0.0163789438272968,0.0170784021952719,0.0155751804761532,6.03570631617159e-05,critical
1200,0.9090909090909092,1.0126582278481011,anode,0.0162352607151387,0.0171107928720436,0.0151885620666397,1.1249782700694608e-05,critical
1200,1.0101010101010102,1.0126582278481011,anode,0.0161718748108199,0.0167981273318502,0.0154611756165397,8.812548066564756e-05,critical
1200,1.1111111111111112,1.0126582278481011,anode,0.0161819173798985,0.0170278337437291,0.0151764088285645,-4.206944144793363e-05,critical
1200,1.2121212121212122,1.0126582278481011,anode,0.0159606803354229,0.0167046995651479,0.0150944227593968,-2.902914259719039e-05,critical
1200,1.3131313131313131,1.0126582278481011,anode,0.0158427373487085,0.016658024782187,0.0148769064978927,-4.734037834796123e-06,critical
1200,1.414141414141414,1.0126582278481011,anode,0.0156939096368935,0.0164511486836788,0.0148072453412146,7.890660753355014e-06,critical
1200,1.5151515151515151,1.0126582278481011,anode,0.0155289608483526,0.0163764265176285,0.0145134059092685,4.23669852249948e-06,critical
1200,1.616161616161616,1.0126582278481011,anode,0.0155701551582319,0.0163271449292328,0.0146824572810873,2.662233318130308e-05,critical
1200,1.7171717171717171,1.0126582278481011,anode,0.0154601194547348,0.0161927904430765,0.0146048317746096,1.528004441073538e-05,critical
1200,1.818181818181818,1.0126582278481011,anode,0.0153822737576876,0.0161198947712574,0.0145194466927449,1.7879974836549733e-05,critical
1200,1.9191919191919191,1.0126582278481011,anode,0.0152887878714483,0.0160221203096996,0.0144310070129124,4.564498153872022e-06,critical
1200,2.0202020202020203,1.0126582278481011,anode,0.0153347507926792,0.0160937884399372,0.0144414706632413,4.6383267898475233e-05,critical
1200,2.121212121212121,1.0126582278481011,anode,0.0152449037927271,0.0159103910160377,0.0144782184314486,-2.4878889998434425e-05,critical
1200,2.2222222222222223,1.0126582278481011,anode,0.0150729008637583,0.0158092586296017,0.0142088212891787,1.84261141238934e-06,critical
1200,2.323232323232323,1.0126582278481011,anode,0.0149961339986523,0.0156814544729879,0.014200893702069,-2.086979009065745e-05,high
1200,2.4242424242424243,1.0126582278481011,anode,0.0149890057818041,0.0155546371232202,0.0143480901468259,-0.000108325244187,high
1200,2.525252525252525,1.0126582278481011,anode,0.0150713865760377,0.0158817710547474,0.014101757135853,7.608213027733656e-05,critical
1200,2.6262626262626263,1.0126582278481011,anode,0.0149951583687111,0.0156574551320148,0.0142308950428908,5.779053257867892e-06,high
1200,2.727272727272727,1.0126582278481011,anode,0.014804483221,0.0155648685636933,0.0139039997895357,1.0150897472237836e-05,high
1200,2.8282828282828283,1.0126582278481011,anode,0.0147721564141339,0.0153659479504809,0.0140961223257558,-3.5898213756991695e-05,high
1200,2.929292929292929,1.0126582278481011,anode,0.0148071722018033,0.0154759096597991,0.0140326761831402,1.822864244952168e-05,high
1200,3.0303030303030303,1.0126582278481011,anode,0.0147034227330816,0.0154349666042092,0.0138417743436661,-4.104368063956526e-05,high
1200,3.131313131313131,1.0126582278481011,anode,0.014739268511291,0.0155205764930354,0.0138075279312796,5.974232406256944e-05,high
1200,3.2323232323232323,1.0126582278481011,anode,0.0145051148214691,0.0153137593588842,0.0135318071392739,-7.394803504993876e-06,high
1200,3.333333333333333,1.0126582278481011,anode,0.014628042733792,0.0153709278704585,0.0137500621485331,2.0124890959809032e-05,high
1200,3.4343434343434343,1.0126582278481011,anode,0.014545728814574,0.0152582646635568,0.0137091845861988,8.38497236525712e-06,high
1200,3.5353535353535355,1.0126582278481011,anode,0.01450352110883,0.0151597591144934,0.0137391186040428,-0.0001318795051036,high
1200,3.636363636363636,1.0126582278481011,anode,0.0146346091357785,0.015375577406851,0.0137580404115118,-7.647071756991482e-05,high
1200,3.7373737373737375,1.0126582278481011,anode,0.0145650218639377,0.0152845024998898,0.0137156962949485,0.0001170679011659,high
1200,3.8383838383838382,1.0126582278481011,anode,0.0144304886270172,0.0152680464524581,0.0134136269699655,9.141918960604476e-06,high
1200,3.939393939393939,1.0126582278481011,anode,0.0143898609990073,0.015045089827727,0.013629608774724,-4.4062935454405736e-05,high
1200,4.040404040404041,1.0126582278481011,anode,0.0143371188124933,0.0149775751231975,0.0135965135364583,-3.077786708317891e-05,high
1200,4.141414141414141,1.0126582278481011,anode,0.0145436936410884,0.0151905133625057,0.0137964862030809,-1.288551491924606e-06,high
1200,4.242424242424242,1.0126582278481011,anode,0.0142861587009322,0.0149187188137534,0.01355592058662,6.926446643790599e-06,high
1200,4.343434343434343,1.0126582278481011,anode,0.0145172883153404,0.0153397284506852,0.0135240257124249,7.321911667211251e-07,high
1200,4.444444444444445,1.0126582278481011,anode,0.0144288464604257,0.0151110730081357,0.0136323153188978,4.462369052073862e-05,high
1200,4.545454545454545,1.0126582278481011,anode,0.0144454993076533,0.0151477039471987,0.0136217222051101,4.4776319015446566e-05,high
1200,4.646464646464646,1.0126582278481011,anode,0.0142973245837183,0.0149334081199271,0.0135610830664701,7.53352949996174e-05,high
1200,4.747474747474747,1.0126582278481011,anode,0.0143922329564997,0.0150416801778444,0.0136399128197156,-3.746758598638361e-05,high
1200,4.848484848484849,1.0126582278481011,anode,0.0142374944267492,0.014911365354464,0.0134501936749474,5.908440078792473e-05,high
1200,4.94949494949495,1.0126582278481011,anode,0.0145127568503546,0.0152550918451875,0.0136338624760967,-4.435633288730352e-05,high
1200,5.05050505050505,1.0126582278481011,anode,0.014284664887519,0.0148900250958358,0.0135904337223955,-1.64724116237797e-05,high
1200,5.151515151515151,1.0126582278481011,anode,0.0143601620943042,0.0149928734483664,0.0136271712035522,-0.0001135186315411,high
1200,5.252525252525253,1.0126582278481011,anode,0.0143273819557569,0.0149194025083976,0.0136509522989804,-1.688984856728462e-05,high
1200,5.353535353535354,1.0126582278481011,anode,0.0143082585494208,0.0149917544530833,0.0135093204762321,8.8846997709014e-06,high
1200,5.454545454545454,1.0126582278481011,anode,0.0144949076135741,0.0151383083551931,0.0137517144460305,-2.588667963502641e-05,high
1200,5.555555555555555,1.0126582278481011,anode,0.0144800344699255,0.0151489291645323,0.0137025831433004,-2.58380375045706e-06,high
1200,5.656565656565657,1.0126582278481011,anode,0.0144249370067738,0.0150969340403399,0.0136427839620767,3.898598126492966e-06,high
1200,5.757575757575758,1.0126582278481011,anode,0.0144047018856523,0.0151054190385829,0.0135824412254172,5.002905245487963e-05,high
1200,5.858585858585858,1.0126582278481011,anode,0.0143961176401951,0.0150187281234114,0.013679978090762,5.156906010448245e-06,high
1200,5.959595959595959,1.0126582278481011,anode,0.0143462332657478,0.0150565835284038,0.0135106236932741,-1.3939689153237684e-05,high
1200,6.0606060606060606,1.0126582278481011,anode,0.0145283615442222,0.0152687481713114,0.0136524342618409,-4.17845117012097e-05,high
1200,6.161616161616162,1.0126582278481011,anode,0.0145896346055071,0.0152693777750302,0.0137972948631171,-6.904656458709894e-05,high
1200,6.262626262626262,1.0126582278481011,anode,0.01456812789067,0.0152846303696999,0.0137262733043234,1.692813877453418e-05,high
1200,6.363636363636363,1.0126582278481011,anode,0.0145721412597723,0.0152715837083986,0.0137533593653757,4.731778731004852e-05,high
1200,6.4646464646464645,1.0126582278481011,anode,0.0146150956851217,0.0153301934764356,0.0137757316543744,3.59573824093111e-06,high
1200,6.565656565656566,1.0126582278481011,anode,0.0147173913275187,0.0154750637587509,0.0138197484989035,-4.071339168854687e-06,high
1200,6.666666666666667,1.0126582278481011,anode,0.0146634545361084,0.0153258337436271,0.0138959748713564,4.083280493915372e-05,high
1200,6.767676767676767,1.0126582278481011,anode,0.0146003637745551,0.0153220911264328,0.0137516703503169,4.269545794816094e-06,high
1200,6.8686868686868685,1.0126582278481011,anode,0.0145904422283002,0.0152515226178281,0.0138243031864149,2.8144796096361447e-05,high
1200,6.96969696969697,1.0126582278481011,anode,0.0146401133559452,0.0154301834731493,0.0136951459299074,3.62831845374309e-05,high
1200,7.070707070707071,1.0126582278481011,anode,0.0146625161779867,0.0153032698659806,0.0139224730191272,-8.83533132820969e-05,high
1200,7.171717171717171,1.0126582278481011,anode,0.0147958187279887,0.0154762664130769,0.0140055198417821,9.911254739153597e-08,high
1200,7.272727272727272,1.0126582278481011,anode,0.0149298789265444,0.0156269388162727,0.0141179464836656,3.6244492695974704e-05,high
1200,7.373737373737374,1.0126582278481011,anode,0.0148664086214019,0.0155643065681391,0.0140520973270888,-6.371233694105118e-05,high
1200,7.474747474747475,1.0126582278481011,anode,0.0149026781136476,0.0155898217628837,0.0141019274274719,-9.907959465842744e-05,high
1200,7.575757575757575,1.0126582278481011,anode,0.0149101780650749,0.0156718523530921,0.014004966823457,-0.0001305504961829,high
1200,7.6767676767676765,1.0126582278481011,anode,0.0150635294729917,0.0157865282264874,0.0142175093808767,3.155362761360274e-05,critical
1200,7.777777777777778,1.0126582278481011,anode,0.0152200954179372,0.015961667450955,0.014349404786529,6.187705630618122e-05,critical
1200,7.878787878787879,1.0126582278481011,anode,0.015163709073828,0.0158766037883837,0.0143323162713512,-3.9758145431485005e-05,critical
1200,7.979797979797979,1.0126582278481011,anode,0.0152887713506014,0.016016946018088,0.0144370590780273,-6.555088324898045e-05,critical
1200,8.080808080808081,1.0126582278481011,anode,0.0152638320899518,0.015980067050284,0.0144284925405781,5.449274604033467e-05,critical
1200,8.181818181818182,1.0126582278481011,anode,0.0153743263167289,0.0161047325646751,0.0145201380931006,7.309642576961975e-05,critical
1200,8.282828282828282,1.0126582278481011,anode,0.0154558603507798,0.0162013730645213,0.014582519415356,-4.507318709438167e-05,critical
1200,8.383838383838384,1.0126582278481011,anode,0.0155453483558638,0.0162854466251129,0.0146807221160094,-1.4122283279005316e-05,critical
1200,8.484848484848484,1.0126582278481011,anode,0.0156032610424094,0.0163156022238482,0.0147768712658688,-1.3019339450233473e-05,critical
1200,8.585858585858587,1.0126582278481011,anode,0.0156547437293953,0.0163636379197405,0.0148333271228664,-2.5533731674968027e-05,critical
1200,8.686868686868687,1.0126582278481011,anode,0.0158901758571018,0.0166465660702891,0.015005982217625,-5.195817779875619e-05,critical
1200,8.787878787878787,1.0126582278481011,anode,0.0159861725898011,0.0169507568344814,0.0148045387607459,3.329399756643341e-05,critical
1200,8.88888888888889,1.0126582278481011,anode,0.0160691632652847,0.0168835898452417,0.0151068323723153,-3.454124966244361e-05,critical
1200,8.98989898989899,1.0126582278481011,anode,0.0162111620629631,0.0170452799504366,0.0152230310372686,-1.0933216733765756e-05,critical
1200,9.09090909090909,1.0126582278481011,anode,0.0164703847616461,0.0172580128316727,0.0155492466137697,-3.913492020490232e-05,critical
1200,9.191919191919192,1.0126582278481011,anode,0.0163995201100038,0.01721654170082,0.015436176048991,7.525365008774429e-05,critical
1200,9.292929292929292,1.0126582278481011,anode,0.0165080866588653,0.0173494812289096,0.0155124905130351,5.39360017620001e-05,critical
1200,9.393939393939394,1.0126582278481011,anode,0.0167763557989048,0.0174562676605605,0.0160014570458436,-3.6160823845890216e-05,critical
1200,9.494949494949497,1.0126582278481011,anode,0.0169939855618647,0.0178404502676254,0.0159967356345649,4.931225642022524e-05,critical
1200,9.595959595959595,1.0126582278481011,anode,0.0171003355817854,0.0179830660585014,0.0160536985901442,-3.78415639531321e-05,critical
1200,9.696969696969695,1.0126582278481011,anode,0.0172699860988793,0.0181005730939966,0.0162978929619134,-2.2813458229643503e-05,critical
1200,9.797979797979798,1.0126582278481011,anode,0.0174354333030744,0.0182861745267533,0.0164372978559451,1.518969012396646e-05,critical
1200,9.8989898989899,1.0126582278481011,anode,0.0176029484469905,0.0184523392568725,0.0166083248134913,1.7896118134313237e-05,critical
1200,10.0,1.0126582278481011,anode,0.0178008196381487,0.0186581479116397,0.0167939490465312,0.0001290439854057,critical
1200,0.0,1.1139240506329111,anode,0.0178071190853493,0.0185800766522847,0.0169175379362695,1.005839183199426e-05,critical
1200,0.101010101010101,1.1139240506329111,anode,0.0174968462837691,0.0184515910771729,0.0163521919255581,5.2263608110071695e-05,critical
1200,0.202020202020202,1.1139240506329111,anode,0.0174074201586155,0.0182356062455624,0.0164400458001132,3.5306011752326137e-06,critical
1200,0.303030303030303,1.1139240506329111,anode,0.0171696894396051,0.0179955802814084,0.0162029306397082,3.417403321422488e-05,critical
1200,0.404040404040404,1.1139240506329111,anode,0.0172107863602888,0.0180068513654525,0.0162852162975508,-2.3597374371549743e-05,critical
1200,0.5050505050505051,1.1139240506329111,anode,0.0169119842819008,0.0177729488184513,0.0158925075144614,8.646810998420492e-05,critical
1200,0.6060606060606061,1.1139240506329111,anode,0.0167658638893503,0.017496868625499,0.015923321868561,-5.736358950161502e-05,critical
1200,0.7070707070707071,1.1139240506329111,anode,0.0166053844094365,0.0174392139036723,0.0156220565648216,1.071668209210896e-05,critical
1200,0.8080808080808081,1.1139240506329111,anode,0.016401196224083,0.0171599079106081,0.0155188738363477,-3.558482785054472e-05,critical
1200,0.9090909090909092,1.1139240506329111,anode,0.0164084881802544,0.0172503825679732,0.0154116468861789,1.5606248154625645e-05,critical
1200,1.0101010101010102,1.1139240506329111,anode,0.01619886958943,0.0170214304839643,0.0152256141120226,7.458183462272523e-05,critical
1200,1.1111111111111112,1.1139240506329111,anode,0.016041347272981,0.016833801773157,0.0151095155416522,1.88839227053203e-05,critical
1200,1.2121212121212122,1.1139240506329111,anode,0.0161585272376655,0.016992404225288,0.0151696186442646,-4.886467429102204e-05,critical
1200,1.3131313131313131,1.1139240506329111,anode,0.0156528271752795,0.0163456392900245,0.0148520975136907,-6.659049595416926e-05,critical
1200,1.414141414141414,1.1139240506329111,anode,0.0156525494480408,0.0163767716258512,0.0148098708792008,-5.5537004156703295e-05,critical
1200,1.5151515151515151,1.1139240506329111,anode,0.0156437600314038,0.0163923745531322,0.0147682269521681,3.196250317419161e-05,critical
1200,1.616161616161616,1.1139240506329111,anode,0.015624084289634,0.0163209697505074,0.0148172609650112,-7.916603372742262e-05,critical
1200,1.7171717171717171,1.1139240506329111,anode,0.0155449145122275,0.0163609029229378,0.0145744256007388,2.6479919830802745e-05,critical
1200,1.818181818181818,1.1139240506329111,anode,0.0153831014152726,0.0161441304200395,0.0144869173764793,7.01678240539622e-05,critical
1200,1.9191919191919191,1.1139240506329111,anode,0.0153613408784368,0.0161142988260132,0.0144760355032683,7.239924778594099e-05,critical
1200,2.0202020202020203,1.1139240506329111,anode,0.0151558689969579,0.0157983602640042,0.0144184482486074,-5.281414998420669e-05,critical
1200,2.121212121212121,1.1139240506329111,anode,0.0151730837445294,0.0159236950236842,0.0142902932166648,-8.121455851966764e-06,critical
1200,2.2222222222222223,1.1139240506329111,anode,0.015207979501389,0.0160153223630867,0.0142457076086567,-2.2394141034428683e-05,critical
1200,2.323232323232323,1.1139240506329111,anode,0.0150511714247069,0.0157890809448549,0.0141843020423941,-4.224072482073675e-05,critical
1200,2.4242424242424243,1.1139240506329111,anode,0.0149760371583058,0.0156819180982254,0.0141527523377597,-1.86012433204864e-05,high
1200,2.525252525252525,1.1139240506329111,anode,0.0149675253785454,0.0156959145018609,0.0141131357651042,-3.191188724001325e-05,high
1200,2.6262626262626263,1.1139240506329111,anode,0.0150002622501272,0.0157490063217865,0.0141182571145681,-1.1612934796385842e-06,critical
1200,2.727272727272727,1.1139240506329111,anode,0.014813593239375,0.0155871103468161,0.0138946977772713,5.68231513007171e-06,high
1200,2.8282828282828283,1.1139240506329111,anode,0.0147404006713261,0.0153907939002302,0.0139899681684214,1.1291137810257672e-05,high
1200,2.929292929292929,1.1139240506329111,anode,0.0147585724067567,0.0155701223248618,0.0137845237082538,-1.1206224164527992e-05,high
1200,3.0303030303030303,1.1139240506329111,anode,0.0145901396191211,0.0153302875240855,0.0137156270777947,1.3404886027046603e-05,high
1200,3.131313131313131,1.1139240506329111,anode,0.014709512203755,0.0153939244644142,0.0139130509326189,-1.0127996897593156e-05,high
1200,3.2323232323232323,1.1139240506329111,anode,0.0146102942626736,0.0153626191017384,0.0137189362773798,8.420301181804669e-06,high
1200,3.333333333333333,1.1139240506329111,anode,0.0145540557431485,0.0151817166648863,0.0138321580973063,3.329239216943037e-05,high
1200,3.4343434343434343,1.1139240506329111,anode,0.0146716114592863,0.0153934790574386,0.0138222601164334,-7.019549581988069e-05,high
1200,3.5353535353535355,1.1139240506329111,anode,0.0144999128741548,0.0152963089333277,0.0135441897740368,-2.1914792880053995e-05,high
1200,3.636363636363636,1.1139240506329111,anode,0.0144507207969556,0.0151219574544019,0.0136697764241473,1.5538230205022294e-05,high
1200,3.7373737373737375,1.1139240506329111,anode,0.0144553742579773,0.0152521917842237,0.0134983656846128,-2.754847375655422e-05,high
1200,3.8383838383838382,1.1139240506329111,anode,0.0145075531436613,0.0151447164009845,0.0137721738470172,-5.644470915029e-05,high
1200,3.939393939393939,1.1139240506329111,anode,0.0146366987509083,0.0153381642073012,0.0138163163543809,-3.88968123409505e-07,high
1200,4.040404040404041,1.1139240506329111,anode,0.0144979024184622,0.0152395581226067,0.0136202805917469,4.362306917545124e-06,high
1200,4.141414141414141,1.1139240506329111,anode,0.0143093526717338,0.0150387100659535,0.0134468732689305,6.084494930624971e-07,high
1200,4.242424242424242,1.1139240506329111,anode,0.0143668546773155,0.0151858725166325,0.0133763562558183,1.3208369001613146e-05,high
1200,4.343434343434343,1.1139240506329111,anode,0.0144350085964312,0.0151574728393645,0.0135834131837502,2.304330017846506e-05,high
1200,4.444444444444445,1.1139240506329111,anode,0.0142433223065705,0.0149382564304336,0.0134272745931055,5.505507078511638e-05,high
1200,4.545454545454545,1.1139240506329111,anode,0.0142477993142644,0.0149449412673167,0.0134292941432473,2.9364732252593767e-05,high
1200,4.646464646464646,1.1139240506329111,anode,0.0143153368540431,0.0150146683554575,0.0134946879111577,9.401192084741896e-06,high
1200,4.747474747474747,1.1139240506329111,anode,0.0143859399421089,0.0150257194030738,0.0136468413105008,1.0877406648620795e-05,high
1200,4.848484848484849,1.1139240506329111,anode,0.0142849283563357,0.0149423473018669,0.0135209315499768,3.7860891869728e-05,high
1200,4.94949494949495,1.1139240506329111,anode,0.0143491391499678,0.0150081259572059,0.0135835482078571,-3.987535538829912e-05,high
1200,5.05050505050505,1.1139240506329111,anode,0.0144008843452429,0.0151595727155508,0.0134975866372126,4.33054623142371e-05,high
1200,5.151515151515151,1.1139240506329111,anode,0.0143910766521655,0.0150724969890795,0.0135944297225305,-7.394435513074876e-05,high
1200,5.252525252525253,1.1139240506329111,anode,0.0143750018847211,0.0150326389362239,0.0136112679397359,4.867331174042068e-05,high
1200,5.353535353535354,1.1139240506329111,anode,0.0143634845495603,0.0151406205488719,0.0134325721788243,7.019215560114911e-05,high
1200,5.454545454545454,1.1139240506329111,anode,0.0143701452738699,0.0150953910224906,0.0135139187368597,2.6664726069854834e-05,high
1200,5.555555555555555,1.1139240506329111,anode,0.0144353076607861,0.0151264920472767,0.0136270749765167,2.194655652989968e-06,high
1200,5.656565656565657,1.1139240506329111,anode,0.0143048425994864,0.0150744971978294,0.0133850433224179,2.213099126478738e-05,high
1200,5.757575757575758,1.1139240506329111,anode,0.0144138580789939,0.0151153460156044,0.0135910690664458,-2.6912465111953023e-05,high
1200,5.858585858585858,1.1139240506329111,anode,0.0143513060776121,0.0148990534337383,0.0137314732195277,5.997042326409632e-05,high
1200,5.959595959595959,1.1139240506329111,anode,0.0144302946898669,0.0152126539886176,0.0134915458243073,-9.827364241365072e-05,high
1200,6.0606060606060606,1.1139240506329111,anode,0.0144592778228925,0.0151874811655955,0.0136000578488177,-7.744740439434239e-06,high
1200,6.161616161616162,1.1139240506329111,anode,0.014569846042779,0.0153269323954573,0.0136712883387836,-1.0713551305540049e-05,high
1200,6.262626262626262,1.1139240506329111,anode,0.014487124988597,0.0150607489697831,0.0138352965892788,-4.134426491201879e-05,high
1200,6.363636363636363,1.1139240506329111,anode,0.0145107501305073,0.0152731190704233,0.0136035754835571,-4.268261829374719e-05,high
1200,6.4646464646464645,1.1139240506329111,anode,0.0145144488239057,0.0152071663182856,0.0137046066940048,3.3195957782507334e-05,high
1200,6.565656565656566,1.1139240506329111,anode,0.014490839558844,0.0151273083972017,0.0137563275047308,5.364679445544338e-05,high
1200,6.666666666666667,1.1139240506329111,anode,0.014691384645391,0.0153990565845096,0.0138629153059119,2.02940797353198e-05,high
1200,6.767676767676767,1.1139240506329111,anode,0.0146185115611059,0.0152848888183807,0.0138456678352382,3.148863555329812e-06,high
1200,6.8686868686868685,1.1139240506329111,anode,0.014658686732056,0.0154413589947102,0.0137248183005904,-1.5686909607993157e-05,high
1200,6.96969696969697,1.1139240506329111,anode,0.0147765004906467,0.0154175845843385,0.0140381885526978,-4.924061962868195e-05,high
1200,7.070707070707071,1.1139240506329111,anode,0.0147104325929437,0.0155450917583147,0.0137020831335361,1.4932804165449e-06,high
1200,7.171717171717171,1.1139240506329111,anode,0.0147493368366772,0.0154549977452251,0.0139234798643918,5.7850936576514914e-05,high
1200,7.272727272727272,1.1139240506329111,anode,0.0148219170704397,0.0154802575784147,0.014059543307104,9.209555443725104e-05,high
1200,7.373737373737374,1.1139240506329111,anode,0.0148467249202047,0.0156387627183981,0.0139000874090087,8.579096741088116e-05,high
1200,7.474747474747475,1.1139240506329111,anode,0.0148521421525948,0.0156584885261948,0.0138867699098798,2.0915430715260477e-05,high
1200,7.575757575757575,1.1139240506329111,anode,0.0149578472256903,0.0156971553928495,0.0140863797508535,-9.399217415108393e-05,high
1200,7.6767676767676765,1.1139240506329111,anode,0.0150609653749721,0.0157130066611426,0.0143105781966226,3.49375618256632e-05,critical
1200,7.777777777777778,1.1139240506329111,anode,0.015335295485597,0.0161222236066675,0.0144035644495955,1.961543537794207e-06,critical
1200,7.878787878787879,1.1139240506329111,anode,0.0152732190083884,0.0160335801488346,0.0143772444383734,5.498445356432716e-05,critical
1200,7.979797979797979,1.1139240506329111,anode,0.0152914282256842,0.0159761052364509,0.0144984322642589,-7.252620480582043e-05,critical
1200,8.080808080808081,1.1139240506329111,anode,0.0152782060309054,0.0159728000803617,0.0144721073655719,-6.17068520208784e-05,critical
1200,8.181818181818182,1.1139240506329111,anode,0.0154152930100482,0.0161859946414471,0.0145070889345772,1.7033839049158566e-05,critical
1200,8.282828282828282,1.1139240506329111,anode,0.0154415856025096,0.0162527088406544,0.0144767573093307,-2.60804693997516e-05,critical
1200,8.383838383838384,1.1139240506329111,anode,0.0157167039832489,0.0164044495796849,0.0149237106223729,-4.808946816496246e-05,critical
1200,8.484848484848484,1.1139240506329111,anode,0.0156409058695961,0.0164541088403322,0.0146756688957915,-3.389650695825998e-06,critical
1200,8.585858585858587,1.1139240506329111,anode,0.0158160527471563,0.0165203589544196,0.0150022388088491,-1.245635488755592e-05,critical
1200,8.686868686868687,1.1139240506329111,anode,0.0159229697666062,0.0166831674024058,0.0150344521609926,-1.186079938834985e-05,critical
1200,8.787878787878787,1.1139240506329111,anode,0.0159931685121316,0.0166358619045254,0.0152616749121734,-2.5383044279347998e-05,critical
1200,8.88888888888889,1.1139240506329111,anode,0.0160584809670958,0.016856915385282,0.0151161218584804,-0.0001052960043665,critical
1200,8.98989898989899,1.1139240506329111,anode,0.0162030059479751,0.0169750219289011,0.0153007802286824,-3.2845944377117734e-05,critical
1200,9.09090909090909,1.1139240506329111,anode,0.0163881997754793,0.0172591408787885,0.0153497758022845,-3.402869474480415e-05,critical
1200,9.191919191919192,1.1139240506329111,anode,0.0165756063556143,0.0173946305962984,0.0156124210727724,-2.68203641029644e-05,critical
1200,9.292929292929292,1.1139240506329111,anode,0.0165964354628458,0.0173960435073982,0.015659368707542,6.969308229218591e-05,critical
1200,9.393939393939394,1.1139240506329111,anode,0.0167093491687951,0.0176129979228494,0.0156278374211941,5.297606145754817e-05,critical
1200,9.494949494949497,1.1139240506329111,anode,0.016681281470957,0.0174913473942751,0.0157317055038046,5.349738895218469e-06,critical
1200,9.595959595959595,1.1139240506329111,anode,0.0168678319659776,0.0176787907170017,0.0159184728376187,4.353682519341705e-05,critical
1200,9.696969696969695,1.1139240506329111,anode,0.0170897465050758,0.0179141514514015,0.0161244755346239,8.14286981301348e-06,critical
1200,9.797979797979798,1.1139240506329111,anode,0.0174199901572019,0.0181432526987935,0.0165927561096444,4.262369184709524e-05,critical
1200,9.8989898989899,1.1139240506329111,anode,0.0175623604860236,0.0184353458225153,0.0165347702220071,-6.08520793014696e-06,critical
1200,10.0,1.1139240506329111,anode,0.0178210903442858,0.018736541030309,0.0167369483464017,-1.1116701290219669e-05,critical
1200,0.0,1.2151898734177216,anode,0.017828952698379,0.0187142457412231,0.0167870807249877,3.432980527766213e-06,critical
1200,0.101010101010101,1.2151898734177216,anode,0.0175612597668443,0.0183559301437815,0.0166406461585041,-1.920950762769121e-05,critical
1200,0.202020202020202,1.2151898734177216,anode,0.0174714017373,0.0183748988038151,0.0163996670641352,-4.5149828148607285e-05,critical
1200,0.303030303030303,1.2151898734177216,anode,0.0172398210678111,0.0180785642059797,0.016253398549366,0.0001184504621782,critical
1200,0.404040404040404,1.2151898734177216,anode,0.0170712675024919,0.0178159872917043,0.0162135093386481,1.3689659363357803e-05,critical
1200,0.5050505050505051,1.2151898734177216,anode,0.0168449121578521,0.0176064963229123,0.0159620297296833,6.158324345220965e-05,critical
1200,0.6060606060606061,1.2151898734177216,anode,0.0166749082669275,0.0175201461593998,0.0156763607460538,1.7219578395246783e-05,critical
1200,0.7070707070707071,1.2151898734177216,anode,0.0165292100991969,0.0174174918242986,0.0154675077424174,-4.884989925365083e-05,critical
1200,0.8080808080808081,1.2151898734177216,anode,0.0164674495775897,0.017265455064439,0.0155298964448492,0.0001064622695184,critical
1200,0.9090909090909092,1.2151898734177216,anode,0.0163805510651135,0.0171526554433512,0.0154801137544107,1.1868414683589297e-07,critical
1200,1.0101010101010102,1.2151898734177216,anode,0.0161097277633275,0.0168205965635453,0.0152890977739743,-4.507249511421291e-05,critical
1200,1.1111111111111112,1.2151898734177216,anode,0.0160933150939164,0.0167623699308946,0.0153259306246773,-0.0001041059805585,critical
1200,1.2121212121212122,1.2151898734177216,anode,0.0160320664417154,0.0168142632869639,0.0151144077588695,-2.1672580427197227e-06,critical
1200,1.3131313131313131,1.2151898734177216,anode,0.015858995435603,0.016660597162837,0.0149124024056858,2.5962192341734404e-05,critical
1200,1.414141414141414,1.2151898734177216,anode,0.0157705438374479,0.0164405492271176,0.0150018839415543,-1.9006002136771507e-05,critical
1200,1.5151515151515151,1.2151898734177216,anode,0.015629969330879,0.0163831681542635,0.0147469857366799,-7.416487950342705e-05,critical
1200,1.616161616161616,1.2151898734177216,anode,0.0156894519593086,0.0164848700270932,0.0147482829772663,-8.091188375744723e-05,critical
1200,1.7171717171717171,1.2151898734177216,anode,0.0154059591815753,0.0160932461032317,0.014611591425691,1.0660634285133403e-05,critical
1200,1.818181818181818,1.2151898734177216,anode,0.015467113929282,0.0161473521973392,0.0146824615064888,3.0721849432510387e-05,critical
1200,1.9191919191919191,1.2151898734177216,anode,0.0152320484621138,0.0159385773620783,0.0144100590015201,3.210288552879695e-05,critical
1200,2.0202020202020203,1.2151898734177216,anode,0.0152110388151767,0.0159615570884888,0.0143286512476254,2.405176133253074e-05,critical
1200,2.121212121212121,1.2151898734177216,anode,0.0152004895569306,0.0160120588915912,0.0142321968952419,-8.148639410047645e-06,critical
1200,2.2222222222222223,1.2151898734177216,anode,0.0151914158720679,0.0159688621314617,0.0142707453131186,5.148155327077703e-05,critical
1200,2.323232323232323,1.2151898734177216,anode,0.0149808752834341,0.0156603804512994,0.0141904280792643,0.0001130807877488,high
1200,2.4242424242424243,1.2151898734177216,anode,0.0150168849070741,0.0157483590136723,0.0141589714325848,6.165622917767679e-06,critical
1200,2.525252525252525,1.2151898734177216,anode,0.0149026300231553,0.0155744772152449,0.0141238152533038,-6.563186298969015e-05,high
1200,2.6262626262626263,1.2151898734177216,anode,0.0147541503676479,0.0155290761643281,0.013832445045224,2.084282999014681e-05,high
1200,2.727272727272727,1.2151898734177216,anode,0.0147320405136421,0.015449906531316,0.0138899177733899,-2.2519948182202796e-05,high
1200,2.8282828282828283,1.2151898734177216,anode,0.0147111823979833,0.0155262220285247,0.0137306479619843,5.6898930929290885e-05,high
1200,2.929292929292929,1.2151898734177216,anode,0.0147920282617452,0.0154832493277645,0.0139853095302627,-8.610473527696318e-05,high
1200,3.0303030303030303,1.2151898734177216,anode,0.0146410014461073,0.0153344439472957,0.013831630701526,6.055328529024733e-06,high
1200,3.131313131313131,1.2151898734177216,anode,0.0147936276969657,0.0154483334797344,0.0140372840646617,5.0710301384994815e-05,high
1200,3.2323232323232323,1.2151898734177216,anode,0.0146156814445458,0.0153559153151,0.0137408530787904,4.5977625542392906e-05,high
1200,3.333333333333333,1.2151898734177216,anode,0.0146810407151075,0.0155813818104445,0.0135738911624714,-3.1394909670037794e-05,high
1200,3.4343434343434343,1.2151898734177216,anode,0.0145448041304018,0.0152397408932304,0.0137313769268568,6.717852860972496e-05,high
1200,3.5353535353535355,1.2151898734177216,anode,0.0144561871503172,0.0151250630252672,0.0136778769710431,5.243475493877723e-05,high
1200,3.636363636363636,1.2151898734177216,anode,0.0146794466431524,0.0153627472571226,0.01388279217654,7.758710647193367e-05,high
1200,3.7373737373737375,1.2151898734177216,anode,0.0144660553009259,0.015085293184593,0.0137548260689942,-1.8522687849781345e-05,high
1200,3.8383838383838382,1.2151898734177216,anode,0.0145157620751348,0.0152335184876668,0.013671685570003,-7.1103449058553805e-06,high
1200,3.939393939393939,1.2151898734177216,anode,0.0144341329199508,0.0151284728465596,0.0136215578022236,-3.309641451963414e-06,high
1200,4.040404040404041,1.2151898734177216,anode,0.0144409207604024,0.015162136061845,0.0135911505353851,2.1001820141339208e-05,high
1200,4.141414141414141,1.2151898734177216,anode,0.0143919697171756,0.0150465114708512,0.0136328137231668,3.634534671525571e-05,high
1200,4.242424242424242,1.2151898734177216,anode,0.0143944831222903,0.0150243398635941,0.0136686821238912,1.1700910373120962e-05,high
1200,4.343434343434343,1.2151898734177216,anode,0.014320576506615,0.0150285262685386,0.0134876098776469,4.316175806229277e-05,high
1200,4.444444444444445,1.2151898734177216,anode,0.0143831572363594,0.0151274060949152,0.013500567103027,3.91157120794881e-06,high
1200,4.545454545454545,1.2151898734177216,anode,0.014365912259716,0.0150258356129851,0.0135993304204648,3.273451287956705e-05,high
1200,4.646464646464646,1.2151898734177216,anode,0.0142934090954199,0.0150306760462393,0.0134196268343981,-3.636847495173655e-07,high
1200,4.747474747474747,1.2151898734177216,anode,0.0143680898558262,0.0150326409836249,0.0135940303202965,-7.794899812127477e-05,high
1200,4.848484848484849,1.2151898734177216,anode,0.0143279089415275,0.0150921548190089,0.0134162664371968,-9.318731367647872e-07,high
1200,4.94949494949495,1.2151898734177216,anode,0.0142941096239216,0.0149720420643221,0.0135025338512395,-2.317151037186441e-05,high
1200,5.05050505050505,1.2151898734177216,anode,0.0143486281335533,0.0150303536757942,0.0135522204786989,3.456722655777782e-05,high
1200,5.151515151515151,1.2151898734177216,anode,0.0142962230212369,0.0150780892790583,0.0133585344756497,3.627896448851859e-05,high
1200,5.252525252525253,1.2151898734177216,anode,0.0143330033639614,0.0149676990823683,0.0136002930847161,5.536089735765316e-06,high
1200,5.353535353535354,1.2151898734177216,anode,0.0143213472968338,0.0149730961492134,0.0135656302082515,1.3448528240279823e-05,high
1200,5.454545454545454,1.2151898734177216,anode,0.0143389895126319,0.0150808113073775,0.0134593130382791,-1.0566399729472811e-06,high
1200,5.555555555555555,1.2151898734177216,anode,0.0144042176916801,0.0150479973533386,0.0136599290584881,-7.689803179746426e-06,high
1200,5.656565656565657,1.2151898734177216,anode,0.0143569960874256,0.0150450838690917,0.0135522508315796,-3.4544841974916394e-06,high
1200,5.757575757575758,1.2151898734177216,anode,0.0142923218255405,0.0149248887449275,0.0135621185226664,8.374362127994901e-06,high
1200,5.858585858585858,1.2151898734177216,anode,0.0143747268662458,0.0150990294625757,0.0135199513126779,1.950617826890106e-05,high
1200,5.959595959595959,1.2151898734177216,anode,0.0143769558975813,0.0151189076684659,0.0134975042531262,1.1420565976532694e-05,high
1200,6.0606060606060606,1.2151898734177216,anode,0.0145048296395137,0.0151555147877214,0.0137517989045176,-3.684623621568626e-05,high
1200,6.161616161616162,1.2151898734177216,anode,0.0143706972046994,0.0149746171964334,0.013678967542278,-1.7583465644730833e-05,high
1200,6.262626262626262,1.2151898734177216,anode,0.0145127512950051,0.0152208857636409,0.0136817407104185,3.038779787052834e-05,high
1200,6.363636363636363,1.2151898734177216,anode,0.0144725996593833,0.0151448273132103,0.0136899847679813,4.871289294820868e-05,high
1200,6.4646464646464645,1.2151898734177216,anode,0.0145255413658318,0.0152782380394838,0.0136325176490737,-2.649935260753925e-05,high
1200,6.565656565656566,1.2151898734177216,anode,0.0146412665437271,0.0153733015921854,0.0137765892023509,-9.225838575657402e-05,high
1200,6.666666666666667,1.2151898734177216,anode,0.0147182176863824,0.0154789656968098,0.0138161913577624,-1.5929781136955798e-05,high
1200,6.767676767676767,1.2151898734177216,anode,0.0146287717635053,0.0154199535285197,0.0136823368983628,1.4749248881233951e-05,high
1200,6.8686868686868685,1.2151898734177216,anode,0.0147191348671773,0.0153741871132925,0.0139622670078354,1.7391087273441854e-05,high
1200,6.96969696969697,1.2151898734177216,anode,0.0146530682273099,0.0154055913053789,0.0137615530515886,-3.951647002123145e-05,high
1200,7.070707070707071,1.2151898734177216,anode,0.0147477021597228,0.0153610979860809,0.0140424460489931,-0.0001271302978194,high
1200,7.171717171717171,1.2151898734177216,anode,0.0147896497004557,0.0155915103752869,0.0138296943542399,-3.614581116280272e-05,high
1200,7.272727272727272,1.2151898734177216,anode,0.014866692863279,0.0155713677220553,0.0140439866256608,2.297568030816906e-05,high
1200,7.373737373737374,1.2151898734177216,anode,0.0148441288402442,0.0156133326230381,0.0139316667329647,-1.1749678616300056e-05,high
1200,7.474747474747475,1.2151898734177216,anode,0.0148311498290904,0.0155262075930204,0.0140199241423035,7.716378084149156e-05,high
1200,7.575757575757575,1.2151898734177216,anode,0.0149947734428141,0.0156977123573658,0.0141755538507165,2.8851499442812413e-05,high
1200,7.6767676767676765,1.2151898734177216,anode,0.0149176097925625,0.0156762433014457,0.0140201956777572,5.350891773959653e-05,high
1200,7.777777777777778,1.2151898734177216,anode,0.0151681486336061,0.0159119775502477,0.0142946202754536,2.009564216386152e-05,critical
1200,7.878787878787879,1.2151898734177216,anode,0.0153086382181296,0.0160860256129897,0.0143899766449056,-9.816842049931852e-06,critical
1200,7.979797979797979,1.2151898734177216,anode,0.0151532409636999,0.015940732084937,0.0142184430481296,2.6082449260692398e-05,critical
1200,8.080808080808081,1.2151898734177216,anode,0.0153369128755827,0.0161490704375133,0.014369322655449,2.7022726550120807e-05,critical
1200,8.181818181818182,1.2151898734177216,anode,0.0154277937688483,0.0162388776678317,0.0144624005909329,-5.0976432568888445e-05,critical
1200,8.282828282828282,1.2151898734177216,anode,0.0154378019260484,0.01626064199207,0.0144559523535344,4.380921220598438e-05,critical
1200,8.383838383838384,1.2151898734177216,anode,0.0156320800036061,0.016307959357191,0.0148547087381613,-7.100673924533627e-07,critical
1200,8.484848484848484,1.2151898734177216,anode,0.0157577124067131,0.0164820324361855,0.0149161158660025,4.281768540897568e-05,critical
1200,8.585858585858587,1.2151898734177216,anode,0.0157992704183064,0.0165767327632238,0.0148836886013362,-9.594919016497372e-05,critical
1200,8.686868686868687,1.2151898734177216,anode,0.0157901724895035,0.0166145058429188,0.0148108585098797,-2.0882969563760788e-05,critical
1200,8.787878787878787,1.2151898734177216,anode,0.0160269302971794,0.0168668392123115,0.0150284765811875,2.5486109498976184e-06,critical
1200,8.88888888888889,1.2151898734177216,anode,0.0160805685855895,0.0167849898576727,0.0152687349852965,-5.637084044081063e-06,critical
1200,8.98989898989899,1.2151898734177216,anode,0.0161685506122656,0.0169800380894882,0.0152103212204224,7.809700936429659e-05,critical
1200,9.09090909090909,1.2151898734177216,anode,0.0163507886108884,0.0172017299299244,0.0153402920186095,-3.548121559214554e-05,critical
1200,9.191919191919192,1.2151898734177216,anode,0.0165276433026628,0.017291880994126,0.0156375244908838,8.922847292336785e-05,critical
1200,9.292929292929292,1.2151898734177216,anode,0.0163919939750596,0.0172557041571435,0.0153639663843584,3.0199716450372445e-05,critical
1200,9.393939393939394,1.2151898734177216,anode,0.0167101484252095,0.017454760187224,0.0158496433682855,-1.7666763946315882e-05,critical
1200,9.494949494949497,1.2151898734177216,anode,0.0170055967034186,0.0179211811408374,0.0159109572891285,4.535637677367438e-05,critical
1200,9.595959595959595,1.2151898734177216,anode,0.0170128447756069,0.0177598371048314,0.0161485635224786,-0.0001222390628577,critical
1200,9.696969696969695,1.2151898734177216,anode,0.0173615543374175,0.0181724285656353,0.0164171439930429,3.249930768519947e-05,critical
1200,9.797979797979798,1.2151898734177216,anode,0.0174458189618811,0.0182014437618338,0.0165756097255962,-6.641962259656658e-05,critical
1200,9.8989898989899,1.2151898734177216,anode,0.0175938800578662,0.0185798988880932,0.0164049841545475,-6.168343949796725e-05,critical
1200,10.0,1.2151898734177216,anode,0.017653919145612,0.018495719388901,0.0166700955764116,-2.914862838422055e-05,critical
1200,0.0,1.3164556962025316,anode,0.0178809440145636,0.0188559505104737,0.0167116712173628,7.252526730473168e-05,critical
1200,0.101010101010101,1.3164556962025316,anode,0.0176508481879827,0.0185514947282486,0.0165851070119193,4.911145562571492e-05,critical
1200,0.202020202020202,1.3164556962025316,anode,0.0174527113777901,0.0183688145287524,0.016363050052127,3.746895844077286e-05,critical
1200,0.303030303030303,1.3164556962025316,anode,0.017538284821753,0.0183153592381374,0.0166399384390543,-7.735076634035785e-05,critical
1200,0.404040404040404,1.3164556962025316,anode,0.017038549907796,0.0178186055743161,0.0161323469822417,-6.528669220819462e-05,critical
1200,0.5050505050505051,1.3164556962025316,anode,0.0168394625124264,0.0176362457154297,0.0159095883817473,-1.5729246810827677e-05,critical
1200,0.6060606060606061,1.3164556962025316,anode,0.0165838961378684,0.0173038314209252,0.0157536829442372,8.865078687810873e-05,critical
1200,0.7070707070707071,1.3164556962025316,anode,0.0165461040613197,0.0173399904701734,0.0156174358163905,-7.677846801931953e-06,critical
1200,0.8080808080808081,1.3164556962025316,anode,0.0163550954931325,0.017071203835241,0.015529789885545,-1.810129428154437e-05,critical
1200,0.9090909090909092,1.3164556962025316,anode,0.0163469053144995,0.017175086056115,0.0153684521232231,3.108819762726561e-05,critical
1200,1.0101010101010102,1.3164556962025316,anode,0.0162129102950728,0.0170408102978615,0.0152315507557161,9.499679788613464e-05,critical
1200,1.1111111111111112,1.3164556962025316,anode,0.0161029132490086,0.0169201887326848,0.0151371888517129,-1.454047540954026e-05,critical
1200,1.2121212121212122,1.3164556962025316,anode,0.0159298750588922,0.0166164859183541,0.0151384751698271,9.685751454288565e-05,critical
1200,1.3131313131313131,1.3164556962025316,anode,0.0157964029934497,0.0165558947926898,0.0149074830791661,-2.80765127672726e-05,critical
1200,1.414141414141414,1.3164556962025316,anode,0.0156960993591228,0.0164667003349714,0.0147903485723351,-5.520286511014691e-05,critical
1200,1.5151515151515151,1.3164556962025316,anode,0.0155915674614421,0.016301869372852,0.0147678072808854,1.5960223926625733e-05,critical
1200,1.616161616161616,1.3164556962025316,anode,0.0154756434350435,0.0161153416393008,0.0147447730506812,-2.964614179750183e-06,critical
1200,1.7171717171717171,1.3164556962025316,anode,0.0154350037459638,0.0161689518560634,0.0145777365049899,-1.4771874908307304e-05,critical
1200,1.818181818181818,1.3164556962025316,anode,0.0153521505659324,0.0161193817327816,0.0144477861213231,-4.047809127439565e-05,critical
1200,1.9191919191919191,1.3164556962025316,anode,0.0153364943407884,0.0160691998173127,0.0144775552322864,-0.0001032767902281,critical
1200,2.0202020202020203,1.3164556962025316,anode,0.0152378631192541,0.0161712519428732,0.0140902121384845,-4.2329476378391454e-05,critical
1200,2.121212121212121,1.3164556962025316,anode,0.0151890089380097,0.015862398074576,0.0144114849447024,-6.647552697091588e-06,critical
1200,2.2222222222222223,1.3164556962025316,anode,0.0152025093736375,0.01599781398528,0.0142542867643877,-0.0001139823612552,critical
1200,2.323232323232323,1.3164556962025316,anode,0.014965757430309,0.0157604924917949,0.0140176567221417,-6.12247798247415e-05,high
1200,2.4242424242424243,1.3164556962025316,anode,0.015069762339426,0.0157758035138859,0.0142467254953779,4.5148823347029744e-05,critical
1200,2.525252525252525,1.3164556962025316,anode,0.0151012968873727,0.0158144500347058,0.0142691141458751,3.1155373041788705e-05,critical
1200,2.6262626262626263,1.3164556962025316,anode,0.0148618280613556,0.015606467383021,0.0139838083709941,-3.194695420191917e-05,high
1200,2.727272727272727,1.3164556962025316,anode,0.0148831581544176,0.0156497026561393,0.0139743548985723,-4.86743142459294e-05,high
1200,2.8282828282828283,1.3164556962025316,anode,0.0147671672313456,0.0154916330714427,0.0139152048455153,-7.036691064675359e-05,high
1200,2.929292929292929,1.3164556962025316,anode,0.0146720583578351,0.0153001309210845,0.0139506073545575,-2.5584147003483843e-05,high
1200,3.0303030303030303,1.3164556962025316,anode,0.0146326634414006,0.0152545721173692,0.0139175881547677,-8.258544323500229e-05,high
1200,3.131313131313131,1.3164556962025316,anode,0.0147393313924677,0.0154044296092918,0.0139692339050433,2.756901616079494e-06,high
1200,3.2323232323232323,1.3164556962025316,anode,0.014742728652632,0.0155026265709735,0.0138417749887033,4.3785147772527886e-05,high
1200,3.333333333333333,1.3164556962025316,anode,0.014653529031776,0.015421019741653,0.0137372770487001,-0.000126626832948,high
1200,3.4343434343434343,1.3164556962025316,anode,0.014631049703181,0.0152873046641855,0.0138715296177695,4.040218551825591e-05,high
1200,3.5353535353535355,1.3164556962025316,anode,0.0145960441239279,0.0152268910637891,0.0138696280777591,-6.0622930466640426e-05,high
1200,3.636363636363636,1.3164556962025316,anode,0.0145146703924876,0.0151479044614914,0.0137852333282353,2.1498446989632157e-05,high
1200,3.7373737373737375,1.3164556962025316,anode,0.0145010592854546,0.0151891248450634,0.0136970997375898,-5.041014911097256e-05,high
1200,3.8383838383838382,1.3164556962025316,anode,0.0145558788569977,0.0153096368661944,0.0136609849069108,-6.010506738624989e-05,high
1200,3.939393939393939,1.3164556962025316,anode,0.0144921982714448,0.0150949742427327,0.0138028889083975,4.955808165406984e-06,high
1200,4.040404040404041,1.3164556962025316,anode,0.0143805558056661,0.0150530391809739,0.0135972716182063,-1.6967222009330877e-05,high
1200,4.141414141414141,1.3164556962025316,anode,0.0143758556279313,0.0150706803171785,0.0135615978040887,-4.238674415216517e-05,high
1200,4.242424242424242,1.3164556962025316,anode,0.0144242841205374,0.0150870382852716,0.0136545214637783,-2.2948166514787715e-05,high
1200,4.343434343434343,1.3164556962025316,anode,0.0143238880971295,0.0150839264199686,0.0134178517697102,-3.68631274636461e-05,high
1200,4.444444444444445,1.3164556962025316,anode,0.0142639842987909,0.0149450676158671,0.0134675748082788,3.850085801847346e-05,high
1200,4.545454545454545,1.3164556962025316,anode,0.0143371017838214,0.015038278472455,0.0135121586616319,8.914625633093864e-05,high
1200,4.646464646464646,1.3164556962025316,anode,0.0143528832238658,0.0149140198591935,0.0137160386407909,5.423762550919839e-05,high
1200,4.747474747474747,1.3164556962025316,anode,0.0144118019513527,0.0151702822401474,0.0135067728682578,0.0001020057018201,high
1200,4.848484848484849,1.3164556962025316,anode,0.014405235790979,0.015111807660426,0.0135749238415827,-4.888156486064896e-05,high
1200,4.94949494949495,1.3164556962025316,anode,0.0143608703037905,0.0150486335412323,0.0135542785846003,9.682942125164514e-05,high
1200,5.05050505050505,1.3164556962025316,anode,0.014339123132931,0.0151219125065487,0.0134007341330388,-3.3005780222013285e-05,high
1200,5.151515151515151,1.3164556962025316,anode,0.0143787517567731,0.0151853531337934,0.0134062692924359,3.842462733057952e-05,high
1200,5.252525252525253,1.3164556962025316,anode,0.0143001657243641,0.0149910387835302,0.0134901352314499,-6.024345579361332e-05,high
1200,5.353535353535354,1.3164556962025316,anode,0.0143530399017574,0.0151170469769482,0.0134416528759643,3.96276588723244e-05,high
1200,5.454545454545454,1.3164556962025316,anode,0.0144415428762515,0.0152022687058507,0.0135361741674685,-2.40325663333155e-05,high
1200,5.555555555555555,1.3164556962025316,anode,0.0143887875738711,0.0151273729298031,0.0135139651553145,-3.332933844043895e-05,high
1200,5.656565656565657,1.3164556962025316,anode,0.0144397900834399,0.0151268008154773,0.013637284308687,-1.14721149678185e-05,high
1200,5.757575757575758,1.3164556962025316,anode,0.0144178209187192,0.0150899254436456,0.0136354318386656,-1.0932519573831777e-05,high
1200,5.858585858585858,1.3164556962025316,anode,0.0144093274806958,0.0151528456319675,0.0135280744910766,2.059500237849033e-06,high
1200,5.959595959595959,1.3164556962025316,anode,0.014537493211336,0.015232163542316,0.0137252201819805,-3.179157204901185e-05,high
1200,6.0606060606060606,1.3164556962025316,anode,0.0144996596877919,0.0151011326872308,0.0138096839586098,-0.0001006999096839,high
1200,6.161616161616162,1.3164556962025316,anode,0.0145009027426663,0.0151988974628437,0.0136837455201751,-2.972021818207327e-05,high
1200,6.262626262626262,1.3164556962025316,anode,0.0145433242513624,0.0152193130775505,0.0137565628858977,3.26839695511595e-05,high
1200,6.363636363636363,1.3164556962025316,anode,0.014537521968322,0.0152453293553186,0.0137074401346874,8.665809303737805e-07,high
1200,6.4646464646464645,1.3164556962025316,anode,0.014483809295237,0.0151696700401855,0.0136832888191621,-1.1917988275859248e-05,high
1200,6.565656565656566,1.3164556962025316,anode,0.0144308507390026,0.0150988190159072,0.0136533392128199,-5.984271908714965e-05,high
1200,6.666666666666667,1.3164556962025316,anode,0.0146110621465248,0.0153348490832355,0.0137594731205203,-2.5058981722437663e-05,high
1200,6.767676767676767,1.3164556962025316,anode,0.0146861054759236,0.0153527154645055,0.0139132884908415,-3.1541834520123024e-05,high
1200,6.8686868686868685,1.3164556962025316,anode,0.0146004603447479,0.0152846581219024,0.0138033085984845,-8.02057922063359e-06,high
1200,6.96969696969697,1.3164556962025316,anode,0.014756801484849,0.0154214732783768,0.0139872357313575,-2.8110807370528103e-05,high
1200,7.070707070707071,1.3164556962025316,anode,0.0146766400439125,0.0153106777247027,0.0139474661279902,9.276481015757167e-06,high
1200,7.171717171717171,1.3164556962025316,anode,0.0148904858336934,0.0155844593748493,0.0140826366433411,1.6514515201773538e-05,high
1200,7.272727272727272,1.3164556962025316,anode,0.0149432716794353,0.0157781463066295,0.0139376011604904,-3.764649949136228e-05,high
1200,7.373737373737374,1.3164556962025316,anode,0.0148850426769808,0.0156501926807382,0.0139782636429366,-4.700863034329196e-05,high
1200,7.474747474747475,1.3164556962025316,anode,0.0149752882811074,0.015719603896374,0.0140972717225218,-8.901296227724593e-05,high
1200,7.575757575757575,1.3164556962025316,anode,0.0150582421194941,0.015839533927569,0.014130557718942,-5.3565047681288286e-05,critical
1200,7.6767676767676765,1.3164556962025316,anode,0.0150450603949207,0.0158277596489113,0.0141158800752191,1.358367355396068e-05,critical
1200,7.777777777777778,1.3164556962025316,anode,0.0151887441050664,0.0159533452297668,0.0142866416581117,1.0330337151156742e-05,critical
1200,7.878787878787879,1.3164556962025316,anode,0.0151357016786609,0.0158702725883523,0.0142744430985153,-3.4110235137672866e-05,critical
1200,7.979797979797979,1.3164556962025316,anode,0.015168324258456,0.0158921884306535,0.014322364138195,9.736260938728626e-07,critical
1200,8.080808080808081,1.3164556962025316,anode,0.0153424200448125,0.0160154507831923,0.0145653066668002,7.523919394683277e-05,critical
1200,8.181818181818182,1.3164556962025316,anode,0.0154055257961746,0.0161126448484046,0.0145844144361304,2.0385716293957767e-05,critical
1200,8.282828282828282,1.3164556962025316,anode,0.0154424677781183,0.0161272748988,0.0146517348814733,3.490827639649706e-06,critical
1200,8.383838383838384,1.3164556962025316,anode,0.015570495763513,0.0163445976989689,0.0146592142991995,1.6939244089226995e-05,critical
1200,8.484848484848484,1.3164556962025316,anode,0.0156759659196752,0.0164891638514905,0.0147101418486297,6.595202153444836e-05,critical
1200,8.585858585858587,1.3164556962025316,anode,0.0157151322139032,0.0165607507523733,0.0147046548936486,-7.395275548154112e-06,critical
1200,8.686868686868687,1.3164556962025316,anode,0.0158316956522323,0.0164270879529893,0.0151601292510769,1.4448603546375603e-05,critical
1200,8.787878787878787,1.3164556962025316,anode,0.0159382771624775,0.0167352586412259,0.0149983246596718,6.026852963336963e-05,critical
1200,8.88888888888889,1.3164556962025316,anode,0.0160700683239748,0.0168221291509344,0.0151938566547475,3.0581412831339125e-05,critical
1200,8.98989898989899,1.3164556962025316,anode,0.0162625652266614,0.0170096929566616,0.0153939269791759,6.917789715999383e-05,critical
1200,9.09090909090909,1.3164556962025316,anode,0.0164817988981911,0.0172657821741427,0.0155660912454101,-1.2807704237863816e-06,critical
1200,9.191919191919192,1.3164556962025316,anode,0.0163540692108031,0.0171243401898864,0.0154557882382523,2.1122198101228213e-05,critical
1200,9.292929292929292,1.3164556962025316,anode,0.0164518481341492,0.0172763772611207,0.0154795382768976,-3.800699164582964e-05,critical
1200,9.393939393939394,1.3164556962025316,anode,0.0167928726965201,0.0176315076291165,0.0158026756075449,0.0001015731321466,critical
1200,9.494949494949497,1.3164556962025316,anode,0.0167606634429844,0.0175445992601759,0.0158474158033711,-3.081008178405669e-05,critical
1200,9.595959595959595,1.3164556962025316,anode,0.0170124633120186,0.0178423472331723,0.0160388894545438,2.089740527091693e-06,critical
1200,9.696969696969695,1.3164556962025316,anode,0.0171584560519918,0.0179625849157673,0.0162203596998767,-7.676134426747414e-05,critical
1200,9.797979797979798,1.3164556962025316,anode,0.0173282727075237,0.0182408077455431,0.0162421857074698,3.6323169247173775e-05,critical
1200,9.8989898989899,1.3164556962025316,anode,0.0176196130095296,0.0185978348038252,0.0164432194005249,6.245409808989622e-06,critical
1200,10.0,1.3164556962025316,anode,0.0177645506272576,0.0185935988919244,0.0167989328815312,4.4019268463370905e-05,critical
1200,0.0,1.4177215189873418,anode,0.0178385174072366,0.0187004993709843,0.0168281235956227,-6.480105281232418e-05,critical
1200,0.101010101010101,1.4177215189873418,anode,0.0175141439441236,0.0183278880046826,0.0165671416582056,3.7830893657533176e-05,critical
1200,0.202020202020202,1.4177215189873418,anode,0.0174338141861702,0.0182368316839403,0.0165009103734354,-6.561745653608307e-06,critical
1200,0.303030303030303,1.4177215189873418,anode,0.0172457168004467,0.017978207074174,0.0164032076549733,-0.0001062401194484,critical
1200,0.404040404040404,1.4177215189873418,anode,0.0170611352967292,0.017994748617975,0.0159416983911432,1.2480480855014668e-05,critical
1200,0.5050505050505051,1.4177215189873418,anode,0.0170602633573527,0.017843331659161,0.0161510399255793,1.114268396644898e-05,critical
1200,0.6060606060606061,1.4177215189873418,anode,0.0167753138356847,0.0175430838111549,0.0158839339044489,4.1601827691147774e-05,critical
1200,0.7070707070707071,1.4177215189873418,anode,0.0166957055852968,0.0176330930815674,0.0155657537268921,-1.014285428448826e-05,critical
1200,0.8080808080808081,1.4177215189873418,anode,0.016486171785177,0.0172947520715433,0.0155360211374995,5.505112985559792e-05,critical
1200,0.9090909090909092,1.4177215189873418,anode,0.0162889284798505,0.0171672371316307,0.0152353914768604,-0.0001259432561938,critical
1200,1.0101010101010102,1.4177215189873418,anode,0.0160919517403877,0.0168489361344974,0.01520937024233,1.8499020369495865e-05,critical
1200,1.1111111111111112,1.4177215189873418,anode,0.0160370105835663,0.016918012987642,0.0149782469768491,-8.334545447937301e-05,critical
1200,1.2121212121212122,1.4177215189873418,anode,0.0158269611150236,0.0165786577053098,0.0149491756402459,-8.571657000767575e-06,critical
1200,1.3131313131313131,1.4177215189873418,anode,0.0158082862136521,0.016556967427968,0.0149343186815415,2.5140202113393103e-05,critical
1200,1.414141414141414,1.4177215189873418,anode,0.0157533354820444,0.0164612538279865,0.0149342016763147,1.4170104934385911e-06,critical
1200,1.5151515151515151,1.4177215189873418,anode,0.0156236491555237,0.016350731580847,0.0147772390627109,3.589247772629171e-05,critical
1200,1.616161616161616,1.4177215189873418,anode,0.0154389787647987,0.0161181515952661,0.014652126895022,-0.000126008453604,critical
1200,1.7171717171717171,1.4177215189873418,anode,0.0153738880527239,0.0160569273173548,0.0145844150634713,-4.915580521104824e-05,critical
1200,1.818181818181818,1.4177215189873418,anode,0.0154127804299255,0.0162628904305501,0.0143894508193877,9.993760208359472e-05,critical
1200,1.9191919191919191,1.4177215189873418,anode,0.0153947216447565,0.016208788089026,0.014423822340617,-7.889242405290403e-05,critical
1200,2.0202020202020203,1.4177215189873418,anode,0.0152882526851885,0.0160179937055484,0.0144346936292768,-5.477024550163926e-05,critical
1200,2.121212121212121,1.4177215189873418,anode,0.0152091938263327,0.0160700578784863,0.014169721962013,-4.0083209914964696e-06,critical
1200,2.2222222222222223,1.4177215189873418,anode,0.0151284792652519,0.0159219521617179,0.0141846701635469,-4.121635697378204e-05,critical
1200,2.323232323232323,1.4177215189873418,anode,0.0150739194853688,0.0158032945916607,0.0142194734675225,3.22245016691639e-06,critical
1200,2.4242424242424243,1.4177215189873418,anode,0.0149886249142447,0.0156769412400482,0.0141881120193224,-7.318000020858831e-05,high
1200,2.525252525252525,1.4177215189873418,anode,0.0148670053931765,0.0155865570091144,0.0140240245974276,5.257950807388283e-06,high
1200,2.6262626262626263,1.4177215189873418,anode,0.0149599559225042,0.0156967257923202,0.0140941518532022,5.938269587109068e-07,high
1200,2.727272727272727,1.4177215189873418,anode,0.0148813344609192,0.0156003739468214,0.0140388914435839,3.620041935443468e-05,high
1200,2.8282828282828283,1.4177215189873418,anode,0.0148748853508183,0.0156044535844661,0.0140164284888814,-8.501513795292973e-05,high
1200,2.929292929292929,1.4177215189873418,anode,0.0147364467622535,0.0155404186333536,0.0137728632166899,2.915966664209074e-05,high
1200,3.0303030303030303,1.4177215189873418,anode,0.0146645558396506,0.0153793091241798,0.0138260157624771,2.521467696710117e-05,high
1200,3.131313131313131,1.4177215189873418,anode,0.0145907997157718,0.0152371139117686,0.0138446471905924,1.467978042667771e-06,high
1200,3.2323232323232323,1.4177215189873418,anode,0.0146369326072381,0.0152827330645475,0.0138917574687271,-1.7905759507263626e-05,high
1200,3.333333333333333,1.4177215189873418,anode,0.014611868236785,0.0153003153709964,0.0138080411084706,6.436168447603452e-05,high
1200,3.4343434343434343,1.4177215189873418,anode,0.014634822603486,0.0153245548154991,0.0138297647679863,5.368760532573364e-05,high
1200,3.5353535353535355,1.4177215189873418,anode,0.0144557707254395,0.0150987993443709,0.0137098096321741,0.0001130636401404,high
1200,3.636363636363636,1.4177215189873418,anode,0.0145164093906184,0.0150846025229986,0.01387166120675,4.625769070865722e-05,high
1200,3.7373737373737375,1.4177215189873418,anode,0.0144044329463771,0.014996842416769,0.0137280152737209,-1.7170058693341985e-05,high
1200,3.8383838383838382,1.4177215189873418,anode,0.0143908121451656,0.0150318112756347,0.0136484544267918,8.328040700052584e-05,high
1200,3.939393939393939,1.4177215189873418,anode,0.0144074110623158,0.015107955956365,0.0135857200077502,-3.573850718703565e-05,high
1200,4.040404040404041,1.4177215189873418,anode,0.0144921781943217,0.0152161485484797,0.0136389670846299,-3.2548622641492185e-05,high
1200,4.141414141414141,1.4177215189873418,anode,0.0144340472438471,0.015083000913547,0.0136829289105575,-2.5092934725679907e-05,high
1200,4.242424242424242,1.4177215189873418,anode,0.0143636494639672,0.0151155293251168,0.0134693745654203,5.123213919673258e-05,high
1200,4.343434343434343,1.4177215189873418,anode,0.0145073631096932,0.0152030259952555,0.0136934169151219,3.312349213344455e-05,high
1200,4.444444444444445,1.4177215189873418,anode,0.0143905440633972,0.0150598737128979,0.0136107548003629,-6.208700139239323e-05,high
1200,4.545454545454545,1.4177215189873418,anode,0.0145062022001317,0.0151388861503903,0.0137775310204353,6.853938312604597e-06,high
1200,4.646464646464646,1.4177215189873418,anode,0.0143893555166085,0.0150086335346798,0.0136767034988465,-6.023229017081632e-05,high
1200,4.747474747474747,1.4177215189873418,anode,0.0143682630837563,0.0150812628921864,0.0135283677354284,-5.9526901434361616e-05,high
1200,4.848484848484849,1.4177215189873418,anode,0.0143466994507893,0.0150151294318469,0.0135686384366147,-1.3983231466666151e-05,high
1200,4.94949494949495,1.4177215189873418,anode,0.0143848216889558,0.0150754943879307,0.0135767508713907,-1.4506627225931271e-05,high
1200,5.05050505050505,1.4177215189873418,anode,0.0144149648694512,0.0149884950724456,0.0137627568602175,4.383544973095121e-05,high
1200,5.151515151515151,1.4177215189873418,anode,0.0142884805540825,0.0149300698519491,0.0135452933175387,-6.026358256083013e-05,high
1200,5.252525252525253,1.4177215189873418,anode,0.0143838022433151,0.0151355017302611,0.0134902143190539,-4.33364422750444e-05,high
1200,5.353535353535354,1.4177215189873418,anode,0.0143334977689237,0.0149528011703671,0.0136205897944061,5.291541241586131e-05,high
1200,5.454545454545454,1.4177215189873418,anode,0.0143462858533557,0.0149695273936198,0.0136274419048347,7.822920938038498e-05,high
1200,5.555555555555555,1.4177215189873418,anode,0.014364892621362,0.0150099108627287,0.0136178747766197,-5.56447702444584e-05,high
1200,5.656565656565657,1.4177215189873418,anode,0.0144201109982681,0.0150620884639478,0.0136763419092467,-9.135277452067488e-05,high
1200,5.757575757575758,1.4177215189873418,anode,0.0144138118671699,0.0150964631802098,0.0136161379157552,-6.0786379306158826e-05,high
1200,5.858585858585858,1.4177215189873418,anode,0.0143615159172392,0.0150785889499719,0.0135165641240166,2.8887380347828455e-05,high
1200,5.959595959595959,1.4177215189873418,anode,0.0144070507892071,0.0152092459713133,0.0134410801667281,-5.166479904086388e-05,high
1200,6.0606060606060606,1.4177215189873418,anode,0.0142957858174442,0.0149728378601962,0.0135052300399859,3.65137916264709e-05,high
1200,6.161616161616162,1.4177215189873418,anode,0.0143794629884725,0.0151323058886639,0.0134824652756353,9.344000614916814e-05,high
1200,6.262626262626262,1.4177215189873418,anode,0.0145421394845396,0.0152144918256486,0.0137585403941408,-9.096859785428467e-05,high
1200,6.363636363636363,1.4177215189873418,anode,0.0144968945061338,0.0151338159766769,0.0137620149594965,4.586366005555378e-05,high
1200,6.4646464646464645,1.4177215189873418,anode,0.0145847135309659,0.0152221303053949,0.0138503028889257,-1.676280952171956e-05,high
1200,6.565656565656566,1.4177215189873418,anode,0.0144068992528275,0.0151148259777298,0.0135752382243599,1.872843977648232e-05,high
1200,6.666666666666667,1.4177215189873418,anode,0.0145088765885635,0.0151854345424752,0.0137207818526549,-4.567152758749337e-05,high
1200,6.767676767676767,1.4177215189873418,anode,0.0147208107864116,0.0153751045020707,0.0139648004370426,-3.1867346944806155e-05,high
1200,6.8686868686868685,1.4177215189873418,anode,0.0147052439470099,0.0153834979113055,0.0139170011479963,2.182271324018156e-05,high
1200,6.96969696969697,1.4177215189873418,anode,0.0147353675406713,0.0155579693810155,0.0137449333752638,-1.532322926942341e-05,high
1200,7.070707070707071,1.4177215189873418,anode,0.0146485361642411,0.0153389342449344,0.0138418820503638,-7.901030553946312e-05,high
1200,7.171717171717171,1.4177215189873418,anode,0.0147885309075831,0.0155238982020514,0.0139228014764101,1.810039152557144e-05,high
1200,7.272727272727272,1.4177215189873418,anode,0.0149221150937941,0.0156645521141711,0.0140478327424433,-3.016211948000486e-05,high
1200,7.373737373737374,1.4177215189873418,anode,0.0148369091429544,0.0156402111042323,0.0138746456467055,-6.895559097983836e-05,high
1200,7.474747474747475,1.4177215189873418,anode,0.0150160575450908,0.0158304617976853,0.0140412231939478,2.2818499876940768e-05,critical
1200,7.575757575757575,1.4177215189873418,anode,0.0149637602499092,0.0156233554001529,0.0142026698546096,-2.8370335696179013e-05,high
1200,7.6767676767676765,1.4177215189873418,anode,0.0151106988176738,0.0158749942381553,0.0142081219255058,-1.7337333093105226e-05,critical
1200,7.777777777777778,1.4177215189873418,anode,0.0150601802524694,0.015883142957669,0.0140704628126366,0.0001155387308839,critical
1200,7.878787878787879,1.4177215189873418,anode,0.0151407528093813,0.0160132648772257,0.014082370854756,-5.570551213965919e-05,critical
1200,7.979797979797979,1.4177215189873418,anode,0.0152834889925594,0.0161322989419066,0.0142626202870233,1.2693147731005868e-05,critical
1200,8.080808080808081,1.4177215189873418,anode,0.0153327355846518,0.0160895524516644,0.0144407638557459,-9.80632035874409e-05,critical
1200,8.181818181818182,1.4177215189873418,anode,0.0154087517139113,0.016117987011457,0.0145843337594607,4.978278773934357e-05,critical
1200,8.282828282828282,1.4177215189873418,anode,0.0155381982735388,0.0163383228066344,0.0145898868777722,-3.7841199540030846e-05,critical
1200,8.383838383838384,1.4177215189873418,anode,0.0153907233037073,0.0162079655322658,0.0144155467243774,-7.05081341184043e-05,critical
1200,8.484848484848484,1.4177215189873418,anode,0.015652831914171,0.0163631243511409,0.0148292740004451,-4.161541595699363e-05,critical
1200,8.585858585858587,1.4177215189873418,anode,0.0158288926538494,0.0165384536651595,0.0150067751059937,-7.947470149425493e-05,critical
1200,8.686868686868687,1.4177215189873418,anode,0.0159096654303998,0.0167064384753524,0.0149701088568099,-4.246950829858809e-05,critical
1200,8.787878787878787,1.4177215189873418,anode,0.0160009547890377,0.0166726207918754,0.0152310006305263,6.214949085330373e-05,critical
1200,8.88888888888889,1.4177215189873418,anode,0.0160889238037255,0.0169048080927958,0.015124784789772,3.3674356431397184e-05,critical
1200,8.98989898989899,1.4177215189873418,anode,0.0161467355022856,0.016842279147247,0.0153470582290975,-2.5449316854452025e-05,critical
1200,9.09090909090909,1.4177215189873418,anode,0.0162737055277102,0.0169594585309368,0.0154877589358145,-3.45759803530711e-05,critical
1200,9.191919191919192,1.4177215189873418,anode,0.0165319034877629,0.0172553276783593,0.0156983132224857,-2.951813230966639e-07,critical
1200,9.292929292929292,1.4177215189873418,anode,0.0165216043363032,0.0172765810159115,0.0156455584777808,2.173127471372993e-05,critical
1200,9.393939393939394,1.4177215189873418,anode,0.0167479692059813,0.0175638689002307,0.0157910246526069,-1.731999371704152e-06,critical
1200,9.494949494949497,1.4177215189873418,anode,0.0168820299608733,0.017620420575577,0.0160308205334426,4.585242638084064e-05,critical
1200,9.595959595959595,1.4177215189873418,anode,0.0170388995236105,0.017825383286098,0.0161246579814921,-3.3771470362708864e-05,critical
1200,9.696969696969695,1.4177215189873418,anode,0.0172826058213337,0.0182256191683955,0.016152148215408,4.575316822168869e-05,critical
1200,9.797979797979798,1.4177215189873418,anode,0.0174562668886558,0.0183727091768769,0.0163662902138826,-2.8555378272320887e-05,critical
1200,9.8989898989899,1.4177215189873418,anode,0.0175481386091048,0.0185365648510429,0.0163536107866504,-0.0001034622340875,critical
1200,10.0,1.4177215189873418,anode,0.01793835857099,0.0188499782368652,0.016858483811067,0.0001104614989776,critical
1200,0.0,1.5189873417721518,anode,0.0178254565267697,0.0186741379488293,0.0168339533272905,1.8746452390901663e-05,critical
1200,0.101010101010101,1.5189873417721518,anode,0.0177378169147269,0.0185716282807805,0.0167658578321762,-4.565074963711784e-06,critical
1200,0.202020202020202,1.5189873417721518,anode,0.0175363375781548,0.0183232976187557,0.0166257589987664,-3.0375519453892443e-05,critical
1200,0.303030303030303,1.5189873417721518,anode,0.0173036224323732,0.0181257288874108,0.0163435778014867,2.972598021335299e-06,critical
1200,0.404040404040404,1.5189873417721518,anode,0.0170964929809535,0.0178789128375394,0.0161865093225275,-9.772967594030972e-05,critical
1200,0.5050505050505051,1.5189873417721518,anode,0.0170212121022323,0.0178721576493678,0.0160184147299159,-2.356036042324855e-05,critical
1200,0.6060606060606061,1.5189873417721518,anode,0.0167697610137069,0.0176580199474625,0.0157112421815395,-4.286780421060766e-05,critical
1200,0.7070707070707071,1.5189873417721518,anode,0.016590621815465,0.017276728826767,0.0158064666177702,3.174794492037039e-05,critical
1200,0.8080808080808081,1.5189873417721518,anode,0.0164138150705241,0.0171575522906679,0.0155520769976045,8.163696739843913e-06,critical
1200,0.9090909090909092,1.5189873417721518,anode,0.0162922379138937,0.017016966635744,0.0154547984102891,-3.086404734700262e-05,critical
1200,1.0101010101010102,1.5189873417721518,anode,0.0162191436025764,0.0170228255376415,0.0152736386681345,1.2624366804953585e-05,critical
1200,1.1111111111111112,1.5189873417721518,anode,0.0160584906997375,0.0168174081352916,0.0151716591619288,7.884511090083331e-05,critical
1200,1.2121212121212122,1.5189873417721518,anode,0.0159782407949345,0.0167212642925379,0.0151136336511807,-1.4605020746186864e-05,critical
1200,1.3131313131313131,1.5189873417721518,anode,0.0159333284770969,0.0166989606285184,0.0150374200867742,-1.7826980236062193e-05,critical
1200,1.414141414141414,1.5189873417721518,anode,0.0158066344927487,0.0165014097727642,0.0150051326155172,-4.085206129143022e-05,critical
1200,1.5151515151515151,1.5189873417721518,anode,0.0156120128103628,0.0163885217400162,0.0146960350899478,-8.970761138511627e-05,critical
1200,1.616161616161616,1.5189873417721518,anode,0.015524226170687,0.0161727814442833,0.0147819321450446,2.6947599882001063e-05,critical
1200,1.7171717171717171,1.5189873417721518,anode,0.0155553052700415,0.0163812153163818,0.0145709666980266,1.124182252952526e-05,critical
1200,1.818181818181818,1.5189873417721518,anode,0.0155194543459953,0.0162672927864438,0.0146422664161058,-8.702039077588251e-05,critical
1200,1.9191919191919191,1.5189873417721518,anode,0.0153272425455502,0.0160185705879132,0.0145266005374775,3.1692831605458914e-05,critical
1200,2.0202020202020203,1.5189873417721518,anode,0.0152142895040765,0.0159736848533809,0.0143194048708936,3.786888684029661e-05,critical
1200,2.121212121212121,1.5189873417721518,anode,0.0151365172542799,0.0159335967402577,0.0141880871357196,5.533937206478853e-06,critical
1200,2.2222222222222223,1.5189873417721518,anode,0.0152106707408207,0.0159172954674716,0.0143871116517119,-7.986403413322223e-05,critical
1200,2.323232323232323,1.5189873417721518,anode,0.0150878152504484,0.0157527597365022,0.0143190025268468,8.699199893807287e-05,critical
1200,2.4242424242424243,1.5189873417721518,anode,0.0149894374269322,0.0156632173114124,0.0142097640328708,5.352639989972552e-06,high
1200,2.525252525252525,1.5189873417721518,anode,0.0148663335316,0.0154929049210602,0.014148091715399,-3.7904940482451264e-05,high
1200,2.6262626262626263,1.5189873417721518,anode,0.0148655821897057,0.0155906956461073,0.0140139117918643,-6.494345628698268e-05,high
1200,2.727272727272727,1.5189873417721518,anode,0.0147536078604924,0.0153772759431886,0.0140383749926374,-3.796090116292856e-05,high
1200,2.8282828282828283,1.5189873417721518,anode,0.014922514620722,0.0156277949087424,0.0140996286290075,-3.912526028603096e-06,high
1200,2.929292929292929,1.5189873417721518,anode,0.0149086198101045,0.015682513296759,0.0139859567983732,0.0001337749747897,high
1200,3.0303030303030303,1.5189873417721518,anode,0.0145516439013149,0.0152136211249354,0.0137830945492116,6.622070661897952e-05,high
1200,3.131313131313131,1.5189873417721518,anode,0.0146036158761635,0.0152966387990239,0.0137944641347467,6.649341534539162e-06,high
1200,3.2323232323232323,1.5189873417721518,anode,0.0144728975385565,0.0152285362363258,0.0135752422768417,1.0219512425231426e-05,high
1200,3.333333333333333,1.5189873417721518,anode,0.0145859431421291,0.0152888472732357,0.0137628231142488,-3.310070142749161e-05,high
1200,3.4343434343434343,1.5189873417721518,anode,0.0145903789940973,0.0153871231931937,0.0136354144143985,1.7070062368563934e-05,high
1200,3.5353535353535355,1.5189873417721518,anode,0.0145483437876377,0.0151464495763304,0.0138618940412228,-0.000123484024211,high
1200,3.636363636363636,1.5189873417721518,anode,0.0144809787892615,0.0151429131961788,0.0137121435935708,-5.728544989968941e-05,high
1200,3.7373737373737375,1.5189873417721518,anode,0.0145081256972498,0.0151570749566971,0.0137577753440434,-3.6384136307304256e-06,high
1200,3.8383838383838382,1.5189873417721518,anode,0.0144651762424796,0.0150436912432696,0.013807175491929,-2.21169653170825e-05,high
1200,3.939393939393939,1.5189873417721518,anode,0.0144890429875018,0.0150833895485272,0.0138095780077151,-6.958510623247951e-05,high
1200,4.040404040404041,1.5189873417721518,anode,0.0145069454459865,0.0152010168617469,0.0136944324920534,6.421444817969808e-05,high
1200,4.141414141414141,1.5189873417721518,anode,0.0143545763019096,0.0150784548523824,0.0134996881952186,4.801970681859807e-05,high
1200,4.242424242424242,1.5189873417721518,anode,0.0143860801878069,0.0150670671368864,0.0135913279271857,3.9410919184108965e-06,high
1200,4.343434343434343,1.5189873417721518,anode,0.0143587543176251,0.0150362276936309,0.0135685384719046,5.1629771274340325e-06,high
1200,4.444444444444445,1.5189873417721518,anode,0.0144004978409247,0.015109630602404,0.0135636766039637,-0.0001186327734692,high
1200,4.545454545454545,1.5189873417721518,anode,0.014306348194848,0.0150463260255787,0.0134270924604102,8.420332285910777e-05,high
1200,4.646464646464646,1.5189873417721518,anode,0.0143824923377061,0.0150344552586032,0.013626869166024,-2.727908066231602e-05,high
1200,4.747474747474747,1.5189873417721518,anode,0.0143861131931425,0.0150511579728675,0.0136124155959859,5.051617353383844e-05,high
1200,4.848484848484849,1.5189873417721518,anode,0.0144658960927244,0.0152033402836858,0.013593546713717,3.365549369859932e-05,high
1200,4.94949494949495,1.5189873417721518,anode,0.0144378807727059,0.0151813483880958,0.0135569798218385,-1.407364096244698e-05,high
1200,5.05050505050505,1.5189873417721518,anode,0.014333252523473,0.0150986863077885,0.0134180383310607,8.717540440594412e-05,high
1200,5.151515151515151,1.5189873417721518,anode,0.0142536867196662,0.0149401248451019,0.0134502028052044,1.6649046865698262e-06,high
1200,5.252525252525253,1.5189873417721518,anode,0.0144834324008292,0.0151911516283085,0.0136524030117115,4.59802951458955e-05,high
1200,5.353535353535354,1.5189873417721518,anode,0.0143141500794667,0.0149859406450133,0.0135293357758649,-8.826446831939088e-05,high
1200,5.454545454545454,1.5189873417721518,anode,0.0144241986554875,0.0151272047198288,0.0135987957853813,-5.687762729644099e-05,high
1200,5.555555555555555,1.5189873417721518,anode,0.0142394727246693,0.0149621645150749,0.0133847526224131,5.6227120869576354e-05,high
1200,5.656565656565657,1.5189873417721518,anode,0.0144682944634939,0.0152639268223186,0.0135109568009627,9.72708884036879e-05,high
1200,5.757575757575758,1.5189873417721518,anode,0.0142215603649601,0.0150108173936861,0.0132718736239978,4.89296711473352e-05,high
1200,5.858585858585858,1.5189873417721518,anode,0.014418700205358,0.015008805559098,0.013745433076163,-9.543158594815322e-06,high
1200,5.959595959595959,1.5189873417721518,anode,0.0144719045235315,0.0151549973690989,0.0136750835876191,2.5784376327831848e-06,high
1200,6.0606060606060606,1.5189873417721518,anode,0.01453582187894,0.0153030970160123,0.0136219917650361,-4.2195180385861486e-05,high
1200,6.161616161616162,1.5189873417721518,anode,0.0145123370176446,0.0152738064015917,0.0136059549052287,6.184919435632202e-05,high
1200,6.262626262626262,1.5189873417721518,anode,0.0144800094512623,0.0152574969944241,0.013551212061394,2.3721568506332232e-05,high
1200,6.363636363636363,1.5189873417721518,anode,0.0145880088281538,0.015348453402895,0.0136837445637039,6.935473520535488e-05,high
1200,6.4646464646464645,1.5189873417721518,anode,0.0145812304556958,0.0153319895734229,0.0136910911640168,-5.18556863865186e-05,high
1200,6.565656565656566,1.5189873417721518,anode,0.0145449806481275,0.015302764813731,0.0136449405130468,3.0359369558576505e-05,high
1200,6.666666666666667,1.5189873417721518,anode,0.0145920844813019,0.0153120956808333,0.0137456791259877,-6.183607362144079e-06,high
1200,6.767676767676767,1.5189873417721518,anode,0.0145452900167557,0.0152089144190007,0.0137752945039818,3.120044446076142e-05,high
1200,6.8686868686868685,1.5189873417721518,anode,0.0146544595772655,0.0154213979719978,0.0137429891002927,2.8821663626864726e-06,high
1200,6.96969696969697,1.5189873417721518,anode,0.0147176498752968,0.0153296182878707,0.0140174398762453,4.243815842875825e-05,high
1200,7.070707070707071,1.5189873417721518,anode,0.0146954550720456,0.0154219916870588,0.013841069627501,-8.650256087557024e-06,high
1200,7.171717171717171,1.5189873417721518,anode,0.0148211340475461,0.0155522070485586,0.013961311370623,-4.419763165902536e-05,high
1200,7.272727272727272,1.5189873417721518,anode,0.0148359812322977,0.0154950185880068,0.014074747897837,-1.5165676597877835e-05,high
1200,7.373737373737374,1.5189873417721518,anode,0.0149344098407683,0.015705130681232,0.0140183188287337,0.0001028492908262,high
1200,7.474747474747475,1.5189873417721518,anode,0.0149980024725247,0.0157562374567535,0.0141027199605637,-7.154739979944912e-06,high
1200,7.575757575757575,1.5189873417721518,anode,0.0149793950477764,0.0156751814906386,0.0141699192409236,-1.1629671268732436e-05,high
1200,7.6767676767676765,1.5189873417721518,anode,0.0151539830977976,0.015912868770213,0.0142582929760287,-7.126863461474454e-05,critical
1200,7.777777777777778,1.5189873417721518,anode,0.0151038384450562,0.0158401876676728,0.0142400805138575,3.878504638106887e-06,critical
1200,7.878787878787879,1.5189873417721518,anode,0.0151174268916777,0.0158484751363725,0.01426110787795,3.974556239890825e-06,critical
1200,7.979797979797979,1.5189873417721518,anode,0.0152007500720813,0.015765833081796,0.0145642231767008,-2.4663197724102703e-05,critical
1200,8.080808080808081,1.5189873417721518,anode,0.0151099833125859,0.0159046393915736,0.0141624710917501,-9.565513376002788e-05,critical
1200,8.181818181818182,1.5189873417721518,anode,0.0154409016427191,0.0162175455136498,0.014521742219528,0.0001135478534736,critical
1200,8.282828282828282,1.5189873417721518,anode,0.0153960137982996,0.0160452417814611,0.0146485211102914,-0.0001256307933277,critical
1200,8.383838383838384,1.5189873417721518,anode,0.0154851491333254,0.0161872802642097,0.0146705297932888,6.666908799844625e-05,critical
1200,8.484848484848484,1.5189873417721518,anode,0.0156939002067639,0.016447456606327,0.0148121172143159,-2.8946171372311585e-05,critical
1200,8.585858585858587,1.5189873417721518,anode,0.0156649361270487,0.0165292384511329,0.0146268818461129,3.889340354154392e-06,critical
1200,8.686868686868687,1.5189873417721518,anode,0.0158172264440374,0.0165094838450188,0.0150190323986228,-4.737831787290182e-05,critical
1200,8.787878787878787,1.5189873417721518,anode,0.0159527894195928,0.01671836428893,0.0150571386384493,1.906740271648973e-05,critical
1200,8.88888888888889,1.5189873417721518,anode,0.0160297541828323,0.0168259310322162,0.0150926061668348,2.2012220229650694e-05,critical
1200,8.98989898989899,1.5189873417721518,anode,0.0161894796497683,0.0170441542546068,0.0151720280387601,1.6846716723692565e-06,critical
1200,9.09090909090909,1.5189873417721518,anode,0.0163403252134233,0.0170896226264789,0.015469802490052,5.5749872676948857e-05,critical
1200,9.191919191919192,1.5189873417721518,anode,0.0164486001964516,0.0172574975751106,0.0154982739237217,-7.209023827188603e-06,critical
1200,9.292929292929292,1.5189873417721518,anode,0.0165832251005906,0.0175216237438222,0.0154500905722793,2.184216567097552e-05,critical
1200,9.393939393939394,1.5189873417721518,anode,0.0167320610925154,0.0174941640133979,0.015847370105427,-6.694879381613828e-05,critical
1200,9.494949494949497,1.5189873417721518,anode,0.0169361774722256,0.0177134022416155,0.0160336894203396,-2.2226779294325163e-05,critical
1200,9.595959595959595,1.5189873417721518,anode,0.0170289732661732,0.0177952582867552,0.0161420668771183,1.459797643393802e-05,critical
1200,9.696969696969695,1.5189873417721518,anode,0.0171320462964372,0.0179141247390988,0.01622473810575,-1.8264909115724823e-05,critical
1200,9.797979797979798,1.5189873417721518,anode,0.0173944705367606,0.0182682738516903,0.0163628554859249,7.271197317016438e-05,critical
1200,9.8989898989899,1.5189873417721518,anode,0.0175059491772845,0.0184196596806273,0.0164202747238264,-4.01833999554895e-05,critical
1200,10.0,1.5189873417721518,anode,0.0177727219928148,0.018502488256109,0.0169388894743486,-6.633830692201137e-05,critical
1200,0.0,1.620253164556962,anode,0.0177732583179657,0.0186357150071952,0.016762020884526,4.373184626033376e-05,critical
1200,0.101010101010101,1.620253164556962,anode,0.0175618442661144,0.0184520697685016,0.0165101749841299,-1.3139968923476545e-05,critical
1200,0.202020202020202,1.620253164556962,anode,0.0174848052734599,0.0183599017883221,0.0164529661574058,-4.888480948354744e-05,critical
1200,0.303030303030303,1.620253164556962,anode,0.0173215724563709,0.0180798591436352,0.0164477520948044,4.390860577129721e-06,critical
1200,0.404040404040404,1.620253164556962,anode,0.0170827590719918,0.0178755440580921,0.016157753794065,-0.0001172096340177,critical
1200,0.5050505050505051,1.620253164556962,anode,0.0169018593996823,0.0177885644682154,0.0158464985958087,-7.016515477911488e-05,critical
1200,0.6060606060606061,1.620253164556962,anode,0.0166553241970776,0.0175035110992945,0.0156519932433828,4.784794445175951e-05,critical
1200,0.7070707070707071,1.620253164556962,anode,0.016641821243083,0.0173252314001519,0.0158613380609487,4.426569851229589e-05,critical
1200,0.8080808080808081,1.620253164556962,anode,0.0163759748087474,0.0171535170993248,0.0154680553379388,-8.52163907518336e-06,critical
1200,0.9090909090909092,1.620253164556962,anode,0.0163199200237148,0.0170684641585563,0.0154503729206072,4.977916031977556e-05,critical
1200,1.0101010101010102,1.620253164556962,anode,0.0161385640827734,0.0168585134178195,0.0153056630862906,6.104641076073745e-05,critical
1200,1.1111111111111112,1.620253164556962,anode,0.0160748825450997,0.0168307470050096,0.0151933957732108,-3.970464533897904e-05,critical
1200,1.2121212121212122,1.620253164556962,anode,0.0159788023768013,0.0167001548459589,0.0151430887935237,4.3753122841906575e-05,critical
1200,1.3131313131313131,1.620253164556962,anode,0.0158492839345405,0.0166714263079392,0.0148738659631713,2.4307356493370627e-06,critical
1200,1.414141414141414,1.620253164556962,anode,0.0158062126395613,0.0165913901639161,0.0148819369776674,2.6489115751988957e-05,critical
1200,1.5151515151515151,1.620253164556962,anode,0.0154855784430603,0.0161837235550571,0.0146771904306581,-2.5200307961481656e-05,critical
1200,1.616161616161616,1.620253164556962,anode,0.0156709227495026,0.0164202243285824,0.0147940570734389,-6.235383832260718e-05,critical
1200,1.7171717171717171,1.620253164556962,anode,0.0154274975641593,0.0161277065097092,0.0146158391192007,2.565396697298657e-05,critical
1200,1.818181818181818,1.620253164556962,anode,0.0153878674708423,0.0162192507530582,0.0143936013980526,3.624830612043631e-06,critical
1200,1.9191919191919191,1.620253164556962,anode,0.0152483889764536,0.0159848015680612,0.0143857368340077,-3.270907915417216e-05,critical
1200,2.0202020202020203,1.620253164556962,anode,0.01520745946245,0.0159977086862621,0.0142693004133642,3.325143845642114e-05,critical
1200,2.121212121212121,1.620253164556962,anode,0.0152610132079996,0.0160142233329629,0.0143752948586599,3.294058835072365e-05,critical
1200,2.2222222222222223,1.620253164556962,anode,0.0151619370770376,0.0159510086160675,0.0142251049205107,-1.6544990990070335e-05,critical
1200,2.323232323232323,1.620253164556962,anode,0.0151943291813341,0.0158458618718649,0.0144456609193569,3.229544555368613e-05,critical
1200,2.4242424242424243,1.620253164556962,anode,0.0149963176998376,0.0157313157410416,0.0141333386713766,-4.915239253891667e-07,high
1200,2.525252525252525,1.620253164556962,anode,0.0149496680443372,0.0156094410587871,0.0141883932609652,1.0156545552553417e-05,high
1200,2.6262626262626263,1.620253164556962,anode,0.0148877387290979,0.0156105115747321,0.0140404850159635,-1.445930026238688e-05,high
1200,2.727272727272727,1.620253164556962,anode,0.0146904464542071,0.0153669918956507,0.0139043414629043,-2.5613542653886263e-05,high
1200,2.8282828282828283,1.620253164556962,anode,0.0146725444618792,0.0154460700105552,0.013751878914039,-1.625865292242364e-05,high
1200,2.929292929292929,1.620253164556962,anode,0.0146069765837644,0.0152720028262757,0.0138358088764052,-1.4137335036405278e-05,high
1200,3.0303030303030303,1.620253164556962,anode,0.0148026875584999,0.0155620733890832,0.0139022236296609,-7.535103291470253e-05,high
1200,3.131313131313131,1.620253164556962,anode,0.0146963864962947,0.0153626274929354,0.0139243785548705,-7.642677010977548e-06,high
1200,3.2323232323232323,1.620253164556962,anode,0.0145284333332883,0.0152573596943529,0.0136689139275413,-1.5041520913601546e-05,high
1200,3.333333333333333,1.620253164556962,anode,0.0146305357969733,0.0152615326472442,0.0139048045598563,-3.2852496674433694e-05,high
1200,3.4343434343434343,1.620253164556962,anode,0.0145602632742593,0.0152457352279412,0.0137610012234118,9.136520591811144e-06,high
1200,3.5353535353535355,1.620253164556962,anode,0.0145206102537246,0.0151934639358409,0.0137368567130683,-7.298510651876002e-05,high
1200,3.636363636363636,1.620253164556962,anode,0.0144783104069717,0.0151232292667297,0.0137311452186967,9.003148842954462e-05,high
1200,3.7373737373737375,1.620253164556962,anode,0.0144914369938255,0.0151502947879767,0.0137273856111598,-3.233647705970887e-05,high
1200,3.8383838383838382,1.620253164556962,anode,0.0143815504268579,0.0150429206961539,0.013613405859247,5.635190386122058e-06,high
1200,3.939393939393939,1.620253164556962,anode,0.0144625502176914,0.0151340815256704,0.0136811747956422,-2.832024534562968e-05,high
1200,4.040404040404041,1.620253164556962,anode,0.0144502184528521,0.0151576285694235,0.0136195239162386,3.347932831889062e-05,high
1200,4.141414141414141,1.620253164556962,anode,0.0144355880906192,0.0150754658638978,0.0136951354806685,-8.23490839611884e-05,high
1200,4.242424242424242,1.620253164556962,anode,0.014433528587425,0.0151344060272444,0.0136082095435169,-0.0001228864539138,high
1200,4.343434343434343,1.620253164556962,anode,0.0143101481622733,0.0150589525324525,0.013420101999624,2.4700635974454978e-05,high
1200,4.444444444444445,1.620253164556962,anode,0.0144556255343988,0.0152312618972533,0.0135291763539091,2.29934293922196e-05,high
1200,4.545454545454545,1.620253164556962,anode,0.0143017391175702,0.0151589335938666,0.0132534407995128,1.6431957161215703e-05,high
1200,4.646464646464646,1.620253164556962,anode,0.0143365312498204,0.0149960150954137,0.013570333189603,-2.965366442411011e-05,high
1200,4.747474747474747,1.620253164556962,anode,0.0144461081349187,0.0150352845123363,0.0137739326297427,-3.667756856940872e-05,high
1200,4.848484848484849,1.620253164556962,anode,0.0143569075908868,0.0150768927843279,0.0135075236626901,4.6152245018290496e-05,high
1200,4.94949494949495,1.620253164556962,anode,0.0143217845566732,0.0150230039057247,0.0134965595504121,9.05790229718468e-05,high
1200,5.05050505050505,1.620253164556962,anode,0.0144109883738908,0.0150868535945238,0.013623345216169,-2.093159418302224e-05,high
1200,5.151515151515151,1.620253164556962,anode,0.0142681363008873,0.0149500508568631,0.0134690189220696,8.895697804507846e-05,high
1200,5.252525252525253,1.620253164556962,anode,0.0141934592593791,0.014756652240045,0.0135525493073598,6.871385202596334e-05,high
1200,5.353535353535354,1.620253164556962,anode,0.0143472531173583,0.0150687204487976,0.0134961894409535,-1.3069470472473393e-05,high
1200,5.454545454545454,1.620253164556962,anode,0.0142869527022301,0.0149349376663593,0.0135360548276885,-1.7530432452068976e-06,high
1200,5.555555555555555,1.620253164556962,anode,0.0143874359574343,0.0150373234007106,0.0136329899698986,8.656779302866316e-05,high
1200,5.656565656565657,1.620253164556962,anode,0.0144078617867664,0.0151293166261968,0.013555354628393,9.286682703872776e-05,high
1200,5.757575757575758,1.620253164556962,anode,0.0144218876037025,0.0150875983632815,0.0136480525293122,-2.717132372274938e-05,high
1200,5.858585858585858,1.620253164556962,anode,0.0143454536296093,0.0150415080379754,0.0135286243446527,6.405972969366967e-05,high
1200,5.959595959595959,1.620253164556962,anode,0.0144046162018913,0.0151803094802885,0.0134772753201324,3.3824362361946106e-05,high
1200,6.0606060606060606,1.620253164556962,anode,0.0143819745705345,0.0150877632190771,0.0135526008690306,4.485603604644262e-05,high
1200,6.161616161616162,1.620253164556962,anode,0.0144717613022882,0.0152554226144771,0.0135340809711816,-1.563354870915584e-05,high
1200,6.262626262626262,1.620253164556962,anode,0.014546210253368,0.0152997860667964,0.0136523612003702,2.474696770557279e-06,high
1200,6.363636363636363,1.620253164556962,anode,0.0144401026720283,0.0151933571892763,0.0135453321908237,-2.242439598912699e-05,high
1200,6.4646464646464645,1.620253164556962,anode,0.0145407659519442,0.0152253524510291,0.0137424853828616,-1.6291308328258365e-05,high
1200,6.565656565656566,1.620253164556962,anode,0.0146335266877571,0.0153390925661207,0.0138067287279997,-5.560094367374039e-05,high
1200,6.666666666666667,1.620253164556962,anode,0.014593994364965,0.0153239170561574,0.0137332812781158,4.791009468428456e-05,high
1200,6.767676767676767,1.620253164556962,anode,0.0145067753365312,0.0152197048466839,0.0136692993072413,4.912930579772243e-06,high
1200,6.8686868686868685,1.620253164556962,anode,0.0148308846086369,0.0155361176874237,0.0140070015336029,-2.89700353704073e-05,high
1200,6.96969696969697,1.620253164556962,anode,0.0147333914503133,0.0153751530308787,0.0139942805909944,-2.455802204113597e-05,high
1200,7.070707070707071,1.620253164556962,anode,0.0147069351604446,0.0154251205412691,0.0138639390039877,-3.523117871360341e-05,high
1200,7.171717171717171,1.620253164556962,anode,0.0148223575939565,0.0156277727855724,0.0138578951524751,2.4365808123563088e-05,high
1200,7.272727272727272,1.620253164556962,anode,0.0149118240963906,0.0156086551686382,0.0140993014959557,6.636817364509927e-05,high
1200,7.373737373737374,1.620253164556962,anode,0.0149539503328655,0.0156217392925908,0.0141808565646923,-7.034041750884052e-05,high
1200,7.474747474747475,1.620253164556962,anode,0.0148811006554541,0.0156236271748353,0.0140059845314975,4.51237542236128e-05,high
1200,7.575757575757575,1.620253164556962,anode,0.0150354756551359,0.0157822828862644,0.0141557499472708,5.735456826837503e-05,critical
1200,7.6767676767676765,1.620253164556962,anode,0.0149586267558483,0.0157151281496662,0.0140653422075755,4.67279729788872e-06,high
1200,7.777777777777778,1.620253164556962,anode,0.0150343025958536,0.0157227997818721,0.0142345685862505,5.212353635148363e-05,critical
1200,7.878787878787879,1.620253164556962,anode,0.0151522203589225,0.015835922611091,0.014358138982732,0.0001025663740671,critical
1200,7.979797979797979,1.620253164556962,anode,0.0152885116936971,0.0160878365379817,0.0143377252784447,6.511472298275675e-05,critical
1200,8.080808080808081,1.620253164556962,anode,0.0153860070721614,0.0161170234162079,0.0145312456925897,6.854570674479339e-05,critical
1200,8.181818181818182,1.620253164556962,anode,0.0154257981846972,0.0161711234421322,0.0145526104757917,-3.466508089683373e-05,critical
1200,8.282828282828282,1.620253164556962,anode,0.0154738053463901,0.0161877794475146,0.0146419103500527,-9.8192319031512e-05,critical
1200,8.383838383838384,1.620253164556962,anode,0.0155873031888974,0.0162838497058939,0.0147819764280848,1.7462808223486994e-05,critical
1200,8.484848484848484,1.620253164556962,anode,0.0156884117163201,0.0164108804014309,0.0148480951288658,6.745621725225378e-05,critical
1200,8.585858585858587,1.620253164556962,anode,0.0158728552501306,0.0166147781243944,0.0150088089018836,1.1057903891930757e-05,critical
1200,8.686868686868687,1.620253164556962,anode,0.0158496063831518,0.0166454027684308,0.0149110679239844,2.139973548408115e-05,critical
1200,8.787878787878787,1.620253164556962,anode,0.0159066995867289,0.0165844514927899,0.015127913958328,6.69201617774838e-05,critical
1200,8.88888888888889,1.620253164556962,anode,0.0161173571697243,0.016874247102714,0.0152350725995399,2.5360153668729093e-05,critical
1200,8.98989898989899,1.620253164556962,anode,0.0161579735482278,0.016876809390465,0.0153274774042637,1.5968649977866614e-05,critical
1200,9.09090909090909,1.620253164556962,anode,0.0163442108258584,0.0171166400473199,0.0154424883094817,4.8061247239350906e-05,critical
1200,9.191919191919192,1.620253164556962,anode,0.0163849289080026,0.0171694302944517,0.0154655875056444,-9.572256861260956e-05,critical
1200,9.292929292929292,1.620253164556962,anode,0.0166538708980612,0.0176213957742507,0.0154772324591559,-8.858313350391691e-05,critical
1200,9.393939393939394,1.620253164556962,anode,0.0167325322630443,0.0175352763552463,0.0157935256632741,-5.868891034722031e-06,critical
1200,9.494949494949497,1.620253164556962,anode,0.0168339021425547,0.0175600476352495,0.0159988795939051,-2.5350293859652323e-05,critical
1200,9.595959595959595,1.620253164556962,anode,0.017028296989917,0.017855482650938,0.0160579254711832,5.679466395915676e-05,critical
1200,9.696969696969695,1.620253164556962,anode,0.0171426527599219,0.0179387477145047,0.0162158586372988,5.773446783431245e-05,critical
1200,9.797979797979798,1.620253164556962,anode,0.0174109055328468,0.018231257127779,0.0164541161957775,-2.694689808205765e-05,critical
1200,9.8989898989899,1.620253164556962,anode,0.0176586378096442,0.0184636730020565,0.0167229483379331,0.0001005272666657,critical
1200,10.0,1.620253164556962,anode,0.0178079656120258,0.018693400255967,0.0167655240735412,-2.7572066621541427e-05,critical
1200,0.0,1.7215189873417722,anode,0.0177186113827612,0.0185710000284537,0.0167208038936453,3.612022238920701e-05,critical
1200,0.101010101010101,1.7215189873417722,anode,0.0176191898179302,0.0183994333203972,0.0167184257757237,-1.2951094774020703e-05,critical
1200,0.202020202020202,1.7215189873417722,anode,0.0174560248156565,0.0183320882160391,0.0164227971271918,3.288471311790765e-05,critical
1200,0.303030303030303,1.7215189873417722,anode,0.0173014872726317,0.0181971766691495,0.0162392045962724,-6.638323995977107e-06,critical
1200,0.404040404040404,1.7215189873417722,anode,0.0170433135012388,0.0178287979068895,0.0161303846721058,-3.898335567455599e-05,critical
1200,0.5050505050505051,1.7215189873417722,anode,0.0168731944090303,0.0177309771097405,0.0158591435143121,-3.064812990567398e-05,critical
1200,0.6060606060606061,1.7215189873417722,anode,0.0165907869017565,0.0174459229105181,0.0155766374215074,-6.100852224544562e-05,critical
1200,0.7070707070707071,1.7215189873417722,anode,0.0166766836104964,0.0174224921436549,0.0158129055112545,8.323676913298403e-05,critical
1200,0.8080808080808081,1.7215189873417722,anode,0.0164951170094993,0.0173092914989238,0.0155378528805291,2.356269553608427e-05,critical
1200,0.9090909090909092,1.7215189873417722,anode,0.0162205056325442,0.0169526923339277,0.0153713472552716,-7.83792936601397e-05,critical
1200,1.0101010101010102,1.7215189873417722,anode,0.0161048138762748,0.0168908422971949,0.0151811841023304,-7.981705966574023e-05,critical
1200,1.1111111111111112,1.7215189873417722,anode,0.0160486077334631,0.0168346272883859,0.015125635711534,3.0101324693530125e-05,critical
1200,1.2121212121212122,1.7215189873417722,anode,0.0158390658020053,0.0164965312716235,0.0150872337217716,3.089230075198436e-05,critical
1200,1.3131313131313131,1.7215189873417722,anode,0.015836098953919,0.016643553093858,0.0148795802900096,-8.435135742563226e-05,critical
1200,1.414141414141414,1.7215189873417722,anode,0.0158752857021344,0.0165749523631825,0.0150678457817892,-3.872909232620703e-05,critical
1200,1.5151515151515151,1.7215189873417722,anode,0.0157821390707007,0.016561604061181,0.0148656757792717,-1.0075570663083488e-05,critical
1200,1.616161616161616,1.7215189873417722,anode,0.0156482153565818,0.0163326056874386,0.0148595759954605,-2.0264551398038022e-05,critical
1200,1.7171717171717171,1.7215189873417722,anode,0.0155511826348771,0.0163443039623887,0.0146126397669398,-4.897078636307232e-05,critical
1200,1.818181818181818,1.7215189873417722,anode,0.0153557061985343,0.0161344139084091,0.0144355340581976,2.9657075348255857e-05,critical
1200,1.9191919191919191,1.7215189873417722,anode,0.015342592414927,0.0160396547491967,0.0145335039164266,6.896028794643275e-05,critical
1200,2.0202020202020203,1.7215189873417722,anode,0.0152665393736794,0.0160500258272693,0.0143367078016815,-9.528080656411055e-05,critical
1200,2.121212121212121,1.7215189873417722,anode,0.0152517356298508,0.0159352921433139,0.0144610479583168,1.843810920388109e-05,critical
1200,2.2222222222222223,1.7215189873417722,anode,0.015177991892522,0.0159095120839224,0.0143212123063057,-4.179897246488007e-05,critical
1200,2.323232323232323,1.7215189873417722,anode,0.015111042386482,0.0159101554716353,0.01415872375948,5.351844058144265e-05,critical
1200,2.4242424242424243,1.7215189873417722,anode,0.0148663110098794,0.0155741464722311,0.0140393479264092,-1.5657646652989835e-05,high
1200,2.525252525252525,1.7215189873417722,anode,0.0149448535502512,0.0157035800703384,0.0140477241170202,-4.908571640790712e-05,high
1200,2.6262626262626263,1.7215189873417722,anode,0.0148718323795722,0.0155662212546701,0.0140633114415756,-3.783600473042536e-06,high
1200,2.727272727272727,1.7215189873417722,anode,0.0148620678067997,0.015589044238039,0.0140085686202637,-3.14132808145654e-05,high
1200,2.8282828282828283,1.7215189873417722,anode,0.0147561455421287,0.0154241568159808,0.0139822754557506,2.0798005794724386e-07,high
1200,2.929292929292929,1.7215189873417722,anode,0.0146842188525589,0.0154032321709877,0.0138401242821629,-1.047925346701478e-05,high
1200,3.0303030303030303,1.7215189873417722,anode,0.0148317121897186,0.0155283014067922,0.0140198146111334,9.075919440189486e-06,high
1200,3.131313131313131,1.7215189873417722,anode,0.0146210327966635,0.0153165365595,0.0138078800085137,-5.673474151723982e-05,high
1200,3.2323232323232323,1.7215189873417722,anode,0.0146351404083997,0.0152654740730592,0.0139101791896778,-4.0950299227654976e-05,high
1200,3.333333333333333,1.7215189873417722,anode,0.0145283541976282,0.0152515468160655,0.0136764860053731,-3.954973303065474e-05,high
1200,3.4343434343434343,1.7215189873417722,anode,0.0145958934563261,0.015225437285958,0.0138709844029728,-6.772506732397623e-05,high
1200,3.5353535353535355,1.7215189873417722,anode,0.0145763506423106,0.0152459443648287,0.0137987337538914,1.685604013330904e-05,high
1200,3.636363636363636,1.7215189873417722,anode,0.0145076594979156,0.0151145238605702,0.013812888832491,-2.9958410330692205e-05,high
1200,3.7373737373737375,1.7215189873417722,anode,0.0145263782336488,0.0153373513502127,0.0135495643419555,4.104162621805775e-05,high
1200,3.8383838383838382,1.7215189873417722,anode,0.0144766005978361,0.0152386271495915,0.0135695136608034,4.189571394881328e-05,high
1200,3.939393939393939,1.7215189873417722,anode,0.014526080956806,0.015306619944011,0.0135935992150717,1.3305257084539182e-05,high
1200,4.040404040404041,1.7215189873417722,anode,0.0144311469007797,0.0151569054384532,0.0135749907734789,-1.5224794782814811e-05,high
1200,4.141414141414141,1.7215189873417722,anode,0.0143588804693357,0.0151360583972584,0.0134284758808097,4.971640935384501e-05,high
1200,4.242424242424242,1.7215189873417722,anode,0.0144993928115293,0.0151038764860542,0.0138061547609681,8.535020065756718e-05,high
1200,4.343434343434343,1.7215189873417722,anode,0.0144318913132485,0.0152367441463588,0.0134587182025006,0.0001304668935521,high
1200,4.444444444444445,1.7215189873417722,anode,0.0143861104812544,0.0150896412873003,0.0135603775619335,9.901299649195038e-06,high
1200,4.545454545454545,1.7215189873417722,anode,0.0143395772024092,0.0149940188628527,0.0135802429431186,-2.764743141011075e-05,high
1200,4.646464646464646,1.7215189873417722,anode,0.0144605651434561,0.0151708563752093,0.0136258953729088,3.889337338528972e-05,high
1200,4.747474747474747,1.7215189873417722,anode,0.0144436194052505,0.015248009501017,0.0134751062566913,-4.621464683220893e-05,high
1200,4.848484848484849,1.7215189873417722,anode,0.0142618567620425,0.0148427899513622,0.0135989314590792,4.92988915014943e-05,high
1200,4.94949494949495,1.7215189873417722,anode,0.0143540723432113,0.0149819254839662,0.0136304983699071,-2.534233782124127e-05,high
1200,5.05050505050505,1.7215189873417722,anode,0.0143593563442645,0.0151043294771149,0.0134752355195296,3.038876014904673e-05,high
1200,5.151515151515151,1.7215189873417722,anode,0.0141934748524578,0.0147881554581736,0.0135123678004656,3.696213597835209e-05,high
1200,5.252525252525253,1.7215189873417722,anode,0.0143143953621682,0.0148596320856065,0.0136984185250401,3.569055253107886e-06,high
1200,5.353535353535354,1.7215189873417722,anode,0.0143824701119477,0.0151246807645526,0.0135026937157218,1.4973561936435466e-05,high
1200,5.454545454545454,1.7215189873417722,anode,0.0143479418191893,0.0151076979033889,0.0134413821924159,7.849592599604563e-05,high
1200,5.555555555555555,1.7215189873417722,anode,0.0142660310561112,0.014878960055992,0.0135617180733789,9.204142953522536e-06,high
1200,5.656565656565657,1.7215189873417722,anode,0.0143972278916032,0.0150900917575093,0.0135850718288754,-7.09590188966129e-05,high
1200,5.757575757575758,1.7215189873417722,anode,0.0144297302731968,0.0151895000944094,0.0135256815678568,-1.267827540028454e-05,high
1200,5.858585858585858,1.7215189873417722,anode,0.0143676690527439,0.0149232503701107,0.0137385601910506,2.8575822694957514e-05,high
1200,5.959595959595959,1.7215189873417722,anode,0.0146000452973406,0.0153009647050039,0.0137798904826103,2.606390305988056e-05,high
1200,6.0606060606060606,1.7215189873417722,anode,0.0144817094337926,0.0150614541444331,0.0138222916260652,-1.3818838668869194e-05,high
1200,6.161616161616162,1.7215189873417722,anode,0.014483869430529,0.0152008276622101,0.0136403320800431,-3.1570105048630355e-05,high
1200,6.262626262626262,1.7215189873417722,anode,0.0144114267729402,0.0150864357617897,0.0136250598114482,2.030404238012288e-06,high
1200,6.363636363636363,1.7215189873417722,anode,0.01462409097406,0.0152299674995133,0.0139313923723863,-3.207492467752259e-05,high
1200,6.4646464646464645,1.7215189873417722,anode,0.0146541301076194,0.0153771770467061,0.0138041634917026,5.524889920262806e-06,high
1200,6.565656565656566,1.7215189873417722,anode,0.0145968501585201,0.0153447119734321,0.0137116199006123,7.89024518841771e-06,high
1200,6.666666666666667,1.7215189873417722,anode,0.0145304831636316,0.0152546640543102,0.0136752169206548,9.907526795798427e-05,high
1200,6.767676767676767,1.7215189873417722,anode,0.0145919050794602,0.0153892553644957,0.0136349104287004,-7.035442399603508e-05,high
1200,6.8686868686868685,1.7215189873417722,anode,0.0146890247348956,0.0153957438271463,0.0138613966978,4.730716387729816e-05,high
1200,6.96969696969697,1.7215189873417722,anode,0.014720589235479,0.0154037976276811,0.013925140122921,5.56148443594946e-05,high
1200,7.070707070707071,1.7215189873417722,anode,0.0148124421313454,0.0155788274849391,0.0139034348616104,-2.7618200720394016e-05,high
1200,7.171717171717171,1.7215189873417722,anode,0.0147367416858953,0.0153606720205419,0.0140212433454025,2.426239947360873e-05,high
1200,7.272727272727272,1.7215189873417722,anode,0.0148066287657427,0.0156062426480621,0.013850202571252,3.139322316899348e-05,high
1200,7.373737373737374,1.7215189873417722,anode,0.0148680543317519,0.0156269935752732,0.0139691152025367,-7.119314304198553e-05,high
1200,7.474747474747475,1.7215189873417722,anode,0.0148735266700365,0.0155627689094832,0.0140720084307993,-2.1212145345782488e-06,high
1200,7.575757575757575,1.7215189873417722,anode,0.0147285158854596,0.0154539546778261,0.0138757870056789,-3.0460257694041507e-05,high
1200,7.6767676767676765,1.7215189873417722,anode,0.0149046744540215,0.0155863655184519,0.0141136167427929,-1.0681504943547485e-05,high
1200,7.777777777777778,1.7215189873417722,anode,0.0151943490981197,0.0158641133968489,0.0144210239133406,-5.470709342396996e-05,critical
1200,7.878787878787879,1.7215189873417722,anode,0.0151953015786029,0.0159812416659772,0.0142632220264278,2.3097207497168654e-05,critical
1200,7.979797979797979,1.7215189873417722,anode,0.0153910405645664,0.016140633478396,0.0145112479392444,5.322318874033618e-05,critical
1200,8.080808080808081,1.7215189873417722,anode,0.0153284689324766,0.01594373604376,0.0146269740602809,8.058981888260582e-05,critical
1200,8.181818181818182,1.7215189873417722,anode,0.0153372682416756,0.0160488601887043,0.0145084717862011,-6.967887782236642e-05,critical
1200,8.282828282828282,1.7215189873417722,anode,0.015516772859946,0.0162955369131655,0.0145984842451565,-6.146433846563362e-06,critical
1200,8.383838383838384,1.7215189873417722,anode,0.0155888296750849,0.0164085695513153,0.0146130372916398,-5.365254712240592e-05,critical
1200,8.484848484848484,1.7215189873417722,anode,0.015611711617908,0.0163076257565853,0.0148074600915883,1.3229249094143004e-05,critical
1200,8.585858585858587,1.7215189873417722,anode,0.0157121259307487,0.0164443346819735,0.0148598399507147,5.66392697222645e-06,critical
1200,8.686868686868687,1.7215189873417722,anode,0.015789023869907,0.016518262353359,0.0149414585513713,3.2782688218833714e-06,critical
1200,8.787878787878787,1.7215189873417722,anode,0.015975693115074,0.0166659742989261,0.0151814807680427,-4.033676548305246e-05,critical
1200,8.88888888888889,1.7215189873417722,anode,0.0159683293934555,0.016682068052473,0.0151418897504675,-7.606829296084699e-05,critical
1200,8.98989898989899,1.7215189873417722,anode,0.0162852030341756,0.0170874265060617,0.0153411790007072,7.569417292730927e-05,critical
1200,9.09090909090909,1.7215189873417722,anode,0.0163204343675679,0.0170350786523704,0.0154967665198204,2.263630108539937e-05,critical
1200,9.191919191919192,1.7215189873417722,anode,0.0164565667858786,0.0172166973586334,0.0155721860144714,-6.470186372427194e-05,critical
1200,9.292929292929292,1.7215189873417722,anode,0.0166377935837769,0.0174996508935669,0.0156155089031913,-8.755288615135577e-06,critical
1200,9.393939393939394,1.7215189873417722,anode,0.016516314989066,0.0173521419864194,0.0155282964044045,6.593960514628018e-05,critical
1200,9.494949494949497,1.7215189873417722,anode,0.0169736907102568,0.01775750325294,0.0160619749494941,-5.996578299920988e-05,critical
1200,9.595959595959595,1.7215189873417722,anode,0.0170785547492316,0.0178395545295568,0.0161989335013517,3.482071358695084e-05,critical
1200,9.696969696969695,1.7215189873417722,anode,0.0171210498382407,0.0178358594004263,0.0163018125890197,-8.20784869905948e-05,critical
1200,9.797979797979798,1.7215189873417722,anode,0.0175042635517782,0.0183288489746007,0.0165426532908514,1.782939772983566e-05,critical
1200,9.8989898989899,1.7215189873417722,anode,0.0177227851022805,0.0185759527514067,0.0167241920542228,-9.877538289709936e-06,critical
1200,10.0,1.7215189873417722,anode,0.0178898554963235,0.0188876854503542,0.0166852240659935,0.000130166179136,critical
1200,0.0,1.8227848101265824,anode,0.0178814370556084,0.0187247549469974,0.0168960657797315,-9.486096736452408e-05,critical
1200,0.101010101010101,1.8227848101265824,anode,0.0177254780761668,0.0184480408877689,0.0169014108730715,-2.938128032165344e-05,critical
1200,0.202020202020202,1.8227848101265824,anode,0.0174820381196236,0.0184286430535231,0.0163485466728971,-6.664529139742183e-05,critical
1200,0.303030303030303,1.8227848101265824,anode,0.0171496116918642,0.0181048130696117,0.0159980211555565,9.903956709767918e-05,critical
1200,0.404040404040404,1.8227848101265824,anode,0.0170578143165484,0.0178602980227078,0.0161221901530831,-1.7217999904875015e-05,critical
1200,0.5050505050505051,1.8227848101265824,anode,0.0167618461416274,0.0175716195226089,0.0158132945417343,2.934990583556379e-05,critical
1200,0.6060606060606061,1.8227848101265824,anode,0.0166941746171083,0.0174389898048486,0.0158333115400734,1.0081868216404294e-05,critical
1200,0.7070707070707071,1.8227848101265824,anode,0.016672862061951,0.0175549232343951,0.0156223743668248,6.982606350626428e-07,critical
1200,0.8080808080808081,1.8227848101265824,anode,0.0165185862140253,0.0172672978426424,0.0156509189182241,-2.53719718073666e-05,critical
1200,0.9090909090909092,1.8227848101265824,anode,0.0163413791214179,0.0170646316717945,0.0155053169685785,7.457931579167359e-05,critical
1200,1.0101010101010102,1.8227848101265824,anode,0.0160482904190873,0.0168569571685535,0.0150939705000224,-1.905395552532639e-05,critical
1200,1.1111111111111112,1.8227848101265824,anode,0.0161561304975255,0.0169438503576948,0.0152309570135112,-7.186237566295815e-05,critical
1200,1.2121212121212122,1.8227848101265824,anode,0.0160183662890413,0.01675854880843,0.0151565469609846,8.147931793801909e-05,critical
1200,1.3131313131313131,1.8227848101265824,anode,0.0158508964533851,0.0165385895448209,0.0150594925384851,1.1896420832637028e-05,critical
1200,1.414141414141414,1.8227848101265824,anode,0.0157387856693185,0.0164954431136084,0.0148532616524532,-2.2224264531224344e-05,critical
1200,1.5151515151515151,1.8227848101265824,anode,0.0156706797100539,0.0165766506504062,0.0145708720914512,5.999615485360749e-05,critical
1200,1.616161616161616,1.8227848101265824,anode,0.0156326807725303,0.0164983857570028,0.0145886271124574,0.0001221096352096,critical
1200,1.7171717171717171,1.8227848101265824,anode,0.0154267016427064,0.0160918955829916,0.0146619334694875,3.135350082126041e-06,critical
1200,1.818181818181818,1.8227848101265824,anode,0.0153812967377425,0.0161351222606182,0.01449604250681,-2.76209621250998e-05,critical
1200,1.9191919191919191,1.8227848101265824,anode,0.0152669556916122,0.0160490411515285,0.0143410865387463,2.670276112964872e-05,critical
1200,2.0202020202020203,1.8227848101265824,anode,0.0152641202272996,0.0160928922943879,0.0142699166747758,-9.290516078087371e-05,critical
1200,2.121212121212121,1.8227848101265824,anode,0.0152539004161623,0.0159036731369556,0.0145079936344729,-3.249613749576833e-05,critical
1200,2.2222222222222223,1.8227848101265824,anode,0.0150508208328501,0.0157211767047749,0.0142761112678867,2.398420444691868e-05,critical
1200,2.323232323232323,1.8227848101265824,anode,0.0150072948019905,0.0157602670969044,0.01411911053015,3.8941286452910646e-05,critical
1200,2.4242424242424243,1.8227848101265824,anode,0.0149252062853987,0.0156218061121472,0.0141141611884278,5.771322157399169e-06,high
1200,2.525252525252525,1.8227848101265824,anode,0.0149200590446367,0.0156727134826909,0.0140317338159544,1.1351894714677362e-06,high
1200,2.6262626262626263,1.8227848101265824,anode,0.0149582196348748,0.0157464812942936,0.0140199900964424,2.6146950644259652e-05,high
1200,2.727272727272727,1.8227848101265824,anode,0.0148203962564748,0.015600983575727,0.0138914034792805,2.532172132749548e-05,high
1200,2.8282828282828283,1.8227848101265824,anode,0.014773217670071,0.0155248164718942,0.0138840374517333,-5.376246284314147e-05,high
1200,2.929292929292929,1.8227848101265824,anode,0.0146847602167331,0.0154714845892524,0.0137449768357743,4.530013176479456e-05,high
1200,3.0303030303030303,1.8227848101265824,anode,0.0146826818201453,0.0154130760782294,0.01382025294578,0.0001023878682258,high
1200,3.131313131313131,1.8227848101265824,anode,0.0147486976865833,0.0154816202837282,0.0138858461343511,2.702556880787897e-05,high
1200,3.2323232323232323,1.8227848101265824,anode,0.014567873973045,0.0152856241920341,0.0137238749486238,-4.43338549889601e-05,high
1200,3.333333333333333,1.8227848101265824,anode,0.0146014214881993,0.0152754505946888,0.013818094588348,-7.637158201019734e-07,high
1200,3.4343434343434343,1.8227848101265824,anode,0.0144563757577831,0.0151299170872,0.0136722137095523,2.852536302462745e-05,high
1200,3.5353535353535355,1.8227848101265824,anode,0.0145625840174254,0.0152746807470511,0.0137268329041095,3.1644528703013437e-06,high
1200,3.636363636363636,1.8227848101265824,anode,0.0145257827871605,0.0153188431179992,0.0135748663081123,4.344784060812645e-05,high
1200,3.7373737373737375,1.8227848101265824,anode,0.0145158621278156,0.0151346279420264,0.0138055756881803,-2.325119498260697e-05,high
1200,3.8383838383838382,1.8227848101265824,anode,0.0144711050325712,0.0150988743785227,0.0137482491616874,4.32256498212184e-05,high
1200,3.939393939393939,1.8227848101265824,anode,0.0145335166763584,0.0150892610610848,0.0139052505913541,2.0574229914434293e-05,high
1200,4.040404040404041,1.8227848101265824,anode,0.014448579388898,0.0151642885572914,0.0136066527726612,1.650880861825644e-06,high
1200,4.141414141414141,1.8227848101265824,anode,0.0145143027058526,0.0152229739866578,0.0136820885267539,5.3470585850400433e-05,high
1200,4.242424242424242,1.8227848101265824,anode,0.0142326157431284,0.0149895640511359,0.0133294266711565,5.477200903781447e-05,high
1200,4.343434343434343,1.8227848101265824,anode,0.014433418305576,0.0151067759047421,0.0136469827475725,-0.0001010903532471,high
1200,4.444444444444445,1.8227848101265824,anode,0.0143056619526485,0.0150159525586376,0.0134695118729406,3.1272122809684475e-05,high
1200,4.545454545454545,1.8227848101265824,anode,0.014307589274788,0.0150037984235683,0.0134889671181586,-9.425742974288816e-05,high
1200,4.646464646464646,1.8227848101265824,anode,0.0143784310643961,0.0150285717560749,0.0136251275162616,-3.375191607623378e-05,high
1200,4.747474747474747,1.8227848101265824,anode,0.0144001666252336,0.0151835609147015,0.0134599005145865,9.050652006151968e-05,high
1200,4.848484848484849,1.8227848101265824,anode,0.0144168579268769,0.0149946821868637,0.0137595617171828,-2.2308022360474588e-06,high
1200,4.94949494949495,1.8227848101265824,anode,0.0144824834971923,0.0150770679190276,0.0138036728122738,-2.5037477617351435e-05,high
1200,5.05050505050505,1.8227848101265824,anode,0.0143090291584231,0.015028720926112,0.0134598392375147,-3.032102046066566e-05,high
1200,5.151515151515151,1.8227848101265824,anode,0.0143662597478822,0.0149468390942651,0.0137050646872732,2.5039032522331117e-06,high
1200,5.252525252525253,1.8227848101265824,anode,0.0145115952435125,0.0153042166515917,0.0135613133577118,-3.369922437962355e-05,high
1200,5.353535353535354,1.8227848101265824,anode,0.014394524163264,0.0150777120840933,0.0135968388004062,6.3118433600250646e-06,high
1200,5.454545454545454,1.8227848101265824,anode,0.0144730974467943,0.0152014540466299,0.0136135265343946,3.48228618163037e-05,high
1200,5.555555555555555,1.8227848101265824,anode,0.0143518958514099,0.0150852801016515,0.0134842357135878,-5.735881295000945e-06,high
1200,5.656565656565657,1.8227848101265824,anode,0.0143293595926341,0.0150437304911343,0.0134878042359067,-3.0265388088441065e-05,high
1200,5.757575757575758,1.8227848101265824,anode,0.0143387255534997,0.0149085734935797,0.0136912461604887,-8.466804963629763e-06,high
1200,5.858585858585858,1.8227848101265824,anode,0.014368533184087,0.0151259889817637,0.0134670366554788,1.117994549672145e-05,high
1200,5.959595959595959,1.8227848101265824,anode,0.0143174034067023,0.0149861504190065,0.0135386409416553,1.468562404508096e-05,high
1200,6.0606060606060606,1.8227848101265824,anode,0.0142920874430513,0.014900247545881,0.0135940652654496,3.0076125921955505e-05,high
1200,6.161616161616162,1.8227848101265824,anode,0.014550761774526,0.0153273175544159,0.0136235482071832,-5.5942354401723606e-05,high
1200,6.262626262626262,1.8227848101265824,anode,0.0144318107243795,0.0152214875757278,0.0134849201936392,-1.778880378554238e-05,high
1200,6.363636363636363,1.8227848101265824,anode,0.0146340407361785,0.0153727474064728,0.0137620728915268,-1.356972849678172e-06,high
1200,6.4646464646464645,1.8227848101265824,anode,0.0145937460013179,0.0152057180138878,0.0138927942985689,-3.531354673008878e-05,high
1200,6.565656565656566,1.8227848101265824,anode,0.0144121007963808,0.015018425196748,0.0137175747861652,-4.717609108461541e-06,high
1200,6.666666666666667,1.8227848101265824,anode,0.0145730605332107,0.0151725894315004,0.0138885198426159,-1.223672435314514e-05,high
1200,6.767676767676767,1.8227848101265824,anode,0.01473163936096,0.0154447112358847,0.013896132601212,-2.119081830036896e-05,high
1200,6.8686868686868685,1.8227848101265824,anode,0.0146389451328105,0.0153245448170751,0.0138400616847758,2.815949766132659e-05,high
1200,6.96969696969697,1.8227848101265824,anode,0.0146775403948054,0.0154003467657591,0.0138271916245792,-6.279365096586366e-05,high
1200,7.070707070707071,1.8227848101265824,anode,0.0147214614324041,0.0153486903291692,0.0140014473279358,-2.877385808805716e-05,high
1200,7.171717171717171,1.8227848101265824,anode,0.0148258096315286,0.0156523284382139,0.0138306865799801,3.560568686442832e-05,high
1200,7.272727272727272,1.8227848101265824,anode,0.0148512196719382,0.0156018340027805,0.0139649220028782,-1.6831498826890193e-05,high
1200,7.373737373737374,1.8227848101265824,anode,0.0149530265910558,0.0157223733830098,0.0140415721238454,-1.8899245600939732e-05,high
1200,7.474747474747475,1.8227848101265824,anode,0.0149059536235827,0.015668682744536,0.0140001052515276,0.0001156070959836,high
1200,7.575757575757575,1.8227848101265824,anode,0.0149407545199672,0.0157364715247032,0.0139908341850783,6.463266485602967e-05,high
1200,7.6767676767676765,1.8227848101265824,anode,0.0150963103407869,0.0158007379757613,0.0142755733943523,5.119976255220451e-05,critical
1200,7.777777777777778,1.8227848101265824,anode,0.0150908276600971,0.0158914225583685,0.0141367138064207,2.2978091273065904e-05,critical
1200,7.878787878787879,1.8227848101265824,anode,0.0151297350085629,0.0158612175370871,0.0142729413251212,3.3091796160587995e-06,critical
1200,7.979797979797979,1.8227848101265824,anode,0.0153812184359027,0.0161775154627937,0.014435782334535,-6.621769253971035e-05,critical
1200,8.080808080808081,1.8227848101265824,anode,0.0153646580341417,0.0161465585749592,0.0144403192291209,1.0842381969083327e-06,critical
1200,8.181818181818182,1.8227848101265824,anode,0.0154774717946795,0.0161959069310298,0.0146412373591726,4.836683838136038e-05,critical
1200,8.282828282828282,1.8227848101265824,anode,0.0153869560640952,0.0161257293557489,0.0145178098730371,-0.0001446132828119,critical
1200,8.383838383838384,1.8227848101265824,anode,0.0154985708366597,0.0162411377693826,0.0146301588270551,-2.564383320753957e-06,critical
1200,8.484848484848484,1.8227848101265824,anode,0.015613041890928,0.0163589968336734,0.0147403962385386,5.511747441789274e-05,critical
1200,8.585858585858587,1.8227848101265824,anode,0.0157176402483054,0.0164859868643805,0.0148158837623795,-1.2980922645102147e-05,critical
1200,8.686868686868687,1.8227848101265824,anode,0.0158377938285273,0.016561305984814,0.0149982536711612,2.5248985201100405e-05,critical
1200,8.787878787878787,1.8227848101265824,anode,0.0159628384252912,0.0167688756273056,0.0150111134937295,-3.155772487543314e-05,critical
1200,8.88888888888889,1.8227848101265824,anode,0.0161069205008056,0.0170190627972181,0.0150049515148884,4.483919626959981e-05,critical
1200,8.98989898989899,1.8227848101265824,anode,0.0161919568154053,0.0170066284472248,0.015230634826263,-3.447058956895704e-05,critical
1200,9.09090909090909,1.8227848101265824,anode,0.0161941819158174,0.016963352963232,0.0152958033468793,-2.9973156269229e-05,critical
1200,9.191919191919192,1.8227848101265824,anode,0.0163916206562423,0.0172038143638087,0.0154358773824165,-3.4916750366420585e-05,critical
1200,9.292929292929292,1.8227848101265824,anode,0.0165347541627367,0.0172939422633258,0.0156531644567195,-1.8448655190320225e-05,critical
1200,9.393939393939394,1.8227848101265824,anode,0.0166781147433799,0.0174119076539859,0.0158318409093187,-1.077914792727917e-05,critical
1200,9.494949494949497,1.8227848101265824,anode,0.0168936137458802,0.0176771981891929,0.0159811138003131,-7.341028223163395e-05,critical
1200,9.595959595959595,1.8227848101265824,anode,0.0169896399794516,0.0177895555061815,0.0160569334202566,7.724420787407792e-06,critical
1200,9.696969696969695,1.8227848101265824,anode,0.0172961683871794,0.0180488356592108,0.0164295699170421,1.6451440628180233e-05,critical
1200,9.797979797979798,1.8227848101265824,anode,0.0175048606530308,0.0184172097680242,0.0164214121337216,1.074447159596349e-05,critical
1200,9.8989898989899,1.8227848101265824,anode,0.0176375897835727,0.0184649682658631,0.0166729027271868,-5.3087102478975e-05,critical
1200,10.0,1.8227848101265824,anode,0.0178965917746465,0.0187642940512826,0.0168795845871241,2.8158644386502823e-05,critical
1200,0.0,1.9240506329113924,anode,0.0178089123642575,0.0187122610286437,0.016741610554225,-1.3032970013287143e-05,critical
1200,0.101010101010101,1.9240506329113924,anode,0.0176487290432375,0.01855683274106,0.016572223257476,6.051694748350368e-05,critical
1200,0.202020202020202,1.9240506329113924,anode,0.0173478231367599,0.0181231645637314,0.0164514466436806,-4.1611382005743226e-06,critical
1200,0.303030303030303,1.9240506329113924,anode,0.017294759385388,0.018188171367756,0.0162355188003805,2.199972606652906e-05,critical
1200,0.404040404040404,1.9240506329113924,anode,0.0168988543772862,0.0177114632990043,0.015947928953205,-4.744333134731353e-06,critical
1200,0.5050505050505051,1.9240506329113924,anode,0.0168925864981107,0.0176296399298647,0.0160436319753788,-1.4171229864378436e-05,critical
1200,0.6060606060606061,1.9240506329113924,anode,0.0167472837865254,0.0176028879496896,0.0157349730425998,2.191472880623255e-05,critical
1200,0.7070707070707071,1.9240506329113924,anode,0.0166063685437338,0.0173691198824333,0.0157204628247536,3.056526347464228e-05,critical
1200,0.8080808080808081,1.9240506329113924,anode,0.0163687082797069,0.0171084984044174,0.0155117716524912,2.552031539801373e-05,critical
1200,0.9090909090909092,1.9240506329113924,anode,0.0163034283877101,0.0170823442709022,0.0153903944403911,0.000108115167738,critical
1200,1.0101010101010102,1.9240506329113924,anode,0.0163312619785961,0.0170840191281989,0.0154551058392291,-8.452913664889847e-05,critical
1200,1.1111111111111112,1.9240506329113924,anode,0.0160253546339511,0.0168318097050136,0.0150739504675039,4.331018932517708e-06,critical
1200,1.2121212121212122,1.9240506329113924,anode,0.0158834275640183,0.0166600519029446,0.0149708566520927,6.986112535694154e-05,critical
1200,1.3131313131313131,1.9240506329113924,anode,0.0157654614302215,0.0164588910640889,0.0149657342688328,1.699870348633141e-05,critical
1200,1.414141414141414,1.9240506329113924,anode,0.0157084100932084,0.0164827226081195,0.0147960061911668,-0.0001011098877016,critical
1200,1.5151515151515151,1.9240506329113924,anode,0.0156679660945462,0.0164422629761533,0.0147564082665681,-6.906551388090166e-05,critical
1200,1.616161616161616,1.9240506329113924,anode,0.0155533070760033,0.0163240477117797,0.0146458151495813,-5.7478076865461215e-05,critical
1200,1.7171717171717171,1.9240506329113924,anode,0.0155305825112937,0.0162678551934445,0.0146696847838911,1.337515498947862e-05,critical
1200,1.818181818181818,1.9240506329113924,anode,0.0153088885426042,0.0160656736683452,0.0144181931768613,-5.7416529107208805e-05,critical
1200,1.9191919191919191,1.9240506329113924,anode,0.0154117574459242,0.0162242058807869,0.0144432996085223,-8.077535691302952e-05,critical
1200,2.0202020202020203,1.9240506329113924,anode,0.01511024789987,0.0157327565833073,0.0143993195340223,1.351588061512937e-05,critical
1200,2.121212121212121,1.9240506329113924,anode,0.0152517853327976,0.0159757199128724,0.0144065154359217,-5.704457288314061e-06,critical
1200,2.2222222222222223,1.9240506329113924,anode,0.015126690704481,0.0158948084173564,0.0142167608242305,-9.70194614772867e-05,critical
1200,2.323232323232323,1.9240506329113924,anode,0.0150502240929131,0.0158141191853109,0.0141475422849677,-1.680087736015558e-05,critical
1200,2.4242424242424243,1.9240506329113924,anode,0.0150667809275445,0.0157675741447945,0.0142512716864775,-1.5614089527281242e-05,critical
1200,2.525252525252525,1.9240506329113924,anode,0.0149742585146169,0.0157529427932817,0.014049807311295,2.540840486807542e-05,high
1200,2.6262626262626263,1.9240506329113924,anode,0.0148249812592019,0.0156071034820152,0.0138934506054998,-4.8103472489088345e-05,high
1200,2.727272727272727,1.9240506329113924,anode,0.0147829935268361,0.0154438890006549,0.0140178329308159,6.684780452458265e-05,high
1200,2.8282828282828283,1.9240506329113924,anode,0.0147774257133734,0.0155334309461071,0.0138826072834951,-2.927091352672442e-05,high
1200,2.929292929292929,1.9240506329113924,anode,0.0146920744287754,0.0153487919515106,0.0139320174797791,-5.8204681902176185e-05,high
1200,3.0303030303030303,1.9240506329113924,anode,0.0148174753212382,0.0155794852678486,0.0139148763633814,3.687069161476616e-06,high
1200,3.131313131313131,1.9240506329113924,anode,0.0146330319248932,0.0152482719422134,0.0139278372142606,4.699657517830053e-05,high
1200,3.2323232323232323,1.9240506329113924,anode,0.0145978863861982,0.0152927432877693,0.0137860078612986,2.6808661286302503e-05,high
1200,3.333333333333333,1.9240506329113924,anode,0.0146255964760248,0.0152962359941955,0.0138469117669215,2.517529285117008e-05,high
1200,3.4343434343434343,1.9240506329113924,anode,0.0145902263666335,0.0152838101208033,0.0137784801954127,8.369027301775048e-05,high
1200,3.5353535353535355,1.9240506329113924,anode,0.0146786324933072,0.0153091314111135,0.0139540960594662,1.8625893176081427e-05,high
1200,3.636363636363636,1.9240506329113924,anode,0.0144334206950061,0.0150380530496874,0.0137412711231641,2.9139773963975216e-06,high
1200,3.7373737373737375,1.9240506329113924,anode,0.0145516990824203,0.0152221073889213,0.0137726738286623,-2.561566722757084e-05,high
1200,3.8383838383838382,1.9240506329113924,anode,0.0144993452298434,0.0151842388146021,0.0137002035361751,-2.2279172842592823e-05,high
1200,3.939393939393939,1.9240506329113924,anode,0.0144523490621373,0.0152041963187098,0.0135598177787157,9.679489348448352e-06,high
1200,4.040404040404041,1.9240506329113924,anode,0.0144238118453834,0.0150594571483817,0.0136904645898571,2.0352668440710217e-05,high
1200,4.141414141414141,1.9240506329113924,anode,0.0143372619864858,0.0149762995072299,0.0135986754754712,-2.1575247949959022e-05,high
1200,4.242424242424242,1.9240506329113924,anode,0.0144982084997534,0.0152867325639367,0.0135539416581609,-1.1638551613378976e-06,high
1200,4.343434343434343,1.9240506329113924,anode,0.0143867760182799,0.0151379508503873,0.0134944421268344,-7.317430494319482e-07,high
1200,4.444444444444445,1.9240506329113924,anode,0.0143948957861191,0.0150930328049602,0.0135758918506212,-5.752379183260623e-05,high
1200,4.545454545454545,1.9240506329113924,anode,0.0144108118328942,0.0150587363104514,0.0136610320520503,3.700841427890988e-06,high
1200,4.646464646464646,1.9240506329113924,anode,0.0143772711576542,0.0151021898771605,0.0135211034107139,-5.1057056350968e-05,high
1200,4.747474747474747,1.9240506329113924,anode,0.0145784076111776,0.0152409789462171,0.013810180029171,-2.6582378608390194e-05,high
1200,4.848484848484849,1.9240506329113924,anode,0.0143848226793954,0.0149918714115677,0.0136882750392899,-6.027929613431109e-05,high
1200,4.94949494949495,1.9240506329113924,anode,0.0143957046575363,0.0150318959532478,0.0136615049646005,-2.5776342337098603e-06,high
1200,5.05050505050505,1.9240506329113924,anode,0.014223915581819,0.0149734420894838,0.0133319264395076,1.1141010895365816e-05,high
1200,5.151515151515151,1.9240506329113924,anode,0.0144009352875175,0.0151394835694779,0.0135264133131584,-2.600894022635602e-05,high
1200,5.252525252525253,1.9240506329113924,anode,0.0143194653911522,0.0149012557117527,0.0136559840807295,-4.113745575758311e-05,high
1200,5.353535353535354,1.9240506329113924,anode,0.0143312643925341,0.0150604054469211,0.0134690548346229,-3.324415346888062e-05,high
1200,5.454545454545454,1.9240506329113924,anode,0.0143951012388219,0.0151026457866195,0.0135639307420992,-4.251099361609531e-06,high
1200,5.555555555555555,1.9240506329113924,anode,0.0143140554999492,0.0150325183082143,0.0134655490751367,-7.229402018281231e-05,high
1200,5.656565656565657,1.9240506329113924,anode,0.0143859730330892,0.0150892870565237,0.0135595180523667,6.472161517843252e-05,high
1200,5.757575757575758,1.9240506329113924,anode,0.0143826420976167,0.015039292136409,0.0136208766726451,7.02012306995928e-06,high
1200,5.858585858585858,1.9240506329113924,anode,0.0143620477932925,0.0150867189286445,0.0135063779725522,-3.656529950538826e-05,high
1200,5.959595959595959,1.9240506329113924,anode,0.0144811612318307,0.0152327266560152,0.0135893277232657,1.587369520250401e-05,high
1200,6.0606060606060606,1.9240506329113924,anode,0.0145094272452761,0.0151544143203414,0.0137643828633436,6.602009829658838e-06,high
1200,6.161616161616162,1.9240506329113924,anode,0.0143347855596586,0.0150030296244975,0.0135568579058845,1.5530878833183024e-05,high
1200,6.262626262626262,1.9240506329113924,anode,0.0145334406112582,0.0152758766936354,0.01365506210436,-1.6443012935348405e-05,high
1200,6.363636363636363,1.9240506329113924,anode,0.0144309176837626,0.0150772503453925,0.0136833393062737,-2.0533946811187776e-05,high
1200,6.4646464646464645,1.9240506329113924,anode,0.0146487550558834,0.0152890943506593,0.013910366976194,5.235253207528272e-05,high
1200,6.565656565656566,1.9240506329113924,anode,0.014524755814668,0.0152472913079538,0.0136734234379192,5.416354385195893e-05,high
1200,6.666666666666667,1.9240506329113924,anode,0.0145706469938852,0.0153259563131762,0.0136745607917453,1.7562802098119866e-05,high
1200,6.767676767676767,1.9240506329113924,anode,0.0145356204162961,0.0152372272489473,0.0137140527964566,4.528069923452692e-06,high
1200,6.8686868686868685,1.9240506329113924,anode,0.0145633890152525,0.0153282006531795,0.0136517853216664,-9.060272478007444e-05,high
1200,6.96969696969697,1.9240506329113924,anode,0.0147933559649131,0.0155301730413223,0.0139254305488543,-3.575909615864186e-05,high
1200,7.070707070707071,1.9240506329113924,anode,0.0145842015107034,0.015316067070182,0.0137211262180233,2.1663711917532933e-05,high
1200,7.171717171717171,1.9240506329113924,anode,0.0148363775878751,0.015541791453356,0.0140124704875384,1.130265285170364e-05,high
1200,7.272727272727272,1.9240506329113924,anode,0.0147938339690401,0.0155568895937298,0.0138893902290632,-2.0486211583286617e-05,high
1200,7.373737373737374,1.9240506329113924,anode,0.0149750073114971,0.0157848870062312,0.0140061608164865,-2.090647400300976e-05,high
1200,7.474747474747475,1.9240506329113924,anode,0.0150097677945458,0.0156851306615837,0.0142269153096363,-7.236871008620354e-05,critical
1200,7.575757575757575,1.9240506329113924,anode,0.0150073577517092,0.0158016643160046,0.0140603454938949,6.254541277046358e-05,critical
1200,7.6767676767676765,1.9240506329113924,anode,0.0150852370418044,0.0157993215400208,0.0142517971657263,-1.652244860348589e-05,critical
1200,7.777777777777778,1.9240506329113924,anode,0.0151388619741631,0.0158155562900089,0.0143563953145014,2.31869374106814e-05,critical
1200,7.878787878787879,1.9240506329113924,anode,0.0152218888903818,0.015944453559963,0.0143768345639531,-7.681369291415032e-05,critical
1200,7.979797979797979,1.9240506329113924,anode,0.015175677798562,0.0159313809427635,0.0142840981296081,-8.611475415484274e-05,critical
1200,8.080808080808081,1.9240506329113924,anode,0.0154836466981655,0.0162869830836184,0.0145304618341368,1.3687999378754529e-05,critical
1200,8.181818181818182,1.9240506329113924,anode,0.0154316381814665,0.0161555989713723,0.0145864239109649,8.312933999982975e-05,critical
1200,8.282828282828282,1.9240506329113924,anode,0.0156753399706984,0.016383822018598,0.0148545898223421,3.0420817318128463e-05,critical
1200,8.383838383838384,1.9240506329113924,anode,0.0156205488223588,0.0163717332449507,0.0147403011232615,-7.233441718795408e-05,critical
1200,8.484848484848484,1.9240506329113924,anode,0.0155216490215672,0.0162780390561272,0.0146316926467325,0.0001093427153979,critical
1200,8.585858585858587,1.9240506329113924,anode,0.0157090297479672,0.0164452729357929,0.0148512185482361,9.37687184424627e-06,critical
1200,8.686868686868687,1.9240506329113924,anode,0.0158723537121508,0.0166737640907505,0.0149258776441457,4.4507106205079066e-05,critical
1200,8.787878787878787,1.9240506329113924,anode,0.0158689834062061,0.0166252037934428,0.0149847019611061,5.675737001623976e-05,critical
1200,8.88888888888889,1.9240506329113924,anode,0.0161450721220957,0.0169066144430937,0.0152566797326669,2.7491556502890107e-05,critical
1200,8.98989898989899,1.9240506329113924,anode,0.0163296678198843,0.0171689387810455,0.0153348203485683,-6.183014505578841e-05,critical
1200,9.09090909090909,1.9240506329113924,anode,0.0163286795798677,0.0168947166511978,0.0156965263427801,2.416497100032108e-05,critical
1200,9.191919191919192,1.9240506329113924,anode,0.0164751746030423,0.017306494796376,0.0154922089535418,-8.927754920846642e-05,critical
1200,9.292929292929292,1.9240506329113924,anode,0.0165158031286027,0.0173389242776985,0.0155462569265693,3.013911925576483e-05,critical
1200,9.393939393939394,1.9240506329113924,anode,0.016971806799462,0.0177530460743932,0.0160639879029628,3.912012268299109e-05,critical
1200,9.494949494949497,1.9240506329113924,anode,0.0168494851734807,0.0175855282250143,0.016000712813842,-6.461144297571326e-05,critical
1200,9.595959595959595,1.9240506329113924,anode,0.0171568947905732,0.0179816462600117,0.0161891327163028,0.0001135433683338,critical
1200,9.696969696969695,1.9240506329113924,anode,0.017360790617939,0.0181630370318914,0.016428254010691,-1.4056834360254958e-05,critical
1200,9.797979797979798,1.9240506329113924,anode,0.0175472488926934,0.0184510104117284,0.016476357201805,2.041343354970227e-05,critical
1200,9.8989898989899,1.9240506329113924,anode,0.0175285057299755,0.0185076122205171,0.0163494852528749,-1.8868422011399943e-05,critical
1200,10.0,1.9240506329113924,anode,0.0178353443729307,0.0185903412670831,0.0169690020043951,6.118189485375056e-05,critical
1200,0.0,2.0253164556962027,anode,0.0178202135269921,0.0187272846032738,0.0167478515569266,4.911302430796457e-06,critical
1200,0.101010101010101,2.0253164556962027,anode,0.0175747105813862,0.018503148796505,0.0164686859621739,5.436345033346262e-05,critical
1200,0.202020202020202,2.0253164556962027,anode,0.0171092649595661,0.01790311349747,0.016185892817213,8.649228937104976e-06,critical
1200,0.303030303030303,2.0253164556962027,anode,0.0174254738398408,0.0182457307507543,0.0164672333684013,-9.553246263816674e-05,critical
1200,0.404040404040404,2.0253164556962027,anode,0.0171089272320847,0.0178313619649168,0.0162805909811927,4.238553369935869e-05,critical
1200,0.5050505050505051,2.0253164556962027,anode,0.0168493317871722,0.0177055309641579,0.0158372040836064,-3.280779195266766e-05,critical
1200,0.6060606060606061,2.0253164556962027,anode,0.0167750846696527,0.0176650982282414,0.0157142790808076,3.409193236092414e-05,critical
1200,0.7070707070707071,2.0253164556962027,anode,0.0164750682162912,0.0172234153377591,0.0156076582212151,-2.6881224568027974e-06,critical
1200,0.8080808080808081,2.0253164556962027,anode,0.0164326311987728,0.0171975693233615,0.0155423878900283,-1.223857690553426e-05,critical
1200,0.9090909090909092,2.0253164556962027,anode,0.016270059926688,0.0170483557181057,0.0153585602594779,-8.414809262459709e-05,critical
1200,1.0101010101010102,2.0253164556962027,anode,0.0162148897584313,0.0171326368190313,0.0151054302217116,7.579205336914634e-05,critical
1200,1.1111111111111112,2.0253164556962027,anode,0.0161829331821111,0.0169658051372016,0.0152657860759688,-1.7413950596019635e-05,critical
1200,1.2121212121212122,2.0253164556962027,anode,0.0159225570215259,0.01658180829783,0.0151690507747625,-2.342560989837259e-05,critical
1200,1.3131313131313131,2.0253164556962027,anode,0.01588539803836,0.0167046122520381,0.0149144665244774,1.70183609934062e-05,critical
1200,1.414141414141414,2.0253164556962027,anode,0.0157418503128587,0.0164793879101339,0.01488094246768,8.563497467439561e-05,critical
1200,1.5151515151515151,2.0253164556962027,anode,0.0156759123659119,0.0164169593381306,0.0148111740585786,2.0329535692671765e-05,critical
1200,1.616161616161616,2.0253164556962027,anode,0.0155670244475644,0.016302125776139,0.0147094512053944,1.0234165869264444e-05,critical
1200,1.7171717171717171,2.0253164556962027,anode,0.0154503210614526,0.016229853578358,0.0145297141664875,-4.765649548303915e-05,critical
1200,1.818181818181818,2.0253164556962027,anode,0.0154879011697894,0.0162425122570732,0.0146012099984758,-8.34209660755552e-05,critical
1200,1.9191919191919191,2.0253164556962027,anode,0.0152935166805978,0.0159451114658211,0.0145454495010162,-3.552102581647746e-05,critical
1200,2.0202020202020203,2.0253164556962027,anode,0.0151595717549572,0.0158453449592043,0.0143641514694536,6.769185047252112e-05,critical
1200,2.121212121212121,2.0253164556962027,anode,0.0151283588407371,0.0157919092560691,0.014363267518957,3.0587149128450925e-05,critical
1200,2.2222222222222223,2.0253164556962027,anode,0.0152757565105207,0.0159836220768199,0.014451292003977,-7.463601284100568e-05,critical
1200,2.323232323232323,2.0253164556962027,anode,0.0149242935461608,0.0156637132681038,0.0140515861175527,-0.0001088852530868,high
1200,2.4242424242424243,2.0253164556962027,anode,0.0149572096805493,0.0157767871830765,0.0139740146060903,-3.2030871016728656e-05,high
1200,2.525252525252525,2.0253164556962027,anode,0.0148502643056431,0.0154646297633597,0.0141478200180926,4.306392061530779e-05,high
1200,2.6262626262626263,2.0253164556962027,anode,0.0149667084156962,0.0157138001981461,0.0140855728412311,6.673122989144167e-05,high
1200,2.727272727272727,2.0253164556962027,anode,0.0147978992970414,0.0156257077809988,0.0138003380558593,-4.396677559015512e-05,high
1200,2.8282828282828283,2.0253164556962027,anode,0.0148049882451311,0.0155701109088186,0.0138972835219513,4.85788161580669e-05,high
1200,2.929292929292929,2.0253164556962027,anode,0.0146632277491164,0.0153562114035051,0.0138546933476084,5.52490314966082e-06,high
1200,3.0303030303030303,2.0253164556962027,anode,0.0146280509920232,0.0152732335546106,0.0138836619333081,-1.3604335472810986e-05,high
1200,3.131313131313131,2.0253164556962027,anode,0.0146972809323797,0.0154606211290342,0.0137909010823008,-4.5479333720753495e-05,high
1200,3.2323232323232323,2.0253164556962027,anode,0.0146102450002048,0.0152531653775086,0.0138687728615833,3.1773692595119614e-06,high
1200,3.333333333333333,2.0253164556962027,anode,0.0146439012109595,0.0153631182830827,0.0137989656999159,2.6627935865896952e-05,high
1200,3.4343434343434343,2.0253164556962027,anode,0.0146028518674473,0.0153458521454504,0.0137235669108822,-6.230183977475501e-05,high
1200,3.5353535353535355,2.0253164556962027,anode,0.0144812510363764,0.0152212772426207,0.0136056579286834,-1.7458619988548244e-05,high
1200,3.636363636363636,2.0253164556962027,anode,0.0145384057135219,0.0151414321236518,0.0138487707563067,3.67191035968584e-05,high
1200,3.7373737373737375,2.0253164556962027,anode,0.01450843266714,0.015264848298437,0.0136097876725909,3.673593005837513e-05,high
1200,3.8383838383838382,2.0253164556962027,anode,0.0144956184975774,0.0151188695023121,0.0137793310023674,-1.5110487707135276e-05,high
1200,3.939393939393939,2.0253164556962027,anode,0.0144604485154376,0.0150820239822345,0.0137452858938497,6.047329155255473e-05,high
1200,4.040404040404041,2.0253164556962027,anode,0.0144023295774502,0.0151191689116495,0.0135578809481085,-4.3147089174369615e-05,high
1200,4.141414141414141,2.0253164556962027,anode,0.0143223852104788,0.0150451120656672,0.0134693260413804,5.679830556419098e-06,high
1200,4.242424242424242,2.0253164556962027,anode,0.0143244530364886,0.0149757629007884,0.0135691106856885,3.415619463007688e-05,high
1200,4.343434343434343,2.0253164556962027,anode,0.0143669710634112,0.0150884288596657,0.0135151896442753,6.271213469804274e-05,high
1200,4.444444444444445,2.0253164556962027,anode,0.0144646206601869,0.0151196909804417,0.0137033928417174,9.710007722070528e-05,high
1200,4.545454545454545,2.0253164556962027,anode,0.0143356449500131,0.0149637458170397,0.0136116991774401,1.5048676129713756e-05,high
1200,4.646464646464646,2.0253164556962027,anode,0.0144497441242356,0.0150903941740686,0.0137098765218023,2.47351023010699e-05,high
1200,4.747474747474747,2.0253164556962027,anode,0.0143827315284354,0.0150535207449404,0.0136018148443755,-1.0235048777934916e-05,high
1200,4.848484848484849,2.0253164556962027,anode,0.0144373295889232,0.0151914361718378,0.0135414461610631,-1.0944365397487167e-06,high
1200,4.94949494949495,2.0253164556962027,anode,0.0142784974778241,0.015020542625761,0.0133971426589346,5.069648248925062e-05,high
1200,5.05050505050505,2.0253164556962027,anode,0.0143776204133401,0.0150755034428028,0.0135590745052716,4.66820524713615e-05,high
1200,5.151515151515151,2.0253164556962027,anode,0.0143010636072285,0.0150501035327419,0.0134105453524668,2.6915214616489737e-05,high
1200,5.252525252525253,2.0253164556962027,anode,0.0143192768163534,0.0150550614838215,0.0134478537908363,-1.0104924255998884e-05,high
1200,5.353535353535354,2.0253164556962027,anode,0.0143381802845847,0.0149898587751031,0.0135827407023966,-4.750261277759993e-06,high
1200,5.454545454545454,2.0253164556962027,anode,0.0144949737611941,0.0150821142022228,0.0138259158389555,2.7008494851107742e-05,high
1200,5.555555555555555,2.0253164556962027,anode,0.0143102713284188,0.0150585109083142,0.0134201255660086,6.442498582801341e-05,high
1200,5.656565656565657,2.0253164556962027,anode,0.0144495243795249,0.0152079585541669,0.0135476313673665,-9.166700881260602e-06,high
1200,5.757575757575758,2.0253164556962027,anode,0.0143089098883236,0.0150618002372959,0.013412977654948,2.9979203712822217e-05,high
1200,5.858585858585858,2.0253164556962027,anode,0.0143135676151852,0.0150357465283496,0.0134611853864094,-1.1020578672831669e-06,high
1200,5.959595959595959,2.0253164556962027,anode,0.0144825708497461,0.0151401621802319,0.0137203497634444,-1.4950261956247202e-05,high
1200,6.0606060606060606,2.0253164556962027,anode,0.0144751163749401,0.0152068937149819,0.0136110897765252,-1.6614619871784376e-06,high
1200,6.161616161616162,2.0253164556962027,anode,0.0144668847074318,0.0150295817948134,0.0138294162020012,2.137401877174241e-06,high
1200,6.262626262626262,2.0253164556962027,anode,0.0144953529102795,0.0151102964690494,0.0137895349312619,-4.790258228919907e-05,high
1200,6.363636363636363,2.0253164556962027,anode,0.0145735392798983,0.0153338619647083,0.0136698220532945,5.116596726112544e-05,high
1200,6.4646464646464645,2.0253164556962027,anode,0.0145318747025558,0.0152161561243358,0.0137337614277573,3.071522533284011e-05,high
1200,6.565656565656566,2.0253164556962027,anode,0.0145707645815871,0.015322571575625,0.0136787642617391,6.119242940616117e-05,high
1200,6.666666666666667,2.0253164556962027,anode,0.0147338397131597,0.0154718502813035,0.0138622882805579,-8.184136235891217e-05,high
1200,6.767676767676767,2.0253164556962027,anode,0.0146547695410692,0.0154108453199349,0.0137578504060526,5.707764901063638e-05,high
1200,6.8686868686868685,2.0253164556962027,anode,0.0145371854037372,0.0152471842506952,0.0137037768706808,3.4843671161128496e-05,high
1200,6.96969696969697,2.0253164556962027,anode,0.0147305534920757,0.0154686304232612,0.0138604709685298,1.3246968600129148e-05,high
1200,7.070707070707071,2.0253164556962027,anode,0.0147658655105027,0.0154545899994711,0.013964033444277,-1.4303960030826928e-05,high
1200,7.171717171717171,2.0253164556962027,anode,0.0147567145172201,0.0154639309673059,0.0139295903432587,8.138819122510962e-06,high
1200,7.272727272727272,2.0253164556962027,anode,0.0148241856447028,0.0155004444223614,0.0140376924536491,9.3746129963825e-05,high
1200,7.373737373737374,2.0253164556962027,anode,0.0149822619852124,0.0157445599876774,0.0140790455334779,9.284184636007984e-05,high
1200,7.474747474747475,2.0253164556962027,anode,0.0149712875221687,0.0156578532303488,0.0141731408751503,-6.860431863246888e-05,high
1200,7.575757575757575,2.0253164556962027,anode,0.0151154138930516,0.0158970172911612,0.0141886311466324,-8.930537786956856e-06,critical
1200,7.6767676767676765,2.0253164556962027,anode,0.0150009097025562,0.0157431423552955,0.0141279461442748,-7.433412922948041e-06,critical
1200,7.777777777777778,2.0253164556962027,anode,0.0150924687763196,0.0157349540969441,0.0143552317263158,-4.7497226254425966e-06,critical
1200,7.878787878787879,2.0253164556962027,anode,0.0152050749622992,0.0159038192671451,0.0143924646061983,-7.060640248009585e-05,critical
1200,7.979797979797979,2.0253164556962027,anode,0.0153832127190186,0.0160509656026906,0.0146138769151382,-6.1029981283837046e-05,critical
1200,8.080808080808081,2.0253164556962027,anode,0.0153677811618003,0.0160715236858492,0.0145506013729278,4.146704187218655e-05,critical
1200,8.181818181818182,2.0253164556962027,anode,0.0153650544227201,0.0161137172188379,0.0144856118924946,-7.553516177006889e-05,critical
1200,8.282828282828282,2.0253164556962027,anode,0.0154638312617893,0.016151425154059,0.0146685072711341,6.76622349167883e-05,critical
1200,8.383838383838384,2.0253164556962027,anode,0.0154812732856783,0.0162232762540139,0.0146120958725533,-7.714128528256013e-05,critical
1200,8.484848484848484,2.0253164556962027,anode,0.0155972148822639,0.0163604223836916,0.0147006771941274,-5.498414016309375e-05,critical
1200,8.585858585858587,2.0253164556962027,anode,0.0157011227760875,0.0165019707465894,0.0147538519924033,-2.3827665200840738e-05,critical
1200,8.686868686868687,2.0253164556962027,anode,0.0157564953409458,0.016432149553964,0.0149803411598524,-7.989742082982958e-06,critical
1200,8.787878787878787,2.0253164556962027,anode,0.015987078482634,0.0166606903241369,0.015214537249007,-5.951515896769909e-05,critical
1200,8.88888888888889,2.0253164556962027,anode,0.0159975637327798,0.0167412570058715,0.0151320026354414,3.464400935228462e-05,critical
1200,8.98989898989899,2.0253164556962027,anode,0.0162225649135221,0.0170370333238318,0.0152618573931192,-3.459189846980907e-05,critical
1200,9.09090909090909,2.0253164556962027,anode,0.0163282162722876,0.0171743813297957,0.0153244469030524,1.283835556254702e-05,critical
1200,9.191919191919192,2.0253164556962027,anode,0.0164192769759224,0.0173202426002437,0.0153384110106964,-2.274618646284007e-07,critical
1200,9.292929292929292,2.0253164556962027,anode,0.0166298500963687,0.017518586067774,0.0155691559487672,-2.606368948649928e-05,critical
1200,9.393939393939394,2.0253164556962027,anode,0.0166748048194202,0.017500779278569,0.0157030561079469,2.300886353372733e-05,critical
1200,9.494949494949497,2.0253164556962027,anode,0.0170211506570136,0.0177619473242438,0.0161681198042632,-2.5763216170314908e-05,critical
1200,9.595959595959595,2.0253164556962027,anode,0.0170743041743506,0.0179218719375748,0.0160767590965787,-2.4521705453605896e-05,critical
1200,9.696969696969695,2.0253164556962027,anode,0.0171850194718703,0.0179798883172595,0.0162601775346318,6.14084174007453e-05,critical
1200,9.797979797979798,2.0253164556962027,anode,0.0173820331324102,0.018154378519425,0.0164899221561712,1.1139300474903362e-05,critical
1200,9.8989898989899,2.0253164556962027,anode,0.0177145641442809,0.0185891935292525,0.016685927211033,-4.2544105985311386e-05,critical
1200,10.0,2.0253164556962027,anode,0.0177694504417449,0.0185626973406961,0.0168525470259162,-2.889091737427725e-06,critical
1200,0.0,2.1265822784810124,anode,0.0177738730111967,0.0186009512701371,0.0168108342654192,-5.333524835900093e-05,critical
1200,0.101010101010101,2.1265822784810124,anode,0.0175742354897512,0.0184432028558379,0.0165523500924804,5.11142745053117e-06,critical
1200,0.202020202020202,2.1265822784810124,anode,0.0172739785189527,0.0180676947346022,0.0163519965786644,3.57361925911734e-05,critical
1200,0.303030303030303,2.1265822784810124,anode,0.0172638116405289,0.018075208754309,0.0163177254598766,-3.719653514394847e-05,critical
1200,0.404040404040404,2.1265822784810124,anode,0.0170848801335418,0.0179351506018978,0.016083759058348,1.6709018042773007e-05,critical
1200,0.5050505050505051,2.1265822784810124,anode,0.0169803125095465,0.0177603936698487,0.016074444165551,6.602692212990072e-06,critical
1200,0.6060606060606061,2.1265822784810124,anode,0.016528732048778,0.0172382545303921,0.0157135338867755,-1.022068252495016e-05,critical
1200,0.7070707070707071,2.1265822784810124,anode,0.0165812875621411,0.0174071535928327,0.0156083204259861,4.783818202407714e-05,critical
1200,0.8080808080808081,2.1265822784810124,anode,0.0165041033196043,0.0172718393705972,0.0156107360921828,3.466104944410484e-06,critical
1200,0.9090909090909092,2.1265822784810124,anode,0.0162467031363128,0.0169818951465442,0.0153950602964709,-2.4649998296583875e-06,critical
1200,1.0101010101010102,2.1265822784810124,anode,0.0162544314020999,0.0169973632134962,0.0153907379476312,8.819002405225953e-05,critical
1200,1.1111111111111112,2.1265822784810124,anode,0.0160636460233754,0.016752789087923,0.0152717055305557,3.3927835842947694e-05,critical
1200,1.2121212121212122,2.1265822784810124,anode,0.0159388593915294,0.0167009154004131,0.0150475419770388,-4.423227756393339e-05,critical
1200,1.3131313131313131,2.1265822784810124,anode,0.0158087978095295,0.0166226380383332,0.0148445259670469,-2.0196069519010754e-05,critical
1200,1.414141414141414,2.1265822784810124,anode,0.0158561928196761,0.016718835692746,0.0148193764674108,0.0001267348392633,critical
1200,1.5151515151515151,2.1265822784810124,anode,0.0154679279033521,0.0161446453307142,0.014687613466159,-5.013848558056918e-05,critical
1200,1.616161616161616,2.1265822784810124,anode,0.0155570085572929,0.016290347048589,0.0147016769601604,2.0188483184498435e-05,critical
1200,1.7171717171717171,2.1265822784810124,anode,0.0154055711012538,0.016189934229559,0.014478049197833,2.8321421241999583e-05,critical
1200,1.818181818181818,2.1265822784810124,anode,0.0154323909436714,0.0161722556921834,0.0145662116968283,6.003581074125618e-05,critical
1200,1.9191919191919191,2.1265822784810124,anode,0.0154621039461449,0.0162546198584427,0.0145235253110819,-4.3155429867123935e-05,critical
1200,2.0202020202020203,2.1265822784810124,anode,0.0153251517035387,0.0160610052518666,0.0144640804527868,2.8482783857084367e-05,critical
1200,2.121212121212121,2.1265822784810124,anode,0.0151362111823632,0.015806239443456,0.0143619306570004,5.985051268139522e-05,critical
1200,2.2222222222222223,2.1265822784810124,anode,0.0150966208177921,0.0158609675508519,0.0141929241343941,-6.346161484666568e-05,critical
1200,2.323232323232323,2.1265822784810124,anode,0.0151396253820958,0.0158551612225316,0.0143035407116553,7.254071061143593e-05,critical
1200,2.4242424242424243,2.1265822784810124,anode,0.0150182866721485,0.0158004570095531,0.0140895824701078,5.084681179949237e-07,critical
1200,2.525252525252525,2.1265822784810124,anode,0.0149299734996194,0.0155938360364918,0.0141627426257551,-3.913232263618824e-05,high
1200,2.6262626262626263,2.1265822784810124,anode,0.0149181238777628,0.0157023315149137,0.0139847133765904,5.03401195441459e-05,high
1200,2.727272727272727,2.1265822784810124,anode,0.0147737396421135,0.0154667195695777,0.0139656944031814,4.77058150699554e-05,high
1200,2.8282828282828283,2.1265822784810124,anode,0.014800194352925,0.0154758745747621,0.0140162653984047,-2.104459040570147e-05,high
1200,2.929292929292929,2.1265822784810124,anode,0.0147308865676085,0.0154717981851181,0.013856169179976,-5.449407934295473e-05,high
1200,3.0303030303030303,2.1265822784810124,anode,0.0147791993440266,0.0155376515849258,0.0138752831821326,0.0001548642606849,high
1200,3.131313131313131,2.1265822784810124,anode,0.0146871836951446,0.015350007672219,0.0139196851227158,9.466973161517969e-06,high
1200,3.2323232323232323,2.1265822784810124,anode,0.0145421102542464,0.0153127008514876,0.0136240488764016,-1.2115050023876012e-05,high
1200,3.333333333333333,2.1265822784810124,anode,0.0146104147199241,0.0153292856253337,0.0137645912052415,6.97604443886296e-05,high
1200,3.4343434343434343,2.1265822784810124,anode,0.0145076549432945,0.0151791527594556,0.0137269172874005,-5.46703874853819e-06,high
1200,3.5353535353535355,2.1265822784810124,anode,0.014415636021459,0.0152424722429775,0.0134137876775085,4.895002752955546e-05,high
1200,3.636363636363636,2.1265822784810124,anode,0.0145522043605599,0.015270737127394,0.0137051359380557,-9.663757411372792e-05,high
1200,3.7373737373737375,2.1265822784810124,anode,0.0144665570992508,0.0152473175736324,0.0135325172076231,4.526431760830373e-05,high
1200,3.8383838383838382,2.1265822784810124,anode,0.0145601999101965,0.015316686564178,0.0136602959970981,-9.186866119524003e-05,high
1200,3.939393939393939,2.1265822784810124,anode,0.0143771824698316,0.0149355471295991,0.013744650390837,2.055104400384401e-05,high
1200,4.040404040404041,2.1265822784810124,anode,0.0143668537432726,0.0151011561042524,0.0134978216773325,-3.2109081154654096e-05,high
1200,4.141414141414141,2.1265822784810124,anode,0.0144306034218389,0.0151183881543878,0.0136269073931925,1.755888370323805e-05,high
1200,4.242424242424242,2.1265822784810124,anode,0.0144504471323675,0.0150507020521083,0.0137641560749294,1.7973566104102078e-06,high
1200,4.343434343434343,2.1265822784810124,anode,0.0143276668983295,0.0149756664556493,0.0135761510949912,6.187340484696432e-05,high
1200,4.444444444444445,2.1265822784810124,anode,0.0144136451971217,0.0151391521917599,0.0135562040121736,-7.747525715034704e-05,high
1200,4.545454545454545,2.1265822784810124,anode,0.0142840949311474,0.0149340390984985,0.0135303522356643,-2.721451372259328e-05,high
1200,4.646464646464646,2.1265822784810124,anode,0.0143839153704573,0.0152002304919351,0.0133969676852075,-5.2497384661230686e-05,high
1200,4.747474747474747,2.1265822784810124,anode,0.0143078614220293,0.0149613356124493,0.0135497307741651,-8.178873371142472e-06,high
1200,4.848484848484849,2.1265822784810124,anode,0.0143967734617209,0.0149295322907813,0.0137971328892274,-2.3603353432657787e-06,high
1200,4.94949494949495,2.1265822784810124,anode,0.0142509878461319,0.0149071479189138,0.0134886995533786,1.4368355361933058e-05,high
1200,5.05050505050505,2.1265822784810124,anode,0.0144144751695143,0.0151548120618854,0.0135336732802406,0.0001274472363838,high
1200,5.151515151515151,2.1265822784810124,anode,0.0143470694601663,0.0150382156660387,0.0135367841198656,7.077284753729132e-05,high
1200,5.252525252525253,2.1265822784810124,anode,0.0142404186645747,0.0148569375749765,0.0135291206363836,9.151535549986776e-05,high
1200,5.353535353535354,2.1265822784810124,anode,0.0143381818166463,0.0150499863425421,0.0134995327085378,-6.263237132555508e-05,high
1200,5.454545454545454,2.1265822784810124,anode,0.014372316099938,0.015082364381144,0.0135365191604969,-6.08774708953997e-05,high
1200,5.555555555555555,2.1265822784810124,anode,0.0143531596462409,0.0150845174828032,0.0134882757447645,1.8910838604763885e-05,high
1200,5.656565656565657,2.1265822784810124,anode,0.0143408720944232,0.0150496518186905,0.0135063510348425,-6.571327565165836e-05,high
1200,5.757575757575758,2.1265822784810124,anode,0.01440184945655,0.0150155670007604,0.0136972353585752,3.422571388279231e-05,high
1200,5.858585858585858,2.1265822784810124,anode,0.0142981334172006,0.0150052504571991,0.0134664931320777,1.5736194759804007e-05,high
1200,5.959595959595959,2.1265822784810124,anode,0.0144785054658928,0.0152128086620782,0.0136109824786718,6.462995070253714e-07,high
1200,6.0606060606060606,2.1265822784810124,anode,0.0143457736944748,0.0150058783570679,0.0135784078222007,-5.038089111228684e-05,high
1200,6.161616161616162,2.1265822784810124,anode,0.0144732620977557,0.0152117687841936,0.0135972514558626,0.0001006715777964,high
1200,6.262626262626262,2.1265822784810124,anode,0.0145100430554631,0.015243620069718,0.0136437868177271,1.983662907794637e-05,high
1200,6.363636363636363,2.1265822784810124,anode,0.0146118441688742,0.0152281837573901,0.0139051926986163,4.022883468324407e-05,high
1200,6.4646464646464645,2.1265822784810124,anode,0.0144293817282472,0.0151028364484301,0.0136433499864553,8.883106187445615e-05,high
1200,6.565656565656566,2.1265822784810124,anode,0.0145008288871403,0.0152374629813996,0.0136302477185915,1.2941841383556564e-05,high
1200,6.666666666666667,2.1265822784810124,anode,0.0146143314713305,0.0153152747594121,0.013794405384977,-1.3317734928001476e-05,high
1200,6.767676767676767,2.1265822784810124,anode,0.0147087258904642,0.0154771855132482,0.0137945200052846,7.049567626617535e-05,high
1200,6.8686868686868685,2.1265822784810124,anode,0.0146875899672773,0.0153845256386252,0.0138737374677512,-2.548446217668582e-05,high
1200,6.96969696969697,2.1265822784810124,anode,0.0145407022185137,0.0152165373267426,0.0137543143905473,1.7192680987849553e-05,high
1200,7.070707070707071,2.1265822784810124,anode,0.0146854045161451,0.0154575962022755,0.0137647594342501,9.186280265710904e-05,high
1200,7.171717171717171,2.1265822784810124,anode,0.0148921124493031,0.0156347338541369,0.0140172071303193,3.325477195054301e-05,high
1200,7.272727272727272,2.1265822784810124,anode,0.014941846531173,0.0155997994219077,0.0141817413948231,-7.203698203354178e-05,high
1200,7.373737373737374,2.1265822784810124,anode,0.0149477972194026,0.0156149198836082,0.014176556944844,-2.551371931161489e-05,high
1200,7.474747474747475,2.1265822784810124,anode,0.0147477834236429,0.0153702620515302,0.0140324308556281,9.162265179512224e-05,high
1200,7.575757575757575,2.1265822784810124,anode,0.0149972640172425,0.0156442827176886,0.0142533316316597,3.3348908797022798e-06,high
1200,7.6767676767676765,2.1265822784810124,anode,0.015088604618906,0.0158131149649937,0.0142409321616706,1.5632204288072995e-05,critical
1200,7.777777777777778,2.1265822784810124,anode,0.0152445082273695,0.0160529706587787,0.014280598079624,-5.067732228682071e-05,critical
1200,7.878787878787879,2.1265822784810124,anode,0.0151293260326816,0.0158224835569252,0.0143243331444913,-4.291814794541164e-05,critical
1200,7.979797979797979,2.1265822784810124,anode,0.0152769454451745,0.0160162175818575,0.0144107231108318,-2.6912099881131004e-05,critical
1200,8.080808080808081,2.1265822784810124,anode,0.0153115836400354,0.0159881495545128,0.0145307707912573,1.2963451778072303e-05,critical
1200,8.181818181818182,2.1265822784810124,anode,0.0155540262185311,0.0163323361326968,0.0146367626012827,8.85640418679684e-06,critical
1200,8.282828282828282,2.1265822784810124,anode,0.0155438005050632,0.0161746295672631,0.0148248333735363,2.3066304821184555e-05,critical
1200,8.383838383838384,2.1265822784810124,anode,0.0155358223472583,0.0162068275613955,0.0147638132644509,-4.045581451771536e-05,critical
1200,8.484848484848484,2.1265822784810124,anode,0.015593125892706,0.0163301840031754,0.0147331403516291,-6.678176460702051e-06,critical
1200,8.585858585858587,2.1265822784810124,anode,0.0159304823463635,0.0165829180255829,0.0151859663155237,-1.9656703423657843e-05,critical
1200,8.686868686868687,2.1265822784810124,anode,0.0157928486826638,0.0165342971853329,0.0149286783392258,1.6866036265814486e-05,critical
1200,8.787878787878787,2.1265822784810124,anode,0.0160083075983451,0.0167577936713388,0.0151351952799645,-1.422376505512388e-05,critical
1200,8.88888888888889,2.1265822784810124,anode,0.0160246252166836,0.0167348316858017,0.0152045266854648,2.2985485160454147e-05,critical
1200,8.98989898989899,2.1265822784810124,anode,0.0161962803497272,0.0168610068311837,0.0154371015880023,4.8012833063741424e-05,critical
1200,9.09090909090909,2.1265822784810124,anode,0.0163379388558295,0.0171187307595733,0.0154239304566986,-7.699620681598249e-05,critical
1200,9.191919191919192,2.1265822784810124,anode,0.0165384607035554,0.0174024981860451,0.0155112525612797,-5.576100457876538e-05,critical
1200,9.292929292929292,2.1265822784810124,anode,0.0166760731240811,0.0175463285961114,0.0156423781230465,-5.19179540016908e-06,critical
1200,9.393939393939394,2.1265822784810124,anode,0.016790509790625,0.0175837668992384,0.0158645022845112,5.0458135586924e-05,critical
1200,9.494949494949497,2.1265822784810124,anode,0.0167703268791051,0.0175371100531094,0.0158803161717825,-3.672094819739069e-05,critical
1200,9.595959595959595,2.1265822784810124,anode,0.017118574281756,0.0179286063174503,0.0161732648587792,9.368076329694258e-06,critical
1200,9.696969696969695,2.1265822784810124,anode,0.0171630861884667,0.0179543778409696,0.0162433398317466,-4.0065385221782536e-05,critical
1200,9.797979797979798,2.1265822784810124,anode,0.0174010615290477,0.0182197935428403,0.0164448622864308,-9.049065055979596e-05,critical
1200,9.8989898989899,2.1265822784810124,anode,0.017633228702516,0.0185594108171778,0.0165315178984094,3.252013290841417e-05,critical
1200,10.0,2.1265822784810124,anode,0.0176451376309106,0.0184729317038908,0.0166803438069899,2.976968099000066e-05,critical
1200,0.0,2.2278481012658227,anode,0.0178434784806289,0.0186209118852583,0.0169477954454465,-4.830468734464904e-05,critical
1200,0.101010101010101,2.2278481012658227,anode,0.0176342782314448,0.0186227642984621,0.0164431490137647,-7.246766897194511e-06,critical
1200,0.202020202020202,2.2278481012658227,anode,0.0174649706582612,0.018351927067555,0.0164168388936023,1.1251313792425204e-06,critical
1200,0.303030303030303,2.2278481012658227,anode,0.0170427147689481,0.0178648327825715,0.016080080490991,-1.6701812038944308e-05,critical
1200,0.404040404040404,2.2278481012658227,anode,0.0170507353719538,0.0179535729462688,0.0159753165513216,4.73695958772194e-06,critical
1200,0.5050505050505051,2.2278481012658227,anode,0.0169186834632262,0.0177525456506343,0.015938581558111,-1.8144633326350803e-05,critical
1200,0.6060606060606061,2.2278481012658227,anode,0.0167304341821962,0.017476068191146,0.0158687226384618,-1.815913842437697e-05,critical
1200,0.7070707070707071,2.2278481012658227,anode,0.0165768278061111,0.0173879318561954,0.0156247269219234,-1.4622849140949902e-05,critical
1200,0.8080808080808081,2.2278481012658227,anode,0.0164385231393835,0.0172127492100822,0.0155356817829961,-1.5204283388308715e-05,critical
1200,0.9090909090909092,2.2278481012658227,anode,0.0163589859022715,0.0171376342376277,0.0154488959724507,4.8491481812898986e-05,critical
1200,1.0101010101010102,2.2278481012658227,anode,0.0162124213454153,0.0170457136324554,0.0152254192817055,1.823319215587172e-05,critical
1200,1.1111111111111112,2.2278481012658227,anode,0.0161402753820948,0.0168953073004613,0.0152607689260618,2.154890040946844e-05,critical
1200,1.2121212121212122,2.2278481012658227,anode,0.0161182064763977,0.0168345412471548,0.0152906792255496,-2.2360340681907784e-05,critical
1200,1.3131313131313131,2.2278481012658227,anode,0.0159045167554197,0.016628039478972,0.0150655952899795,1.9219119955054296e-05,critical
1200,1.414141414141414,2.2278481012658227,anode,0.0157708236946394,0.0165246002028227,0.0148894652830325,3.0291723629703093e-05,critical
1200,1.5151515151515151,2.2278481012658227,anode,0.0156471842084942,0.0163699709054215,0.0148070471043799,1.5411605828070197e-05,critical
1200,1.616161616161616,2.2278481012658227,anode,0.0155646537696686,0.0162666621781382,0.0147509701049813,-6.344817171399134e-05,critical
1200,1.7171717171717171,2.2278481012658227,anode,0.0154160760097268,0.0162720851393168,0.0143865561526263,-1.7448982076277322e-05,critical
1200,1.818181818181818,2.2278481012658227,anode,0.0153892851378142,0.0161281775450497,0.0145239202603959,6.348492675540783e-05,critical
1200,1.9191919191919191,2.2278481012658227,anode,0.0153290757321936,0.0161014535375945,0.0144173863048783,-3.466332099291742e-05,critical
1200,2.0202020202020203,2.2278481012658227,anode,0.0152615441154453,0.0159145859961778,0.014511617314121,-2.9425413983243973e-06,critical
1200,2.121212121212121,2.2278481012658227,anode,0.0150546306737794,0.01583684424445,0.0141252103234269,6.697818573842442e-05,critical
1200,2.2222222222222223,2.2278481012658227,anode,0.0151469758954181,0.0157929952191659,0.0144041026947407,-7.731178771033387e-05,critical
1200,2.323232323232323,2.2278481012658227,anode,0.0149221561030555,0.015693537372891,0.0140069454582557,5.042634318545243e-05,high
1200,2.4242424242424243,2.2278481012658227,anode,0.0150989542040366,0.0158126810372141,0.0142661212742781,1.7753937487793427e-05,critical
1200,2.525252525252525,2.2278481012658227,anode,0.0149223157600723,0.0156367585650645,0.0140868904466517,6.099508803763291e-06,high
1200,2.6262626262626263,2.2278481012658227,anode,0.0148711208635897,0.0156565171275648,0.0139360404912291,1.0633938594097988e-05,high
1200,2.727272727272727,2.2278481012658227,anode,0.0147989567716816,0.0154915340724595,0.0139922378095996,1.0753149471381117e-06,high
1200,2.8282828282828283,2.2278481012658227,anode,0.0147740697631666,0.0154063853327726,0.0140468833714733,-6.631701315828307e-05,high
1200,2.929292929292929,2.2278481012658227,anode,0.0147468169587448,0.0153984993843872,0.013994711608952,1.200279324208008e-05,high
1200,3.0303030303030303,2.2278481012658227,anode,0.0147808043942972,0.0155069183824431,0.0139242146848268,0.0001232435134215,high
1200,3.131313131313131,2.2278481012658227,anode,0.0146505269024506,0.0153453623537938,0.0138390354924011,3.607237248050044e-05,high
1200,3.2323232323232323,2.2278481012658227,anode,0.0146356827571025,0.0153458045859015,0.0138032772052405,-2.178998094947033e-05,high
1200,3.333333333333333,2.2278481012658227,anode,0.0146043866192253,0.0152933822086848,0.0137954268706546,0.000147763847849,high
1200,3.4343434343434343,2.2278481012658227,anode,0.0145756820222039,0.0152715881203252,0.0137622619776605,1.6777769261352577e-05,high
1200,3.5353535353535355,2.2278481012658227,anode,0.0146193630175914,0.015375249136309,0.013722580912659,4.605235197436941e-05,high
1200,3.636363636363636,2.2278481012658227,anode,0.0145029436169396,0.0151731701695378,0.0137235842256855,-3.5568502934695256e-05,high
1200,3.7373737373737375,2.2278481012658227,anode,0.0145137803187529,0.0151244701701766,0.0138142131938907,-1.1407916135414692e-05,high
1200,3.8383838383838382,2.2278481012658227,anode,0.0144167170863214,0.015184351338734,0.0135011826780055,2.564849123295025e-05,high
1200,3.939393939393939,2.2278481012658227,anode,0.0143658111040877,0.0150440882652176,0.0135709713815334,0.0001205045183157,high
1200,4.040404040404041,2.2278481012658227,anode,0.0144821507471194,0.015197498091213,0.0136403325188732,5.476684983972889e-05,high
1200,4.141414141414141,2.2278481012658227,anode,0.0144074161935488,0.0151693283174419,0.013499261251232,-5.7129693485277424e-05,high
1200,4.242424242424242,2.2278481012658227,anode,0.0144186556552495,0.0151131524336884,0.0136042949031487,-7.57126872986155e-05,high
1200,4.343434343434343,2.2278481012658227,anode,0.0144766315400286,0.015175111136337,0.0136581618496935,5.033759471686284e-05,high
1200,4.444444444444445,2.2278481012658227,anode,0.0144532378186965,0.015143203283176,0.0136467650842098,-1.842401091933373e-05,high
1200,4.545454545454545,2.2278481012658227,anode,0.0144137083991014,0.015153717648236,0.0135344360671892,0.0001093835534892,high
1200,4.646464646464646,2.2278481012658227,anode,0.0143629942102224,0.0150492468704134,0.0135606475643762,2.671996744434645e-05,high
1200,4.747474747474747,2.2278481012658227,anode,0.0143902805196879,0.0151407645272614,0.0134989051886043,-1.5561821759538982e-05,high
1200,4.848484848484849,2.2278481012658227,anode,0.0143173301474758,0.0149192510211099,0.0136277360302784,-2.7790256873987047e-05,high
1200,4.94949494949495,2.2278481012658227,anode,0.014311502015322,0.0149841489046092,0.0135267014536686,5.424663537483551e-05,high
1200,5.05050505050505,2.2278481012658227,anode,0.0143237582524504,0.0149669737033083,0.0135795167894228,-1.573844368068529e-05,high
1200,5.151515151515151,2.2278481012658227,anode,0.0142690522509414,0.014981001940378,0.0134299612924438,-4.415452883399736e-05,high
1200,5.252525252525253,2.2278481012658227,anode,0.014371702964402,0.0150770287245326,0.0135433567362349,6.266059567172158e-06,high
1200,5.353535353535354,2.2278481012658227,anode,0.0143840273822117,0.0150819469254589,0.013565672148223,-3.832833790640388e-05,high
1200,5.454545454545454,2.2278481012658227,anode,0.0142312865615608,0.0149418457207174,0.0133942111995471,5.9802955463052375e-06,high
1200,5.555555555555555,2.2278481012658227,anode,0.014336748229147,0.0150166531083465,0.0135429120870485,2.020148552662574e-05,high
1200,5.656565656565657,2.2278481012658227,anode,0.0142817194135273,0.0149825547451472,0.0134586037780407,1.648189753255602e-05,high
1200,5.757575757575758,2.2278481012658227,anode,0.0143342025324699,0.0150879055771691,0.0134375798320428,-1.6847208530654783e-05,high
1200,5.858585858585858,2.2278481012658227,anode,0.0143116160778107,0.0149093528493359,0.0136263832729117,-7.254320205090225e-05,high
1200,5.959595959595959,2.2278481012658227,anode,0.0145221325220842,0.0152109665731995,0.0137179289980907,8.413180305105889e-06,high
1200,6.0606060606060606,2.2278481012658227,anode,0.0144713615913178,0.0151023026618681,0.0137404710841036,0.0001328759216854,high
1200,6.161616161616162,2.2278481012658227,anode,0.0144304028263119,0.015020525599522,0.01375651977295,-5.37202323705877e-05,high
1200,6.262626262626262,2.2278481012658227,anode,0.0145061634119965,0.0152817550911615,0.013580030824591,-4.548356584375399e-05,high
1200,6.363636363636363,2.2278481012658227,anode,0.0144721690328423,0.0151302835002531,0.0137090269300002,-2.7339307253846325e-05,high
1200,6.4646464646464645,2.2278481012658227,anode,0.0143935623145366,0.0150524595436751,0.0136286564564006,-2.955743841768443e-05,high
1200,6.565656565656566,2.2278481012658227,anode,0.0145837855799105,0.0153470524293504,0.0136766169234428,-1.5166643115531034e-05,high
1200,6.666666666666667,2.2278481012658227,anode,0.0146727794501969,0.0154636746663815,0.0137270549075727,-3.604344220079671e-05,high
1200,6.767676767676767,2.2278481012658227,anode,0.014636849949866,0.015290192671106,0.0138810927569027,4.9095648644842025e-05,high
1200,6.8686868686868685,2.2278481012658227,anode,0.0144609665245991,0.0151012731887482,0.0137217057133077,1.932023134147321e-05,high
1200,6.96969696969697,2.2278481012658227,anode,0.0146443156394171,0.0153472936918937,0.0138218860342715,1.3755981662044074e-05,high
1200,7.070707070707071,2.2278481012658227,anode,0.0146521460974459,0.0153962076691721,0.013772884776095,2.147042534647611e-06,high
1200,7.171717171717171,2.2278481012658227,anode,0.014857977989227,0.0155629291618442,0.0140347003755299,3.151165368512349e-05,high
1200,7.272727272727272,2.2278481012658227,anode,0.0148007678816395,0.0154778735984747,0.0140145802835643,4.320646566770941e-05,high
1200,7.373737373737374,2.2278481012658227,anode,0.0149065344112605,0.0156283257878575,0.0140597354712449,-6.871714247756651e-05,high
1200,7.474747474747475,2.2278481012658227,anode,0.0149917837943047,0.0156391817536454,0.0142467264847102,-5.001589858910412e-05,high
1200,7.575757575757575,2.2278481012658227,anode,0.0149228943200963,0.01544487629033,0.014338383350043,6.804708447508457e-05,high
1200,7.6767676767676765,2.2278481012658227,anode,0.0150571437635365,0.0158581413541704,0.0141019040196599,-3.276906044398592e-05,critical
1200,7.777777777777778,2.2278481012658227,anode,0.0152456645096703,0.015937497257432,0.0144418934045312,9.27701995383701e-05,critical
1200,7.878787878787879,2.2278481012658227,anode,0.0152166830808479,0.01587474311017,0.0144597668775728,8.198165126290102e-06,critical
1200,7.979797979797979,2.2278481012658227,anode,0.0152914933512456,0.0159847826894774,0.0144878871811057,-3.338926257657401e-05,critical
1200,8.080808080808081,2.2278481012658227,anode,0.0153333086955942,0.0160883236806785,0.0144460531211206,-1.3221733728184834e-05,critical
1200,8.181818181818182,2.2278481012658227,anode,0.0153634288222375,0.0160820206410157,0.0145263040541444,-2.810362296424944e-05,critical
1200,8.282828282828282,2.2278481012658227,anode,0.0155150488780025,0.0162707778524054,0.0146285623011242,2.437394970256176e-05,critical
1200,8.383838383838384,2.2278481012658227,anode,0.015501290044956,0.0162262046508709,0.014657007937899,1.206104379396151e-06,critical
1200,8.484848484848484,2.2278481012658227,anode,0.0156658897426166,0.0165602062464284,0.014581836414694,-9.649828614722227e-05,critical
1200,8.585858585858587,2.2278481012658227,anode,0.0158686418876574,0.016712777142809,0.0148617592823591,-4.567056992125348e-05,critical
1200,8.686868686868687,2.2278481012658227,anode,0.0158406151777109,0.0166640487533667,0.0148623185325684,-6.443809690827109e-05,critical
1200,8.787878787878787,2.2278481012658227,anode,0.0159415343318679,0.0166090228555096,0.0151767682674071,-5.736614229621125e-05,critical
1200,8.88888888888889,2.2278481012658227,anode,0.0161360458085988,0.0168868586244881,0.015262331029342,-4.399135223553628e-06,critical
1200,8.98989898989899,2.2278481012658227,anode,0.0162085443985254,0.0170171081274284,0.0152560109247468,2.745093823463181e-05,critical
1200,9.09090909090909,2.2278481012658227,anode,0.0162917570989063,0.0171677442040808,0.0152448531772369,3.6967071272690136e-05,critical
1200,9.191919191919192,2.2278481012658227,anode,0.0165227909973183,0.0174280763872795,0.0154370747491188,2.373051359718687e-06,critical
1200,9.292929292929292,2.2278481012658227,anode,0.0166035217354657,0.0173867743343443,0.0156899554870141,2.8548675295844403e-06,critical
1200,9.393939393939394,2.2278481012658227,anode,0.0167136632777337,0.0174918260683257,0.0158065717134634,8.297544308207377e-05,critical
1200,9.494949494949497,2.2278481012658227,anode,0.0169284589079233,0.0178298881605397,0.0158530286191601,4.837377197360804e-05,critical
1200,9.595959595959595,2.2278481012658227,anode,0.0169687054330711,0.0177485248978945,0.0160624680423452,-5.4961753349665735e-05,critical
1200,9.696969696969695,2.2278481012658227,anode,0.0172707205354885,0.0180154117033842,0.0164144608145601,-2.2170574719703143e-05,critical
1200,9.797979797979798,2.2278481012658227,anode,0.0174522836975354,0.0182479285975084,0.01652822103007,7.961352732860003e-05,critical
1200,9.8989898989899,2.2278481012658227,anode,0.0175925994004704,0.0185043695018811,0.0165098986063087,-7.388112618313136e-05,critical
1200,10.0,2.2278481012658227,anode,0.0177745025730794,0.0186706854891151,0.0167159410495124,6.791638538967474e-05,critical
1200,0.0,2.329113924050633,anode,0.0178562116769212,0.018684352002472,0.0168929357107826,-2.284692172031573e-05,critical
1200,0.101010101010101,2.329113924050633,anode,0.0176871719823693,0.0185177183817403,0.0167191938164407,3.6267221641533463e-06,critical
1200,0.202020202020202,2.329113924050633,anode,0.0175139966695978,0.0183777088900058,0.0164985340784263,-3.4278103055916603e-05,critical
1200,0.303030303030303,2.329113924050633,anode,0.0172619026672109,0.0180797883117797,0.0163072334773494,1.129890251168556e-06,critical
1200,0.404040404040404,2.329113924050633,anode,0.0170927218167543,0.0179314596690537,0.0161073386890246,-4.3311573248642686e-05,critical
1200,0.5050505050505051,2.329113924050633,anode,0.0168649389257592,0.0176850198065094,0.0159017564091931,8.805220139406159e-05,critical
1200,0.6060606060606061,2.329113924050633,anode,0.0166777988165931,0.0175491403020694,0.015640972975318,8.6103842616477e-05,critical
1200,0.7070707070707071,2.329113924050633,anode,0.0165418821422113,0.017341526757365,0.0156052733391113,2.8111811702202637e-06,critical
1200,0.8080808080808081,2.329113924050633,anode,0.0164018978774793,0.0170712069749766,0.0156386063059466,2.843552115053083e-06,critical
1200,0.9090909090909092,2.329113924050633,anode,0.0164282930006365,0.0172497741250939,0.0154600009554507,-3.650781070317702e-05,critical
1200,1.0101010101010102,2.329113924050633,anode,0.0162211661968838,0.0170765950238952,0.0152029928992012,1.2844901118324484e-05,critical
1200,1.1111111111111112,2.329113924050633,anode,0.0160609699322025,0.0168006235664185,0.0152015931956709,2.3181502998483797e-05,critical
1200,1.2121212121212122,2.329113924050633,anode,0.0160177787343882,0.016849656980409,0.0150305490331869,1.2733469749731592e-05,critical
1200,1.3131313131313131,2.329113924050633,anode,0.0158276893927182,0.0166169636558531,0.014897836616654,3.43711394497835e-05,critical
1200,1.414141414141414,2.329113924050633,anode,0.0156720989795479,0.01648701328476,0.014704777355219,-1.2408481875243537e-05,critical
1200,1.5151515151515151,2.329113924050633,anode,0.0156624205606921,0.0163212251773058,0.0149076627140804,2.542281598497559e-05,critical
1200,1.616161616161616,2.329113924050633,anode,0.0154762436413379,0.0162089509332131,0.0146211069479297,-4.604932116278359e-06,critical
1200,1.7171717171717171,2.329113924050633,anode,0.0154126030197467,0.0161175962596409,0.0145945100447169,6.317124658047424e-06,critical
1200,1.818181818181818,2.329113924050633,anode,0.015379842056063,0.0162397142505596,0.0143441822052826,1.897158420478472e-05,critical
1200,1.9191919191919191,2.329113924050633,anode,0.0153214182631693,0.0161166344050685,0.0143775231705172,3.681086438002872e-05,critical
1200,2.0202020202020203,2.329113924050633,anode,0.0153617294993611,0.0160667578430299,0.0145425053464052,-5.3152944146316855e-05,critical
1200,2.121212121212121,2.329113924050633,anode,0.0151070114644764,0.0157448762248585,0.0143759717302095,-3.503036506041418e-07,critical
1200,2.2222222222222223,2.329113924050633,anode,0.0149704017079255,0.0156906804924866,0.0141270307878295,4.163531526366061e-05,high
1200,2.323232323232323,2.329113924050633,anode,0.015086333179168,0.0158359114817077,0.0142039441626548,-2.4007023194169105e-05,critical
1200,2.4242424242424243,2.329113924050633,anode,0.0150079767459589,0.015712976117419,0.014186007905005,-3.332002730701573e-05,critical
1200,2.525252525252525,2.329113924050633,anode,0.0148169560308067,0.0154637031695136,0.0140715270479834,-4.514514999369863e-05,high
1200,2.6262626262626263,2.329113924050633,anode,0.0148844671836502,0.0155993301745689,0.0140480178531454,-1.936175875152173e-05,high
1200,2.727272727272727,2.329113924050633,anode,0.0147950327408104,0.0155968663399961,0.0138354266284963,-1.8475776235665987e-05,high
1200,2.8282828282828283,2.329113924050633,anode,0.0147164416497228,0.0154703786143803,0.0138229728299372,-6.604482230102592e-05,high
1200,2.929292929292929,2.329113924050633,anode,0.0147309090127491,0.0154524417036328,0.0138833252712333,-4.5751346659600497e-05,high
1200,3.0303030303030303,2.329113924050633,anode,0.0147056781205006,0.0154965132434638,0.0137597059091496,-6.583924852391207e-05,high
1200,3.131313131313131,2.329113924050633,anode,0.0145747593709946,0.0152963571857916,0.0137259515808326,1.123777870937477e-05,high
1200,3.2323232323232323,2.329113924050633,anode,0.0144264489719716,0.0150511944185753,0.0137050918796772,-0.0001039799503338,high
1200,3.333333333333333,2.329113924050633,anode,0.0146944744617823,0.0154252085902911,0.0138342008031085,1.6741775826546433e-05,high
1200,3.4343434343434343,2.329113924050633,anode,0.014564477381205,0.0151887667746436,0.013846869233155,-4.635024055908888e-05,high
1200,3.5353535353535355,2.329113924050633,anode,0.0144421300964831,0.0151250302625195,0.0136452810218907,-7.64878902031503e-06,high
1200,3.636363636363636,2.329113924050633,anode,0.0145124649545683,0.0151857818681294,0.0137292746148682,-1.233112236448225e-05,high
1200,3.7373737373737375,2.329113924050633,anode,0.0145346827350732,0.0152470410817608,0.0136976382369238,-5.131637870512446e-05,high
1200,3.8383838383838382,2.329113924050633,anode,0.0144191855580796,0.0150450352417149,0.0136989153303791,8.355114515063402e-06,high
1200,3.939393939393939,2.329113924050633,anode,0.0144974579966432,0.0151197915241673,0.0137793476911207,-0.0001134816668332,high
1200,4.040404040404041,2.329113924050633,anode,0.0145386769474555,0.0152813328926279,0.0136590156707117,6.645490747128857e-05,high
1200,4.141414141414141,2.329113924050633,anode,0.0143961995287881,0.0151341926611717,0.013522494530825,1.7818718324638467e-05,high
1200,4.242424242424242,2.329113924050633,anode,0.0144024669226828,0.0149971638652453,0.0137222052487225,-6.15718482905134e-05,high
1200,4.343434343434343,2.329113924050633,anode,0.0144268088581958,0.0151412273962197,0.0135863897218319,-1.502625814567889e-05,high
1200,4.444444444444445,2.329113924050633,anode,0.0144474288788186,0.0150577897329524,0.0137470413896539,5.796922592062027e-05,high
1200,4.545454545454545,2.329113924050633,anode,0.0144501241586244,0.0151218827753346,0.0136660234409615,0.0001009245906361,high
1200,4.646464646464646,2.329113924050633,anode,0.0144360027081963,0.0151481634845005,0.0135987262268124,2.373682666340894e-05,high
1200,4.747474747474747,2.329113924050633,anode,0.0142332106718755,0.0148888087516077,0.0134696679151618,8.75895347865702e-05,high
1200,4.848484848484849,2.329113924050633,anode,0.0144061171283635,0.0150864991985686,0.0136123235016456,1.5374573141452723e-05,high
1200,4.94949494949495,2.329113924050633,anode,0.0144421010634561,0.0151780847908724,0.013571406383927,-4.0459020854021465e-05,high
1200,5.05050505050505,2.329113924050633,anode,0.0144499569173396,0.0152124634499612,0.0135405092167993,8.430579411000254e-05,high
1200,5.151515151515151,2.329113924050633,anode,0.0143369248071604,0.0150539882890925,0.0134917711328309,2.533673288764098e-05,high
1200,5.252525252525253,2.329113924050633,anode,0.014281847381124,0.0149088158495499,0.0135590418490553,-2.3623012649515265e-06,high
1200,5.353535353535354,2.329113924050633,anode,0.0144525355830421,0.0151957504931022,0.0135722023563891,5.019206088882046e-06,high
1200,5.454545454545454,2.329113924050633,anode,0.0143280884424258,0.0150809020316986,0.0134322304792506,-4.415352515638716e-05,high
1200,5.555555555555555,2.329113924050633,anode,0.0143967765532292,0.0150406408598292,0.0136523173168873,-6.6130173170758815e-06,high
1200,5.656565656565657,2.329113924050633,anode,0.0142479537309569,0.0148496907215631,0.0135573517728219,-6.208792478751458e-05,high
1200,5.757575757575758,2.329113924050633,anode,0.0144493774650628,0.0151078649534808,0.0136854160287416,3.526561092809213e-05,high
1200,5.858585858585858,2.329113924050633,anode,0.014424727623996,0.0151370538537085,0.0135869491471126,3.445517677979611e-05,high
1200,5.959595959595959,2.329113924050633,anode,0.0143230213549923,0.0151505709890434,0.0133190371091636,3.370041706913317e-05,high
1200,6.0606060606060606,2.329113924050633,anode,0.0144899789412685,0.0152933596730572,0.0135230720773039,-6.420380009627939e-05,high
1200,6.161616161616162,2.329113924050633,anode,0.0144577494436814,0.0151443164880107,0.0136557401335133,3.563216312214074e-05,high
1200,6.262626262626262,2.329113924050633,anode,0.0144044940415431,0.0152256416920003,0.013410150249544,7.140653512157182e-05,high
1200,6.363636363636363,2.329113924050633,anode,0.0146563109485705,0.0153002665896413,0.0139095156082241,-0.0001341210774746,high
1200,6.4646464646464645,2.329113924050633,anode,0.0144870861692934,0.0151786327829424,0.0136780047061263,-5.879459713125157e-05,high
1200,6.565656565656566,2.329113924050633,anode,0.0145628353328556,0.015246571846511,0.0137657567614036,3.033222296803217e-05,high
1200,6.666666666666667,2.329113924050633,anode,0.0147307181268329,0.0154793370812711,0.0138457461231952,2.866898007510121e-05,high
1200,6.767676767676767,2.329113924050633,anode,0.0146650272970517,0.0153511349731982,0.0138658829262017,1.971249765824978e-06,high
1200,6.8686868686868685,2.329113924050633,anode,0.0146663415321916,0.0153314128691459,0.0138956655383839,-2.454965868961688e-06,high
1200,6.96969696969697,2.329113924050633,anode,0.0147130860785454,0.0154236819434274,0.0138808101190634,2.039685210406148e-05,high
1200,7.070707070707071,2.329113924050633,anode,0.0146897312676925,0.0153432110847421,0.0139329719516178,8.73701187736514e-05,high
1200,7.171717171717171,2.329113924050633,anode,0.0146995540741408,0.0153019193923958,0.0140120846384087,2.180695331047381e-05,high
1200,7.272727272727272,2.329113924050633,anode,0.0147395709527565,0.0155187983454329,0.0138114683942041,-2.934532902418872e-05,high
1200,7.373737373737374,2.329113924050633,anode,0.0148732319619624,0.0156199845981479,0.0139926355980334,-1.9746213721518566e-06,high
1200,7.474747474747475,2.329113924050633,anode,0.0150492080139055,0.0157788836615514,0.0141930292971934,6.725497611593346e-05,critical
1200,7.575757575757575,2.329113924050633,anode,0.0148720826906748,0.0156486159936043,0.0139495679843189,-1.4682837247069838e-05,high
1200,7.6767676767676765,2.329113924050633,anode,0.0150943797762504,0.0158660817279417,0.0141808056672485,4.591203294773484e-05,critical
1200,7.777777777777778,2.329113924050633,anode,0.0150827116573049,0.0158120825856538,0.0142273372719926,-6.56792953991013e-05,critical
1200,7.878787878787879,2.329113924050633,anode,0.0151223636827746,0.0157217823250719,0.0144392823392891,9.970501827571152e-05,critical
1200,7.979797979797979,2.329113924050633,anode,0.0152302414960825,0.0159854378353314,0.0143412687978189,4.283051002534917e-05,critical
1200,8.080808080808081,2.329113924050633,anode,0.015310623247244,0.0160673120562118,0.0144207694820047,-1.8959714372072245e-05,critical
1200,8.181818181818182,2.329113924050633,anode,0.0153364911116782,0.0160855318024721,0.0144565448804269,6.620372199299743e-05,critical
1200,8.282828282828282,2.329113924050633,anode,0.0155041793576803,0.0162396407518487,0.014644811950975,5.660885917139843e-05,critical
1200,8.383838383838384,2.329113924050633,anode,0.0156835237848967,0.016361575988761,0.0149027231920906,6.488164148638455e-05,critical
1200,8.484848484848484,2.329113924050633,anode,0.0155808635328433,0.0163079263621428,0.014733085852617,7.551297247827874e-05,critical
1200,8.585858585858587,2.329113924050633,anode,0.0157809343616784,0.0165013852276624,0.014943045641366,9.749266410434872e-05,critical
1200,8.686868686868687,2.329113924050633,anode,0.0159415775138602,0.0167231409119123,0.0150235731291134,-3.666307635335732e-05,critical
1200,8.787878787878787,2.329113924050633,anode,0.0159484298632139,0.0167508485272164,0.0150014608292778,4.0248171606364296e-05,critical
1200,8.88888888888889,2.329113924050633,anode,0.0160671540745345,0.0168580405080269,0.0151349388278776,-0.0001139426870956,critical
1200,8.98989898989899,2.329113924050633,anode,0.0162535886409603,0.016950922530582,0.0154517569211179,-5.805644868076923e-05,critical
1200,9.09090909090909,2.329113924050633,anode,0.0163327817584087,0.017148913040281,0.0153667980823926,-0.0001413532480134,critical
1200,9.191919191919192,2.329113924050633,anode,0.0165591396449608,0.017261102711812,0.0157538687912665,-3.7436059311598376e-05,critical
1200,9.292929292929292,2.329113924050633,anode,0.0166059268868734,0.0173995622424706,0.0156761206799919,-9.81825865510549e-05,critical
1200,9.393939393939394,2.329113924050633,anode,0.0168112101703704,0.0176886751487856,0.0157687291464067,-2.98181172025363e-05,critical
1200,9.494949494949497,2.329113924050633,anode,0.0168522927512242,0.0175687798250416,0.0160302886744752,8.240123009851787e-06,critical
1200,9.595959595959595,2.329113924050633,anode,0.0170545400693881,0.0178080835633741,0.0161845935836077,4.091571754485101e-05,critical
1200,9.696969696969695,2.329113924050633,anode,0.0172299478997258,0.0181320545544289,0.0161575410025365,3.1548572313309405e-05,critical
1200,9.797979797979798,2.329113924050633,anode,0.0174567560131696,0.018316296257917,0.0164466012411856,2.4154215382375383e-05,critical
1200,9.8989898989899,2.329113924050633,anode,0.0175569407134715,0.0184582705576446,0.0164892280102627,-4.6212418355838434e-05,critical
1200,10.0,2.329113924050633,anode,0.0179701488530755,0.0189087703063329,0.0168535802687698,8.556784770190351e-05,critical
1200,0.0,2.430379746835443,anode,0.0178908429858088,0.0187830656022155,0.0168399934783047,3.2259503378170237e-06,critical
1200,0.101010101010101,2.430379746835443,anode,0.0177309246544669,0.0184744868295955,0.0168793660925502,3.489206161183159e-05,critical
1200,0.202020202020202,2.430379746835443,anode,0.0174940495738679,0.0183907697460167,0.0164322021156026,4.0570112093166366e-05,critical
1200,0.303030303030303,2.430379746835443,anode,0.0172657904300088,0.0180620168062988,0.016340581962743,-1.0250473274454578e-05,critical
1200,0.404040404040404,2.430379746835443,anode,0.0170598675589526,0.0178973129182065,0.0160763247665282,-4.773509657656499e-06,critical
1200,0.5050505050505051,2.430379746835443,anode,0.01686043316335,0.0176424199967613,0.0159509106389457,-1.06101386196843e-05,critical
1200,0.6060606060606061,2.430379746835443,anode,0.0168477998984961,0.0175799187234522,0.0160050365003581,-1.699569521552581e-05,critical
1200,0.7070707070707071,2.430379746835443,anode,0.0166293070131327,0.0173395110914591,0.0158139462322114,1.165481425026033e-05,critical
1200,0.8080808080808081,2.430379746835443,anode,0.0165116949630278,0.0172821502527337,0.0156147043624676,-3.0447184136566924e-06,critical
1200,0.9090909090909092,2.430379746835443,anode,0.0164399493380136,0.0171869714954329,0.0155737172787311,3.7903919169740205e-05,critical
1200,1.0101010101010102,2.430379746835443,anode,0.0161133092202942,0.016822054186263,0.0152954575331745,-4.906207242310218e-05,critical
1200,1.1111111111111112,2.430379746835443,anode,0.0161275123887146,0.0169173598177182,0.0151995215637897,5.748109742609223e-05,critical
1200,1.2121212121212122,2.430379746835443,anode,0.0159611324920141,0.016588199877328,0.0152493963317882,4.211545157756407e-05,critical
1200,1.3131313131313131,2.430379746835443,anode,0.0159161530181111,0.0167143908920366,0.0149743705265249,5.407920426420203e-05,critical
1200,1.414141414141414,2.430379746835443,anode,0.0158152135310676,0.0166250460814421,0.0148555113256243,-7.340624252883646e-05,critical
1200,1.5151515151515151,2.430379746835443,anode,0.0156893610290852,0.0164446594006124,0.0148049170819432,-4.272299334217011e-05,critical
1200,1.616161616161616,2.430379746835443,anode,0.0156040801811827,0.0163904103532046,0.0146754219214291,-5.7577718539936455e-05,critical
1200,1.7171717171717171,2.430379746835443,anode,0.015300674964218,0.0159738761727848,0.014520469313119,-0.0001292079492399,critical
1200,1.818181818181818,2.430379746835443,anode,0.0153734783472291,0.0161583807026373,0.0144421664985724,0.0001101829443574,critical
1200,1.9191919191919191,2.430379746835443,anode,0.0152792133631412,0.0159847845687377,0.0144591137648274,1.7039257148194103e-05,critical
1200,2.0202020202020203,2.430379746835443,anode,0.0151790611770296,0.0158439476487799,0.0144122856734542,-4.740778749276896e-05,critical
1200,2.121212121212121,2.430379746835443,anode,0.0151336342563724,0.0158614792243105,0.014281034773439,5.984642233377035e-05,critical
1200,2.2222222222222223,2.430379746835443,anode,0.0151232996145749,0.0159150655875427,0.0141820412109319,-3.000947106500825e-05,critical
1200,2.323232323232323,2.430379746835443,anode,0.0150544774063515,0.0157461742587959,0.0142502869729011,6.353291298224762e-05,critical
1200,2.4242424242424243,2.430379746835443,anode,0.0151116208071646,0.0158079888275059,0.0143013433841158,-7.217223153501719e-05,critical
1200,2.525252525252525,2.430379746835443,anode,0.0148478166335163,0.0155653195103856,0.0140074681439485,3.6837710407406433e-06,high
1200,2.6262626262626263,2.430379746835443,anode,0.0147685280134128,0.0154720464751745,0.0139462636220991,-3.7271311876750624e-05,high
1200,2.727272727272727,2.430379746835443,anode,0.0147864707182492,0.0154786763243671,0.0139795582619546,4.934180838628223e-05,high
1200,2.8282828282828283,2.430379746835443,anode,0.0147659098404041,0.0154711614282939,0.0139389450996534,-0.0001044617319504,high
1200,2.929292929292929,2.430379746835443,anode,0.0148151357746611,0.0155460795614369,0.013954802745048,6.736066258709919e-05,high
1200,3.0303030303030303,2.430379746835443,anode,0.0148300878823378,0.0155692564364366,0.0139595638917538,-1.1053474891290596e-05,high
1200,3.131313131313131,2.430379746835443,anode,0.0146932228782693,0.0154623955853243,0.0137789417152719,2.108766812774112e-05,high
1200,3.2323232323232323,2.430379746835443,anode,0.0146076728713399,0.0153148624063885,0.0137785212789939,-5.034913130395464e-05,high
1200,3.333333333333333,2.430379746835443,anode,0.0146037889020566,0.0153384438744591,0.0137367610622303,3.968162868635393e-05,high
1200,3.4343434343434343,2.430379746835443,anode,0.0145340227254195,0.0152877235576231,0.013639772319782,1.8300154480068756e-05,high
1200,3.5353535353535355,2.430379746835443,anode,0.0146089914514825,0.0153042313466968,0.0137944951772881,9.862796114378253e-05,high
1200,3.636363636363636,2.430379746835443,anode,0.0144263882419858,0.0151304673052951,0.0136002523204642,1.7764479141948602e-05,high
1200,3.7373737373737375,2.430379746835443,anode,0.0144848275358738,0.0151497953770639,0.0137124979944415,3.090983515043306e-05,high
1200,3.8383838383838382,2.430379746835443,anode,0.0144203477185921,0.0151164124958974,0.0136052251035097,-1.3493529321003916e-05,high
1200,3.939393939393939,2.430379746835443,anode,0.0145319747349677,0.0152869030172924,0.0136356078990923,4.202616286822813e-05,high
1200,4.040404040404041,2.430379746835443,anode,0.0144655548563394,0.0151825369157985,0.0136219427425851,-1.9786983142620493e-05,high
1200,4.141414141414141,2.430379746835443,anode,0.0144873408746587,0.0151237166259231,0.0137535793564457,-1.3325443270497827e-05,high
1200,4.242424242424242,2.430379746835443,anode,0.0142957996826937,0.0149200526255665,0.0135756406030928,-6.626375986007274e-05,high
1200,4.343434343434343,2.430379746835443,anode,0.0143617350472334,0.0149953243302688,0.0136305897333365,2.4625072962522724e-05,high
1200,4.444444444444445,2.430379746835443,anode,0.0143696144908077,0.0149886448882976,0.0136579395168273,-1.8605601303048917e-05,high
1200,4.545454545454545,2.430379746835443,anode,0.0143268315568767,0.0149615946751397,0.0135938763178243,-2.1458665011711863e-05,high
1200,4.646464646464646,2.430379746835443,anode,0.0143936125520703,0.0151039607601334,0.0135584717768759,1.751586363463329e-05,high
1200,4.747474747474747,2.430379746835443,anode,0.0143587905611936,0.0149903130428576,0.0136283743745525,-9.379286432824396e-05,high
1200,4.848484848484849,2.430379746835443,anode,0.014369347250922,0.0151172905352203,0.0134811993004141,-2.670394103658036e-05,high
1200,4.94949494949495,2.430379746835443,anode,0.0143691403644412,0.0150781685516423,0.0135351403230139,4.520891554944199e-05,high
1200,5.05050505050505,2.430379746835443,anode,0.0142339135593632,0.014937225376628,0.0134067426632627,2.817298885902701e-05,high
1200,5.151515151515151,2.430379746835443,anode,0.0141856934315013,0.0148458499178914,0.0134167549060946,5.309067332914083e-05,high
1200,5.252525252525253,2.430379746835443,anode,0.014196449656658,0.014845164503257,0.0134437906908447,4.0799904066103e-06,high
1200,5.353535353535354,2.430379746835443,anode,0.0143984994512888,0.0151324072423771,0.0135290879372962,-7.849706920567155e-05,high
1200,5.454545454545454,2.430379746835443,anode,0.0143984770045452,0.0150096271243006,0.0136972490580837,-3.267451206701864e-05,high
1200,5.555555555555555,2.430379746835443,anode,0.0143052687599537,0.0150492682032777,0.0134220550872732,1.6175311108826238e-05,high
1200,5.656565656565657,2.430379746835443,anode,0.0143935227987118,0.015092088758414,0.0135747240056408,-7.37563493532397e-06,high
1200,5.757575757575758,2.430379746835443,anode,0.0143408741949258,0.0149759538058527,0.0136076638699673,-1.5381849089366045e-05,high
1200,5.858585858585858,2.430379746835443,anode,0.0143141224442937,0.0149583065811879,0.0135679575813992,-4.9537278544438014e-05,high
1200,5.959595959595959,2.430379746835443,anode,0.0144400027536621,0.0150685311810304,0.0137162915422356,-1.592370101245861e-05,high
1200,6.0606060606060606,2.430379746835443,anode,0.0144853498681485,0.0152442779730847,0.013583120245623,1.875314241946456e-05,high
1200,6.161616161616162,2.430379746835443,anode,0.0145081514189229,0.0151544167982172,0.0137610689124809,-3.681202241943996e-05,high
1200,6.262626262626262,2.430379746835443,anode,0.0144283663059088,0.0150887615928559,0.0136613798034659,-4.841694210790087e-05,high
1200,6.363636363636363,2.430379746835443,anode,0.014566468633352,0.0154324844111941,0.0135093697438661,1.2915694136784272e-05,high
1200,6.4646464646464645,2.430379746835443,anode,0.0144568074283513,0.0152213723815683,0.0135463026650817,-5.921900079005e-06,high
1200,6.565656565656566,2.430379746835443,anode,0.0145339787779773,0.0153830991181319,0.0135014154271709,2.7042279367011623e-05,high
1200,6.666666666666667,2.430379746835443,anode,0.0146657699078302,0.015343884241127,0.0138774405342642,-1.3022072884140238e-05,high
1200,6.767676767676767,2.430379746835443,anode,0.0146496542314238,0.0153623311966541,0.013813586152046,-4.030056173992961e-05,high
1200,6.8686868686868685,2.430379746835443,anode,0.014677766716409,0.0153493315850383,0.0138977286629801,5.4280785503478704e-05,high
1200,6.96969696969697,2.430379746835443,anode,0.0146493053928538,0.0152559164278055,0.0139560613218826,-2.582552407070896e-06,high
1200,7.070707070707071,2.430379746835443,anode,0.0147872332226553,0.0154819430903065,0.0139774808418169,9.946275876936954e-06,high
1200,7.171717171717171,2.430379746835443,anode,0.0146855721429077,0.0152608452092764,0.0140331391039448,-2.002679816026502e-05,high
1200,7.272727272727272,2.430379746835443,anode,0.0148595338806625,0.0156065674271152,0.0139783819443719,8.14140714504514e-06,high
1200,7.373737373737374,2.430379746835443,anode,0.0148995408442221,0.0155520178253537,0.0141458917357239,-8.556938550131817e-05,high
1200,7.474747474747475,2.430379746835443,anode,0.0149697834641542,0.0157596565890809,0.0140285638146501,-6.425629174235333e-05,high
1200,7.575757575757575,2.430379746835443,anode,0.0149223087234087,0.0156889047990586,0.01401307088497,-7.559381005262053e-05,high
1200,7.6767676767676765,2.430379746835443,anode,0.0149935199874946,0.0156783188298623,0.0141990269747779,-1.2453091970323644e-05,high
1200,7.777777777777778,2.430379746835443,anode,0.0152394651984995,0.0159282276983434,0.0144410530136095,-5.546887638850783e-05,critical
1200,7.878787878787879,2.430379746835443,anode,0.0152825523878062,0.0160263317758154,0.0144103375182892,-6.323925529721153e-06,critical
1200,7.979797979797979,2.430379746835443,anode,0.0151995222000546,0.0159510354126485,0.0143157683565877,-4.031133449833928e-06,critical
1200,8.080808080808081,2.430379746835443,anode,0.0152127638177939,0.0159151550471711,0.0143950561477651,7.73128009855626e-05,critical
1200,8.181818181818182,2.430379746835443,anode,0.0153641618381932,0.0160528964666701,0.0145675123514965,-1.057457754631642e-05,critical
1200,8.282828282828282,2.430379746835443,anode,0.0154053163768024,0.0161023602298516,0.014597507309049,4.028733435852733e-05,critical
1200,8.383838383838384,2.430379746835443,anode,0.0156410787644438,0.0163500962933549,0.0148195000041459,1.1072907426826136e-05,critical
1200,8.484848484848484,2.430379746835443,anode,0.015645981780401,0.0164569384584046,0.0146835210302718,-4.447677432761396e-05,critical
1200,8.585858585858587,2.430379746835443,anode,0.0158513723119155,0.016595781183562,0.0149836292764364,2.541385422837392e-05,critical
1200,8.686868686868687,2.430379746835443,anode,0.0159310085144275,0.01678056758317,0.0149142594697127,-0.0001213635419691,critical
1200,8.787878787878787,2.430379746835443,anode,0.0159425223572252,0.0167019223963405,0.0150549748609502,3.89919643479808e-05,critical
1200,8.88888888888889,2.430379746835443,anode,0.0161080172725938,0.0168903653660436,0.0151901160171363,5.989747824046402e-05,critical
1200,8.98989898989899,2.430379746835443,anode,0.0160145640725208,0.0167646093474482,0.0151406321475365,2.6939810538715136e-05,critical
1200,9.09090909090909,2.430379746835443,anode,0.0162789938054202,0.0171021748278837,0.01530487686775,9.777431140899316e-05,critical
1200,9.191919191919192,2.430379746835443,anode,0.0165163960666848,0.0172758251284285,0.015634372298551,9.828807569776972e-06,critical
1200,9.292929292929292,2.430379746835443,anode,0.0166975677422809,0.0175276157924895,0.0157204889470264,-1.1116637825818366e-05,critical
1200,9.393939393939394,2.430379746835443,anode,0.0167964828734162,0.0176167387254449,0.0158339625241179,1.5970358756584737e-05,critical
1200,9.494949494949497,2.430379746835443,anode,0.016766104687964,0.0175837526637256,0.0158068546924731,1.8944688161824054e-05,critical
1200,9.595959595959595,2.430379746835443,anode,0.0171052460678298,0.0179894560295151,0.0160559055586056,6.786888553042978e-05,critical
1200,9.696969696969695,2.430379746835443,anode,0.0172348222783721,0.0180692092662309,0.0162565676482569,5.804178054229498e-05,critical
1200,9.797979797979798,2.430379746835443,anode,0.0175412352581835,0.0182667042301105,0.0167118359677019,4.88340911049912e-05,critical
1200,9.8989898989899,2.430379746835443,anode,0.0176370686396554,0.0185943887398857,0.0164898423603033,-7.860370896331266e-05,critical
1200,10.0,2.430379746835443,anode,0.0178572092693564,0.0188016593825856,0.016732100405249,4.318932814979036e-05,critical
1200,0.0,2.5316455696202533,anode,0.0277291491939739,0.0291723313288161,0.0260158195464888,3.687313014152185e-06,critical
1200,0.101010101010101,2.5316455696202533,anode,0.0275310730307693,0.0289480629015243,0.0258523045923307,2.6603436229541912e-05,critical
1200,0.202020202020202,2.5316455696202533,anode,0.0271128881774263,0.0283208872269862,0.025716442431068,6.609754680315645e-05,critical
1200,0.303030303030303,2.5316455696202533,anode,0.026938210835884,0.0282184588437659,0.025442968758758,2.8815761469061265e-05,critical
1200,0.404040404040404,2.5316455696202533,anode,0.026527831485683,0.0278594366362499,0.0249575601497791,-2.152983894557402e-05,critical
1200,0.5050505050505051,2.5316455696202533,anode,0.0262685593766162,0.0275090340872379,0.0248214365712381,-9.773815356387322e-06,critical
1200,0.6060606060606061,2.5316455696202533,anode,0.0259912077011299,0.0272487964880392,0.0245179080278049,-2.3379613017193316e-05,critical
1200,0.7070707070707071,2.5316455696202533,anode,0.025780996386036,0.0270615747885578,0.0242738319141825,-6.989817320646721e-06,critical
1200,0.8080808080808081,2.5316455696202533,anode,0.0255840578120504,0.0268309807646699,0.0241214596769256,5.446651995654449e-06,critical
1200,0.9090909090909092,2.5316455696202533,anode,0.0254782301334762,0.0266691355781,0.0240913105774794,-1.4153393443686474e-05,critical
1200,1.0101010101010102,2.5316455696202533,anode,0.0251025235893247,0.0262635485065315,0.0237524090077811,5.2671458388000894e-05,critical
1200,1.1111111111111112,2.5316455696202533,anode,0.0250270492211717,0.0262112015320093,0.0236445609476961,6.632418856758292e-05,critical
1200,1.2121212121212122,2.5316455696202533,anode,0.0249013830958775,0.0261035947965185,0.0234918818793388,0.0001084283787522,critical
1200,1.3131313131313131,2.5316455696202533,anode,0.024741262050537,0.026039162898851,0.0231975030985313,-6.179375192507235e-05,critical
1200,1.414141414141414,2.5316455696202533,anode,0.0244226669598493,0.0256345765147315,0.0229959255926587,6.675480277383197e-05,critical
1200,1.5151515151515151,2.5316455696202533,anode,0.0244114797675456,0.0255634862781657,0.0230677060559443,-1.2087097333150318e-05,critical
1200,1.616161616161616,2.5316455696202533,anode,0.0241923016696804,0.0253550309387717,0.0228317617791747,1.3497251666812716e-05,critical
1200,1.7171717171717171,2.5316455696202533,anode,0.0241058820093751,0.0252274490716209,0.0228001297803679,6.469324448357905e-05,critical
1200,1.818181818181818,2.5316455696202533,anode,0.0239679809625923,0.0251120571776008,0.0226308062897009,2.1632786110057744e-05,critical
1200,1.9191919191919191,2.5316455696202533,anode,0.0239405219383934,0.0250908892839149,0.022594357228374,-3.3678479765572754e-05,critical
1200,2.0202020202020203,2.5316455696202533,anode,0.0237215866017957,0.024864503357647,0.0223836750565818,8.129089117697252e-06,critical
1200,2.121212121212121,2.5316455696202533,anode,0.0235739873523216,0.0246753793059336,0.0222907885453766,6.568664642896531e-05,critical
1200,2.2222222222222223,2.5316455696202533,anode,0.0234637966736622,0.0246552017520162,0.0220558574352951,2.2719926502926104e-05,critical
1200,2.323232323232323,2.5316455696202533,anode,0.0235617664820509,0.0246424207876655,0.0223069821064375,3.884306528951339e-05,critical
1200,2.4242424242424243,2.5316455696202533,anode,0.0234846894854829,0.0246601649625806,0.022098466607359,-7.418402535985329e-05,critical
1200,2.525252525252525,2.5316455696202533,anode,0.0232258241824191,0.0243934479907005,0.0218479508308023,6.455196107505122e-05,critical
1200,2.6262626262626263,2.5316455696202533,anode,0.0232538461432643,0.0242869664551108,0.0220604567526133,2.8529891654519517e-05,critical
1200,2.727272727272727,2.5316455696202533,anode,0.0231323926426699,0.0242383363052354,0.0218395010260957,-1.6400365729995527e-06,critical
1200,2.8282828282828283,2.5316455696202533,anode,0.0230390844264664,0.024163937962483,0.0217187037804694,6.008390841901919e-05,critical
1200,2.929292929292929,2.5316455696202533,anode,0.0230267845188374,0.0241456363798654,0.0217148960612361,3.795813124627348e-05,critical
1200,3.0303030303030303,2.5316455696202533,anode,0.0229536104185668,0.0240652265789159,0.0216509229099196,-4.083940643842084e-05,critical
1200,3.131313131313131,2.5316455696202533,anode,0.0228306671879476,0.0240111873622015,0.0214298484852032,-8.154084277189411e-05,critical
1200,3.2323232323232323,2.5316455696202533,anode,0.0228096934084376,0.0239132712790872,0.0215166457179271,-4.046907342907391e-05,critical
1200,3.333333333333333,2.5316455696202533,anode,0.0227568662168649,0.0239012921555313,0.021406165558237,-6.900806393815276e-05,critical
1200,3.4343434343434343,2.5316455696202533,anode,0.0226143489925861,0.0237186132361707,0.021318497486145,-3.177050418019869e-05,critical
1200,3.5353535353535355,2.5316455696202533,anode,0.022723513412971,0.0238556654352629,0.0213902354982426,2.1721169070324317e-05,critical
1200,3.636363636363636,2.5316455696202533,anode,0.0224675714832486,0.0235970326172268,0.0211349766741471,-4.937929342202991e-05,critical
1200,3.7373737373737375,2.5316455696202533,anode,0.0224423837209905,0.0234465696352096,0.0212807068984414,5.7877758727207935e-05,critical
1200,3.8383838383838382,2.5316455696202533,anode,0.0224000040765478,0.0235197842466166,0.0210798749851618,6.560952311210318e-05,critical
1200,3.939393939393939,2.5316455696202533,anode,0.0226002910793045,0.0236121378869401,0.0214300451335008,2.8562616063422687e-05,critical
1200,4.040404040404041,2.5316455696202533,anode,0.022384429212038,0.0233647732496,0.0212545666297951,2.287172048164627e-05,critical
1200,4.141414141414141,2.5316455696202533,anode,0.0224240675530752,0.0235307708508928,0.0211230136257865,1.546459570337932e-05,critical
1200,4.242424242424242,2.5316455696202533,anode,0.0224920097034026,0.0235197206148492,0.0212995373949091,-2.657200316645677e-05,critical
1200,4.343434343434343,2.5316455696202533,anode,0.022541592702436,0.0236097224447234,0.0212933014236507,9.773888925851428e-05,critical
1200,4.444444444444445,2.5316455696202533,anode,0.0223144538331543,0.023386367003607,0.0210603138738965,-5.6933773834074646e-06,critical
1200,4.545454545454545,2.5316455696202533,anode,0.0224215855901119,0.0235917466597864,0.0210307172084857,7.58860287565064e-05,critical
1200,4.646464646464646,2.5316455696202533,anode,0.0222849766657047,0.0233630505169758,0.0210220809886656,5.959540590401694e-06,critical
1200,4.747474747474747,2.5316455696202533,anode,0.022448516522643,0.0234894546929601,0.0212373210419184,5.971507691180025e-05,critical
1200,4.848484848484849,2.5316455696202533,anode,0.0223962876734624,0.0234189925064358,0.0212091854933208,-6.505992515748158e-05,critical
1200,4.94949494949495,2.5316455696202533,anode,0.022200739528654,0.0232906236479802,0.0209205909294836,2.6899197281976628e-05,critical
1200,5.05050505050505,2.5316455696202533,anode,0.022309805623308,0.0233804786281846,0.0210573199560923,6.86861964503668e-06,critical
1200,5.151515151515151,2.5316455696202533,anode,0.0224424787159807,0.0235670914588435,0.0211163276079199,-5.222851552879496e-05,critical
1200,5.252525252525253,2.5316455696202533,anode,0.0222902305796397,0.0233974828771184,0.0209864332037681,-6.193337600005266e-05,critical
1200,5.353535353535354,2.5316455696202533,anode,0.0223013693629904,0.0233937888422291,0.0210185181804114,-4.6147078412682215e-05,critical
1200,5.454545454545454,2.5316455696202533,anode,0.0224995277389336,0.0235888021317764,0.0212231001358639,3.955086937326494e-05,critical
1200,5.555555555555555,2.5316455696202533,anode,0.0224959855728329,0.0235781686575556,0.0212288155355882,6.661757318596893e-05,critical
1200,5.656565656565657,2.5316455696202533,anode,0.0224813215193215,0.0236623968287827,0.0210765622601572,2.0791443945335027e-05,critical
1200,5.757575757575758,2.5316455696202533,anode,0.0224319923043837,0.0235258204008886,0.0211486722749197,-3.454404975053947e-05,critical
1200,5.858585858585858,2.5316455696202533,anode,0.0225165704408454,0.0236827359959386,0.0211320561235819,9.141549861498268e-05,critical
1200,5.959595959595959,2.5316455696202533,anode,0.0225583343785544,0.023672005411794,0.0212489174905034,2.946766817342278e-05,critical
1200,6.0606060606060606,2.5316455696202533,anode,0.0226226869426299,0.023701815827726,0.0213615296559055,2.571274290838619e-05,critical
1200,6.161616161616162,2.5316455696202533,anode,0.0225839563311792,0.023619687790896,0.0213815443176304,1.149046055733417e-05,critical
1200,6.262626262626262,2.5316455696202533,anode,0.0225889475580023,0.0236600006856219,0.0213380012349254,6.257390564755261e-05,critical
1200,6.363636363636363,2.5316455696202533,anode,0.02259489067727,0.0236468873471222,0.0213692061407008,-9.317140676109688e-05,critical
1200,6.4646464646464645,2.5316455696202533,anode,0.0227034484066853,0.0237618430606588,0.0214712888167924,-2.907253129894147e-05,critical
1200,6.565656565656566,2.5316455696202533,anode,0.0226917426313429,0.023717253112481,0.0215040103400166,1.5098671662271005e-05,critical
1200,6.666666666666667,2.5316455696202533,anode,0.0226998821339302,0.0238053963447553,0.0214025842310009,6.865959348608602e-05,critical
1200,6.767676767676767,2.5316455696202533,anode,0.0228483142715986,0.0239953376029891,0.0214940154845537,0.0001043946323959,critical
1200,6.8686868686868685,2.5316455696202533,anode,0.0229349367745856,0.0241123174213145,0.0215397361822746,-8.204597166971754e-05,critical
1200,6.96969696969697,2.5316455696202533,anode,0.02290567433894,0.0239783177226267,0.0216560901801302,1.3725808144267965e-05,critical
1200,7.070707070707071,2.5316455696202533,anode,0.0231155512986625,0.0241723437422066,0.0218883814573488,-7.905182871634076e-05,critical
1200,7.171717171717171,2.5316455696202533,anode,0.0229961908762223,0.0240322681952052,0.0217960812386263,7.069365773306744e-05,critical
1200,7.272727272727272,2.5316455696202533,anode,0.0232427431880702,0.024336971864648,0.0219666926341775,3.699855328982159e-05,critical
1200,7.373737373737374,2.5316455696202533,anode,0.0232399269752837,0.0243163474487602,0.0219854797966905,-0.0001350262209448,critical
1200,7.474747474747475,2.5316455696202533,anode,0.0233603188818789,0.0244849665481509,0.0220437149020036,4.149976190801782e-05,critical
1200,7.575757575757575,2.5316455696202533,anode,0.0232882477860741,0.0243890134410437,0.022003571151927,4.746035386728304e-05,critical
1200,7.6767676767676765,2.5316455696202533,anode,0.0236137679168367,0.0247207112217968,0.0223239724316147,2.0021626325738794e-05,critical
1200,7.777777777777778,2.5316455696202533,anode,0.02361382479378,0.0248197546238843,0.0221865366477612,6.949563609960234e-05,critical
1200,7.878787878787879,2.5316455696202533,anode,0.023649912649186,0.0247493332189501,0.022370507156672,3.837960468776682e-05,critical
1200,7.979797979797979,2.5316455696202533,anode,0.0236939461752643,0.0248332806295101,0.0223606896405613,5.72259417159196e-06,critical
1200,8.080808080808081,2.5316455696202533,anode,0.0239003487030524,0.0250269130317886,0.0225865170886012,1.0597177962325986e-05,critical
1200,8.181818181818182,2.5316455696202533,anode,0.0238807774676298,0.0249486143318116,0.0226460073162759,-3.1784174825938054e-05,critical
1200,8.282828282828282,2.5316455696202533,anode,0.0240368318733239,0.0251935479222058,0.0226824048394869,6.631643855207991e-05,critical
1200,8.383838383838384,2.5316455696202533,anode,0.0242980995726924,0.0254113884672117,0.0230053896316788,5.75026890318843e-05,critical
1200,8.484848484848484,2.5316455696202533,anode,0.024462621361663,0.0255629940730001,0.0231870350143796,-0.000121961459513,critical
1200,8.585858585858587,2.5316455696202533,anode,0.0245634946001246,0.0257719044801782,0.0231428201465448,-7.880845617882882e-05,critical
1200,8.686868686868687,2.5316455696202533,anode,0.0247824392310576,0.0259918389272097,0.0233635384592641,9.107502993812876e-07,critical
1200,8.787878787878787,2.5316455696202533,anode,0.0248236141748199,0.0261166888588199,0.0232858695498418,0.0001271126796054,critical
1200,8.88888888888889,2.5316455696202533,anode,0.0250852081859868,0.0263302750994319,0.0236199179165961,2.9983916660779855e-05,critical
1200,8.98989898989899,2.5316455696202533,anode,0.0252649195729636,0.0265713068282419,0.0237156935670778,3.942721392880616e-05,critical
1200,9.09090909090909,2.5316455696202533,anode,0.0253284937992561,0.0266138296532842,0.0238095600854617,4.120718314338655e-05,critical
1200,9.191919191919192,2.5316455696202533,anode,0.0255520044559719,0.0266780664743157,0.0242529764074898,-2.1237441508354436e-05,critical
1200,9.292929292929292,2.5316455696202533,anode,0.025893317261187,0.0271892568272072,0.0243659834321832,-2.871720171972653e-06,critical
1200,9.393939393939394,2.5316455696202533,anode,0.025979692711807,0.027258970897059,0.0244763382262705,-2.307554911263132e-05,critical
1200,9.494949494949497,2.5316455696202533,anode,0.0264038241523772,0.0277570088119633,0.0248020159442037,7.569751871741634e-06,critical
1200,9.595959595959595,2.5316455696202533,anode,0.0265818370758222,0.0277503531473072,0.0252343978276957,-1.3904160979033708e-05,critical
1200,9.696969696969695,2.5316455696202533,anode,0.0268723049419733,0.0282670787224128,0.0252163079594761,8.60396561561603e-05,critical
1200,9.797979797979798,2.5316455696202533,anode,0.027146343240019,0.028593875058034,0.0254197345144863,4.84421018496108e-06,critical
1200,9.8989898989899,2.5316455696202533,anode,0.027493724229972,0.0288607879468581,0.02588440546419,2.367923233219403e-05,critical
1200,10.0,2.5316455696202533,anode,0.0278090337653426,0.029145373337788,0.0262451040911805,-4.980037680012845e-05,critical
1200,0.0,2.632911392405063,anode,0.0276343066784555,0.0290024021025092,0.026025058630458,1.928994942246086e-05,critical
1200,0.101010101010101,2.632911392405063,anode,0.0273289373569162,0.0286282755679008,0.0258110508846306,-5.223255660478971e-05,critical
1200,0.202020202020202,2.632911392405063,anode,0.02712462381784,0.0284412025207278,0.0255808763104062,-6.549154634697545e-05,critical
1200,0.303030303030303,2.632911392405063,anode,0.0269074503606553,0.0282613659711898,0.0253101051829669,3.0546826868010994e-05,critical
1200,0.404040404040404,2.632911392405063,anode,0.0264900816992209,0.0278368604199122,0.0248978297396497,-5.51237108941758e-05,critical
1200,0.5050505050505051,2.632911392405063,anode,0.0263980669771941,0.0276509636826302,0.0249351600308235,1.954673364039385e-05,critical
1200,0.6060606060606061,2.632911392405063,anode,0.0261498654867651,0.0274886342225693,0.0245654266668168,9.906166816595864e-06,critical
1200,0.7070707070707071,2.632911392405063,anode,0.0259047629725087,0.0271700123292903,0.0244200946659206,1.1893290051571248e-05,critical
1200,0.8080808080808081,2.632911392405063,anode,0.0256746932265839,0.0269150276393369,0.024222060462537,-1.1153967858770386e-05,critical
1200,0.9090909090909092,2.632911392405063,anode,0.025490093971141,0.0266072280004813,0.0242024990172536,-1.591269235736012e-05,critical
1200,1.0101010101010102,2.632911392405063,anode,0.0252932709395373,0.0265001016132899,0.02388290949789,-1.0515652450561064e-05,critical
1200,1.1111111111111112,2.632911392405063,anode,0.0249492374037931,0.0261836484449673,0.0234973908456512,1.867140791772177e-05,critical
1200,1.2121212121212122,2.632911392405063,anode,0.024837374638969,0.0258944172815276,0.0236244348172894,2.1489295102380463e-05,critical
1200,1.3131313131313131,2.632911392405063,anode,0.0246894729324271,0.0259526559707105,0.0231946817294532,4.339392857580049e-06,critical
1200,1.414141414141414,2.632911392405063,anode,0.0245250686845616,0.0257836571200825,0.0230347863980126,2.358965249992317e-05,critical
1200,1.5151515151515151,2.632911392405063,anode,0.0243703082148952,0.025496551609025,0.0230611949120514,-2.1607554999636585e-06,critical
1200,1.616161616161616,2.632911392405063,anode,0.0242119346619508,0.0253789092285963,0.022845711611579,2.197464266453798e-05,critical
1200,1.7171717171717171,2.632911392405063,anode,0.0241272103038201,0.0251352683977292,0.0229735001452613,-3.62531882313435e-05,critical
1200,1.818181818181818,2.632911392405063,anode,0.0239459021371659,0.0250428978233903,0.0226723750285236,4.033025680202781e-05,critical
1200,1.9191919191919191,2.632911392405063,anode,0.0238570646623127,0.0250053257797654,0.0225131442345242,4.454817823436762e-06,critical
1200,2.0202020202020203,2.632911392405063,anode,0.0237397944726116,0.0249250299151944,0.0223434677551631,2.433248249917208e-05,critical
1200,2.121212121212121,2.632911392405063,anode,0.0235251456792202,0.0246105887571953,0.0222637403694655,-1.8470189157943416e-05,critical
1200,2.2222222222222223,2.632911392405063,anode,0.023591946559151,0.0247559680939104,0.0222236136696969,-4.186549726272294e-06,critical
1200,2.323232323232323,2.632911392405063,anode,0.0234188190187997,0.024534072068757,0.0221158900976131,1.4590752573331236e-05,critical
1200,2.4242424242424243,2.632911392405063,anode,0.0233364020199535,0.024475817548435,0.0219994746208828,9.27289771504156e-06,critical
1200,2.525252525252525,2.632911392405063,anode,0.0232557696946855,0.0243023948870244,0.0220425609935778,0.0001109854029984,critical
1200,2.6262626262626263,2.632911392405063,anode,0.0230801181835817,0.0242028268047858,0.0217632361255286,-5.297177850994283e-05,critical
1200,2.727272727272727,2.632911392405063,anode,0.0231375824332717,0.024280805408153,0.0217921742936621,-8.735480804461408e-05,critical
1200,2.8282828282828283,2.632911392405063,anode,0.023016964253012,0.024160473981737,0.0216695729897997,-9.815168089961928e-05,critical
1200,2.929292929292929,2.632911392405063,anode,0.0231023117472766,0.024309172162112,0.0216683853738899,2.911287588868914e-05,critical
1200,3.0303030303030303,2.632911392405063,anode,0.0228947531653755,0.0240338404025099,0.0215536852036239,-1.5517979643271517e-05,critical
1200,3.131313131313131,2.632911392405063,anode,0.0227739082079625,0.0238912655763977,0.0214617487725238,1.0810646115323051e-06,critical
1200,3.2323232323232323,2.632911392405063,anode,0.0227373987714747,0.0239379248838348,0.0213081495888616,1.528091751890968e-05,critical
1200,3.333333333333333,2.632911392405063,anode,0.0226054982274589,0.0237253274738667,0.0212881432413973,-1.3081996725501333e-05,critical
1200,3.4343434343434343,2.632911392405063,anode,0.0227175150420776,0.023891815170929,0.021321640440077,-0.00014944230167,critical
1200,3.5353535353535355,2.632911392405063,anode,0.0227287838795387,0.0239229267434649,0.0213082078986442,4.533362082855885e-05,critical
1200,3.636363636363636,2.632911392405063,anode,0.0226715362360298,0.0237970437661785,0.0213466909588983,-4.541442310486688e-05,critical
1200,3.7373737373737375,2.632911392405063,anode,0.0226361241208061,0.0237355085067968,0.0213473534710284,-1.3426695772800112e-05,critical
1200,3.8383838383838382,2.632911392405063,anode,0.0226019988109759,0.0237412425825966,0.0212572988454372,4.353244655248183e-05,critical
1200,3.939393939393939,2.632911392405063,anode,0.0225178988969951,0.023593911896315,0.0212598642032481,-3.928172911682283e-05,critical
1200,4.040404040404041,2.632911392405063,anode,0.0225460295904058,0.0237521104238044,0.0211060002543178,-5.628089371009981e-05,critical
1200,4.141414141414141,2.632911392405063,anode,0.022338059527644,0.0233664823099318,0.0211431597303788,3.8610671480455065e-05,critical
1200,4.242424242424242,2.632911392405063,anode,0.0223628328749336,0.0233994213887175,0.0211568317069784,5.617042460554007e-05,critical
1200,4.343434343434343,2.632911392405063,anode,0.0222705745375643,0.0234231589555392,0.0209034569365132,3.914683599044156e-05,critical
1200,4.444444444444445,2.632911392405063,anode,0.022410618207772,0.0235674510357338,0.0210391785548496,-3.575981658703768e-05,critical
1200,4.545454545454545,2.632911392405063,anode,0.0223847956834268,0.0233869006010294,0.021225392326366,-6.0053345035151074e-05,critical
1200,4.646464646464646,2.632911392405063,anode,0.0224001956130529,0.0234607712014127,0.0211617783296481,6.259838049613666e-05,critical
1200,4.747474747474747,2.632911392405063,anode,0.0223590873091606,0.0233423416356092,0.0212249551839413,-4.2050798272486144e-05,critical
1200,4.848484848484849,2.632911392405063,anode,0.0222744230286785,0.02326533378866,0.0211294981876682,-3.316334860998915e-05,critical
1200,4.94949494949495,2.632911392405063,anode,0.0223139760095479,0.0233884299259808,0.0210558289572722,5.691506789628728e-05,critical
1200,5.05050505050505,2.632911392405063,anode,0.0223187650366579,0.0234732471807596,0.0209496869361187,2.4059940185803117e-05,critical
1200,5.151515151515151,2.632911392405063,anode,0.0223887705685753,0.0234763921110681,0.0211134654248009,4.3327864491230656e-05,critical
1200,5.252525252525253,2.632911392405063,anode,0.0222869076970797,0.0233844973661175,0.0209965732691598,-5.704061464830698e-05,critical
1200,5.353535353535354,2.632911392405063,anode,0.0224098475390743,0.0234779576002176,0.02116184404309,1.5841883668671586e-06,critical
1200,5.454545454545454,2.632911392405063,anode,0.0223467842228809,0.0234842820323366,0.021001459345555,-5.820151296858813e-05,critical
1200,5.555555555555555,2.632911392405063,anode,0.0224045824082967,0.0235132132581794,0.021100192867914,5.5709946282027005e-05,critical
1200,5.656565656565657,2.632911392405063,anode,0.0223713761396144,0.0234969309365382,0.0210433896265027,-3.431566919466138e-05,critical
1200,5.757575757575758,2.632911392405063,anode,0.0224666556970592,0.0234864287730408,0.0212846342242619,2.985133618709115e-05,critical
1200,5.858585858585858,2.632911392405063,anode,0.022468759075894,0.0235569037045775,0.0211935992490298,3.807798207805807e-05,critical
1200,5.959595959595959,2.632911392405063,anode,0.0224416733304864,0.0235379482389565,0.0211542989452491,7.772668394366054e-05,critical
1200,6.0606060606060606,2.632911392405063,anode,0.0225244200445641,0.0235932584850379,0.0212765057045276,4.326378562573212e-06,critical
1200,6.161616161616162,2.632911392405063,anode,0.0224479571897221,0.0235115239009102,0.0212048060331044,0.0001041326212759,critical
1200,6.262626262626262,2.632911392405063,anode,0.0227270551407998,0.0239500188682699,0.0212655937296942,2.255347126472733e-05,critical
1200,6.363636363636363,2.632911392405063,anode,0.0226047827369696,0.0235864008080844,0.021473706737579,9.178308167873796e-05,critical
1200,6.4646464646464645,2.632911392405063,anode,0.0226039542759393,0.023697739801071,0.0213225831395718,1.0841491551442e-05,critical
1200,6.565656565656566,2.632911392405063,anode,0.0226827439168873,0.0239226275860932,0.0211963138071106,-2.923110296738445e-05,critical
1200,6.666666666666667,2.632911392405063,anode,0.0227190804415717,0.0239433244957738,0.0212556251454839,-2.920099430431456e-05,critical
1200,6.767676767676767,2.632911392405063,anode,0.022722477141067,0.023761970331904,0.0215150154363337,-8.756451900530671e-05,critical
1200,6.8686868686868685,2.632911392405063,anode,0.0228319568085875,0.0239259278223234,0.0215525457971181,-1.4768688394590556e-05,critical
1200,6.96969696969697,2.632911392405063,anode,0.0229549864729025,0.0241213083484494,0.0215762087539244,-4.995892032539461e-05,critical
1200,7.070707070707071,2.632911392405063,anode,0.023011323714939,0.0242317658607125,0.0215570799953705,-1.7884322619946475e-05,critical
1200,7.171717171717171,2.632911392405063,anode,0.0229249311975746,0.0240485815833703,0.0216051583619339,5.397495058513964e-05,critical
1200,7.272727272727272,2.632911392405063,anode,0.0231293170421917,0.0242074919671247,0.0218738333805713,5.384728163968914e-05,critical
1200,7.373737373737374,2.632911392405063,anode,0.0231126364942097,0.0242830839953161,0.021728565747012,-0.0001029807427208,critical
1200,7.474747474747475,2.632911392405063,anode,0.0232396890919986,0.0244445628222404,0.0218092456682604,8.322008417380049e-05,critical
1200,7.575757575757575,2.632911392405063,anode,0.0234221303777486,0.0245429633370449,0.0221114897799453,2.969161913264198e-05,critical
1200,7.6767676767676765,2.632911392405063,anode,0.023380471973539,0.0244208495907449,0.0221784519372254,-2.2237763585497167e-05,critical
1200,7.777777777777778,2.632911392405063,anode,0.0235369841757847,0.0245900694835381,0.0223192766130646,-1.3675927546720471e-05,critical
1200,7.878787878787879,2.632911392405063,anode,0.023630922843133,0.0247626624143294,0.0223074787262662,-2.7363362257913973e-06,critical
1200,7.979797979797979,2.632911392405063,anode,0.0237031168608058,0.0249439158544925,0.0222273153339766,-8.474897632972897e-05,critical
1200,8.080808080808081,2.632911392405063,anode,0.0238466295732499,0.0249984414396403,0.0224970876999238,-6.54269149663672e-05,critical
1200,8.181818181818182,2.632911392405063,anode,0.0239339767312538,0.0252529253207997,0.0223502672764582,-7.916596646250706e-06,critical
1200,8.282828282828282,2.632911392405063,anode,0.0242014351991777,0.0253467758377393,0.0228643170956231,-5.81497719752206e-05,critical
1200,8.383838383838384,2.632911392405063,anode,0.0242771474031684,0.0254409542454949,0.0229153768772241,6.400609427748835e-05,critical
1200,8.484848484848484,2.632911392405063,anode,0.0243877715592043,0.0255984225676143,0.022961987057546,-8.55603764081191e-05,critical
1200,8.585858585858587,2.632911392405063,anode,0.0245459817899439,0.0257419109997648,0.0231429218527249,4.980909711971437e-05,critical
1200,8.686868686868687,2.632911392405063,anode,0.0247017255140373,0.0258283532022857,0.0233949861403072,-9.862533636378324e-07,critical
1200,8.787878787878787,2.632911392405063,anode,0.024851390881071,0.026011114827789,0.0235011538413507,1.3082015983488458e-05,critical
1200,8.88888888888889,2.632911392405063,anode,0.0251276972992087,0.026362222532223,0.0236775511054471,1.6729525113253605e-05,critical
1200,8.98989898989899,2.632911392405063,anode,0.0253174349199228,0.0265778564163182,0.0238333659328355,-1.2977289493579207e-05,critical
1200,9.09090909090909,2.632911392405063,anode,0.0253947317176602,0.0265821440141898,0.0240117696909898,-2.0452295087129692e-05,critical
1200,9.191919191919192,2.632911392405063,anode,0.0255073121346375,0.0267639612542236,0.0240298795736906,-6.583779078175776e-05,critical
1200,9.292929292929292,2.632911392405063,anode,0.0258417304291939,0.0269796709382115,0.0245290981236725,-3.015884604606885e-05,critical
1200,9.393939393939394,2.632911392405063,anode,0.0260973524270918,0.0273040816292125,0.0246944384115993,-2.9460723732478684e-05,critical
1200,9.494949494949497,2.632911392405063,anode,0.0262208744390549,0.0274960351976308,0.0247253732533173,-5.149592619671329e-05,critical
1200,9.595959595959595,2.632911392405063,anode,0.0265759658043336,0.0278653570435581,0.0250644939793889,4.490982483587277e-05,critical
1200,9.696969696969695,2.632911392405063,anode,0.0268214761011508,0.0281143362420267,0.0253070767357414,8.002011740720348e-05,critical
1200,9.797979797979798,2.632911392405063,anode,0.0272037556463252,0.0285469406124155,0.0256246135456685,1.248416404827392e-06,critical
1200,9.8989898989899,2.632911392405063,anode,0.0274401863135906,0.0287150048633604,0.0259565451341398,-6.430418332442316e-05,critical
1200,10.0,2.632911392405063,anode,0.0276951667962665,0.0289960836093774,0.0261788452406594,2.1957927460349694e-05,critical
1200,0.0,2.7341772151898733,anode,0.0277855990592561,0.0291819225891264,0.0261387310671076,-4.961979439097752e-06,critical
1200,0.101010101010101,2.7341772151898733,anode,0.027578653012754,0.0289465084779837,0.025969056096691,-3.3550195830535946e-05,critical
1200,0.202020202020202,2.7341772151898733,anode,0.0270826629370938,0.0284335552567752,0.0254909934253211,6.426902660070367e-05,critical
1200,0.303030303030303,2.7341772151898733,anode,0.0267821661348002,0.028098709127596,0.0252354279239547,3.21178833575082e-05,critical
1200,0.404040404040404,2.7341772151898733,anode,0.0266088903342098,0.0279118489854142,0.0250785897600583,-7.274803557076752e-05,critical
1200,0.5050505050505051,2.7341772151898733,anode,0.026404915767454,0.0277950268242852,0.0247509186815065,-1.3336956602011704e-05,critical
1200,0.6060606060606061,2.7341772151898733,anode,0.0261461492074987,0.0273041954983525,0.0248085793808052,7.00407612831327e-05,critical
1200,0.7070707070707071,2.7341772151898733,anode,0.0258593383505779,0.0270001599665521,0.0245430640088854,-2.164158997084352e-05,critical
1200,0.8080808080808081,2.7341772151898733,anode,0.025623780834938,0.0269053320048584,0.0241135158497319,2.4201180817959022e-05,critical
1200,0.9090909090909092,2.7341772151898733,anode,0.0255259333870957,0.0267277051843412,0.0241243815995032,4.698385895253529e-05,critical
1200,1.0101010101010102,2.7341772151898733,anode,0.0251696930866638,0.0264543565719584,0.0236494975521299,6.825189627513215e-05,critical
1200,1.1111111111111112,2.7341772151898733,anode,0.025023890288969,0.0261898171689128,0.0236663624167563,-5.644041134704433e-05,critical
1200,1.2121212121212122,2.7341772151898733,anode,0.0248637677499136,0.0260778243048862,0.0234392096066838,1.887880265290061e-05,critical
1200,1.3131313131313131,2.7341772151898733,anode,0.0246547347527352,0.0258995569705509,0.0231845024840977,7.321644293880506e-05,critical
1200,1.414141414141414,2.7341772151898733,anode,0.024509874315747,0.0257280569785399,0.0230759945513019,-6.333438161154501e-07,critical
1200,1.5151515151515151,2.7341772151898733,anode,0.0243858425276573,0.0255774623161053,0.0229874298592733,-1.757542396377337e-05,critical
1200,1.616161616161616,2.7341772151898733,anode,0.0242423433469855,0.0254399363412444,0.0228342364137807,-2.454495286036947e-06,critical
1200,1.7171717171717171,2.7341772151898733,anode,0.0241227606446908,0.0253568494355819,0.0226616180974857,7.319173583313131e-05,critical
1200,1.818181818181818,2.7341772151898733,anode,0.0239395429963392,0.0250860483558219,0.0225986846621826,3.185653075688612e-05,critical
1200,1.9191919191919191,2.7341772151898733,anode,0.0239190762178652,0.0250906085037471,0.0225433658888425,4.828492927560824e-05,critical
1200,2.0202020202020203,2.7341772151898733,anode,0.0235443195227796,0.0246684944689153,0.0222301514554045,4.121859778143611e-05,critical
1200,2.121212121212121,2.7341772151898733,anode,0.0236058938665458,0.0246503663143062,0.0224000448863445,4.068908201808722e-05,critical
1200,2.2222222222222223,2.7341772151898733,anode,0.0235455082283947,0.0247172077536514,0.0221653829613149,-6.524918531207264e-05,critical
1200,2.323232323232323,2.7341772151898733,anode,0.0235023079143105,0.024634241576831,0.0221772213441745,2.887201720424733e-05,critical
1200,2.4242424242424243,2.7341772151898733,anode,0.023338691884657,0.0245203556159867,0.0219429343632911,-3.100928331603831e-05,critical
1200,2.525252525252525,2.7341772151898733,anode,0.0233191124656545,0.024392060775085,0.0220728102739883,-1.5849489608737207e-05,critical
1200,2.6262626262626263,2.7341772151898733,anode,0.0232877781902729,0.024370515488174,0.0220279749091386,-2.079956109365141e-06,critical
1200,2.727272727272727,2.7341772151898733,anode,0.023077732630447,0.0242508135091885,0.0216912357454629,-8.003890190950307e-06,critical
1200,2.8282828282828283,2.7341772151898733,anode,0.0229473202382297,0.0239815868346727,0.0217494323210035,6.080715963106957e-05,critical
1200,2.929292929292929,2.7341772151898733,anode,0.0229292525924983,0.0241593308367546,0.0214602654053869,-2.4815641818144887e-06,critical
1200,3.0303030303030303,2.7341772151898733,anode,0.0229734833186134,0.024022378458149,0.0217562655332602,5.298907529921625e-05,critical
1200,3.131313131313131,2.7341772151898733,anode,0.0229045950983997,0.0239279337505925,0.0217214424332035,2.9648939953706965e-05,critical
1200,3.2323232323232323,2.7341772151898733,anode,0.022809158954851,0.0238155939491552,0.0216474218906674,5.930811710959301e-05,critical
1200,3.333333333333333,2.7341772151898733,anode,0.0225913231607703,0.0236302130918709,0.0213847213698991,6.485879854653575e-06,critical
1200,3.4343434343434343,2.7341772151898733,anode,0.0226228835529145,0.0236112872527757,0.0214842138616722,1.2571788291401265e-05,critical
1200,3.5353535353535355,2.7341772151898733,anode,0.0226089577136908,0.0236572858547612,0.0213895622718135,-3.37128971046454e-05,critical
1200,3.636363636363636,2.7341772151898733,anode,0.022504046738828,0.0236219864054182,0.0211877521576984,-5.724165168762825e-05,critical
1200,3.7373737373737375,2.7341772151898733,anode,0.0225042635793796,0.0235721090883768,0.0212569389212159,6.050678037797707e-05,critical
1200,3.8383838383838382,2.7341772151898733,anode,0.0225797457340202,0.0237163642116678,0.0212386272571765,3.0097675985624837e-05,critical
1200,3.939393939393939,2.7341772151898733,anode,0.0225061063473731,0.0235830543524014,0.0212467848329728,2.936052952377433e-05,critical
1200,4.040404040404041,2.7341772151898733,anode,0.0225360201428394,0.023644046297747,0.0212340829362408,-3.932954778162371e-05,critical
1200,4.141414141414141,2.7341772151898733,anode,0.0223994576119606,0.0234628938914419,0.0211575744166601,-3.306504110428982e-05,critical
1200,4.242424242424242,2.7341772151898733,anode,0.0223271791675728,0.0234930833759778,0.0209404799468292,0.000101166513803,critical
1200,4.343434343434343,2.7341772151898733,anode,0.0225829462269176,0.0236627049937754,0.0213196832676236,-7.817449739108023e-05,critical
1200,4.444444444444445,2.7341772151898733,anode,0.0224120665564571,0.0235066571849342,0.0211274414569882,-3.8885844754313495e-05,critical
1200,4.545454545454545,2.7341772151898733,anode,0.0224593037307648,0.0235164360863602,0.021226729024005,1.3530506850497046e-05,critical
1200,4.646464646464646,2.7341772151898733,anode,0.0224746190486049,0.0235912175161712,0.0211603446500951,1.8842605494070305e-05,critical
1200,4.747474747474747,2.7341772151898733,anode,0.0223456142275613,0.023315360008426,0.0212294667132221,-3.090394981992137e-05,critical
1200,4.848484848484849,2.7341772151898733,anode,0.0222883861116177,0.0233316791662222,0.0210730916185895,-1.0409369068842558e-05,critical
1200,4.94949494949495,2.7341772151898733,anode,0.0223675846139305,0.0235393758711113,0.0209737467487236,-7.633374962175862e-05,critical
1200,5.05050505050505,2.7341772151898733,anode,0.022487910487583,0.0236234954840035,0.0211472876374382,-2.3514507638837605e-05,critical
1200,5.151515151515151,2.7341772151898733,anode,0.0223604746137587,0.0234530863672572,0.0210779427329519,4.728040095251217e-05,critical
1200,5.252525252525253,2.7341772151898733,anode,0.0223381197638263,0.0234300087090625,0.0210565299192208,-3.4222932092414176e-05,critical
1200,5.353535353535354,2.7341772151898733,anode,0.0222859703468893,0.0233404988517745,0.0210553599462359,1.8107093203733997e-06,critical
1200,5.454545454545454,2.7341772151898733,anode,0.0223456720542545,0.0233898299939461,0.0211296593480645,2.271729564235968e-05,critical
1200,5.555555555555555,2.7341772151898733,anode,0.0222950879770668,0.0233789370717826,0.0210242984186464,-1.707835267581219e-05,critical
1200,5.656565656565657,2.7341772151898733,anode,0.0225106200378079,0.0236396520335991,0.0211793899372397,-2.392003010313159e-05,critical
1200,5.757575757575758,2.7341772151898733,anode,0.0223697008884627,0.023415987186503,0.021149900254417,-8.674580158102112e-05,critical
1200,5.858585858585858,2.7341772151898733,anode,0.0224248753146593,0.0234188217554903,0.0212758279442895,-9.624287917585692e-05,critical
1200,5.959595959595959,2.7341772151898733,anode,0.0224456818378169,0.0235986828928567,0.021079234188125,-7.926360851410563e-05,critical
1200,6.0606060606060606,2.7341772151898733,anode,0.0224834505461742,0.0235934677765329,0.0211782343912295,-3.74409911099567e-05,critical
1200,6.161616161616162,2.7341772151898733,anode,0.0225152042634456,0.0236342984184017,0.0211977211622736,3.7623398557514935e-05,critical
1200,6.262626262626262,2.7341772151898733,anode,0.0225743380669631,0.0236286373657814,0.0213462194357549,5.5465834489435633e-05,critical
1200,6.363636363636363,2.7341772151898733,anode,0.0225643393509978,0.023720357048401,0.0211953310781657,-6.540454486560206e-05,critical
1200,6.4646464646464645,2.7341772151898733,anode,0.0228001261190878,0.0238406330905057,0.0215931543068351,6.352619750804693e-06,critical
1200,6.565656565656566,2.7341772151898733,anode,0.0227691773089028,0.0239005885316992,0.0214374570970455,-1.3875847525445873e-05,critical
1200,6.666666666666667,2.7341772151898733,anode,0.0226853707750737,0.0237937428887984,0.0213816311841034,-0.0001399159139986,critical
1200,6.767676767676767,2.7341772151898733,anode,0.0227857838428878,0.023907062390929,0.0214682000847719,-2.7671518602962145e-05,critical
1200,6.8686868686868685,2.7341772151898733,anode,0.0229041379369117,0.0239680104140817,0.0216641292903111,-0.0001232747046513,critical
1200,6.96969696969697,2.7341772151898733,anode,0.0228628202657474,0.0239606785923575,0.0215783582986813,1.8191360377963927e-05,critical
1200,7.070707070707071,2.7341772151898733,anode,0.0230006869375979,0.0241578124341571,0.0216356552726093,-8.580754848534354e-06,critical
1200,7.171717171717171,2.7341772151898733,anode,0.0229805357573161,0.0240218543457269,0.0217738611467985,-3.177660763802177e-05,critical
1200,7.272727272727272,2.7341772151898733,anode,0.0229980915641271,0.0241535518335606,0.02163533586676,1.41143218256422e-05,critical
1200,7.373737373737374,2.7341772151898733,anode,0.0231774693546516,0.0243173402458591,0.021838182961628,2.7924998510761225e-05,critical
1200,7.474747474747475,2.7341772151898733,anode,0.0233000288145792,0.0243338981637842,0.0221060898478667,1.7065660431353692e-05,critical
1200,7.575757575757575,2.7341772151898733,anode,0.0233373111192983,0.0243958714561484,0.0221106119680197,3.2640596420128704e-06,critical
1200,7.6767676767676765,2.7341772151898733,anode,0.0233812591404798,0.0244277469594238,0.0221710503571119,2.4436933882301614e-05,critical
1200,7.777777777777778,2.7341772151898733,anode,0.023571490050725,0.02472315344056,0.0222197439317842,4.4517439821870046e-05,critical
1200,7.878787878787879,2.7341772151898733,anode,0.0237398030539134,0.0250423006401684,0.0221770417091676,-3.827316894571486e-05,critical
1200,7.979797979797979,2.7341772151898733,anode,0.023814117572215,0.0249915074936095,0.0224291112563136,-5.4830737156021495e-05,critical
1200,8.080808080808081,2.7341772151898733,anode,0.0238412837011713,0.0248805652031672,0.02264442606872,-1.1120552225662012e-05,critical
1200,8.181818181818182,2.7341772151898733,anode,0.0241057493766011,0.0252183122991584,0.0228126595634488,-3.27346770325322e-05,critical
1200,8.282828282828282,2.7341772151898733,anode,0.0242600521724334,0.0253397073585109,0.0230123307843207,5.073453511899615e-05,critical
1200,8.383838383838384,2.7341772151898733,anode,0.0241569008732907,0.0253934597525656,0.0226927178904609,-7.12618844422432e-05,critical
1200,8.484848484848484,2.7341772151898733,anode,0.0242212592249479,0.0254677933252984,0.0227441680565481,-4.997471870889951e-05,critical
1200,8.585858585858587,2.7341772151898733,anode,0.0245424974291387,0.0256910967695191,0.023204562562198,1.4893122695155296e-05,critical
1200,8.686868686868687,2.7341772151898733,anode,0.0245780452434962,0.0256913002920788,0.0232872008076908,-8.591613776812445e-05,critical
1200,8.787878787878787,2.7341772151898733,anode,0.0249516703075641,0.0260999727110471,0.0236177868386667,1.837069948683643e-05,critical
1200,8.88888888888889,2.7341772151898733,anode,0.0249583202554351,0.0261476222515225,0.0235686879266104,2.3796719834580845e-05,critical
1200,8.98989898989899,2.7341772151898733,anode,0.0252513581295427,0.0263921158989526,0.0239298508786805,-5.4590968664054056e-05,critical
1200,9.09090909090909,2.7341772151898733,anode,0.0256192418340845,0.0268653577995438,0.024158072286565,1.7335692545628168e-05,critical
1200,9.191919191919192,2.7341772151898733,anode,0.0256088947234334,0.0268496170373043,0.0241547061307549,5.270958882265327e-05,critical
1200,9.292929292929292,2.7341772151898733,anode,0.0259013246968511,0.0271405750916236,0.0244522916661284,2.883949302671828e-05,critical
1200,9.393939393939394,2.7341772151898733,anode,0.0261607175438066,0.027473176554844,0.0246130318707386,3.892153649311791e-05,critical
1200,9.494949494949497,2.7341772151898733,anode,0.0264444090393609,0.0276566025924091,0.0250368856876307,-5.371270945643647e-05,critical
1200,9.595959595959595,2.7341772151898733,anode,0.0265877720354848,0.0278637860975873,0.0250950595354899,-1.160505829819434e-05,critical
1200,9.696969696969695,2.7341772151898733,anode,0.0268559314659261,0.0282504270443358,0.0252011365047461,-2.1483337253377117e-06,critical
1200,9.797979797979798,2.7341772151898733,anode,0.0270582672898084,0.0284009673598115,0.0254782734268483,-5.063617417304592e-06,critical
1200,9.8989898989899,2.7341772151898733,anode,0.0273892725205516,0.0286632471504499,0.0259057691189199,-9.14717307467108e-05,critical
1200,10.0,2.7341772151898733,anode,0.0276987374353156,0.0290604855992486,0.0260989039774077,2.748706424130357e-05,critical
1200,0.0,2.835443037974684,anode,0.0277535522138945,0.0291180421990456,0.0261501844574993,5.569670553151298e-05,critical
1200,0.101010101010101,2.835443037974684,anode,0.0274946356501876,0.0288188234300024,0.0259446087920684,-1.612464519215696e-05,critical
1200,0.202020202020202,2.835443037974684,anode,0.0272241939934426,0.0285322776705506,0.0256936599828656,-1.0758127487825e-05,critical
1200,0.303030303030303,2.835443037974684,anode,0.0267704162824664,0.0280351010547681,0.025294319866245,6.950503908023721e-05,critical
1200,0.404040404040404,2.835443037974684,anode,0.026634292194449,0.0277968186860132,0.0252952109708308,-1.9031184882819125e-05,critical
1200,0.5050505050505051,2.835443037974684,anode,0.0263262231416367,0.0276807671245755,0.0247215640576967,2.069199399068768e-05,critical
1200,0.6060606060606061,2.835443037974684,anode,0.0261018564026156,0.0274736972731845,0.0244699562009404,3.7763655194803737e-05,critical
1200,0.7070707070707071,2.835443037974684,anode,0.0257942748973025,0.0270730938695414,0.024289385909883,4.747877128389941e-05,critical
1200,0.8080808080808081,2.835443037974684,anode,0.0257695092659074,0.0268889658650158,0.0244793473937995,-0.0001110707869218,critical
1200,0.9090909090909092,2.835443037974684,anode,0.0254307128680776,0.0266341933078841,0.0240262465310383,5.033792149523063e-06,critical
1200,1.0101010101010102,2.835443037974684,anode,0.0253381768425878,0.0265801813283314,0.023878558914519,-9.66371775887832e-05,critical
1200,1.1111111111111112,2.835443037974684,anode,0.0250758110042563,0.0262615234011104,0.023691550397446,7.148685310630317e-05,critical
1200,1.2121212121212122,2.835443037974684,anode,0.0248341214356564,0.0260859537444038,0.0233568431674647,2.037808375248848e-06,critical
1200,1.3131313131313131,2.835443037974684,anode,0.0246005896855581,0.0258013211911157,0.0231912787412339,6.071697108550127e-05,critical
1200,1.414141414141414,2.835443037974684,anode,0.0246339455545082,0.0258297249613865,0.0232323357076373,6.077581429586224e-07,critical
1200,1.5151515151515151,2.835443037974684,anode,0.0244283929615971,0.0255753261252914,0.0230917025099835,7.614518026179792e-06,critical
1200,1.616161616161616,2.835443037974684,anode,0.0243344946948434,0.0254767828522852,0.0230027554212143,5.9485161078874974e-05,critical
1200,1.7171717171717171,2.835443037974684,anode,0.0242070840017908,0.0254219969433156,0.0227744462853383,-2.2267552051961096e-05,critical
1200,1.818181818181818,2.835443037974684,anode,0.0241191764592537,0.0252452853634481,0.0228074274045365,6.193655662467918e-05,critical
1200,1.9191919191919191,2.835443037974684,anode,0.0239321331845641,0.0250954011629236,0.0225682178515127,2.4918254840425158e-05,critical
1200,2.0202020202020203,2.835443037974684,anode,0.0238434414539791,0.0249451003291535,0.0225616843993408,9.228206505191171e-05,critical
1200,2.121212121212121,2.835443037974684,anode,0.0237477595625135,0.0249448986858136,0.0223349676021337,1.673311324325663e-05,critical
1200,2.2222222222222223,2.835443037974684,anode,0.0234950450492464,0.0247005793440714,0.0220676501190552,-1.8998765267111643e-05,critical
1200,2.323232323232323,2.835443037974684,anode,0.023338981155818,0.0245528691138773,0.0218976427782017,-5.117767201219496e-05,critical
1200,2.4242424242424243,2.835443037974684,anode,0.0232725465066742,0.0243891699273704,0.0219662933190803,-2.1828214194219177e-05,critical
1200,2.525252525252525,2.835443037974684,anode,0.0232334730104083,0.0243323627030817,0.0219510173094529,-3.340342489259588e-05,critical
1200,2.6262626262626263,2.835443037974684,anode,0.0231340962991144,0.024276220788621,0.0217913047105116,-1.896696210325408e-05,critical
1200,2.727272727272727,2.835443037974684,anode,0.0230940619438507,0.0241487979420415,0.021869794975131,6.476278488242345e-05,critical
1200,2.8282828282828283,2.835443037974684,anode,0.0230558094832742,0.0241620423307102,0.0217617760618515,6.281446817910752e-06,critical
1200,2.929292929292929,2.835443037974684,anode,0.0230173991210196,0.0242585615092675,0.0215336328591528,1.250221788267626e-05,critical
1200,3.0303030303030303,2.835443037974684,anode,0.0228337818952903,0.0239263103604403,0.0215563302415776,-2.115250775013676e-05,critical
1200,3.131313131313131,2.835443037974684,anode,0.0229575554833352,0.0239917670685235,0.0217591606997485,8.964273085360271e-05,critical
1200,3.2323232323232323,2.835443037974684,anode,0.0228005187471856,0.0239418082933207,0.0214547753405808,6.378101153951448e-05,critical
1200,3.333333333333333,2.835443037974684,anode,0.0227400961142911,0.0237879176783904,0.0215224256556166,-4.407360079735384e-05,critical
1200,3.4343434343434343,2.835443037974684,anode,0.0226511308459098,0.0237551640491709,0.0213561293928461,-1.1738685274624395e-06,critical
1200,3.5353535353535355,2.835443037974684,anode,0.0225961426245475,0.0236673118541817,0.0213455462520469,-3.349702763241184e-05,critical
1200,3.636363636363636,2.835443037974684,anode,0.0226596858967095,0.0236902173880561,0.0214637468498236,-8.825162017521689e-05,critical
1200,3.7373737373737375,2.835443037974684,anode,0.0227102433041785,0.0237232831543943,0.0215394048729576,-1.1913697146211428e-05,critical
1200,3.8383838383838382,2.835443037974684,anode,0.0224332634469117,0.0235977684851731,0.021051391378521,-2.169844968533581e-05,critical
1200,3.939393939393939,2.835443037974684,anode,0.0224741481096588,0.0234479506383105,0.0213528222022826,7.713430642870714e-05,critical
1200,4.040404040404041,2.835443037974684,anode,0.0225490510278633,0.0236086637846232,0.0213139340726198,1.1752417102255302e-05,critical
1200,4.141414141414141,2.835443037974684,anode,0.0225002487687525,0.0236021565349839,0.0212063839526491,4.11290573943828e-05,critical
1200,4.242424242424242,2.835443037974684,anode,0.0224326588375405,0.0234269916070069,0.021283347106318,8.977146432689809e-05,critical
1200,4.343434343434343,2.835443037974684,anode,0.0224631703526432,0.0234766292763358,0.0212897408580952,7.912506450876674e-06,critical
1200,4.444444444444445,2.835443037974684,anode,0.0223613509165073,0.0234834878506313,0.0210381991164348,-9.737686849773683e-06,critical
1200,4.545454545454545,2.835443037974684,anode,0.0224463626239821,0.0234777179422917,0.0212476441074784,-8.117972860288083e-05,critical
1200,4.646464646464646,2.835443037974684,anode,0.0223933961776701,0.0234815004739665,0.0211175645978645,-3.603900663243399e-05,critical
1200,4.747474747474747,2.835443037974684,anode,0.0223652820109818,0.023461677238889,0.0210777040979236,-3.751005026317195e-05,critical
1200,4.848484848484849,2.835443037974684,anode,0.0224860283300228,0.0237476889310686,0.0209654158635334,9.172396552890688e-06,critical
1200,4.94949494949495,2.835443037974684,anode,0.0223565837489902,0.023418577503605,0.0211160879780058,-4.7031989983837296e-05,critical
1200,5.05050505050505,2.835443037974684,anode,0.0223468411703596,0.0233151234980529,0.0212322468204302,5.909957591772606e-05,critical
1200,5.151515151515151,2.835443037974684,anode,0.0223860730633696,0.0233870665388058,0.0212285088097515,-3.806869045677655e-05,critical
1200,5.252525252525253,2.835443037974684,anode,0.0222777410353695,0.0233500698473881,0.0210223790009845,4.313904381551736e-05,critical
1200,5.353535353535354,2.835443037974684,anode,0.0224225888040467,0.0235016943146147,0.0211596155910771,-1.0622175906291716e-05,critical
1200,5.454545454545454,2.835443037974684,anode,0.0223020714554308,0.0233405316920797,0.0210932242745039,-4.0541776182021546e-05,critical
1200,5.555555555555555,2.835443037974684,anode,0.0223764810807071,0.023513442277574,0.0210324266375367,4.731895358347559e-05,critical
1200,5.656565656565657,2.835443037974684,anode,0.022329775875032,0.0233430467253332,0.0211553871882838,2.479751663447122e-05,critical
1200,5.757575757575758,2.835443037974684,anode,0.0225620100409981,0.023716378306451,0.0211957699592214,3.620221250118929e-05,critical
1200,5.858585858585858,2.835443037974684,anode,0.0224307405114731,0.0235340425555117,0.0211338804920695,6.244757478600808e-05,critical
1200,5.959595959595959,2.835443037974684,anode,0.0225719777948386,0.0236273522430889,0.0213421620749602,-6.659952951801336e-05,critical
1200,6.0606060606060606,2.835443037974684,anode,0.0224574213764162,0.023510984472172,0.0212290333207212,-6.58307365116671e-05,critical
1200,6.161616161616162,2.835443037974684,anode,0.0227457265933238,0.0239156952859549,0.0213597002285498,3.10132198777239e-05,critical
1200,6.262626262626262,2.835443037974684,anode,0.0226213908516611,0.0238652620330868,0.0211275683233658,7.616441929737411e-05,critical
1200,6.363636363636363,2.835443037974684,anode,0.0225348774368197,0.0236191545016874,0.0212659093728977,6.815642764311711e-06,critical
1200,6.4646464646464645,2.835443037974684,anode,0.0226339363888103,0.0237217716756935,0.0213606595622417,5.0123390095315806e-05,critical
1200,6.565656565656566,2.835443037974684,anode,0.0226305166655777,0.0237135926590885,0.0213636903167821,5.289507074679075e-05,critical
1200,6.666666666666667,2.835443037974684,anode,0.0226603506526027,0.0237425903630574,0.0213952467995971,3.103446817070381e-05,critical
1200,6.767676767676767,2.835443037974684,anode,0.0227961001003094,0.0239124030342081,0.0214824999313124,-0.0001408949419152,critical
1200,6.8686868686868685,2.835443037974684,anode,0.0227632263412592,0.0237883922475506,0.0215754205312708,8.691594140937185e-05,critical
1200,6.96969696969697,2.835443037974684,anode,0.0228537801759964,0.0239677032672123,0.0215465782818574,6.171832450323957e-05,critical
1200,7.070707070707071,2.835443037974684,anode,0.0230985695412436,0.0243756876303162,0.0215638182704253,-3.83287436965832e-05,critical
1200,7.171717171717171,2.835443037974684,anode,0.0231105301680873,0.0242500087497472,0.0217710618459411,-3.155229955103044e-05,critical
1200,7.272727272727272,2.835443037974684,anode,0.0231911140863331,0.024271890672807,0.0219323138577283,-7.171409716101296e-05,critical
1200,7.373737373737374,2.835443037974684,anode,0.0231813301330343,0.0242811323055737,0.0218972934702949,-9.98762456422158e-06,critical
1200,7.474747474747475,2.835443037974684,anode,0.0232358408620883,0.0244980689850748,0.021724627571988,1.7304747414124493e-05,critical
1200,7.575757575757575,2.835443037974684,anode,0.023259645354183,0.024393740660005,0.0219292982835799,1.8788388400141065e-06,critical
1200,7.6767676767676765,2.835443037974684,anode,0.0234738866856147,0.0246325237905546,0.0221117698986469,-1.2354025276807329e-05,critical
1200,7.777777777777778,2.835443037974684,anode,0.0235870348413218,0.0247143806866159,0.0222691467457229,1.7062044869006575e-05,critical
1200,7.878787878787879,2.835443037974684,anode,0.0236828863832999,0.024931084426141,0.0221974373371685,-5.678624198089974e-06,critical
1200,7.979797979797979,2.835443037974684,anode,0.0237140821418487,0.0248715641818411,0.0223560071665446,-1.6305834612634325e-05,critical
1200,8.080808080808081,2.835443037974684,anode,0.02380171280602,0.0248854373767799,0.0225448793342317,-3.713807854914588e-05,critical
1200,8.181818181818182,2.835443037974684,anode,0.0239881705623079,0.025049468293756,0.0227628719309499,4.4591818452825967e-05,critical
1200,8.282828282828282,2.835443037974684,anode,0.0241890884258095,0.025485891789333,0.0226404792928139,-3.0666382208458446e-05,critical
1200,8.383838383838384,2.835443037974684,anode,0.0241039278125847,0.0252296974616218,0.0227914106332647,0.0001059848040981,critical
1200,8.484848484848484,2.835443037974684,anode,0.024408490122858,0.0255663017053177,0.0230567842645498,-1.7729669035784224e-06,critical
1200,8.585858585858587,2.835443037974684,anode,0.024577016111126,0.0256380877854097,0.0233567976943587,2.4540938562551865e-05,critical
1200,8.686868686868687,2.835443037974684,anode,0.0246802049445248,0.02585815406963,0.0233009242748055,-0.0001344148026409,critical
1200,8.787878787878787,2.835443037974684,anode,0.0249462273931713,0.0261524830527052,0.0235328198507867,-5.760072413028982e-05,critical
1200,8.88888888888889,2.835443037974684,anode,0.0248968011867657,0.026160220815209,0.0234029517096381,8.52290267354065e-05,critical
1200,8.98989898989899,2.835443037974684,anode,0.025268533758716,0.0264960320792411,0.0238295104755641,1.813706457302305e-05,critical
1200,9.09090909090909,2.835443037974684,anode,0.0254783707845156,0.0267593672192713,0.0239669144617286,-5.8081080949118e-05,critical
1200,9.191919191919192,2.835443037974684,anode,0.0257240367979301,0.0270821801826196,0.0241064037818131,7.495158352647029e-05,critical
1200,9.292929292929292,2.835443037974684,anode,0.0258389544266745,0.0270717173147423,0.0243982447670935,2.3979783746629413e-05,critical
1200,9.393939393939394,2.835443037974684,anode,0.0260249284960133,0.0272526339677384,0.0245928621875474,-2.7361065035958272e-05,critical
1200,9.494949494949497,2.835443037974684,anode,0.0262474611962233,0.0275728061534083,0.0246828897850309,1.8861622704446625e-05,critical
1200,9.595959595959595,2.835443037974684,anode,0.026626550242775,0.0278844790269857,0.0251588798918935,2.6003191135396764e-05,critical
1200,9.696969696969695,2.835443037974684,anode,0.0268447230330303,0.0281419126133681,0.0253244755651845,-8.568326330904029e-05,critical
1200,9.797979797979798,2.835443037974684,anode,0.0271311238601487,0.0283940201033403,0.025659946325979,0.0001059727389405,critical
1200,9.8989898989899,2.835443037974684,anode,0.0272967807370387,0.0285800233180624,0.0257998673634916,8.974152276427172e-05,critical
1200,10.0,2.835443037974684,anode,0.0277120674013437,0.0290527014200166,0.0261413550150246,-4.381704611801137e-05,critical
1200,0.0,2.9367088607594938,anode,0.0277153377547393,0.0290999485236609,0.0260840403702489,2.0660851472000925e-06,critical
1200,0.101010101010101,2.9367088607594938,anode,0.0274000778004492,0.0287114706361765,0.0258666661964082,-2.1009650080852188e-05,critical
1200,0.202020202020202,2.9367088607594938,anode,0.0271196990640412,0.0284922663872373,0.025498610242992,3.1116268606941104e-05,critical
1200,0.303030303030303,2.9367088607594938,anode,0.0268206703195099,0.0282368516896765,0.0251346327600196,2.3780812717985124e-05,critical
1200,0.404040404040404,2.9367088607594938,anode,0.0265403297868604,0.0278638834941935,0.0249805962954817,8.028144715126895e-05,critical
1200,0.5050505050505051,2.9367088607594938,anode,0.0262496511724282,0.0275184668095651,0.0247627518010522,7.58461496747362e-05,critical
1200,0.6060606060606061,2.9367088607594938,anode,0.0261688365125454,0.0274696283713761,0.0246375965138669,-2.5689028426304368e-05,critical
1200,0.7070707070707071,2.9367088607594938,anode,0.0259228428366027,0.0272358295301636,0.0243719643385462,2.1531802653641785e-05,critical
1200,0.8080808080808081,2.9367088607594938,anode,0.0255993054026341,0.0267862511304525,0.0242188712733501,-8.751049770696424e-06,critical
1200,0.9090909090909092,2.9367088607594938,anode,0.0253606855737799,0.0266043812900979,0.0238992061045133,8.719375420839629e-05,critical
1200,1.0101010101010102,2.9367088607594938,anode,0.0252792551477573,0.0264971962623121,0.0238535320418757,4.481519982539519e-06,critical
1200,1.1111111111111112,2.9367088607594938,anode,0.0250596300149535,0.0262036265880403,0.023732536764097,8.948277786615238e-06,critical
1200,1.2121212121212122,2.9367088607594938,anode,0.0248257651472085,0.0260730753984151,0.0233546022076639,2.7168579318591347e-05,critical
1200,1.3131313131313131,2.9367088607594938,anode,0.0246201996145604,0.0256628728152378,0.023424685951801,2.0254366839215662e-06,critical
1200,1.414141414141414,2.9367088607594938,anode,0.0245634398236364,0.0257654711160368,0.0231503650215633,0.000120740486522,critical
1200,1.5151515151515151,2.9367088607594938,anode,0.024476453538507,0.0257089762768164,0.0230222375463945,4.23861825283139e-06,critical
1200,1.616161616161616,2.9367088607594938,anode,0.0241922058561548,0.025303003641898,0.0229021462214466,4.327657060874494e-05,critical
1200,1.7171717171717171,2.9367088607594938,anode,0.0242014579181209,0.0253050365859483,0.0229214776155738,1.1289098455396528e-05,critical
1200,1.818181818181818,2.9367088607594938,anode,0.0240212830434749,0.0252155190772561,0.0226153806940514,-3.0310133939671314e-05,critical
1200,1.9191919191919191,2.9367088607594938,anode,0.0239075702970849,0.0250395102559649,0.022586263862275,3.8790112731862114e-05,critical
1200,2.0202020202020203,2.9367088607594938,anode,0.0237565456925437,0.0248838072956097,0.0224404186232887,-9.352061532084208e-06,critical
1200,2.121212121212121,2.9367088607594938,anode,0.0236865604657103,0.0248349403976187,0.0223402845350034,-5.8320751647889774e-05,critical
1200,2.2222222222222223,2.9367088607594938,anode,0.0234293114930669,0.0246244311533795,0.0220152871409681,-6.077838707081462e-05,critical
1200,2.323232323232323,2.9367088607594938,anode,0.0234158358093171,0.0244879565226672,0.0221713458484567,-3.525359085423054e-05,critical
1200,2.4242424242424243,2.9367088607594938,anode,0.0234071044237869,0.024566668514182,0.0220428676634733,3.237170314843673e-05,critical
1200,2.525252525252525,2.9367088607594938,anode,0.0232551781190888,0.0244363216809275,0.0218590750866279,4.3661112866135086e-05,critical
1200,2.6262626262626263,2.9367088607594938,anode,0.0233973731930756,0.0246236073785736,0.0219395141722856,-3.0182450755735624e-05,critical
1200,2.727272727272727,2.9367088607594938,anode,0.0229145815208652,0.0239649392282831,0.0216941838605663,8.54761383701322e-05,critical
1200,2.8282828282828283,2.9367088607594938,anode,0.0230170942361343,0.0240607184896164,0.0218077402632031,1.6500694840844514e-05,critical
1200,2.929292929292929,2.9367088607594938,anode,0.0230233503089122,0.0241572950933015,0.0216898481630481,-7.810780928507971e-05,critical
1200,3.0303030303030303,2.9367088607594938,anode,0.0228014566380281,0.0238032640598651,0.0216463319405076,-1.542228868976226e-05,critical
1200,3.131313131313131,2.9367088607594938,anode,0.022857868541873,0.0238758251421024,0.0216816674438808,6.470279911047543e-06,critical
1200,3.2323232323232323,2.9367088607594938,anode,0.0227485948491686,0.0238543933453317,0.0214518077622085,-4.5788642061932487e-05,critical
1200,3.333333333333333,2.9367088607594938,anode,0.0226949919808146,0.0238738674040263,0.0212951224048832,-7.258694084174174e-05,critical
1200,3.4343434343434343,2.9367088607594938,anode,0.0227608056253682,0.0239389149492555,0.0213620322756764,-0.0001001242756636,critical
1200,3.5353535353535355,2.9367088607594938,anode,0.0227970473076695,0.0240072557422735,0.0213547476803596,-1.5033911548154656e-05,critical
1200,3.636363636363636,2.9367088607594938,anode,0.0226973655848764,0.0238241801539551,0.0213704810212658,7.205375876161271e-05,critical
1200,3.7373737373737375,2.9367088607594938,anode,0.0226777291576162,0.023713916481361,0.0214754928789945,-1.6482253355703122e-05,critical
1200,3.8383838383838382,2.9367088607594938,anode,0.0225081897411552,0.0235588009840733,0.0212847253453823,-3.905978680183533e-05,critical
1200,3.939393939393939,2.9367088607594938,anode,0.0225877096336808,0.0237445747361754,0.0212184618777333,2.9709349352431167e-06,critical
1200,4.040404040404041,2.9367088607594938,anode,0.0223845931816148,0.0234015868884224,0.0212056447924973,-2.6527225588277596e-05,critical
1200,4.141414141414141,2.9367088607594938,anode,0.0224546422353001,0.0235380800786804,0.0211859840116268,2.0114632849690103e-05,critical
1200,4.242424242424242,2.9367088607594938,anode,0.0224304409042821,0.0235542792990059,0.0211047900612977,7.430115331872794e-05,critical
1200,4.343434343434343,2.9367088607594938,anode,0.0224016855267872,0.0234679690346236,0.02115584041064,4.0694016281963727e-05,critical
1200,4.444444444444445,2.9367088607594938,anode,0.0224802172842224,0.0235757253389969,0.0211952293002999,-1.295215128649918e-05,critical
1200,4.545454545454545,2.9367088607594938,anode,0.0225982067013591,0.0237161672955019,0.0212831105712504,-4.230924834320819e-05,critical
1200,4.646464646464646,2.9367088607594938,anode,0.022425494443602,0.0234923106283921,0.0211786433088351,6.946767921379892e-05,critical
1200,4.747474747474747,2.9367088607594938,anode,0.0224978447056831,0.0235595082299147,0.0212594703307716,7.655980162989593e-06,critical
1200,4.848484848484849,2.9367088607594938,anode,0.0223863438634155,0.0234897065346595,0.021089180092711,4.903379183182222e-05,critical
1200,4.94949494949495,2.9367088607594938,anode,0.0224042100595493,0.0234232998923424,0.0212226661140436,1.794864829120933e-05,critical
1200,5.05050505050505,2.9367088607594938,anode,0.0222145088741527,0.0233040808308491,0.0209348887526293,3.158976734355767e-05,critical
1200,5.151515151515151,2.9367088607594938,anode,0.0224257158436098,0.0236660827232475,0.0209348604835814,-4.8360354978867127e-05,critical
1200,5.252525252525253,2.9367088607594938,anode,0.0224296527050575,0.0234782008632875,0.0212074506010518,-8.21151758378876e-05,critical
1200,5.353535353535354,2.9367088607594938,anode,0.0224904528333912,0.0235962275912053,0.0211911160979256,-4.285245065703966e-05,critical
1200,5.454545454545454,2.9367088607594938,anode,0.0223993979243473,0.0234697417794037,0.0211481251832067,-2.637287212230705e-05,critical
1200,5.555555555555555,2.9367088607594938,anode,0.0223970353553125,0.0234220669764997,0.0212074116800756,-1.895482527421444e-05,critical
1200,5.656565656565657,2.9367088607594938,anode,0.022417160411248,0.0233714251164443,0.0213217457834762,-5.263270610077326e-05,critical
1200,5.757575757575758,2.9367088607594938,anode,0.0225477902300734,0.023635860408833,0.0212733336747931,5.088065251794652e-05,critical
1200,5.858585858585858,2.9367088607594938,anode,0.0223535419776236,0.0233802570145428,0.0211613206550737,-3.859845763450777e-06,critical
1200,5.959595959595959,2.9367088607594938,anode,0.0225856778677941,0.0237830180739541,0.0211590653213982,-2.0686012415239828e-05,critical
1200,6.0606060606060606,2.9367088607594938,anode,0.0223869161102538,0.0235462266875065,0.021011862387786,-1.765988242195867e-05,critical
1200,6.161616161616162,2.9367088607594938,anode,0.0225670113007843,0.0236264044311174,0.0213320413291437,4.6408412905636325e-05,critical
1200,6.262626262626262,2.9367088607594938,anode,0.0227281286308903,0.0238879571468409,0.021354144458902,0.0001165283699873,critical
1200,6.363636363636363,2.9367088607594938,anode,0.022597173571926,0.0236275549161315,0.0214018944662703,3.764833162960089e-05,critical
1200,6.4646464646464645,2.9367088607594938,anode,0.0226734487298954,0.0239715365116211,0.0211009885476692,-8.585703639627381e-05,critical
1200,6.565656565656566,2.9367088607594938,anode,0.0226415922347918,0.0237596753445362,0.0213268525100197,3.642445865047324e-05,critical
1200,6.666666666666667,2.9367088607594938,anode,0.0226097485994935,0.0237552129954759,0.0212559059951669,-7.216167842873e-05,critical
1200,6.767676767676767,2.9367088607594938,anode,0.0227597540274923,0.0238820337340822,0.0214405973467358,-1.552036162266316e-05,critical
1200,6.8686868686868685,2.9367088607594938,anode,0.0227687647401023,0.0239492761966949,0.0213678355570808,5.35926990890865e-05,critical
1200,6.96969696969697,2.9367088607594938,anode,0.0228662908305236,0.0241270591110054,0.0213519652005887,-4.466021242372554e-05,critical
1200,7.070707070707071,2.9367088607594938,anode,0.0230433929476597,0.0240965103437924,0.0218211157810735,5.0977094443725305e-05,critical
1200,7.171717171717171,2.9367088607594938,anode,0.0231558946201045,0.0242415523422729,0.0218908785721219,-1.7414163561494758e-05,critical
1200,7.272727272727272,2.9367088607594938,anode,0.0231064790324049,0.0242521657287578,0.0217585127500572,1.9036025053089571e-06,critical
1200,7.373737373737374,2.9367088607594938,anode,0.0232414728701182,0.0244233811425242,0.0218435557543805,7.544190240905053e-05,critical
1200,7.474747474747475,2.9367088607594938,anode,0.0232251237771566,0.0243510418798335,0.0219057029978733,6.077856427575478e-07,critical
1200,7.575757575757575,2.9367088607594938,anode,0.023268571128864,0.0244181492516812,0.0219159406644549,7.883406489404828e-05,critical
1200,7.6767676767676765,2.9367088607594938,anode,0.0234130291845512,0.0245885149333513,0.0220263339367791,5.86606227227508e-05,critical
1200,7.777777777777778,2.9367088607594938,anode,0.0235287459474292,0.0246907323330067,0.0221615784820171,8.096147290177031e-05,critical
1200,7.878787878787879,2.9367088607594938,anode,0.0236423405924266,0.0248105387433909,0.022268602580161,3.056225399127431e-05,critical
1200,7.979797979797979,2.9367088607594938,anode,0.023822339003016,0.0249464489269759,0.0225111120476469,-1.48646419682165e-05,critical
1200,8.080808080808081,2.9367088607594938,anode,0.0237487296552458,0.024955567037841,0.0223224163584058,-6.320826641122765e-06,critical
1200,8.181818181818182,2.9367088607594938,anode,0.0239994346485912,0.0252700625607385,0.0224859247786722,1.5431238484578502e-05,critical
1200,8.282828282828282,2.9367088607594938,anode,0.0241586793734471,0.0252253673558641,0.0229278376612675,-2.4960220279671133e-06,critical
1200,8.383838383838384,2.9367088607594938,anode,0.0242038016025815,0.0253515763946483,0.0228636809538415,-3.66693721399462e-05,critical
1200,8.484848484848484,2.9367088607594938,anode,0.0242794578538414,0.0254729289784757,0.0228774055769973,1.6375532578089094e-05,critical
1200,8.585858585858587,2.9367088607594938,anode,0.0245374960886472,0.0257167130150285,0.0231575651899989,-3.172061374566861e-05,critical
1200,8.686868686868687,2.9367088607594938,anode,0.0246515183737281,0.0258424476533179,0.0232567464420586,9.217030627839708e-06,critical
1200,8.787878787878787,2.9367088607594938,anode,0.0249536820183201,0.0261061205823469,0.0236139280862305,-4.88835068692645e-05,critical
1200,8.88888888888889,2.9367088607594938,anode,0.0249717792808784,0.0261807658832412,0.0235549741006195,5.071374926709728e-05,critical
1200,8.98989898989899,2.9367088607594938,anode,0.0253686120617524,0.0265631638278145,0.0239756398133241,-2.7983186164195048e-05,critical
1200,9.09090909090909,2.9367088607594938,anode,0.025450665023726,0.0267165704112025,0.023960405983609,3.3791462354884764e-06,critical
1200,9.191919191919192,2.9367088607594938,anode,0.0255306138823532,0.0267491533843133,0.0241059628780615,6.242503674044903e-05,critical
1200,9.292929292929292,2.9367088607594938,anode,0.0258120867482454,0.0270691848955224,0.0243375490750032,-3.817603040395219e-05,critical
1200,9.393939393939394,2.9367088607594938,anode,0.0260967790474018,0.0273938288944101,0.024569667851543,-5.389475918257326e-05,critical
1200,9.494949494949497,2.9367088607594938,anode,0.0263315910347088,0.0276354186143458,0.0247978666956708,-2.279364220455798e-05,critical
1200,9.595959595959595,2.9367088607594938,anode,0.0265927441903804,0.0278922427401564,0.0250674795326259,-4.66632921057511e-05,critical
1200,9.696969696969695,2.9367088607594938,anode,0.0267619191459266,0.0279559685663564,0.0253817687673683,2.504628335088677e-05,critical
1200,9.797979797979798,2.9367088607594938,anode,0.0271459975404804,0.0284065347236139,0.0256769511895783,0.0001430042367577,critical
1200,9.8989898989899,2.9367088607594938,anode,0.0274609866079628,0.0288672293147594,0.0257957430647257,-8.190910514301253e-05,critical
1200,10.0,2.9367088607594938,anode,0.0277563005663632,0.0290865218654018,0.0262000263275288,-6.513061328384678e-05,critical
1200,0.0,3.037974683544304,anode-electrolyte interface,0.0218213835160404,0.0229528802411795,0.0204780080802807,7.856907096469785e-05,critical
1200,0.101010101010101,3.037974683544304,anode-electrolyte interface,0.0215867856912819,0.0227037175197187,0.0202618793610478,-4.746035659303775e-05,critical
1200,0.202020202020202,3.037974683544304,anode-electrolyte interface,0.0213501349366934,0.0223323978181421,0.0202082127444927,-7.800295772569122e-05,critical
1200,0.303030303030303,3.037974683544304,anode-electrolyte interface,0.0212042698363727,0.0221687894657152,0.0200860035452728,-1.5036628055480024e-05,critical
1200,0.404040404040404,3.037974683544304,anode-electrolyte interface,0.02093107189359,0.0219768645265013,0.0196986192525064,-4.2748936393359714e-05,critical
1200,0.5050505050505051,3.037974683544304,anode-electrolyte interface,0.0207510732185068,0.0218024866904314,0.0195089715283737,-3.019839877975183e-05,critical
1200,0.6060606060606061,3.037974683544304,anode-electrolyte interface,0.0206241759922685,0.0216228851939505,0.0194540062141438,-1.6895760654720624e-05,critical
1200,0.7070707070707071,3.037974683544304,anode-electrolyte interface,0.0203055266127982,0.0213922023289185,0.0190084085918442,-8.48321199987112e-06,critical
1200,0.8080808080808081,3.037974683544304,anode-electrolyte interface,0.0201357000589472,0.0210822122949673,0.019032319258707,-1.7891582018915097e-05,critical
1200,0.9090909090909092,3.037974683544304,anode-electrolyte interface,0.0198934377751725,0.0207632863414994,0.0188900338685948,8.288440375954177e-05,critical
1200,1.0101010101010102,3.037974683544304,anode-electrolyte interface,0.019867245010827,0.0208143377909973,0.018760297968713,4.149597629573643e-05,critical
1200,1.1111111111111112,3.037974683544304,anode-electrolyte interface,0.0198404596098298,0.0209191663984853,0.0185485296524545,-3.715149491209615e-05,critical
1200,1.2121212121212122,3.037974683544304,anode-electrolyte interface,0.019571537398488,0.0204215042985452,0.0185932029329707,-2.0138169971246444e-05,critical
1200,1.3131313131313131,3.037974683544304,anode-electrolyte interface,0.0193577997601901,0.0204492403638664,0.0180408398892437,-2.914016861052644e-05,critical
1200,1.414141414141414,3.037974683544304,anode-electrolyte interface,0.0192367605920588,0.0201982413881694,0.0181034511222844,4.80835776373745e-05,critical
1200,1.5151515151515151,3.037974683544304,anode-electrolyte interface,0.0192400416905367,0.0200654401762748,0.0182917084802186,-2.5152152393659712e-05,critical
1200,1.616161616161616,3.037974683544304,anode-electrolyte interface,0.0191617081590087,0.0200581757143544,0.0181165819623832,-7.23162691237059e-05,critical
1200,1.7171717171717171,3.037974683544304,anode-electrolyte interface,0.0189784743344948,0.0199719917434647,0.0177976632581368,1.396396442437637e-07,critical
1200,1.818181818181818,3.037974683544304,anode-electrolyte interface,0.0188177663763771,0.0198036337985435,0.0176457909434033,2.0523804200331934e-05,critical
1200,1.9191919191919191,3.037974683544304,anode-electrolyte interface,0.0187118408559256,0.0196674559387994,0.017581340973712,-1.6966873956098042e-05,critical
1200,2.0202020202020203,3.037974683544304,anode-electrolyte interface,0.018762239536485,0.0196879497327569,0.0176734566989998,5.574689055585996e-05,critical
1200,2.121212121212121,3.037974683544304,anode-electrolyte interface,0.0186385473785062,0.0195127367059758,0.0176179267646726,-0.0001019434531788,critical
1200,2.2222222222222223,3.037974683544304,anode-electrolyte interface,0.0185294199900506,0.0194903758842425,0.0173880396756797,8.197248468217572e-05,critical
1200,2.323232323232323,3.037974683544304,anode-electrolyte interface,0.0184962859327618,0.0194011065820596,0.0174342268371612,1.5103333221996468e-05,critical
1200,2.4242424242424243,3.037974683544304,anode-electrolyte interface,0.0184284986896732,0.0193944911540195,0.0172783845507144,9.341747544430895e-05,critical
1200,2.525252525252525,3.037974683544304,anode-electrolyte interface,0.0183180015116947,0.0191980069939834,0.0172879591549922,-4.6675710934372966e-05,critical
1200,2.6262626262626263,3.037974683544304,anode-electrolyte interface,0.0180972666011463,0.0189573420551315,0.0170927122642881,2.46382630185569e-05,critical
1200,2.727272727272727,3.037974683544304,anode-electrolyte interface,0.0182058394833532,0.0191022388172096,0.0171515910542681,-6.776475191904002e-05,critical
1200,2.8282828282828283,3.037974683544304,anode-electrolyte interface,0.0180806338518093,0.0189956116716348,0.0169986213558096,8.590679750716639e-05,critical
1200,2.929292929292929,3.037974683544304,anode-electrolyte interface,0.0180676054537734,0.0189280545221757,0.0170611252554793,-7.965111632208836e-05,critical
1200,3.0303030303030303,3.037974683544304,anode-electrolyte interface,0.0180406159939436,0.0188461068464776,0.0171092331899587,3.940635720077372e-05,critical
1200,3.131313131313131,3.037974683544304,anode-electrolyte interface,0.0179482287855019,0.018765387056584,0.0169997606059069,-6.926310772866748e-05,critical
1200,3.2323232323232323,3.037974683544304,anode-electrolyte interface,0.0179492735043358,0.0188592120387532,0.0168739543674362,4.354294509113096e-05,critical
1200,3.333333333333333,3.037974683544304,anode-electrolyte interface,0.0179253675254,0.0188339844215458,0.0168520150575753,-1.7602004974589935e-06,critical
1200,3.4343434343434343,3.037974683544304,anode-electrolyte interface,0.0177964306390236,0.0185395393905179,0.0169458983949469,-3.697326052554028e-05,critical
1200,3.5353535353535355,3.037974683544304,anode-electrolyte interface,0.0177358126187792,0.0185968105418304,0.0167253770773699,7.77116208032655e-05,critical
1200,3.636363636363636,3.037974683544304,anode-electrolyte interface,0.0177418610107818,0.0185234919286566,0.016839316720073,6.889277738738037e-05,critical
1200,3.7373737373737375,3.037974683544304,anode-electrolyte interface,0.0176683040517121,0.018587466559549,0.0165771209087863,-1.6308306059769532e-05,critical
1200,3.8383838383838382,3.037974683544304,anode-electrolyte interface,0.0176814810203103,0.0184718252570404,0.0167677273561119,-9.861302332806467e-06,critical
1200,3.939393939393939,3.037974683544304,anode-electrolyte interface,0.0176181715157259,0.018489963169522,0.0165918659198388,6.881040815995532e-05,critical
1200,4.040404040404041,3.037974683544304,anode-electrolyte interface,0.0175673493714017,0.0184180848652482,0.0165703875679333,3.148628343919332e-05,critical
1200,4.141414141414141,3.037974683544304,anode-electrolyte interface,0.0176505552384077,0.0184659470127015,0.0167027053397873,-2.4544202974209645e-05,critical
1200,4.242424242424242,3.037974683544304,anode-electrolyte interface,0.0177509022010121,0.0185834740783307,0.016778706515469,0.0001011358752699,critical
1200,4.343434343434343,3.037974683544304,anode-electrolyte interface,0.0176096586724526,0.0183711860335293,0.0167336098495182,2.68529566864625e-05,critical
1200,4.444444444444445,3.037974683544304,anode-electrolyte interface,0.0176235087793864,0.0185099915047718,0.0165776453258591,-2.5985837042415933e-05,critical
1200,4.545454545454545,3.037974683544304,anode-electrolyte interface,0.0176458150810692,0.0184897537407507,0.0166590432497377,-2.3676494815115685e-05,critical
1200,4.646464646464646,3.037974683544304,anode-electrolyte interface,0.0175832904761124,0.0184602491293155,0.0165502599941272,-2.660090395733893e-05,critical
1200,4.747474747474747,3.037974683544304,anode-electrolyte interface,0.0175077015028032,0.018420883990928,0.0164230566883335,1.893803965355172e-05,critical
1200,4.848484848484849,3.037974683544304,anode-electrolyte interface,0.0175255154968733,0.0183671850149219,0.0165407632325892,1.4356452505488793e-05,critical
1200,4.94949494949495,3.037974683544304,anode-electrolyte interface,0.0175673008284038,0.0183786966723537,0.0166241257061253,2.4326420128910103e-05,critical
1200,5.05050505050505,3.037974683544304,anode-electrolyte interface,0.017523637107242,0.0183369129972986,0.0165761719079847,-8.529591183870472e-05,critical
1200,5.151515151515151,3.037974683544304,anode-electrolyte interface,0.0175815791580289,0.0184797532900683,0.0165190153293452,5.900798218864144e-06,critical
1200,5.252525252525253,3.037974683544304,anode-electrolyte interface,0.0175096355686147,0.0183094160972868,0.0165816336887893,2.6299009824596543e-05,critical
1200,5.353535353535354,3.037974683544304,anode-electrolyte interface,0.0175055876863623,0.0183440594192681,0.0165249439782119,-2.49333821358984e-05,critical
1200,5.454545454545454,3.037974683544304,anode-electrolyte interface,0.0176746055804013,0.0185255865424092,0.0166785508845544,8.243938770114493e-06,critical
1200,5.555555555555555,3.037974683544304,anode-electrolyte interface,0.0175183030488205,0.01836934229458,0.0165193624456269,7.893671901870053e-05,critical
1200,5.656565656565657,3.037974683544304,anode-electrolyte interface,0.0176234775499116,0.0185126060415792,0.0165726706794098,-8.223624119360775e-05,critical
1200,5.757575757575758,3.037974683544304,anode-electrolyte interface,0.0176323671984598,0.0183641869827631,0.0167946351013497,7.541132632004966e-05,critical
1200,5.858585858585858,3.037974683544304,anode-electrolyte interface,0.0176739867971975,0.0184230900954993,0.0168142861081679,-5.9023090340528766e-05,critical
1200,5.959595959595959,3.037974683544304,anode-electrolyte interface,0.0176653003930469,0.018504975137609,0.0166846502491801,-8.509531284093213e-06,critical
1200,6.0606060606060606,3.037974683544304,anode-electrolyte interface,0.0176862265940212,0.0185050842326617,0.0167339367440351,3.0214324378279736e-05,critical
1200,6.161616161616162,3.037974683544304,anode-electrolyte interface,0.017717912719173,0.0186990253166069,0.016538508142291,2.951955346979156e-05,critical
1200,6.262626262626262,3.037974683544304,anode-electrolyte interface,0.017738980930825,0.0185609088751581,0.0167824838608886,5.91475331326936e-05,critical
1200,6.363636363636363,3.037974683544304,anode-electrolyte interface,0.0176121230555705,0.0184794929535707,0.0165928076056145,-1.444177338478132e-05,critical
1200,6.4646464646464645,3.037974683544304,anode-electrolyte interface,0.0178971477018099,0.0188077578097674,0.0168202965366337,-4.40832497142629e-05,critical
1200,6.565656565656566,3.037974683544304,anode-electrolyte interface,0.0177770791525714,0.0186806786498823,0.0167080956194937,-7.046101934831279e-05,critical
1200,6.666666666666667,3.037974683544304,anode-electrolyte interface,0.0179339379091787,0.0188697430592558,0.016822177722798,3.3831922185316806e-05,critical
1200,6.767676767676767,3.037974683544304,anode-electrolyte interface,0.0178771836266312,0.0187445528994432,0.0168603624447828,3.4472215102106006e-05,critical
1200,6.8686868686868685,3.037974683544304,anode-electrolyte interface,0.01803753361632,0.0187912725790792,0.0171737908631024,7.955403551322965e-05,critical
1200,6.96969696969697,3.037974683544304,anode-electrolyte interface,0.0180512455436182,0.0188354455412614,0.0171486214471815,7.411152251660888e-06,critical
1200,7.070707070707071,3.037974683544304,anode-electrolyte interface,0.0179747277905826,0.0187483800175034,0.0170854855570538,-1.218129355171638e-05,critical
1200,7.171717171717171,3.037974683544304,anode-electrolyte interface,0.0180892912283076,0.0189271983858787,0.0171149568824301,-4.226747761570326e-06,critical
1200,7.272727272727272,3.037974683544304,anode-electrolyte interface,0.018270644126414,0.0192161137724064,0.0171487619631911,-5.753940795464058e-05,critical
1200,7.373737373737374,3.037974683544304,anode-electrolyte interface,0.018283308175562,0.0191150288460427,0.0173189712492892,1.7319909241479035e-05,critical
1200,7.474747474747475,3.037974683544304,anode-electrolyte interface,0.0182656991414348,0.0191644896957616,0.0172096634131443,-8.527347410291231e-07,critical
1200,7.575757575757575,3.037974683544304,anode-electrolyte interface,0.018187596315585,0.0190724611704481,0.0171497713243852,3.4524523295099395e-05,critical
1200,7.6767676767676765,3.037974683544304,anode-electrolyte interface,0.0184618685845323,0.0193694535076696,0.0173956628762727,9.289041811284427e-06,critical
1200,7.777777777777778,3.037974683544304,anode-electrolyte interface,0.0184411269490118,0.0192949582940581,0.0174466897737674,9.29427642131982e-05,critical
1200,7.878787878787879,3.037974683544304,anode-electrolyte interface,0.0185229824993881,0.019373181806021,0.0175358059596462,-1.382871966552875e-05,critical
1200,7.979797979797979,3.037974683544304,anode-electrolyte interface,0.0187569953080138,0.0197032969023552,0.0176393898040726,-6.062449585061671e-05,critical
1200,8.080808080808081,3.037974683544304,anode-electrolyte interface,0.0186677807085115,0.0196127342622062,0.0175517037160637,-2.0727090218999023e-05,critical
1200,8.181818181818182,3.037974683544304,anode-electrolyte interface,0.0188046714716016,0.0197015773344675,0.0177545098573301,0.0001044803084912,critical
1200,8.282828282828282,3.037974683544304,anode-electrolyte interface,0.0188529462817751,0.0198184968978597,0.0177101259132816,9.657843267232756e-06,critical
1200,8.383838383838384,3.037974683544304,anode-electrolyte interface,0.0190886271733932,0.0200490007351642,0.017955586791271,-2.403224099487972e-05,critical
1200,8.484848484848484,3.037974683544304,anode-electrolyte interface,0.0191300856134311,0.0201022591133026,0.0179810314871975,-2.0123413865902107e-05,critical
1200,8.585858585858587,3.037974683544304,anode-electrolyte interface,0.0193371663540795,0.020339621320205,0.0181469992299322,-7.145753918187549e-05,critical
1200,8.686868686868687,3.037974683544304,anode-electrolyte interface,0.0195474438238727,0.0204490944339824,0.0184976944657245,-0.0001056681452917,critical
1200,8.787878787878787,3.037974683544304,anode-electrolyte interface,0.0194506911122108,0.0203140458185275,0.0184534171547884,-3.59820674696262e-05,critical
1200,8.88888888888889,3.037974683544304,anode-electrolyte interface,0.0197475021206583,0.0207168633705997,0.0186090004302882,-1.454249583784055e-05,critical
1200,8.98989898989899,3.037974683544304,anode-electrolyte interface,0.0197962125082368,0.0206805420749504,0.018773364978874,5.579982517476613e-05,critical
1200,9.09090909090909,3.037974683544304,anode-electrolyte interface,0.0200141718847811,0.020978891433263,0.0188847512944536,-1.2989252904304416e-05,critical
1200,9.191919191919192,3.037974683544304,anode-electrolyte interface,0.0201328060681134,0.0211238612902321,0.0189679453785338,-4.3434322460847146e-05,critical
1200,9.292929292929292,3.037974683544304,anode-electrolyte interface,0.0203628454045261,0.0213795610438442,0.0191634598082947,-9.662556551995011e-05,critical
1200,9.393939393939394,3.037974683544304,anode-electrolyte interface,0.0205215241533626,0.0214461201740656,0.019450976406074,3.819866712290079e-05,critical
1200,9.494949494949497,3.037974683544304,anode-electrolyte interface,0.0207539534932559,0.0217838799179659,0.0195416351613505,-4.5790450611129634e-05,critical
1200,9.595959595959595,3.037974683544304,anode-electrolyte interface,0.0208705033288745,0.0218958295156491,0.0196649782477184,-8.205827186452801e-05,critical
1200,9.696969696969695,3.037974683544304,anode-electrolyte interface,0.0211638047437663,0.0221465383214428,0.0200205109488749,2.328017205485865e-05,critical
1200,9.797979797979798,3.037974683544304,anode-electrolyte interface,0.021319468346076,0.0224447875903833,0.0199794343548736,-5.034452089964924e-05,critical
1200,9.8989898989899,3.037974683544304,anode-electrolyte interface,0.0217364213752692,0.0228729257434789,0.0203843193549542,9.971544351802954e-05,critical
1200,10.0,3.037974683544304,anode-electrolyte interface,0.0216547603537634,0.0227545786385343,0.020355039410268,-1.3070571617924684e-05,critical
1200,0.0,3.1392405063291138,anode-electrolyte interface,0.0217560991420825,0.0229592272088179,0.0203104259638633,-2.410576442581132e-06,critical
1200,0.101010101010101,3.1392405063291138,anode-electrolyte interface,0.0215012316988815,0.0225038201438155,0.0203339906059777,2.7910229633801647e-05,critical
1200,0.202020202020202,3.1392405063291138,anode-electrolyte interface,0.0213644240865856,0.0223092570561824,0.0202738149658933,-2.478215061662971e-05,critical
1200,0.303030303030303,3.1392405063291138,anode-electrolyte interface,0.0211017108946655,0.0221346089649161,0.0198887639329248,5.28214713593957e-05,critical
1200,0.404040404040404,3.1392405063291138,anode-electrolyte interface,0.0210191163418254,0.0222172309840558,0.0195701747808135,-2.042665242380592e-05,critical
1200,0.5050505050505051,3.1392405063291138,anode-electrolyte interface,0.0205788467741281,0.0215593662089695,0.0194332383665063,-8.413894104491798e-06,critical
1200,0.6060606060606061,3.1392405063291138,anode-electrolyte interface,0.0205699936613391,0.021580708225362,0.0193827548682816,4.57717269587145e-06,critical
1200,0.7070707070707071,3.1392405063291138,anode-electrolyte interface,0.0203095434234863,0.021326342425894,0.0191087386676205,0.0001158785127774,critical
1200,0.8080808080808081,3.1392405063291138,anode-electrolyte interface,0.0201203349677349,0.0210153640253521,0.0190860642182998,4.120723862996288e-05,critical
1200,0.9090909090909092,3.1392405063291138,anode-electrolyte interface,0.0198363600004508,0.0208229115176895,0.0186749454281388,-1.5094124779699997e-05,critical
1200,1.0101010101010102,3.1392405063291138,anode-electrolyte interface,0.0198260387385744,0.0207946067206184,0.0186891783125732,4.029201981002546e-05,critical
1200,1.1111111111111112,3.1392405063291138,anode-electrolyte interface,0.0197413388461659,0.0206457396344953,0.0186900836347142,9.177614143252008e-05,critical
1200,1.2121212121212122,3.1392405063291138,anode-electrolyte interface,0.0195214470648437,0.0204737433424964,0.0184038430196072,4.778305057669558e-05,critical
1200,1.3131313131313131,3.1392405063291138,anode-electrolyte interface,0.0194472333553801,0.0203659355307701,0.0183745050659843,-7.095608709854566e-05,critical
1200,1.414141414141414,3.1392405063291138,anode-electrolyte interface,0.0193160463376317,0.0203102677869022,0.018138204207101,-6.590645333439645e-07,critical
1200,1.5151515151515151,3.1392405063291138,anode-electrolyte interface,0.0191048329951557,0.0201390866655145,0.0178670367953752,4.701305632366876e-05,critical
1200,1.616161616161616,3.1392405063291138,anode-electrolyte interface,0.0189972671290444,0.0197990802461633,0.0180783790138894,-4.78974497102825e-06,critical
1200,1.7171717171717171,3.1392405063291138,anode-electrolyte interface,0.0188480710081354,0.0198680234915808,0.0176274468163104,4.854361236210389e-05,critical
1200,1.818181818181818,3.1392405063291138,anode-electrolyte interface,0.0187960518154205,0.0196642244920445,0.0177868287040265,3.03109748483987e-05,critical
1200,1.9191919191919191,3.1392405063291138,anode-electrolyte interface,0.0186771012464685,0.0196293719563375,0.0175504988401909,4.874349331631488e-05,critical
1200,2.0202020202020203,3.1392405063291138,anode-electrolyte interface,0.0186570303478476,0.019643559101956,0.0174821592602734,2.0844390875714444e-05,critical
1200,2.121212121212121,3.1392405063291138,anode-electrolyte interface,0.01871873517169,0.019716836111191,0.017527641091181,-5.429788711394143e-05,critical
1200,2.2222222222222223,3.1392405063291138,anode-electrolyte interface,0.0183654854063843,0.0192269356492009,0.0173616781280046,3.926201581240886e-07,critical
1200,2.323232323232323,3.1392405063291138,anode-electrolyte interface,0.0185697389048872,0.0195130589667608,0.0174547651723568,-3.0373192332086074e-05,critical
1200,2.4242424242424243,3.1392405063291138,anode-electrolyte interface,0.0184249875132297,0.0193574554677581,0.0173230111718317,-6.267360750717472e-05,critical
1200,2.525252525252525,3.1392405063291138,anode-electrolyte interface,0.0182722633006621,0.019113292201229,0.0172953129753681,-7.89626801766895e-06,critical
1200,2.6262626262626263,3.1392405063291138,anode-electrolyte interface,0.0182588043648062,0.0191426993069095,0.0172228395851978,-4.631806932280756e-05,critical
1200,2.727272727272727,3.1392405063291138,anode-electrolyte interface,0.0181774676588223,0.0189811265101445,0.0172499394930688,-3.5678734553431404e-06,critical
1200,2.8282828282828283,3.1392405063291138,anode-electrolyte interface,0.0182355461375707,0.0191524301017764,0.0171540224519004,9.896566141532044e-06,critical
1200,2.929292929292929,3.1392405063291138,anode-electrolyte interface,0.0180769898633403,0.0190048007725634,0.016977760655409,5.6897751689586885e-05,critical
1200,3.0303030303030303,3.1392405063291138,anode-electrolyte interface,0.0180266654745814,0.0189322953822637,0.016958525422313,-1.90414880631612e-05,critical
1200,3.131313131313131,3.1392405063291138,anode-electrolyte interface,0.0179047935189396,0.0188039649739744,0.0168434376874973,6.964528655882794e-05,critical
1200,3.2323232323232323,3.1392405063291138,anode-electrolyte interface,0.0178276682013097,0.0187433488124493,0.0167419826291051,8.055364024323804e-05,critical
1200,3.333333333333333,3.1392405063291138,anode-electrolyte interface,0.0178852146433195,0.0187530169917338,0.0168667909200711,8.13169192628203e-05,critical
1200,3.4343434343434343,3.1392405063291138,anode-electrolyte interface,0.0178600627643003,0.0188701572312803,0.0166397797916443,6.323885751935413e-05,critical
1200,3.5353535353535355,3.1392405063291138,anode-electrolyte interface,0.0178037091897138,0.018745408419052,0.0166822006169892,-1.379110080633924e-05,critical
1200,3.636363636363636,3.1392405063291138,anode-electrolyte interface,0.0176422655986684,0.0184843416610784,0.0166573882285761,-6.033631079295051e-05,critical
1200,3.7373737373737375,3.1392405063291138,anode-electrolyte interface,0.0176866448274284,0.0184468514151136,0.0168125386515113,-5.171920031700489e-05,critical
1200,3.8383838383838382,3.1392405063291138,anode-electrolyte interface,0.0176664790967772,0.0185578876371516,0.0166141932448094,2.7106991402950228e-05,critical
1200,3.939393939393939,3.1392405063291138,anode-electrolyte interface,0.017693918936189,0.0184629448048829,0.0168081594670432,5.270134219607127e-05,critical
1200,4.040404040404041,3.1392405063291138,anode-electrolyte interface,0.017627463348948,0.0184818432693428,0.0166256843623911,5.4300397091048586e-05,critical
1200,4.141414141414141,3.1392405063291138,anode-electrolyte interface,0.0176281900500117,0.0183772606906367,0.0167688871880869,-1.6091690441393148e-06,critical
1200,4.242424242424242,3.1392405063291138,anode-electrolyte interface,0.017566132877651,0.0183424833726331,0.016669472157582,5.927863186605451e-05,critical
1200,4.343434343434343,3.1392405063291138,anode-electrolyte interface,0.0175584006931509,0.018256579561613,0.016764665278565,-4.539159741410128e-05,critical
1200,4.444444444444445,3.1392405063291138,anode-electrolyte interface,0.0176551415275537,0.018505261817243,0.0166599299707305,-2.832412927192343e-05,critical
1200,4.545454545454545,3.1392405063291138,anode-electrolyte interface,0.0176031460979788,0.0185135263034899,0.0165225839336033,7.213129277484758e-05,critical
1200,4.646464646464646,3.1392405063291138,anode-electrolyte interface,0.0175346126844835,0.0183674531566145,0.0165612854060048,-6.262625485603542e-05,critical
1200,4.747474747474747,3.1392405063291138,anode-electrolyte interface,0.0176272089112244,0.0184720955995484,0.0166390705897226,-1.8878833892149155e-06,critical
1200,4.848484848484849,3.1392405063291138,anode-electrolyte interface,0.0177177487543246,0.0185501304093643,0.0167468967427259,5.730251638024868e-05,critical
1200,4.94949494949495,3.1392405063291138,anode-electrolyte interface,0.0176282279990328,0.0184624822817241,0.0166534947382169,-7.55753932771742e-05,critical
1200,5.05050505050505,3.1392405063291138,anode-electrolyte interface,0.0175771985465972,0.0183027523502906,0.0167471688205234,7.913098395981567e-05,critical
1200,5.151515151515151,3.1392405063291138,anode-electrolyte interface,0.0176226891249491,0.0184286270540099,0.0166867122830074,-6.247000360961931e-05,critical
1200,5.252525252525253,3.1392405063291138,anode-electrolyte interface,0.0174957094657415,0.0183081451686883,0.0165505878109965,9.618960678732816e-06,critical
1200,5.353535353535354,3.1392405063291138,anode-electrolyte interface,0.0175816238577841,0.0183889466591495,0.0166432356494218,-6.932521004895794e-05,critical
1200,5.454545454545454,3.1392405063291138,anode-electrolyte interface,0.0175765164989146,0.0185392941140089,0.0164199961913014,9.551581017863749e-05,critical
1200,5.555555555555555,3.1392405063291138,anode-electrolyte interface,0.0176089282998029,0.0184032889639736,0.0166890367914418,-2.903304600267746e-05,critical
1200,5.656565656565657,3.1392405063291138,anode-electrolyte interface,0.0176134767677274,0.0185857428695001,0.0164454737308185,-2.8668991205091378e-05,critical
1200,5.757575757575758,3.1392405063291138,anode-electrolyte interface,0.0176602277384793,0.0185187293368169,0.0166530467062004,-5.659066847354196e-05,critical
1200,5.858585858585858,3.1392405063291138,anode-electrolyte interface,0.0176847221485316,0.0186297884224316,0.0165566716705586,3.783385473373933e-05,critical
1200,5.959595959595959,3.1392405063291138,anode-electrolyte interface,0.0176887321859263,0.0185048473444899,0.0167402619785887,-2.230404537798196e-05,critical
1200,6.0606060606060606,3.1392405063291138,anode-electrolyte interface,0.0177311329231285,0.0185989793951302,0.016710985624202,8.421591642469892e-05,critical
1200,6.161616161616162,3.1392405063291138,anode-electrolyte interface,0.0177596109809843,0.0184991123462699,0.0169118121833152,0.0001012370657032,critical
1200,6.262626262626262,3.1392405063291138,anode-electrolyte interface,0.0177220337768071,0.0185491146182575,0.0167590001641087,2.126417873285713e-05,critical
1200,6.363636363636363,3.1392405063291138,anode-electrolyte interface,0.0177500030518704,0.0186406488578743,0.016699840168748,-2.113872004404388e-06,critical
1200,6.4646464646464645,3.1392405063291138,anode-electrolyte interface,0.0178075571987214,0.0187051045907424,0.0167483770441163,7.44666875359092e-06,critical
1200,6.565656565656566,3.1392405063291138,anode-electrolyte interface,0.0178985150737885,0.0187697317625534,0.0168762979428336,-5.216858907508747e-05,critical
1200,6.666666666666667,3.1392405063291138,anode-electrolyte interface,0.0178087314653467,0.018697552123458,0.0167617353872027,-6.024578312152955e-06,critical
1200,6.767676767676767,3.1392405063291138,anode-electrolyte interface,0.0179935363812525,0.0188848612355891,0.0169450206154584,1.5182027318880276e-06,critical
1200,6.8686868686868685,3.1392405063291138,anode-electrolyte interface,0.0179154179753262,0.0187194527567139,0.0169852161732855,1.4977593816312502e-05,critical
1200,6.96969696969697,3.1392405063291138,anode-electrolyte interface,0.0180687063719339,0.0189578205677535,0.0170238495831205,3.066168368539087e-05,critical
1200,7.070707070707071,3.1392405063291138,anode-electrolyte interface,0.0179259185102674,0.0187903619093014,0.0169126844129868,7.620297185357698e-05,critical
1200,7.171717171717171,3.1392405063291138,anode-electrolyte interface,0.017986823143421,0.0187521015048784,0.0171076482794975,-7.577012459618524e-05,critical
1200,7.272727272727272,3.1392405063291138,anode-electrolyte interface,0.0181682725912211,0.0190548926490515,0.0171280320573062,1.3229605829311524e-05,critical
1200,7.373737373737374,3.1392405063291138,anode-electrolyte interface,0.01817001586607,0.0190413657773515,0.0171507925493443,-1.5222124672468503e-05,critical
1200,7.474747474747475,3.1392405063291138,anode-electrolyte interface,0.0182575628086297,0.0191918273591265,0.0171506240877638,8.22036544154504e-05,critical
1200,7.575757575757575,3.1392405063291138,anode-electrolyte interface,0.0183981607369007,0.0193206593289162,0.0173105450143341,1.4328565048630384e-05,critical
1200,7.6767676767676765,3.1392405063291138,anode-electrolyte interface,0.0185100207965872,0.0193613620094292,0.0175211101005775,-2.440858942063011e-05,critical
1200,7.777777777777778,3.1392405063291138,anode-electrolyte interface,0.0184574092314863,0.0193088280741492,0.0174671199632613,-6.940329409944643e-05,critical
1200,7.878787878787879,3.1392405063291138,anode-electrolyte interface,0.0185472921290303,0.0194011995781932,0.0175546634367568,6.00575652487134e-05,critical
1200,7.979797979797979,3.1392405063291138,anode-electrolyte interface,0.0185930413881266,0.0195094170732418,0.0175159547595969,2.0242065573252357e-05,critical
1200,8.080808080808081,3.1392405063291138,anode-electrolyte interface,0.0186942650145787,0.0194755790704308,0.0178001340799965,1.3035593414574904e-05,critical
1200,8.181818181818182,3.1392405063291138,anode-electrolyte interface,0.0188388111254474,0.0197428033904635,0.0177813376630709,1.051838412289915e-06,critical
1200,8.282828282828282,3.1392405063291138,anode-electrolyte interface,0.0189225266780714,0.0198864384343498,0.0177828068948284,4.309846068442604e-06,critical
1200,8.383838383838384,3.1392405063291138,anode-electrolyte interface,0.019044000689298,0.0199884734020351,0.0179322951341561,4.7919579032820335e-05,critical
1200,8.484848484848484,3.1392405063291138,anode-electrolyte interface,0.019247270000067,0.0202132583976987,0.0181081580047272,1.895551884555409e-05,critical
1200,8.585858585858587,3.1392405063291138,anode-electrolyte interface,0.0193677742886353,0.0203714522219979,0.0181771889941068,-7.1334557284009895e-06,critical
1200,8.686868686868687,3.1392405063291138,anode-electrolyte interface,0.019332144881228,0.0203334161635463,0.0181442098667393,-4.254926429949851e-05,critical
1200,8.787878787878787,3.1392405063291138,anode-electrolyte interface,0.0195142919235125,0.0204255246086012,0.0184525376297595,6.364015921371049e-05,critical
1200,8.88888888888889,3.1392405063291138,anode-electrolyte interface,0.0196427378223145,0.0206465815144823,0.0184545105743266,-5.6027572965265786e-05,critical
1200,8.98989898989899,3.1392405063291138,anode-electrolyte interface,0.0199218069133166,0.0209104601642564,0.0187584123730191,3.929588240202498e-06,critical
1200,9.09090909090909,3.1392405063291138,anode-electrolyte interface,0.019960126807377,0.0208826571860546,0.018887500386842,4.006591747976613e-05,critical
1200,9.191919191919192,3.1392405063291138,anode-electrolyte interface,0.0201666859264204,0.0209916560420616,0.0192254389713255,2.514206442447541e-05,critical
1200,9.292929292929292,3.1392405063291138,anode-electrolyte interface,0.0202792805895824,0.0213989610286219,0.0189343178752031,-2.8891928741211727e-06,critical
1200,9.393939393939394,3.1392405063291138,anode-electrolyte interface,0.0205859792435936,0.0215814638760168,0.0194190676634977,6.994462582933693e-05,critical
1200,9.494949494949497,3.1392405063291138,anode-electrolyte interface,0.02063258872648,0.0215770730815254,0.0195360593391146,4.830588047974316e-05,critical
1200,9.595959595959595,3.1392405063291138,anode-electrolyte interface,0.0208801952964068,0.0217996257206198,0.0198189951978991,6.577962094657664e-05,critical
1200,9.696969696969695,3.1392405063291138,anode-electrolyte interface,0.0210326517673071,0.0219842446848979,0.0199302315364147,2.8187629993425164e-05,critical
1200,9.797979797979798,3.1392405063291138,anode-electrolyte interface,0.0212898215125326,0.0222512107302409,0.0201752572861932,8.75898048269192e-05,critical
1200,9.8989898989899,3.1392405063291138,anode-electrolyte interface,0.0213920629743413,0.0224103088298627,0.0202024010734651,-3.3933642708663635e-05,critical
1200,10.0,3.1392405063291138,anode-electrolyte interface,0.0219198147578967,0.0229646693456633,0.0206988032587897,-3.139643196974404e-05,critical
1200,0.0,3.240506329113924,anode-electrolyte interface,0.0219002369550355,0.0229787641591129,0.0206325847275314,3.882574175653933e-05,critical
1200,0.101010101010101,3.240506329113924,anode-electrolyte interface,0.021682006876049,0.022766218205209,0.0204040646561178,4.569664168011622e-05,critical
1200,0.202020202020202,3.240506329113924,anode-electrolyte interface,0.0214239578525717,0.0224749040581012,0.0201892157986599,-6.030800454632385e-05,critical
1200,0.303030303030303,3.240506329113924,anode-electrolyte interface,0.021209599414167,0.0222494637149377,0.0199885454770923,-1.768920821806509e-05,critical
1200,0.404040404040404,3.240506329113924,anode-electrolyte interface,0.0209348115930058,0.0219291190283149,0.0197734846460811,3.863692669612909e-05,critical
1200,0.5050505050505051,3.240506329113924,anode-electrolyte interface,0.0207794517682933,0.0217798689735236,0.0196078171450054,6.35567201604943e-05,critical
1200,0.6060606060606061,3.240506329113924,anode-electrolyte interface,0.0205309966459748,0.0214955632603017,0.0194060357593253,-6.3321411429035e-05,critical
1200,0.7070707070707071,3.240506329113924,anode-electrolyte interface,0.0202880282985415,0.021245618785666,0.0191702771468812,6.493341856928615e-05,critical
1200,0.8080808080808081,3.240506329113924,anode-electrolyte interface,0.0201573069408159,0.0210586893329322,0.0191149781260058,2.957413837526578e-05,critical
1200,0.9090909090909092,3.240506329113924,anode-electrolyte interface,0.0199520185923072,0.020888420789819,0.0188605620545138,-3.405060077028999e-05,critical
1200,1.0101010101010102,3.240506329113924,anode-electrolyte interface,0.0197993431711849,0.0207801850939111,0.0186454427098879,-1.927256093665333e-05,critical
1200,1.1111111111111112,3.240506329113924,anode-electrolyte interface,0.019722237513077,0.0206674105942542,0.018616647511967,-3.227632892702253e-05,critical
1200,1.2121212121212122,3.240506329113924,anode-electrolyte interface,0.0196189628722003,0.0204619054781609,0.0186491137345628,8.384069620599883e-05,critical
1200,1.3131313131313131,3.240506329113924,anode-electrolyte interface,0.0194152762560464,0.0203697784713358,0.0182931729143951,-6.527290252800281e-05,critical
1200,1.414141414141414,3.240506329113924,anode-electrolyte interface,0.0192612406838947,0.0201555038648303,0.0182209786051878,-4.030160118920388e-08,critical
1200,1.5151515151515151,3.240506329113924,anode-electrolyte interface,0.0191443546957809,0.0199490070942682,0.0182226607354277,-2.6183198784268265e-05,critical
1200,1.616161616161616,3.240506329113924,anode-electrolyte interface,0.0189794221918558,0.0198414097703264,0.017980220103704,-2.2545681873629167e-05,critical
1200,1.7171717171717171,3.240506329113924,anode-electrolyte interface,0.0188975691875115,0.0197237434769491,0.0179433389964032,-0.0001132336779168,critical
1200,1.818181818181818,3.240506329113924,anode-electrolyte interface,0.0187570963080815,0.0196110429488751,0.0177669207970925,3.086470871139008e-06,critical
1200,1.9191919191919191,3.240506329113924,anode-electrolyte interface,0.0187098981783529,0.0194962861325171,0.0178092476687556,9.506487781796656e-07,critical
1200,2.0202020202020203,3.240506329113924,anode-electrolyte interface,0.018623453222752,0.0194732932739965,0.0176375039485094,-2.944193077416519e-05,critical
1200,2.121212121212121,3.240506329113924,anode-electrolyte interface,0.0185552669503967,0.0195946404251293,0.0173029896497698,-1.1659864275329098e-05,critical
1200,2.2222222222222223,3.240506329113924,anode-electrolyte interface,0.0185854406223025,0.0195282829169045,0.0174713558582819,-2.629358725066736e-05,critical
1200,2.323232323232323,3.240506329113924,anode-electrolyte interface,0.0182344159870036,0.0190084442268589,0.017346553925535,-1.8656470937834125e-05,critical
1200,2.4242424242424243,3.240506329113924,anode-electrolyte interface,0.0184327192317315,0.0193177925209363,0.0173972620307411,-9.255369362852208e-07,critical
1200,2.525252525252525,3.240506329113924,anode-electrolyte interface,0.018184785461645,0.0190770726701188,0.0171365260278738,4.452964629462374e-05,critical
1200,2.6262626262626263,3.240506329113924,anode-electrolyte interface,0.0181929454890795,0.0190584649716457,0.0171817761994293,3.175412504834415e-05,critical
1200,2.727272727272727,3.240506329113924,anode-electrolyte interface,0.0181202388892437,0.0189947952452036,0.0170954412123197,6.0844628911232624e-05,critical
1200,2.8282828282828283,3.240506329113924,anode-electrolyte interface,0.0180239816051611,0.0189170365861968,0.0169725281753992,-6.548152218263587e-05,critical
1200,2.929292929292929,3.240506329113924,anode-electrolyte interface,0.0181153857150086,0.0190243650752806,0.0170436065475485,8.363306329879234e-07,critical
1200,3.0303030303030303,3.240506329113924,anode-electrolyte interface,0.0180835296185723,0.0189676464206014,0.0170456769172448,-3.513748162376582e-05,critical
1200,3.131313131313131,3.240506329113924,anode-electrolyte interface,0.0179665529755981,0.0188584416323676,0.0169158212676747,-7.577137465038075e-05,critical
1200,3.2323232323232323,3.240506329113924,anode-electrolyte interface,0.0179053432882001,0.0188361069118161,0.0168004920990792,-2.3980916588694973e-05,critical
1200,3.333333333333333,3.240506329113924,anode-electrolyte interface,0.0178249041698324,0.0186640975527639,0.0168460223620864,4.4745661725930926e-05,critical
1200,3.4343434343434343,3.240506329113924,anode-electrolyte interface,0.0178424221179873,0.0186640471751016,0.0168878478901027,2.2755435952049327e-05,critical
1200,3.5353535353535355,3.240506329113924,anode-electrolyte interface,0.0177745811903317,0.0185193294384153,0.0169219640043373,1.564204141958826e-05,critical
1200,3.636363636363636,3.240506329113924,anode-electrolyte interface,0.017739493412486,0.0185646064535526,0.0167792420023783,2.6305544705025608e-05,critical
1200,3.7373737373737375,3.240506329113924,anode-electrolyte interface,0.0177381763382237,0.0185890036054052,0.0167429560341218,-6.784468720586792e-06,critical
1200,3.8383838383838382,3.240506329113924,anode-electrolyte interface,0.0175436279434239,0.0183648885840696,0.0165867590122241,3.243153149449929e-05,critical
1200,3.939393939393939,3.240506329113924,anode-electrolyte interface,0.0177315114314934,0.0185731554710207,0.0167487326659793,-1.969201045773589e-05,critical
1200,4.040404040404041,3.240506329113924,anode-electrolyte interface,0.0176258095733549,0.0183995532064956,0.0167332828218484,-5.09199419908868e-05,critical
1200,4.141414141414141,3.240506329113924,anode-electrolyte interface,0.0176422269412107,0.018546422747235,0.0165698111015372,-0.000100757657005,critical
1200,4.242424242424242,3.240506329113924,anode-electrolyte interface,0.0176393733841564,0.0185296607437922,0.0165882980761057,3.1982865526466063e-05,critical
1200,4.343434343434343,3.240506329113924,anode-electrolyte interface,0.0176523297501166,0.0185375070691217,0.0166087288488304,-6.626700064027296e-06,critical
1200,4.444444444444445,3.240506329113924,anode-electrolyte interface,0.0176499481133296,0.018494324856638,0.0166609028438017,9.501320595860714e-05,critical
1200,4.545454545454545,3.240506329113924,anode-electrolyte interface,0.0176142092863268,0.0184802880895639,0.0165967222681658,1.0641440995963856e-05,critical
1200,4.646464646464646,3.240506329113924,anode-electrolyte interface,0.017516794873245,0.01827806859584,0.016638592486796,9.812561223961114e-05,critical
1200,4.747474747474747,3.240506329113924,anode-electrolyte interface,0.0175800690675456,0.0184384643199512,0.0165725387472647,4.076679375277372e-05,critical
1200,4.848484848484849,3.240506329113924,anode-electrolyte interface,0.017544605418086,0.0184276735810158,0.016502218708787,-5.260888164389852e-05,critical
1200,4.94949494949495,3.240506329113924,anode-electrolyte interface,0.017658471594653,0.0185813997104324,0.0165615280165365,4.229069470854792e-05,critical
1200,5.05050505050505,3.240506329113924,anode-electrolyte interface,0.0176109936612951,0.0183568596625153,0.0167557605719345,-1.2028890326830113e-05,critical
1200,5.151515151515151,3.240506329113924,anode-electrolyte interface,0.0175395156948777,0.0182885856414295,0.0166780166549727,-8.82088942392275e-05,critical
1200,5.252525252525253,3.240506329113924,anode-electrolyte interface,0.0176202779433766,0.0185379297867393,0.0165306526936293,-1.7837318985452116e-05,critical
1200,5.353535353535354,3.240506329113924,anode-electrolyte interface,0.0174637826422358,0.0182990123690836,0.0164867789717225,-5.080012745827531e-05,critical
1200,5.454545454545454,3.240506329113924,anode-electrolyte interface,0.0175574312120554,0.0183586695777329,0.0166279033920661,2.348780680466744e-05,critical
1200,5.555555555555555,3.240506329113924,anode-electrolyte interface,0.0175974434312164,0.0184098872433108,0.0166532239933185,-7.606716242679176e-06,critical
1200,5.656565656565657,3.240506329113924,anode-electrolyte interface,0.017738926723057,0.0185824398321225,0.0167534018690574,-4.106580298796855e-05,critical
1200,5.757575757575758,3.240506329113924,anode-electrolyte interface,0.0175514075522855,0.0183801495167614,0.0165826444073578,9.899302596316926e-05,critical
1200,5.858585858585858,3.240506329113924,anode-electrolyte interface,0.0176197544682487,0.0183967444209918,0.0167222122232106,-7.621245736655539e-05,critical
1200,5.959595959595959,3.240506329113924,anode-electrolyte interface,0.0177107882111289,0.0185012529295916,0.0167969524383429,-3.0074279654967248e-05,critical
1200,6.0606060606060606,3.240506329113924,anode-electrolyte interface,0.0176276548057049,0.018438641170415,0.0166855717408575,-2.374497388070372e-05,critical
1200,6.161616161616162,3.240506329113924,anode-electrolyte interface,0.0176764746321538,0.0184151092273067,0.0168299780304285,-8.006411253361057e-05,critical
1200,6.262626262626262,3.240506329113924,anode-electrolyte interface,0.0176473423972025,0.0184931035204272,0.0166581715624444,-1.1933543087298623e-05,critical
1200,6.363636363636363,3.240506329113924,anode-electrolyte interface,0.0177743146223725,0.0186810933001146,0.0167004170191246,8.3931082684597e-05,critical
1200,6.4646464646464645,3.240506329113924,anode-electrolyte interface,0.0177650651075464,0.0186129560991246,0.0167739938478517,2.6739588044564027e-05,critical
1200,6.565656565656566,3.240506329113924,anode-electrolyte interface,0.0179057491441484,0.0188305120901455,0.0168081350891017,8.175710099603472e-05,critical
1200,6.666666666666667,3.240506329113924,anode-electrolyte interface,0.0178122849967771,0.018620607617596,0.0168754809765141,-1.0331039373407964e-05,critical
1200,6.767676767676767,3.240506329113924,anode-electrolyte interface,0.0178682677498284,0.0187385697392404,0.0168468420870456,5.9535802684414025e-05,critical
1200,6.8686868686868685,3.240506329113924,anode-electrolyte interface,0.017980935875654,0.0188826703332894,0.0169175262006501,3.7387166563211865e-05,critical
1200,6.96969696969697,3.240506329113924,anode-electrolyte interface,0.0180952923850279,0.0190925603372652,0.016896128659505,-9.1174716496239e-05,critical
1200,7.070707070707071,3.240506329113924,anode-electrolyte interface,0.0180261201469235,0.018951930603299,0.016929067817938,5.920371277668065e-05,critical
1200,7.171717171717171,3.240506329113924,anode-electrolyte interface,0.0181506250814666,0.0190203084493308,0.0171333009470177,3.523618731199457e-05,critical
1200,7.272727272727272,3.240506329113924,anode-electrolyte interface,0.0180855058705994,0.0189882679028957,0.0170211653205311,-6.728769133755602e-05,critical
1200,7.373737373737374,3.240506329113924,anode-electrolyte interface,0.0182763626678703,0.0191642410497068,0.0172350936637724,-4.5946505340100965e-05,critical
1200,7.474747474747475,3.240506329113924,anode-electrolyte interface,0.0182251028399264,0.0192348839963579,0.0170112348141834,-1.4486256519951685e-05,critical
1200,7.575757575757575,3.240506329113924,anode-electrolyte interface,0.0183978877927458,0.0193550197360388,0.0172614263001472,3.603261544008725e-05,critical
1200,7.6767676767676765,3.240506329113924,anode-electrolyte interface,0.018427304220313,0.0192771730505569,0.0174381479448495,-9.189101237924968e-05,critical
1200,7.777777777777778,3.240506329113924,anode-electrolyte interface,0.0184249668972576,0.0193644720690085,0.0173138983779089,-4.12947701254467e-06,critical
1200,7.878787878787879,3.240506329113924,anode-electrolyte interface,0.0185104742674076,0.0194303589902629,0.0174275021042282,-3.4639619447316376e-05,critical
1200,7.979797979797979,3.240506329113924,anode-electrolyte interface,0.018546779456108,0.0194113817554675,0.0175403396788115,1.9571037560927846e-07,critical
1200,8.080808080808081,3.240506329113924,anode-electrolyte interface,0.0186437826257849,0.0194526618987701,0.0177129503366699,-2.2305996198758854e-07,critical
1200,8.181818181818182,3.240506329113924,anode-electrolyte interface,0.0187439662020838,0.0195537445075337,0.0178126879251843,-8.986664776819735e-06,critical
1200,8.282828282828282,3.240506329113924,anode-electrolyte interface,0.0189548879816084,0.0198216977118925,0.0179490444046069,-1.176974343757603e-05,critical
1200,8.383838383838384,3.240506329113924,anode-electrolyte interface,0.019189273207732,0.0201390173802196,0.018072162782198,1.5469785313312986e-05,critical
1200,8.484848484848484,3.240506329113924,anode-electrolyte interface,0.0192643390242855,0.020229647112134,0.0181244969727259,-0.000101526827281,critical
1200,8.585858585858587,3.240506329113924,anode-electrolyte interface,0.0193897919060543,0.0202782593255008,0.0183584984480778,7.210563508655163e-06,critical
1200,8.686868686868687,3.240506329113924,anode-electrolyte interface,0.0193709594565504,0.0202903488792706,0.0182968617246276,-5.879751447519305e-05,critical
1200,8.787878787878787,3.240506329113924,anode-electrolyte interface,0.0196897025748263,0.0206687963541165,0.0185356806565654,8.943550841327462e-05,critical
1200,8.88888888888889,3.240506329113924,anode-electrolyte interface,0.019809833085909,0.0206783016508811,0.0188087219048509,-2.403642212228804e-05,critical
1200,8.98989898989899,3.240506329113924,anode-electrolyte interface,0.019888343117312,0.0208670958736194,0.0187383159551434,-9.173593900591276e-06,critical
1200,9.09090909090909,3.240506329113924,anode-electrolyte interface,0.0201124429998412,0.0210665393943995,0.0189972767864915,8.492324463730029e-05,critical
1200,9.191919191919192,3.240506329113924,anode-electrolyte interface,0.0201726525565016,0.021087525332308,0.0191124575990483,1.3962232084762347e-05,critical
1200,9.292929292929292,3.240506329113924,anode-electrolyte interface,0.020265314215386,0.0211720665431103,0.0192167433741658,2.237627911643257e-05,critical
1200,9.393939393939394,3.240506329113924,anode-electrolyte interface,0.0205548328680092,0.0215578302397073,0.0193777993321369,4.207553725937294e-05,critical
1200,9.494949494949497,3.240506329113924,anode-electrolyte interface,0.0206575193161168,0.0216550748077485,0.0194889744301326,-4.4400596886843176e-05,critical
1200,9.595959595959595,3.240506329113924,anode-electrolyte interface,0.0208596477802719,0.0219728572088598,0.0195312813056746,4.304025373684335e-05,critical
1200,9.696969696969695,3.240506329113924,anode-electrolyte interface,0.0212589091404605,0.0223277966990897,0.0199981118003766,-1.955384581148721e-06,critical
1200,9.797979797979798,3.240506329113924,anode-electrolyte interface,0.0213772295834406,0.0224436487270043,0.0201194376621238,-0.0001006580274122,critical
1200,9.8989898989899,3.240506329113924,anode-electrolyte interface,0.0215558868082058,0.0225877284441475,0.0203486340783241,6.656259863057663e-05,critical
1200,10.0,3.240506329113924,anode-electrolyte interface,0.0217991056101914,0.0229300091990064,0.0204571043067035,-3.722391775094812e-05,critical
1200,0.0,3.3417721518987342,anode-electrolyte interface,0.021958435911883,0.0229994030598099,0.0207416556821752,-9.964154574448598e-05,critical
1200,0.101010101010101,3.3417721518987342,anode-electrolyte interface,0.021630895024134,0.0227187081908212,0.020347367185778,-4.641780450155525e-05,critical
1200,0.202020202020202,3.3417721518987342,anode-electrolyte interface,0.0213742051080247,0.0223326716350408,0.0202651339383591,4.949743163626009e-05,critical
1200,0.303030303030303,3.3417721518987342,anode-electrolyte interface,0.0212738450350989,0.0223287087087938,0.020032718250618,7.744459943012918e-06,critical
1200,0.404040404040404,3.3417721518987342,anode-electrolyte interface,0.0209186380422724,0.0220056048197615,0.019628197924816,-4.826020412620503e-05,critical
1200,0.5050505050505051,3.3417721518987342,anode-electrolyte interface,0.0207197392051486,0.0217441218477358,0.0195150453939046,-2.070413155546728e-05,critical
1200,0.6060606060606061,3.3417721518987342,anode-electrolyte interface,0.0205935976846204,0.021583019496025,0.0194358511010351,2.2950991854420155e-05,critical
1200,0.7070707070707071,3.3417721518987342,anode-electrolyte interface,0.0203480294857754,0.0214335906884842,0.0190526988716921,-4.438086646998084e-05,critical
1200,0.8080808080808081,3.3417721518987342,anode-electrolyte interface,0.0202527236957589,0.021156159592109,0.0192079709469462,5.910246871629993e-05,critical
1200,0.9090909090909092,3.3417721518987342,anode-electrolyte interface,0.0199748593321034,0.0208432216854169,0.0189751530080113,2.5846296499475843e-05,critical
1200,1.0101010101010102,3.3417721518987342,anode-electrolyte interface,0.0198981974319576,0.0208861542499382,0.0187344132774041,7.83716239679107e-05,critical
1200,1.1111111111111112,3.3417721518987342,anode-electrolyte interface,0.0196075243098142,0.0205511504703603,0.0185015924237014,-9.18541099837944e-05,critical
1200,1.2121212121212122,3.3417721518987342,anode-electrolyte interface,0.0195662611799654,0.020371804854763,0.0186463591257336,2.178866311515967e-05,critical
1200,1.3131313131313131,3.3417721518987342,anode-electrolyte interface,0.0193627833150683,0.0203684683188695,0.0181689842437253,4.190288421581333e-05,critical
1200,1.414141414141414,3.3417721518987342,anode-electrolyte interface,0.0194116064068865,0.0203774830812186,0.0182724157409552,-0.0001053757950143,critical
1200,1.5151515151515151,3.3417721518987342,anode-electrolyte interface,0.0193039489958389,0.020321354793508,0.0180927988428196,4.397240078029833e-05,critical
1200,1.616161616161616,3.3417721518987342,anode-electrolyte interface,0.019211710547627,0.0202293722620778,0.017999178899086,-3.637475371165369e-05,critical
1200,1.7171717171717171,3.3417721518987342,anode-electrolyte interface,0.019035049157362,0.0200033565491657,0.0178902683659645,-2.9085325938700048e-05,critical
1200,1.818181818181818,3.3417721518987342,anode-electrolyte interface,0.0189584400307553,0.0198285020276583,0.0179470060041891,8.20084730499883e-05,critical
1200,1.9191919191919191,3.3417721518987342,anode-electrolyte interface,0.0187199393097346,0.0196663558106144,0.0176013982204809,-7.464972159784048e-05,critical
1200,2.0202020202020203,3.3417721518987342,anode-electrolyte interface,0.0186686845493309,0.0196221101198756,0.0175406824933982,-2.7315288334457573e-05,critical
1200,2.121212121212121,3.3417721518987342,anode-electrolyte interface,0.0186236285405687,0.0194660325960379,0.0176478561927024,3.1982340835811127e-06,critical
1200,2.2222222222222223,3.3417721518987342,anode-electrolyte interface,0.0185104313671309,0.0193719761455953,0.0175078126333341,-3.4206391334862705e-06,critical
1200,2.323232323232323,3.3417721518987342,anode-electrolyte interface,0.0183844695851166,0.0191924323565437,0.0174518162024034,7.342880125660486e-05,critical
1200,2.4242424242424243,3.3417721518987342,anode-electrolyte interface,0.0183439953776715,0.0192204941711461,0.0173193623393554,1.9674709969153476e-05,critical
1200,2.525252525252525,3.3417721518987342,anode-electrolyte interface,0.0183092177077813,0.0192154865474251,0.0172432106637201,-1.7304781201170903e-05,critical
1200,2.6262626262626263,3.3417721518987342,anode-electrolyte interface,0.018085336012346,0.0189811603751867,0.0170314695024643,1.853041558042518e-05,critical
1200,2.727272727272727,3.3417721518987342,anode-electrolyte interface,0.0181035630123406,0.0190448216891074,0.0169862891395904,-1.4019762765793306e-05,critical
1200,2.8282828282828283,3.3417721518987342,anode-electrolyte interface,0.0180996425106995,0.0190360547552725,0.0169889758976807,3.3920208662629344e-05,critical
1200,2.929292929292929,3.3417721518987342,anode-electrolyte interface,0.0181552614196066,0.0189411167544231,0.0172507479124371,-5.079396849173157e-05,critical
1200,3.0303030303030303,3.3417721518987342,anode-electrolyte interface,0.0179611229684297,0.0187665831429174,0.0170289829284051,4.781846346531281e-05,critical
1200,3.131313131313131,3.3417721518987342,anode-electrolyte interface,0.0179345213550073,0.0187619193711626,0.0169719878351859,7.333484305417595e-05,critical
1200,3.2323232323232323,3.3417721518987342,anode-electrolyte interface,0.0177598761935689,0.01855055912163,0.0168462512540849,-1.964040718916707e-05,critical
1200,3.333333333333333,3.3417721518987342,anode-electrolyte interface,0.0178508635074288,0.0186506747143723,0.0169255857929585,3.559587708750963e-05,critical
1200,3.4343434343434343,3.3417721518987342,anode-electrolyte interface,0.0178392604722157,0.018616560022034,0.0169418436269646,0.0001090724932326,critical
1200,3.5353535353535355,3.3417721518987342,anode-electrolyte interface,0.0178663055340325,0.0187527891520324,0.0168228733497484,-3.8736599049242486e-05,critical
1200,3.636363636363636,3.3417721518987342,anode-electrolyte interface,0.017798525749769,0.018641074295647,0.0168146751744746,5.220450434027829e-05,critical
1200,3.7373737373737375,3.3417721518987342,anode-electrolyte interface,0.0176186542653102,0.0184754065155036,0.016614060415875,-1.6820240813423464e-05,critical
1200,3.8383838383838382,3.3417721518987342,anode-electrolyte interface,0.0175907589973226,0.0184358384080767,0.0166011851544793,6.346298240930246e-05,critical
1200,3.939393939393939,3.3417721518987342,anode-electrolyte interface,0.0177027778347036,0.0184779436877109,0.0168075452787019,9.872019643066586e-05,critical
1200,4.040404040404041,3.3417721518987342,anode-electrolyte interface,0.0175288234415206,0.0183894518789806,0.016517343248119,5.765324034549834e-05,critical
1200,4.141414141414141,3.3417721518987342,anode-electrolyte interface,0.017682591878978,0.0185403879253445,0.0166771622307364,-2.151214924280457e-05,critical
1200,4.242424242424242,3.3417721518987342,anode-electrolyte interface,0.0176734873326701,0.0185738510454509,0.0166088453328082,1.5141541311573878e-05,critical
1200,4.343434343434343,3.3417721518987342,anode-electrolyte interface,0.0176266698500964,0.0184870318498516,0.0166171628924271,-1.8801062785336075e-05,critical
1200,4.444444444444445,3.3417721518987342,anode-electrolyte interface,0.0176099829333983,0.0183963923913563,0.0167008595129651,1.916854588520276e-05,critical
1200,4.545454545454545,3.3417721518987342,anode-electrolyte interface,0.0175334157769696,0.0184473396551467,0.0164475438330121,5.182630404542305e-05,critical
1200,4.646464646464646,3.3417721518987342,anode-electrolyte interface,0.0177355000195285,0.018598139547702,0.016723942591418,-1.9395951493572808e-05,critical
1200,4.747474747474747,3.3417721518987342,anode-electrolyte interface,0.0176139848144945,0.0184604914516548,0.0166230064996552,4.912809356009126e-05,critical
1200,4.848484848484849,3.3417721518987342,anode-electrolyte interface,0.0175821845736418,0.018472719220624,0.0165303272105749,-8.84071855203286e-06,critical
1200,4.94949494949495,3.3417721518987342,anode-electrolyte interface,0.0174758636745219,0.0183801342694901,0.0164031032217538,-4.442129601661396e-05,critical
1200,5.05050505050505,3.3417721518987342,anode-electrolyte interface,0.0175217287382552,0.0184655566425276,0.0163936634065026,6.223188000062333e-06,critical
1200,5.151515151515151,3.3417721518987342,anode-electrolyte interface,0.017666708112264,0.0185673893810125,0.0166011609428017,-4.5832487927043927e-05,critical
1200,5.252525252525253,3.3417721518987342,anode-electrolyte interface,0.017432791661442,0.0183643375650294,0.01632106345521,2.4064577310331683e-05,critical
1200,5.353535353535354,3.3417721518987342,anode-electrolyte interface,0.0175233474295049,0.0183185499326254,0.0166017329050267,-1.379903428381924e-05,critical
1200,5.454545454545454,3.3417721518987342,anode-electrolyte interface,0.0176864324906016,0.0186424268560577,0.0165421362643579,-6.610174932848717e-05,critical
1200,5.555555555555555,3.3417721518987342,anode-electrolyte interface,0.0175556084251267,0.0183756105506807,0.0165978394849239,0.0001203922152293,critical
1200,5.656565656565657,3.3417721518987342,anode-electrolyte interface,0.0175936546506731,0.0183967061687697,0.0166619607136602,2.67502544474848e-05,critical
1200,5.757575757575758,3.3417721518987342,anode-electrolyte interface,0.0176590950789903,0.0184543328475611,0.0167383858295216,-3.3770851377036e-05,critical
1200,5.858585858585858,3.3417721518987342,anode-electrolyte interface,0.0175631138272552,0.0184704709060972,0.0164874069232789,9.213319380163144e-06,critical
1200,5.959595959595959,3.3417721518987342,anode-electrolyte interface,0.0177157195625161,0.0185701700496122,0.0167152770730464,1.3589093005449457e-05,critical
1200,6.0606060606060606,3.3417721518987342,anode-electrolyte interface,0.017736847616071,0.0186351467652987,0.0166750562281205,-6.241877696570165e-05,critical
1200,6.161616161616162,3.3417721518987342,anode-electrolyte interface,0.0176757864885769,0.0186182979678972,0.0165508399249714,5.93742043021608e-05,critical
1200,6.262626262626262,3.3417721518987342,anode-electrolyte interface,0.017699623618012,0.0184175106698132,0.01688163646692,-3.953849196878525e-06,critical
1200,6.363636363636363,3.3417721518987342,anode-electrolyte interface,0.0177650058263465,0.0186069690439446,0.0167814675000328,5.9804788633065e-05,critical
1200,6.4646464646464645,3.3417721518987342,anode-electrolyte interface,0.0177886850118287,0.0187380118154024,0.0166559366828738,3.234827290390993e-05,critical
1200,6.565656565656566,3.3417721518987342,anode-electrolyte interface,0.0178905728651653,0.018681787879768,0.016977095309338,3.70913307693368e-05,critical
1200,6.666666666666667,3.3417721518987342,anode-electrolyte interface,0.0178026588794287,0.0187435946508972,0.0166821482486294,2.3644797848337164e-05,critical
1200,6.767676767676767,3.3417721518987342,anode-electrolyte interface,0.0180022166585105,0.019044834907662,0.0167361910639043,-6.317285146776523e-05,critical
1200,6.8686868686868685,3.3417721518987342,anode-electrolyte interface,0.0178493130975088,0.0186543541381898,0.0169166467497828,5.547306875113395e-05,critical
1200,6.96969696969697,3.3417721518987342,anode-electrolyte interface,0.018090987551911,0.0190020956414499,0.0170156283848124,4.155508044187672e-05,critical
1200,7.070707070707071,3.3417721518987342,anode-electrolyte interface,0.0181155484242198,0.0190527332051215,0.0170040708710516,2.615112550267352e-05,critical
1200,7.171717171717171,3.3417721518987342,anode-electrolyte interface,0.0181545776064435,0.0189776921894528,0.0172007362136508,1.671559954752194e-05,critical
1200,7.272727272727272,3.3417721518987342,anode-electrolyte interface,0.0181448113359973,0.018989512325256,0.0171606154221877,7.658648330483197e-05,critical
1200,7.373737373737374,3.3417721518987342,anode-electrolyte interface,0.0183212452888003,0.0191922194883252,0.0173040310417662,-1.960977692669961e-06,critical
1200,7.474747474747475,3.3417721518987342,anode-electrolyte interface,0.0182111817783065,0.0191037781281173,0.0171629061133412,-3.562378327477895e-05,critical
1200,7.575757575757575,3.3417721518987342,anode-electrolyte interface,0.0183394797669905,0.01923280229315,0.0172917480327491,-4.292054854476635e-06,critical
1200,7.6767676767676765,3.3417721518987342,anode-electrolyte interface,0.0184671315776334,0.0193755713511378,0.0173981833845015,-9.154596011097944e-05,critical
1200,7.777777777777778,3.3417721518987342,anode-electrolyte interface,0.0185013192994345,0.0193585399596608,0.0175044835326912,3.943112755160826e-06,critical
1200,7.878787878787879,3.3417721518987342,anode-electrolyte interface,0.0186414781079228,0.0195916618147795,0.0175168653298218,-7.170308517229875e-05,critical
1200,7.979797979797979,3.3417721518987342,anode-electrolyte interface,0.0186654410770756,0.01950507592958,0.0176905518239673,-0.0001299183195684,critical
1200,8.080808080808081,3.3417721518987342,anode-electrolyte interface,0.0187798917249173,0.0196926393826533,0.017709524495537,-3.7899055581113216e-05,critical
1200,8.181818181818182,3.3417721518987342,anode-electrolyte interface,0.0188066350829531,0.0195836283042285,0.0179187605188593,3.3628989361770234e-05,critical
1200,8.282828282828282,3.3417721518987342,anode-electrolyte interface,0.019022966616918,0.0200173022024097,0.0178408956930116,-5.748323101292532e-05,critical
1200,8.383838383838384,3.3417721518987342,anode-electrolyte interface,0.0192480316303869,0.0202220786860419,0.0180953430523069,-0.0001129397094384,critical
1200,8.484848484848484,3.3417721518987342,anode-electrolyte interface,0.0190507542932219,0.0199187835751775,0.0180435602436711,-5.478801063670264e-05,critical
1200,8.585858585858587,3.3417721518987342,anode-electrolyte interface,0.0193285949051972,0.020293820882276,0.0181906336244941,-6.763593060860065e-05,critical
1200,8.686868686868687,3.3417721518987342,anode-electrolyte interface,0.019526759187531,0.0204848777816583,0.0184015748137578,-7.3498728370694035e-06,critical
1200,8.787878787878787,3.3417721518987342,anode-electrolyte interface,0.0194423571846512,0.0202800161281191,0.0184793882708296,-1.527574232144123e-05,critical
1200,8.88888888888889,3.3417721518987342,anode-electrolyte interface,0.0197205377966482,0.0206991225118659,0.0185687002788773,-4.127202287014986e-05,critical
1200,8.98989898989899,3.3417721518987342,anode-electrolyte interface,0.0198056290042973,0.0206577533150957,0.0188262791666717,1.986058562648375e-06,critical
1200,9.09090909090909,3.3417721518987342,anode-electrolyte interface,0.0200054702736486,0.0210291400046377,0.0187934692298902,-5.808456067095273e-05,critical
1200,9.191919191919192,3.3417721518987342,anode-electrolyte interface,0.0200394865766595,0.0209589243639897,0.0189709863594113,-7.671707520909465e-05,critical
1200,9.292929292929292,3.3417721518987342,anode-electrolyte interface,0.0203435686280292,0.0213103805648993,0.019214288912615,-3.354249447763825e-05,critical
1200,9.393939393939394,3.3417721518987342,anode-electrolyte interface,0.0204984985295688,0.021465836774023,0.0193696527868704,5.369533275712809e-05,critical
1200,9.494949494949497,3.3417721518987342,anode-electrolyte interface,0.0207133475336882,0.0217734616835178,0.0194587053427757,-2.0768104953953685e-05,critical
1200,9.595959595959595,3.3417721518987342,anode-electrolyte interface,0.0209317903304797,0.0219202882564581,0.0197783386415415,4.088206570199986e-05,critical
1200,9.696969696969695,3.3417721518987342,anode-electrolyte interface,0.0211136234444293,0.0221259659925314,0.0199295309289891,1.4655862104823393e-05,critical
1200,9.797979797979798,3.3417721518987342,anode-electrolyte interface,0.0213869107691341,0.0223803201946034,0.0202311684503456,-1.8896184489619264e-05,critical
1200,9.8989898989899,3.3417721518987342,anode-electrolyte interface,0.0214680898214308,0.0225204025956213,0.0202309898862131,-9.562580119055722e-05,critical
1200,10.0,3.3417721518987342,anode-electrolyte interface,0.0218328187519294,0.0228869728768876,0.020597250599164,-8.252422669798746e-05,critical
1200,0.0,3.4430379746835444,anode-electrolyte interface,0.0218516736044383,0.0228637522004226,0.0206748322142205,3.0592842588097965e-06,critical
1200,0.101010101010101,3.4430379746835444,anode-electrolyte interface,0.0215855762255849,0.022618163048151,0.0203782708156665,-1.76241242808986e-05,critical
1200,0.202020202020202,3.4430379746835444,anode-electrolyte interface,0.0212822646065376,0.022316055571055,0.0200701031545273,4.060875168387906e-05,critical
1200,0.303030303030303,3.4430379746835444,anode-electrolyte interface,0.0210319770385423,0.0221294187794932,0.0197284241289908,1.5528770461918204e-05,critical
1200,0.404040404040404,3.4430379746835444,anode-electrolyte interface,0.0209744272391637,0.0219927599337575,0.0197793345789514,9.163180911754813e-05,critical
1200,0.5050505050505051,3.4430379746835444,anode-electrolyte interface,0.0207826817438955,0.0218529325124772,0.0195146346923796,8.733734510974442e-06,critical
1200,0.6060606060606061,3.4430379746835444,anode-electrolyte interface,0.0206295876130405,0.0216418101401214,0.019440768699194,-2.500995442751029e-05,critical
1200,0.7070707070707071,3.4430379746835444,anode-electrolyte interface,0.0202993782483466,0.021229686767988,0.0192193813321554,-2.5714897969808776e-05,critical
1200,0.8080808080808081,3.4430379746835444,anode-electrolyte interface,0.0202354027580852,0.0212329375616177,0.0190620366189637,7.229696023850828e-05,critical
1200,0.9090909090909092,3.4430379746835444,anode-electrolyte interface,0.0198943128658173,0.0209393557292613,0.0186503678088731,7.644752401045294e-05,critical
1200,1.0101010101010102,3.4430379746835444,anode-electrolyte interface,0.0196484630345712,0.0205118464914486,0.0186529442241498,-9.191340658116798e-06,critical
1200,1.1111111111111112,3.4430379746835444,anode-electrolyte interface,0.0197940188525318,0.0207667664296449,0.0186496238543432,9.748002590482574e-05,critical
1200,1.2121212121212122,3.4430379746835444,anode-electrolyte interface,0.0196199896227209,0.0205862346285112,0.0184842729057276,3.7285997757118496e-05,critical
1200,1.3131313131313131,3.4430379746835444,anode-electrolyte interface,0.0194232225263316,0.0203914110998783,0.0182829094468206,-2.214689203293137e-05,critical
1200,1.414141414141414,3.4430379746835444,anode-electrolyte interface,0.0192430548802731,0.0200800917628726,0.0182743410080309,0.00016731306913,critical
1200,1.5151515151515151,3.4430379746835444,anode-electrolyte interface,0.0190209882510796,0.0200223228813201,0.0178295904308332,-5.830964842207205e-06,critical
1200,1.616161616161616,3.4430379746835444,anode-electrolyte interface,0.0189977080205757,0.0199491618472625,0.0178762335680808,7.561537154545096e-07,critical
1200,1.7171717171717171,3.4430379746835444,anode-electrolyte interface,0.0190102100526011,0.0199401614895336,0.0179185145580738,-3.1389955857303255e-05,critical
1200,1.818181818181818,3.4430379746835444,anode-electrolyte interface,0.0188320585016836,0.0196849170571326,0.0178439633720533,-1.1224836227119948e-05,critical
1200,1.9191919191919191,3.4430379746835444,anode-electrolyte interface,0.0188250929374923,0.0197108537721649,0.0177922014692282,-3.37441392667796e-05,critical
1200,2.0202020202020203,3.4430379746835444,anode-electrolyte interface,0.0186072712626969,0.0195491068320238,0.0174941902966199,6.342141524520815e-05,critical
1200,2.121212121212121,3.4430379746835444,anode-electrolyte interface,0.0185059951188602,0.0192802741692305,0.0176197286713906,2.036677867324492e-05,critical
1200,2.2222222222222223,3.4430379746835444,anode-electrolyte interface,0.0184277096746696,0.0192952410459666,0.0174155595864442,-5.73332184272375e-05,critical
1200,2.323232323232323,3.4430379746835444,anode-electrolyte interface,0.0184037588572796,0.019312259991356,0.0173354174744767,-3.805441090037586e-05,critical
1200,2.4242424242424243,3.4430379746835444,anode-electrolyte interface,0.0184272557349252,0.019351487127702,0.0173373825096788,3.163354704119993e-05,critical
1200,2.525252525252525,3.4430379746835444,anode-electrolyte interface,0.0181120000710584,0.0189431345808593,0.0171466697047221,-4.31612972145508e-05,critical
1200,2.6262626262626263,3.4430379746835444,anode-electrolyte interface,0.0182526216629412,0.0191567925486056,0.0171889747703575,-9.433329673069023e-06,critical
1200,2.727272727272727,3.4430379746835444,anode-electrolyte interface,0.018184546219276,0.0190470393827957,0.0171775327108027,-2.253857757612721e-05,critical
1200,2.8282828282828283,3.4430379746835444,anode-electrolyte interface,0.0182560909090216,0.0191145883701028,0.0172552815496577,8.744407152009439e-06,critical
1200,2.929292929292929,3.4430379746835444,anode-electrolyte interface,0.0180721776151709,0.0189159196974309,0.0170897000817453,-1.9418806150872147e-05,critical
1200,3.0303030303030303,3.4430379746835444,anode-electrolyte interface,0.0181055936110576,0.0188738399272658,0.0172242441406485,-3.5246611172136765e-05,critical
1200,3.131313131313131,3.4430379746835444,anode-electrolyte interface,0.018037120916432,0.0189513848456941,0.0169566522080399,4.73672499782361e-05,critical
1200,3.2323232323232323,3.4430379746835444,anode-electrolyte interface,0.0180102081147897,0.0188906598619291,0.0169765623008071,-4.228007863241982e-05,critical
1200,3.333333333333333,3.4430379746835444,anode-electrolyte interface,0.0178325457411517,0.0186443600581232,0.0168911268802537,-2.3163846788969312e-05,critical
1200,3.4343434343434343,3.4430379746835444,anode-electrolyte interface,0.0178734906224107,0.0187228760193035,0.0168815389704737,7.826084411426556e-06,critical
1200,3.5353535353535355,3.4430379746835444,anode-electrolyte interface,0.0176700550620391,0.0184833486760518,0.0167242674762622,7.305731251265877e-05,critical
1200,3.636363636363636,3.4430379746835444,anode-electrolyte interface,0.0176286778288677,0.0183458245041235,0.016811151659252,1.4412961578576858e-05,critical
1200,3.7373737373737375,3.4430379746835444,anode-electrolyte interface,0.017797024762728,0.0185372415942115,0.0169505538650511,3.1787622421090374e-07,critical
1200,3.8383838383838382,3.4430379746835444,anode-electrolyte interface,0.0176470711113934,0.018464438203147,0.0166965399741235,-2.1787640339154168e-05,critical
1200,3.939393939393939,3.4430379746835444,anode-electrolyte interface,0.0177742454940138,0.0186384705394861,0.016760956354129,-7.121451336629059e-06,critical
1200,4.040404040404041,3.4430379746835444,anode-electrolyte interface,0.0177364516471159,0.0187413700248546,0.0165227776863345,-4.986914016577962e-06,critical
1200,4.141414141414141,3.4430379746835444,anode-electrolyte interface,0.0175520973553024,0.0184849482182337,0.0164397408478813,4.2778842131519686e-05,critical
1200,4.242424242424242,3.4430379746835444,anode-electrolyte interface,0.01768873057311,0.0186099278941482,0.0165948639952996,2.2244144642697528e-05,critical
1200,4.343434343434343,3.4430379746835444,anode-electrolyte interface,0.0177150872173635,0.0185688232996179,0.0167156567989266,-1.966654141429768e-06,critical
1200,4.444444444444445,3.4430379746835444,anode-electrolyte interface,0.0175787452042413,0.0184851023689541,0.0165045779258276,1.8196799281289375e-05,critical
1200,4.545454545454545,3.4430379746835444,anode-electrolyte interface,0.0175531635883287,0.0185003353307464,0.0164199405486857,6.083652356042478e-05,critical
1200,4.646464646464646,3.4430379746835444,anode-electrolyte interface,0.0177230974694575,0.0186276649515661,0.0166531057789276,1.658445848025179e-05,critical
1200,4.747474747474747,3.4430379746835444,anode-electrolyte interface,0.0177352695428374,0.0185543923942604,0.0167831565539925,2.030630581895264e-05,critical
1200,4.848484848484849,3.4430379746835444,anode-electrolyte interface,0.0175909071613759,0.0183908472485754,0.0166635262553716,-1.9114933979334662e-06,critical
1200,4.94949494949495,3.4430379746835444,anode-electrolyte interface,0.0173982779978795,0.0182439496505595,0.016406795300413,8.03735992753391e-06,critical
1200,5.05050505050505,3.4430379746835444,anode-electrolyte interface,0.0177141418103961,0.0186250766586764,0.0166350734865871,-1.990430019953239e-05,critical
1200,5.151515151515151,3.4430379746835444,anode-electrolyte interface,0.0175164264424785,0.0184123719807729,0.0164558021899156,4.71833498897492e-05,critical
1200,5.252525252525253,3.4430379746835444,anode-electrolyte interface,0.0174491949811755,0.0182634888123114,0.016500497869215,-5.659856789338909e-05,critical
1200,5.353535353535354,3.4430379746835444,anode-electrolyte interface,0.01768567842273,0.0185352247028128,0.0166917133247282,-3.1581807547229705e-06,critical
1200,5.454545454545454,3.4430379746835444,anode-electrolyte interface,0.0176221665234964,0.0184050898788936,0.0167178511063482,-1.19179410784015e-05,critical
1200,5.555555555555555,3.4430379746835444,anode-electrolyte interface,0.0175887544839363,0.0184217900381799,0.0166161742132525,3.813657301924032e-05,critical
1200,5.656565656565657,3.4430379746835444,anode-electrolyte interface,0.0175013829773328,0.0183644111486743,0.0164869575377274,1.0120020672935274e-05,critical
1200,5.757575757575758,3.4430379746835444,anode-electrolyte interface,0.0176816690407877,0.0186133795810698,0.0165727889261191,2.4487058285392864e-05,critical
1200,5.858585858585858,3.4430379746835444,anode-electrolyte interface,0.0176456216269303,0.0184877203852195,0.0166606790703512,-6.299882016032213e-05,critical
1200,5.959595959595959,3.4430379746835444,anode-electrolyte interface,0.0177303495341291,0.0185666916749909,0.016754432606307,-4.700099164670614e-05,critical
1200,6.0606060606060606,3.4430379746835444,anode-electrolyte interface,0.017525866194754,0.018379076148089,0.0165231977934761,0.0001009801186172,critical
1200,6.161616161616162,3.4430379746835444,anode-electrolyte interface,0.0174968448407326,0.0184076925061067,0.0164153415478005,2.278482665856765e-05,critical
1200,6.262626262626262,3.4430379746835444,anode-electrolyte interface,0.0177438871992077,0.0185953363386947,0.0167472230201128,-5.70534888204622e-05,critical
1200,6.363636363636363,3.4430379746835444,anode-electrolyte interface,0.0178180429277608,0.0186398163344905,0.0168629610689694,3.131538313026544e-05,critical
1200,6.4646464646464645,3.4430379746835444,anode-electrolyte interface,0.0177686697564631,0.0186093060942225,0.016787678972457,8.99876841806605e-06,critical
1200,6.565656565656566,3.4430379746835444,anode-electrolyte interface,0.0177814820627005,0.0185596069431973,0.0168846976663732,-2.846763039105124e-05,critical
1200,6.666666666666667,3.4430379746835444,anode-electrolyte interface,0.0177752197178727,0.0186154276607701,0.016794555863362,4.0915143390924274e-05,critical
1200,6.767676767676767,3.4430379746835444,anode-electrolyte interface,0.0178357229967625,0.018659718493096,0.0168779682489661,-9.03001784908441e-06,critical
1200,6.8686868686868685,3.4430379746835444,anode-electrolyte interface,0.0179708042024427,0.0187811078344757,0.0170325914788313,-2.2781367182641877e-05,critical
1200,6.96969696969697,3.4430379746835444,anode-electrolyte interface,0.018031302640465,0.0189464256194374,0.01695001079631,-5.29040293993684e-06,critical
1200,7.070707070707071,3.4430379746835444,anode-electrolyte interface,0.0181251932724619,0.0189640875577018,0.0171496438413122,-3.203005935555249e-05,critical
1200,7.171717171717171,3.4430379746835444,anode-electrolyte interface,0.0180650309051593,0.0189748847905633,0.0169914732946663,7.577468329058748e-06,critical
1200,7.272727272727272,3.4430379746835444,anode-electrolyte interface,0.0181725634434842,0.0190017779289348,0.017210346251679,-4.342464239531506e-05,critical
1200,7.373737373737374,3.4430379746835444,anode-electrolyte interface,0.0182990376740872,0.0191479191180078,0.0173111858016117,-5.165577101193976e-05,critical
1200,7.474747474747475,3.4430379746835444,anode-electrolyte interface,0.0181232660688234,0.0189888128071836,0.0171115865431866,-5.191423478844345e-06,critical
1200,7.575757575757575,3.4430379746835444,anode-electrolyte interface,0.0183730343510885,0.019297276030805,0.0172826461930514,2.3549614690311094e-05,critical
1200,7.6767676767676765,3.4430379746835444,anode-electrolyte interface,0.0184634715716504,0.0194037776463783,0.0173516959860768,-9.87649074049117e-06,critical
1200,7.777777777777778,3.4430379746835444,anode-electrolyte interface,0.0186097516298586,0.0195002746162008,0.0175685244327388,-6.974092048468367e-06,critical
1200,7.878787878787879,3.4430379746835444,anode-electrolyte interface,0.0186146041047394,0.0196106022276796,0.0174255235976328,-3.6080809641389285e-05,critical
1200,7.979797979797979,3.4430379746835444,anode-electrolyte interface,0.0187121753085046,0.0196269325055354,0.017637504701018,-7.652331644337607e-05,critical
1200,8.080808080808081,3.4430379746835444,anode-electrolyte interface,0.0187497352202046,0.0196721908016707,0.0176650868331563,6.619611626064263e-05,critical
1200,8.181818181818182,3.4430379746835444,anode-electrolyte interface,0.0188837332568149,0.0198268715624947,0.0177724627576833,2.857581403832551e-05,critical
1200,8.282828282828282,3.4430379746835444,anode-electrolyte interface,0.0188941299860018,0.01979243406397,0.0178449595432969,-1.0095945501448955e-05,critical
1200,8.383838383838384,3.4430379746835444,anode-electrolyte interface,0.0191240928492855,0.0200165443435063,0.0180844673845119,5.6162270370237655e-05,critical
1200,8.484848484848484,3.4430379746835444,anode-electrolyte interface,0.0191368895331172,0.0199894083443878,0.0181512488627074,5.472734044711132e-05,critical
1200,8.585858585858587,3.4430379746835444,anode-electrolyte interface,0.0191871186524916,0.0200162502589221,0.0182333133885983,3.6943496007403216e-05,critical
1200,8.686868686868687,3.4430379746835444,anode-electrolyte interface,0.0193227722369649,0.0201270774268546,0.0184022471378343,-6.064768309790376e-05,critical
1200,8.787878787878787,3.4430379746835444,anode-electrolyte interface,0.0196264234073603,0.0205612735346229,0.0185342393206609,-4.605508828946897e-06,critical
1200,8.88888888888889,3.4430379746835444,anode-electrolyte interface,0.019680248613675,0.0206909733339129,0.0184830595967962,4.0038227883870376e-05,critical
1200,8.98989898989899,3.4430379746835444,anode-electrolyte interface,0.0199872542575478,0.0208817658229996,0.0189525288813604,4.512103970404626e-05,critical
1200,9.09090909090909,3.4430379746835444,anode-electrolyte interface,0.0199091254450943,0.0208533267461999,0.0188066096881373,-3.581646624519843e-05,critical
1200,9.191919191919192,3.4430379746835444,anode-electrolyte interface,0.0201603714689104,0.0211466153169497,0.0190027633750698,1.0794506806259044e-05,critical
1200,9.292929292929292,3.4430379746835444,anode-electrolyte interface,0.0202735777272014,0.0212000547623483,0.0191981399838516,5.376519206014443e-05,critical
1200,9.393939393939394,3.4430379746835444,anode-electrolyte interface,0.0204791915984603,0.0214810886578442,0.0193031629276191,1.801679839386193e-05,critical
1200,9.494949494949497,3.4430379746835444,anode-electrolyte interface,0.0207956159130205,0.0219002489186839,0.0194787242722917,4.0617759609393616e-05,critical
1200,9.595959595959595,3.4430379746835444,anode-electrolyte interface,0.0208554400035157,0.0218228408033777,0.0197292070190347,-7.901764364555903e-05,critical
1200,9.696969696969695,3.4430379746835444,anode-electrolyte interface,0.0211529063348451,0.0221440792698695,0.0199977836545912,-4.602562184259875e-05,critical
1200,9.797979797979798,3.4430379746835444,anode-electrolyte interface,0.021342614961462,0.0223937954377519,0.0201072666893445,-1.809808853996201e-05,critical
1200,9.8989898989899,3.4430379746835444,anode-electrolyte interface,0.0214930168193746,0.0225445172232439,0.0202586112803324,3.5567258453288746e-05,critical
1200,10.0,3.4430379746835444,anode-electrolyte interface,0.0218912141284499,0.022940769863861,0.0206632950184422,4.6435255927740506e-05,critical
1200,0.0,3.5443037974683542,electrolyte,0.0117491128063903,0.0123146242182977,0.0110865396685796,-4.7924163081005606e-05,high
1200,0.101010101010101,3.5443037974683542,electrolyte,0.0117728852139337,0.0123511072598037,0.0110934176142613,3.189662687015696e-05,high
1200,0.202020202020202,3.5443037974683542,electrolyte,0.0116382670133597,0.0121880660725642,0.0109900185715808,0.0001492969864731,high
1200,0.303030303030303,3.5443037974683542,electrolyte,0.0115639262152716,0.0121464622231015,0.0108763900120877,-2.34213970109401e-05,high
1200,0.404040404040404,3.5443037974683542,electrolyte,0.0113927586276101,0.0119459396107683,0.0107438362536678,3.948667088346947e-05,high
1200,0.5050505050505051,3.5443037974683542,electrolyte,0.0112888365036496,0.0117828777891637,0.0107191165776748,-3.742124406863221e-05,high
1200,0.6060606060606061,3.5443037974683542,electrolyte,0.0113068891868113,0.0118517211005382,0.010669064858747,9.767073260200943e-06,high
1200,0.7070707070707071,3.5443037974683542,electrolyte,0.011007289070076,0.0115150916848462,0.0104166413164506,-4.1791758761212674e-05,high
1200,0.8080808080808081,3.5443037974683542,electrolyte,0.0109952860976781,0.011485024113917,0.0104293563483469,1.2553686464488777e-05,high
1200,0.9090909090909092,3.5443037974683542,electrolyte,0.0108327494334341,0.0113980794685827,0.0101612390658178,5.0244136200895724e-06,high
1200,1.0101010101010102,3.5443037974683542,electrolyte,0.0107581731877578,0.011278981997928,0.0101468922343676,-5.787417007347747e-05,high
1200,1.1111111111111112,3.5443037974683542,electrolyte,0.0106624936716068,0.0111953192973601,0.0100329501143353,7.208595549791394e-05,high
1200,1.2121212121212122,3.5443037974683542,electrolyte,0.0107079156344674,0.0112499257049876,0.0100671099065404,-4.5333980228395314e-05,high
1200,1.3131313131313131,3.5443037974683542,electrolyte,0.0106746803405552,0.011266461436827,0.0099613775243056,-7.321343011736451e-05,high
1200,1.414141414141414,3.5443037974683542,electrolyte,0.0106492086596084,0.0111931028819137,0.0100057877271941,-6.227738468868856e-06,high
1200,1.5151515151515151,3.5443037974683542,electrolyte,0.01029984601949,0.0108207328672489,0.0096813347847797,9.91001687918145e-05,high
1200,1.616161616161616,3.5443037974683542,electrolyte,0.0102959178839466,0.0107575240551502,0.0097619625132358,-8.864303392853055e-06,high
1200,1.7171717171717171,3.5443037974683542,electrolyte,0.010251048057528,0.0107212654557438,0.009704528826436,-4.243910631418534e-05,high
1200,1.818181818181818,3.5443037974683542,electrolyte,0.0102701590062877,0.0107124606950067,0.0097617255759529,-7.4654759487704065e-06,high
1200,1.9191919191919191,3.5443037974683542,electrolyte,0.0101105648562413,0.0105114904079408,0.009652834422295,-8.277513954699128e-05,high
1200,2.0202020202020203,3.5443037974683542,electrolyte,0.0102017980127547,0.0107750923945106,0.0095106179302248,-1.780943760042669e-07,high
1200,2.121212121212121,3.5443037974683542,electrolyte,0.0101250027482279,0.0106189233765769,0.009544070917702,6.484614503813236e-05,high
1200,2.2222222222222223,3.5443037974683542,electrolyte,0.0101097695425564,0.01057035203938,0.0095752981673188,3.180924765392643e-05,high
1200,2.323232323232323,3.5443037974683542,electrolyte,0.0100144391252886,0.0103509337972427,0.0096394277908962,-4.347907610095232e-05,high
1200,7.6767676767676765,3.5443037974683542,electrolyte,0.010046652929021,0.0103486370921288,0.009714635939126,-3.454370649549644e-06,high
1200,7.878787878787879,3.5443037974683542,electrolyte,0.0101333381460739,0.0106262359926876,0.0095543290532581,5.477902326055435e-05,high
1200,7.979797979797979,3.5443037974683542,electrolyte,0.0101636354472694,0.0105559593587713,0.0097195613096863,1.4487216693709995e-05,high
1200,8.080808080808081,3.5443037974683542,electrolyte,0.0103421427401884,0.0108395175175549,0.0097600656028931,-9.965729940545416e-06,high
1200,8.181818181818182,3.5443037974683542,electrolyte,0.0103747205553233,0.0108749612134695,0.0097842781327523,-0.0001177452377036,high
1200,8.282828282828282,3.5443037974683542,electrolyte,0.0102940964439308,0.0107530353610369,0.009763063100112,4.4021858240938086e-05,high
1200,8.383838383838384,3.5443037974683542,electrolyte,0.0103153950235964,0.0108259368442083,0.0097141122652287,4.780068862626764e-05,high
1200,8.484848484848484,3.5443037974683542,electrolyte,0.0103874600040332,0.0109035086005526,0.0097795729439534,-3.845460998575859e-05,high
1200,8.585858585858587,3.5443037974683542,electrolyte,0.0105548458102627,0.0110709983632835,0.0099485993408945,3.680350052555138e-05,high
1200,8.686868686868687,3.5443037974683542,electrolyte,0.0106861151193338,0.011206933483456,0.0100749424833622,2.8533364544355195e-05,high
1200,8.787878787878787,3.5443037974683542,electrolyte,0.0107565964834602,0.0112536413635785,0.0101775376580117,6.32717822161566e-05,high
1200,8.88888888888889,3.5443037974683542,electrolyte,0.0105388892515962,0.0108982095295497,0.0101373722660616,5.804102374229084e-05,high
1200,8.98989898989899,3.5443037974683542,electrolyte,0.0108506657476318,0.0114045995102088,0.0101953611649896,-1.5042635389737275e-05,high
1200,9.09090909090909,3.5443037974683542,electrolyte,0.0110003219091668,0.0114671541158583,0.0104648163214765,1.5700304962300457e-05,high
1200,9.191919191919192,3.5443037974683542,electrolyte,0.0111142556030732,0.0116588375271271,0.010474878010249,2.354773047750831e-06,high
1200,9.292929292929292,3.5443037974683542,electrolyte,0.0110715507611707,0.0116098341789583,0.0104403790424005,-1.34349421914665e-05,high
1200,9.393939393939394,3.5443037974683542,electrolyte,0.0112500679166585,0.011840555697498,0.0105478145508261,1.695858871767898e-05,high
1200,9.494949494949497,3.5443037974683542,electrolyte,0.0112248047043522,0.011759288921888,0.0106002034541979,2.5208997920829243e-05,high
1200,9.595959595959595,3.5443037974683542,electrolyte,0.0114044077045861,0.0119915214969548,0.0107066680713846,8.251551057617901e-05,high
1200,9.696969696969695,3.5443037974683542,electrolyte,0.0115687205777776,0.0123144385246898,0.0106406602134448,1.4036762132409851e-06,high
1200,9.797979797979798,3.5443037974683542,electrolyte,0.0116155527741378,0.0121800550163294,0.0109533964053153,-3.3685152019432755e-05,high
1200,9.8989898989899,3.5443037974683542,electrolyte,0.0116949354446156,0.0122429898372174,0.0110558607194415,-4.2618781624348535e-05,high
1200,10.0,3.5443037974683542,electrolyte,0.0118605668129951,0.0123246720196468,0.0113327668151493,-7.424086691402153e-05,high
1200,0.0,3.645569620253165,electrolyte,0.0118793858687934,0.0123653871121957,0.0113248058097568,2.153574251972188e-05,high
1200,0.101010101010101,3.645569620253165,electrolyte,0.0117269266563874,0.0122461640906936,0.0111259439187669,-7.252741464208138e-05,high
1200,0.202020202020202,3.645569620253165,electrolyte,0.0116250360250285,0.0121464365112873,0.011021820678551,1.689872929725789e-05,high
1200,0.303030303030303,3.645569620253165,electrolyte,0.0113969072695533,0.0119808947129237,0.0107018574123467,-0.0001091360076287,high
1200,0.404040404040404,3.645569620253165,electrolyte,0.0113494989141206,0.0118741894343368,0.0107394946820518,1.6321121555984125e-05,high
1200,0.5050505050505051,3.645569620253165,electrolyte,0.0112280647883609,0.0117950435582005,0.010557993354596,-4.8833665783329385e-05,high
1200,0.6060606060606061,3.645569620253165,electrolyte,0.0112521807582509,0.0117861396289685,0.0106265407824073,8.368372407560136e-05,high
1200,0.7070707070707071,3.645569620253165,electrolyte,0.0109810615872257,0.0115642369197047,0.0102860088205401,1.087819056432067e-06,high
1200,0.8080808080808081,3.645569620253165,electrolyte,0.0110224344913903,0.0115294353302787,0.0104335277182926,-1.103824043388649e-05,high
1200,0.9090909090909092,3.645569620253165,electrolyte,0.0108699914762349,0.0113836876834271,0.010270599207403,-1.231583306109033e-05,high
1200,1.0101010101010102,3.645569620253165,electrolyte,0.010839007456256,0.011453490008072,0.0100948683944011,-7.473432848944129e-05,high
1200,1.1111111111111112,3.645569620253165,electrolyte,0.0106610335235492,0.0111643109571595,0.010072365170597,-6.897668890943067e-05,high
1200,1.2121212121212122,3.645569620253165,electrolyte,0.0106059924802402,0.0111738638252623,0.0099272187088334,-5.020766373599886e-05,high
1200,1.3131313131313131,3.645569620253165,electrolyte,0.0104255066116025,0.0109546374054994,0.0097998209489759,3.6977134655246767e-05,high
1200,1.414141414141414,3.645569620253165,electrolyte,0.0104989729352666,0.0110616947911872,0.0098269664299636,1.802958633983765e-05,high
1200,1.5151515151515151,3.645569620253165,electrolyte,0.0104127982738576,0.0109489604627622,0.0097767973163461,4.7025458078862336e-05,high
1200,1.616161616161616,3.645569620253165,electrolyte,0.0102665233264874,0.0107519527336487,0.0096996831933289,3.5094167542944626e-05,high
1200,1.7171717171717171,3.645569620253165,electrolyte,0.0103211321572269,0.0108458041624201,0.0096993416499832,-6.887833330695104e-05,high
1200,1.818181818181818,3.645569620253165,electrolyte,0.0102349206109723,0.0107521835583861,0.0096232727432208,-5.152771676644996e-05,high
1200,1.9191919191919191,3.645569620253165,electrolyte,0.0102086118454746,0.0108280327016604,0.0094472083372863,-6.927979691390932e-05,high
1200,2.0202020202020203,3.645569620253165,electrolyte,0.0100606714439372,0.0105703332824819,0.0094579621232955,4.445406145627215e-05,high
1200,2.121212121212121,3.645569620253165,electrolyte,0.0100043981192163,0.0104455905181537,0.009495299746593,1.7475480217235326e-05,high
1200,2.2222222222222223,3.645569620253165,electrolyte,0.0100372641591214,0.0104486651302547,0.0095673115887641,-3.765079496198143e-05,high
1200,2.323232323232323,3.645569620253165,electrolyte,0.0100335932056962,0.0106188130495285,0.0093200631862815,-7.795901742142749e-05,high
1200,2.525252525252525,3.645569620253165,electrolyte,0.0100482691924098,0.0105885669428426,0.0094026135673542,-1.8485658310312285e-05,high
1200,7.6767676767676765,3.645569620253165,electrolyte,0.0101721917164369,0.0107298079938304,0.0095032127266188,2.082054478872997e-05,high
1200,7.777777777777778,3.645569620253165,electrolyte,0.0102023300441732,0.0106440972907534,0.0096929643658671,5.781794225993304e-05,high
1200,7.878787878787879,3.645569620253165,electrolyte,0.0101305343662949,0.0107298879033992,0.0093980416523389,6.826094331444034e-05,high
1200,7.979797979797979,3.645569620253165,electrolyte,0.0102038766129553,0.0105725835345828,0.0097888263800837,-6.228441812757076e-05,high
1200,8.080808080808081,3.645569620253165,electrolyte,0.0103044139841087,0.0108654170939154,0.0096323871895871,-1.5059725284023934e-05,high
1200,8.181818181818182,3.645569620253165,electrolyte,0.0102012686861252,0.0106678010949359,0.0096596842301337,-2.577587026435228e-05,high
1200,8.282828282828282,3.645569620253165,electrolyte,0.0103003795349212,0.0107801271278825,0.0097419479257711,1.3728251911674271e-05,high
1200,8.383838383838384,3.645569620253165,electrolyte,0.0103637439085662,0.0108486629801196,0.0097988094483253,1.8385255224778653e-05,high
1200,8.484848484848484,3.645569620253165,electrolyte,0.010451171750702,0.0110518536404811,0.0097223894773812,-5.504683440765002e-05,high
1200,8.585858585858587,3.645569620253165,electrolyte,0.0104623655360232,0.0109169680025259,0.0099380677577038,5.561535239757025e-05,high
1200,8.686868686868687,3.645569620253165,electrolyte,0.0105307254241222,0.0110802009530873,0.0098770076380803,-5.560083892534693e-05,high
1200,8.787878787878787,3.645569620253165,electrolyte,0.0106044005632461,0.0111776426077702,0.0099187164011056,-1.3528396818604492e-05,high
1200,8.88888888888889,3.645569620253165,electrolyte,0.0107364538289438,0.0112442360282119,0.0101431933100532,4.720909451321682e-05,high
1200,8.98989898989899,3.645569620253165,electrolyte,0.0107218556456048,0.0112849640482553,0.010052150063678,8.288311957488793e-06,high
1200,9.09090909090909,3.645569620253165,electrolyte,0.0110071492083728,0.0114874340149623,0.0104536135041938,3.343401237926567e-05,high
1200,9.191919191919192,3.645569620253165,electrolyte,0.0108370495992848,0.0113751237141939,0.0102036577159136,-2.192849307410772e-05,high
1200,9.292929292929292,3.645569620253165,electrolyte,0.0111055184183918,0.0116426475982141,0.0104762124038102,1.9314044062935675e-05,high
1200,9.393939393939394,3.645569620253165,electrolyte,0.0111458516425973,0.0117222137504934,0.0104617254987542,4.6888913517342543e-05,high
1200,9.494949494949497,3.645569620253165,electrolyte,0.0112011067874421,0.0117440907143109,0.0105644282603118,-3.457322844498207e-05,high
1200,9.595959595959595,3.645569620253165,electrolyte,0.0113675661588164,0.0119212653828363,0.0107178210726004,-3.313022287491451e-05,high
1200,9.696969696969695,3.645569620253165,electrolyte,0.011535966785406,0.0121839734778974,0.010754759607336,7.562390322830733e-06,high
1200,9.797979797979798,3.645569620253165,electrolyte,0.0117632292205168,0.0124206030802177,0.0109712046880483,-3.571765728436599e-05,high
1200,9.8989898989899,3.645569620253165,electrolyte,0.0117819085330375,0.0124391415891647,0.0109907179438318,1.0660747398198037e-05,high
1200,10.0,3.645569620253165,electrolyte,0.0117835455827047,0.0123415955835903,0.01113122697995,5.730796136810671e-05,high
1200,0.0,3.746835443037975,electrolyte,0.0118811201949785,0.0124474199998849,0.0112193972078633,-1.1943170873327776e-05,high
1200,0.101010101010101,3.746835443037975,electrolyte,0.011659802984627,0.012148987919173,0.0110996635880479,-9.041577045215608e-06,high
1200,0.202020202020202,3.746835443037975,electrolyte,0.0116359637973742,0.0121857200055393,0.0109941457464682,-3.751671791115982e-05,high
1200,0.303030303030303,3.746835443037975,electrolyte,0.0114376337111964,0.0120136863262277,0.0107566612701449,6.376650864230168e-05,high
1200,0.404040404040404,3.746835443037975,electrolyte,0.0113876106735352,0.0119615129447347,0.0107078661570584,8.900736977184851e-05,high
1200,0.5050505050505051,3.746835443037975,electrolyte,0.0114292766057501,0.012025564571778,0.0107202534112433,4.9755677064262376e-05,high
1200,0.6060606060606061,3.746835443037975,electrolyte,0.0111688177760752,0.0117198509594533,0.0105209030007247,-2.3088092705473777e-05,high
1200,0.7070707070707071,3.746835443037975,electrolyte,0.0110605881403166,0.011640640186658,0.0103709033158247,1.1893673716350689e-05,high
1200,0.8080808080808081,3.746835443037975,electrolyte,0.0108732095894822,0.0113366588056966,0.0103403559254229,-5.4712252081370007e-05,high
1200,0.9090909090909092,3.746835443037975,electrolyte,0.0109932892645764,0.0115699779677783,0.0103075099092962,-1.751858774073051e-05,high
1200,1.0101010101010102,3.746835443037975,electrolyte,0.0106854689712152,0.0112449059128061,0.0100205236351826,-9.82680628237731e-06,high
1200,1.1111111111111112,3.746835443037975,electrolyte,0.0106964902136172,0.0111662023335088,0.0101539021310566,-5.664368190607763e-05,high
1200,1.2121212121212122,3.746835443037975,electrolyte,0.0107109209602471,0.0113499640409463,0.0099302711188371,-5.154542453209723e-06,high
1200,1.3131313131313131,3.746835443037975,electrolyte,0.0106063277500549,0.0111606310822814,0.0099470108596763,-4.617257690450978e-05,high
1200,1.414141414141414,3.746835443037975,electrolyte,0.010394959357228,0.0107540205079441,0.0099927528562297,-6.678935584753525e-05,high
1200,1.5151515151515151,3.746835443037975,electrolyte,0.0104623308988445,0.010948097012835,0.0098969391578382,-3.046840251871611e-05,high
1200,1.616161616161616,3.746835443037975,electrolyte,0.0104042019470278,0.0109001441432407,0.0098195836619862,-0.000122378999597,high
1200,1.7171717171717171,3.746835443037975,electrolyte,0.0103703262742653,0.0107893860725489,0.009892818490156,2.825814912789793e-05,high
1200,1.818181818181818,3.746835443037975,electrolyte,0.0102118409981774,0.0106404573893389,0.0097209438230472,1.7347816109631522e-05,high
1200,1.9191919191919191,3.746835443037975,electrolyte,0.0102272963846381,0.010680745789167,0.0097035906899192,-1.978088380009707e-05,high
1200,2.0202020202020203,3.746835443037975,electrolyte,0.0101789105514447,0.0106955553097469,0.0095683611185645,1.54671958197118e-05,high
1200,2.121212121212121,3.746835443037975,electrolyte,0.0101366037484586,0.0106797148930638,0.0094863201622128,-7.153053633815863e-05,high
1200,2.2222222222222223,3.746835443037975,electrolyte,0.010108150690515,0.0106421203815382,0.0094718762560269,-3.8261003620492834e-05,high
1200,2.323232323232323,3.746835443037975,electrolyte,0.0101038399373064,0.0104469293549469,0.009721223074932,3.652016046043427e-05,high
1200,2.4242424242424243,3.746835443037975,electrolyte,0.0100828840229533,0.0105610222965649,0.0095246080396202,1.630782898487339e-05,high
1200,2.525252525252525,3.746835443037975,electrolyte,0.0100205156849595,0.0104887231499118,0.0094748830036478,3.385285451213981e-05,high
1200,7.474747474747475,3.746835443037975,electrolyte,0.0100577691940765,0.0105087994382525,0.0095360480886115,-4.441333790173131e-06,high
1200,7.878787878787879,3.746835443037975,electrolyte,0.0102005553045065,0.0106468064288646,0.0096853799758744,5.360939796483216e-05,high
1200,7.979797979797979,3.746835443037975,electrolyte,0.0102971137794616,0.0108278787530241,0.0096679777995754,-2.229024177594032e-05,high
1200,8.080808080808081,3.746835443037975,electrolyte,0.01014637034394,0.0106985626690602,0.0094840524884065,-5.18532339111154e-05,high
1200,8.181818181818182,3.746835443037975,electrolyte,0.0102439874626089,0.0106526974858477,0.0097792827773134,1.5108780275451276e-05,high
1200,8.282828282828282,3.746835443037975,electrolyte,0.0102712552698821,0.0107979185325865,0.0096477709154519,5.512938486778333e-07,high
1200,8.383838383838384,3.746835443037975,electrolyte,0.0103738203949014,0.0108413641162971,0.0098313554505203,-5.979934474597692e-05,high
1200,8.484848484848484,3.746835443037975,electrolyte,0.0105101513594912,0.0109590746196693,0.0099914051633661,0.0001005695150523,high
1200,8.585858585858587,3.746835443037975,electrolyte,0.0105055575671245,0.0109947755690004,0.0099359209385066,-2.796353243071316e-05,high
1200,8.686868686868687,3.746835443037975,electrolyte,0.0105887320345706,0.0110258242020594,0.0100882332512867,-6.078094798232187e-05,high
1200,8.787878787878787,3.746835443037975,electrolyte,0.0106012327045723,0.0111906565968813,0.0098898608700912,-8.170790564166589e-05,high
1200,8.88888888888889,3.746835443037975,electrolyte,0.010844385614618,0.0113279517936785,0.0102852994910555,2.707222528833327e-05,high
1200,8.98989898989899,3.746835443037975,electrolyte,0.0107269947172121,0.0113289725198792,0.0100013866033794,-1.2875131513050465e-05,high
1200,9.09090909090909,3.746835443037975,electrolyte,0.0109529009427042,0.011393869454744,0.0104506627978014,3.1158890071764125e-05,high
1200,9.191919191919192,3.746835443037975,electrolyte,0.0108626493896758,0.0113546575264231,0.0102924227388799,-2.4991345209342247e-05,high
1200,9.292929292929292,3.746835443037975,electrolyte,0.0110372934549478,0.0115383814013144,0.0104563807034501,2.169997467537465e-05,high
1200,9.393939393939394,3.746835443037975,electrolyte,0.0111644827536044,0.0117618211146635,0.010450702099463,-4.950914726264539e-05,high
1200,9.494949494949497,3.746835443037975,electrolyte,0.011300489871187,0.0118200566813229,0.0106964621088953,4.403842582052101e-05,high
1200,9.595959595959595,3.746835443037975,electrolyte,0.0113585653867003,0.0119223783677913,0.0106943996262826,-4.617753220128832e-05,high
1200,9.696969696969695,3.746835443037975,electrolyte,0.0116501994665248,0.012308048619774,0.0108562659473844,-2.9196095894158258e-06,high
1200,9.797979797979798,3.746835443037975,electrolyte,0.0115557850495229,0.0120711480249217,0.0109601517981075,8.95850090275452e-06,high
1200,9.8989898989899,3.746835443037975,electrolyte,0.011752779223169,0.0122578656051512,0.0111718945429363,4.043290058815859e-05,high
1200,10.0,3.746835443037975,electrolyte,0.0118645958993845,0.0124353225616967,0.0111966486626817,-1.1329859563524665e-05,high
1200,0.0,3.848101265822785,electrolyte,0.0118049169643227,0.0123754562080636,0.0111362607132711,3.720341191655432e-05,high
1200,0.101010101010101,3.848101265822785,electrolyte,0.0117728789387862,0.0122956285326806,0.0111672239661039,-8.029946654868617e-05,high
1200,0.202020202020202,3.848101265822785,electrolyte,0.0116417085451865,0.012130228440718,0.0110811816260672,-6.222034623828237e-05,high
1200,0.303030303030303,3.848101265822785,electrolyte,0.0114246074200574,0.0119760483760595,0.0107752487303155,-0.0001077572192155,high
1200,0.404040404040404,3.848101265822785,electrolyte,0.0113791694187296,0.0120365489255241,0.0105818721905102,-7.956381917485279e-06,high
1200,0.5050505050505051,3.848101265822785,electrolyte,0.0111411743924086,0.0115822532878629,0.0106401496187728,2.081356420087178e-05,high
1200,0.6060606060606061,3.848101265822785,electrolyte,0.0111223272488502,0.0116628815376405,0.0104876943127717,-5.279534127059842e-05,high
1200,0.7070707070707071,3.848101265822785,electrolyte,0.0111015255799841,0.0116273404394567,0.0104876346463864,-2.3398504995103028e-05,high
1200,0.8080808080808081,3.848101265822785,electrolyte,0.0108845821074122,0.0113010326051025,0.010413054627565,4.9507237111826856e-05,high
1200,0.9090909090909092,3.848101265822785,electrolyte,0.0107659201865061,0.011214696423627,0.0102524132900176,2.118156341109368e-05,high
1200,1.0101010101010102,3.848101265822785,electrolyte,0.0108368725943954,0.0113477321701775,0.0102405293000328,-4.133462581948969e-05,high
1200,1.1111111111111112,3.848101265822785,electrolyte,0.0106561005325738,0.0112284316978028,0.0099715101522368,-5.230079755320185e-05,high
1200,1.2121212121212122,3.848101265822785,electrolyte,0.0107014643239298,0.0112492604418197,0.0100524474999608,-4.610659303084254e-05,high
1200,1.3131313131313131,3.848101265822785,electrolyte,0.0105673717063509,0.0110765493308496,0.0099712943776232,8.60624554051946e-06,high
1200,1.414141414141414,3.848101265822785,electrolyte,0.0105468202193487,0.0109504909255828,0.0100904655211745,8.600746227991813e-06,high
1200,1.5151515151515151,3.848101265822785,electrolyte,0.0103998972540739,0.010977752091736,0.00970463430114,2.558963128700892e-05,high
1200,1.616161616161616,3.848101265822785,electrolyte,0.0104831659201147,0.0110473962514595,0.0098080423960753,-4.9796014696200585e-05,high
1200,1.7171717171717171,3.848101265822785,electrolyte,0.010286431126735,0.0107548730805607,0.009742834581107,-3.4127388724595326e-05,high
1200,1.818181818181818,3.848101265822785,electrolyte,0.0103561252846929,0.0108395377959548,0.0097918652913414,6.434106241531994e-05,high
1200,1.9191919191919191,3.848101265822785,electrolyte,0.0102940151810271,0.0106721665106117,0.0098682922379421,3.862970472476077e-05,high
1200,2.0202020202020203,3.848101265822785,electrolyte,0.0102517033815255,0.0108012462860882,0.0095924885737337,9.218719039638649e-05,high
1200,2.121212121212121,3.848101265822785,electrolyte,0.010120951577455,0.0106233485076374,0.0095295257294571,-2.408060493167585e-05,high
1200,2.2222222222222223,3.848101265822785,electrolyte,0.0101273241508023,0.0106700980554794,0.0094792391873799,6.78210897551676e-06,high
1200,2.323232323232323,3.848101265822785,electrolyte,0.0100667633915219,0.0105580906253442,0.0094892380072546,5.490724188522642e-05,high
1200,2.525252525252525,3.848101265822785,electrolyte,0.0100544860418712,0.0105232677626214,0.0095086530247973,1.9533374612277875e-05,high
1200,7.373737373737374,3.848101265822785,electrolyte,0.0100250169291199,0.0104613769337322,0.0095225824351025,1.0084349907143764e-05,high
1200,7.6767676767676765,3.848101265822785,electrolyte,0.0100333687779063,0.0104855198231096,0.0095097718436376,-2.23884963838513e-05,high
1200,7.777777777777778,3.848101265822785,electrolyte,0.0102264115291296,0.0107459795949942,0.0096122526886447,-1.901587783638306e-05,high
1200,7.878787878787879,3.848101265822785,electrolyte,0.010103543904372,0.0105446757136688,0.0095954077681453,-2.9743158186377527e-06,high
1200,7.979797979797979,3.848101265822785,electrolyte,0.0101350937402831,0.0105844262947764,0.0096153846859517,5.083627417045617e-05,high
1200,8.080808080808081,3.848101265822785,electrolyte,0.0101157738785684,0.0105690657513497,0.009591498856387,-4.548298232622112e-06,high
1200,8.181818181818182,3.848101265822785,electrolyte,0.0102701795447969,0.010878543324945,0.0095272229204236,-5.232507510101028e-05,high
1200,8.282828282828282,3.848101265822785,electrolyte,0.0105031643991126,0.0110319544509816,0.0098788268812346,3.6473825146494834e-05,high
1200,8.383838383838384,3.848101265822785,electrolyte,0.0104323072543769,0.0109661210485333,0.0098002174737375,3.3328591560599513e-05,high
1200,8.484848484848484,3.848101265822785,electrolyte,0.010404488198679,0.010845406398294,0.0098987455608579,2.0732378090567427e-05,high
1200,8.585858585858587,3.848101265822785,electrolyte,0.0105073560216373,0.0110050255841791,0.0099263386302916,-2.124803808007808e-05,high
1200,8.686868686868687,3.848101265822785,electrolyte,0.0106584677428907,0.0112670304802717,0.0099222713686457,2.805582629179192e-06,high
1200,8.787878787878787,3.848101265822785,electrolyte,0.0105884553470492,0.0111433892724106,0.0099283893453883,-3.2936757958130285e-05,high
1200,8.88888888888889,3.848101265822785,electrolyte,0.0106767270105969,0.0112376624468647,0.0100090667328155,3.889678095667682e-05,high
1200,8.98989898989899,3.848101265822785,electrolyte,0.0107185868015791,0.0113160774661151,0.0099988818026735,4.073308897941944e-05,high
1200,9.09090909090909,3.848101265822785,electrolyte,0.0109253934877666,0.0115341769290264,0.0101926520900561,1.507079117174883e-05,high
1200,9.191919191919192,3.848101265822785,electrolyte,0.0108766541041261,0.0114011613946609,0.0102607367671456,-7.465534006646615e-05,high
1200,9.292929292929292,3.848101265822785,electrolyte,0.0110884717211083,0.011538552337527,0.0105755419920641,1.1126712651687211e-05,high
1200,9.393939393939394,3.848101265822785,electrolyte,0.0111038748887272,0.0115972314809051,0.0105339953518681,-1.1313178525762936e-05,high
1200,9.494949494949497,3.848101265822785,electrolyte,0.0113542571552748,0.0119079665468655,0.0107045592030068,2.1858823613955743e-05,high
1200,9.595959595959595,3.848101265822785,electrolyte,0.0113820110503553,0.0120066008496905,0.0106323156999645,3.4376155894809185e-05,high
1200,9.696969696969695,3.848101265822785,electrolyte,0.0114259136284091,0.0119337122124964,0.0108389205303276,3.818862601194269e-05,high
1200,9.797979797979798,3.848101265822785,electrolyte,0.0114934496452606,0.0120195450964479,0.0108819161064028,-5.6283960059533645e-05,high
1200,9.8989898989899,3.848101265822785,electrolyte,0.0116653694782154,0.0122980526001972,0.0109080435983865,1.849414288197025e-05,high
1200,10.0,3.848101265822785,electrolyte,0.0118165504376416,0.0124315253725195,0.0110861156663881,3.370844891957691e-05,high
1200,0.0,3.9493670886075942,electrolyte,0.0118366428004542,0.0123664366269047,0.011223849863901,-2.295083679524965e-05,high
1200,0.101010101010101,3.9493670886075942,electrolyte,0.0116984513082614,0.0121636598799336,0.0111697840168879,-1.3166458330278045e-05,high
1200,0.202020202020202,3.9493670886075942,electrolyte,0.0116256825365602,0.0121703871405587,0.0109910644050675,-7.819419153373539e-06,high
1200,0.303030303030303,3.9493670886075942,electrolyte,0.0115046263994983,0.012095633675491,0.0108042373228393,-3.927362244042455e-05,high
1200,0.404040404040404,3.9493670886075942,electrolyte,0.0113944663560425,0.0120520374916117,0.0105964007203317,4.749165366579002e-05,high
1200,0.5050505050505051,3.9493670886075942,electrolyte,0.011453524493762,0.0119723524502224,0.0108517890279505,4.515893338301825e-05,high
1200,0.6060606060606061,3.9493670886075942,electrolyte,0.0111920353556588,0.0117774744135286,0.0104959179016702,-3.5887675750655984e-05,high
1200,0.7070707070707071,3.9493670886075942,electrolyte,0.0110652079722054,0.0117048287294198,0.0102885396165844,4.952618516661718e-05,high
1200,0.8080808080808081,3.9493670886075942,electrolyte,0.0110055038144367,0.0115113021901377,0.0104179206026898,-2.4485801240053547e-05,high
1200,0.9090909090909092,3.9493670886075942,electrolyte,0.0109600064299134,0.0113293918444872,0.0105471215806798,7.598455794511986e-05,high
1200,1.0101010101010102,3.9493670886075942,electrolyte,0.0107766125601293,0.0112748762627824,0.0101970373585462,-3.3201923011359384e-05,high
1200,1.1111111111111112,3.9493670886075942,electrolyte,0.010763495158618,0.0112956672157965,0.0101363565660996,6.30245872080824e-05,high
1200,1.2121212121212122,3.9493670886075942,electrolyte,0.0107217867914815,0.0111247577749225,0.0102663130502749,-5.638773766499505e-05,high
1200,1.3131313131313131,3.9493670886075942,electrolyte,0.0105948701419706,0.011030407835416,0.0100964883476426,-5.967561074704586e-05,high
1200,1.414141414141414,3.9493670886075942,electrolyte,0.0104389237627693,0.0108920434026063,0.0099173591053609,-1.647251033046635e-05,high
1200,1.5151515151515151,3.9493670886075942,electrolyte,0.0105368035479328,0.0109598326722294,0.0100554466867711,-1.0031043483632754e-05,high
1200,1.616161616161616,3.9493670886075942,electrolyte,0.0104765894409801,0.0110048215095422,0.0098454238534306,0.0001501012958691,high
1200,1.7171717171717171,3.9493670886075942,electrolyte,0.0103518071872941,0.0108212544903654,0.0098071470288254,4.421265283416306e-05,high
1200,1.818181818181818,3.9493670886075942,electrolyte,0.0101884891203167,0.0105284218717199,0.0098104647983546,-1.945970949457269e-05,high
1200,1.9191919191919191,3.9493670886075942,electrolyte,0.01019160995384,0.0107237590268948,0.0095590631760854,-3.3201421224241694e-05,high
1200,2.0202020202020203,3.9493670886075942,electrolyte,0.0102366386233226,0.0106886559909851,0.0097150316586457,-8.054464256066898e-06,high
1200,2.121212121212121,3.9493670886075942,electrolyte,0.0100624780509775,0.0105178996003114,0.0095344119399991,-3.754559671473819e-05,high
1200,2.2222222222222223,3.9493670886075942,electrolyte,0.0100796057678937,0.0105516756611606,0.0095296533662899,6.0931810288703735e-06,high
1200,2.323232323232323,3.9493670886075942,electrolyte,0.0100966881448098,0.0106036439596632,0.0094987857340599,-1.4807900611143124e-05,high
1200,2.525252525252525,3.9493670886075942,electrolyte,0.0100224875263879,0.0105281737550104,0.0094255714742226,1.251939983854549e-05,high
1200,2.6262626262626263,3.9493670886075942,electrolyte,0.0100762065493158,0.0105531784382822,0.0095192445351463,2.962505346896845e-05,high
1200,2.727272727272727,3.9493670886075942,electrolyte,0.0100089220954187,0.0104627637180949,0.0094805347478555,-8.396978461137069e-05,high
1200,7.373737373737374,3.9493670886075942,electrolyte,0.0100321922814813,0.0105575737800683,0.0094073103801575,-3.3678246803964905e-05,high
1200,7.6767676767676765,3.9493670886075942,electrolyte,0.0101040417236344,0.0106212254582696,0.0094918897750595,-1.590326615392524e-05,high
1200,7.878787878787879,3.9493670886075942,electrolyte,0.0101047790877567,0.0104891259159396,0.0096705546418294,1.6694973726044253e-05,high
1200,7.979797979797979,3.9493670886075942,electrolyte,0.0101456562563367,0.0106317586414285,0.0095747498174286,-8.295401691791278e-05,high
1200,8.080808080808081,3.9493670886075942,electrolyte,0.0102855249652452,0.0108432827451227,0.009617555238424,3.533234088670736e-05,high
1200,8.181818181818182,3.9493670886075942,electrolyte,0.0101796945105257,0.0107501246161415,0.0094919880021382,3.275520429366412e-05,high
1200,8.282828282828282,3.9493670886075942,electrolyte,0.0104257960117864,0.0110084783331791,0.0097235465876202,-3.9669287703952895e-05,high
1200,8.383838383838384,3.9493670886075942,electrolyte,0.0101837986371212,0.0106443713393378,0.0096503088707908,-6.411709505624556e-06,high
1200,8.484848484848484,3.9493670886075942,electrolyte,0.0103068233353378,0.0108809710363053,0.0096158164270212,-1.379671005524741e-05,high
1200,8.585858585858587,3.9493670886075942,electrolyte,0.0104722212162226,0.0109241497509232,0.0099498145954912,-9.096440938681653e-05,high
1200,8.686868686868687,3.9493670886075942,electrolyte,0.01057960942658,0.0110902743224816,0.0099816034985706,9.374536423670332e-06,high
1200,8.787878787878787,3.9493670886075942,electrolyte,0.0106416021902863,0.0111774292800839,0.0100069312294195,8.537244324389675e-05,high
1200,8.88888888888889,3.9493670886075942,electrolyte,0.0107796290570355,0.0113227506731064,0.0101386229294785,1.9531981723347424e-05,high
1200,8.98989898989899,3.9493670886075942,electrolyte,0.0108012938031102,0.011336972947545,0.0101698767625808,-5.8356887348700216e-05,high
1200,9.09090909090909,3.9493670886075942,electrolyte,0.0107974259049148,0.0113969776209989,0.0100751238409142,-6.095848999930699e-05,high
1200,9.191919191919192,3.9493670886075942,electrolyte,0.0109370707570252,0.0113907227937474,0.0104176474524964,-5.198342700724013e-05,high
1200,9.292929292929292,3.9493670886075942,electrolyte,0.011000399208409,0.0117058214982394,0.0101223636557162,6.017172989803145e-05,high
1200,9.393939393939394,3.9493670886075942,electrolyte,0.0110413747310218,0.0115761868395402,0.0104145418297312,-2.4864652678739137e-05,high
1200,9.494949494949497,3.9493670886075942,electrolyte,0.0111960791972541,0.0117164881266601,0.0105893989620712,6.135198632310333e-05,high
1200,9.595959595959595,3.9493670886075942,electrolyte,0.0113822845228176,0.0119265641189473,0.0107438720390644,8.197894625627964e-05,high
1200,9.696969696969695,3.9493670886075942,electrolyte,0.011522197766039,0.0119788561910893,0.0110023226243144,6.372615382779064e-05,high
1200,9.797979797979798,3.9493670886075942,electrolyte,0.0116244895634404,0.0121246056202771,0.0110495508739127,2.2863912430942963e-05,high
1200,9.8989898989899,3.9493670886075942,electrolyte,0.0116923893452057,0.0122169562633797,0.0110842200365825,-6.69473419287318e-05,high
1200,10.0,3.9493670886075942,electrolyte,0.0118883497412383,0.0124325727290494,0.0112562702418221,-3.988980344224181e-05,high
1200,0.0,4.050632911392405,electrolyte,0.0118712325928966,0.0124527415268633,0.0111872310871509,-6.570000519949669e-05,high
1200,0.101010101010101,4.050632911392405,electrolyte,0.0117311092842172,0.0123238691990044,0.011030802671057,-3.9727045423323225e-05,high
1200,0.202020202020202,4.050632911392405,electrolyte,0.0117088790944896,0.012327715463958,0.0109716197612673,-3.5812003931725505e-05,high
1200,0.303030303030303,4.050632911392405,electrolyte,0.0114365089845925,0.0120866402448994,0.0106507292461486,1.102443201246371e-05,high
1200,0.404040404040404,4.050632911392405,electrolyte,0.0113611166535796,0.0119319811872896,0.0106872569602066,-4.275598141416086e-05,high
1200,0.5050505050505051,4.050632911392405,electrolyte,0.0113464577179403,0.0118699453510966,0.010737487387167,-4.565527052269964e-05,high
1200,0.6060606060606061,4.050632911392405,electrolyte,0.0111700278675699,0.0115869674546526,0.0107001301277371,1.809758030353132e-05,high
1200,0.7070707070707071,4.050632911392405,electrolyte,0.011026275831213,0.0115350409063746,0.0104349971803332,-1.3455776240182096e-05,high
1200,0.8080808080808081,4.050632911392405,electrolyte,0.0109598545270443,0.0115573836361908,0.0102437834536595,-2.2587270899604455e-05,high
1200,0.9090909090909092,4.050632911392405,electrolyte,0.0109885210301876,0.0116548008668406,0.0101715422349482,-8.925708405359943e-06,high
1200,1.0101010101010102,4.050632911392405,electrolyte,0.0107343845883897,0.0112039973751843,0.0101921293927471,5.928663058800465e-05,high
1200,1.1111111111111112,4.050632911392405,electrolyte,0.0107777976690222,0.0112997752308309,0.0101659806536642,2.6683726547813545e-05,high
1200,1.2121212121212122,4.050632911392405,electrolyte,0.0106633833733055,0.0112179194290597,0.0100050220620008,1.909245558835993e-05,high
1200,1.3131313131313131,4.050632911392405,electrolyte,0.0106807686756594,0.0112425099100054,0.0100124243217576,-1.7600075686112553e-05,high
1200,1.414141414141414,4.050632911392405,electrolyte,0.0104950972192668,0.0109923534184068,0.0099141548779479,3.940933049521487e-05,high
1200,1.5151515151515151,4.050632911392405,electrolyte,0.0104956742329773,0.0110321033825391,0.0098607466881991,-2.783406885144259e-05,high
1200,1.616161616161616,4.050632911392405,electrolyte,0.0103580581758628,0.0109299972523497,0.0096703357986669,-4.4266194531010765e-05,high
1200,1.7171717171717171,4.050632911392405,electrolyte,0.0103084301287491,0.0107558796384831,0.009793477953251,3.85608867127825e-06,high
1200,1.818181818181818,4.050632911392405,electrolyte,0.0102371823170903,0.0106791370104936,0.0097284410980433,3.968077148223955e-05,high
1200,1.9191919191919191,4.050632911392405,electrolyte,0.0101896990081298,0.0107209512217171,0.0095586944288832,-1.6616341719986358e-05,high
1200,2.0202020202020203,4.050632911392405,electrolyte,0.010298256939206,0.0108092074880667,0.0096969564926789,-1.3892168554539463e-05,high
1200,2.121212121212121,4.050632911392405,electrolyte,0.0100874291724971,0.0106820282460314,0.009363008814644,1.2785719909113797e-05,high
1200,2.2222222222222223,4.050632911392405,electrolyte,0.0101131516496044,0.0105890654389062,0.0095582769467835,5.51663313776737e-06,high
1200,2.323232323232323,4.050632911392405,electrolyte,0.0101070559696334,0.0106138883777339,0.0095094339164711,-1.5172249202766453e-05,high
1200,7.575757575757575,4.050632911392405,electrolyte,0.0100928747119144,0.0105277606861944,0.0095908131621351,-7.845068641849694e-05,high
1200,7.777777777777778,4.050632911392405,electrolyte,0.0101102648798687,0.0105554543300341,0.0095963722659334,3.439160925130644e-05,high
1200,7.878787878787879,4.050632911392405,electrolyte,0.010211002109732,0.0107485347081168,0.009571419683868,8.710656902282776e-06,high
1200,7.979797979797979,4.050632911392405,electrolyte,0.0102508232458447,0.0107074021494773,0.0097224772772026,-4.7700864290446463e-05,high
1200,8.080808080808081,4.050632911392405,electrolyte,0.0100728388304301,0.0105283925408144,0.0095446424370003,3.905380311063163e-05,high
1200,8.181818181818182,4.050632911392405,electrolyte,0.0103757518702475,0.0108744820773726,0.0097916510344944,-3.903042841380657e-05,high
1200,8.282828282828282,4.050632911392405,electrolyte,0.010240235503051,0.0107032043339071,0.0097037979044267,-2.5021062076520614e-05,high
1200,8.383838383838384,4.050632911392405,electrolyte,0.0104469181132042,0.0108970174189691,0.0099293155969228,2.3987701657967716e-05,high
1200,8.484848484848484,4.050632911392405,electrolyte,0.0104614577736925,0.0109378049926065,0.0099066321906769,-8.557719363043384e-05,high
1200,8.585858585858587,4.050632911392405,electrolyte,0.0104615934102779,0.0109582409285989,0.0098790572353924,-8.795814428705259e-05,high
1200,8.686868686868687,4.050632911392405,electrolyte,0.0105988263573167,0.011115537551333,0.0099924371400122,-2.860862050088912e-05,high
1200,8.787878787878787,4.050632911392405,electrolyte,0.0106443964898701,0.0111784162720271,0.0100143627015354,-3.3867101832077966e-05,high
1200,8.88888888888889,4.050632911392405,electrolyte,0.010848429092101,0.011322108712817,0.0103009095250226,-7.648202837823262e-05,high
1200,8.98989898989899,4.050632911392405,electrolyte,0.0106848075361332,0.0111585351679797,0.0101361529446067,7.124505392151557e-05,high
1200,9.09090909090909,4.050632911392405,electrolyte,0.0108764719525087,0.011481231296171,0.010148107345026,-5.051408376694164e-05,high
1200,9.191919191919192,4.050632911392405,electrolyte,0.0109310422946951,0.0114488199401273,0.0103265252597591,-2.3180398842336983e-05,high
1200,9.292929292929292,4.050632911392405,electrolyte,0.011072119961973,0.0116530923840059,0.0103812088826345,-1.79503413044308e-05,high
1200,9.393939393939394,4.050632911392405,electrolyte,0.0111256986908797,0.0116394967486971,0.0105281773679033,3.3933025691015235e-05,high
1200,9.494949494949497,4.050632911392405,electrolyte,0.0113557521701269,0.01190559687727,0.0107114570174606,1.6813947250906443e-05,high
1200,9.595959595959595,4.050632911392405,electrolyte,0.0114355394080207,0.0120170597140261,0.0107472487063103,5.419745337664282e-05,high
1200,9.696969696969695,4.050632911392405,electrolyte,0.011457666861831,0.0120868665462889,0.0107026463810394,1.4212096622945248e-05,high
1200,9.797979797979798,4.050632911392405,electrolyte,0.0116850883283019,0.012273047359094,0.0109912130989356,-2.8932522473863405e-05,high
1200,9.8989898989899,4.050632911392405,electrolyte,0.011710857686519,0.0122881504249003,0.0110319899079581,3.4142029849072656e-05,high
1200,10.0,4.050632911392405,electrolyte,0.0117590742216579,0.0123738586636294,0.0110267214066214,7.73639719965958e-05,high
1200,0.0,4.151898734177215,electrolyte,0.0119179499722847,0.0125834088956883,0.0111151571629412,7.118255881451636e-05,high
1200,0.101010101010101,4.151898734177215,electrolyte,0.0117080638141412,0.0123454798605143,0.0109421495930244,-8.819486933578916e-05,high
1200,0.202020202020202,4.151898734177215,electrolyte,0.0115734981396645,0.0120858978211335,0.0109819317102296,-1.4300189887962064e-05,high
1200,0.303030303030303,4.151898734177215,electrolyte,0.0114398400444702,0.0118916404898438,0.010926344431746,-4.46613656847333e-05,high
1200,0.404040404040404,4.151898734177215,electrolyte,0.0113995425810422,0.0119314206122935,0.0107791841859541,6.03928660528279e-05,high
1200,0.5050505050505051,4.151898734177215,electrolyte,0.0111756693556724,0.0116532633188979,0.0106268774758343,-3.793048427360403e-05,high
1200,0.6060606060606061,4.151898734177215,electrolyte,0.0112105745565557,0.0117991990749678,0.0105042916176909,0.0001390067462778,high
1200,0.7070707070707071,4.151898734177215,electrolyte,0.0110457561768845,0.0115149670024751,0.0105066865381258,5.148214099606077e-05,high
1200,0.8080808080808081,4.151898734177215,electrolyte,0.011076362696893,0.0115885948706306,0.0104801209927267,4.9057365152329206e-05,high
1200,0.9090909090909092,4.151898734177215,electrolyte,0.010880112355651,0.0114354835532213,0.0102229418040647,2.7715893287251997e-05,high
1200,1.0101010101010102,4.151898734177215,electrolyte,0.0108761984461446,0.0113530043430837,0.0103263649734072,-2.850645067177833e-05,high
1200,1.1111111111111112,4.151898734177215,electrolyte,0.0107413188712364,0.0112585092893572,0.0101359164156374,-1.1650634482737014e-05,high
1200,1.2121212121212122,4.151898734177215,electrolyte,0.0107663995000391,0.0113339872910933,0.0100900099942986,5.110002321009334e-05,high
1200,1.3131313131313131,4.151898734177215,electrolyte,0.0106399256138633,0.0110741933248797,0.0101444126796819,-2.791557630857394e-05,high
1200,1.414141414141414,4.151898734177215,electrolyte,0.0105632257334208,0.0110716364404025,0.0099672504066392,5.25882460495178e-05,high
1200,1.5151515151515151,4.151898734177215,electrolyte,0.0104813058292713,0.010951739847933,0.0099367981341529,2.850215007837603e-05,high
1200,1.616161616161616,4.151898734177215,electrolyte,0.0103765522466857,0.0107530216219554,0.0099535318576243,3.219402155650447e-05,high
1200,1.7171717171717171,4.151898734177215,electrolyte,0.0103449166817808,0.0109394278287781,0.0096224886262187,-7.842709989035995e-05,high
1200,1.818181818181818,4.151898734177215,electrolyte,0.0102750315264758,0.010744341236033,0.0097275028567726,9.43442506358321e-05,high
1200,1.9191919191919191,4.151898734177215,electrolyte,0.010073647616472,0.0105087699156296,0.0095712929913996,7.527167615114422e-05,high
1200,2.0202020202020203,4.151898734177215,electrolyte,0.0100458583370584,0.0105841676077165,0.009402868100239,2.750294347692028e-05,high
1200,2.121212121212121,4.151898734177215,electrolyte,0.0101069370104685,0.0106191454285896,0.0095008307479695,5.429734058762429e-05,high
1200,2.2222222222222223,4.151898734177215,electrolyte,0.0101455647224397,0.0105670384215716,0.0096635444063639,1.946853089799645e-05,high
1200,2.525252525252525,4.151898734177215,electrolyte,0.010036334251941,0.0105480983503719,0.0094310601970188,1.2655357293204524e-05,high
1200,7.575757575757575,4.151898734177215,electrolyte,0.0100430938696182,0.0105194506913946,0.0094816066716459,0.0001229097325376,high
1200,7.6767676767676765,4.151898734177215,electrolyte,0.0100384660464037,0.0105831188031186,0.009385825812937,-4.464831751846945e-05,high
1200,7.777777777777778,4.151898734177215,electrolyte,0.010160727235077,0.0106347675370799,0.009607762741741,5.572487820584795e-05,high
1200,7.878787878787879,4.151898734177215,electrolyte,0.0100651085483554,0.010504016535255,0.0095566782708212,9.211175114673956e-05,high
1200,7.979797979797979,4.151898734177215,electrolyte,0.0101831174166024,0.010629838045167,0.0096681333532604,-1.0208846488965992e-05,high
1200,8.080808080808081,4.151898734177215,electrolyte,0.0103986592275037,0.0109268141605961,0.0097743587698159,-2.1279765336965905e-05,high
1200,8.181818181818182,4.151898734177215,electrolyte,0.0102074827364888,0.0106373462295549,0.0097150133844429,3.8705497495173165e-06,high
1200,8.282828282828282,4.151898734177215,electrolyte,0.010324760707414,0.0109131172071026,0.0096133095625718,-1.802597496760152e-06,high
1200,8.383838383838384,4.151898734177215,electrolyte,0.0104269643329117,0.0109217227063605,0.0098486229383712,4.5141685695511486e-05,high
1200,8.484848484848484,4.151898734177215,electrolyte,0.0104537499530542,0.0109212736193739,0.0099127423669409,-3.642840524289196e-05,high
1200,8.585858585858587,4.151898734177215,electrolyte,0.0104319280686092,0.0108496128901027,0.0099568048299285,1.3403597731161385e-05,high
1200,8.686868686868687,4.151898734177215,electrolyte,0.0104970506169657,0.0110619427224796,0.0098219361109766,-1.592246936694226e-05,high
1200,8.787878787878787,4.151898734177215,electrolyte,0.0106551462244934,0.0111665109322818,0.0100561456035141,4.888791176442787e-05,high
1200,8.88888888888889,4.151898734177215,electrolyte,0.0107643323176573,0.0113587972751275,0.0100498386046018,3.3655541363809936e-05,high
1200,8.98989898989899,4.151898734177215,electrolyte,0.0107465327835818,0.0112146891533925,0.0102072967518376,-2.211522548808305e-05,high
1200,9.09090909090909,4.151898734177215,electrolyte,0.010759331897514,0.0111624991503589,0.0103043123818818,-4.024981774568258e-05,high
1200,9.191919191919192,4.151898734177215,electrolyte,0.0110695433046064,0.01155980290361,0.010503275452179,-3.0247024177600863e-05,high
1200,9.292929292929292,4.151898734177215,electrolyte,0.0110116022142029,0.011519379453067,0.0104200509156871,6.913675496680138e-05,high
1200,9.393939393939394,4.151898734177215,electrolyte,0.0112043339015657,0.0117450080062553,0.0105708519478662,3.518980768460725e-05,high
1200,9.494949494949497,4.151898734177215,electrolyte,0.0113649877075229,0.0119429116023364,0.010680709008822,-6.062634859396833e-05,high
1200,9.595959595959595,4.151898734177215,electrolyte,0.0113051812137209,0.0118275807165637,0.0106979509711611,-7.752421545567112e-06,high
1200,9.696969696969695,4.151898734177215,electrolyte,0.0115284202529959,0.0120756697023328,0.010889445347632,1.296031126971581e-07,high
1200,9.797979797979798,4.151898734177215,electrolyte,0.0116742471212347,0.0121877514996899,0.0110820199568966,-1.2887379739314574e-05,high
1200,9.8989898989899,4.151898734177215,electrolyte,0.0117456671479853,0.0122545509504902,0.0111600007114378,-2.489444134141585e-05,high
1200,10.0,4.151898734177215,electrolyte,0.0118550179915718,0.0123757242853951,0.011253939601247,4.965572601845926e-05,high
1200,0.0,4.253164556962025,electrolyte,0.011873653538998,0.0125159680684821,0.0111051225062143,2.4525355785856983e-05,high
1200,0.101010101010101,4.253164556962025,electrolyte,0.0116330194135671,0.0122247789172794,0.0109334961143364,-7.225154156613225e-06,high
1200,0.202020202020202,4.253164556962025,electrolyte,0.0115221124165009,0.0120804663403722,0.0108669974147565,-5.21894471126985e-05,high
1200,0.303030303030303,4.253164556962025,electrolyte,0.0114730372392358,0.012074094227219,0.0107578369382324,4.800475255989416e-05,high
1200,0.404040404040404,4.253164556962025,electrolyte,0.0113312633128769,0.0118585059225425,0.010716202109352,6.95798898335336e-05,high
1200,0.5050505050505051,4.253164556962025,electrolyte,0.011271213133366,0.0118639867075981,0.0105656107629235,-3.741548286440463e-05,high
1200,0.6060606060606061,4.253164556962025,electrolyte,0.0111857779899679,0.0116533248575247,0.0106459529341296,0.0001239396216906,high
1200,0.7070707070707071,4.253164556962025,electrolyte,0.0111454248047652,0.0117374900936158,0.0104396069148469,-2.0088045258149328e-05,high
1200,0.8080808080808081,4.253164556962025,electrolyte,0.0109755933263742,0.0115107293423441,0.010347565611561,2.9843449951273582e-05,high
1200,0.9090909090909092,4.253164556962025,electrolyte,0.010895986565482,0.0114870290801358,0.0101881774159112,3.472433993631616e-05,high
1200,1.0101010101010102,4.253164556962025,electrolyte,0.0106975160318228,0.0111102139715836,0.0102301804316456,3.1073333691853086e-05,high
1200,1.1111111111111112,4.253164556962025,electrolyte,0.0107475339534531,0.0111775876008686,0.0102567084512202,7.350841740253604e-05,high
1200,1.2121212121212122,4.253164556962025,electrolyte,0.0106555638125033,0.0111426796649256,0.0100903125231266,1.2157261255938452e-05,high
1200,1.3131313131313131,4.253164556962025,electrolyte,0.0105931257383568,0.0111213563937535,0.0099708745707545,-1.875122050016568e-05,high
1200,1.414141414141414,4.253164556962025,electrolyte,0.0105181712051022,0.010913598261635,0.0100717711038013,-3.646425712607764e-05,high
1200,1.5151515151515151,4.253164556962025,electrolyte,0.0104580758537211,0.0109595438241992,0.0098676237589133,0.000107092026921,high
1200,1.616161616161616,4.253164556962025,electrolyte,0.0104609927383116,0.0110019156161285,0.0098195017702455,1.7670119849527253e-05,high
1200,1.7171717171717171,4.253164556962025,electrolyte,0.0102642199495998,0.010833545288989,0.0095795511620737,-2.007104806659405e-05,high
1200,1.818181818181818,4.253164556962025,electrolyte,0.0102916771920714,0.0107277985882159,0.0097903783196346,-5.959851894062505e-05,high
1200,1.9191919191919191,4.253164556962025,electrolyte,0.0101865626724857,0.0106383288617153,0.0096648438775774,-1.4124439029686326e-05,high
1200,2.0202020202020203,4.253164556962025,electrolyte,0.0102308000406219,0.0106862760322064,0.0097040190211718,-3.922054494845337e-05,high
1200,2.121212121212121,4.253164556962025,electrolyte,0.010107724926147,0.0106481308335542,0.0094627741301473,7.652497673550737e-06,high
1200,2.2222222222222223,4.253164556962025,electrolyte,0.0101496440747469,0.0105982458881054,0.00963160516667,3.033538194074512e-05,high
1200,2.323232323232323,4.253164556962025,electrolyte,0.0100933666281627,0.0105677241616241,0.0095403116699957,1.9072826360280903e-05,high
1200,2.4242424242424243,4.253164556962025,electrolyte,0.0100423676093338,0.0105308489324279,0.0094695602025944,-1.0090967439383003e-05,high
1200,7.474747474747475,4.253164556962025,electrolyte,0.0100595456044759,0.0105416397585519,0.0094936109356318,-7.717267128390298e-05,high
1200,7.6767676767676765,4.253164556962025,electrolyte,0.0100424881118559,0.0104234015751297,0.0096122640707708,-1.945053516210444e-05,high
1200,7.777777777777778,4.253164556962025,electrolyte,0.0101244725478872,0.0107010646005743,0.0094255659761078,6.941955680252044e-05,high
1200,7.878787878787879,4.253164556962025,electrolyte,0.0100249106098956,0.0104223569630325,0.0095727566787767,4.591610801565815e-05,high
1200,7.979797979797979,4.253164556962025,electrolyte,0.0101875116830676,0.0105769329724319,0.009746614082955,-4.719099787460698e-05,high
1200,8.080808080808081,4.253164556962025,electrolyte,0.0101455764542795,0.0105358866491672,0.0097040416353527,4.92455569916463e-06,high
1200,8.181818181818182,4.253164556962025,electrolyte,0.0102476618602521,0.0107567481734212,0.0096463727846909,7.753980978475171e-05,high
1200,8.282828282828282,4.253164556962025,electrolyte,0.0103678634793834,0.0108532660135527,0.0097969201242017,0.0001266836844203,high
1200,8.383838383838384,4.253164556962025,electrolyte,0.0103806518173293,0.0107968199595741,0.009907200828668,-9.060979998580078e-06,high
1200,8.484848484848484,4.253164556962025,electrolyte,0.0104535615323218,0.0109336766944299,0.0098960353376444,-8.127858868963048e-06,high
1200,8.585858585858587,4.253164556962025,electrolyte,0.0105636989048837,0.0110792994723197,0.009958742550639,8.075726042107562e-06,high
1200,8.686868686868687,4.253164556962025,electrolyte,0.0106495345216464,0.0110562735478776,0.0101898349515772,-9.434938922934029e-06,high
1200,8.787878787878787,4.253164556962025,electrolyte,0.0107398920681316,0.0113067160376028,0.0100648831418175,-2.8030090231953004e-05,high
1200,8.88888888888889,4.253164556962025,electrolyte,0.010730867553134,0.011200104588782,0.0101896463476225,-4.237833449742397e-05,high
1200,8.98989898989899,4.253164556962025,electrolyte,0.0108037540905499,0.0112793737351112,0.010254890316298,-3.052694740514917e-05,high
1200,9.09090909090909,4.253164556962025,electrolyte,0.010872135081809,0.0114339752722122,0.0102052583576629,4.797316245520808e-05,high
1200,9.191919191919192,4.253164556962025,electrolyte,0.0108995339119265,0.0112636155843167,0.0104946610837153,-1.549557553186059e-05,high
1200,9.292929292929292,4.253164556962025,electrolyte,0.0111280755317897,0.0116260366102827,0.0105512102509588,5.7898411267902906e-05,high
1200,9.393939393939394,4.253164556962025,electrolyte,0.0111110324639442,0.0116405260011187,0.0104896257920064,-9.25731235846656e-05,high
1200,9.494949494949497,4.253164556962025,electrolyte,0.0112272606919368,0.0118131076619249,0.0105275307193531,0.0001092714776688,high
1200,9.595959595959595,4.253164556962025,electrolyte,0.0113345018931196,0.0118904886213274,0.010681344466724,-2.886021748501213e-05,high
1200,9.696969696969695,4.253164556962025,electrolyte,0.0115015282285445,0.0120798889899929,0.0108160722632858,-0.0001015982694552,high
1200,9.797979797979798,4.253164556962025,electrolyte,0.0114080976588513,0.0120044616808482,0.0106988508556323,4.5193810118158455e-05,high
1200,9.8989898989899,4.253164556962025,electrolyte,0.0117677980315879,0.0122488438157838,0.0112189810039206,-1.7387847454135815e-05,high
1200,10.0,4.253164556962025,electrolyte,0.0118565682698591,0.0124544226820209,0.0111502342548847,-5.024364129212801e-05,high
1200,0.0,4.354430379746836,electrolyte,0.0116142374810431,0.0122742734766297,0.0108165750857618,-2.999121393519094e-06,high
1200,0.101010101010101,4.354430379746836,electrolyte,0.011748781018398,0.0122967675927114,0.0111094841885951,-6.7003468877468e-05,high
1200,0.202020202020202,4.354430379746836,electrolyte,0.0116452535112887,0.0122184279734064,0.0109654687771041,-0.0001428660758647,high
1200,0.303030303030303,4.354430379746836,electrolyte,0.0114842502841939,0.0120666986459026,0.0107960634517437,-1.4680589662963092e-05,high
1200,0.404040404040404,4.354430379746836,electrolyte,0.0112896480675405,0.0117157725881306,0.0108087940938688,7.526490362308613e-06,high
1200,0.5050505050505051,4.354430379746836,electrolyte,0.0113322209122719,0.0118987150730134,0.0106630305425759,7.292074423510029e-05,high
1200,0.6060606060606061,4.354430379746836,electrolyte,0.0112927643756224,0.0118168575420607,0.0106825689046815,4.2901439641305926e-05,high
1200,0.7070707070707071,4.354430379746836,electrolyte,0.0109930614168602,0.0115262193637914,0.0103682240134328,-2.6889682901204747e-06,high
1200,0.8080808080808081,4.354430379746836,electrolyte,0.0109119047935062,0.0114462028762753,0.0102827174708278,7.72391164680216e-05,high
1200,0.9090909090909092,4.354430379746836,electrolyte,0.010904458926874,0.0114396283173535,0.0102756194352644,3.1836772764006605e-05,high
1200,1.0101010101010102,4.354430379746836,electrolyte,0.0109090217462497,0.0114616481600207,0.0102554170590735,-5.092453856036282e-05,high
1200,1.1111111111111112,4.354430379746836,electrolyte,0.0107908699531053,0.0113497058457963,0.0101273323452044,4.631144276569205e-05,high
1200,1.2121212121212122,4.354430379746836,electrolyte,0.0107392301636465,0.0112750218795926,0.0101077645063477,-3.321028725611831e-05,high
1200,1.3131313131313131,4.354430379746836,electrolyte,0.0105734389995664,0.0109503233229767,0.0101509786005209,-2.6848785904373075e-05,high
1200,1.414141414141414,4.354430379746836,electrolyte,0.0104324852281698,0.0109533209259739,0.0098175544470897,-6.313470843853716e-05,high
1200,1.5151515151515151,4.354430379746836,electrolyte,0.010393742193724,0.0107728638301335,0.0099677982921608,2.047883637662651e-06,high
1200,1.616161616161616,4.354430379746836,electrolyte,0.0103926394930594,0.0107856279881635,0.0099461922105311,9.376233495761892e-05,high
1200,1.7171717171717171,4.354430379746836,electrolyte,0.0103832444336131,0.0109066648808034,0.0097654487252952,1.7454675612198225e-05,high
1200,1.818181818181818,4.354430379746836,electrolyte,0.0102346321196012,0.0107505213409388,0.0096231196420714,8.776285179595856e-05,high
1200,1.9191919191919191,4.354430379746836,electrolyte,0.0102316881881725,0.0107486792484697,0.0096187376444992,8.553641661745918e-05,high
1200,2.0202020202020203,4.354430379746836,electrolyte,0.0102908606024729,0.0108222047270945,0.0096610006326989,5.485588120089948e-06,high
1200,2.121212121212121,4.354430379746836,electrolyte,0.0101468148829386,0.010550985074624,0.0096873806093684,-1.4507177148615044e-05,high
1200,2.2222222222222223,4.354430379746836,electrolyte,0.0100685919809421,0.010497456003144,0.0095761901320648,-2.695109388548127e-05,high
1200,2.323232323232323,4.354430379746836,electrolyte,0.010028129760141,0.0105491326694977,0.0094091271568931,4.3371400785121896e-05,high
1200,2.4242424242424243,4.354430379746836,electrolyte,0.010060198401306,0.0106021523881461,0.0094084755978017,0.0001043001530612,high
1200,7.6767676767676765,4.354430379746836,electrolyte,0.0100054536074177,0.0104477830106433,0.0094908004022395,0.0001087243877516,high
1200,7.777777777777778,4.354430379746836,electrolyte,0.0101000096305298,0.0105654117914726,0.0095583289867965,-5.258953459253444e-05,high
1200,7.878787878787879,4.354430379746836,electrolyte,0.0101023890614364,0.0105774691518432,0.0095481409677563,-3.455282999854823e-05,high
1200,7.979797979797979,4.354430379746836,electrolyte,0.0100971699957045,0.010669744558406,0.0094055264109172,3.170483005444984e-06,high
1200,8.080808080808081,4.354430379746836,electrolyte,0.0102597939438355,0.0106454591479017,0.0098231441689797,-7.13906870273703e-05,high
1200,8.181818181818182,4.354430379746836,electrolyte,0.0102966675164359,0.0108334141598171,0.0096592072567351,-1.1653684077503263e-05,high
1200,8.282828282828282,4.354430379746836,electrolyte,0.0102817441107224,0.0107471813940767,0.0097423458181485,-2.4560892063602364e-05,high
1200,8.383838383838384,4.354430379746836,electrolyte,0.0103872063330209,0.0108874569882225,0.0098008758768808,4.754764900339304e-05,high
1200,8.484848484848484,4.354430379746836,electrolyte,0.0103539578831363,0.0108140301725744,0.0098223617955215,2.3950316647669368e-05,high
1200,8.585858585858587,4.354430379746836,electrolyte,0.0105083239214228,0.0110270007238721,0.0098985661168591,1.93557413831684e-06,high
1200,8.686868686868687,4.354430379746836,electrolyte,0.0105988884464968,0.0110430401301449,0.0100902420153646,-2.3555291042635197e-05,high
1200,8.787878787878787,4.354430379746836,electrolyte,0.0106188383266937,0.0112031142373968,0.0099174400991987,1.3602021492579292e-05,high
1200,8.88888888888889,4.354430379746836,electrolyte,0.0107208200763701,0.0112281997373636,0.0101285819050803,1.900040646313102e-05,high
1200,8.98989898989899,4.354430379746836,electrolyte,0.0108223426440102,0.0113010838884622,0.0102697389948913,-9.05761169214174e-06,high
1200,9.09090909090909,4.354430379746836,electrolyte,0.0108607608946966,0.0114036539284676,0.0102210774205227,1.856063339863828e-06,high
1200,9.191919191919192,4.354430379746836,electrolyte,0.0108890848579071,0.0114449558690321,0.0102284234749421,-9.72328756925058e-05,high
1200,9.292929292929292,4.354430379746836,electrolyte,0.0110875040639479,0.0116852849995387,0.0103721271942536,-4.865055724477417e-05,high
1200,9.393939393939394,4.354430379746836,electrolyte,0.0111861410180472,0.0116693024283368,0.0106304574334467,-1.3281688876232596e-05,high
1200,9.494949494949497,4.354430379746836,electrolyte,0.0112566944475505,0.0117146238235142,0.0107318490948287,-9.617456616371308e-05,high
1200,9.595959595959595,4.354430379746836,electrolyte,0.0113187078588349,0.0119411690812128,0.0105716172048943,1.4995802009467556e-06,high
1200,9.696969696969695,4.354430379746836,electrolyte,0.0115678170881743,0.0120696705778378,0.0109873289847693,9.914212840895307e-05,high
1200,9.797979797979798,4.354430379746836,electrolyte,0.0115877460665053,0.0121774967255588,0.0108901986828378,-3.348556939834545e-05,high
1200,9.8989898989899,4.354430379746836,electrolyte,0.0117162657775616,0.0123084028685893,0.0110161714414353,-5.640785554636359e-05,high
1200,10.0,4.354430379746836,electrolyte,0.0119009042406793,0.0125841131704102,0.0110734311058121,-4.132200410076683e-06,high
1200,0.0,4.455696202531645,electrolyte,0.0117227050110624,0.0123440400723683,0.0109822739355625,-2.43325483500221e-05,high
1200,0.101010101010101,4.455696202531645,electrolyte,0.0117064294177251,0.0122286057725407,0.0111028659198381,1.4482370199555526e-05,high
1200,0.202020202020202,4.455696202531645,electrolyte,0.0116119899805299,0.0122617141515389,0.0108274712227797,7.724724696883934e-05,high
1200,0.303030303030303,4.455696202531645,electrolyte,0.0115387961824993,0.0121876172686318,0.0107547833223107,-7.21602017346252e-05,high
1200,0.404040404040404,4.455696202531645,electrolyte,0.0114118327748477,0.0119180811275352,0.0108239599842716,-0.0001032682448896,high
1200,0.5050505050505051,4.455696202531645,electrolyte,0.0111118391213604,0.0116049046938843,0.0105422714326049,-2.397205720952794e-05,high
1200,0.6060606060606061,4.455696202531645,electrolyte,0.0111763549540102,0.0116759825299653,0.0105985719852856,-2.125428167194724e-05,high
1200,0.7070707070707071,4.455696202531645,electrolyte,0.0111226095870371,0.0116577915523334,0.0104946713303422,-7.048544877431055e-05,high
1200,0.8080808080808081,4.455696202531645,electrolyte,0.010913758004121,0.0114370782831825,0.0103012716675523,-3.467288220080052e-05,high
1200,0.9090909090909092,4.455696202531645,electrolyte,0.0107585780115288,0.0113258867366218,0.0100831026027479,2.834545397799829e-05,high
1200,1.0101010101010102,4.455696202531645,electrolyte,0.0108756939213495,0.0113756454151437,0.0102907209849552,0.0001155627688461,high
1200,1.1111111111111112,4.455696202531645,electrolyte,0.0107215966467275,0.0113600624460107,0.0099410928943179,5.0741191171004897e-05,high
1200,1.2121212121212122,4.455696202531645,electrolyte,0.010539992299949,0.0110152826272613,0.0099882743428133,-6.589593297572256e-05,high
1200,1.3131313131313131,4.455696202531645,electrolyte,0.0104862445854008,0.0109760298402839,0.0099134252649561,-8.591758406944354e-05,high
1200,1.414141414141414,4.455696202531645,electrolyte,0.0106221956912231,0.0111305517665717,0.0100271323878748,4.468729815095049e-05,high
1200,1.5151515151515151,4.455696202531645,electrolyte,0.0104692646955077,0.0109639251127241,0.0098911468545248,-5.433440092810204e-05,high
1200,1.616161616161616,4.455696202531645,electrolyte,0.0103469125991509,0.0108071578540923,0.0098142263056791,-5.414293851684446e-05,high
1200,1.7171717171717171,4.455696202531645,electrolyte,0.0102588854746029,0.0107993954185818,0.0096155779623882,1.7115464717571897e-05,high
1200,1.818181818181818,4.455696202531645,electrolyte,0.0101807466592244,0.0107159157771111,0.0095436959000225,-3.679507243028902e-05,high
1200,1.9191919191919191,4.455696202531645,electrolyte,0.0101742542801356,0.0106114557486358,0.0096673834675322,0.0001142596664008,high
1200,2.0202020202020203,4.455696202531645,electrolyte,0.0100826064530798,0.0104832810358672,0.009626491792871,-5.048506920513543e-05,high
1200,2.121212121212121,4.455696202531645,electrolyte,0.0101767326556975,0.0106274326537,0.0096497360853171,0.000139136136004,high
1200,2.525252525252525,4.455696202531645,electrolyte,0.0100056974274761,0.010540762907638,0.0093651214632381,-7.376372004857562e-05,high
1200,2.6262626262626263,4.455696202531645,electrolyte,0.0100234875935627,0.0105593079721871,0.0093828354414307,-5.763923508039689e-05,high
1200,7.575757575757575,4.455696202531645,electrolyte,0.0101525819755421,0.0106715613540124,0.0095384964216525,1.2039386296937204e-05,high
1200,7.6767676767676765,4.455696202531645,electrolyte,0.0100087095419683,0.0104852286739111,0.0094514747094385,3.9773535060670256e-05,high
1200,7.777777777777778,4.455696202531645,electrolyte,0.0101909052465446,0.0106775452704618,0.0096218837412042,2.600798510685803e-05,high
1200,7.878787878787879,4.455696202531645,electrolyte,0.0100571212664597,0.010494378101911,0.0095536741125949,-1.727978347477249e-05,high
1200,7.979797979797979,4.455696202531645,electrolyte,0.0103002431624622,0.0108582665099178,0.0096323598220424,2.184743548325648e-05,high
1200,8.080808080808081,4.455696202531645,electrolyte,0.0102737730811148,0.0108436726031147,0.0095884462779955,1.6812533317306513e-05,high
1200,8.181818181818182,4.455696202531645,electrolyte,0.0102632462435816,0.0108410393594228,0.0095661938797887,2.2420888992788088e-05,high
1200,8.282828282828282,4.455696202531645,electrolyte,0.0103957906941112,0.0108769826189209,0.0098326021678456,-0.0001043882987695,high
1200,8.383838383838384,4.455696202531645,electrolyte,0.0102629039172363,0.0108058982055417,0.0096150004712356,-5.843247510664957e-05,high
1200,8.484848484848484,4.455696202531645,electrolyte,0.0104487022950645,0.010952071282254,0.0098569771817225,-8.530697527429841e-05,high
1200,8.585858585858587,4.455696202531645,electrolyte,0.0105464439107643,0.0109772809326008,0.0100542397636134,-4.9192527691899874e-05,high
1200,8.686868686868687,4.455696202531645,electrolyte,0.0105803243431167,0.0110489428549255,0.0100388385649502,-3.829227495757988e-05,high
1200,8.787878787878787,4.455696202531645,electrolyte,0.010599241571084,0.0111095958591326,0.0100017319647025,-2.128735461795845e-05,high
1200,8.88888888888889,4.455696202531645,electrolyte,0.0106744137662267,0.0111270508669686,0.0101551219714524,-2.519747375082792e-05,high
1200,8.98989898989899,4.455696202531645,electrolyte,0.0106707297778264,0.0111685807145914,0.0100879186954223,-9.816550591848729e-05,high
1200,9.09090909090909,4.455696202531645,electrolyte,0.0109509900630659,0.011467901619635,0.0103477590143525,-2.8175313740329063e-05,high
1200,9.191919191919192,4.455696202531645,electrolyte,0.010895694108827,0.0112843311653799,0.0104585004470963,-7.521347299372771e-05,high
1200,9.292929292929292,4.455696202531645,electrolyte,0.0111317175349534,0.0116506708117871,0.0105275931477712,1.0159289184710275e-05,high
1200,9.393939393939394,4.455696202531645,electrolyte,0.011171493616435,0.0116765923852555,0.0105863333557726,-2.086001667992872e-05,high
1200,9.494949494949497,4.455696202531645,electrolyte,0.0113606060618735,0.0118784304307676,0.0107580764097801,-7.982221553869964e-05,high
1200,9.595959595959595,4.455696202531645,electrolyte,0.0114033125555649,0.0119785251440292,0.0107199651192524,-0.0001185919894118,high
1200,9.696969696969695,4.455696202531645,electrolyte,0.0115131753659004,0.0120175123358625,0.0109312777574188,4.6676725283261616e-05,high
1200,9.797979797979798,4.455696202531645,electrolyte,0.011680186365291,0.012232867122792,0.0110338386485844,-6.733548720189209e-05,high
1200,9.8989898989899,4.455696202531645,electrolyte,0.0116195548392486,0.0122031672739388,0.0109312544988992,1.1036166813230796e-05,high
1200,10.0,4.455696202531645,electrolyte,0.011885069654815,0.0124385572249264,0.0112408919954818,-3.430090577105836e-07,high
1200,0.0,4.556962025316456,electrolyte,0.0219566811410533,0.0230238412770298,0.0207032375058382,-0.0001191506216896,critical
1200,0.101010101010101,4.556962025316456,electrolyte,0.0215564522808304,0.0227036644315459,0.0201885080452073,-2.2444420454250223e-05,critical
1200,0.202020202020202,4.556962025316456,electrolyte,0.0212847125530682,0.0222595235272383,0.0201531110887661,3.348969171548194e-05,critical
1200,0.303030303030303,4.556962025316456,electrolyte,0.0211129835780903,0.0222184920956934,0.019799007301689,5.2174430718201255e-06,critical
1200,0.404040404040404,4.556962025316456,electrolyte,0.0210289184401621,0.0219678132133049,0.0199435388794739,-2.4408112149929897e-05,critical
1200,0.5050505050505051,4.556962025316456,electrolyte,0.0206828150911628,0.0216621361247936,0.0195398103431384,-1.3439568954150462e-05,critical
1200,0.6060606060606061,4.556962025316456,electrolyte,0.020451652369115,0.0214183445862277,0.019323138965445,-5.92991970320589e-05,critical
1200,0.7070707070707071,4.556962025316456,electrolyte,0.0203592006724353,0.0212741687608698,0.0192991672395913,-8.694866708409651e-05,critical
1200,0.8080808080808081,4.556962025316456,electrolyte,0.020060211643216,0.0210511166868949,0.0188946443898272,5.277182000459715e-05,critical
1200,0.9090909090909092,4.556962025316456,electrolyte,0.0198153501625661,0.0206946704029738,0.0187996017709419,4.185127713142879e-05,critical
1200,1.0101010101010102,4.556962025316456,electrolyte,0.0197748405311097,0.02079515989146,0.0185649988206899,-5.348136194796933e-05,critical
1200,1.1111111111111112,4.556962025316456,electrolyte,0.0196782946974503,0.0206539899219598,0.0185302731175605,-1.8573396337983093e-05,critical
1200,1.2121212121212122,4.556962025316456,electrolyte,0.0195567791412137,0.0204230548014107,0.01855658972071,-2.3591576044089285e-05,critical
1200,1.3131313131313131,4.556962025316456,electrolyte,0.0195358921553152,0.0204382703767102,0.0184868441831368,-3.604759853678917e-05,critical
1200,1.414141414141414,4.556962025316456,electrolyte,0.0192756368672965,0.0201766924642344,0.0182262374689553,-1.542465614271445e-05,critical
1200,1.5151515151515151,4.556962025316456,electrolyte,0.0191389694845307,0.0201990416559441,0.0178646114208981,-2.920131004015716e-05,critical
1200,1.616161616161616,4.556962025316456,electrolyte,0.0192334928483892,0.0202269562470474,0.0180548191362469,-7.078324590332212e-05,critical
1200,1.7171717171717171,4.556962025316456,electrolyte,0.0189440496281515,0.0198611275506202,0.0178672158014128,0.0001129605298638,critical
1200,1.818181818181818,4.556962025316456,electrolyte,0.0188456071649061,0.0197343827046671,0.0178088782698363,2.6600549026700123e-05,critical
1200,1.9191919191919191,4.556962025316456,electrolyte,0.0188324030835083,0.0198414710549768,0.0176276431298997,5.442169778047999e-07,critical
1200,2.0202020202020203,4.556962025316456,electrolyte,0.0186894932178924,0.0195310273814695,0.0177154013293325,1.4948171924251958e-05,critical
1200,2.121212121212121,4.556962025316456,electrolyte,0.018644030578691,0.0196122164191232,0.0174940480769733,7.344422222488573e-05,critical
1200,2.2222222222222223,4.556962025316456,electrolyte,0.0185503938263796,0.019452813409065,0.0174909351829752,-8.215123312469647e-05,critical
1200,2.323232323232323,4.556962025316456,electrolyte,0.0184202194531966,0.0193649492679639,0.0173009854914966,6.280102106848014e-05,critical
1200,2.4242424242424243,4.556962025316456,electrolyte,0.0184877204623527,0.0193960684621979,0.0174197101589735,7.285811845752553e-05,critical
1200,2.525252525252525,4.556962025316456,electrolyte,0.0183419810831885,0.0193291844039188,0.0171622325497734,-1.4514135070970973e-05,critical
1200,2.6262626262626263,4.556962025316456,electrolyte,0.0181496418855298,0.0188921038704023,0.0173025899709463,-1.4366376417148708e-05,critical
1200,2.727272727272727,4.556962025316456,electrolyte,0.018114384459619,0.0188321173651197,0.0172990138414039,3.395572759089596e-05,critical
1200,2.8282828282828283,4.556962025316456,electrolyte,0.0181579277804902,0.0189962649576847,0.017183616330337,6.258141161989861e-06,critical
1200,2.929292929292929,4.556962025316456,electrolyte,0.0180670478909159,0.0188832490592401,0.0171204107653408,-8.493166623086382e-05,critical
1200,3.0303030303030303,4.556962025316456,electrolyte,0.0180393214133575,0.0188629332596192,0.0170833266429433,5.3125719413666616e-05,critical
1200,3.131313131313131,4.556962025316456,electrolyte,0.0179720554283708,0.0188298592575694,0.0169695067782284,1.2119799628831605e-05,critical
1200,3.2323232323232323,4.556962025316456,electrolyte,0.0179552905616953,0.0187474719582248,0.0170411210030492,-3.1023815013251004e-05,critical
1200,3.333333333333333,4.556962025316456,electrolyte,0.0178031870808332,0.0186567227549281,0.0168042366417934,-5.710020912489613e-05,critical
1200,3.4343434343434343,4.556962025316456,electrolyte,0.0178733126559075,0.0187421731848945,0.0168527582000856,-9.678753681677368e-05,critical
1200,3.5353535353535355,4.556962025316456,electrolyte,0.0179209794746943,0.0188263661441276,0.0168511304554409,6.927580135777245e-05,critical
1200,3.636363636363636,4.556962025316456,electrolyte,0.017828663917178,0.0187424884813139,0.0167464026997213,5.046094608062905e-05,critical
1200,3.7373737373737375,4.556962025316456,electrolyte,0.0177257012225086,0.0186056771223798,0.016689261240558,-6.539098988217399e-05,critical
1200,3.8383838383838382,4.556962025316456,electrolyte,0.0176879033105003,0.0185633582250061,0.0166580585595548,-2.7375976652113012e-05,critical
1200,3.939393939393939,4.556962025316456,electrolyte,0.0178570699667578,0.0187274963413943,0.0168358150170196,3.570914481374469e-05,critical
1200,4.040404040404041,4.556962025316456,electrolyte,0.017630507444445,0.0184471405000018,0.0166809188307812,-3.7561477431618164e-07,critical
1200,4.141414141414141,4.556962025316456,electrolyte,0.0176862715345841,0.0184449396479023,0.0168147213010324,4.807727435119553e-06,critical
1200,4.242424242424242,4.556962025316456,electrolyte,0.0176327012894892,0.018478685846496,0.016643074227135,-1.3473233718648082e-05,critical
1200,4.343434343434343,4.556962025316456,electrolyte,0.0176258208814712,0.0184746490602749,0.0166316325258376,-5.5610506184394616e-05,critical
1200,4.444444444444445,4.556962025316456,electrolyte,0.0176767451588257,0.0184665973288224,0.0167624325463812,7.75665709470503e-05,critical
1200,4.545454545454545,4.556962025316456,electrolyte,0.0176887228337206,0.0184750459589105,0.0167803804456977,1.5538599760912093e-05,critical
1200,4.646464646464646,4.556962025316456,electrolyte,0.0175188250583857,0.0182736479576564,0.0166504728506113,5.67297617555812e-05,critical
1200,4.747474747474747,4.556962025316456,electrolyte,0.0175976081570803,0.018344394480094,0.0167410591046684,-1.3370283478190334e-05,critical
1200,4.848484848484849,4.556962025316456,electrolyte,0.0174666938930431,0.0182877330581807,0.0165094874706247,2.6698273634793946e-05,critical
1200,4.94949494949495,4.556962025316456,electrolyte,0.0176470034664514,0.0184516520782822,0.0167130234261208,6.057590243689062e-05,critical
1200,5.05050505050505,4.556962025316456,electrolyte,0.0175382517325088,0.018352485611022,0.0165908812200289,3.222285796160001e-05,critical
1200,5.151515151515151,4.556962025316456,electrolyte,0.0176475674698436,0.0184971148286638,0.0166527752310653,4.744606225444087e-05,critical
1200,5.252525252525253,4.556962025316456,electrolyte,0.0176079861607962,0.0185685453725785,0.0164566866942999,-3.871260067133011e-05,critical
1200,5.353535353535354,4.556962025316456,electrolyte,0.0176183586891173,0.0184154594073871,0.0166939282021924,7.424295842427813e-05,critical
1200,5.454545454545454,4.556962025316456,electrolyte,0.0176534053497413,0.0185119220065625,0.0166467642472662,1.0092376450576933e-05,critical
1200,5.555555555555555,4.556962025316456,electrolyte,0.0175806600695225,0.0184549380305909,0.0165513680624533,2.278846512910221e-05,critical
1200,5.656565656565657,4.556962025316456,electrolyte,0.0176029511688259,0.0185269906318719,0.0165041339189692,1.4221145870625163e-06,critical
1200,5.757575757575758,4.556962025316456,electrolyte,0.0176654618810329,0.0184435528597319,0.0167677703794984,3.181831255874822e-05,critical
1200,5.858585858585858,4.556962025316456,electrolyte,0.0176520696073814,0.0184760962514825,0.0166926411246759,-1.3068461259038285e-06,critical
1200,5.959595959595959,4.556962025316456,electrolyte,0.0178772452771795,0.0186958623649436,0.0169262915560041,-6.557584063524527e-05,critical
1200,6.0606060606060606,4.556962025316456,electrolyte,0.01778366197946,0.0186140512643894,0.0168150277597309,-9.373561688287524e-05,critical
1200,6.161616161616162,4.556962025316456,electrolyte,0.0176531751617036,0.0185243865088563,0.0166288495585654,-2.766790788542442e-05,critical
1200,6.262626262626262,4.556962025316456,electrolyte,0.0178230271288513,0.0188164665137344,0.0166245622177014,0.0001159501587294,critical
1200,6.363636363636363,4.556962025316456,electrolyte,0.0177333577994873,0.0185451960066687,0.0167911534306025,5.226133526132959e-06,critical
1200,6.4646464646464645,4.556962025316456,electrolyte,0.0179316701530391,0.0188008956891284,0.0169103588934039,0.0001165782724057,critical
1200,6.565656565656566,4.556962025316456,electrolyte,0.0178580082691196,0.018648820241119,0.0169448476017205,3.425223342152919e-05,critical
1200,6.666666666666667,4.556962025316456,electrolyte,0.0177450409892978,0.0185702257522125,0.0167831887540496,-9.196824517320064e-05,critical
1200,6.767676767676767,4.556962025316456,electrolyte,0.0179556628691038,0.0187919631122037,0.0169810725802482,-7.919388972310795e-05,critical
1200,6.8686868686868685,4.556962025316456,electrolyte,0.0180565059770251,0.0189617757866302,0.0169887964443739,4.834442558684446e-05,critical
1200,6.96969696969697,4.556962025316456,electrolyte,0.0180079406524371,0.018905063326297,0.0169500213981374,-8.66211809280669e-05,critical
1200,7.070707070707071,4.556962025316456,electrolyte,0.0181389501594831,0.0190917226253228,0.0170056241021944,3.187167191677849e-05,critical
1200,7.171717171717171,4.556962025316456,electrolyte,0.0181406598866432,0.0191641561189852,0.0169049955545679,5.703995254447718e-05,critical
1200,7.272727272727272,4.556962025316456,electrolyte,0.0181237235011885,0.0189377793810035,0.0171809259133152,-6.888379798835925e-05,critical
1200,7.373737373737374,4.556962025316456,electrolyte,0.0182232196262639,0.01911044622553,0.0171821059359214,-5.634934113172227e-05,critical
1200,7.474747474747475,4.556962025316456,electrolyte,0.0184166461642148,0.0191823185586811,0.0175405899172366,-5.291347065134169e-05,critical
1200,7.575757575757575,4.556962025316456,electrolyte,0.0183538243372858,0.0191692965225276,0.0174119336569531,-2.8438197111370006e-06,critical
1200,7.6767676767676765,4.556962025316456,electrolyte,0.0184756033719824,0.0192836094471679,0.0175445814960761,1.6775575372410057e-05,critical
1200,7.777777777777778,4.556962025316456,electrolyte,0.0184457841984354,0.0194592818467269,0.0172289860915852,-5.48915608273164e-05,critical
1200,7.878787878787879,4.556962025316456,electrolyte,0.0185703367522622,0.0195031957502292,0.0174689195121395,8.035440106109494e-05,critical
1200,7.979797979797979,4.556962025316456,electrolyte,0.0186855436819979,0.0195764204274145,0.0176445582400457,7.321605692566738e-06,critical
1200,8.080808080808081,4.556962025316456,electrolyte,0.0187202175536223,0.0195877825363395,0.0177110623268728,3.664771019002384e-05,critical
1200,8.181818181818182,4.556962025316456,electrolyte,0.0188307426665461,0.0197608372436172,0.0177365182704271,-5.930502539065455e-05,critical
1200,8.282828282828282,4.556962025316456,electrolyte,0.0191101702329501,0.0200056003326215,0.0180665796576998,-4.484471409661338e-05,critical
1200,8.383838383838384,4.556962025316456,electrolyte,0.0189821571097009,0.019884098844398,0.0179288243284527,1.499993181645289e-05,critical
1200,8.484848484848484,4.556962025316456,electrolyte,0.019200136400388,0.0200903066327857,0.0181646224986673,-3.715975458949635e-05,critical
1200,8.585858585858587,4.556962025316456,electrolyte,0.0192761063266016,0.0201632538715108,0.0182445820420714,7.490890350175674e-05,critical
1200,8.686868686868687,4.556962025316456,electrolyte,0.0193961582807985,0.0203496437029009,0.0182757125547952,-4.29214009910992e-05,critical
1200,8.787878787878787,4.556962025316456,electrolyte,0.0194731987486407,0.0204930346821184,0.0182609309334106,-2.074779439001732e-05,critical
1200,8.88888888888889,4.556962025316456,electrolyte,0.0197756815312458,0.0206596460761658,0.0187537040063139,-5.081469873549126e-06,critical
1200,8.98989898989899,4.556962025316456,electrolyte,0.0199100589375635,0.0208263027562134,0.0188457270437169,-1.7792047994441817e-05,critical
1200,9.09090909090909,4.556962025316456,electrolyte,0.0199496593954558,0.0209462494306898,0.0187751197342766,-4.748610613154572e-05,critical
1200,9.191919191919192,4.556962025316456,electrolyte,0.0201702053745649,0.0212310281615064,0.0189056279735511,0.0001208013528599,critical
1200,9.292929292929292,4.556962025316456,electrolyte,0.0203278610114904,0.0213082472821804,0.0191795876846608,4.947883502231146e-05,critical
1200,9.393939393939394,4.556962025316456,electrolyte,0.0204503975609569,0.0213724465045028,0.0193825765676565,-4.508223582127521e-05,critical
1200,9.494949494949497,4.556962025316456,electrolyte,0.0208300946872897,0.0217484916143922,0.0197704397795176,3.115478731126818e-05,critical
1200,9.595959595959595,4.556962025316456,electrolyte,0.0208295677132474,0.0218196522548508,0.0196731128037765,3.0437678868588734e-05,critical
1200,9.696969696969695,4.556962025316456,electrolyte,0.021117322125705,0.0221353195504437,0.0199233495492828,0.0001136862439486,critical
1200,9.797979797979798,4.556962025316456,electrolyte,0.021267118370876,0.0222822541623493,0.0200794393129191,8.710210876249793e-05,critical
1200,9.8989898989899,4.556962025316456,electrolyte,0.0215492015354211,0.0227034622072798,0.0201711770371729,4.585907696540426e-06,critical
1200,10.0,4.556962025316456,electrolyte,0.0218488550682034,0.0229296715776645,0.0205777097000358,1.4351250746195189e-05,critical
1200,0.0,4.658227848101266,electrolyte,0.0217462035563014,0.0228262664178283,0.0204750603069819,2.4116484220374617e-06,critical
1200,0.101010101010101,4.658227848101266,electrolyte,0.0215520044067461,0.0226898168197235,0.0201965656084778,-7.352619065132996e-05,critical
1200,0.202020202020202,4.658227848101266,electrolyte,0.0213775160114912,0.0224329634361969,0.0201365539392808,-2.655806937077612e-05,critical
1200,0.303030303030303,4.658227848101266,electrolyte,0.0210011490126698,0.0219948760946324,0.0198414608345602,1.4023520715092196e-05,critical
1200,0.404040404040404,4.658227848101266,electrolyte,0.020981986377363,0.021873102401264,0.0199589043449143,7.402609352868196e-05,critical
1200,0.5050505050505051,4.658227848101266,electrolyte,0.0206182572238238,0.0215156505872561,0.0195843389023275,-6.525161182077464e-05,critical
1200,0.6060606060606061,4.658227848101266,electrolyte,0.0205293774136455,0.0215447211207349,0.0193352197342618,2.253613596526033e-05,critical
1200,0.7070707070707071,4.658227848101266,electrolyte,0.0202796930035467,0.0211674481709045,0.0192565573496327,2.7476892600760228e-05,critical
1200,0.8080808080808081,4.658227848101266,electrolyte,0.0200876733802964,0.0210019966210654,0.0190264549719195,7.813235534271806e-05,critical
1200,0.9090909090909092,4.658227848101266,electrolyte,0.0201041898893059,0.0211472266559152,0.0188666558589193,2.929411886546238e-07,critical
1200,1.0101010101010102,4.658227848101266,electrolyte,0.0198263879464115,0.0206942139301095,0.0188257238553296,6.013038806386666e-05,critical
1200,1.1111111111111112,4.658227848101266,electrolyte,0.0197312512605352,0.0206441503302238,0.0186696825925952,3.660328007755991e-05,critical
1200,1.2121212121212122,4.658227848101266,electrolyte,0.0195745060393761,0.0204940835748985,0.0184999833313862,-0.0001219923177069,critical
1200,1.3131313131313131,4.658227848101266,electrolyte,0.0193602525122986,0.0203826549759998,0.0181420693201216,-7.214281190424653e-05,critical
1200,1.414141414141414,4.658227848101266,electrolyte,0.0192216265162828,0.0201680433402357,0.0181092947942689,-3.385303544151067e-05,critical
1200,1.5151515151515151,4.658227848101266,electrolyte,0.0191652776565306,0.0200870032804108,0.018085955433807,6.063288236163972e-05,critical
1200,1.616161616161616,4.658227848101266,electrolyte,0.0190863905546847,0.0199577624900296,0.0180755486057352,4.807961346354777e-06,critical
1200,1.7171717171717171,4.658227848101266,electrolyte,0.0188696426107086,0.0196795181495332,0.0179388508923415,4.300402308382086e-05,critical
1200,1.818181818181818,4.658227848101266,electrolyte,0.0189498483972256,0.0198288106477319,0.0179273461958368,3.2833328733969234e-05,critical
1200,1.9191919191919191,4.658227848101266,electrolyte,0.0186916358335719,0.0196153157590844,0.0176055256571013,-4.041952360100876e-06,critical
1200,2.0202020202020203,4.658227848101266,electrolyte,0.0187282952747069,0.0196652224487634,0.0176241083295428,1.718805170407521e-05,critical
1200,2.121212121212121,4.658227848101266,electrolyte,0.0186919710200859,0.0195798532706074,0.017654984696681,-2.9730640805217295e-05,critical
1200,2.2222222222222223,4.658227848101266,electrolyte,0.0185238516564728,0.0193353145940887,0.0175876549126834,7.285858447615141e-05,critical
1200,2.323232323232323,4.658227848101266,electrolyte,0.0184518733082142,0.019331382074785,0.0174240642745934,2.9003469247747128e-05,critical
1200,2.4242424242424243,4.658227848101266,electrolyte,0.0183384181288687,0.0191864359481512,0.0173517682822479,6.578573907696882e-05,critical
1200,2.525252525252525,4.658227848101266,electrolyte,0.0182463828009083,0.0191238435003579,0.0172174568820434,-0.0001036411958539,critical
1200,2.6262626262626263,4.658227848101266,electrolyte,0.0182781356986971,0.0191174529038377,0.017303529100005,-1.3196140137510136e-05,critical
1200,2.727272727272727,4.658227848101266,electrolyte,0.0181513549568446,0.0190954479413291,0.0170306094819567,1.836785464671895e-05,critical
1200,2.8282828282828283,4.658227848101266,electrolyte,0.018075769188755,0.0189546561900023,0.0170452161901181,-2.0478314039148465e-05,critical
1200,2.929292929292929,4.658227848101266,electrolyte,0.0180914968084761,0.0189639158574915,0.0170700385443391,1.5393232758833813e-05,critical
1200,3.0303030303030303,4.658227848101266,electrolyte,0.0179277749416915,0.0187473463817067,0.0169762039225536,-5.595702734153957e-05,critical
1200,3.131313131313131,4.658227848101266,electrolyte,0.0179813332984106,0.0187147643756061,0.0171447092205893,-3.688110232468554e-05,critical
1200,3.2323232323232323,4.658227848101266,electrolyte,0.0179995061916567,0.0187588126805529,0.0171293901210434,7.845450495033337e-06,critical
1200,3.333333333333333,4.658227848101266,electrolyte,0.0179080539679105,0.0188214155538906,0.0168277477868618,-2.346500738387053e-05,critical
1200,3.4343434343434343,4.658227848101266,electrolyte,0.0178209725933426,0.0186364366979966,0.016873988304013,5.722750137788788e-05,critical
1200,3.5353535353535355,4.658227848101266,electrolyte,0.0177583860429593,0.0186375823805784,0.0167238603577897,-4.32732814829228e-05,critical
1200,3.636363636363636,4.658227848101266,electrolyte,0.0176556310349272,0.0184745693323531,0.0167030474442546,-2.1674647299834155e-05,critical
1200,3.7373737373737375,4.658227848101266,electrolyte,0.0177988796315024,0.0186671928098661,0.0167783038195644,-9.726612412440968e-05,critical
1200,3.8383838383838382,4.658227848101266,electrolyte,0.0177575910859709,0.0186453391178996,0.0167114237723389,2.4827636268622216e-05,critical
1200,3.939393939393939,4.658227848101266,electrolyte,0.0177045609377338,0.0183507184030338,0.016973342455682,0.0001646063335245,critical
1200,4.040404040404041,4.658227848101266,electrolyte,0.0177806131468292,0.0186484640399303,0.0167621230654354,3.684375332755065e-05,critical
1200,4.141414141414141,4.658227848101266,electrolyte,0.0176738608223338,0.0186035753816863,0.0165673065003159,5.108835438063724e-05,critical
1200,4.242424242424242,4.658227848101266,electrolyte,0.0177723271559266,0.0185377295848527,0.0168924922958886,-1.084135443936413e-05,critical
1200,4.343434343434343,4.658227848101266,electrolyte,0.0176510909910561,0.0184507176338249,0.0167243978078189,3.507841241632723e-05,critical
1200,4.444444444444445,4.658227848101266,electrolyte,0.0175795861223939,0.0184611064534717,0.016540115352368,-3.06112799253459e-05,critical
1200,4.545454545454545,4.658227848101266,electrolyte,0.017595742091481,0.0184585601912547,0.0165823667369254,-3.378039297186989e-05,critical
1200,4.646464646464646,4.658227848101266,electrolyte,0.0174725798129646,0.0183261524936129,0.0164706396470245,-3.9427392524984434e-05,critical
1200,4.747474747474747,4.658227848101266,electrolyte,0.0175957074263448,0.0183084751692157,0.0167837013107434,-1.3926912484010227e-06,critical
1200,4.848484848484849,4.658227848101266,electrolyte,0.0175067860113168,0.0183418974118061,0.0165308813424986,-3.980448018866635e-06,critical
1200,4.94949494949495,4.658227848101266,electrolyte,0.0175180185719451,0.0182943766677551,0.0166214794094021,3.046505686289628e-05,critical
1200,5.05050505050505,4.658227848101266,electrolyte,0.0176679211706446,0.0184440590593511,0.0167721050319733,6.907113022438831e-05,critical
1200,5.151515151515151,4.658227848101266,electrolyte,0.0174759297063314,0.0182223210773221,0.0166190240438896,-1.1039379996055684e-05,critical
1200,5.252525252525253,4.658227848101266,electrolyte,0.0176988872678533,0.0185869432561695,0.016651544200432,-3.43211994893117e-05,critical
1200,5.353535353535354,4.658227848101266,electrolyte,0.0177180892533607,0.0186139075332555,0.0166596954289765,5.689638060584452e-05,critical
1200,5.454545454545454,4.658227848101266,electrolyte,0.0175007759671375,0.0183526178573216,0.0165018231370333,4.632213749285813e-06,critical
1200,5.555555555555555,4.658227848101266,electrolyte,0.0176436586261343,0.0184257277623643,0.0167406402448376,1.516635292068986e-05,critical
1200,5.656565656565657,4.658227848101266,electrolyte,0.0176595365185714,0.0185508810555354,0.0166068316518655,5.336441944595034e-05,critical
1200,5.757575757575758,4.658227848101266,electrolyte,0.0177124793311944,0.0186695718356392,0.0165675065181037,-4.0793715388498366e-05,critical
1200,5.858585858585858,4.658227848101266,electrolyte,0.0174403037389262,0.0183804421256461,0.0163146687676729,9.30051184870107e-05,critical
1200,5.959595959595959,4.658227848101266,electrolyte,0.0176467496285982,0.0184542788139358,0.0167095327335071,2.0474818134066432e-05,critical
1200,6.0606060606060606,4.658227848101266,electrolyte,0.0178402634112382,0.0186817067538106,0.0168587300243521,2.5191728865235663e-05,critical
1200,6.161616161616162,4.658227848101266,electrolyte,0.0176246728759551,0.0185137336517988,0.0165750156119435,-4.099606663586277e-05,critical
1200,6.262626262626262,4.658227848101266,electrolyte,0.01785920450443,0.018612029401434,0.0169961852066141,4.737893835415445e-05,critical
1200,6.363636363636363,4.658227848101266,electrolyte,0.0177158919426652,0.0184869433499809,0.0168278843858587,3.744033633524339e-05,critical
1200,6.4646464646464645,4.658227848101266,electrolyte,0.017782784860475,0.0185942834364612,0.0168398691885626,8.975395190283945e-05,critical
1200,6.565656565656566,4.658227848101266,electrolyte,0.0177239275070868,0.0185574466321195,0.0167513946595145,-6.4987540360066e-05,critical
1200,6.666666666666667,4.658227848101266,electrolyte,0.0177024937242377,0.0185354794908739,0.0167301795097114,-7.588775437894608e-05,critical
1200,6.767676767676767,4.658227848101266,electrolyte,0.0177819612529175,0.0186792859391526,0.0167223667652226,-4.740942236512631e-05,critical
1200,6.8686868686868685,4.658227848101266,electrolyte,0.0178832550081074,0.0188144850375383,0.0167775802644355,9.92940060921054e-06,critical
1200,6.96969696969697,4.658227848101266,electrolyte,0.0180734399119232,0.0189925776816564,0.0169869948136009,4.042855900551237e-06,critical
1200,7.070707070707071,4.658227848101266,electrolyte,0.0180210303000986,0.0188622694168401,0.0170390257126323,-0.000113463474305,critical
1200,7.171717171717171,4.658227848101266,electrolyte,0.0180331785366024,0.0188859290814919,0.0170377316665803,-4.5834790158040176e-05,critical
1200,7.272727272727272,4.658227848101266,electrolyte,0.018079164362322,0.0188846346021866,0.0171481036623968,-4.071261157384508e-05,critical
1200,7.373737373737374,4.658227848101266,electrolyte,0.0182960464485239,0.0191724413138934,0.0172709481845589,3.3660173739411854e-05,critical
1200,7.474747474747475,4.658227848101266,electrolyte,0.0182740506017405,0.0192300816867623,0.0171371114789597,6.415473137975083e-05,critical
1200,7.575757575757575,4.658227848101266,electrolyte,0.0182766285177801,0.0192334602224024,0.0171393653026477,-1.432548184438339e-05,critical
1200,7.6767676767676765,4.658227848101266,electrolyte,0.018315320571759,0.0193133813873647,0.0171193369179098,-4.022237341742519e-05,critical
1200,7.777777777777778,4.658227848101266,electrolyte,0.0183943946419844,0.0192688466899955,0.0173727928800401,-4.103499434053176e-05,critical
1200,7.878787878787879,4.658227848101266,electrolyte,0.0185816631418051,0.0195825884787227,0.0173850804760907,-3.780238583729281e-05,critical
1200,7.979797979797979,4.658227848101266,electrolyte,0.0187145556280963,0.0195916733212116,0.0176925126752709,2.4850437407106586e-05,critical
1200,8.080808080808081,4.658227848101266,electrolyte,0.0188003608641778,0.0196109373484479,0.0178665134635384,0.0001024333350861,critical
1200,8.181818181818182,4.658227848101266,electrolyte,0.0189802363532392,0.0198447495644722,0.0179771014505206,-5.827053739663124e-05,critical
1200,8.282828282828282,4.658227848101266,electrolyte,0.0190956595399444,0.0199883737909342,0.0180556115499898,-4.5937277324588936e-05,critical
1200,8.383838383838384,4.658227848101266,electrolyte,0.0191262642347655,0.0200666602778318,0.0180207986304979,6.107275612287221e-05,critical
1200,8.484848484848484,4.658227848101266,electrolyte,0.019157443588675,0.0200081530435146,0.0181737810669708,7.943831496660817e-05,critical
1200,8.585858585858587,4.658227848101266,electrolyte,0.019365074472928,0.0203371040753198,0.0182184373118034,-4.866479693717943e-05,critical
1200,8.686868686868687,4.658227848101266,electrolyte,0.0194430321777697,0.0204227028625952,0.018283877675184,-0.0001300335176834,critical
1200,8.787878787878787,4.658227848101266,electrolyte,0.0194475377590469,0.0203490449147334,0.0183987556824696,-4.4687963669347006e-05,critical
1200,8.88888888888889,4.658227848101266,electrolyte,0.0197297555400094,0.0207781166945688,0.0184796373415372,5.223401333395096e-05,critical
1200,8.98989898989899,4.658227848101266,electrolyte,0.0199687849451526,0.0209969442149948,0.0187495065854471,-7.969201912159725e-05,critical
1200,9.09090909090909,4.658227848101266,electrolyte,0.0200111268696411,0.0209455894033154,0.0189223987581593,-6.0836644701938894e-05,critical
1200,9.191919191919192,4.658227848101266,electrolyte,0.0201391468514464,0.0210194438551937,0.019124937547786,1.3300821296612909e-05,critical
1200,9.292929292929292,4.658227848101266,electrolyte,0.02047576684414,0.0214325976243294,0.0193614812174908,1.4925810051047407e-05,critical
1200,9.393939393939394,4.658227848101266,electrolyte,0.020343732496681,0.0213435651577418,0.0191692272627182,-4.301526568811813e-06,critical
1200,9.494949494949497,4.658227848101266,electrolyte,0.0206639313354855,0.0215899307715882,0.0195926879625321,3.78710924766572e-05,critical
1200,9.595959595959595,4.658227848101266,electrolyte,0.0211622260275682,0.022183188381268,0.0199661540653259,-6.22157624103777e-05,critical
1200,9.696969696969695,4.658227848101266,electrolyte,0.0211710481485397,0.0222249353668025,0.0199299158755615,4.112194242841549e-05,critical
1200,9.797979797979798,4.658227848101266,electrolyte,0.0213765427137251,0.0224324566321698,0.0201340842186878,-7.547974670569856e-05,critical
1200,9.8989898989899,4.658227848101266,electrolyte,0.0217181572144871,0.0226728026172719,0.0206170142712599,4.687550827979579e-05,critical
1200,10.0,4.658227848101266,electrolyte,0.0218582805778173,0.0227936680218474,0.0207837588340078,4.688911285295782e-05,critical
1200,0.0,4.759493670886076,electrolyte,0.0217853489918531,0.0228344620435004,0.020555990418268,9.131406855620942e-05,critical
1200,0.101010101010101,4.759493670886076,electrolyte,0.0214295166148811,0.0224614139747245,0.020221693790496,-3.393023081922345e-07,critical
1200,0.202020202020202,4.759493670886076,electrolyte,0.0211611718938968,0.0221934102654147,0.0199480815132023,0.0001121571622066,critical
1200,0.303030303030303,4.759493670886076,electrolyte,0.0210899546513878,0.0220830412834423,0.0199319642068772,-1.490154026478162e-05,critical
1200,0.404040404040404,4.759493670886076,electrolyte,0.0209037853277892,0.0218431826439471,0.0198167987692503,4.261751829915332e-06,critical
1200,0.5050505050505051,4.759493670886076,electrolyte,0.0207263703181726,0.021735123425024,0.0195427757699327,6.163034476069153e-05,critical
1200,0.6060606060606061,4.759493670886076,electrolyte,0.0204104595892308,0.0215122808377273,0.0190928076643646,3.250513024162378e-05,critical
1200,0.7070707070707071,4.759493670886076,electrolyte,0.0204727836908644,0.0214480512825315,0.0193318672799016,-9.26579975211138e-05,critical
1200,0.8080808080808081,4.759493670886076,electrolyte,0.0201189165384442,0.0210668537160792,0.0190132427893045,-3.777270504074205e-05,critical
1200,0.9090909090909092,4.759493670886076,electrolyte,0.0199440841633393,0.0210429190372828,0.0186246741056567,1.8932017996384596e-05,critical
1200,1.0101010101010102,4.759493670886076,electrolyte,0.0197188918178355,0.0207272829540379,0.0185255495586399,-3.0315002379487863e-05,critical
1200,1.1111111111111112,4.759493670886076,electrolyte,0.0196425894714462,0.0205473531161823,0.01859143492917,-1.7576151502038165e-05,critical
1200,1.2121212121212122,4.759493670886076,electrolyte,0.0195140138994134,0.0204527138958061,0.0184153996114915,1.9911827740652923e-05,critical
1200,1.3131313131313131,4.759493670886076,electrolyte,0.0194430725400088,0.0204957051331284,0.0181816091695744,0.0001050861267852,critical
1200,1.414141414141414,4.759493670886076,electrolyte,0.0193425800262123,0.0202591693634733,0.0182726736443136,3.947343474887925e-06,critical
1200,1.5151515151515151,4.759493670886076,electrolyte,0.0191250941937405,0.0201283093311448,0.0179319170493257,4.440568490324059e-05,critical
1200,1.616161616161616,4.759493670886076,electrolyte,0.0191356193002019,0.0199702930547517,0.0181743075443942,-6.1730627198073725e-06,critical
1200,1.7171717171717171,4.759493670886076,electrolyte,0.0190547100875927,0.0200833717457647,0.0178231244742535,-9.096575612569258e-05,critical
1200,1.818181818181818,4.759493670886076,electrolyte,0.0187774690325711,0.0196637215480325,0.0177435892570865,2.188485338253036e-05,critical
1200,1.9191919191919191,4.759493670886076,electrolyte,0.0189532248757625,0.0199991533999652,0.0176964023290238,5.479017810956537e-05,critical
1200,2.0202020202020203,4.759493670886076,electrolyte,0.0186360838825237,0.0195620469706338,0.0175440818817324,0.0001053336751185,critical
1200,2.121212121212121,4.759493670886076,electrolyte,0.0185752633873681,0.0194758568659067,0.0175197566026761,2.456115525785444e-05,critical
1200,2.2222222222222223,4.759493670886076,electrolyte,0.0185807575687736,0.0194594880778271,0.0175547304895057,-5.882655087406217e-05,critical
1200,2.323232323232323,4.759493670886076,electrolyte,0.018483793693492,0.0193829226452524,0.0174285920537409,6.872566074882523e-05,critical
1200,2.4242424242424243,4.759493670886076,electrolyte,0.0182936635222973,0.0192012015437737,0.0172234978467511,0.0001079501576258,critical
1200,2.525252525252525,4.759493670886076,electrolyte,0.018378838520639,0.0191880065359819,0.0174448082617416,6.290256793934997e-05,critical
1200,2.6262626262626263,4.759493670886076,electrolyte,0.0181331943470909,0.0190155344073704,0.0170984238417908,-2.4203535124536915e-05,critical
1200,2.727272727272727,4.759493670886076,electrolyte,0.0180329020440489,0.0188014578844232,0.0171497043737185,-7.707562814778535e-05,critical
1200,2.8282828282828283,4.759493670886076,electrolyte,0.0181551316427553,0.0189985930513339,0.0171734572973749,-4.530624720444029e-05,critical
1200,2.929292929292929,4.759493670886076,electrolyte,0.0181059537359331,0.0189802617967929,0.0170814596456932,-5.637709971834439e-05,critical
1200,3.0303030303030303,4.759493670886076,electrolyte,0.0180057287116278,0.018888409218592,0.0169690414316917,3.69464762028665e-05,critical
1200,3.131313131313131,4.759493670886076,electrolyte,0.0179989209676527,0.0188664402209767,0.0169833150874985,9.947850178380866e-06,critical
1200,3.2323232323232323,4.759493670886076,electrolyte,0.0178603123524123,0.0186868300134793,0.0168986052693026,6.230424732313146e-05,critical
1200,3.333333333333333,4.759493670886076,electrolyte,0.0178458791950525,0.0187562139451225,0.016768702781147,5.107730127736041e-05,critical
1200,3.4343434343434343,4.759493670886076,electrolyte,0.0177237791163115,0.0185495386077538,0.0167626458887166,-2.1208173099688707e-06,critical
1200,3.5353535353535355,4.759493670886076,electrolyte,0.0178386853808,0.0187635370025589,0.0167415129029497,6.266909178867941e-06,critical
1200,3.636363636363636,4.759493670886076,electrolyte,0.0178817822678891,0.0186665894454674,0.0169770450802905,-3.932908964031686e-06,critical
1200,3.7373737373737375,4.759493670886076,electrolyte,0.0177027656269658,0.0185155816607429,0.0167585711173209,-4.521339573984452e-05,critical
1200,3.8383838383838382,4.759493670886076,electrolyte,0.0176103507272577,0.0184154247851,0.0166758461153611,-4.292987879309375e-05,critical
1200,3.939393939393939,4.759493670886076,electrolyte,0.0176603057364132,0.0185451998160484,0.016614810715983,0.0001080308477718,critical
1200,4.040404040404041,4.759493670886076,electrolyte,0.0177009690357964,0.0185172782086947,0.0167516670666041,6.229652052948593e-05,critical
1200,4.141414141414141,4.759493670886076,electrolyte,0.0176965686267738,0.0184800071763917,0.0167920592639036,-2.580247733135494e-05,critical
1200,4.242424242424242,4.759493670886076,electrolyte,0.0176704671872648,0.0184071282769303,0.0168277560710792,1.047915928853005e-05,critical
1200,4.343434343434343,4.759493670886076,electrolyte,0.0175134921723604,0.0183941603297986,0.0164746696366874,-9.108104385396877e-06,critical
1200,4.444444444444445,4.759493670886076,electrolyte,0.0176669833294217,0.0185098116468553,0.0166812044248414,6.466231039955217e-05,critical
1200,4.545454545454545,4.759493670886076,electrolyte,0.0175104775915662,0.0183785664812294,0.0164888421182942,3.867060599950813e-05,critical
1200,4.646464646464646,4.759493670886076,electrolyte,0.0175626815553719,0.0184316589621851,0.0165406305879751,-1.3330244908639295e-05,critical
1200,4.747474747474747,4.759493670886076,electrolyte,0.0175859896048396,0.0184611156711833,0.0165522677346078,-0.0001291003066981,critical
1200,4.848484848484849,4.759493670886076,electrolyte,0.0174842251935386,0.0182199728297718,0.016641371850525,1.639715417974371e-05,critical
1200,4.94949494949495,4.759493670886076,electrolyte,0.0174542892030388,0.0182994416165941,0.0164630641985285,7.082238469987697e-05,critical
1200,5.05050505050505,4.759493670886076,electrolyte,0.017590497442933,0.018423360198758,0.0166178760864102,5.388423279478408e-05,critical
1200,5.151515151515151,4.759493670886076,electrolyte,0.0174368865777484,0.018370988065524,0.0163214159361784,-3.526204704051825e-05,critical
1200,5.252525252525253,4.759493670886076,electrolyte,0.0175783748088002,0.0184242061979681,0.016588315199107,-2.7236334334403276e-05,critical
1200,5.353535353535354,4.759493670886076,electrolyte,0.0176059052866617,0.0184980676064743,0.016551429645553,-5.488486361507425e-05,critical
1200,5.454545454545454,4.759493670886076,electrolyte,0.0175749892237956,0.0183522366118084,0.0166771026336635,6.334782130661503e-05,critical
1200,5.555555555555555,4.759493670886076,electrolyte,0.0176744248841821,0.0185145877136528,0.0166919224102031,7.984277258666569e-05,critical
1200,5.656565656565657,4.759493670886076,electrolyte,0.0176152045527666,0.0184883352276381,0.0165867670343497,-7.694276723925422e-05,critical
1200,5.757575757575758,4.759493670886076,electrolyte,0.0176654967505969,0.018481730229817,0.0167165435079143,3.288258860551148e-05,critical
1200,5.858585858585858,4.759493670886076,electrolyte,0.017607050352702,0.0184550242656075,0.0166142389633729,-3.43917141832689e-05,critical
1200,5.959595959595959,4.759493670886076,electrolyte,0.0176337067826647,0.018612179324094,0.0164567892519441,4.161681497040008e-05,critical
1200,6.0606060606060606,4.759493670886076,electrolyte,0.0176598483453767,0.0185117081939387,0.0166615764707174,6.586478957927976e-05,critical
1200,6.161616161616162,4.759493670886076,electrolyte,0.0177613485237381,0.0186156137924454,0.0167616239694925,-1.0079150306830927e-05,critical
1200,6.262626262626262,4.759493670886076,electrolyte,0.017710998634336,0.0184965989821608,0.0168038320898582,9.47530305447575e-06,critical
1200,6.363636363636363,4.759493670886076,electrolyte,0.0178005655492785,0.0185795910052853,0.0169020762349486,-6.432854204966324e-05,critical
1200,6.4646464646464645,4.759493670886076,electrolyte,0.0177861889078067,0.0186381577928276,0.0167898461121312,-1.236446509154293e-05,critical
1200,6.565656565656566,4.759493670886076,electrolyte,0.0178662087135929,0.018751972044435,0.0168236894327698,-4.391673810405364e-05,critical
1200,6.666666666666667,4.759493670886076,electrolyte,0.0179733529159233,0.0187733131868276,0.0170467242187002,0.0001107745583503,critical
1200,6.767676767676767,4.759493670886076,electrolyte,0.0178638959664831,0.0187801761838953,0.0167782651060182,6.417784269764271e-05,critical
1200,6.8686868686868685,4.759493670886076,electrolyte,0.0179101533823676,0.0187340070661841,0.0169528797686765,4.400890612019848e-05,critical
1200,6.96969696969697,4.759493670886076,electrolyte,0.0180118683218255,0.0187605302038317,0.0171545323212101,-8.17506353257046e-05,critical
1200,7.070707070707071,4.759493670886076,electrolyte,0.0180006215246147,0.0188744334920278,0.0169751847616987,-7.796095860427782e-05,critical
1200,7.171717171717171,4.759493670886076,electrolyte,0.0182168831071019,0.0190729096869188,0.0172186043476327,-4.9987296131231374e-05,critical
1200,7.272727272727272,4.759493670886076,electrolyte,0.0181259234259503,0.0190425104955163,0.0170432303929861,4.5038794759365725e-05,critical
1200,7.373737373737374,4.759493670886076,electrolyte,0.0181691941555154,0.0190638212593832,0.0171164347584257,-8.688928622066052e-05,critical
1200,7.474747474747475,4.759493670886076,electrolyte,0.0181705452975661,0.0189746223256553,0.0172416299653482,6.334303128109115e-05,critical
1200,7.575757575757575,4.759493670886076,electrolyte,0.0183676900286604,0.0192680685519424,0.0173098876480713,5.616258305719473e-05,critical
1200,7.6767676767676765,4.759493670886076,electrolyte,0.0184981189016565,0.0194442985130942,0.0173780593281201,-4.7907466614509707e-05,critical
1200,7.777777777777778,4.759493670886076,electrolyte,0.0184940838321622,0.0194543156459662,0.0173523465735307,0.0001077580157905,critical
1200,7.878787878787879,4.759493670886076,electrolyte,0.0185542532314979,0.0194621099422372,0.0174886243225315,-6.786844488731849e-06,critical
1200,7.979797979797979,4.759493670886076,electrolyte,0.018592883102276,0.019464071662201,0.0175778801245524,1.2451563956602644e-05,critical
1200,8.080808080808081,4.759493670886076,electrolyte,0.0188349641248334,0.0198727282624458,0.0175889295634863,-6.3098845851107816e-06,critical
1200,8.181818181818182,4.759493670886076,electrolyte,0.0187720551414481,0.0196188644859541,0.0177907756589338,-6.665513598505995e-05,critical
1200,8.282828282828282,4.759493670886076,electrolyte,0.0189945454943294,0.0199045005439672,0.0179294619669132,-7.07004993750615e-05,critical
1200,8.383838383838384,4.759493670886076,electrolyte,0.0191986219165054,0.0201239805200942,0.0181152557561291,-1.874711257127418e-05,critical
1200,8.484848484848484,4.759493670886076,electrolyte,0.0191867984133928,0.0201365007160144,0.0180689125643187,-6.743342923386891e-05,critical
1200,8.585858585858587,4.759493670886076,electrolyte,0.0192576588013368,0.020258667771545,0.018069068646244,5.105400306636099e-05,critical
1200,8.686868686868687,4.759493670886076,electrolyte,0.0195346253994999,0.0204816404115518,0.0184234249580465,-8.82675965885374e-05,critical
1200,8.787878787878787,4.759493670886076,electrolyte,0.0195590679171069,0.0205166996730037,0.0184348494688443,-1.5994208667712825e-05,critical
1200,8.88888888888889,4.759493670886076,electrolyte,0.0196550119212969,0.0206509377928054,0.018478227933034,4.505524465580341e-05,critical
1200,8.98989898989899,4.759493670886076,electrolyte,0.0198455497637943,0.020854013174543,0.0186533488633159,4.373812825507411e-05,critical
1200,9.09090909090909,4.759493670886076,electrolyte,0.0199548726671481,0.0208588936962604,0.0189073403334558,2.69600917969305e-05,critical
1200,9.191919191919192,4.759493670886076,electrolyte,0.0201121548184332,0.0211315095029215,0.0189079537011933,-1.796032350132683e-05,critical
1200,9.292929292929292,4.759493670886076,electrolyte,0.020345891700132,0.0213684779615275,0.0191397762312101,1.0183083998218666e-05,critical
1200,9.393939393939394,4.759493670886076,electrolyte,0.0205863270205401,0.0216108919017488,0.0193800204606174,1.348556859329003e-05,critical
1200,9.494949494949497,4.759493670886076,electrolyte,0.0207025965104913,0.0216320388300465,0.019627300496516,8.297556043240438e-08,critical
1200,9.595959595959595,4.759493670886076,electrolyte,0.0209613799032213,0.0219212154642158,0.0198471371374809,-3.775801539310784e-05,critical
1200,9.696969696969695,4.759493670886076,electrolyte,0.0210322462840822,0.0219237741222491,0.0200098698721131,-1.274079790902966e-05,critical
1200,9.797979797979798,4.759493670886076,electrolyte,0.0213667851261643,0.0224876098672535,0.0200340149978488,2.748028492631887e-05,critical
1200,9.8989898989899,4.759493670886076,electrolyte,0.0217137957556292,0.0228023889784345,0.0204286941129308,0.0001024195914824,critical
1200,10.0,4.759493670886076,electrolyte,0.0218592822139897,0.0228706091623498,0.020683527591029,-2.4137200103598317e-06,critical
1200,0.0,4.860759493670886,electrolyte,0.0217509901568431,0.0227849062990251,0.0205431603299802,-4.533066993028263e-05,critical
1200,0.101010101010101,4.860759493670886,electrolyte,0.0215639491213669,0.0225713805845676,0.0203906377830861,3.374798061195073e-05,critical
1200,0.202020202020202,4.860759493670886,electrolyte,0.0212843855879685,0.0223464357854614,0.0200333726708525,1.053454218067126e-05,critical
1200,0.303030303030303,4.860759493670886,electrolyte,0.0210367690298354,0.0220021495548728,0.0199151877836697,6.65876627774124e-05,critical
1200,0.404040404040404,4.860759493670886,electrolyte,0.0209229244102201,0.0219827860759203,0.0196708412248617,-3.550728525917265e-05,critical
1200,0.5050505050505051,4.860759493670886,electrolyte,0.0207109551867334,0.021675169361066,0.0195886217791941,-3.3112543264655623e-05,critical
1200,0.6060606060606061,4.860759493670886,electrolyte,0.0204917706442011,0.0213841227442161,0.0194636342364246,6.230159375642747e-05,critical
1200,0.7070707070707071,4.860759493670886,electrolyte,0.0203573708066456,0.0212425096976903,0.0193384423362706,-2.873788831843203e-06,critical
1200,0.8080808080808081,4.860759493670886,electrolyte,0.0201993126002527,0.0211985151724524,0.0190241548118054,-1.3566178931784428e-05,critical
1200,0.9090909090909092,4.860759493670886,electrolyte,0.0199889547538176,0.020953182691343,0.0188592674197983,-6.365352525247244e-05,critical
1200,1.0101010101010102,4.860759493670886,electrolyte,0.019778408555929,0.0207130139087248,0.0186879838633238,8.729899194112789e-06,critical
1200,1.1111111111111112,4.860759493670886,electrolyte,0.0197164757912026,0.0206961825627696,0.0185633465177241,-2.5510300327614143e-06,critical
1200,1.2121212121212122,4.860759493670886,electrolyte,0.0194989963231375,0.0204468963484349,0.0183875080104963,2.773016804611084e-05,critical
1200,1.3131313131313131,4.860759493670886,electrolyte,0.0193894863258247,0.0203492664494992,0.0182605831068957,6.07476277156445e-06,critical
1200,1.414141414141414,4.860759493670886,electrolyte,0.0191523212409017,0.0201043094701655,0.0180300985764767,-9.37665969707325e-05,critical
1200,1.5151515151515151,4.860759493670886,electrolyte,0.0191542834899325,0.0201369616103327,0.0179898721211098,7.122373290385674e-05,critical
1200,1.616161616161616,4.860759493670886,electrolyte,0.0190587096168422,0.0199715817543165,0.017991185980841,1.0273003256203548e-06,critical
1200,1.7171717171717171,4.860759493670886,electrolyte,0.0189447250002606,0.0198400995447936,0.0179000336280301,1.0008976637324814e-05,critical
1200,1.818181818181818,4.860759493670886,electrolyte,0.019015475290056,0.0199116024916895,0.0179702950789524,-2.740903450315045e-05,critical
1200,1.9191919191919191,4.860759493670886,electrolyte,0.0187830051901209,0.0196351077946667,0.0177942124874268,8.388112235464156e-05,critical
1200,2.0202020202020203,4.860759493670886,electrolyte,0.0186940471691987,0.0196154392136084,0.0176109524937296,-3.0899943662306774e-05,critical
1200,2.121212121212121,4.860759493670886,electrolyte,0.0186102895730743,0.0194808808357829,0.0175960419209852,-3.589064311429242e-05,critical
1200,2.2222222222222223,4.860759493670886,electrolyte,0.0184290839001216,0.0192978075083381,0.0174155483093349,4.595207568742114e-05,critical
1200,2.323232323232323,4.860759493670886,electrolyte,0.0184552365969352,0.0193401248382387,0.0174201311774213,-2.497012517468911e-05,critical
1200,2.4242424242424243,4.860759493670886,electrolyte,0.0183906627457335,0.0192003995717233,0.0174558570701008,-6.737228539056543e-05,critical
1200,2.525252525252525,4.860759493670886,electrolyte,0.0182911966364552,0.0193665905664253,0.0169817771211272,2.171504421401509e-05,critical
1200,2.6262626262626263,4.860759493670886,electrolyte,0.0182383509719846,0.019063718023462,0.0172822041699689,-1.3993414154258188e-05,critical
1200,2.727272727272727,4.860759493670886,electrolyte,0.018156667085148,0.0189377139821536,0.0172585892875818,4.786173590072656e-05,critical
1200,2.8282828282828283,4.860759493670886,electrolyte,0.0181395293097408,0.0190339973810062,0.0170881096668886,1.8347907127743343e-05,critical
1200,2.929292929292929,4.860759493670886,electrolyte,0.0180625043209697,0.0189265213547383,0.0170512808365669,-7.326769441376832e-05,critical
1200,3.0303030303030303,4.860759493670886,electrolyte,0.0181486916658753,0.0190061614499441,0.0171465517680975,-9.439244304097028e-05,critical
1200,3.131313131313131,4.860759493670886,electrolyte,0.017931293212397,0.0187509096388207,0.0169802326138317,1.976321511834063e-05,critical
1200,3.2323232323232323,4.860759493670886,electrolyte,0.0178108522686429,0.0186262097682451,0.0168644824400225,-2.1508104467637508e-05,critical
1200,3.333333333333333,4.860759493670886,electrolyte,0.0178838467516956,0.018789282717465,0.0168143032282181,3.018610615864529e-05,critical
1200,3.4343434343434343,4.860759493670886,electrolyte,0.0178968514940237,0.0187726637879105,0.0168683095394131,-5.0413759901473066e-05,critical
1200,3.5353535353535355,4.860759493670886,electrolyte,0.0178296928598425,0.0187125742155499,0.0167909064925153,-3.6772956618862e-05,critical
1200,3.636363636363636,4.860759493670886,electrolyte,0.0177963030095594,0.0186751406886052,0.0167628331039768,3.273099169532936e-05,critical
1200,3.7373737373737375,4.860759493670886,electrolyte,0.0176136742106809,0.0184985564973395,0.0165670255627906,0.0001219960146028,critical
1200,3.8383838383838382,4.860759493670886,electrolyte,0.0177589257485014,0.0185518361276221,0.0168423852065866,-4.120617929880278e-06,critical
1200,3.939393939393939,4.860759493670886,electrolyte,0.0177248881752345,0.0185542371423802,0.0167575426497714,8.191352633536292e-05,critical
1200,4.040404040404041,4.860759493670886,electrolyte,0.0176166412688366,0.0185284950305171,0.0165352291957833,-3.105072529497168e-06,critical
1200,4.141414141414141,4.860759493670886,electrolyte,0.017793310606237,0.0186003735664374,0.0168550525697255,0.0001231295654018,critical
1200,4.242424242424242,4.860759493670886,electrolyte,0.01767914221152,0.018524770461998,0.0166898736244295,5.5211708660151953e-05,critical
1200,4.343434343434343,4.860759493670886,electrolyte,0.0175305408651681,0.0183250720552911,0.0166074796195455,0.0001102702211967,critical
1200,4.444444444444445,4.860759493670886,electrolyte,0.0177012232149738,0.018643071712183,0.0165778175957436,4.685606300478132e-05,critical
1200,4.545454545454545,4.860759493670886,electrolyte,0.0175549260758652,0.0183542219146025,0.016627968060841,-2.621312563495785e-05,critical
1200,4.646464646464646,4.860759493670886,electrolyte,0.0176111157279697,0.0184444138583935,0.0166385790080977,-2.2512488871616268e-05,critical
1200,4.747474747474747,4.860759493670886,electrolyte,0.0175339318532691,0.018334617573915,0.0166049490986121,2.324968278976989e-05,critical
1200,4.848484848484849,4.860759493670886,electrolyte,0.0176220749726848,0.0184206784314259,0.0166964504013007,3.924391435912545e-05,critical
1200,4.94949494949495,4.860759493670886,electrolyte,0.017470104945299,0.0183624275167005,0.0164142084385532,-3.784409401855572e-05,critical
1200,5.05050505050505,4.860759493670886,electrolyte,0.017543792946771,0.0184464590936485,0.0164722547719363,0.000103946179387,critical
1200,5.151515151515151,4.860759493670886,electrolyte,0.0176161507375292,0.0184403015515578,0.0166533686554823,-0.0001190206927664,critical
1200,5.252525252525253,4.860759493670886,electrolyte,0.0175978417626286,0.0185419355323762,0.0164693504468818,7.021756596163927e-05,critical
1200,5.353535353535354,4.860759493670886,electrolyte,0.0174282829757337,0.0180983172023203,0.0166702810430721,2.398639047820103e-05,critical
1200,5.454545454545454,4.860759493670886,electrolyte,0.0176330651525274,0.0185345226810209,0.0165661849379112,-3.787141677733325e-05,critical
1200,5.555555555555555,4.860759493670886,electrolyte,0.0175899796474061,0.0184138533541009,0.0166301743455152,-9.68743248695658e-06,critical
1200,5.656565656565657,4.860759493670886,electrolyte,0.017641635297046,0.0185484492996666,0.0165668671678709,6.036690970575271e-05,critical
1200,5.757575757575758,4.860759493670886,electrolyte,0.0176204076755119,0.0184946351247177,0.0165913688197071,-4.095315759106202e-05,critical
1200,5.858585858585858,4.860759493670886,electrolyte,0.0176507084551996,0.0185530171624293,0.0165831206987005,5.596517321711398e-06,critical
1200,5.959595959595959,4.860759493670886,electrolyte,0.0176464745198291,0.0185634823598372,0.0165581309744015,-4.341456551760595e-06,critical
1200,6.0606060606060606,4.860759493670886,electrolyte,0.0177376589796064,0.0185190568078439,0.0168359105205421,-4.612053288011888e-05,critical
1200,6.161616161616162,4.860759493670886,electrolyte,0.0177348876906759,0.0187076386944226,0.0165664987008345,8.502705826313296e-05,critical
1200,6.262626262626262,4.860759493670886,electrolyte,0.0178250346715046,0.0187885713298522,0.0166715675870167,-7.122594107448196e-05,critical
1200,6.363636363636363,4.860759493670886,electrolyte,0.0176757579135444,0.0184858096041759,0.0167342730219063,-7.73573352301376e-05,critical
1200,6.4646464646464645,4.860759493670886,electrolyte,0.0178266588174872,0.0186308450719171,0.0168946496435116,-6.779866491224303e-05,critical
1200,6.565656565656566,4.860759493670886,electrolyte,0.0178413684198471,0.0186657303702326,0.0168825029025733,5.853698887766906e-05,critical
1200,6.666666666666667,4.860759493670886,electrolyte,0.0178615801268625,0.018685042005112,0.0169046185764293,2.960215052742402e-05,critical
1200,6.767676767676767,4.860759493670886,electrolyte,0.017788195508044,0.0187404528927787,0.0166503427537469,7.388056555497224e-05,critical
1200,6.8686868686868685,4.860759493670886,electrolyte,0.0180522365509478,0.0189523568740698,0.0169918292717485,3.813882741294632e-05,critical
1200,6.96969696969697,4.860759493670886,electrolyte,0.0180366958775392,0.0189304681576552,0.0169850721875669,-2.8661799170707183e-05,critical
1200,7.070707070707071,4.860759493670886,electrolyte,0.0180876135633825,0.0190202558138503,0.0169813621395636,-7.029708642651217e-05,critical
1200,7.171717171717171,4.860759493670886,electrolyte,0.0181160680584152,0.018886037739732,0.0172313285170246,8.629138074271281e-05,critical
1200,7.272727272727272,4.860759493670886,electrolyte,0.0180824126609861,0.0189851826698395,0.017018891211193,-1.398879573886968e-05,critical
1200,7.373737373737374,4.860759493670886,electrolyte,0.0180667790557229,0.0187837655888178,0.0172522098972463,2.1416605424676293e-05,critical
1200,7.474747474747475,4.860759493670886,electrolyte,0.0182254463988997,0.0190922025216464,0.01721155933097,-8.850832035966024e-05,critical
1200,7.575757575757575,4.860759493670886,electrolyte,0.0182180193522304,0.0190265160848008,0.0172843555042334,-3.5408589738437198e-06,critical
1200,7.6767676767676765,4.860759493670886,electrolyte,0.0184757692660449,0.0194688421749387,0.0172892426257001,2.489828047009169e-05,critical
1200,7.777777777777778,4.860759493670886,electrolyte,0.0185033167025781,0.0194259009875065,0.0174163440326612,4.5589100715547054e-05,critical
1200,7.878787878787879,4.860759493670886,electrolyte,0.0186372729222927,0.0195687385838144,0.0175390490322858,6.120126070441774e-05,critical
1200,7.979797979797979,4.860759493670886,electrolyte,0.0185974404733524,0.0194829900397727,0.0175625031570705,-4.6361660075303774e-05,critical
1200,8.080808080808081,4.860759493670886,electrolyte,0.0188609688815405,0.0197210459095798,0.0178621628095867,8.199178566903289e-05,critical
1200,8.181818181818182,4.860759493670886,electrolyte,0.0188061682228757,0.0197299324090177,0.017721121243646,6.233774513191983e-06,critical
1200,8.282828282828282,4.860759493670886,electrolyte,0.0190921443726515,0.0200029119274542,0.018027019441186,6.568468195207061e-05,critical
1200,8.383838383838384,4.860759493670886,electrolyte,0.0190931641786755,0.0199701795460195,0.018074077676303,6.093638497585361e-05,critical
1200,8.484848484848484,4.860759493670886,electrolyte,0.0191677648891416,0.0200425277641919,0.0181522887024112,6.443816939683129e-05,critical
1200,8.585858585858587,4.860759493670886,electrolyte,0.019219396666479,0.0201014397819399,0.0181952615339775,1.569148988073533e-05,critical
1200,8.686868686868687,4.860759493670886,electrolyte,0.019349109013192,0.0202516925433198,0.018297755177644,-5.667534684889328e-05,critical
1200,8.787878787878787,4.860759493670886,electrolyte,0.0194894639765164,0.02043253090479,0.0183845672458258,-2.4579950941515175e-05,critical
1200,8.88888888888889,4.860759493670886,electrolyte,0.0197852692607253,0.0208109233018336,0.0185685285134332,-1.0370011091258272e-05,critical
1200,8.98989898989899,4.860759493670886,electrolyte,0.0199535216877182,0.0210454658026665,0.0186441853590278,2.093307784925673e-05,critical
1200,9.09090909090909,4.860759493670886,electrolyte,0.0199792940677713,0.0210392943805389,0.0187161794826687,-6.292930093575928e-06,critical
1200,9.191919191919192,4.860759493670886,electrolyte,0.0201586859819161,0.0211484096803003,0.0189962376457794,-1.3661796343225529e-05,critical
1200,9.292929292929292,4.860759493670886,electrolyte,0.0203727371608274,0.0212740832634047,0.0193321766944105,3.205017791530528e-05,critical
1200,9.393939393939394,4.860759493670886,electrolyte,0.0205428857208906,0.0214752234624878,0.0194623602263411,-3.492995936538348e-07,critical
1200,9.494949494949497,4.860759493670886,electrolyte,0.0207619267360613,0.0216709893180191,0.0197140661682514,-3.9733414084947694e-05,critical
1200,9.595959595959595,4.860759493670886,electrolyte,0.0208674615605464,0.0218592606631331,0.0197090884373537,-2.316459593093145e-05,critical
1200,9.696969696969695,4.860759493670886,electrolyte,0.0211617160274815,0.0221572882191726,0.0200009458199566,-2.374514882197314e-05,critical
1200,9.797979797979798,4.860759493670886,electrolyte,0.0213154633256768,0.0223417846373057,0.0201140478518204,2.852082885007785e-05,critical
1200,9.8989898989899,4.860759493670886,electrolyte,0.0215508618825312,0.0225836807948324,0.0203422050648326,6.725222314666538e-05,critical
1200,10.0,4.860759493670886,electrolyte,0.0217374012298778,0.0228410460996553,0.0204326877128277,-5.904834384350906e-05,critical
1200,0.0,4.962025316455696,electrolyte,0.021725527109572,0.022828973047552,0.0204202647562223,-8.751916428505319e-05,critical
1200,0.101010101010101,4.962025316455696,electrolyte,0.0215566579380034,0.0226081685385284,0.0203230879824775,6.0546745270990735e-06,critical
1200,0.202020202020202,4.962025316455696,electrolyte,0.0214105495704475,0.022414598462919,0.0202406123759335,8.53135485749418e-06,critical
1200,0.303030303030303,4.962025316455696,electrolyte,0.0212433039312952,0.0222714797021581,0.0200381410728006,6.085039617106737e-05,critical
1200,0.404040404040404,4.962025316455696,electrolyte,0.0209341344276702,0.0218477846035535,0.019881720450331,1.852956450332082e-05,critical
1200,0.5050505050505051,4.962025316455696,electrolyte,0.0207410875996575,0.0217983601144992,0.0194906166464557,-3.44208719423907e-05,critical
1200,0.6060606060606061,4.962025316455696,electrolyte,0.0204992068693877,0.0214935083505872,0.0193337812462613,-2.752237785193063e-05,critical
1200,0.7070707070707071,4.962025316455696,electrolyte,0.0205461029813036,0.0213931687064303,0.0195786775187198,2.46585258882712e-06,critical
1200,0.8080808080808081,4.962025316455696,electrolyte,0.0200985152014897,0.021160244473535,0.018833808531331,-5.778183284710376e-05,critical
1200,0.9090909090909092,4.962025316455696,electrolyte,0.0200449531473199,0.0209325238210779,0.0190197744682204,5.672878117892743e-05,critical
1200,1.0101010101010102,4.962025316455696,electrolyte,0.0198998090778272,0.0208434040160386,0.018798147554608,-2.544999768152196e-05,critical
1200,1.1111111111111112,4.962025316455696,electrolyte,0.0196067107388852,0.0205513738065427,0.0185007287742581,-2.9258711774549995e-05,critical
1200,1.2121212121212122,4.962025316455696,electrolyte,0.0195480058423642,0.020460088607869,0.0184836183357471,-0.0001177974718237,critical
1200,1.3131313131313131,4.962025316455696,electrolyte,0.0194620331330529,0.020332004252579,0.0184561943740849,-1.4702284134913373e-05,critical
1200,1.414141414141414,4.962025316455696,electrolyte,0.0192587819673085,0.0201928483961745,0.0181637548391551,4.287356935985307e-05,critical
1200,1.5151515151515151,4.962025316455696,electrolyte,0.0190013367320006,0.0197333271473851,0.0181731434537032,3.6229159204800536e-06,critical
1200,1.616161616161616,4.962025316455696,electrolyte,0.0191139657393226,0.0199592833102636,0.0181379388466139,4.5205180120922536e-05,critical
1200,1.7171717171717171,4.962025316455696,electrolyte,0.0191619156733311,0.0200803102518031,0.0180874397568984,-4.500919562204173e-05,critical
1200,1.818181818181818,4.962025316455696,electrolyte,0.0189003465400577,0.0198400996235643,0.0177940892486593,1.2075816813218636e-05,critical
1200,1.9191919191919191,4.962025316455696,electrolyte,0.0189038982504496,0.0198360002008822,0.0178083095502756,-8.324104686554659e-06,critical
1200,2.0202020202020203,4.962025316455696,electrolyte,0.0186432922036622,0.0195477151933397,0.0175798100584267,0.0001348745046091,critical
1200,2.121212121212121,4.962025316455696,electrolyte,0.0185729788351824,0.0193930866918891,0.0176266527908181,4.017674093464841e-06,critical
1200,2.2222222222222223,4.962025316455696,electrolyte,0.0184658549631188,0.0193783007313789,0.0173929698418179,-4.493378197089543e-06,critical
1200,2.323232323232323,4.962025316455696,electrolyte,0.0183922887830474,0.0193096666563171,0.0173115579636622,-3.383662472452597e-05,critical
1200,2.4242424242424243,4.962025316455696,electrolyte,0.0183859707356813,0.0192083470258766,0.0174350529493123,-1.6335507596013248e-05,critical
1200,2.525252525252525,4.962025316455696,electrolyte,0.0183701237181867,0.0192796708658337,0.0173001565098581,2.3415795923598437e-05,critical
1200,2.6262626262626263,4.962025316455696,electrolyte,0.0182651701061305,0.0191615801244862,0.0172121797256143,3.519546061558816e-05,critical
1200,2.727272727272727,4.962025316455696,electrolyte,0.0182265848538864,0.0190925852705109,0.0172137065066508,-8.95371931257204e-05,critical
1200,2.8282828282828283,4.962025316455696,electrolyte,0.0179895234895536,0.0188695049625457,0.0169552079234615,-8.571692676909622e-05,critical
1200,2.929292929292929,4.962025316455696,electrolyte,0.0180215808652465,0.0188885562309404,0.017005809814731,7.626243427271647e-05,critical
1200,3.0303030303030303,4.962025316455696,electrolyte,0.0180812235872169,0.0190069704245377,0.0169839323568614,-9.103733382144988e-05,critical
1200,3.131313131313131,4.962025316455696,electrolyte,0.0178789316591578,0.0187244580041973,0.0168922981318062,9.318645273117357e-06,critical
1200,3.2323232323232323,4.962025316455696,electrolyte,0.0179276317455509,0.0186948254450755,0.0170464145095767,3.150487196672541e-05,critical
1200,3.333333333333333,4.962025316455696,electrolyte,0.01786638963121,0.0186990220154504,0.016896421927171,-6.31025024145842e-05,critical
1200,3.4343434343434343,4.962025316455696,electrolyte,0.0177498334237337,0.0186780414391142,0.0166463163006734,5.194182496383421e-05,critical
1200,3.5353535353535355,4.962025316455696,electrolyte,0.0179035963320148,0.018744619612887,0.0169220605776533,-8.052243678963259e-05,critical
1200,3.636363636363636,4.962025316455696,electrolyte,0.0177626794691611,0.0186637394830202,0.0166977388142665,-4.233245261694826e-05,critical
1200,3.7373737373737375,4.962025316455696,electrolyte,0.0177906677111251,0.0186382066537918,0.0168003132734197,2.765798025492786e-05,critical
1200,3.8383838383838382,4.962025316455696,electrolyte,0.0177588609563345,0.0186403638904261,0.0167214649200824,-1.610710715816311e-05,critical
1200,3.939393939393939,4.962025316455696,electrolyte,0.0177558823374592,0.0186139000714538,0.0167505372346045,-4.622514413804875e-05,critical
1200,4.040404040404041,4.962025316455696,electrolyte,0.0176514712896491,0.0185497071529486,0.0165894377953349,2.9267726185415416e-05,critical
1200,4.141414141414141,4.962025316455696,electrolyte,0.0176679834998207,0.0185561476253004,0.0166203729430847,1.0382841641461113e-05,critical
1200,4.242424242424242,4.962025316455696,electrolyte,0.0175126584195429,0.0182738837920827,0.0166355368516704,-6.622430594866394e-05,critical
1200,4.343434343434343,4.962025316455696,electrolyte,0.0176776369407284,0.0185248834282317,0.0166864354623533,-3.951840144131567e-05,critical
1200,4.444444444444445,4.962025316455696,electrolyte,0.0175785814126498,0.0183985313548386,0.0166240186730573,5.785720477682231e-06,critical
1200,4.545454545454545,4.962025316455696,electrolyte,0.0176707412066293,0.0185461358652658,0.0166406582161346,3.8041891128907086e-05,critical
1200,4.646464646464646,4.962025316455696,electrolyte,0.0175051278381839,0.0183746246600681,0.0164816984057037,-2.088748789077165e-05,critical
1200,4.747474747474747,4.962025316455696,electrolyte,0.0175803456368179,0.018384056929933,0.016647695671749,-2.173560388280069e-05,critical
1200,4.848484848484849,4.962025316455696,electrolyte,0.0176369729146019,0.0184325856694641,0.0167155044432665,3.863501961391496e-05,critical
1200,4.94949494949495,4.962025316455696,electrolyte,0.0175546799314977,0.0183878334500006,0.0165819014722008,7.179455480612307e-06,critical
1200,5.05050505050505,4.962025316455696,electrolyte,0.0175691590080822,0.0184318368927955,0.0165558677884292,1.856049321039463e-05,critical
1200,5.151515151515151,4.962025316455696,electrolyte,0.0175999905777933,0.0185509569171926,0.0164620282261341,5.677108848395264e-05,critical
1200,5.252525252525253,4.962025316455696,electrolyte,0.0176305928733771,0.01852895254205,0.0165678365669382,-4.8893509112426514e-05,critical
1200,5.353535353535354,4.962025316455696,electrolyte,0.017549976999603,0.0183735145580116,0.0165893249666958,-6.869353599536489e-05,critical
1200,5.454545454545454,4.962025316455696,electrolyte,0.0175522611996984,0.0183500747128019,0.0166272887731843,-2.5103581604638805e-05,critical
1200,5.555555555555555,4.962025316455696,electrolyte,0.0175852027492494,0.0184877688453924,0.0165162373288333,-3.670277152061048e-05,critical
1200,5.656565656565657,4.962025316455696,electrolyte,0.0176114007408499,0.0183433018554755,0.0167745179651451,1.0110151591971926e-05,critical
1200,5.757575757575758,4.962025316455696,electrolyte,0.0176468682564951,0.0185387398509176,0.0165932925255751,-5.310544416800128e-05,critical
1200,5.858585858585858,4.962025316455696,electrolyte,0.0176502799204685,0.0185942233752733,0.0165236157007433,-1.969621180093456e-05,critical
1200,5.959595959595959,4.962025316455696,electrolyte,0.0176564529950587,0.0185474648458549,0.0166022390441315,0.0001110313972363,critical
1200,6.0606060606060606,4.962025316455696,electrolyte,0.0175974306847851,0.0184102115776456,0.016652726478824,1.408324565930004e-05,critical
1200,6.161616161616162,4.962025316455696,electrolyte,0.0176812122048923,0.0184479987039359,0.0167987571169606,-2.461504147617694e-05,critical
1200,6.262626262626262,4.962025316455696,electrolyte,0.0177662096687956,0.0186147327526033,0.0167739800889428,4.71842970790597e-05,critical
1200,6.363636363636363,4.962025316455696,electrolyte,0.0177753860346187,0.018606641708858,0.0168069472369795,-3.9170692475709545e-05,critical
1200,6.4646464646464645,4.962025316455696,electrolyte,0.0178419722432918,0.0187129652765422,0.0168196000773102,-4.672451426259079e-05,critical
1200,6.565656565656566,4.962025316455696,electrolyte,0.0176985649743519,0.0185365245957015,0.0167191489122131,8.452365741194247e-05,critical
1200,6.666666666666667,4.962025316455696,electrolyte,0.0179441240885428,0.0188307481352757,0.0169015550224285,1.7102792272162108e-05,critical
1200,6.767676767676767,4.962025316455696,electrolyte,0.0179297874397798,0.0188613312860438,0.016822025677707,0.0001044207225958,critical
1200,6.8686868686868685,4.962025316455696,electrolyte,0.0179311810583119,0.0188330965736649,0.0168662314700743,7.148356581952689e-05,critical
1200,6.96969696969697,4.962025316455696,electrolyte,0.0179941941845404,0.0189008707807025,0.0169243115149595,-2.0674740183084103e-06,critical
1200,7.070707070707071,4.962025316455696,electrolyte,0.0181671572682362,0.0191045243859498,0.0170558638785904,3.840981836676368e-05,critical
1200,7.171717171717171,4.962025316455696,electrolyte,0.0180567163287999,0.0189040732979178,0.0170692511309225,-4.384621943832162e-06,critical
1200,7.272727272727272,4.962025316455696,electrolyte,0.0182773075944801,0.0191163169598435,0.0173024436735835,-6.010868093016141e-05,critical
1200,7.373737373737374,4.962025316455696,electrolyte,0.0183586317997049,0.0192903122018079,0.0172565254387208,-8.022827445487493e-05,critical
1200,7.474747474747475,4.962025316455696,electrolyte,0.018109355496038,0.018983878274299,0.0170813020539762,0.0001409506397375,critical
1200,7.575757575757575,4.962025316455696,electrolyte,0.0184062909890743,0.0193427764558692,0.0172991554869811,-2.2089590298371617e-05,critical
1200,7.6767676767676765,4.962025316455696,electrolyte,0.0184449253298408,0.0193034764576705,0.0174457490248469,1.3084611537447894e-05,critical
1200,7.777777777777778,4.962025316455696,electrolyte,0.0185245570779118,0.0193529980357157,0.0175666905516863,8.015911368744873e-06,critical
1200,7.878787878787879,4.962025316455696,electrolyte,0.0187557984633093,0.0195453506894595,0.0178511279034944,3.178087264746383e-05,critical
1200,7.979797979797979,4.962025316455696,electrolyte,0.0187708831113384,0.0196577004818069,0.0177353956907981,-6.757872928555756e-05,critical
1200,8.080808080808081,4.962025316455696,electrolyte,0.0188153099985245,0.0197455036532808,0.0177214589917208,-3.088136352215766e-07,critical
1200,8.181818181818182,4.962025316455696,electrolyte,0.0188803071329645,0.0198199624714953,0.0177733989354973,-5.6199750063417614e-05,critical
1200,8.282828282828282,4.962025316455696,electrolyte,0.0189839297958681,0.0198980357921368,0.0179125644100348,-8.688330386795147e-05,critical
1200,8.383838383838384,4.962025316455696,electrolyte,0.01910809182543,0.0200525492125619,0.0179971944033267,-4.108266652988834e-05,critical
1200,8.484848484848484,4.962025316455696,electrolyte,0.019162726873091,0.020090186381969,0.0180754414132315,6.30264374418079e-05,critical
1200,8.585858585858587,4.962025316455696,electrolyte,0.0193427343548876,0.0201887273737613,0.0183679866892399,-5.6378126539094064e-08,critical
1200,8.686868686868687,4.962025316455696,electrolyte,0.0192913045541788,0.0201948506756536,0.0182383692015668,-4.269680141270298e-05,critical
1200,8.787878787878787,4.962025316455696,electrolyte,0.0194497620828149,0.0204051667365025,0.0183275193315423,1.3397912433606984e-05,critical
1200,8.88888888888889,4.962025316455696,electrolyte,0.0197719302429163,0.0207067184146519,0.0186810551624437,-2.92402810252846e-05,critical
1200,8.98989898989899,4.962025316455696,electrolyte,0.0198153809945426,0.0207801880559989,0.0186834475063713,4.98340902278902e-05,critical
1200,9.09090909090909,4.962025316455696,electrolyte,0.0199425464621129,0.0208570126978842,0.0188809355257816,-1.1051308605561388e-05,critical
1200,9.191919191919192,4.962025316455696,electrolyte,0.020172824349214,0.0211180504535009,0.0190714796632546,2.530133871606973e-05,critical
1200,9.292929292929292,4.962025316455696,electrolyte,0.0205206713470148,0.0216108558638891,0.0192212509911207,4.335569698178498e-06,critical
1200,9.393939393939394,4.962025316455696,electrolyte,0.0203641607361643,0.021217565334943,0.0193871229614817,1.8028809908738556e-05,critical
1200,9.494949494949497,4.962025316455696,electrolyte,0.0207357110501168,0.021758876250705,0.0195328007764061,2.890105631246152e-05,critical
1200,9.595959595959595,4.962025316455696,electrolyte,0.0207166892754869,0.0216096093205523,0.0196900908728973,-2.2302591046376952e-05,critical
1200,9.696969696969695,4.962025316455696,electrolyte,0.0211037702716241,0.0221486358661544,0.0198747405344541,-6.548944813137914e-06,critical
1200,9.797979797979798,4.962025316455696,electrolyte,0.0212923235960113,0.0223350675104976,0.020068066230544,2.6678640716607754e-05,critical
1200,9.8989898989899,4.962025316455696,electrolyte,0.0215339347032122,0.0225169957629541,0.020393483520906,-1.87752315783816e-05,critical
1200,10.0,4.962025316455696,electrolyte,0.0217332546957621,0.0226941258650548,0.020624283047914,-3.4164952282252484e-06,critical
1200,0.0,5.063291139240507,electrolyte-cathode interface,0.0263614179988732,0.0276301489052175,0.0248765052089011,-9.347757259198378e-06,critical
1200,0.101010101010101,5.063291139240507,electrolyte-cathode interface,0.0260191245958634,0.0273713102812992,0.0244139711042438,-4.6944768920146206e-05,critical
1200,0.202020202020202,5.063291139240507,electrolyte-cathode interface,0.0256793287223753,0.0269753726420749,0.0241491184673531,5.397943192364468e-05,critical
1200,0.303030303030303,5.063291139240507,electrolyte-cathode interface,0.0253856100672539,0.026669756688253,0.0238689856071736,4.017171192887596e-05,critical
1200,0.404040404040404,5.063291139240507,electrolyte-cathode interface,0.025102429316854,0.0262940469669305,0.0237103363214801,7.234194154923156e-05,critical
1200,0.5050505050505051,5.063291139240507,electrolyte-cathode interface,0.0248658704819021,0.0261552631571717,0.0233361156164826,-2.3642837339695887e-05,critical
1200,0.6060606060606061,5.063291139240507,electrolyte-cathode interface,0.0247554813082837,0.0259554415630757,0.0233493212367799,-4.031167271771112e-06,critical
1200,0.7070707070707071,5.063291139240507,electrolyte-cathode interface,0.0245067852483489,0.0256416762583789,0.0231857873662213,9.77744305552814e-05,critical
1200,0.8080808080808081,5.063291139240507,electrolyte-cathode interface,0.0242091720808999,0.0254393524718363,0.0227552366386875,1.870476987796516e-05,critical
1200,0.9090909090909092,5.063291139240507,electrolyte-cathode interface,0.024101359852206,0.0252054979438476,0.0228190035858162,7.267150214306668e-05,critical
1200,1.0101010101010102,5.063291139240507,electrolyte-cathode interface,0.0238740694102488,0.0249777742046954,0.0225897462782556,-9.474694066232529e-05,critical
1200,1.1111111111111112,5.063291139240507,electrolyte-cathode interface,0.0237625565575881,0.0248976044629364,0.0224357923648919,-1.9072081240694083e-05,critical
1200,1.2121212121212122,5.063291139240507,electrolyte-cathode interface,0.0234022953904833,0.0244707409631755,0.0221627418731492,2.486183364155149e-05,critical
1200,1.3131313131313131,5.063291139240507,electrolyte-cathode interface,0.0233892512573785,0.0245231942998676,0.0220602173341024,3.569717726071713e-05,critical
1200,1.414141414141414,5.063291139240507,electrolyte-cathode interface,0.0232169348768305,0.0243595561606748,0.0218743411857963,1.3279187502443023e-05,critical
1200,1.5151515151515151,5.063291139240507,electrolyte-cathode interface,0.0230442677096439,0.0241240322654809,0.0217862920656704,3.2809807871119285e-06,critical
1200,1.616161616161616,5.063291139240507,electrolyte-cathode interface,0.0230301423303631,0.0242389016397266,0.021592470728373,4.503718650367008e-05,critical
1200,1.7171717171717171,5.063291139240507,electrolyte-cathode interface,0.0227227994496515,0.0238626573574992,0.0213788553997563,-3.722180764210234e-06,critical
1200,1.818181818181818,5.063291139240507,electrolyte-cathode interface,0.0227005962115678,0.0237982370637735,0.0214148333565212,1.9784077813243315e-05,critical
1200,1.9191919191919191,5.063291139240507,electrolyte-cathode interface,0.0225779025758042,0.0236691987346853,0.0212995565339877,-3.185383053591396e-05,critical
1200,2.0202020202020203,5.063291139240507,electrolyte-cathode interface,0.0224365587103681,0.0235166714005052,0.0211720474649477,-4.405396512344924e-05,critical
1200,2.121212121212121,5.063291139240507,electrolyte-cathode interface,0.0222104003801269,0.0232900004314345,0.0209445707144471,2.438245632784709e-05,critical
1200,2.2222222222222223,5.063291139240507,electrolyte-cathode interface,0.0223059157471495,0.0234513619527986,0.0209492396398603,-4.106831604241887e-05,critical
1200,2.323232323232323,5.063291139240507,electrolyte-cathode interface,0.0221932978604419,0.0233329688427955,0.020843706567297,-1.2745495433455207e-05,critical
1200,2.4242424242424243,5.063291139240507,electrolyte-cathode interface,0.0221598149063557,0.0231362294870681,0.0210326678549133,7.256015232216958e-05,critical
1200,2.525252525252525,5.063291139240507,electrolyte-cathode interface,0.0220470391476343,0.0231741306682247,0.0207133535666538,-2.9149630823181524e-05,critical
1200,2.6262626262626263,5.063291139240507,electrolyte-cathode interface,0.0219745181362081,0.0230921873645473,0.0206533273813958,-1.7356157365289668e-05,critical
1200,2.727272727272727,5.063291139240507,electrolyte-cathode interface,0.0218702607561974,0.0229156271665262,0.0206474867213225,-6.766789803048716e-05,critical
1200,2.8282828282828283,5.063291139240507,electrolyte-cathode interface,0.021896559298908,0.0230231606787895,0.0205616367656707,4.5978548616641874e-05,critical
1200,2.929292929292929,5.063291139240507,electrolyte-cathode interface,0.0216439462848746,0.0227170870874217,0.0203806407616562,6.490575052930964e-05,critical
1200,3.0303030303030303,5.063291139240507,electrolyte-cathode interface,0.0217258393717941,0.0227097858288421,0.0205857541958407,-2.896617727925625e-05,critical
1200,3.131313131313131,5.063291139240507,electrolyte-cathode interface,0.0216352624943187,0.0226749890716813,0.0204186850145448,-8.478146740433561e-06,critical
1200,3.2323232323232323,5.063291139240507,electrolyte-cathode interface,0.0215662414400406,0.022623088093251,0.0203245256623354,-7.267757277036791e-05,critical
1200,3.333333333333333,5.063291139240507,electrolyte-cathode interface,0.0215597066886014,0.0224703766639371,0.0205159255450406,-1.2893357678645704e-05,critical
1200,3.4343434343434343,5.063291139240507,electrolyte-cathode interface,0.0214755622586574,0.0225656946352439,0.0201863719409937,-7.977641291748811e-05,critical
1200,3.5353535353535355,5.063291139240507,electrolyte-cathode interface,0.0213533048402882,0.022368279246817,0.0201676361619667,4.274028661408267e-05,critical
1200,3.636363636363636,5.063291139240507,electrolyte-cathode interface,0.0214223684020577,0.0225636313722092,0.0200612061024136,2.6308083635542837e-05,critical
1200,3.7373737373737375,5.063291139240507,electrolyte-cathode interface,0.0213389076530322,0.0222359693073662,0.0203112030269482,-4.069188084977645e-05,critical
1200,3.8383838383838382,5.063291139240507,electrolyte-cathode interface,0.0212643080582684,0.0222327952859308,0.0201405569559481,-6.443658708606584e-05,critical
1200,3.939393939393939,5.063291139240507,electrolyte-cathode interface,0.0213434013256294,0.022361379998939,0.0201531748626103,-6.274003208554813e-05,critical
1200,4.040404040404041,5.063291139240507,electrolyte-cathode interface,0.0212825695837499,0.0223497429003671,0.0200242851235872,2.822492839019144e-05,critical
1200,4.141414141414141,5.063291139240507,electrolyte-cathode interface,0.0212669383761261,0.022324856572347,0.0200209588161919,-5.683018791594974e-05,critical
1200,4.242424242424242,5.063291139240507,electrolyte-cathode interface,0.0211748786853011,0.0221717071734418,0.0200125790333085,1.4270013166857232e-05,critical
1200,4.343434343434343,5.063291139240507,electrolyte-cathode interface,0.0212237902037099,0.0221198085392892,0.0201966684660325,3.8136900720951935e-05,critical
1200,4.444444444444445,5.063291139240507,electrolyte-cathode interface,0.0212135856047368,0.0222964428139654,0.0199327262336079,-7.473133465143405e-06,critical
1200,4.545454545454545,5.063291139240507,electrolyte-cathode interface,0.021170008972217,0.0222391940353105,0.0199078126287414,-8.80817170793365e-06,critical
1200,4.646464646464646,5.063291139240507,electrolyte-cathode interface,0.0211717931871064,0.0221982337925881,0.0199687880286998,2.9286673718080348e-05,critical
1200,4.747474747474747,5.063291139240507,electrolyte-cathode interface,0.0212051489643854,0.0221915141040343,0.0200573609894756,-1.3213600818184282e-05,critical
1200,4.848484848484849,5.063291139240507,electrolyte-cathode interface,0.0212205800679974,0.0222964454426831,0.0199493567480997,-3.850857661951001e-05,critical
1200,4.94949494949495,5.063291139240507,electrolyte-cathode interface,0.0211719203776391,0.022231145148307,0.0199236055959798,-1.7376321892291916e-05,critical
1200,5.05050505050505,5.063291139240507,electrolyte-cathode interface,0.0210537616354372,0.022077638196613,0.0198527439920838,5.485044287320207e-05,critical
1200,5.151515151515151,5.063291139240507,electrolyte-cathode interface,0.0210685984980715,0.0221423886548015,0.0197981981279104,-6.114418374129503e-05,critical
1200,5.252525252525253,5.063291139240507,electrolyte-cathode interface,0.021263762143759,0.0223584270251936,0.0199666717152515,3.518788747689033e-05,critical
1200,5.353535353535354,5.063291139240507,electrolyte-cathode interface,0.0211027979282513,0.0220663932507466,0.0199846613355204,-4.113644430860303e-05,critical
1200,5.454545454545454,5.063291139240507,electrolyte-cathode interface,0.0212020959236195,0.0222144528572017,0.0200166725178605,0.0001143169983118,critical
1200,5.555555555555555,5.063291139240507,electrolyte-cathode interface,0.0212394340801479,0.0222463987175306,0.0200639360251846,-5.656329287690037e-06,critical
1200,5.656565656565657,5.063291139240507,electrolyte-cathode interface,0.0212864251936315,0.0222252252029867,0.0202033452460484,-5.821470885273925e-07,critical
1200,5.757575757575758,5.063291139240507,electrolyte-cathode interface,0.0212616693494968,0.022290216253083,0.0200567627248553,1.5170044827504056e-05,critical
1200,5.858585858585858,5.063291139240507,electrolyte-cathode interface,0.0211197586600008,0.0222108493053101,0.0198261169820803,-2.805354870627986e-05,critical
1200,5.959595959595959,5.063291139240507,electrolyte-cathode interface,0.0212384432561906,0.0222514379411411,0.0200530405557762,9.921932676423617e-05,critical
1200,6.0606060606060606,5.063291139240507,electrolyte-cathode interface,0.0212405647697053,0.0223184150928117,0.0199657575558072,8.665924969934009e-05,critical
1200,6.161616161616162,5.063291139240507,electrolyte-cathode interface,0.0213914879342048,0.0223861321646433,0.0202330698537024,-8.145117758795102e-05,critical
1200,6.262626262626262,5.063291139240507,electrolyte-cathode interface,0.0215441494085363,0.0225479219295364,0.0203757773404973,1.5544500536296498e-05,critical
1200,6.363636363636363,5.063291139240507,electrolyte-cathode interface,0.0213071499797031,0.0223089933174503,0.0201391667839683,-2.5533439468217647e-05,critical
1200,6.4646464646464645,5.063291139240507,electrolyte-cathode interface,0.021395454789794,0.0223598041718569,0.020278246005574,7.06909450213111e-05,critical
1200,6.565656565656566,5.063291139240507,electrolyte-cathode interface,0.0216001875796298,0.022560013443107,0.0204911455530368,-4.956473026094688e-05,critical
1200,6.666666666666667,5.063291139240507,electrolyte-cathode interface,0.0214141767860772,0.0224652815926145,0.0201791863752354,-5.666231237880729e-05,critical
1200,6.767676767676767,5.063291139240507,electrolyte-cathode interface,0.0215412660715618,0.0225629780143941,0.0203483115990354,3.1034364974603635e-05,critical
1200,6.8686868686868685,5.063291139240507,electrolyte-cathode interface,0.0216279858459227,0.0225828705372699,0.0205258581749448,-4.348969814401149e-05,critical
1200,6.96969696969697,5.063291139240507,electrolyte-cathode interface,0.0216725158166438,0.0226740592030934,0.0205080851326321,-4.0668207832640784e-05,critical
1200,7.070707070707071,5.063291139240507,electrolyte-cathode interface,0.0217448359558242,0.0228239869952704,0.0204749427339955,4.286204841237687e-06,critical
1200,7.171717171717171,5.063291139240507,electrolyte-cathode interface,0.0217866519934793,0.0228040680073446,0.0206018874680789,-2.4242220216359128e-05,critical
1200,7.272727272727272,5.063291139240507,electrolyte-cathode interface,0.0219041438812889,0.0230430465468515,0.0205520170453785,-4.165647869680177e-05,critical
1200,7.373737373737374,5.063291139240507,electrolyte-cathode interface,0.0219807767616117,0.022986661119319,0.0208115848957169,0.0001076121299653,critical
1200,7.474747474747475,5.063291139240507,electrolyte-cathode interface,0.0219771004241876,0.0230760319322924,0.0206814000616805,6.83935455625091e-05,critical
1200,7.575757575757575,5.063291139240507,electrolyte-cathode interface,0.022191718095811,0.0231346553667103,0.0211097471996754,4.231869622830256e-05,critical
1200,7.6767676767676765,5.063291139240507,electrolyte-cathode interface,0.0222111943691617,0.0233132054307926,0.0209143075785435,-3.106647598117861e-05,critical
1200,7.777777777777778,5.063291139240507,electrolyte-cathode interface,0.0223159244024771,0.023431392479836,0.0210009804267855,-6.154767282680356e-05,critical
1200,7.878787878787879,5.063291139240507,electrolyte-cathode interface,0.0225338566345114,0.0236363086246841,0.021239500290046,-4.697780372551944e-05,critical
1200,7.979797979797979,5.063291139240507,electrolyte-cathode interface,0.0224430078972196,0.0236572394994036,0.0209900317071718,5.291147034010081e-05,critical
1200,8.080808080808081,5.063291139240507,electrolyte-cathode interface,0.0226079357807628,0.0237676815787339,0.0212347848903301,2.301424698716207e-05,critical
1200,8.181818181818182,5.063291139240507,electrolyte-cathode interface,0.022682842073788,0.0237805031634342,0.0213968456367328,2.4124593034634276e-05,critical
1200,8.282828282828282,5.063291139240507,electrolyte-cathode interface,0.022866577844715,0.0240123175460391,0.0215158984635069,2.3719884187493547e-05,critical
1200,8.383838383838384,5.063291139240507,electrolyte-cathode interface,0.0230281931176873,0.0241678698617753,0.0216876287548546,2.764633321164435e-05,critical
1200,8.484848484848484,5.063291139240507,electrolyte-cathode interface,0.0232071391209797,0.0244265095477417,0.0217564692761583,-5.028793559881611e-05,critical
1200,8.585858585858587,5.063291139240507,electrolyte-cathode interface,0.0231880967343294,0.024342703162385,0.0218284941616143,2.6008992231372754e-05,critical
1200,8.686868686868687,5.063291139240507,electrolyte-cathode interface,0.023397172091223,0.0244916009398988,0.0221222112513631,4.197020229609805e-05,critical
1200,8.787878787878787,5.063291139240507,electrolyte-cathode interface,0.0235802925825106,0.0247695812467254,0.0221761631813155,-5.803836253558798e-05,critical
1200,8.88888888888889,5.063291139240507,electrolyte-cathode interface,0.0236659921030005,0.0247831764222364,0.0223616472332704,8.704430348977587e-05,critical
1200,8.98989898989899,5.063291139240507,electrolyte-cathode interface,0.0239647102903,0.0251143431042488,0.0226196866593376,-4.2649137048207145e-05,critical
1200,9.09090909090909,5.063291139240507,electrolyte-cathode interface,0.0242119426150879,0.0254562741657123,0.0227380290539157,3.562360683891631e-05,critical
1200,9.191919191919192,5.063291139240507,electrolyte-cathode interface,0.0243117749516563,0.0255694495811496,0.0228199486940311,5.513194859288912e-05,critical
1200,9.292929292929292,5.063291139240507,electrolyte-cathode interface,0.0245040364975265,0.0258062396330798,0.0229517355658308,2.326080580135391e-05,critical
1200,9.393939393939394,5.063291139240507,electrolyte-cathode interface,0.0246720391128794,0.0258405380939477,0.0233082146529074,-3.80074757778121e-06,critical
1200,9.494949494949497,5.063291139240507,electrolyte-cathode interface,0.0248922950924186,0.0260887911499251,0.0234911803123998,8.617012124545597e-05,critical
1200,9.595959595959595,5.063291139240507,electrolyte-cathode interface,0.0253745815827302,0.0266446067362888,0.0238776846199207,2.592315352403647e-05,critical
1200,9.696969696969695,5.063291139240507,electrolyte-cathode interface,0.0254169525325878,0.0267198647301704,0.0238745380687898,1.9702288263272345e-05,critical
1200,9.797979797979798,5.063291139240507,electrolyte-cathode interface,0.0256237396833795,0.0268715816688479,0.0241601778051861,-2.6667231896336857e-05,critical
1200,9.8989898989899,5.063291139240507,electrolyte-cathode interface,0.0260838647111695,0.0274393652232474,0.0244749107200787,3.64861371987473e-05,critical
1200,10.0,5.063291139240507,electrolyte-cathode interface,0.0263225745571654,0.0275828206165504,0.0248486871326097,-4.307231891949615e-05,critical
1200,0.0,5.1645569620253164,electrolyte-cathode interface,0.0262224377540792,0.0274254652326763,0.024825420832011,-4.9311818231377546e-05,critical
1200,0.101010101010101,5.1645569620253164,electrolyte-cathode interface,0.0260333674966285,0.0273127618820286,0.0245304600301257,-1.1632712045846555e-05,critical
1200,0.202020202020202,5.1645569620253164,electrolyte-cathode interface,0.0256968588766678,0.0268944294329944,0.0243028484793736,-1.8446670338702813e-05,critical
1200,0.303030303030303,5.1645569620253164,electrolyte-cathode interface,0.0254690406258185,0.026768493650925,0.0239320678529268,2.091823339307961e-05,critical
1200,0.404040404040404,5.1645569620253164,electrolyte-cathode interface,0.0252121252617498,0.026504230927456,0.0236822423625062,5.170524669981721e-05,critical
1200,0.5050505050505051,5.1645569620253164,electrolyte-cathode interface,0.0248053745821626,0.025961792406039,0.0234592280713995,7.543579905707834e-06,critical
1200,0.6060606060606061,5.1645569620253164,electrolyte-cathode interface,0.024656109114153,0.0259494747305697,0.0231176819575293,6.573318117525224e-05,critical
1200,0.7070707070707071,5.1645569620253164,electrolyte-cathode interface,0.0245202077682382,0.0256896229927832,0.0231534103257107,-4.40909674417906e-05,critical
1200,0.8080808080808081,5.1645569620253164,electrolyte-cathode interface,0.0242299764655355,0.0253697492368398,0.0229010605049632,3.252279662659898e-05,critical
1200,0.9090909090909092,5.1645569620253164,electrolyte-cathode interface,0.0241409010645353,0.0252954384415048,0.0227903604075214,-7.194790515840815e-05,critical
1200,1.0101010101010102,5.1645569620253164,electrolyte-cathode interface,0.0238729807632875,0.0249921569878477,0.0225689665546106,8.235335447757738e-06,critical
1200,1.1111111111111112,5.1645569620253164,electrolyte-cathode interface,0.0237576525632417,0.0249193686746167,0.0223936119300724,6.307810324432781e-05,critical
1200,1.2121212121212122,5.1645569620253164,electrolyte-cathode interface,0.023533978845058,0.0245551858093391,0.0223577884686022,8.155790199423983e-05,critical
1200,1.3131313131313131,5.1645569620253164,electrolyte-cathode interface,0.0234530699881287,0.0246259731000319,0.0220709065184913,1.3861388473167412e-05,critical
1200,1.414141414141414,5.1645569620253164,electrolyte-cathode interface,0.0231474461967895,0.0242170736361685,0.0219040846809003,2.2478699837449128e-05,critical
1200,1.5151515151515151,5.1645569620253164,electrolyte-cathode interface,0.0230687511117,0.0241642494269446,0.0217882718260583,-9.087226695563865e-05,critical
1200,1.616161616161616,5.1645569620253164,electrolyte-cathode interface,0.0228408305877543,0.0239497468600899,0.0215409210885227,2.230947058716709e-05,critical
1200,1.7171717171717171,5.1645569620253164,electrolyte-cathode interface,0.0227979529461529,0.0238422273181044,0.0215849813657785,7.630392250405789e-05,critical
1200,1.818181818181818,5.1645569620253164,electrolyte-cathode interface,0.0226587604979761,0.0236262762939923,0.0215476143491278,-5.385701664814195e-05,critical
1200,1.9191919191919191,5.1645569620253164,electrolyte-cathode interface,0.0225851893855778,0.023699581471811,0.0212751172927409,-2.1427592581553448e-05,critical
1200,2.0202020202020203,5.1645569620253164,electrolyte-cathode interface,0.0224073520039641,0.0234477812220346,0.0211970252812339,1.016812327679318e-05,critical
1200,2.121212121212121,5.1645569620253164,electrolyte-cathode interface,0.022409703039595,0.0234979514775454,0.0211337776533974,-4.078649810231291e-05,critical
1200,2.2222222222222223,5.1645569620253164,electrolyte-cathode interface,0.0222144273719902,0.0233061388648517,0.0209316708807898,4.56692348380157e-05,critical
1200,2.323232323232323,5.1645569620253164,electrolyte-cathode interface,0.0222056888225537,0.0231568324179414,0.0211132510884743,-1.116811268425764e-05,critical
1200,2.4242424242424243,5.1645569620253164,electrolyte-cathode interface,0.0221269173742971,0.0231198528594713,0.0209782106830884,1.5242805052927536e-05,critical
1200,2.525252525252525,5.1645569620253164,electrolyte-cathode interface,0.0220876843401699,0.023128185068588,0.0208743568057089,-4.840187969113682e-06,critical
1200,2.6262626262626263,5.1645569620253164,electrolyte-cathode interface,0.0217295970159073,0.0226409676613771,0.0206860830763443,-1.7075917319020594e-05,critical
1200,2.727272727272727,5.1645569620253164,electrolyte-cathode interface,0.0219283815090918,0.0229760160876578,0.0207037747388156,-1.3824936703860622e-05,critical
1200,2.8282828282828283,5.1645569620253164,electrolyte-cathode interface,0.0218201490794261,0.0228190596713476,0.0206605250535888,-4.427231302546285e-05,critical
1200,2.929292929292929,5.1645569620253164,electrolyte-cathode interface,0.0216851618900487,0.0226653710751262,0.0205498610574809,1.457340926487188e-05,critical
1200,3.0303030303030303,5.1645569620253164,electrolyte-cathode interface,0.0218406665827156,0.0228346378699957,0.0206876990784695,5.553912283198552e-05,critical
1200,3.131313131313131,5.1645569620253164,electrolyte-cathode interface,0.0216433298689978,0.0227001245071609,0.0204018720753754,9.438800745444049e-05,critical
1200,3.2323232323232323,5.1645569620253164,electrolyte-cathode interface,0.0216215738050206,0.0225504035899915,0.0205539785998579,-4.556408629485165e-05,critical
1200,3.333333333333333,5.1645569620253164,electrolyte-cathode interface,0.021343354107045,0.022359501376426,0.0201560424443512,3.861992405572339e-05,critical
1200,3.4343434343434343,5.1645569620253164,electrolyte-cathode interface,0.0215033175462255,0.0225119190098372,0.0203276045253076,5.179764717616996e-05,critical
1200,3.5353535353535355,5.1645569620253164,electrolyte-cathode interface,0.0215095939043197,0.0225172932042506,0.0203355255163685,-2.25770552286101e-05,critical
1200,3.636363636363636,5.1645569620253164,electrolyte-cathode interface,0.0212953873915838,0.0222409913516164,0.020202387219677,7.415730133000399e-05,critical
1200,3.7373737373737375,5.1645569620253164,electrolyte-cathode interface,0.0212540827113515,0.0223258644822392,0.019989156649375,-1.4444567660786776e-05,critical
1200,3.8383838383838382,5.1645569620253164,electrolyte-cathode interface,0.0213585322815778,0.0224169579260021,0.020113262440437,2.4017015330783478e-05,critical
1200,3.939393939393939,5.1645569620253164,electrolyte-cathode interface,0.0213735244280524,0.0224692835773059,0.0200757559845554,5.977149132005388e-05,critical
1200,4.040404040404041,5.1645569620253164,electrolyte-cathode interface,0.0212759084040756,0.0222607992402598,0.0201306460421155,-2.8610317420965928e-05,critical
1200,4.141414141414141,5.1645569620253164,electrolyte-cathode interface,0.0213059547897365,0.0222993417889318,0.0201494146058372,3.0765062575708484e-05,critical
1200,4.242424242424242,5.1645569620253164,electrolyte-cathode interface,0.0211975836492059,0.0222477061351133,0.0199605259282132,-0.0001007374691151,critical
1200,4.343434343434343,5.1645569620253164,electrolyte-cathode interface,0.021149119562677,0.0221634419882445,0.0199625426813782,2.9686477638974877e-05,critical
1200,4.444444444444445,5.1645569620253164,electrolyte-cathode interface,0.0212114213989153,0.0221773839876109,0.020089619486531,-0.0001007168185316,critical
1200,4.545454545454545,5.1645569620253164,electrolyte-cathode interface,0.0211833007175007,0.0222470143903195,0.0199286477099129,3.8699014662534286e-05,critical
1200,4.646464646464646,5.1645569620253164,electrolyte-cathode interface,0.0210887576276784,0.0221478663520572,0.0198395080093114,3.833257815290741e-05,critical
1200,4.747474747474747,5.1645569620253164,electrolyte-cathode interface,0.021159991216518,0.0222224660248558,0.0199069988605045,2.0283486926858147e-05,critical
1200,4.848484848484849,5.1645569620253164,electrolyte-cathode interface,0.0211312114877857,0.0221684363033367,0.0199118785563701,8.333590555889202e-05,critical
1200,4.94949494949495,5.1645569620253164,electrolyte-cathode interface,0.021067324796626,0.0221502752026063,0.0197846547942653,-1.245911489956074e-05,critical
1200,5.05050505050505,5.1645569620253164,electrolyte-cathode interface,0.0211130738115574,0.0221450636756047,0.0199016990790624,4.0032073356368674e-05,critical
1200,5.151515151515151,5.1645569620253164,electrolyte-cathode interface,0.021084550946316,0.0219656276042615,0.0200762552527423,1.8386183866197044e-05,critical
1200,5.252525252525253,5.1645569620253164,electrolyte-cathode interface,0.0212456087332614,0.0223230381501036,0.0199715206068813,-8.414128546203482e-05,critical
1200,5.353535353535354,5.1645569620253164,electrolyte-cathode interface,0.0212467092539856,0.0222840327243811,0.0200281367339509,-9.29749357177978e-05,critical
1200,5.454545454545454,5.1645569620253164,electrolyte-cathode interface,0.0211167230743135,0.0220137359280275,0.0200877528419295,-5.659787737748704e-06,critical
1200,5.555555555555555,5.1645569620253164,electrolyte-cathode interface,0.0212112974768922,0.0222750771713012,0.0199565472112605,-5.753339338347061e-05,critical
1200,5.656565656565657,5.1645569620253164,electrolyte-cathode interface,0.0212033267536399,0.0222720417719398,0.0199420877451206,2.135708715762196e-05,critical
1200,5.757575757575758,5.1645569620253164,electrolyte-cathode interface,0.0212473108915024,0.022254251358516,0.0200718052713475,-2.67673246569148e-05,critical
1200,5.858585858585858,5.1645569620253164,electrolyte-cathode interface,0.0212067448845762,0.0223312658245421,0.0198667244627745,-3.140824989563082e-05,critical
1200,5.959595959595959,5.1645569620253164,electrolyte-cathode interface,0.021274523122366,0.0223807892608241,0.0199613948143625,5.594764209849545e-06,critical
1200,6.0606060606060606,5.1645569620253164,electrolyte-cathode interface,0.0212172362651088,0.0221767901062485,0.0201057437585852,-1.8461591828443957e-05,critical
1200,6.161616161616162,5.1645569620253164,electrolyte-cathode interface,0.0214095892332661,0.0224269272433333,0.0202213999064771,2.766371062957776e-05,critical
1200,6.262626262626262,5.1645569620253164,electrolyte-cathode interface,0.0214496695670604,0.022482535044726,0.0202406068398085,-2.5363080487486705e-05,critical
1200,6.363636363636363,5.1645569620253164,electrolyte-cathode interface,0.0214429094607229,0.0225303035038636,0.0201560834173052,-0.00011367831846,critical
1200,6.4646464646464645,5.1645569620253164,electrolyte-cathode interface,0.0213707914537204,0.0224379222965004,0.0201127801845629,7.17462423900791e-05,critical
1200,6.565656565656566,5.1645569620253164,electrolyte-cathode interface,0.0215134965556727,0.0224944905116132,0.0203747114987989,7.813770149295318e-05,critical
1200,6.666666666666667,5.1645569620253164,electrolyte-cathode interface,0.0214598815097921,0.0225573823959744,0.0201610432297089,3.517281253003177e-05,critical
1200,6.767676767676767,5.1645569620253164,electrolyte-cathode interface,0.0215092035620902,0.0225919476006305,0.0202308106616975,-7.627984376053561e-05,critical
1200,6.8686868686868685,5.1645569620253164,electrolyte-cathode interface,0.0217902991188366,0.0228681782584437,0.0205225910819595,-1.902015150562141e-05,critical
1200,6.96969696969697,5.1645569620253164,electrolyte-cathode interface,0.0217856753335474,0.0228564101026612,0.0205274950549747,4.8163203604555775e-05,critical
1200,7.070707070707071,5.1645569620253164,electrolyte-cathode interface,0.0216774979250796,0.0226937027537093,0.0204931598316401,4.4156677353413344e-05,critical
1200,7.171717171717171,5.1645569620253164,electrolyte-cathode interface,0.0217268185374848,0.0228018740915708,0.0204622140945022,-3.5615732984891286e-05,critical
1200,7.272727272727272,5.1645569620253164,electrolyte-cathode interface,0.0218283187782812,0.0228603177990379,0.0206241559951556,1.0339034942281438e-05,critical
1200,7.373737373737374,5.1645569620253164,electrolyte-cathode interface,0.0219355076390102,0.0228657966367609,0.0208685929576128,-1.4946359157723084e-05,critical
1200,7.474747474747475,5.1645569620253164,electrolyte-cathode interface,0.0219606944766333,0.0230144463063584,0.0207277211433427,4.458930452588588e-05,critical
1200,7.575757575757575,5.1645569620253164,electrolyte-cathode interface,0.0221269840390897,0.0231030168163919,0.0210008014750852,-2.7347689127924363e-05,critical
1200,7.6767676767676765,5.1645569620253164,electrolyte-cathode interface,0.0222225835941179,0.0233135472993731,0.0209412789897624,-4.705584613445519e-06,critical
1200,7.777777777777778,5.1645569620253164,electrolyte-cathode interface,0.0222807090172111,0.023452994316969,0.0208860518452493,-1.0730423439163137e-05,critical
1200,7.878787878787879,5.1645569620253164,electrolyte-cathode interface,0.0223924022829946,0.0233943768364959,0.0212336529693945,-3.094722499536535e-05,critical
1200,7.979797979797979,5.1645569620253164,electrolyte-cathode interface,0.022514777045823,0.0236293973027683,0.0212034618596515,4.0817370277175606e-05,critical
1200,8.080808080808081,5.1645569620253164,electrolyte-cathode interface,0.022575861395787,0.0237033079285287,0.0212472930123337,4.611425733660892e-05,critical
1200,8.181818181818182,5.1645569620253164,electrolyte-cathode interface,0.0227737559999223,0.0238921487096691,0.0214600229918936,-2.9811640299866015e-05,critical
1200,8.282828282828282,5.1645569620253164,electrolyte-cathode interface,0.0228527442936942,0.0239990045863963,0.021500205038057,-8.246868779916895e-05,critical
1200,8.383838383838384,5.1645569620253164,electrolyte-cathode interface,0.0230634983115828,0.0242563155517201,0.0216489584383609,2.9866396057310546e-05,critical
1200,8.484848484848484,5.1645569620253164,electrolyte-cathode interface,0.023070543642562,0.0242631577432113,0.0216561250151674,4.962179814963936e-05,critical
1200,8.585858585858587,5.1645569620253164,electrolyte-cathode interface,0.023208802921512,0.0243513724178296,0.0218662059884354,-1.0885440272063308e-05,critical
1200,8.686868686868687,5.1645569620253164,electrolyte-cathode interface,0.0235167266196428,0.0247331791207947,0.0220742528585262,5.541575905169621e-06,critical
1200,8.787878787878787,5.1645569620253164,electrolyte-cathode interface,0.0235791705319486,0.024724871579437,0.0222359831353559,-1.7222305617920208e-05,critical
1200,8.88888888888889,5.1645569620253164,electrolyte-cathode interface,0.0236780163708738,0.0247787090609908,0.0223972669475411,2.470671425347728e-05,critical
1200,8.98989898989899,5.1645569620253164,electrolyte-cathode interface,0.0240304734764008,0.0250796110250394,0.0228219850366346,9.536918008717335e-06,critical
1200,9.09090909090909,5.1645569620253164,electrolyte-cathode interface,0.0240721666662728,0.0251994251836047,0.0227589697198978,-1.1978118753829129e-05,critical
1200,9.191919191919192,5.1645569620253164,electrolyte-cathode interface,0.0242515836187503,0.0255491963322318,0.0227027473096481,-5.406287170591501e-06,critical
1200,9.292929292929292,5.1645569620253164,electrolyte-cathode interface,0.0244719170732107,0.0255383164756817,0.0232438949357325,1.1691006366229736e-05,critical
1200,9.393939393939394,5.1645569620253164,electrolyte-cathode interface,0.0247234650472369,0.0260023334136207,0.0232069844851288,-2.60052925101135e-07,critical
1200,9.494949494949497,5.1645569620253164,electrolyte-cathode interface,0.0249167369661778,0.0261422391328202,0.0234768982981365,-1.8707127637766617e-05,critical
1200,9.595959595959595,5.1645569620253164,electrolyte-cathode interface,0.0251315837062042,0.0263349925550509,0.0237241852620602,-3.62519416120592e-05,critical
1200,9.696969696969695,5.1645569620253164,electrolyte-cathode interface,0.0254233418870256,0.0267781858326948,0.0238056156677722,0.0001139284949557,critical
1200,9.797979797979798,5.1645569620253164,electrolyte-cathode interface,0.0256350587138958,0.0268541591450605,0.024211083561981,-2.643028075125505e-05,critical
1200,9.8989898989899,5.1645569620253164,electrolyte-cathode interface,0.0259095091301675,0.027230202517379,0.0243471726263935,6.41889700762081e-05,critical
1200,10.0,5.1645569620253164,electrolyte-cathode interface,0.0262788958984296,0.0274976609563823,0.0248613848555117,1.2731816817210595e-05,critical
1200,0.0,5.265822784810126,electrolyte-cathode interface,0.0262862968841108,0.0274930144216199,0.0248851677456347,9.37868148174911e-06,critical
1200,0.101010101010101,5.265822784810126,electrolyte-cathode interface,0.025977905837011,0.0271619934054027,0.0246045966665677,-2.1765392273852774e-05,critical
1200,0.202020202020202,5.265822784810126,electrolyte-cathode interface,0.0257471819339841,0.0269741793103078,0.0243131196490614,-5.683313063465254e-05,critical
1200,0.303030303030303,5.265822784810126,electrolyte-cathode interface,0.0254509321218494,0.0267069385550752,0.023973453117614,8.259109935644279e-05,critical
1200,0.404040404040404,5.265822784810126,electrolyte-cathode interface,0.0252323607658288,0.0263747372533783,0.023908932924477,-2.231351259516885e-06,critical
1200,0.5050505050505051,5.265822784810126,electrolyte-cathode interface,0.0248688365567086,0.0260622829495542,0.0234695607196109,0.0001488746076423,critical
1200,0.6060606060606061,5.265822784810126,electrolyte-cathode interface,0.0246801726817385,0.0258529106643382,0.0233105230624999,-2.7800531433124484e-05,critical
1200,0.7070707070707071,5.265822784810126,electrolyte-cathode interface,0.0245340636477792,0.0257251925502072,0.0231377844809852,2.3363775854047495e-05,critical
1200,0.8080808080808081,5.265822784810126,electrolyte-cathode interface,0.0242492216918337,0.0253421548035427,0.0229836188609489,5.044385459454813e-05,critical
1200,0.9090909090909092,5.265822784810126,electrolyte-cathode interface,0.0240806710513634,0.0252104756685643,0.0227636051715153,5.839163567500972e-05,critical
1200,1.0101010101010102,5.265822784810126,electrolyte-cathode interface,0.0238905346178821,0.0249167195102745,0.0227110281018353,-5.244913590316845e-05,critical
1200,1.1111111111111112,5.265822784810126,electrolyte-cathode interface,0.0237761766362779,0.0248696063670355,0.0225062150138711,-9.102095664692192e-06,critical
1200,1.2121212121212122,5.265822784810126,electrolyte-cathode interface,0.0234471784361345,0.0245994003237566,0.0220931746649787,5.81995324300376e-05,critical
1200,1.3131313131313131,5.265822784810126,electrolyte-cathode interface,0.0233398521049155,0.024468270945636,0.0220181228656041,-4.989166253502787e-06,critical
1200,1.414141414141414,5.265822784810126,electrolyte-cathode interface,0.0231955916365756,0.0243761437639582,0.0217988920009392,8.229907027063944e-05,critical
1200,1.5151515151515151,5.265822784810126,electrolyte-cathode interface,0.0232526726895428,0.0244188730501521,0.0218764156521663,-9.17986634390942e-05,critical
1200,1.616161616161616,5.265822784810126,electrolyte-cathode interface,0.0229197116102744,0.0240773061682529,0.0215531426814663,-7.388288434893599e-06,critical
1200,1.7171717171717171,5.265822784810126,electrolyte-cathode interface,0.0227299275099877,0.0237984533506676,0.0214840555525489,-4.42477527484416e-05,critical
1200,1.818181818181818,5.265822784810126,electrolyte-cathode interface,0.0227400148599357,0.0237766335031677,0.0215376883840853,2.3645788966113088e-05,critical
1200,1.9191919191919191,5.265822784810126,electrolyte-cathode interface,0.0226104099760114,0.0237028777267708,0.0213304002736391,5.8081748571782105e-05,critical
1200,2.0202020202020203,5.265822784810126,electrolyte-cathode interface,0.0225058498533326,0.0236487891334833,0.021155133267692,2.361006404662709e-05,critical
1200,2.121212121212121,5.265822784810126,electrolyte-cathode interface,0.0224627676950994,0.0234639464958647,0.021305685264905,2.817723357284777e-05,critical
1200,2.2222222222222223,5.265822784810126,electrolyte-cathode interface,0.0223364767620709,0.0234827789238784,0.0209790249799441,3.466356500284227e-05,critical
1200,2.323232323232323,5.265822784810126,electrolyte-cathode interface,0.0221201439614345,0.0230687754435289,0.0210302778347779,-2.9094605387699104e-05,critical
1200,2.4242424242424243,5.265822784810126,electrolyte-cathode interface,0.0221472767543161,0.0232793967542316,0.0208075605732011,3.845107351685801e-05,critical
1200,2.525252525252525,5.265822784810126,electrolyte-cathode interface,0.0221128251277788,0.0232321138801946,0.0207908771636885,2.138916983665049e-05,critical
1200,2.6262626262626263,5.265822784810126,electrolyte-cathode interface,0.0219597659433041,0.022976977569693,0.0207769300159663,-4.324430767625158e-06,critical
1200,2.727272727272727,5.265822784810126,electrolyte-cathode interface,0.0218741283291593,0.0227959652813003,0.0208171499310289,-7.012580766464696e-05,critical
1200,2.8282828282828283,5.265822784810126,electrolyte-cathode interface,0.0217622481815022,0.0228382023744606,0.0204969176880886,1.8953605020092544e-05,critical
1200,2.929292929292929,5.265822784810126,electrolyte-cathode interface,0.0217055575589719,0.0227563624288418,0.0204737559054444,6.513253475369792e-05,critical
1200,3.0303030303030303,5.265822784810126,electrolyte-cathode interface,0.0216535917376758,0.0226282745143771,0.0205248411951282,-6.288212798152512e-05,critical
1200,3.131313131313131,5.265822784810126,electrolyte-cathode interface,0.0218365362461987,0.0229002590774924,0.0205889042314222,-1.541628846716534e-05,critical
1200,3.2323232323232323,5.265822784810126,electrolyte-cathode interface,0.0215662740601909,0.0226776549792762,0.0202488426231283,5.410064977667655e-05,critical
1200,3.333333333333333,5.265822784810126,electrolyte-cathode interface,0.0215698387955707,0.0227485576568119,0.0201562607992901,-6.346056781957599e-05,critical
1200,3.4343434343434343,5.265822784810126,electrolyte-cathode interface,0.02157847266787,0.022828190410195,0.020061012733591,-7.436818395347495e-05,critical
1200,3.5353535353535355,5.265822784810126,electrolyte-cathode interface,0.0214633591912402,0.0224376050658067,0.0203336566497263,5.952978076828125e-05,critical
1200,3.636363636363636,5.265822784810126,electrolyte-cathode interface,0.0214739745264855,0.022405025633168,0.0204020630171817,-6.049202054080661e-05,critical
1200,3.7373737373737375,5.265822784810126,electrolyte-cathode interface,0.0212542012520021,0.022283682517811,0.0200479705571911,4.157999542633464e-06,critical
1200,3.8383838383838382,5.265822784810126,electrolyte-cathode interface,0.0212905695705381,0.0222962111624973,0.0201173518990088,-8.144062555744051e-06,critical
1200,3.939393939393939,5.265822784810126,electrolyte-cathode interface,0.0214192630778589,0.0225519477168515,0.0200702602724646,2.942730408373812e-05,critical
1200,4.040404040404041,5.265822784810126,electrolyte-cathode interface,0.0211978159299363,0.0222186673026823,0.0200025092329422,4.811702336282645e-05,critical
1200,4.141414141414141,5.265822784810126,electrolyte-cathode interface,0.0212980524989882,0.0222204707513206,0.0202368441961268,-4.52327760655021e-06,critical
1200,4.242424242424242,5.265822784810126,electrolyte-cathode interface,0.0212723401989425,0.0222839934956653,0.0200905164958022,-3.73152051475969e-05,critical
1200,4.343434343434343,5.265822784810126,electrolyte-cathode interface,0.0211919740924521,0.0222484403486445,0.0199475341352263,-3.684753308474505e-05,critical
1200,4.444444444444445,5.265822784810126,electrolyte-cathode interface,0.0212955667247884,0.0223170820296677,0.0201006861253205,-5.48372524860287e-06,critical
1200,4.545454545454545,5.265822784810126,electrolyte-cathode interface,0.021205740656284,0.0222668731757546,0.0199551805342737,3.640372663264476e-06,critical
1200,4.646464646464646,5.265822784810126,electrolyte-cathode interface,0.0211882426127672,0.0222426012440412,0.0199468525960313,2.0613874386642427e-05,critical
1200,4.747474747474747,5.265822784810126,electrolyte-cathode interface,0.0210952207858492,0.0221656129153637,0.0198277521650507,0.0001271057874303,critical
1200,4.848484848484849,5.265822784810126,electrolyte-cathode interface,0.0212271815826259,0.0222810034422097,0.0199866413566576,4.731348029556067e-05,critical
1200,4.94949494949495,5.265822784810126,electrolyte-cathode interface,0.0210187785675834,0.0220421727054484,0.0198179080211944,-6.310790659478589e-05,critical
1200,5.05050505050505,5.265822784810126,electrolyte-cathode interface,0.0210842971978487,0.0221522391225439,0.0198229083294689,-5.671499876669224e-07,critical
1200,5.151515151515151,5.265822784810126,electrolyte-cathode interface,0.0211968529877798,0.0222185007471546,0.0200007850566407,1.6891585182467954e-05,critical
1200,5.252525252525253,5.265822784810126,electrolyte-cathode interface,0.0212443586814429,0.0222559341727268,0.0200624668246607,-2.907339335288032e-05,critical
1200,5.353535353535354,5.265822784810126,electrolyte-cathode interface,0.0211995100924583,0.022217581577463,0.0200082706571854,3.0484246259688875e-05,critical
1200,5.454545454545454,5.265822784810126,electrolyte-cathode interface,0.0211749731561887,0.0222434191099197,0.0199122447828613,9.782347652457276e-05,critical
1200,5.555555555555555,5.265822784810126,electrolyte-cathode interface,0.0211249836407577,0.0221878911605883,0.0198710760439416,-3.110777310640798e-06,critical
1200,5.656565656565657,5.265822784810126,electrolyte-cathode interface,0.0211632293786246,0.0222035581580215,0.0199409369488591,3.198815768422605e-05,critical
1200,5.757575757575758,5.265822784810126,electrolyte-cathode interface,0.0212395185243842,0.0223550957035226,0.0199126693662501,2.627634889967032e-05,critical
1200,5.858585858585858,5.265822784810126,electrolyte-cathode interface,0.0212532955684542,0.0223959575299514,0.0198880673753712,-1.5781856775313382e-05,critical
1200,5.959595959595959,5.265822784810126,electrolyte-cathode interface,0.0213428337295964,0.0223139299390046,0.0202169285340731,1.80976461038854e-06,critical
1200,6.0606060606060606,5.265822784810126,electrolyte-cathode interface,0.0213010531508205,0.0224452812957612,0.0199341139173952,-2.6517127981480777e-05,critical
1200,6.161616161616162,5.265822784810126,electrolyte-cathode interface,0.0213286716845644,0.0224578715630799,0.0199836078139843,-1.786126562800714e-05,critical
1200,6.262626262626262,5.265822784810126,electrolyte-cathode interface,0.0212685037761132,0.0223190524270761,0.020032956979326,-4.6200243076367016e-05,critical
1200,6.363636363636363,5.265822784810126,electrolyte-cathode interface,0.0214976580186464,0.0225168307428219,0.0203078795189925,1.5799816885834915e-05,critical
1200,6.4646464646464645,5.265822784810126,electrolyte-cathode interface,0.0214228196366256,0.0224943745150992,0.0201599073817056,-3.139826268271151e-05,critical
1200,6.565656565656566,5.265822784810126,electrolyte-cathode interface,0.021497808119167,0.0226461407504484,0.0201269335554715,-6.318983348680862e-05,critical
1200,6.666666666666667,5.265822784810126,electrolyte-cathode interface,0.0215158351648617,0.0225873897764548,0.0202539740796248,-2.5344089321078708e-05,critical
1200,6.767676767676767,5.265822784810126,electrolyte-cathode interface,0.0215299169253935,0.0225625288645966,0.0203220833258143,6.707574645161968e-06,critical
1200,6.8686868686868685,5.265822784810126,electrolyte-cathode interface,0.0215618656522315,0.0226318306813757,0.0203023295999686,-5.350754660761182e-05,critical
1200,6.96969696969697,5.265822784810126,electrolyte-cathode interface,0.0215879719212194,0.0226649447310995,0.0203176297868441,-0.0001043839675884,critical
1200,7.070707070707071,5.265822784810126,electrolyte-cathode interface,0.0216078234118867,0.0225698343939675,0.0204961712404518,3.0348627823801005e-05,critical
1200,7.171717171717171,5.265822784810126,electrolyte-cathode interface,0.0217387881638446,0.0228432153562225,0.0204327700941739,6.951471254512528e-05,critical
1200,7.272727272727272,5.265822784810126,electrolyte-cathode interface,0.0219578738630076,0.0229633108610949,0.0207906084555389,4.612983414148778e-05,critical
1200,7.373737373737374,5.265822784810126,electrolyte-cathode interface,0.0219768999520873,0.0230309845411502,0.0207439369970146,-9.178490754789624e-06,critical
1200,7.474747474747475,5.265822784810126,electrolyte-cathode interface,0.0219451776658794,0.0229033805634119,0.0208414263625069,4.008140163751451e-06,critical
1200,7.575757575757575,5.265822784810126,electrolyte-cathode interface,0.0220938254964443,0.0232846701401702,0.0206703107628759,1.714939562053897e-05,critical
1200,7.6767676767676765,5.265822784810126,electrolyte-cathode interface,0.0222395300691117,0.0233160720283848,0.0209780477625578,-3.944439389889532e-05,critical
1200,7.777777777777778,5.265822784810126,electrolyte-cathode interface,0.0224026990826779,0.023381589557246,0.0212749896076753,-5.416030107595061e-06,critical
1200,7.878787878787879,5.265822784810126,electrolyte-cathode interface,0.0222657630339328,0.0233494993734875,0.0209948338898343,1.7254817513020795e-05,critical
1200,7.979797979797979,5.265822784810126,electrolyte-cathode interface,0.0224758303972696,0.0235673916650212,0.0211946788450278,9.981376918824252e-05,critical
1200,8.080808080808081,5.265822784810126,electrolyte-cathode interface,0.0224897728225391,0.0236792152012362,0.021073261667177,-1.4021159000203264e-05,critical
1200,8.181818181818182,5.265822784810126,electrolyte-cathode interface,0.022702106919671,0.0238123117034814,0.0213990857909089,-9.971031412511632e-06,critical
1200,8.282828282828282,5.265822784810126,electrolyte-cathode interface,0.0227646459309905,0.023764260685137,0.021611726384112,-5.477468510391526e-05,critical
1200,8.383838383838384,5.265822784810126,electrolyte-cathode interface,0.0229415788015643,0.0240740144992054,0.0216102529599816,1.1163872275397254e-05,critical
1200,8.484848484848484,5.265822784810126,electrolyte-cathode interface,0.0231159806384654,0.0242078822078491,0.0218415884396185,-5.948249529057504e-05,critical
1200,8.585858585858587,5.265822784810126,electrolyte-cathode interface,0.0231873109179984,0.0242651539123113,0.0219332187294715,1.3387157348402282e-05,critical
1200,8.686868686868687,5.265822784810126,electrolyte-cathode interface,0.0233623542507795,0.0244966694050665,0.0220325969946485,-2.99921221188201e-05,critical
1200,8.787878787878787,5.265822784810126,electrolyte-cathode interface,0.0234912438845002,0.0245284274570691,0.0222943718610033,2.3465870349672524e-05,critical
1200,8.88888888888889,5.265822784810126,electrolyte-cathode interface,0.02375527078299,0.0249268268818749,0.0223781601199235,1.488248964612441e-05,critical
1200,8.98989898989899,5.265822784810126,electrolyte-cathode interface,0.0238036539516748,0.0249539819227847,0.0224561594142365,3.754148303196736e-05,critical
1200,9.09090909090909,5.265822784810126,electrolyte-cathode interface,0.0241412811554615,0.0253146996308568,0.0227654915492639,2.1706107883175116e-05,critical
1200,9.191919191919192,5.265822784810126,electrolyte-cathode interface,0.0242170907216931,0.0253985588700742,0.022830886900841,-3.119120662845959e-05,critical
1200,9.292929292929292,5.265822784810126,electrolyte-cathode interface,0.0244088676453001,0.0256576143202218,0.0229311801248771,5.008661870262808e-07,critical
1200,9.393939393939394,5.265822784810126,electrolyte-cathode interface,0.0245773177778765,0.0257117365042874,0.0232589660936359,4.431163737291469e-06,critical
1200,9.494949494949497,5.265822784810126,electrolyte-cathode interface,0.0248265519953334,0.0260233972068537,0.0234252097500731,3.448640508607795e-05,critical
1200,9.595959595959595,5.265822784810126,electrolyte-cathode interface,0.0250770090510633,0.0262202595347724,0.0237510371689171,1.7935681721111606e-05,critical
1200,9.696969696969695,5.265822784810126,electrolyte-cathode interface,0.0254399041964894,0.0266905199170666,0.0239701199285298,-6.629746609062931e-05,critical
1200,9.797979797979798,5.265822784810126,electrolyte-cathode interface,0.0255851630932654,0.0266979449774404,0.0243040141206474,2.8482965111850856e-05,critical
1200,9.8989898989899,5.265822784810126,electrolyte-cathode interface,0.025860629293185,0.0270615931357048,0.0244634752971931,-2.094404242162022e-05,critical
1200,10.0,5.265822784810126,electrolyte-cathode interface,0.0262063412057924,0.0274444822273121,0.0247608534206071,-8.495918099261136e-05,critical
1200,0.0,5.367088607594937,electrolyte-cathode interface,0.0262583675842496,0.0274743777924228,0.0248444256346175,5.288855996929613e-06,critical
1200,0.101010101010101,5.367088607594937,electrolyte-cathode interface,0.0260847891085142,0.0273273174663975,0.0246329531566887,-3.6935775316099656e-05,critical
1200,0.202020202020202,5.367088607594937,electrolyte-cathode interface,0.0256415420625818,0.0268932536050502,0.0241726724463199,-4.205985901533255e-05,critical
1200,0.303030303030303,5.367088607594937,electrolyte-cathode interface,0.0254989580601676,0.0266712357544364,0.0241374345555033,2.2406110505812324e-05,critical
1200,0.404040404040404,5.367088607594937,electrolyte-cathode interface,0.0252940594560277,0.0265483611888326,0.0238181817706629,2.4977328650552392e-05,critical
1200,0.5050505050505051,5.367088607594937,electrolyte-cathode interface,0.0249602354506088,0.0261743530548059,0.0235362310912951,5.178189006022906e-05,critical
1200,0.6060606060606061,5.367088607594937,electrolyte-cathode interface,0.0245901615125094,0.0258657563049854,0.0230766255914507,-2.8397090594515457e-05,critical
1200,0.7070707070707071,5.367088607594937,electrolyte-cathode interface,0.0244824349521262,0.025710915459194,0.0230336035906524,4.686044459463397e-05,critical
1200,0.8080808080808081,5.367088607594937,electrolyte-cathode interface,0.0241782906959854,0.0253812034372344,0.0227619685056367,3.2639848773974767e-05,critical
1200,0.9090909090909092,5.367088607594937,electrolyte-cathode interface,0.0240555163000395,0.0253052232334998,0.0225723163216567,2.295543486104433e-05,critical
1200,1.0101010101010102,5.367088607594937,electrolyte-cathode interface,0.023883044938449,0.0250118553330196,0.0225655901015551,5.274727477264806e-05,critical
1200,1.1111111111111112,5.367088607594937,electrolyte-cathode interface,0.0236502643542561,0.0247505189529627,0.0223699234905399,1.3588494593234469e-05,critical
1200,1.2121212121212122,5.367088607594937,electrolyte-cathode interface,0.0236453473968917,0.0247367351250859,0.0223769911011063,1.0952876557837689e-05,critical
1200,1.3131313131313131,5.367088607594937,electrolyte-cathode interface,0.0234268703887796,0.0245555412013813,0.0221053773187142,4.2620961134001145e-05,critical
1200,1.414141414141414,5.367088607594937,electrolyte-cathode interface,0.0232966835652961,0.0243926120373001,0.022018093916202,-7.811558821146896e-05,critical
1200,1.5151515151515151,5.367088607594937,electrolyte-cathode interface,0.023150156150153,0.024185360007206,0.0219529658900722,-4.382923278874927e-05,critical
1200,1.616161616161616,5.367088607594937,electrolyte-cathode interface,0.0230434154787105,0.0242103354290622,0.0216651547619572,-1.1378147775065647e-05,critical
1200,1.7171717171717171,5.367088607594937,electrolyte-cathode interface,0.0229265556636179,0.0240550385307774,0.0216005595318416,8.074980961335353e-06,critical
1200,1.818181818181818,5.367088607594937,electrolyte-cathode interface,0.0227224359468083,0.0237680930068061,0.0215075567098715,-4.2672308218766726e-05,critical
1200,1.9191919191919191,5.367088607594937,electrolyte-cathode interface,0.0226726925945279,0.0237515584987318,0.0214124543944911,1.180851814339065e-05,critical
1200,2.0202020202020203,5.367088607594937,electrolyte-cathode interface,0.0224208817698706,0.023524297931043,0.0211236690588554,6.692288911778777e-05,critical
1200,2.121212121212121,5.367088607594937,electrolyte-cathode interface,0.0224788191165177,0.0234827714239189,0.0213182549458147,1.2506528210777916e-05,critical
1200,2.2222222222222223,5.367088607594937,electrolyte-cathode interface,0.0222260243489131,0.0231859448130999,0.0211219440356796,3.573230394792273e-05,critical
1200,2.323232323232323,5.367088607594937,electrolyte-cathode interface,0.0221948190206055,0.0232790962544588,0.0209223612793737,2.6642832315219706e-05,critical
1200,2.4242424242424243,5.367088607594937,electrolyte-cathode interface,0.0219974993775891,0.0230217303177739,0.0208053740603941,-2.603221467973493e-05,critical
1200,2.525252525252525,5.367088607594937,electrolyte-cathode interface,0.0221284903068771,0.0231274295364563,0.0209716322551876,-2.9855749324385836e-05,critical
1200,2.6262626262626263,5.367088607594937,electrolyte-cathode interface,0.0218603011536599,0.0229018968359448,0.0206432494880661,2.38645641631042e-05,critical
1200,2.727272727272727,5.367088607594937,electrolyte-cathode interface,0.0219619188363671,0.0231031675960863,0.0206074441678648,1.5500354624907096e-06,critical
1200,2.8282828282828283,5.367088607594937,electrolyte-cathode interface,0.0217282372098434,0.0227888258409247,0.0204838267859441,1.742051676453814e-05,critical
1200,2.929292929292929,5.367088607594937,electrolyte-cathode interface,0.0217654141694361,0.0228550089876061,0.0204812151185504,-5.83883896567262e-07,critical
1200,3.0303030303030303,5.367088607594937,electrolyte-cathode interface,0.0216953680556545,0.0226914213188231,0.0205381347294046,-6.553290896536211e-05,critical
1200,3.131313131313131,5.367088607594937,electrolyte-cathode interface,0.0216101821204877,0.0226403299475436,0.0204064520881037,-1.781999196402956e-05,critical
1200,3.2323232323232323,5.367088607594937,electrolyte-cathode interface,0.0215522674321392,0.0225251891849232,0.0204255016817092,-3.293568392142582e-05,critical
1200,3.333333333333333,5.367088607594937,electrolyte-cathode interface,0.021488454314887,0.0224830585025044,0.020332020774175,1.5198622484785102e-05,critical
1200,3.4343434343434343,5.367088607594937,electrolyte-cathode interface,0.0215516616945849,0.0226377313928959,0.020269931155845,-2.820742661527711e-05,critical
1200,3.5353535353535355,5.367088607594937,electrolyte-cathode interface,0.0214195432666517,0.0224777467170282,0.0201748537672072,-5.248739932774574e-05,critical
1200,3.636363636363636,5.367088607594937,electrolyte-cathode interface,0.0214507343605387,0.0225670102123331,0.0201255033366926,-1.4253129628764644e-05,critical
1200,3.7373737373737375,5.367088607594937,electrolyte-cathode interface,0.0213656349707751,0.0225029912067641,0.0200094569376853,1.917679246114699e-06,critical
1200,3.8383838383838382,5.367088607594937,electrolyte-cathode interface,0.0213277775977449,0.0224116275173427,0.0200466591270178,3.0355942699636085e-05,critical
1200,3.939393939393939,5.367088607594937,electrolyte-cathode interface,0.0214113855857594,0.0224041911942411,0.0202565044149383,3.775517981511234e-05,critical
1200,4.040404040404041,5.367088607594937,electrolyte-cathode interface,0.0213741524770137,0.0224310263035587,0.0201312403257351,1.8232727077868084e-05,critical
1200,4.141414141414141,5.367088607594937,electrolyte-cathode interface,0.0213303467344766,0.0223482942040399,0.0201389640754106,-0.000101748175844,critical
1200,4.242424242424242,5.367088607594937,electrolyte-cathode interface,0.0212460628425428,0.0223259985063451,0.0199694740335045,-3.4308763028073746e-05,critical
1200,4.343434343434343,5.367088607594937,electrolyte-cathode interface,0.0213702628785148,0.0223916451847155,0.02017628671975,4.795650943509825e-06,critical
1200,4.444444444444445,5.367088607594937,electrolyte-cathode interface,0.0212164630812023,0.0221831990197242,0.0200949679515826,4.8039279520730806e-05,critical
1200,4.545454545454545,5.367088607594937,electrolyte-cathode interface,0.0211092881959198,0.0220382030952063,0.0200362286152573,-0.0001027469951002,critical
1200,4.646464646464646,5.367088607594937,electrolyte-cathode interface,0.0209827243833714,0.0220324732826229,0.0197453998143806,-3.6622553805404655e-05,critical
1200,4.747474747474747,5.367088607594937,electrolyte-cathode interface,0.0210472797851952,0.0221212433210481,0.019776984924311,1.773187554760948e-05,critical
1200,4.848484848484849,5.367088607594937,electrolyte-cathode interface,0.0211297195062899,0.0222271915994345,0.019826709758591,5.960077093332008e-05,critical
1200,4.94949494949495,5.367088607594937,electrolyte-cathode interface,0.0210505742078307,0.0220793184577983,0.019842771281193,-5.675973775872493e-05,critical
1200,5.05050505050505,5.367088607594937,electrolyte-cathode interface,0.0212963132203155,0.022300645697308,0.020124843337332,2.476481667647844e-05,critical
1200,5.151515151515151,5.367088607594937,electrolyte-cathode interface,0.021092284403797,0.022155134445152,0.019837794481608,-4.239901216593902e-05,critical
1200,5.252525252525253,5.367088607594937,electrolyte-cathode interface,0.0211500223178301,0.0221463132843926,0.0199882573630364,3.1152388441798142e-06,critical
1200,5.353535353535354,5.367088607594937,electrolyte-cathode interface,0.0212315853090952,0.0223041128971034,0.0199654010030213,5.272777138967262e-06,critical
1200,5.454545454545454,5.367088607594937,electrolyte-cathode interface,0.0210250661796916,0.0219911379524338,0.0199030144399506,-3.272022202876115e-05,critical
1200,5.555555555555555,5.367088607594937,electrolyte-cathode interface,0.0212722733418839,0.0222878635755079,0.0200851839051574,-2.566862230170506e-05,critical
1200,5.656565656565657,5.367088607594937,electrolyte-cathode interface,0.021255769615777,0.022289691652771,0.0200434398826717,3.155464963691596e-07,critical
1200,5.757575757575758,5.367088607594937,electrolyte-cathode interface,0.0211580190727957,0.0222198169053028,0.0199059775813709,-1.5721415208082177e-05,critical
1200,5.858585858585858,5.367088607594937,electrolyte-cathode interface,0.021158652924754,0.0221599907712605,0.0199900072284076,2.15198745955065e-05,critical
1200,5.959595959595959,5.367088607594937,electrolyte-cathode interface,0.0212702017957285,0.0222691945597035,0.0201052801767038,-5.933813189973062e-05,critical
1200,6.0606060606060606,5.367088607594937,electrolyte-cathode interface,0.0212715628744288,0.022289382503125,0.0200815200822002,-4.012260387108443e-06,critical
1200,6.161616161616162,5.367088607594937,electrolyte-cathode interface,0.0212569571195159,0.0222450931146949,0.0201071849917636,2.138864702336289e-05,critical
1200,6.262626262626262,5.367088607594937,electrolyte-cathode interface,0.02140108773317,0.022446981620185,0.0201733817961111,-4.385433665708137e-05,critical
1200,6.363636363636363,5.367088607594937,electrolyte-cathode interface,0.021407364661185,0.0224218704625486,0.0202230794645916,2.0910725772852947e-05,critical
1200,6.4646464646464645,5.367088607594937,electrolyte-cathode interface,0.0215144682252773,0.0225152713479466,0.0203492939824872,-6.057863746293572e-05,critical
1200,6.565656565656566,5.367088607594937,electrolyte-cathode interface,0.0216085482463846,0.0225979145168835,0.02046028817729,-4.751399973635997e-06,critical
1200,6.666666666666667,5.367088607594937,electrolyte-cathode interface,0.0215744854771514,0.0227645262819959,0.0201452756387394,9.881556611460537e-06,critical
1200,6.767676767676767,5.367088607594937,electrolyte-cathode interface,0.0216792092318176,0.0226750946049408,0.020522222482514,-5.749854129640854e-05,critical
1200,6.8686868686868685,5.367088607594937,electrolyte-cathode interface,0.0216872524453222,0.0228754541937418,0.0202621346999555,2.546667282159263e-05,critical
1200,6.96969696969697,5.367088607594937,electrolyte-cathode interface,0.0216627973860665,0.0227809229389061,0.0203372381515789,3.714892844587336e-05,critical
1200,7.070707070707071,5.367088607594937,electrolyte-cathode interface,0.0217891308191949,0.0228140628480864,0.0205942347842533,-1.1811672270996986e-05,critical
1200,7.171717171717171,5.367088607594937,electrolyte-cathode interface,0.0217290643231289,0.0227927438718517,0.0204802563920883,-3.3663233602815625e-05,critical
1200,7.272727272727272,5.367088607594937,electrolyte-cathode interface,0.0218020736619156,0.0228859180179352,0.0205262449204364,1.155230665793111e-05,critical
1200,7.373737373737374,5.367088607594937,electrolyte-cathode interface,0.0220540678204046,0.0230256095616305,0.0209333873522912,1.3034282010689489e-05,critical
1200,7.474747474747475,5.367088607594937,electrolyte-cathode interface,0.0220312166645201,0.023113928372099,0.0207593058574767,1.9594969176323115e-05,critical
1200,7.575757575757575,5.367088607594937,electrolyte-cathode interface,0.0221520532448984,0.0231494373765773,0.0209976066605382,1.0117446861336864e-05,critical
1200,7.6767676767676765,5.367088607594937,electrolyte-cathode interface,0.0222325385693364,0.0231820871249616,0.0211412881704709,-8.510104309383973e-05,critical
1200,7.777777777777778,5.367088607594937,electrolyte-cathode interface,0.0224511844805726,0.0234873433479335,0.0212470179055012,-1.4397065669173083e-05,critical
1200,7.878787878787879,5.367088607594937,electrolyte-cathode interface,0.0224791250612501,0.0235118972131188,0.0212794639756809,-4.738358798045072e-05,critical
1200,7.979797979797979,5.367088607594937,electrolyte-cathode interface,0.0225049737976236,0.0235961697437972,0.0212251280406343,8.222488056034173e-05,critical
1200,8.080808080808081,5.367088607594937,electrolyte-cathode interface,0.0225447207372739,0.0235012630531084,0.0214473936698347,-4.16862877507152e-05,critical
1200,8.181818181818182,5.367088607594937,electrolyte-cathode interface,0.0228657472360458,0.0239993270240611,0.0215313505927596,-6.724297218939052e-05,critical
1200,8.282828282828282,5.367088607594937,electrolyte-cathode interface,0.0227702419609982,0.0239272637547549,0.0214026302010198,3.543311292191891e-05,critical
1200,8.383838383838384,5.367088607594937,electrolyte-cathode interface,0.0229145221587151,0.024020878064122,0.0216181144070489,-7.294386547472903e-05,critical
1200,8.484848484848484,5.367088607594937,electrolyte-cathode interface,0.0232759530132849,0.0244203500902806,0.0219315362908293,-3.207091954052728e-07,critical
1200,8.585858585858587,5.367088607594937,electrolyte-cathode interface,0.0233510807821533,0.0245540077701531,0.0219247865360683,7.914213230336948e-05,critical
1200,8.686868686868687,5.367088607594937,electrolyte-cathode interface,0.0233872109271507,0.0245432019460819,0.0220276510266358,-3.89485907646742e-05,critical
1200,8.787878787878787,5.367088607594937,electrolyte-cathode interface,0.0235559472282905,0.0246540522550243,0.0222776734908468,-1.3508361226202926e-05,critical
1200,8.88888888888889,5.367088607594937,electrolyte-cathode interface,0.0235972054960974,0.0247208824159768,0.0222843539816325,-2.91085196076559e-05,critical
1200,8.98989898989899,5.367088607594937,electrolyte-cathode interface,0.0238051476365401,0.0248942351542297,0.0225401600136272,-8.820513338578389e-05,critical
1200,9.09090909090909,5.367088607594937,electrolyte-cathode interface,0.0241706089152226,0.0253062088790716,0.0228467695294541,3.817282548828765e-05,critical
1200,9.191919191919192,5.367088607594937,electrolyte-cathode interface,0.0243543343484859,0.0255212475583594,0.0229893683440277,4.407752123959767e-05,critical
1200,9.292929292929292,5.367088607594937,electrolyte-cathode interface,0.0244249753678723,0.0255162112553114,0.0231633120034756,-3.328852910024137e-05,critical
1200,9.393939393939394,5.367088607594937,electrolyte-cathode interface,0.024623161536031,0.0258807295766606,0.023135332224768,3.464310550786166e-05,critical
1200,9.494949494949497,5.367088607594937,electrolyte-cathode interface,0.0249093717416244,0.0260699628360139,0.0235577866051212,7.106300752618797e-05,critical
1200,9.595959595959595,5.367088607594937,electrolyte-cathode interface,0.0252414237245646,0.0264548253047898,0.0238214833783924,2.4499424281355506e-05,critical
1200,9.696969696969695,5.367088607594937,electrolyte-cathode interface,0.0254453593278904,0.0267242992744256,0.023933667986587,0.0001507562408949,critical
1200,9.797979797979798,5.367088607594937,electrolyte-cathode interface,0.0255832188658501,0.0267376289494132,0.024246449567937,-2.910291585420604e-05,critical
1200,9.8989898989899,5.367088607594937,electrolyte-cathode interface,0.0259052308403724,0.027150359536658,0.024448061510523,-4.04569149277624e-05,critical
1200,10.0,5.367088607594937,electrolyte-cathode interface,0.0263230936278114,0.0276496258430572,0.0247560199349979,-0.0001119738383321,critical
1200,0.0,5.468354430379747,electrolyte-cathode interface,0.0264133543929923,0.0276813402628446,0.0249299737688242,-7.87542117579884e-06,critical
1200,0.101010101010101,5.468354430379747,electrolyte-cathode interface,0.0259706498282873,0.0272301433078936,0.0244944816672054,-2.92223693657298e-05,critical
1200,0.202020202020202,5.468354430379747,electrolyte-cathode interface,0.0257217495578865,0.0269925206339549,0.0242266388962494,8.215479956878042e-05,critical
1200,0.303030303030303,5.468354430379747,electrolyte-cathode interface,0.0254025583109041,0.0265377185518217,0.0240898337686335,5.354224173783466e-05,critical
1200,0.404040404040404,5.468354430379747,electrolyte-cathode interface,0.0252208638328301,0.0264974461419338,0.023713232884842,2.4355668417697746e-06,critical
1200,0.5050505050505051,5.468354430379747,electrolyte-cathode interface,0.024961447697374,0.0262468180780896,0.0234378816510553,-6.814559554329436e-05,critical
1200,0.6060606060606061,5.468354430379747,electrolyte-cathode interface,0.024750443778414,0.025882113893132,0.023437300697915,1.2512099573838371e-05,critical
1200,0.7070707070707071,5.468354430379747,electrolyte-cathode interface,0.0244243539161707,0.0255693427706009,0.0230902516448611,1.4288057433421406e-05,critical
1200,0.8080808080808081,5.468354430379747,electrolyte-cathode interface,0.0243346689734886,0.0255216223267645,0.0229416955679806,-6.000596350894e-05,critical
1200,0.9090909090909092,5.468354430379747,electrolyte-cathode interface,0.0240884284851713,0.0252768904784546,0.022691179567928,-3.6629709856006025e-05,critical
1200,1.0101010101010102,5.468354430379747,electrolyte-cathode interface,0.0238845923273518,0.0251834127870832,0.0223291599743092,-2.9090105530053945e-05,critical
1200,1.1111111111111112,5.468354430379747,electrolyte-cathode interface,0.0237850479346626,0.0249978078050618,0.022350806248275,-1.5589847294680943e-05,critical
1200,1.2121212121212122,5.468354430379747,electrolyte-cathode interface,0.0234972456586464,0.0246549591812402,0.0221352675978703,-9.589712569570425e-05,critical
1200,1.3131313131313131,5.468354430379747,electrolyte-cathode interface,0.0234631645707177,0.0246345130373062,0.0220832350479827,2.106021803172613e-05,critical
1200,1.414141414141414,5.468354430379747,electrolyte-cathode interface,0.0234679645085668,0.0247503904321968,0.0219282092384657,0.0001276862746074,critical
1200,1.5151515151515151,5.468354430379747,electrolyte-cathode interface,0.023204775398657,0.0243342030533548,0.0218794495986981,7.487222138266155e-05,critical
1200,1.616161616161616,5.468354430379747,electrolyte-cathode interface,0.0229641360498682,0.0240419624678674,0.0217075364695322,-5.837438021365429e-05,critical
1200,1.7171717171717171,5.468354430379747,electrolyte-cathode interface,0.0228590839109913,0.0239850231843481,0.0215356704015881,-4.0142756744776566e-05,critical
1200,1.818181818181818,5.468354430379747,electrolyte-cathode interface,0.0226951744839379,0.0238696241507702,0.0213021291363597,4.122342088141615e-05,critical
1200,1.9191919191919191,5.468354430379747,electrolyte-cathode interface,0.0226193422661285,0.023706813395857,0.0213464152739169,5.0602005852214005e-05,critical
1200,2.0202020202020203,5.468354430379747,electrolyte-cathode interface,0.0225512295883439,0.023704693707037,0.0211858946748584,5.3113729011263457e-05,critical
1200,2.121212121212121,5.468354430379747,electrolyte-cathode interface,0.0223317768479419,0.0233544556218891,0.0211447481945443,-2.134577481128179e-05,critical
1200,2.2222222222222223,5.468354430379747,electrolyte-cathode interface,0.0221557799468732,0.0232288930735777,0.0208983781538396,1.909377224135473e-05,critical
1200,2.323232323232323,5.468354430379747,electrolyte-cathode interface,0.0220762233461826,0.0230591826826508,0.0209401876199004,-4.429228040507461e-05,critical
1200,2.4242424242424243,5.468354430379747,electrolyte-cathode interface,0.0220229147208157,0.0230513084147945,0.0208254681728127,6.279158769936835e-06,critical
1200,2.525252525252525,5.468354430379747,electrolyte-cathode interface,0.0219615817761911,0.0230197615350776,0.0207224938822019,4.749688756747753e-05,critical
1200,2.6262626262626263,5.468354430379747,electrolyte-cathode interface,0.0220671904886156,0.0229935622373975,0.0210051089917185,9.068047602654122e-05,critical
1200,2.727272727272727,5.468354430379747,electrolyte-cathode interface,0.0218799854369616,0.0230088470214548,0.020542002499336,-1.4694713110774553e-05,critical
1200,2.8282828282828283,5.468354430379747,electrolyte-cathode interface,0.0217657602105479,0.0228515271510348,0.0204847338763122,-0.0001142435724354,critical
1200,2.929292929292929,5.468354430379747,electrolyte-cathode interface,0.021658814364026,0.0226587121295644,0.0204966964848516,-1.9855730070207724e-05,critical
1200,3.0303030303030303,5.468354430379747,electrolyte-cathode interface,0.02168571433165,0.0226987857200049,0.0205059121741221,2.7112432937059328e-05,critical
1200,3.131313131313131,5.468354430379747,electrolyte-cathode interface,0.0216238421717696,0.0226313079740966,0.0204508131205858,4.94719137130565e-05,critical
1200,3.2323232323232323,5.468354430379747,electrolyte-cathode interface,0.0216471954194131,0.0228199625054324,0.0202438896575664,-6.198359178608319e-06,critical
1200,3.333333333333333,5.468354430379747,electrolyte-cathode interface,0.0214633605129,0.022404516442496,0.020378408322907,2.79645727310477e-05,critical
1200,3.4343434343434343,5.468354430379747,electrolyte-cathode interface,0.0215642055409286,0.0225101489165173,0.0204731821499428,-6.150342292275705e-05,critical
1200,3.5353535353535355,5.468354430379747,electrolyte-cathode interface,0.021457058897737,0.0225073159732339,0.0202225759642092,9.904984087844518e-05,critical
1200,3.636363636363636,5.468354430379747,electrolyte-cathode interface,0.0213617412073856,0.0224556745961136,0.020067008750685,-3.841330157243187e-06,critical
1200,3.7373737373737375,5.468354430379747,electrolyte-cathode interface,0.0214932136471336,0.0225282226394408,0.0202814104262558,4.44905812021855e-05,critical
1200,3.8383838383838382,5.468354430379747,electrolyte-cathode interface,0.0213761975169213,0.0223057279742539,0.0203061472554051,5.783511917800344e-06,critical
1200,3.939393939393939,5.468354430379747,electrolyte-cathode interface,0.0213128850959261,0.0223301347912586,0.0201234494852498,5.851382082868152e-05,critical
1200,4.040404040404041,5.468354430379747,electrolyte-cathode interface,0.0212279992992608,0.0222916330793683,0.0199741798765652,-9.592228416589876e-06,critical
1200,4.141414141414141,5.468354430379747,electrolyte-cathode interface,0.0211228950124271,0.0221661802642271,0.0198960347240996,-3.6700113270767546e-05,critical
1200,4.242424242424242,5.468354430379747,electrolyte-cathode interface,0.0213444658724753,0.0223593096676341,0.020158134022754,7.976679597587004e-05,critical
1200,4.343434343434343,5.468354430379747,electrolyte-cathode interface,0.0211879422787452,0.0222367472794795,0.0199543196821298,-9.28017296841816e-06,critical
1200,4.444444444444445,5.468354430379747,electrolyte-cathode interface,0.0212304713926494,0.0222863930898149,0.0199874080006735,-1.0825348179628276e-05,critical
1200,4.545454545454545,5.468354430379747,electrolyte-cathode interface,0.0212154541812773,0.0222820482254004,0.0199570620218745,-4.365341748491746e-05,critical
1200,4.646464646464646,5.468354430379747,electrolyte-cathode interface,0.0212077801747497,0.022278400604287,0.0199433761412387,-6.0766276226252586e-05,critical
1200,4.747474747474747,5.468354430379747,electrolyte-cathode interface,0.0211368814019403,0.0221946445338859,0.019890257549075,1.0954980043646649e-05,critical
1200,4.848484848484849,5.468354430379747,electrolyte-cathode interface,0.0211111387031155,0.0220663529711205,0.0200040359369551,6.029914577296467e-05,critical
1200,4.94949494949495,5.468354430379747,electrolyte-cathode interface,0.0211626872571388,0.0221564664513329,0.0200044617708091,2.68927288623978e-06,critical
1200,5.05050505050505,5.468354430379747,electrolyte-cathode interface,0.0211977743925654,0.0222009521305762,0.0200267365817166,4.399152513967776e-05,critical
1200,5.151515151515151,5.468354430379747,electrolyte-cathode interface,0.0212505218421594,0.0224185815698749,0.0198487322486215,6.5842189980653e-06,critical
1200,5.252525252525253,5.468354430379747,electrolyte-cathode interface,0.0209773753608915,0.0218560701136898,0.0199714086220886,2.463723671600201e-05,critical
1200,5.353535353535354,5.468354430379747,electrolyte-cathode interface,0.0210873809940128,0.0221797384257979,0.0197906088783911,7.993535382258079e-05,critical
1200,5.454545454545454,5.468354430379747,electrolyte-cathode interface,0.0212096833921756,0.0222025462191893,0.020052997410302,2.891181434957721e-05,critical
1200,5.555555555555555,5.468354430379747,electrolyte-cathode interface,0.0211476423836592,0.0221512886710176,0.0199757326007633,-2.2471595068941607e-05,critical
1200,5.656565656565657,5.468354430379747,electrolyte-cathode interface,0.0211715300349064,0.022171090591317,0.0200055072004856,-2.590308084408737e-06,critical
1200,5.757575757575758,5.468354430379747,electrolyte-cathode interface,0.0213008806254585,0.0222908114724803,0.020149127238358,-1.0123505476434822e-05,critical
1200,5.858585858585858,5.468354430379747,electrolyte-cathode interface,0.0213172322657841,0.0223715943772604,0.0200769847650693,-4.081959684755504e-05,critical
1200,5.959595959595959,5.468354430379747,electrolyte-cathode interface,0.0212381601989821,0.0223258650484467,0.0199503706314728,4.8964367307717113e-05,critical
1200,6.0606060606060606,5.468354430379747,electrolyte-cathode interface,0.0213764215845376,0.0224453396912722,0.0201167314710621,2.6534069681992886e-05,critical
1200,6.161616161616162,5.468354430379747,electrolyte-cathode interface,0.0212962083752381,0.0222883117823152,0.0201414399459661,1.5697339293390857e-05,critical
1200,6.262626262626262,5.468354430379747,electrolyte-cathode interface,0.021431328734191,0.0224796801601631,0.0202007787831738,-2.170863852411377e-05,critical
1200,6.363636363636363,5.468354430379747,electrolyte-cathode interface,0.0213394630930041,0.0223688171329839,0.0201338725103678,4.7592955683458966e-05,critical
1200,6.4646464646464645,5.468354430379747,electrolyte-cathode interface,0.0214038441587719,0.0224426709827743,0.0201861507197965,2.2524524997678424e-05,critical
1200,6.565656565656566,5.468354430379747,electrolyte-cathode interface,0.0215470130439414,0.0225498125805736,0.0203799975556188,-1.3522838814449586e-05,critical
1200,6.666666666666667,5.468354430379747,electrolyte-cathode interface,0.0214110109282933,0.0225359812063571,0.0200729652485646,1.8016341136279715e-05,critical
1200,6.767676767676767,5.468354430379747,electrolyte-cathode interface,0.021618855283971,0.0226428491540901,0.0204228441129565,-7.095270595964337e-05,critical
1200,6.8686868686868685,5.468354430379747,electrolyte-cathode interface,0.0215389269525872,0.0225309560422704,0.0203863403821317,-2.7440399672946585e-05,critical
1200,6.96969696969697,5.468354430379747,electrolyte-cathode interface,0.0216995521484463,0.0227317468745056,0.0204937120025304,-3.600738083544647e-05,critical
1200,7.070707070707071,5.468354430379747,electrolyte-cathode interface,0.021703196299711,0.0227677375322848,0.0204530205688903,-2.4569277879402287e-05,critical
1200,7.171717171717171,5.468354430379747,electrolyte-cathode interface,0.0218223209938124,0.022805607296801,0.0206833754855138,-6.554083012082629e-05,critical
1200,7.272727272727272,5.468354430379747,electrolyte-cathode interface,0.0220067427620984,0.0230872570780336,0.0207375143754219,-3.22008483829241e-05,critical
1200,7.373737373737374,5.468354430379747,electrolyte-cathode interface,0.0219889997438316,0.0230670359025551,0.020723183060859,4.317045458309739e-06,critical
1200,7.474747474747475,5.468354430379747,electrolyte-cathode interface,0.0220870161064695,0.023057426996343,0.0209671327497224,7.919964358333963e-05,critical
1200,7.575757575757575,5.468354430379747,electrolyte-cathode interface,0.0221891973208291,0.0232024041737674,0.0210134664214887,-4.5049069787041565e-05,critical
1200,7.6767676767676765,5.468354430379747,electrolyte-cathode interface,0.0221786238081303,0.0233158223024934,0.0208315702546886,6.989383691271584e-05,critical
1200,7.777777777777778,5.468354430379747,electrolyte-cathode interface,0.0223389267557043,0.0233566622728293,0.0211579640671906,-6.819994920076499e-05,critical
1200,7.878787878787879,5.468354430379747,electrolyte-cathode interface,0.0223063272995065,0.0233607452758634,0.0210754129348078,6.36148042344595e-05,critical
1200,7.979797979797979,5.468354430379747,electrolyte-cathode interface,0.0225021640331294,0.0235876389889973,0.0212308584379204,4.881033960535241e-05,critical
1200,8.080808080808081,5.468354430379747,electrolyte-cathode interface,0.0225945211985512,0.0235939445884539,0.0214407842836289,3.470145324764606e-05,critical
1200,8.181818181818182,5.468354430379747,electrolyte-cathode interface,0.0227095277695139,0.023882425837137,0.0213187419835007,-4.796613705714918e-05,critical
1200,8.282828282828282,5.468354430379747,electrolyte-cathode interface,0.0227629488314242,0.0237755014896504,0.0215912057969561,-0.0001139389310615,critical
1200,8.383838383838384,5.468354430379747,electrolyte-cathode interface,0.0229202224242887,0.0240267210783933,0.0216244738722331,1.41673828743687e-05,critical
1200,8.484848484848484,5.468354430379747,electrolyte-cathode interface,0.0232511676408372,0.0243458076671224,0.0219747486833638,2.4973181125054272e-05,critical
1200,8.585858585858587,5.468354430379747,electrolyte-cathode interface,0.0231785619205917,0.0241895780508732,0.0220137060154072,5.493554802906995e-05,critical
1200,8.686868686868687,5.468354430379747,electrolyte-cathode interface,0.0234368992313807,0.0246672334388982,0.0219738152955186,-1.3074772387275072e-05,critical
1200,8.787878787878787,5.468354430379747,electrolyte-cathode interface,0.0235225738235879,0.0246136279427149,0.0222521664324289,-9.735388094883176e-05,critical
1200,8.88888888888889,5.468354430379747,electrolyte-cathode interface,0.0237217215972774,0.0248567625838286,0.022394353863945,4.2745840553342646e-05,critical
1200,8.98989898989899,5.468354430379747,electrolyte-cathode interface,0.0238784297921876,0.0249298543985351,0.0226652370189412,5.7325602137106185e-05,critical
1200,9.09090909090909,5.468354430379747,electrolyte-cathode interface,0.0241842960508543,0.0253722710041223,0.0227889093329374,3.389570285039311e-06,critical
1200,9.191919191919192,5.468354430379747,electrolyte-cathode interface,0.0242638266615936,0.0253636484450116,0.0229892795753554,3.488830400151711e-05,critical
1200,9.292929292929292,5.468354430379747,electrolyte-cathode interface,0.0244514796290589,0.0256142564382694,0.0230933713902247,-1.2353291320412563e-05,critical
1200,9.393939393939394,5.468354430379747,electrolyte-cathode interface,0.0248065337184159,0.0260177327753142,0.0233852669633117,-2.950785612346557e-05,critical
1200,9.494949494949497,5.468354430379747,electrolyte-cathode interface,0.0249261060585369,0.0260674214506346,0.0236007907059649,7.009068002064154e-05,critical
1200,9.595959595959595,5.468354430379747,electrolyte-cathode interface,0.0253025348302301,0.0265862094354753,0.0237858275061154,-1.9478287490007683e-05,critical
1200,9.696969696969695,5.468354430379747,electrolyte-cathode interface,0.0253560735898648,0.0266271232846257,0.0238576345434894,-8.635938871630539e-06,critical
1200,9.797979797979798,5.468354430379747,electrolyte-cathode interface,0.0257247166723235,0.0269273311139911,0.0243239551105456,3.780649187396255e-05,critical
1200,9.8989898989899,5.468354430379747,electrolyte-cathode interface,0.0261562977939634,0.0274157894870747,0.0246819972927803,2.485038896339042e-05,critical
1200,10.0,5.468354430379747,electrolyte-cathode interface,0.0262056944689937,0.0273786684749985,0.0248491839375079,-2.922143937015028e-05,critical
1200,0.0,5.5696202531645564,cathode,0.016406185186309,0.0172848272243087,0.0153561985848991,-6.847037452121145e-05,critical
1200,0.101010101010101,5.5696202531645564,cathode,0.0161686133348773,0.0170799867055486,0.015068008237219,6.98079387909832e-05,critical
1200,0.202020202020202,5.5696202531645564,cathode,0.0159878800576037,0.016698361949488,0.0151672304380376,3.7150738648306287e-06,critical
1200,0.303030303030303,5.5696202531645564,cathode,0.0157528477295356,0.0165124535998868,0.0148614211840344,-9.622165729053984e-05,critical
1200,0.404040404040404,5.5696202531645564,cathode,0.0156053043356783,0.0163376994534933,0.0147517058698174,-2.009008269894068e-05,critical
1200,0.5050505050505051,5.5696202531645564,cathode,0.0154476508412082,0.0161109943504877,0.0146834931566233,-9.395311173156026e-05,critical
1200,0.6060606060606061,5.5696202531645564,cathode,0.0153587938222297,0.0160923802199188,0.014501118687277,3.119229961179963e-05,critical
1200,0.7070707070707071,5.5696202531645564,cathode,0.0153659987596413,0.0161246742262317,0.0144736098306612,-4.343902232743026e-05,critical
1200,0.8080808080808081,5.5696202531645564,cathode,0.0150058032978188,0.0156419258433656,0.014275473078673,6.068547088321415e-05,critical
1200,0.9090909090909092,5.5696202531645564,cathode,0.015051517712707,0.0157284707065672,0.0142678008684394,-3.62448779428563e-05,critical
1200,1.0101010101010102,5.5696202531645564,cathode,0.0149431678079257,0.0157057974437764,0.0140411173430695,7.289800908187541e-06,high
1200,1.1111111111111112,5.5696202531645564,cathode,0.0146107149128956,0.0153373665224204,0.0137550484549851,3.18334814218833e-05,high
1200,1.2121212121212122,5.5696202531645564,cathode,0.0145583763664589,0.0152543536437159,0.0137443076591614,4.3026856408359e-05,high
1200,1.3131313131313131,5.5696202531645564,cathode,0.0144070400997703,0.0150740162752643,0.0136309268172779,4.994851366930805e-05,high
1200,1.414141414141414,5.5696202531645564,cathode,0.0144043053786319,0.0151358138914218,0.0135398641890581,-5.582941278333546e-06,high
1200,1.5151515151515151,5.5696202531645564,cathode,0.0144088047374915,0.015027890608004,0.0136940483520731,0.000118121665778,high
1200,1.616161616161616,5.5696202531645564,cathode,0.0143787064666392,0.0150869533320764,0.0135460962981491,-3.481653238118018e-05,high
1200,1.7171717171717171,5.5696202531645564,cathode,0.0142754053925291,0.0149968738941901,0.0134233144494834,-3.3445249093058736e-05,high
1200,1.818181818181818,5.5696202531645564,cathode,0.0140563071648606,0.0146442755896242,0.0133832598713436,2.2095456893467963e-05,high
1200,1.9191919191919191,5.5696202531645564,cathode,0.0140158928027187,0.0147033452942657,0.0132075890665626,-6.382740830064127e-05,high
1200,2.0202020202020203,5.5696202531645564,cathode,0.014056889817642,0.0147084045567267,0.0132986105265607,4.928985979801166e-05,high
1200,2.121212121212121,5.5696202531645564,cathode,0.0139459075372131,0.0146719098738912,0.0130834768722682,-4.329791677948836e-05,high
1200,2.2222222222222223,5.5696202531645564,cathode,0.0138109107319912,0.0144957315572838,0.0130039956621663,-6.720360953088102e-05,high
1200,2.323232323232323,5.5696202531645564,cathode,0.0137724421119953,0.0144671303699612,0.0129512809576458,-6.95035135472294e-05,high
1200,2.4242424242424243,5.5696202531645564,cathode,0.0137616222488913,0.0145062475231477,0.0128707063830584,-2.3090473164463537e-05,high
1200,2.525252525252525,5.5696202531645564,cathode,0.0136284409333172,0.0141869850578532,0.0129909507376212,2.221242747965976e-05,high
1200,2.6262626262626263,5.5696202531645564,cathode,0.0134791610337502,0.0140999961106808,0.0127564874301313,-7.380932248519459e-05,high
1200,2.727272727272727,5.5696202531645564,cathode,0.0135680483652142,0.0141382112784137,0.0129147769775069,3.316338628282574e-05,high
1200,2.8282828282828283,5.5696202531645564,cathode,0.0135616218713402,0.0141354486946014,0.0129035597916616,2.846108027553245e-05,high
1200,2.929292929292929,5.5696202531645564,cathode,0.0135280991666981,0.0142523896513765,0.0126632587811662,2.8470663076666755e-05,high
1200,3.0303030303030303,5.5696202531645564,cathode,0.0135190488293855,0.0142683724304829,0.0126175720661829,4.9403103072420886e-05,high
1200,3.131313131313131,5.5696202531645564,cathode,0.0133382637418471,0.0139668459707208,0.0126052074127309,8.750654598811866e-06,high
1200,3.2323232323232323,5.5696202531645564,cathode,0.0134605791746485,0.014132987463607,0.0126683672956758,-8.232183091028531e-06,high
1200,3.333333333333333,5.5696202531645564,cathode,0.0133217606641673,0.0140530929346475,0.0124442282709108,1.7937819043551278e-05,high
1200,3.4343434343434343,5.5696202531645564,cathode,0.0133191512115595,0.0138829479183793,0.0126722694160744,4.316730789030308e-05,high
1200,3.5353535353535355,5.5696202531645564,cathode,0.0133548031628851,0.0139420961447095,0.0126772314006843,3.514570461463995e-05,high
1200,3.636363636363636,5.5696202531645564,cathode,0.0132650261703995,0.0139576659184981,0.0124420825862984,-2.231886069104847e-05,high
1200,3.7373737373737375,5.5696202531645564,cathode,0.0132460126406105,0.0139366114114181,0.0124258635704932,-4.46479163586235e-06,high
1200,3.8383838383838382,5.5696202531645564,cathode,0.0131616083455875,0.0137914804075441,0.012424368941167,5.322797802445052e-05,high
1200,3.939393939393939,5.5696202531645564,cathode,0.013387469550852,0.013950630664214,0.0127422170037251,-2.654642410345979e-05,high
1200,4.040404040404041,5.5696202531645564,cathode,0.013216896449728,0.0138366762472071,0.0124947297844086,4.5848157320100923e-07,high
1200,4.141414141414141,5.5696202531645564,cathode,0.0131375317330452,0.0137356994343977,0.0124436672521142,-3.1196367385961216e-05,high
1200,4.242424242424242,5.5696202531645564,cathode,0.0131782325652048,0.0138809144950154,0.0123385484111578,7.435257919709848e-05,high
1200,4.343434343434343,5.5696202531645564,cathode,0.0132701168110208,0.0138991526982621,0.0125330730675023,-0.0001012098099146,high
1200,4.444444444444445,5.5696202531645564,cathode,0.0132411615435267,0.0138836948324272,0.0124855849580991,9.591044170599004e-05,high
1200,4.545454545454545,5.5696202531645564,cathode,0.0132387723450602,0.013822253296336,0.0125635688387387,8.939769857540392e-05,high
1200,4.646464646464646,5.5696202531645564,cathode,0.0131600268673374,0.0138620406834623,0.012321911044036,-4.991877526916736e-05,high
1200,4.747474747474747,5.5696202531645564,cathode,0.0132174018825939,0.0138617581128304,0.0124611956890894,3.677401437896264e-05,high
1200,4.848484848484849,5.5696202531645564,cathode,0.0131306217515458,0.0137076208386423,0.0124620545448061,-0.0001105646404418,high
1200,4.94949494949495,5.5696202531645564,cathode,0.0131875191569652,0.0138364052238612,0.012425035804367,1.7005556285287823e-05,high
1200,5.05050505050505,5.5696202531645564,cathode,0.0131835423132714,0.013714740715583,0.0125774686948301,-7.229169771352904e-05,high
1200,5.151515151515151,5.5696202531645564,cathode,0.0130898434664152,0.0137498982004903,0.0123108416598617,-9.97768631329118e-06,high
1200,5.252525252525253,5.5696202531645564,cathode,0.013103412850602,0.0137567491499369,0.0123339479129132,3.53585963753368e-06,high
1200,5.353535353535354,5.5696202531645564,cathode,0.0131218994221661,0.0137663491934549,0.012364680646818,3.192846777800007e-05,high
1200,5.454545454545454,5.5696202531645564,cathode,0.0132855131878576,0.0139117914716524,0.0125540011746416,-6.485804393613883e-05,high
1200,5.555555555555555,5.5696202531645564,cathode,0.01312703527309,0.0137723300407636,0.0123660681585589,0.0001031351756281,high
1200,5.656565656565657,5.5696202531645564,cathode,0.0130596094283599,0.0136497656523207,0.0123746544064,-7.384004337280563e-05,high
1200,5.757575757575758,5.5696202531645564,cathode,0.0131880684206011,0.0138558452438641,0.0123989764340895,3.822427021872511e-05,high
1200,5.858585858585858,5.5696202531645564,cathode,0.0132955798381323,0.0139338404126543,0.0125481300152161,5.3568701440406856e-05,high
1200,5.959595959595959,5.5696202531645564,cathode,0.0131540834148861,0.0138132106157188,0.0123770387583082,-1.5030129032037535e-05,high
1200,6.0606060606060606,5.5696202531645564,cathode,0.0132153673320124,0.0137397395120462,0.0126192744618346,-4.061138859468124e-05,high
1200,6.161616161616162,5.5696202531645564,cathode,0.0133703112196658,0.0139590454148597,0.0126911028274251,2.491969107206774e-05,high
1200,6.262626262626262,5.5696202531645564,cathode,0.0132796352282674,0.0138873872472586,0.0125734633108273,5.704281566253408e-05,high
1200,6.363636363636363,5.5696202531645564,cathode,0.0132334463537329,0.0138614856259666,0.0125001249833785,-1.2868800158337518e-05,high
1200,6.4646464646464645,5.5696202531645564,cathode,0.0132569481831111,0.0139499015387551,0.012433599814316,-1.9173039720516714e-06,high
1200,6.565656565656566,5.5696202531645564,cathode,0.0134397288721134,0.0140954932662621,0.0126703624248227,1.009951332087515e-05,high
1200,6.666666666666667,5.5696202531645564,cathode,0.0133552118568314,0.0139642000898492,0.0126476936463403,6.725516694007504e-05,high
1200,6.767676767676767,5.5696202531645564,cathode,0.0133403664884272,0.0140955241642648,0.0124284554477961,1.4898000139921612e-05,high
1200,6.8686868686868685,5.5696202531645564,cathode,0.0135268180555129,0.014308741817458,0.0125782824971159,1.751655701679113e-05,high
1200,6.96969696969697,5.5696202531645564,cathode,0.0134523575428719,0.0140933088608851,0.0127029569024877,4.527626225788676e-05,high
1200,7.070707070707071,5.5696202531645564,cathode,0.0134786697037967,0.0141532008332435,0.0126837087818696,-4.179107666408731e-06,high
1200,7.171717171717171,5.5696202531645564,cathode,0.0133654889821052,0.0139364337988836,0.0127085061249509,7.579592179419809e-05,high
1200,7.272727272727272,5.5696202531645564,cathode,0.0135772632544614,0.0142391410824615,0.0127991128530546,-8.169564342972462e-05,high
1200,7.373737373737374,5.5696202531645564,cathode,0.0137371833196446,0.0143888493821184,0.0129740617973745,-9.44467590030284e-05,high
1200,7.474747474747475,5.5696202531645564,cathode,0.0136454524959396,0.0142663621890649,0.0129252050470306,3.658219259267961e-05,high
1200,7.575757575757575,5.5696202531645564,cathode,0.0136515586617933,0.0142842627569467,0.0129155170899761,-3.135517224124436e-05,high
1200,7.6767676767676765,5.5696202531645564,cathode,0.0137062240487479,0.0143619071299659,0.0129393770264582,-3.084696355466804e-05,high
1200,7.777777777777778,5.5696202531645564,cathode,0.0139312804252999,0.0146373853068679,0.013096408935814,5.410601438966051e-05,high
1200,7.878787878787879,5.5696202531645564,cathode,0.0139741169353484,0.0147106057682418,0.0130975229849281,2.16862875767106e-05,high
1200,7.979797979797979,5.5696202531645564,cathode,0.0139059882216345,0.014569284161592,0.0131307592342349,-2.1539982929123103e-05,high
1200,8.080808080808081,5.5696202531645564,cathode,0.0139719553639879,0.0145068451150442,0.0133664113499472,-5.9127892580132674e-05,high
1200,8.181818181818182,5.5696202531645564,cathode,0.0140987641631681,0.014772637970994,0.0133109685702219,1.358627141485933e-05,high
1200,8.282828282828282,5.5696202531645564,cathode,0.0142789579626412,0.0149146707756939,0.0135439871895903,-4.3806706895973696e-05,high
1200,8.383838383838384,5.5696202531645564,cathode,0.0143045996126125,0.0150570287015014,0.0134088217987703,5.154094017135078e-05,high
1200,8.484848484848484,5.5696202531645564,cathode,0.0144546701151364,0.0150955182342795,0.0137128371074954,-8.812574189306697e-05,high
1200,8.585858585858587,5.5696202531645564,cathode,0.0143305258641499,0.0150484724404312,0.0134836506563045,4.816301897987985e-05,high
1200,8.686868686868687,5.5696202531645564,cathode,0.0145230517107804,0.015264860450621,0.0136412555974232,0.0001304801501569,high
1200,8.787878787878787,5.5696202531645564,cathode,0.0146369948163664,0.0153038593086216,0.0138636551870876,5.342352084853503e-07,high
1200,8.88888888888889,5.5696202531645564,cathode,0.014795881184201,0.0154832886515217,0.0139940029304091,-9.47651414802124e-05,high
1200,8.98989898989899,5.5696202531645564,cathode,0.0147308002100753,0.0153756708252234,0.0139858182565831,8.840613096722947e-05,high
1200,9.09090909090909,5.5696202531645564,cathode,0.0148937810247813,0.015624229594478,0.0140355341691485,4.601347540151939e-05,high
1200,9.191919191919192,5.5696202531645564,cathode,0.0151329385420615,0.0157771131071014,0.0143937528702259,-9.59693737006172e-06,critical
1200,9.292929292929292,5.5696202531645564,cathode,0.0152981942502507,0.0159777352173743,0.0145133254636361,-7.746181981200235e-06,critical
1200,9.393939393939394,5.5696202531645564,cathode,0.0154096655187694,0.0161942700585845,0.0144820391538894,-1.106387164238876e-06,critical
1200,9.494949494949497,5.5696202531645564,cathode,0.0154868395590552,0.0162673224780505,0.014565831314921,4.170891363599048e-06,critical
1200,9.595959595959595,5.5696202531645564,cathode,0.0155986737676931,0.0163311720608885,0.0147424447177928,-0.0001051466528346,critical
1200,9.696969696969695,5.5696202531645564,cathode,0.0158363917882755,0.0164705268239168,0.0151147986263275,-3.919911985211612e-05,critical
1200,9.797979797979798,5.5696202531645564,cathode,0.0160190298324327,0.0167949689465547,0.0151097918849152,1.834436550107069e-05,critical
1200,9.8989898989899,5.5696202531645564,cathode,0.0162134063144519,0.016972718426779,0.0153284023759369,-4.513529034808813e-05,critical
1200,10.0,5.5696202531645564,cathode,0.0164314044848535,0.0173870192134802,0.0152693498308794,-7.756898866777697e-05,critical
1200,0.0,5.670886075949367,cathode,0.0164290284578,0.0173055241534989,0.015383086433103,4.014745727585052e-05,critical
1200,0.101010101010101,5.670886075949367,cathode,0.0161218918732969,0.0168171661368354,0.0153224866921418,1.324890801126504e-05,critical
1200,0.202020202020202,5.670886075949367,cathode,0.0159331291581468,0.016654621684957,0.015096555364239,5.661499514221419e-05,critical
1200,0.303030303030303,5.670886075949367,cathode,0.0158842184244491,0.016680143466099,0.0149453480768659,-5.269358023757364e-05,critical
1200,0.404040404040404,5.670886075949367,cathode,0.0158241572332491,0.0166414380342243,0.0148552883928623,-9.315415565622166e-06,critical
1200,0.5050505050505051,5.670886075949367,cathode,0.0154556885183493,0.0162489803664612,0.0145162741131979,2.1475230796965026e-05,critical
1200,0.6060606060606061,5.670886075949367,cathode,0.0154512028578425,0.0162972680174853,0.0144329887343779,-0.0001236214804333,critical
1200,0.7070707070707071,5.670886075949367,cathode,0.0152234458198011,0.0160358751952833,0.0142541345778801,1.9831734319055483e-05,critical
1200,0.8080808080808081,5.670886075949367,cathode,0.0151825460579582,0.0158740236502313,0.0143799321659653,-5.77700828327096e-05,critical
1200,0.9090909090909092,5.670886075949367,cathode,0.0148911120676373,0.015715561387576,0.013900208354666,6.690266222739204e-06,high
1200,1.0101010101010102,5.670886075949367,cathode,0.0149329498089635,0.0154721470361496,0.0143278373501423,1.948630370932212e-05,high
1200,1.1111111111111112,5.670886075949367,cathode,0.0147919476006351,0.0155080386286203,0.0139529447695719,-1.402901704002109e-05,high
1200,1.2121212121212122,5.670886075949367,cathode,0.0145148034816215,0.0151575234404182,0.0137726992370753,2.4293429352657136e-05,high
1200,1.3131313131313131,5.670886075949367,cathode,0.0146205273423095,0.0153057381099755,0.0138221490702852,1.4018341609344548e-05,high
1200,1.414141414141414,5.670886075949367,cathode,0.0145072681604739,0.0152134934778761,0.0136790386382386,-1.0209775614965198e-05,high
1200,1.5151515151515151,5.670886075949367,cathode,0.0143848267416763,0.0151039375905774,0.0135364739368796,-6.387629522235467e-05,high
1200,1.616161616161616,5.670886075949367,cathode,0.0142254291228574,0.0149442966617379,0.0133753921119775,7.198276348922267e-05,high
1200,1.7171717171717171,5.670886075949367,cathode,0.014160153069044,0.0148174416242467,0.0133948601963593,5.365940515513544e-05,high
1200,1.818181818181818,5.670886075949367,cathode,0.0139677774897601,0.0146627559891693,0.0131494729938578,2.056440647497154e-05,high
1200,1.9191919191919191,5.670886075949367,cathode,0.0140667126651935,0.0147179431560686,0.0133090620971843,-4.258309558132738e-05,high
1200,2.0202020202020203,5.670886075949367,cathode,0.0139826393137326,0.0146074351370969,0.0132595984705964,-5.420299865941269e-05,high
1200,2.121212121212121,5.670886075949367,cathode,0.013873883183966,0.0145593235251041,0.0130664931235788,-7.48137016986693e-05,high
1200,2.2222222222222223,5.670886075949367,cathode,0.0138414036747452,0.0145527457753486,0.0129982066015585,-5.249582988051882e-05,high
1200,2.323232323232323,5.670886075949367,cathode,0.0136802312139431,0.0143599170223112,0.0128801943544156,-1.443066654067187e-05,high
1200,2.4242424242424243,5.670886075949367,cathode,0.0138097020276487,0.0145221202568872,0.0129653468812967,2.359717550770521e-07,high
1200,2.525252525252525,5.670886075949367,cathode,0.0137294148939467,0.0143380715349178,0.0130265119775681,-2.298022929496326e-05,high
1200,2.6262626262626263,5.670886075949367,cathode,0.0135849612669938,0.0141262530767404,0.0129697124248084,6.983331656599007e-06,high
1200,2.727272727272727,5.670886075949367,cathode,0.0136089577509273,0.0142250078522533,0.0128952779855184,-6.296746485185226e-06,high
1200,2.8282828282828283,5.670886075949367,cathode,0.0134694838466759,0.014131641080298,0.0126915187234261,1.8755708126890342e-05,high
1200,2.929292929292929,5.670886075949367,cathode,0.0134441647314948,0.0141247423626758,0.0126402308017056,2.440815481107529e-05,high
1200,3.0303030303030303,5.670886075949367,cathode,0.0133810470980546,0.014028621185545,0.0126217324403178,5.027387786044605e-05,high
1200,3.131313131313131,5.670886075949367,cathode,0.0134677422939284,0.0141372188880011,0.012678343344777,-7.129666356561426e-05,high
1200,3.2323232323232323,5.670886075949367,cathode,0.0132711480838541,0.0138520823363084,0.0126000563948345,7.912833896935888e-05,high
1200,3.333333333333333,5.670886075949367,cathode,0.0134848697609457,0.0140751671507337,0.012804139366459,-4.3966036401667175e-05,high
1200,3.4343434343434343,5.670886075949367,cathode,0.0133357093195728,0.0140280721135448,0.0125140251381199,-1.9644711677911532e-05,high
1200,3.5353535353535355,5.670886075949367,cathode,0.0132488804658763,0.0138150680765866,0.0125988136270485,-5.500641048272703e-06,high
1200,3.636363636363636,5.670886075949367,cathode,0.013356491765657,0.0139885197141093,0.0126188806865366,-1.290951330966972e-05,high
1200,3.7373737373737375,5.670886075949367,cathode,0.0132557785587587,0.0138551231552805,0.0125606671290325,-5.904464335527152e-05,high
1200,3.8383838383838382,5.670886075949367,cathode,0.013310518576974,0.0140409561300092,0.0124318890652241,9.164967910761186e-05,high
1200,3.939393939393939,5.670886075949367,cathode,0.0133593486525787,0.0140772968936268,0.0125014765629242,-2.5752161707319105e-05,high
1200,4.040404040404041,5.670886075949367,cathode,0.0132965435043428,0.0140495687449947,0.0123869710993826,-2.730218945145264e-05,high
1200,4.141414141414141,5.670886075949367,cathode,0.0133955822753226,0.0140673313177859,0.012603317992561,3.286119155854613e-05,high
1200,4.242424242424242,5.670886075949367,cathode,0.013232218204002,0.0138255703851321,0.0125458046885778,-1.7249156437488743e-05,high
1200,4.343434343434343,5.670886075949367,cathode,0.0132078642602604,0.0138758486940511,0.0124186515938873,4.051513224376564e-05,high
1200,4.444444444444445,5.670886075949367,cathode,0.0132592853357481,0.013929545442777,0.0124678619822628,-1.2636189316915848e-05,high
1200,4.545454545454545,5.670886075949367,cathode,0.0132600307890964,0.0138926199385652,0.0125201327849598,4.915682101608788e-05,high
1200,4.646464646464646,5.670886075949367,cathode,0.0131946778588821,0.0138789403331633,0.012378472716979,0.0001265391610193,high
1200,4.747474747474747,5.670886075949367,cathode,0.0132174897519708,0.0138714379044839,0.0124483088405034,-1.6288173894411475e-05,high
1200,4.848484848484849,5.670886075949367,cathode,0.0131490894016278,0.0137633261695314,0.0124322374056513,-7.706353146228876e-05,high
1200,4.94949494949495,5.670886075949367,cathode,0.0133167702143818,0.0139444775678189,0.0125845759612338,-2.3800357953633283e-05,high
1200,5.05050505050505,5.670886075949367,cathode,0.0130694930172515,0.0136949846571974,0.0123381244025835,7.155078881483672e-06,high
1200,5.151515151515151,5.670886075949367,cathode,0.0131042812522043,0.0136882005723259,0.0124258749610201,0.0001166939513277,high
1200,5.252525252525253,5.670886075949367,cathode,0.0131488107965407,0.0137900787946285,0.0123964800595852,-1.495695144738029e-05,high
1200,5.353535353535354,5.670886075949367,cathode,0.0132422947780839,0.0139037588853849,0.0124625011112641,4.295912144729647e-05,high
1200,5.454545454545454,5.670886075949367,cathode,0.0132586892567417,0.013889840226962,0.0125213564793557,-1.227621397230529e-05,high
1200,5.555555555555555,5.670886075949367,cathode,0.0131816444790335,0.0137605430663202,0.0125142167943423,9.756362951018249e-07,high
1200,5.656565656565657,5.670886075949367,cathode,0.0131491947172296,0.0137968447293062,0.012387342001607,-5.288215590947266e-05,high
1200,5.757575757575758,5.670886075949367,cathode,0.0131533255966046,0.0137869721670736,0.0124113136871754,-3.2153978871610615e-05,high
1200,5.858585858585858,5.670886075949367,cathode,0.0131422252339703,0.0138724247402009,0.0122639399910528,-9.5980543702606e-06,high
1200,5.959595959595959,5.670886075949367,cathode,0.0132575901361796,0.0138276003061894,0.0126018005215398,5.307339791867671e-05,high
1200,6.0606060606060606,5.670886075949367,cathode,0.0131338842636875,0.0137159636250612,0.0124617382160901,-1.9029788073955378e-05,high
1200,6.161616161616162,5.670886075949367,cathode,0.0132774518617007,0.0138916058546504,0.0125626650978775,-5.4931415053998095e-05,high
1200,6.262626262626262,5.670886075949367,cathode,0.0133025284401302,0.0139167568962422,0.0125886653862939,3.6520535330588807e-06,high
1200,6.363636363636363,5.670886075949367,cathode,0.0133107305531234,0.0139919057873685,0.0125045989126999,-9.936852106542664e-06,high
1200,6.4646464646464645,5.670886075949367,cathode,0.0133303462285495,0.0140898201975915,0.0124108251204317,-6.534945356165677e-05,high
1200,6.565656565656566,5.670886075949367,cathode,0.013389417002414,0.0140676075756069,0.0125882790803627,-1.918951907576354e-05,high
1200,6.666666666666667,5.670886075949367,cathode,0.0133146618415643,0.0139012599449281,0.0126379219449588,1.965479126310032e-05,high
1200,6.767676767676767,5.670886075949367,cathode,0.0134236257835478,0.0140714949213032,0.0126649619314342,-1.2201481646614884e-05,high
1200,6.8686868686868685,5.670886075949367,cathode,0.0134522745370933,0.0141464901709292,0.0126288169316264,-4.804014403151783e-05,high
1200,6.96969696969697,5.670886075949367,cathode,0.0135285595522306,0.014169560634225,0.0127784494179774,8.508682403184137e-05,high
1200,7.070707070707071,5.670886075949367,cathode,0.0136534224095779,0.0142846991377976,0.0129188967743638,-5.155509787840416e-05,high
1200,7.171717171717171,5.670886075949367,cathode,0.013532533856484,0.0141264060120892,0.0128448100809153,0.0001095172663661,high
1200,7.272727272727272,5.670886075949367,cathode,0.0136410077504694,0.014266269564609,0.0129151291703121,-1.6308258121854315e-05,high
1200,7.373737373737374,5.670886075949367,cathode,0.0137485357355317,0.0144233178953072,0.0129558396800907,2.914476781270391e-05,high
1200,7.474747474747475,5.670886075949367,cathode,0.0137137083178883,0.0142672865167162,0.0130825731806418,5.606601858892902e-05,high
1200,7.575757575757575,5.670886075949367,cathode,0.01378866817598,0.0144010135797503,0.0130814201305474,1.0555467358536852e-05,high
1200,7.6767676767676765,5.670886075949367,cathode,0.0137800041721774,0.0143511403599252,0.0131271238463039,1.9163499866523248e-05,high
1200,7.777777777777778,5.670886075949367,cathode,0.0139017297120091,0.0146116122913468,0.013061413135777,4.714108877004381e-05,high
1200,7.878787878787879,5.670886075949367,cathode,0.0137759294848114,0.014327244138437,0.0131475044015728,7.514863327757107e-05,high
1200,7.979797979797979,5.670886075949367,cathode,0.0140832643046584,0.0147748602827613,0.0132704922839446,4.29768164527868e-05,high
1200,8.080808080808081,5.670886075949367,cathode,0.0141593782644521,0.0148162216009817,0.0133949978205224,4.0248180785539565e-05,high
1200,8.181818181818182,5.670886075949367,cathode,0.0140708464299009,0.0147507995623989,0.0132740114139283,4.295060162523215e-05,high
1200,8.282828282828282,5.670886075949367,cathode,0.0140926362314962,0.0147060622621845,0.0133839998391302,-9.765918886797404e-05,high
1200,8.383838383838384,5.670886075949367,cathode,0.0142290463169427,0.0148918036507659,0.0134576550903904,8.559412961157556e-06,high
1200,8.484848484848484,5.670886075949367,cathode,0.0144141276944848,0.0150663492789633,0.0136585711569129,-1.2031214494563425e-05,high
1200,8.585858585858587,5.670886075949367,cathode,0.0144280485046433,0.0150494551216076,0.0137136472030624,-2.067785485441945e-05,high
1200,8.686868686868687,5.670886075949367,cathode,0.0144643594125076,0.015103652448173,0.0137258373518745,5.489945885130221e-05,high
1200,8.787878787878787,5.670886075949367,cathode,0.014621159982185,0.0153148229246297,0.0138100270771767,-7.254748061975228e-05,high
1200,8.88888888888889,5.670886075949367,cathode,0.0148154313369214,0.0154288011647392,0.0141144500313362,-1.2161606572606063e-05,high
1200,8.98989898989899,5.670886075949367,cathode,0.0148247267957285,0.0154861490370646,0.0140600530228671,-2.998969339459106e-05,high
1200,9.09090909090909,5.670886075949367,cathode,0.0149780307957287,0.015760390215614,0.0140478557798585,-5.460018592586768e-05,high
1200,9.191919191919192,5.670886075949367,cathode,0.0150283472128506,0.0157183117388935,0.0142270813927035,-2.4162915600276857e-05,critical
1200,9.292929292929292,5.670886075949367,cathode,0.0150751870728238,0.0158295040757335,0.0141862244181398,-2.127433400850236e-08,critical
1200,9.393939393939394,5.670886075949367,cathode,0.015375704813911,0.0159997886270238,0.0146643553165853,-2.787460589661964e-05,critical
1200,9.494949494949497,5.670886075949367,cathode,0.015582232201249,0.0163022583619172,0.0147450285755695,-3.526269685326254e-05,critical
1200,9.595959595959595,5.670886075949367,cathode,0.0157157264239577,0.0164865495606759,0.0148104776722583,1.9713756348852166e-05,critical
1200,9.696969696969695,5.670886075949367,cathode,0.0157563310593108,0.0164680966263536,0.0149317398542147,3.760142072487729e-05,critical
1200,9.797979797979798,5.670886075949367,cathode,0.0159546940258904,0.0167491189634195,0.015019265083007,1.1681806174690352e-05,critical
1200,9.8989898989899,5.670886075949367,cathode,0.016079101268739,0.0167545549415795,0.0153055466663734,-9.130463428290332e-06,critical
1200,10.0,5.670886075949367,cathode,0.0162831406072396,0.0170413517985477,0.0154004167745277,3.687900530971509e-05,critical
1200,0.0,5.772151898734177,cathode,0.0163554462563107,0.0169629770027566,0.0156709452445813,-4.2396476433663855e-05,critical
1200,0.101010101010101,5.772151898734177,cathode,0.0161121771840414,0.0168720428306965,0.0152253214686736,5.255611356138563e-05,critical
1200,0.202020202020202,5.772151898734177,cathode,0.0160641343987322,0.016921538962605,0.0150404902498061,5.7236182711706176e-05,critical
1200,0.303030303030303,5.772151898734177,cathode,0.0157582713228242,0.0164488834480201,0.0149607311501253,-8.40532300378146e-05,critical
1200,0.404040404040404,5.772151898734177,cathode,0.0156848938389864,0.01651620670665,0.0146926478255075,-8.89179269234306e-05,critical
1200,0.5050505050505051,5.772151898734177,cathode,0.0155118100053056,0.016337741398974,0.0145259833606387,6.330544819232848e-05,critical
1200,0.6060606060606061,5.772151898734177,cathode,0.0151904047123556,0.0158858654576922,0.0143830196964495,-3.232217986971517e-05,critical
1200,0.7070707070707071,5.772151898734177,cathode,0.0151225890511971,0.0158011420114569,0.0143376087231136,7.71117532325037e-06,critical
1200,0.8080808080808081,5.772151898734177,cathode,0.0151331777223465,0.0157709195702843,0.0144024638612074,9.962921107544548e-06,critical
1200,0.9090909090909092,5.772151898734177,cathode,0.0150236029210842,0.015798127116785,0.0141053560958134,4.0670922404903166e-05,critical
1200,1.0101010101010102,5.772151898734177,cathode,0.0148906699447742,0.0156193015556616,0.014035000067491,4.1399721856237865e-05,high
1200,1.1111111111111112,5.772151898734177,cathode,0.0146862643464777,0.0153674205131071,0.0138912935115712,-0.0001065530644752,high
1200,1.2121212121212122,5.772151898734177,cathode,0.0146430002293799,0.0153557946754593,0.0138046285332572,-0.0001004954214903,high
1200,1.3131313131313131,5.772151898734177,cathode,0.0145093130149482,0.0152690198311734,0.0136063499230509,-4.695296252991866e-06,high
1200,1.414141414141414,5.772151898734177,cathode,0.0144024139001136,0.0151329217852488,0.0135363290399408,0.0001098622394907,high
1200,1.5151515151515151,5.772151898734177,cathode,0.0143685295777353,0.0149957280467882,0.0136453419606831,5.556526755629021e-05,high
1200,1.616161616161616,5.772151898734177,cathode,0.0142725006699668,0.0149385312903995,0.0134969910197426,1.8387927302233933e-05,high
1200,1.7171717171717171,5.772151898734177,cathode,0.0142197588688628,0.0148698693022898,0.0134633345704128,9.16095002141647e-05,high
1200,1.818181818181818,5.772151898734177,cathode,0.0140757804999787,0.0147318101193498,0.013311432871379,-5.361492142790342e-05,high
1200,1.9191919191919191,5.772151898734177,cathode,0.0139180356480023,0.0146224593971077,0.0130859485476346,2.6453721144177836e-05,high
1200,2.0202020202020203,5.772151898734177,cathode,0.014002492125358,0.0147024725855704,0.0131775542016693,2.436013302990706e-05,high
1200,2.121212121212121,5.772151898734177,cathode,0.0138934909936152,0.0146104746693572,0.0130435423819168,-2.213313173659367e-05,high
1200,2.2222222222222223,5.772151898734177,cathode,0.0138592970459537,0.0145324092659346,0.0130696918595272,4.640874440217981e-05,high
1200,2.323232323232323,5.772151898734177,cathode,0.0137827033957662,0.0144450478729136,0.013006463851433,6.927221072235958e-05,high
1200,2.4242424242424243,5.772151898734177,cathode,0.0136996643041365,0.0143693834967819,0.0129134432402537,3.066937843585296e-05,high
1200,2.525252525252525,5.772151898734177,cathode,0.0136919710169202,0.0142341089879272,0.0130762935073322,6.992843615177109e-06,high
1200,2.6262626262626263,5.772151898734177,cathode,0.0136761214267459,0.0143467071293369,0.0128886261205413,-1.782133516397845e-05,high
1200,2.727272727272727,5.772151898734177,cathode,0.0134969008690322,0.0141666599743158,0.0127075800243764,6.69663259160851e-05,high
1200,2.8282828282828283,5.772151898734177,cathode,0.0134919898953513,0.0140724300843626,0.0128239137624977,-6.15589139368474e-05,high
1200,2.929292929292929,5.772151898734177,cathode,0.0135251339965988,0.0141736555877223,0.0127665418076608,-1.5425172830731408e-05,high
1200,3.0303030303030303,5.772151898734177,cathode,0.0135020360129617,0.0142205887788606,0.0126450955302656,-2.6419144775251804e-05,high
1200,3.131313131313131,5.772151898734177,cathode,0.0135204059625836,0.0141618997778125,0.0127702306635742,6.808737635494135e-05,high
1200,3.2323232323232323,5.772151898734177,cathode,0.0133343181709678,0.0140242297920388,0.0125161756850714,5.4763153744212935e-06,high
1200,3.333333333333333,5.772151898734177,cathode,0.0134885128497724,0.0141605126455633,0.0126970910239911,-1.8779855296679985e-05,high
1200,3.4343434343434343,5.772151898734177,cathode,0.0133352985381879,0.0140020927851965,0.0125493111187874,-3.159038240597548e-05,high
1200,3.5353535353535355,5.772151898734177,cathode,0.0133612081757027,0.014083750824674,0.012496911174745,1.212128547509602e-05,high
1200,3.636363636363636,5.772151898734177,cathode,0.0132805113488393,0.0139402061210472,0.0125039124238593,2.533504782768965e-05,high
1200,3.7373737373737375,5.772151898734177,cathode,0.0133266195907083,0.0140555943814519,0.0124487273567157,-0.0001190319130693,high
1200,3.8383838383838382,5.772151898734177,cathode,0.0131989792675487,0.0138123772066292,0.0124852205858478,-1.943166997808533e-05,high
1200,3.939393939393939,5.772151898734177,cathode,0.0132812385935744,0.013844314658598,0.0126321967203829,-0.0001124906766744,high
1200,4.040404040404041,5.772151898734177,cathode,0.0131892744223535,0.0138095418675797,0.0124661703903231,-8.385079856344504e-06,high
1200,4.141414141414141,5.772151898734177,cathode,0.0133460583829619,0.0140084355376209,0.0125650120324244,7.668520158502737e-05,high
1200,4.242424242424242,5.772151898734177,cathode,0.0132997328287979,0.0140310050791993,0.0124215745431686,4.26269095187717e-05,high
1200,4.343434343434343,5.772151898734177,cathode,0.0134286377011099,0.0141524118740594,0.0125617721853326,-7.916660362467387e-05,high
1200,4.444444444444445,5.772151898734177,cathode,0.013186355896227,0.0137770258907843,0.0125006568674912,-9.83033114090278e-05,high
1200,4.545454545454545,5.772151898734177,cathode,0.0132538512984476,0.0138762507022321,0.0125284394870687,8.40514389024156e-06,high
1200,4.646464646464646,5.772151898734177,cathode,0.0132775298536882,0.0140168546338677,0.0123876713431739,2.8120879002670383e-05,high
1200,4.747474747474747,5.772151898734177,cathode,0.0130499379758394,0.0136780874031123,0.0123144600830998,3.2354116655975694e-05,high
1200,4.848484848484849,5.772151898734177,cathode,0.0131395786796412,0.0138732583766289,0.012255973856163,-2.9589945275784247e-05,high
1200,4.94949494949495,5.772151898734177,cathode,0.0133188856979102,0.0140405201208414,0.012455340419435,-1.2433519764025898e-05,high
1200,5.05050505050505,5.772151898734177,cathode,0.0131964063439187,0.0138415177816511,0.0124365622481768,-0.0001005697801329,high
1200,5.151515151515151,5.772151898734177,cathode,0.0132152878843755,0.0138431627419447,0.0124812596642153,-5.460499852126926e-05,high
1200,5.252525252525253,5.772151898734177,cathode,0.0130856344642106,0.0137433384587209,0.0123095357772025,-3.6160501375536926e-05,high
1200,5.353535353535354,5.772151898734177,cathode,0.0130429516244174,0.013576236943641,0.0124340408317814,4.65138680924187e-05,high
1200,5.454545454545454,5.772151898734177,cathode,0.0131340322312219,0.013766089592503,0.0123940021811191,3.2834693714631506e-05,high
1200,5.555555555555555,5.772151898734177,cathode,0.0132010087162194,0.0138711382945759,0.0124082729210465,5.711491326669409e-05,high
1200,5.656565656565657,5.772151898734177,cathode,0.0131832547794284,0.0138878513932286,0.0123422788903579,-2.3644129791758507e-05,high
1200,5.757575757575758,5.772151898734177,cathode,0.0133350734881601,0.0140168374773081,0.0125279177837135,4.287803348489047e-05,high
1200,5.858585858585858,5.772151898734177,cathode,0.0131911381111509,0.013899918087268,0.0123441987750538,-2.892670541557278e-05,high
1200,5.959595959595959,5.772151898734177,cathode,0.0131970192726875,0.0137872079953251,0.0125129513783526,-7.942390288963554e-05,high
1200,6.0606060606060606,5.772151898734177,cathode,0.0133589224105421,0.0140311063901398,0.0125659447720527,6.866526386320107e-07,high
1200,6.161616161616162,5.772151898734177,cathode,0.0132568259896481,0.0138814736019819,0.0125282054661196,2.67532809464063e-05,high
1200,6.262626262626262,5.772151898734177,cathode,0.0133301632748592,0.0140233578710559,0.012506853692358,4.235894838282346e-05,high
1200,6.363636363636363,5.772151898734177,cathode,0.0133896177498739,0.0140407697588296,0.0126261009632827,-1.1534144322205305e-05,high
1200,6.4646464646464645,5.772151898734177,cathode,0.0132815753791812,0.0139452074927294,0.0124996516001765,-1.1218483095060635e-05,high
1200,6.565656565656566,5.772151898734177,cathode,0.0133709177990252,0.0141377258852813,0.012441269304533,6.382989235539009e-05,high
1200,6.666666666666667,5.772151898734177,cathode,0.0133346410831148,0.0139909331807615,0.0125631254192496,3.728060001518398e-05,high
1200,6.767676767676767,5.772151898734177,cathode,0.013370697461372,0.0141377218394747,0.0124405565478501,-6.844115400300633e-05,high
1200,6.8686868686868685,5.772151898734177,cathode,0.0134052632639448,0.013998572419524,0.0127203004230961,-1.8772391105531342e-05,high
1200,6.96969696969697,5.772151898734177,cathode,0.0134647772239829,0.0140248551414604,0.0128241937440659,-1.981862549118156e-05,high
1200,7.070707070707071,5.772151898734177,cathode,0.0136048347297319,0.0142878146703341,0.0127993880163887,1.663577759151227e-05,high
1200,7.171717171717171,5.772151898734177,cathode,0.0135685950421723,0.0143012015501651,0.0126917907539282,5.388476275482573e-05,high
1200,7.272727272727272,5.772151898734177,cathode,0.0135837739859561,0.0142970749947013,0.0127352210711359,3.223504745007384e-05,high
1200,7.373737373737374,5.772151898734177,cathode,0.0135584231401724,0.0142148675951226,0.0127890945711064,3.0129399660152817e-05,high
1200,7.474747474747475,5.772151898734177,cathode,0.0136882722194253,0.0144037881022052,0.0128375988434734,-4.394722751778932e-05,high
1200,7.575757575757575,5.772151898734177,cathode,0.0138265953544247,0.0144934812368002,0.0130455959177733,-2.7492670666287727e-05,high
1200,7.6767676767676765,5.772151898734177,cathode,0.0137144047772874,0.014314271281919,0.0130221656164623,-6.46787766825129e-05,high
1200,7.777777777777778,5.772151898734177,cathode,0.0138847220302074,0.0144731148551613,0.0132069306115699,-0.0001108447743641,high
1200,7.878787878787879,5.772151898734177,cathode,0.0139188390598187,0.0145442934402726,0.0131945137632537,-4.931403506785636e-05,high
1200,7.979797979797979,5.772151898734177,cathode,0.0139686332944517,0.0146493398761845,0.0131691236084681,6.508533813356378e-05,high
1200,8.080808080808081,5.772151898734177,cathode,0.0141217281058576,0.0148966405440309,0.0131913329734039,-5.349512098931865e-05,high
1200,8.181818181818182,5.772151898734177,cathode,0.0141736592756555,0.01482598500917,0.0134150684990781,5.86725364612727e-05,high
1200,8.282828282828282,5.772151898734177,cathode,0.0142442368621238,0.0150681762717926,0.0132446539074965,9.490945766000604e-06,high
1200,8.383838383838384,5.772151898734177,cathode,0.0142778359982037,0.0150120156400658,0.0134080504250162,-2.603649603043928e-05,high
1200,8.484848484848484,5.772151898734177,cathode,0.014322801239712,0.0150766638342255,0.0134255496379779,3.6325297635886e-05,high
1200,8.585858585858587,5.772151898734177,cathode,0.0145366376251592,0.015297884743747,0.0136316752140193,2.437867906888274e-05,high
1200,8.686868686868687,5.772151898734177,cathode,0.01458864052325,0.0152311983096922,0.0138451965875987,-9.74622671883758e-05,high
1200,8.787878787878787,5.772151898734177,cathode,0.0145885573068968,0.0153256264462127,0.0137163686521081,-9.009529764689775e-05,high
1200,8.88888888888889,5.772151898734177,cathode,0.0147591299688359,0.0154752909119359,0.013918986391752,5.6184416003400506e-05,high
1200,8.98989898989899,5.772151898734177,cathode,0.0149851080975024,0.0157627894571434,0.0140597806706019,0.0001030586281061,high
1200,9.09090909090909,5.772151898734177,cathode,0.0149803802172855,0.0157771840653256,0.0140304236085996,-3.811119314619029e-06,high
1200,9.191919191919192,5.772151898734177,cathode,0.0150007295578906,0.0157435553356901,0.0141254915561611,-7.810018374238908e-05,critical
1200,9.292929292929292,5.772151898734177,cathode,0.0152554086330861,0.0159083794118651,0.0145053974822123,-2.4273446113566416e-05,critical
1200,9.393939393939394,5.772151898734177,cathode,0.0152817005683306,0.0159659471036366,0.0144901264503378,-3.5276187972766644e-05,critical
1200,9.494949494949497,5.772151898734177,cathode,0.0154064331007221,0.0160864476589924,0.0146208430251667,-6.52121912033298e-05,critical
1200,9.595959595959595,5.772151898734177,cathode,0.0156013270066529,0.0162872779775111,0.0148100118309783,3.790144876413707e-05,critical
1200,9.696969696969695,5.772151898734177,cathode,0.0157333211074959,0.0164685904834825,0.0148761798574645,-6.300116005592422e-05,critical
1200,9.797979797979798,5.772151898734177,cathode,0.0159176682951129,0.0165599661485126,0.0151859596974754,4.199882094176274e-05,critical
1200,9.8989898989899,5.772151898734177,cathode,0.0161403848907618,0.016938343494364,0.0152010809986966,6.535034176727944e-05,critical
1200,10.0,5.772151898734177,cathode,0.0164520495316795,0.0171774470811777,0.0156145908709044,5.355956075146181e-05,critical
1200,0.0,5.873417721518988,cathode,0.0162620983551869,0.0169996935470754,0.0154072355763291,2.3361792078450333e-05,critical
1200,0.101010101010101,5.873417721518988,cathode,0.0161272380231379,0.0168481766551518,0.0152927703059312,-6.638695344196425e-05,critical
1200,0.202020202020202,5.873417721518988,cathode,0.0161759268237768,0.0170391212548391,0.0151461460605396,8.836532302519645e-06,critical
1200,0.303030303030303,5.873417721518988,cathode,0.0157583522561594,0.0165529200629299,0.0148205588578298,1.8836336007529198e-05,critical
1200,0.404040404040404,5.873417721518988,cathode,0.0155931348689835,0.016351273184298,0.0147039144489003,3.804473990705029e-05,critical
1200,0.5050505050505051,5.873417721518988,cathode,0.0154732911865411,0.0161812107192546,0.0146512269373192,-4.9326808550451285e-05,critical
1200,0.6060606060606061,5.873417721518988,cathode,0.0154855422269796,0.0161988854073432,0.0146567595148774,-1.5253096602970375e-05,critical
1200,0.7070707070707071,5.873417721518988,cathode,0.0152181649964749,0.015973025055673,0.0143298592653788,-2.1220708268366797e-05,critical
1200,0.8080808080808081,5.873417721518988,cathode,0.0150798221972129,0.0159680261584741,0.0139979589390796,-5.719736358859676e-06,critical
1200,0.9090909090909092,5.873417721518988,cathode,0.0149031385550443,0.0155581099935838,0.0141479096434468,6.81545525178144e-06,high
1200,1.0101010101010102,5.873417721518988,cathode,0.014889346663607,0.015610795257477,0.0140436470488247,3.738009144261247e-05,high
1200,1.1111111111111112,5.873417721518988,cathode,0.0147210584884563,0.0154327436634776,0.0138874578768149,-5.0763459161242455e-06,high
1200,1.2121212121212122,5.873417721518988,cathode,0.0147210779633064,0.0154781317059274,0.0138239440392004,-4.071457920836623e-05,high
1200,1.3131313131313131,5.873417721518988,cathode,0.0145200148115876,0.015134226583771,0.0138129862210193,-0.0001099860069092,high
1200,1.414141414141414,5.873417721518988,cathode,0.0144325602218236,0.0151145847265507,0.0136365167777032,-3.569072489167093e-05,high
1200,1.5151515151515151,5.873417721518988,cathode,0.014422697932491,0.0150641865964468,0.0136808223779208,-5.790220761114417e-05,high
1200,1.616161616161616,5.873417721518988,cathode,0.0143596473599716,0.0149558613551787,0.0136780085006784,7.430430286273433e-06,high
1200,1.7171717171717171,5.873417721518988,cathode,0.0141747741287776,0.0148318920266611,0.013408951554217,-8.029190674412368e-05,high
1200,1.818181818181818,5.873417721518988,cathode,0.0141973392897519,0.0149145412127411,0.0133498885553027,-5.4289122122074966e-05,high
1200,1.9191919191919191,5.873417721518988,cathode,0.0139602247542531,0.0146742046334102,0.0131153042837572,1.8672616484907967e-05,high
1200,2.0202020202020203,5.873417721518988,cathode,0.013945394933115,0.0145511680828885,0.0132465669472886,-7.965246660717091e-05,high
1200,2.121212121212121,5.873417721518988,cathode,0.0137896878960479,0.0144500810701467,0.013017412550076,9.772578389854038e-06,high
1200,2.2222222222222223,5.873417721518988,cathode,0.0139799293138654,0.0146666797767521,0.0131727306285442,-4.588990074375823e-05,high
1200,2.323232323232323,5.873417721518988,cathode,0.0138036046795248,0.0144712641229105,0.0130209155278278,4.790050813261744e-05,high
1200,2.4242424242424243,5.873417721518988,cathode,0.0136914348919796,0.0143329703586124,0.012943974889685,-1.2550858384826682e-05,high
1200,2.525252525252525,5.873417721518988,cathode,0.0138156441162211,0.0143971043719214,0.0131490944241309,-4.323846986437699e-05,high
1200,2.6262626262626263,5.873417721518988,cathode,0.0135246854488629,0.0142113941276704,0.0127131577604205,1.5370295472586702e-05,high
1200,2.727272727272727,5.873417721518988,cathode,0.0136394930750307,0.0142798838523378,0.0128921393459947,6.240742467974692e-05,high
1200,2.8282828282828283,5.873417721518988,cathode,0.0135650106935043,0.0142938968872921,0.0126941792317912,1.940386160377336e-05,high
1200,2.929292929292929,5.873417721518988,cathode,0.0135448215780168,0.014018115997173,0.0130157782207807,1.6549621779243395e-05,high
1200,3.0303030303030303,5.873417721518988,cathode,0.0135262815026946,0.0142289981615368,0.0126890166568518,-0.0001106850988354,high
1200,3.131313131313131,5.873417721518988,cathode,0.0134059005342614,0.0139849590003097,0.0127385745047853,7.360401260338002e-05,high
1200,3.2323232323232323,5.873417721518988,cathode,0.0133551037274639,0.0140002109647504,0.0125988494959461,5.301178701070128e-05,high
1200,3.333333333333333,5.873417721518988,cathode,0.0135261585248608,0.0141582612536404,0.0127900372291709,-8.92420194264262e-06,high
1200,3.4343434343434343,5.873417721518988,cathode,0.0133734305656746,0.0140792670422708,0.0125323532908794,5.583992091567058e-05,high
1200,3.5353535353535355,5.873417721518988,cathode,0.0132265611510553,0.013802741771389,0.0125630618719409,-1.1758020321025392e-05,high
1200,3.636363636363636,5.873417721518988,cathode,0.0132625113659005,0.0138883381573897,0.0125323387967618,-2.654776961209288e-05,high
1200,3.7373737373737375,5.873417721518988,cathode,0.0132331807737157,0.013908011928764,0.0124351076982018,-3.2423053979173025e-07,high
1200,3.8383838383838382,5.873417721518988,cathode,0.0131973450243988,0.0138619875091208,0.0124121030354016,-6.14639928075916e-05,high
1200,3.939393939393939,5.873417721518988,cathode,0.0133342559480983,0.014018573016585,0.0125230171019222,-6.017907795612096e-05,high
1200,4.040404040404041,5.873417721518988,cathode,0.0132516469915762,0.013945164702843,0.0124260841145267,-7.012504806023232e-05,high
1200,4.141414141414141,5.873417721518988,cathode,0.013266905075622,0.0139427229584369,0.0124678124827339,7.165419910927193e-06,high
1200,4.242424242424242,5.873417721518988,cathode,0.0131312651565601,0.0138169925884796,0.0123166241305661,-1.0243294812711402e-05,high
1200,4.343434343434343,5.873417721518988,cathode,0.0131013658699286,0.0136714442113858,0.0124449710332859,-1.6573143447886018e-05,high
1200,4.444444444444445,5.873417721518988,cathode,0.0132597783264695,0.0138593441912745,0.0125643111517832,6.190830559172395e-05,high
1200,4.545454545454545,5.873417721518988,cathode,0.0131771350626135,0.0137911011393575,0.0124624798103356,-1.0556370687745998e-05,high
1200,4.646464646464646,5.873417721518988,cathode,0.0132392635315753,0.0139090862059532,0.0124473732064002,-5.746593177417936e-05,high
1200,4.747474747474747,5.873417721518988,cathode,0.0130832156401324,0.0136995731921347,0.0123632680033623,6.664588666007072e-05,high
1200,4.848484848484849,5.873417721518988,cathode,0.013116453689428,0.0137776421805785,0.0123358191089837,3.652364168907559e-05,high
1200,4.94949494949495,5.873417721518988,cathode,0.0130347482789402,0.0136462538890701,0.0123221401254292,-1.0532931926653816e-05,high
1200,5.05050505050505,5.873417721518988,cathode,0.013193099347845,0.0138718489299468,0.0123878142395567,6.738876378364027e-05,high
1200,5.151515151515151,5.873417721518988,cathode,0.0130621361050867,0.0136991910452249,0.0123145300819123,3.1693428347590724e-05,high
1200,5.252525252525253,5.873417721518988,cathode,0.0130376759412624,0.0136737942551601,0.0122913512006279,1.2079114875562234e-05,high
1200,5.353535353535354,5.873417721518988,cathode,0.0131037974737109,0.0138491682982687,0.0122024061721506,3.8755688053082646e-05,high
1200,5.454545454545454,5.873417721518988,cathode,0.0131321800081782,0.013813881121578,0.0123232714601216,3.034540835207951e-06,high
1200,5.555555555555555,5.873417721518988,cathode,0.0132235076769748,0.0138795195983099,0.0124512811110502,3.410719198740594e-05,high
1200,5.656565656565657,5.873417721518988,cathode,0.0132245153764371,0.013840645297322,0.0125056785260576,7.960314010108853e-05,high
1200,5.757575757575758,5.873417721518988,cathode,0.0132490794377309,0.0138606301897009,0.0125371384117539,-6.791244018527496e-05,high
1200,5.858585858585858,5.873417721518988,cathode,0.0133263722274689,0.0140539790956455,0.0124542365722718,2.1910157715568312e-05,high
1200,5.959595959595959,5.873417721518988,cathode,0.0131962552660457,0.0138505775152137,0.0124264047427931,9.721899453969968e-07,high
1200,6.0606060606060606,5.873417721518988,cathode,0.0131831527036849,0.0136655965111671,0.012640870107452,1.1840153312453072e-05,high
1200,6.161616161616162,5.873417721518988,cathode,0.0132214831763822,0.0138546051764698,0.0124795902892406,-7.562015101671912e-05,high
1200,6.262626262626262,5.873417721518988,cathode,0.0131600379684148,0.0137461197279833,0.0124808207486164,8.710436068917904e-05,high
1200,6.363636363636363,5.873417721518988,cathode,0.0133940712398132,0.0139886774382991,0.0127073677150808,6.36956972101067e-06,high
1200,6.4646464646464645,5.873417721518988,cathode,0.0131893001196629,0.0138698595033118,0.0123825415600396,2.168909473935759e-05,high
1200,6.565656565656566,5.873417721518988,cathode,0.0132040189944734,0.0137903134254255,0.012524023922697,-0.0001039443122926,high
1200,6.666666666666667,5.873417721518988,cathode,0.0132948992572115,0.0139310087317885,0.0125481445599744,-0.0001060212383851,high
1200,6.767676767676767,5.873417721518988,cathode,0.013270715233541,0.0138825216131107,0.0125592146599093,4.889634430419359e-05,high
1200,6.8686868686868685,5.873417721518988,cathode,0.0133550649780116,0.0139000378070271,0.0127325294597565,-6.33612822492489e-05,high
1200,6.96969696969697,5.873417721518988,cathode,0.0135015366236829,0.0141863859097928,0.0126924118978545,5.14921661437436e-06,high
1200,7.070707070707071,5.873417721518988,cathode,0.013537147412389,0.0142800400270734,0.0126445164532678,7.123114633453288e-05,high
1200,7.171717171717171,5.873417721518988,cathode,0.0134317973065591,0.0140776995791365,0.0126741725605058,-8.184756466677783e-05,high
1200,7.272727272727272,5.873417721518988,cathode,0.0136572307375494,0.0143071713530736,0.0128979088346991,2.1124855879745738e-05,high
1200,7.373737373737374,5.873417721518988,cathode,0.0136866840603733,0.0142716532889721,0.0130134674715704,7.872563283648028e-05,high
1200,7.474747474747475,5.873417721518988,cathode,0.013713866249108,0.0143405949925968,0.0129850811642409,7.941418257891692e-05,high
1200,7.575757575757575,5.873417721518988,cathode,0.0137825320868697,0.0144003273525042,0.0130669487119625,6.312204025122118e-05,high
1200,7.6767676767676765,5.873417721518988,cathode,0.0138081795340506,0.0144665260886797,0.0130388005320963,-2.06051530164864e-05,high
1200,7.777777777777778,5.873417721518988,cathode,0.0139274171668481,0.0145733573077329,0.0131758307651714,-3.5491478727894264e-05,high
1200,7.878787878787879,5.873417721518988,cathode,0.0138278905426409,0.0145044367710918,0.0130335682822767,2.9072873261356366e-05,high
1200,7.979797979797979,5.873417721518988,cathode,0.0138983509212861,0.0145834531231898,0.0130931332297546,-1.8488410413596168e-06,high
1200,8.080808080808081,5.873417721518988,cathode,0.0139380182927342,0.0146902555275124,0.013038538787144,-1.5483858852162515e-05,high
1200,8.181818181818182,5.873417721518988,cathode,0.0140546905170973,0.0147490434036574,0.0132377461612209,4.550999136570231e-05,high
1200,8.282828282828282,5.873417721518988,cathode,0.0141232887968316,0.0147516008205966,0.0133972367369107,2.766421028677657e-05,high
1200,8.383838383838384,5.873417721518988,cathode,0.0142505296725048,0.0149069953318886,0.0134872753892806,-4.9125565639113776e-05,high
1200,8.484848484848484,5.873417721518988,cathode,0.0143607374531059,0.0150571023112078,0.013544375942292,-3.3589806359546314e-05,high
1200,8.585858585858587,5.873417721518988,cathode,0.0144221093137534,0.0150753584668879,0.0136645656741157,5.3773977874386895e-05,high
1200,8.686868686868687,5.873417721518988,cathode,0.0144833582114546,0.0151593998587178,0.0136962186779142,-1.0172225416183691e-05,high
1200,8.787878787878787,5.873417721518988,cathode,0.0144765245395794,0.0153071564978528,0.0134703875251021,-3.006965426385101e-05,high
1200,8.88888888888889,5.873417721518988,cathode,0.014689676524261,0.0153758165443951,0.0138904785252403,-3.1186740370216214e-05,high
1200,8.98989898989899,5.873417721518988,cathode,0.0148780598756474,0.0155640944572946,0.0140793209737578,8.21215274266461e-05,high
1200,9.09090909090909,5.873417721518988,cathode,0.0150640585452338,0.0158925436087753,0.0140696725321333,6.234689424886489e-06,critical
1200,9.191919191919192,5.873417721518988,cathode,0.0151196647991599,0.0158787640398225,0.0142243745658485,-2.430200400772104e-05,critical
1200,9.292929292929292,5.873417721518988,cathode,0.0151252472467351,0.0157814658566765,0.014368397599002,-8.556917322472949e-05,critical
1200,9.393939393939394,5.873417721518988,cathode,0.0152475777821279,0.0159462522400502,0.0144351569443374,-7.866695663304899e-05,critical
1200,9.494949494949497,5.873417721518988,cathode,0.015449348585528,0.0162491424844373,0.0145007896220031,8.893458188245402e-06,critical
1200,9.595959595959595,5.873417721518988,cathode,0.015626772274604,0.016354636341534,0.0147795983406599,-1.0179762647299278e-05,critical
1200,9.696969696969695,5.873417721518988,cathode,0.0158453865427483,0.0165369946301207,0.0150486619297957,2.235276804155306e-05,critical
1200,9.797979797979798,5.873417721518988,cathode,0.0159734450367,0.0167662088540596,0.0150391856119911,-7.791041055703653e-05,critical
1200,9.8989898989899,5.873417721518988,cathode,0.0161235514245247,0.016928416826306,0.0151753914190013,1.2396470422987488e-05,critical
1200,10.0,5.873417721518988,cathode,0.0161896801123361,0.0168989912403713,0.015371306116765,6.416874266572739e-05,critical
1200,0.0,5.974683544303797,cathode,0.0164074513015152,0.0172557099558676,0.0154010888917172,-5.201281891361655e-05,critical
1200,0.101010101010101,5.974683544303797,cathode,0.0161730140595043,0.0168710501133687,0.0153686423882422,-8.947791148020797e-05,critical
1200,0.202020202020202,5.974683544303797,cathode,0.0161250238148011,0.0169122205473612,0.0152005833176148,-6.075498774704955e-05,critical
1200,0.303030303030303,5.974683544303797,cathode,0.0158415866854287,0.0166109657568206,0.0149396811607695,-6.936175546765711e-06,critical
1200,0.404040404040404,5.974683544303797,cathode,0.0156252901237427,0.016511186685399,0.0145551955867568,-8.919972483927276e-06,critical
1200,0.5050505050505051,5.974683544303797,cathode,0.0154576045160319,0.0161979382763604,0.0145917272156391,-2.3990401257175377e-05,critical
1200,0.6060606060606061,5.974683544303797,cathode,0.0152707150878583,0.0159446692125934,0.0144929137514383,2.8458637936028592e-05,critical
1200,0.7070707070707071,5.974683544303797,cathode,0.0153348626324888,0.0160492177695338,0.0145025950268685,-5.962169515872857e-05,critical
1200,0.8080808080808081,5.974683544303797,cathode,0.0151814335746193,0.0159646963892006,0.0142526807836233,-4.165934908885057e-05,critical
1200,0.9090909090909092,5.974683544303797,cathode,0.0148231947844924,0.0154330623326848,0.0141255945612166,7.405019937995604e-05,high
1200,1.0101010101010102,5.974683544303797,cathode,0.0147751012967187,0.0154311064662316,0.0140174493967032,-1.2082942951041531e-05,high
1200,1.1111111111111112,5.974683544303797,cathode,0.0146939869465433,0.0153759302397521,0.0139007510177322,-6.343482001126724e-06,high
1200,1.2121212121212122,5.974683544303797,cathode,0.0146639964550065,0.01532253602214,0.013900787725574,-7.326470824980964e-05,high
1200,1.3131313131313131,5.974683544303797,cathode,0.0145921877968085,0.0153884997207635,0.0136378732172625,1.6766503454981496e-05,high
1200,1.414141414141414,5.974683544303797,cathode,0.0144286840840555,0.015133639997048,0.0135995109337061,-8.807157668663091e-05,high
1200,1.5151515151515151,5.974683544303797,cathode,0.0143980594392895,0.0150843833742026,0.013595710647447,4.105881598192822e-05,high
1200,1.616161616161616,5.974683544303797,cathode,0.014385975781144,0.0151436042242795,0.0134834016630806,-6.513639219563866e-05,high
1200,1.7171717171717171,5.974683544303797,cathode,0.014210853864958,0.0149158537336155,0.0133811358161382,-2.545493929813489e-05,high
1200,1.818181818181818,5.974683544303797,cathode,0.0141519277571359,0.0147622629959071,0.0134488725754284,-7.36452978218789e-05,high
1200,1.9191919191919191,5.974683544303797,cathode,0.0141169003175275,0.0148410100869002,0.0132594044063304,-2.8539478853236843e-05,high
1200,2.0202020202020203,5.974683544303797,cathode,0.0139026815799997,0.0144336991350812,0.0133019421411437,-4.983453959880241e-05,high
1200,2.121212121212121,5.974683544303797,cathode,0.0139389372895086,0.0147313411495906,0.0129809868762687,3.101905889772582e-05,high
1200,2.2222222222222223,5.974683544303797,cathode,0.0138726014742951,0.0145311348421255,0.0131028522734957,5.705951906190361e-05,high
1200,2.323232323232323,5.974683544303797,cathode,0.0137077556335644,0.0144708472319424,0.0127893380468257,-2.906485049204509e-05,high
1200,2.4242424242424243,5.974683544303797,cathode,0.0136100814032094,0.0143488325343485,0.0127257725421862,-2.0805278588748854e-06,high
1200,2.525252525252525,5.974683544303797,cathode,0.0137239662662988,0.0143789390894776,0.0129583679189221,-2.3413832623705504e-05,high
1200,2.6262626262626263,5.974683544303797,cathode,0.0136245465195891,0.0143399900242299,0.0127722932905572,-7.311279539351593e-05,high
1200,2.727272727272727,5.974683544303797,cathode,0.0135674554579504,0.0142444126516518,0.0127690661177266,-6.15176158483925e-05,high
1200,2.8282828282828283,5.974683544303797,cathode,0.0136735154050626,0.0142734947134665,0.0129816878573788,2.711441731328496e-05,high
1200,2.929292929292929,5.974683544303797,cathode,0.0136087545439054,0.014324444506322,0.0127571342892785,3.0966290002556164e-05,high
1200,3.0303030303030303,5.974683544303797,cathode,0.0134153571753408,0.0139927088006554,0.0127515986023538,2.6125543443461376e-05,high
1200,3.131313131313131,5.974683544303797,cathode,0.0134527780128432,0.0140700521187755,0.0127359849473241,2.2576182888985666e-05,high
1200,3.2323232323232323,5.974683544303797,cathode,0.0134618604049032,0.0140944149444514,0.0127237125697981,-5.649769480435723e-05,high
1200,3.333333333333333,5.974683544303797,cathode,0.0133005284091767,0.0139307073600361,0.0125649372446259,-9.38443865609941e-06,high
1200,3.4343434343434343,5.974683544303797,cathode,0.0135987809425429,0.0142818201464674,0.0127930007457984,-3.122034776970656e-05,high
1200,3.5353535353535355,5.974683544303797,cathode,0.0132852453060598,0.0138887452548377,0.012584021891812,-7.992799151110028e-05,high
1200,3.636363636363636,5.974683544303797,cathode,0.0132387551301608,0.0138763636287331,0.0124923936124677,-9.452170356167556e-06,high
1200,3.7373737373737375,5.974683544303797,cathode,0.0132229018482541,0.0138813872684381,0.0124473902477112,-2.409234490912561e-05,high
1200,3.8383838383838382,5.974683544303797,cathode,0.0133400566223946,0.0139639141409435,0.0126122048520862,6.891299971269966e-05,high
1200,3.939393939393939,5.974683544303797,cathode,0.0133863775358209,0.014056183435592,0.0125967100279373,3.353637940223955e-05,high
1200,4.040404040404041,5.974683544303797,cathode,0.0131335694058892,0.0137857992462265,0.0123649433887396,6.106478372852558e-05,high
1200,4.141414141414141,5.974683544303797,cathode,0.013251838865595,0.0140386335394554,0.0122906611032018,6.255263464800272e-05,high
1200,4.242424242424242,5.974683544303797,cathode,0.0131532656117945,0.0138722918623333,0.0122905404046143,-5.321322457840196e-05,high
1200,4.343434343434343,5.974683544303797,cathode,0.0132499267943225,0.0139324199804057,0.0124412595185578,7.01983282404415e-06,high
1200,4.444444444444445,5.974683544303797,cathode,0.0131089559851385,0.0137506717265539,0.0123542501568126,7.186906103453803e-05,high
1200,4.545454545454545,5.974683544303797,cathode,0.0130645336815564,0.013486229962319,0.0125971594813953,-3.3686586689623955e-05,high
1200,4.646464646464646,5.974683544303797,cathode,0.0131382076592373,0.0136975809501708,0.0124963052599172,-9.73545901319381e-06,high
1200,4.747474747474747,5.974683544303797,cathode,0.0131252471016592,0.0138812563633016,0.0122084271843691,-4.2608601622514606e-05,high
1200,4.848484848484849,5.974683544303797,cathode,0.013126118357107,0.0137319349265419,0.0124220773518488,-5.727441046688618e-06,high
1200,4.94949494949495,5.974683544303797,cathode,0.0131018377022882,0.0136732592331714,0.0124405818220981,-0.000108562289803,high
1200,5.05050505050505,5.974683544303797,cathode,0.0132378313580973,0.0139358230187651,0.0124070990476185,-3.897929664695704e-06,high
1200,5.151515151515151,5.974683544303797,cathode,0.0130917505835075,0.0136419551716135,0.0124612937940302,-3.4451578517045974e-05,high
1200,5.252525252525253,5.974683544303797,cathode,0.0131591835496815,0.0137938414391795,0.0124137707072051,-9.297252539871208e-05,high
1200,5.353535353535354,5.974683544303797,cathode,0.0132151201562441,0.0138164310229628,0.012516833080783,-6.451110001261674e-05,high
1200,5.454545454545454,5.974683544303797,cathode,0.0131996103637632,0.0137774900626265,0.0125336798713831,1.704921073404467e-07,high
1200,5.555555555555555,5.974683544303797,cathode,0.0132028222798281,0.0137398913078172,0.0125905963588744,-8.402410935672155e-06,high
1200,5.656565656565657,5.974683544303797,cathode,0.0131968234947929,0.0139609248476507,0.0122685140908296,-6.349007402128669e-05,high
1200,5.757575757575758,5.974683544303797,cathode,0.0130999976499597,0.0137080739599099,0.0123926693724849,-2.6382821757438174e-06,high
1200,5.858585858585858,5.974683544303797,cathode,0.0130975119821035,0.0136784008373634,0.0124237980801268,0.0001050428173635,high
1200,5.959595959595959,5.974683544303797,cathode,0.0132090007922891,0.0138251783334899,0.0124914984363143,2.4537916289555453e-05,high
1200,6.0606060606060606,5.974683544303797,cathode,0.0133524479008887,0.0139861056700852,0.0126123366864431,-3.2404126504866326e-05,high
1200,6.161616161616162,5.974683544303797,cathode,0.0132408278696003,0.0139018379839887,0.0124579736161275,-0.0001238918068247,high
1200,6.262626262626262,5.974683544303797,cathode,0.013319579284291,0.0139885045442817,0.0125306374790495,1.766929723879857e-05,high
1200,6.363636363636363,5.974683544303797,cathode,0.0133027202108461,0.0138525241624038,0.0126743285077219,-3.043086087648333e-05,high
1200,6.4646464646464645,5.974683544303797,cathode,0.0132693975499219,0.0140240250114501,0.0123572859797375,1.2496078454199166e-06,high
1200,6.565656565656566,5.974683544303797,cathode,0.0133614346482404,0.0139692504292309,0.0126549139947175,8.325231432610232e-05,high
1200,6.666666666666667,5.974683544303797,cathode,0.013309887987302,0.0139081644368875,0.0126175909361846,1.7064558201263931e-06,high
1200,6.767676767676767,5.974683544303797,cathode,0.0133534870747087,0.0140806216550829,0.0124782375393918,-0.0001246869222797,high
1200,6.8686868686868685,5.974683544303797,cathode,0.0134770788632739,0.0141300104466566,0.0127114020484891,4.817040152391683e-05,high
1200,6.96969696969697,5.974683544303797,cathode,0.013489697469467,0.0141645417366498,0.0126919007370382,-9.714009953791453e-05,high
1200,7.070707070707071,5.974683544303797,cathode,0.0136128804370221,0.0143172801865533,0.0127773269079958,-2.8799974290468663e-05,high
1200,7.171717171717171,5.974683544303797,cathode,0.0135958759947978,0.0142710892101258,0.0127982222355564,0.0001063573951374,high
1200,7.272727272727272,5.974683544303797,cathode,0.0135940529168164,0.0142023719016694,0.0128898277378685,5.5902419786294e-05,high
1200,7.373737373737374,5.974683544303797,cathode,0.0135927555403612,0.0141799952338723,0.0129170845658764,3.5880565904727506e-05,high
1200,7.474747474747475,5.974683544303797,cathode,0.0136593645661815,0.0142225557501192,0.0130158026354306,3.655432981062715e-05,high
1200,7.575757575757575,5.974683544303797,cathode,0.0137087728594856,0.0142707081418479,0.013066093544952,-7.51652664088409e-05,high
1200,7.6767676767676765,5.974683544303797,cathode,0.0137193936673432,0.0143148661328017,0.0130339514127611,-2.4155223062619663e-05,high
1200,7.777777777777778,5.974683544303797,cathode,0.0139587733566943,0.0146282126483216,0.0131750133568907,-5.375380255520368e-05,high
1200,7.878787878787879,5.974683544303797,cathode,0.0139706747019743,0.0146906717323314,0.0131173772938011,-2.169812360791917e-05,high
1200,7.979797979797979,5.974683544303797,cathode,0.0141021063845449,0.0147528131445519,0.0133439388522207,8.914634090750133e-05,high
1200,8.080808080808081,5.974683544303797,cathode,0.0140147548292997,0.0147473258032135,0.013144274195243,1.5104784464735356e-05,high
1200,8.181818181818182,5.974683544303797,cathode,0.0140951358410742,0.0147907551687896,0.0132759133427391,-7.59928195310074e-05,high
1200,8.282828282828282,5.974683544303797,cathode,0.0142698367724092,0.0149695763962897,0.0134481705701262,-7.0494321002872e-06,high
1200,8.383838383838384,5.974683544303797,cathode,0.01424835749711,0.0149410802089331,0.0134352852455456,-5.9437390298555e-05,high
1200,8.484848484848484,5.974683544303797,cathode,0.014434698204392,0.015073857024835,0.0136966638024079,-2.768396196220574e-05,high
1200,8.585858585858587,5.974683544303797,cathode,0.0143852437781272,0.0150875972825534,0.0135583553718913,0.0001059120232119,high
1200,8.686868686868687,5.974683544303797,cathode,0.0147229414228954,0.0153631272036675,0.0139859655764066,-9.341269701370218e-06,high
1200,8.787878787878787,5.974683544303797,cathode,0.0147383015665582,0.0154337531432828,0.0139270720944296,-1.2282368251025602e-05,high
1200,8.88888888888889,5.974683544303797,cathode,0.0147640513069875,0.0154577132371991,0.0139553647882796,2.666530614972728e-05,high
1200,8.98989898989899,5.974683544303797,cathode,0.0149146350220948,0.0156857904284322,0.013999801325667,4.407929806906608e-05,high
1200,9.09090909090909,5.974683544303797,cathode,0.0149471744379608,0.0156031814313464,0.0141906082298342,3.663239886505956e-05,high
1200,9.191919191919192,5.974683544303797,cathode,0.015127932659746,0.0159034098227924,0.0142098022564596,-2.402209922811675e-05,critical
1200,9.292929292929292,5.974683544303797,cathode,0.0152766105004067,0.016072177519319,0.0143319545387699,1.565048651951076e-05,critical
1200,9.393939393939394,5.974683544303797,cathode,0.0154815662707175,0.0161804320618222,0.0146720872696723,-3.2035972245863706e-05,critical
1200,9.494949494949497,5.974683544303797,cathode,0.0154656587430887,0.0161848243836206,0.0146278690040792,6.58264540708155e-05,critical
1200,9.595959595959595,5.974683544303797,cathode,0.0156118764514095,0.016400913853998,0.0146802116036669,-1.8112882874392398e-05,critical
1200,9.696969696969695,5.974683544303797,cathode,0.0156507146520435,0.0162480848712357,0.0149751081181094,-5.023825474254471e-05,critical
1200,9.797979797979798,5.974683544303797,cathode,0.015989281589242,0.0168071438781185,0.015020943896292,4.9833438802484666e-05,critical
1200,9.8989898989899,5.974683544303797,cathode,0.0161138197365364,0.0168874561453044,0.0152075438191397,-7.382807612378674e-05,critical
1200,10.0,5.974683544303797,cathode,0.0163026066798791,0.0171627473391202,0.0152784321097318,-3.860327233721061e-05,critical
1200,0.0,6.075949367088607,cathode,0.0162239935743176,0.0170750411867213,0.0152105052243707,-8.459702049912653e-05,critical
1200,0.101010101010101,6.075949367088607,cathode,0.0161360638346461,0.0168666887518692,0.0152895466469554,-1.961636478201907e-05,critical
1200,0.202020202020202,6.075949367088607,cathode,0.0159156779228033,0.0165539641313649,0.0151894597520838,-1.966070975075653e-05,critical
1200,0.303030303030303,6.075949367088607,cathode,0.0159227125833958,0.01673683160221,0.0149592643309761,2.7944046326840685e-05,critical
1200,0.404040404040404,6.075949367088607,cathode,0.0156175162451359,0.0162519272397821,0.0148935298875496,6.58438166044706e-05,critical
1200,0.5050505050505051,6.075949367088607,cathode,0.0154290026313972,0.0162102500149877,0.0145060943894816,2.920621629208888e-05,critical
1200,0.6060606060606061,6.075949367088607,cathode,0.015407535470818,0.0161987159276082,0.0144685144583549,-9.521301543780603e-05,critical
1200,0.7070707070707071,6.075949367088607,cathode,0.0152271262952974,0.0159127988857221,0.0144332864187282,-2.8484099085325797e-05,critical
1200,0.8080808080808081,6.075949367088607,cathode,0.0150871260698854,0.0158987192961099,0.0141173248380138,1.4399325188028392e-05,critical
1200,0.9090909090909092,6.075949367088607,cathode,0.0149353810618687,0.0155711677866826,0.0142042776220372,-8.17080160503421e-05,high
1200,1.0101010101010102,6.075949367088607,cathode,0.0148859786888855,0.0155552802830679,0.0141101528823263,-7.43536595290346e-05,high
1200,1.1111111111111112,6.075949367088607,cathode,0.0147921111326867,0.0155058473534931,0.0139560507168959,3.781566320675708e-05,high
1200,1.2121212121212122,6.075949367088607,cathode,0.0145691385155534,0.0152257373343235,0.01380863923884,4.048076970463787e-05,high
1200,1.3131313131313131,6.075949367088607,cathode,0.0143890728433094,0.0152016288000705,0.0134079766839017,4.141202544538337e-05,high
1200,1.414141414141414,6.075949367088607,cathode,0.0145424767901034,0.0152413148300592,0.0137244300436935,-3.800252856665543e-05,high
1200,1.5151515151515151,6.075949367088607,cathode,0.0143500490145464,0.0149972835115908,0.0135975208973511,-0.000113571403835,high
1200,1.616161616161616,6.075949367088607,cathode,0.0143151396570535,0.0148882375820795,0.0136632822457855,-1.3109777100090004e-05,high
1200,1.7171717171717171,6.075949367088607,cathode,0.0143735224645635,0.0150537636273535,0.0135796186852161,1.4998800455924663e-05,high
1200,1.818181818181818,6.075949367088607,cathode,0.0140663782546527,0.0147644268978401,0.0132424730553987,-9.853650997332852e-05,high
1200,1.9191919191919191,6.075949367088607,cathode,0.0139445125310658,0.0146087461702379,0.0131681326806789,-3.7213952127731744e-05,high
1200,2.0202020202020203,6.075949367088607,cathode,0.0140105142406518,0.0147234949827012,0.0131675403589269,2.081735722889645e-05,high
1200,2.121212121212121,6.075949367088607,cathode,0.0139134168918794,0.0146154170977883,0.0130812821660783,-0.0001171958296285,high
1200,2.2222222222222223,6.075949367088607,cathode,0.013901387741199,0.0145791476338743,0.0131056232178405,5.320150274293309e-05,high
1200,2.323232323232323,6.075949367088607,cathode,0.0137889730478282,0.0144956181794099,0.0129523037783568,2.7738411685457596e-05,high
1200,2.4242424242424243,6.075949367088607,cathode,0.0136632094018606,0.0143362476571895,0.0128712975418127,6.08360905717781e-05,high
1200,2.525252525252525,6.075949367088607,cathode,0.0137451928523404,0.0144525652608096,0.0129067069956556,-4.329593986277786e-05,high
1200,2.6262626262626263,6.075949367088607,cathode,0.0135897948603616,0.0141769564603743,0.0129134819184117,6.399353969604543e-05,high
1200,2.727272727272727,6.075949367088607,cathode,0.013579688882287,0.0142462813352329,0.0127949304098979,-8.436497517033518e-05,high
1200,2.8282828282828283,6.075949367088607,cathode,0.0136558420409365,0.0144024839897539,0.0127607350917711,-1.1540454327443576e-05,high
1200,2.929292929292929,6.075949367088607,cathode,0.0136000479295206,0.0142948445060141,0.0127777141379679,-3.733803717918272e-05,high
1200,3.0303030303030303,6.075949367088607,cathode,0.0135757412399932,0.0142285025690737,0.0128113590011723,4.47208441457882e-05,high
1200,3.131313131313131,6.075949367088607,cathode,0.0134076806857509,0.0140137431526315,0.0127048505854826,5.82772717435795e-05,high
1200,3.2323232323232323,6.075949367088607,cathode,0.0134723283286212,0.0141009277010181,0.0127400095422206,4.312344332011819e-05,high
1200,3.333333333333333,6.075949367088607,cathode,0.01336505161727,0.014063314910545,0.0125354727922246,7.668453882472035e-07,high
1200,3.4343434343434343,6.075949367088607,cathode,0.0133196502118731,0.0140153684876588,0.0124930972289981,-1.1701355331504956e-05,high
1200,3.5353535353535355,6.075949367088607,cathode,0.0133391207309961,0.0139314921206052,0.0126548756273664,-1.907979199379872e-05,high
1200,3.636363636363636,6.075949367088607,cathode,0.0131949091479523,0.0138497308666272,0.0124240787434694,3.1604765543439585e-05,high
1200,3.7373737373737375,6.075949367088607,cathode,0.01334728875686,0.013906314922932,0.0127071951646213,2.563342770151873e-05,high
1200,3.8383838383838382,6.075949367088607,cathode,0.0133315587393736,0.0141061341099386,0.0123908701250141,1.8727529728423665e-05,high
1200,3.939393939393939,6.075949367088607,cathode,0.0132307148320476,0.0138748959424957,0.0124735897225407,7.830797159043867e-05,high
1200,4.040404040404041,6.075949367088607,cathode,0.0131117998781645,0.0137312011451941,0.012388717855208,4.106036297519908e-05,high
1200,4.141414141414141,6.075949367088607,cathode,0.0131748845972429,0.0138715113038007,0.0123430079055954,-9.144730171980834e-05,high
1200,4.242424242424242,6.075949367088607,cathode,0.0131384097624143,0.0137317307695077,0.0124501816683122,-6.557511114502939e-05,high
1200,4.343434343434343,6.075949367088607,cathode,0.0132374733063702,0.01398295462631,0.0123382885105631,3.851192592591738e-06,high
1200,4.444444444444445,6.075949367088607,cathode,0.0131599355072749,0.0137486109081552,0.0124791161447874,2.4312198971692357e-05,high
1200,4.545454545454545,6.075949367088607,cathode,0.013199601713884,0.0138314233973203,0.0124607881322961,-1.1659807782348657e-05,high
1200,4.646464646464646,6.075949367088607,cathode,0.0130633162663921,0.0136978784308383,0.0123193940392148,1.2257882872319983e-05,high
1200,4.747474747474747,6.075949367088607,cathode,0.0131636841389221,0.0138375657894093,0.0123661499859203,-5.820958576068564e-06,high
1200,4.848484848484849,6.075949367088607,cathode,0.0131868144988332,0.0138100582961057,0.0124593056906571,-3.5618855187786746e-05,high
1200,4.94949494949495,6.075949367088607,cathode,0.0131979738577118,0.0137544175752929,0.0125602230046382,-2.4908042006875256e-05,high
1200,5.05050505050505,6.075949367088607,cathode,0.0131123457624727,0.0138492004281394,0.0122234053672946,4.476221885451542e-05,high
1200,5.151515151515151,6.075949367088607,cathode,0.013148527028158,0.013845583456302,0.0123179363990385,1.862843997339052e-05,high
1200,5.252525252525253,6.075949367088607,cathode,0.013253845158003,0.0138663190692428,0.0125419252127456,-4.306687841382932e-06,high
1200,5.353535353535354,6.075949367088607,cathode,0.0130813925330632,0.0136999876434831,0.0123595621474292,8.970227945677635e-06,high
1200,5.454545454545454,6.075949367088607,cathode,0.0132419195721877,0.0139018435443675,0.012464721062906,1.3049762000213984e-05,high
1200,5.555555555555555,6.075949367088607,cathode,0.0132686217283284,0.0139223144467086,0.0124993347809256,-6.266909261680717e-05,high
1200,5.656565656565657,6.075949367088607,cathode,0.0130793956135677,0.0136504623180158,0.01242156828412,9.296533939768029e-06,high
1200,5.757575757575758,6.075949367088607,cathode,0.0132480680452704,0.0139540620313405,0.0124034701848376,-9.691834117321794e-05,high
1200,5.858585858585858,6.075949367088607,cathode,0.013291580335826,0.0138667091754389,0.0126294760865625,4.505617597908135e-05,high
1200,5.959595959595959,6.075949367088607,cathode,0.0132436603716914,0.0138837485865546,0.0124936484085605,3.409839970096357e-05,high
1200,6.0606060606060606,6.075949367088607,cathode,0.0132526915145979,0.0139599410301034,0.0124088822855189,1.6167834364436563e-05,high
1200,6.161616161616162,6.075949367088607,cathode,0.0133847650930801,0.014056276627513,0.0125928438583546,2.452432111377872e-05,high
1200,6.262626262626262,6.075949367088607,cathode,0.0132760846822425,0.0138919297896969,0.0125584717703937,7.048900772145775e-05,high
1200,6.363636363636363,6.075949367088607,cathode,0.0131055721155763,0.013821934164448,0.0122459861029582,-5.536090746284533e-05,high
1200,6.4646464646464645,6.075949367088607,cathode,0.0133193589119336,0.0139190245592736,0.0126245932507924,5.081306889125916e-05,high
1200,6.565656565656566,6.075949367088607,cathode,0.01340009526932,0.0139829146419478,0.0127273393721619,8.323442539960452e-05,high
1200,6.666666666666667,6.075949367088607,cathode,0.013405942580047,0.014002065803909,0.0127167826575197,4.515199709403777e-05,high
1200,6.767676767676767,6.075949367088607,cathode,0.0133981872020245,0.0139889863919556,0.0127165044191565,-2.002212584618468e-05,high
1200,6.8686868686868685,6.075949367088607,cathode,0.0133908673100998,0.0140433568027071,0.0126255348850194,-8.507076860860275e-06,high
1200,6.96969696969697,6.075949367088607,cathode,0.0132597916453591,0.0138950979209882,0.0125168137157043,-4.277433807091767e-06,high
1200,7.070707070707071,6.075949367088607,cathode,0.0134792728959896,0.0140814029450957,0.0127827783502107,4.049386354757484e-05,high
1200,7.171717171717171,6.075949367088607,cathode,0.0135383684619598,0.0142169251491524,0.0127377926294244,-4.947464980129666e-05,high
1200,7.272727272727272,6.075949367088607,cathode,0.0136946926592963,0.0143774838615461,0.0128888751766399,-7.970020949931393e-05,high
1200,7.373737373737374,6.075949367088607,cathode,0.0137151141026288,0.0144036798432549,0.0129029521409038,-2.695391811724277e-05,high
1200,7.474747474747475,6.075949367088607,cathode,0.0137372291064187,0.0144117564662012,0.012944512261184,4.281620853578961e-05,high
1200,7.575757575757575,6.075949367088607,cathode,0.0137246166234204,0.0143193752704689,0.0130402818403731,-1.0522229962187032e-05,high
1200,7.6767676767676765,6.075949367088607,cathode,0.0139332598506541,0.0145916333741998,0.0131642871527452,5.762251990429964e-05,high
1200,7.777777777777778,6.075949367088607,cathode,0.0137638015568205,0.0143051764988711,0.0131494142451,-2.4188670666011766e-05,high
1200,7.878787878787879,6.075949367088607,cathode,0.0139590882886796,0.0146976571194687,0.0130792151965687,-3.147084597356452e-05,high
1200,7.979797979797979,6.075949367088607,cathode,0.0139320804456333,0.0145587386663916,0.0132067893573741,1.7356395115355823e-05,high
1200,8.080808080808081,6.075949367088607,cathode,0.014029731392164,0.0146954643397405,0.0132519883749265,4.327231943910326e-05,high
1200,8.181818181818182,6.075949367088607,cathode,0.0141237056315404,0.0148656696594314,0.0132410034918804,3.233543334366123e-05,high
1200,8.282828282828282,6.075949367088607,cathode,0.0141884569219479,0.0148035438980306,0.013480286622799,-4.197312981107609e-05,high
1200,8.383838383838384,6.075949367088607,cathode,0.0142537271068007,0.0149445093074172,0.0134412298418723,0.0001100042554059,high
1200,8.484848484848484,6.075949367088607,cathode,0.0143417962621526,0.0150745910515968,0.0134746498894408,-2.8703402640846065e-05,high
1200,8.585858585858587,6.075949367088607,cathode,0.0144333049196159,0.0151475378259393,0.0135932635335878,4.032111225403385e-06,high
1200,8.686868686868687,6.075949367088607,cathode,0.0145790117500676,0.0152294373376451,0.0138254196503408,-8.747515996667715e-05,high
1200,8.787878787878787,6.075949367088607,cathode,0.0145907832318967,0.0152414138027721,0.0138387969346013,1.6234002692106602e-05,high
1200,8.88888888888889,6.075949367088607,cathode,0.0147077622228965,0.0154615778666856,0.0138153986440663,1.2931585915761882e-05,high
1200,8.98989898989899,6.075949367088607,cathode,0.01489319105984,0.0156030511643779,0.0140630621946347,-5.445171332613158e-05,high
1200,9.09090909090909,6.075949367088607,cathode,0.0150092157618164,0.0157865440528578,0.0140872328611882,7.68358880508427e-06,critical
1200,9.191919191919192,6.075949367088607,cathode,0.0149851274739544,0.0157419312010343,0.0140906768992792,6.567170152552325e-05,high
1200,9.292929292929292,6.075949367088607,cathode,0.0152852482269649,0.0160248811857063,0.0144163708407555,-0.0001014527442267,critical
1200,9.393939393939394,6.075949367088607,cathode,0.0153589601498952,0.0160625918646623,0.0145415549831371,-5.489662840738722e-05,critical
1200,9.494949494949497,6.075949367088607,cathode,0.0155277761144428,0.0163625344312096,0.0145299850358132,4.55094870619777e-05,critical
1200,9.595959595959595,6.075949367088607,cathode,0.0157264888156943,0.0164260426489131,0.014918252121884,-1.977030984999973e-05,critical
1200,9.696969696969695,6.075949367088607,cathode,0.0157857432814195,0.0165555943887481,0.0148826320770125,4.759075560367921e-06,critical
1200,9.797979797979798,6.075949367088607,cathode,0.0160014569912901,0.0167822731584328,0.0150853772890129,9.090108560315837e-06,critical
1200,9.8989898989899,6.075949367088607,cathode,0.0161955182606859,0.0169336643732963,0.0153394055893085,1.637810194657469e-05,critical
1200,10.0,6.075949367088607,cathode,0.0162219337386463,0.0169636381576402,0.0153612509474531,1.6193911997320405e-05,critical
1200,0.0,6.177215189873418,cathode,0.0162974972674165,0.0169894085116621,0.0155037972237747,1.8545134734630628e-05,critical
1200,0.101010101010101,6.177215189873418,cathode,0.0161031840489802,0.0169204379814604,0.0151359040642418,-8.534088759800026e-05,critical
1200,0.202020202020202,6.177215189873418,cathode,0.0159682379283386,0.0167617378826489,0.0150338161641956,4.480755424122151e-05,critical
1200,0.303030303030303,6.177215189873418,cathode,0.0158204231005345,0.0166491503352906,0.0148353441594522,-2.519915541883888e-06,critical
1200,0.404040404040404,6.177215189873418,cathode,0.0155842749571588,0.0162980452915515,0.014755217978149,5.195808169101782e-05,critical
1200,0.5050505050505051,6.177215189873418,cathode,0.0154564910393175,0.0161549024699512,0.014647398627332,-3.2919851894523485e-05,critical
1200,0.6060606060606061,6.177215189873418,cathode,0.0153419635149663,0.0160816416775937,0.014475955840356,1.26849172647278e-05,critical
1200,0.7070707070707071,6.177215189873418,cathode,0.0152650394950614,0.0159932379548074,0.0144136589291179,4.196758498591337e-05,critical
1200,0.8080808080808081,6.177215189873418,cathode,0.0151080773436414,0.0157706501628847,0.0143438577375771,-4.583314310147282e-05,critical
1200,0.9090909090909092,6.177215189873418,cathode,0.0150585948838379,0.0158764308655671,0.0140794852216116,-9.873947695483942e-06,critical
1200,1.0101010101010102,6.177215189873418,cathode,0.0147659997097923,0.0155146764959501,0.0138807581099125,-5.6528882074460665e-05,high
1200,1.1111111111111112,6.177215189873418,cathode,0.0148032338341313,0.0155814353519085,0.0138772024638068,3.911161776043359e-05,high
1200,1.2121212121212122,6.177215189873418,cathode,0.0146210569846326,0.0153708765243769,0.0137330754780393,3.419360368267066e-05,high
1200,1.3131313131313131,6.177215189873418,cathode,0.0146176787032427,0.0153441241652287,0.0137626210994007,-1.977861715697527e-06,high
1200,1.414141414141414,6.177215189873418,cathode,0.014328553248601,0.0150407750921397,0.0134901985977149,5.991004431714462e-06,high
1200,1.5151515151515151,6.177215189873418,cathode,0.0143878642857838,0.0150600457182546,0.013603591531689,7.888706879926035e-05,high
1200,1.616161616161616,6.177215189873418,cathode,0.0143800700985477,0.0151286002665353,0.0134912836731087,2.139033379271355e-05,high
1200,1.7171717171717171,6.177215189873418,cathode,0.0141545201104414,0.0147772421846897,0.0134363256363371,-1.3470544861913212e-05,high
1200,1.818181818181818,6.177215189873418,cathode,0.0142343913889629,0.0149454236479814,0.0133966029856822,-1.9542307818363308e-05,high
1200,1.9191919191919191,6.177215189873418,cathode,0.0141524354814697,0.0149098658556014,0.013248279314381,-1.2817023022401447e-05,high
1200,2.0202020202020203,6.177215189873418,cathode,0.0139508446125676,0.014545468331664,0.0132679455609775,-4.289130037272755e-05,high
1200,2.121212121212121,6.177215189873418,cathode,0.0140278682789594,0.0147376453462187,0.0131895781112054,-2.0427257286711497e-05,high
1200,2.2222222222222223,6.177215189873418,cathode,0.0139614141760444,0.0145823264648552,0.0132431598415044,6.22851370176953e-05,high
1200,2.323232323232323,6.177215189873418,cathode,0.0138228829959189,0.0145093970610757,0.0130145219885523,-3.9054425294752536e-05,high
1200,2.4242424242424243,6.177215189873418,cathode,0.0137016269150187,0.0142932175509519,0.0130205886789076,5.443419058796341e-05,high
1200,2.525252525252525,6.177215189873418,cathode,0.0136084830078489,0.0142563243527065,0.0128516748591672,6.437064570945207e-06,high
1200,2.6262626262626263,6.177215189873418,cathode,0.0136277154943954,0.0142730949080212,0.0128689306128071,0.0001454696152641,high
1200,2.727272727272727,6.177215189873418,cathode,0.0135986412204529,0.0142817985553971,0.0127925212910233,4.034921890006912e-05,high
1200,2.8282828282828283,6.177215189873418,cathode,0.0134640887436965,0.0142050598730182,0.0125730880358373,-7.502284760104728e-05,high
1200,2.929292929292929,6.177215189873418,cathode,0.0135013787584556,0.0141620060462433,0.0127231314124167,0.0001029630639493,high
1200,3.0303030303030303,6.177215189873418,cathode,0.0134164220580268,0.0140823922643567,0.0126321645602418,4.518096979215396e-05,high
1200,3.131313131313131,6.177215189873418,cathode,0.0134930467832931,0.0141744141076621,0.0126874848955902,-6.754780929168133e-05,high
1200,3.2323232323232323,6.177215189873418,cathode,0.0134435761143713,0.0141386428762563,0.0126193935957344,1.3178284218829664e-05,high
1200,3.333333333333333,6.177215189873418,cathode,0.0133742868717503,0.0140255219778287,0.0126105316839289,4.564755973952437e-06,high
1200,3.4343434343434343,6.177215189873418,cathode,0.0134247898700519,0.0140482626208816,0.0126991805097515,3.433968309854636e-05,high
1200,3.5353535353535355,6.177215189873418,cathode,0.013306497824471,0.0140377534523101,0.0124259708710897,-0.0001038039330999,high
1200,3.636363636363636,6.177215189873418,cathode,0.0133223922604742,0.0139293038807054,0.0126178652102291,5.223446007912879e-05,high
1200,3.7373737373737375,6.177215189873418,cathode,0.0131962625308162,0.0139007537227064,0.0123555103770172,-2.9782072729304726e-05,high
1200,3.8383838383838382,6.177215189873418,cathode,0.0132752844199419,0.0138676604567876,0.0125890515121782,-7.668931525074484e-05,high
1200,3.939393939393939,6.177215189873418,cathode,0.0131753372168326,0.01386669293542,0.012353214145753,1.4893016690435077e-05,high
1200,4.040404040404041,6.177215189873418,cathode,0.0131485867122287,0.0137674858644182,0.0124265822024407,3.87946867482094e-05,high
1200,4.141414141414141,6.177215189873418,cathode,0.0132177408480643,0.0138716935426413,0.012447289306051,-7.014985682525267e-05,high
1200,4.242424242424242,6.177215189873418,cathode,0.0131379641747554,0.0137353966393912,0.0124451515965824,2.7549774654521536e-05,high
1200,4.343434343434343,6.177215189873418,cathode,0.0130898930479398,0.0136936943297034,0.0123866092773171,-7.828888231521211e-05,high
1200,4.444444444444445,6.177215189873418,cathode,0.0132119200034581,0.0137723979634727,0.0125688882805834,-2.9795202883905136e-05,high
1200,4.545454545454545,6.177215189873418,cathode,0.0132673301142954,0.0139400242219301,0.0124723900335418,-2.98835396839654e-05,high
1200,4.646464646464646,6.177215189873418,cathode,0.0132812635867867,0.0138994856784775,0.0125614620711461,-3.5558071259298505e-05,high
1200,4.747474747474747,6.177215189873418,cathode,0.0132069978907599,0.0136986553709578,0.0126531952390166,3.89351279966257e-06,high
1200,4.848484848484849,6.177215189873418,cathode,0.0131880395282922,0.0138446094062759,0.0124127917619251,-8.950092705425492e-05,high
1200,4.94949494949495,6.177215189873418,cathode,0.0131876322468687,0.0137897052139754,0.0124870516891763,-8.939852266955815e-05,high
1200,5.05050505050505,6.177215189873418,cathode,0.0131287326494712,0.0138995066345935,0.0121904305303171,2.387339096935768e-05,high
1200,5.151515151515151,6.177215189873418,cathode,0.0129989956984947,0.0136956655405128,0.0121664796848897,4.981036957680877e-05,high
1200,5.252525252525253,6.177215189873418,cathode,0.0130889278937297,0.0138496570255796,0.0121642612431499,5.362921047118072e-05,high
1200,5.353535353535354,6.177215189873418,cathode,0.0132004448197732,0.0137207174342914,0.0126083946391135,-7.80198604948741e-05,high
1200,5.454545454545454,6.177215189873418,cathode,0.0132257047254041,0.0138471906533546,0.0124967906070939,0.0001294129142888,high
1200,5.555555555555555,6.177215189873418,cathode,0.0132744390301997,0.013951569732178,0.0124734668069107,-2.237074117292476e-05,high
1200,5.656565656565657,6.177215189873418,cathode,0.0132162762078348,0.013869327744199,0.0124467426793947,-7.80063393606863e-05,high
1200,5.757575757575758,6.177215189873418,cathode,0.0132049491807012,0.0139308485366114,0.0123315508797375,-8.937252090647766e-05,high
1200,5.858585858585858,6.177215189873418,cathode,0.0131953190623236,0.0139224516007196,0.0123220847695319,-2.339756670788498e-05,high
1200,5.959595959595959,6.177215189873418,cathode,0.0131363142120387,0.013795871933865,0.0123585189496486,-8.616932524343155e-06,high
1200,6.0606060606060606,6.177215189873418,cathode,0.0132886675467935,0.0138280480060427,0.0126740015032319,-7.31717625719145e-06,high
1200,6.161616161616162,6.177215189873418,cathode,0.013183374741009,0.0137915069675423,0.0124765016090168,-2.8116410477836176e-05,high
1200,6.262626262626262,6.177215189873418,cathode,0.0132045250298713,0.0139195512764715,0.0123477218107211,-6.852372620226333e-05,high
1200,6.363636363636363,6.177215189873418,cathode,0.013279040057485,0.0139586723005641,0.0124746359728383,-1.987806665866238e-05,high
1200,6.4646464646464645,6.177215189873418,cathode,0.0131811755573916,0.0137873361459401,0.0124751447017404,8.66587491439975e-05,high
1200,6.565656565656566,6.177215189873418,cathode,0.0133806419129585,0.0140652688943022,0.012570451116649,1.037201497248935e-05,high
1200,6.666666666666667,6.177215189873418,cathode,0.0133831788858093,0.0139577659900011,0.0127229128785197,-1.978394203798384e-05,high
1200,6.767676767676767,6.177215189873418,cathode,0.0134133337475059,0.0141020978307054,0.0125955834299982,-8.904459144707576e-05,high
1200,6.8686868686868685,6.177215189873418,cathode,0.0134599449365959,0.0141055579141862,0.0127012071985846,0.0001159066349396,high
1200,6.96969696969697,6.177215189873418,cathode,0.0135410230696522,0.0142579036175959,0.0126855282086977,7.725026092584393e-05,high
1200,7.070707070707071,6.177215189873418,cathode,0.0134665274804317,0.0141492201504279,0.0126600410249019,3.35923054108604e-07,high
1200,7.171717171717171,6.177215189873418,cathode,0.0135383441740082,0.0142220491842849,0.0127311335693513,1.9371869939861533e-05,high
1200,7.272727272727272,6.177215189873418,cathode,0.013468992653038,0.0141525638772949,0.0126612838337246,-8.53803044952166e-06,high
1200,7.373737373737374,6.177215189873418,cathode,0.0137451587660946,0.0144377605174428,0.0129276959146148,-2.6562774076009035e-05,high
1200,7.474747474747475,6.177215189873418,cathode,0.0136763419784355,0.0143548898978291,0.012877852717717,-1.3331621505557998e-05,high
1200,7.575757575757575,6.177215189873418,cathode,0.0138156821149094,0.0143663773457059,0.0131896033062583,-2.203801588417664e-05,high
1200,7.6767676767676765,6.177215189873418,cathode,0.0138359394321707,0.0146261351330364,0.0128767592880227,0.0001090606885752,high
1200,7.777777777777778,6.177215189873418,cathode,0.0138843669684817,0.0145391793690534,0.0131203291456245,3.507767423013864e-05,high
1200,7.878787878787879,6.177215189873418,cathode,0.0139189496195438,0.0145907088857886,0.0131312449571932,-6.570406923131124e-05,high
1200,7.979797979797979,6.177215189873418,cathode,0.0141295446413208,0.0147832654259591,0.0133695303131477,4.815330172696291e-06,high
1200,8.080808080808081,6.177215189873418,cathode,0.0139380230150069,0.0145609383931943,0.0132168694618725,6.309328939364411e-05,high
1200,8.181818181818182,6.177215189873418,cathode,0.0141001123232841,0.014821283738066,0.013246742797148,-9.215076206138538e-06,high
1200,8.282828282828282,6.177215189873418,cathode,0.0142755598348487,0.0149464814885362,0.0134932945316276,-2.9321950132720943e-05,high
1200,8.383838383838384,6.177215189873418,cathode,0.0142392758858932,0.0149817394152963,0.0133575192479704,-2.159840525538654e-06,high
1200,8.484848484848484,6.177215189873418,cathode,0.0144479653073933,0.0151337177154633,0.0136462367714384,-6.533704277989238e-05,high
1200,8.585858585858587,6.177215189873418,cathode,0.0145219045978718,0.015155483162956,0.0137919506308646,3.06410031993192e-05,high
1200,8.686868686868687,6.177215189873418,cathode,0.0145258433953175,0.0152880761989555,0.0136193873303146,-2.138937450836412e-05,high
1200,8.787878787878787,6.177215189873418,cathode,0.0146704357531715,0.015389743294452,0.0138251090430258,-5.393099671763775e-05,high
1200,8.88888888888889,6.177215189873418,cathode,0.0146743573166817,0.0152988160814898,0.0139576875978554,2.6086813731465803e-05,high
1200,8.98989898989899,6.177215189873418,cathode,0.0149429735680138,0.015683654033525,0.0140676140493068,0.000128169155523,high
1200,9.09090909090909,6.177215189873418,cathode,0.0150483452856295,0.0156216779992257,0.0144001638962635,4.425535103828489e-05,critical
1200,9.191919191919192,6.177215189873418,cathode,0.0151062099224841,0.0159134549635075,0.0141428090709186,-2.187950081092423e-05,critical
1200,9.292929292929292,6.177215189873418,cathode,0.0153066140607449,0.0160458660161678,0.0144408505712263,1.1633295534576498e-05,critical
1200,9.393939393939394,6.177215189873418,cathode,0.0153857238463571,0.0161897303248132,0.0144283378817207,-9.503612897928524e-05,critical
1200,9.494949494949497,6.177215189873418,cathode,0.0154411523181424,0.0161924785841235,0.0145597586708042,-4.01253441108253e-05,critical
1200,9.595959595959595,6.177215189873418,cathode,0.0155288448402478,0.0163556998736386,0.0145428239020615,-1.2106842052676524e-05,critical
1200,9.696969696969695,6.177215189873418,cathode,0.0158655990598963,0.0167318567259698,0.0148274128006902,7.751707103863668e-06,critical
1200,9.797979797979798,6.177215189873418,cathode,0.0158982589702908,0.0166621263790253,0.0150018973767786,0.0001076536568151,critical
1200,9.8989898989899,6.177215189873418,cathode,0.0162115910741168,0.0170621533997439,0.015200155929308,-2.0480955321248005e-05,critical
1200,10.0,6.177215189873418,cathode,0.0163110066055172,0.0171227334978941,0.0153540252487015,-7.686603283271524e-05,critical
1200,0.0,6.278481012658228,cathode,0.0164106160509556,0.017208837478798,0.0154746625473987,-1.1048017685520836e-06,critical
1200,0.101010101010101,6.278481012658228,cathode,0.0162169006560866,0.0170224652529389,0.0152680107776182,-5.9367330817565205e-05,critical
1200,0.202020202020202,6.278481012658228,cathode,0.0158737588966666,0.0165901744354481,0.015043599668646,-5.2868895408556216e-05,critical
1200,0.303030303030303,6.278481012658228,cathode,0.0158347873337969,0.016691181032963,0.0148092263572771,7.131717371192613e-05,critical
1200,0.404040404040404,6.278481012658228,cathode,0.0157759658338213,0.0166001842025957,0.0147967046792726,1.337075811465428e-05,critical
1200,0.5050505050505051,6.278481012658228,cathode,0.0155349508312723,0.0162111051314334,0.0147564657220365,5.89718433085362e-06,critical
1200,0.6060606060606061,6.278481012658228,cathode,0.0154306643165396,0.0161692298070211,0.0145669844286451,-2.075391641122017e-05,critical
1200,0.7070707070707071,6.278481012658228,cathode,0.0153677605669845,0.0161969086613153,0.0143728938188199,-0.0001219102351594,critical
1200,0.8080808080808081,6.278481012658228,cathode,0.0150294257176837,0.0157818727304234,0.0141416243539236,6.299976635555684e-05,critical
1200,0.9090909090909092,6.278481012658228,cathode,0.0151454462643578,0.0158898861713962,0.0142708342261345,2.0671404990836293e-05,critical
1200,1.0101010101010102,6.278481012658228,cathode,0.014909521253303,0.0155959690173445,0.0141116534913335,-4.366840045928209e-05,high
1200,1.1111111111111112,6.278481012658228,cathode,0.0146675536385793,0.0153388488302613,0.0138885005780171,1.7168392749493706e-06,high
1200,1.2121212121212122,6.278481012658228,cathode,0.0146217879338193,0.015357042273419,0.0137539873940073,4.594053161436634e-05,high
1200,1.3131313131313131,6.278481012658228,cathode,0.0144816968555083,0.0150475858760126,0.013840190464115,9.75679293868087e-06,high
1200,1.414141414141414,6.278481012658228,cathode,0.0143925377361467,0.0150109247073787,0.013681095952278,-5.9990872768580375e-05,high
1200,1.5151515151515151,6.278481012658228,cathode,0.0143522669854214,0.0150269990723638,0.0135655421815001,-2.781845579384201e-05,high
1200,1.616161616161616,6.278481012658228,cathode,0.0143487398680436,0.0149937369130733,0.0136022262471413,-2.471224826713166e-05,high
1200,1.7171717171717171,6.278481012658228,cathode,0.0141428678080801,0.0147512468307394,0.013443639160262,1.2006394366959577e-05,high
1200,1.818181818181818,6.278481012658228,cathode,0.0141097486940388,0.0147593695293935,0.0133545983522852,4.536573923385708e-05,high
1200,1.9191919191919191,6.278481012658228,cathode,0.0141188668559263,0.0148098383884243,0.0133074968433563,-3.4125126431105713e-05,high
1200,2.0202020202020203,6.278481012658228,cathode,0.0138731531641175,0.0146064961243736,0.0129995229038151,3.887960129348169e-05,high
1200,2.121212121212121,6.278481012658228,cathode,0.0139161137142046,0.0146603252973441,0.0130277821314747,-2.235894973741676e-05,high
1200,2.2222222222222223,6.278481012658228,cathode,0.0138739486718055,0.0145182360110503,0.0131239966440315,4.190325790190789e-05,high
1200,2.323232323232323,6.278481012658228,cathode,0.0137690878726432,0.0143902630799247,0.0130497292087061,2.3898044745278484e-05,high
1200,2.4242424242424243,6.278481012658228,cathode,0.013811065897007,0.0144128073545531,0.0131181276694511,-9.97951607964755e-06,high
1200,2.525252525252525,6.278481012658228,cathode,0.0138242733675248,0.0145585813670327,0.0129482296729261,-5.6113899113932886e-05,high
1200,2.6262626262626263,6.278481012658228,cathode,0.0137477464660482,0.0145044699203255,0.0128386983194114,-4.907232177611856e-05,high
1200,2.727272727272727,6.278481012658228,cathode,0.0136654090023453,0.0143158932891991,0.012905105969867,-4.067099936559157e-05,high
1200,2.8282828282828283,6.278481012658228,cathode,0.0134643178741814,0.0140419746700192,0.0128006663971728,1.1199409204692416e-05,high
1200,2.929292929292929,6.278481012658228,cathode,0.0134875403604081,0.0141344490911597,0.0127292922653693,7.691072143795547e-05,high
1200,3.0303030303030303,6.278481012658228,cathode,0.0135042187584569,0.0141008089895782,0.0128137626315492,-8.759117777648496e-05,high
1200,3.131313131313131,6.278481012658228,cathode,0.0134460412100024,0.0141083603188794,0.0126676740144168,-1.0611247452111396e-05,high
1200,3.2323232323232323,6.278481012658228,cathode,0.0133217812663195,0.0140689006622761,0.0124202910195421,6.351326120639676e-05,high
1200,3.333333333333333,6.278481012658228,cathode,0.0134643176771375,0.014080540220876,0.0127473038343104,8.447268134704718e-05,high
1200,3.4343434343434343,6.278481012658228,cathode,0.0133078103716692,0.0139669846638268,0.0125306240631189,-8.093411987322491e-05,high
1200,3.5353535353535355,6.278481012658228,cathode,0.013328142838023,0.0140065383933059,0.0125256989742005,4.009380847860239e-05,high
1200,3.636363636363636,6.278481012658228,cathode,0.0132523191057446,0.013879262436924,0.0125186110715752,-8.850825627101815e-05,high
1200,3.7373737373737375,6.278481012658228,cathode,0.013230649184192,0.0138576909669139,0.0124982131234705,4.290580638452661e-05,high
1200,3.8383838383838382,6.278481012658228,cathode,0.0132980844110658,0.0138829748075932,0.0126233888008063,2.7709127793474623e-05,high
1200,3.939393939393939,6.278481012658228,cathode,0.0132527301293717,0.0138056489821715,0.0126192664493885,-5.827908462196231e-05,high
1200,4.040404040404041,6.278481012658228,cathode,0.0132759345440869,0.0138773079085025,0.0125755589347304,-0.0001168819481216,high
1200,4.141414141414141,6.278481012658228,cathode,0.0132415427472017,0.0138435434992094,0.0125417043164967,-8.57123263801763e-05,high
1200,4.242424242424242,6.278481012658228,cathode,0.0130219304036772,0.013553503575798,0.0124141126994608,7.689604807942078e-05,high
1200,4.343434343434343,6.278481012658228,cathode,0.0132636294746082,0.0139518407217826,0.0124469427402493,2.149666458266213e-05,high
1200,4.444444444444445,6.278481012658228,cathode,0.0132026114710499,0.0138005922542161,0.0125098138869019,-2.785132275394109e-07,high
1200,4.545454545454545,6.278481012658228,cathode,0.0130181439670511,0.013651035865923,0.0122760741868314,-1.1884313632423756e-05,high
1200,4.646464646464646,6.278481012658228,cathode,0.0132967248521976,0.0138346471251564,0.0126838908465489,2.234387528490571e-05,high
1200,4.747474747474747,6.278481012658228,cathode,0.0130901820555223,0.0138490848491325,0.0121682538358812,-5.320874837087281e-05,high
1200,4.848484848484849,6.278481012658228,cathode,0.0132199853719501,0.0137665629750584,0.0125952571584582,2.974928349027932e-05,high
1200,4.94949494949495,6.278481012658228,cathode,0.0131526837629681,0.0137707189346478,0.0124315949239512,-5.1112443019028886e-05,high
1200,5.05050505050505,6.278481012658228,cathode,0.0131946572460583,0.0137103768498351,0.012609288094469,-5.32034160998319e-05,high
1200,5.151515151515151,6.278481012658228,cathode,0.0131588126370436,0.0136811005228011,0.0125631625729143,-9.429512657659752e-05,high
1200,5.252525252525253,6.278481012658228,cathode,0.0131123528520266,0.0136745775096273,0.012466374670401,2.3356090443573957e-05,high
1200,5.353535353535354,6.278481012658228,cathode,0.0131881525535739,0.0138928706993824,0.0123455744950327,7.696766260501474e-05,high
1200,5.454545454545454,6.278481012658228,cathode,0.0129743211430083,0.0136089885690925,0.0122275379608263,8.20142300744119e-05,high
1200,5.555555555555555,6.278481012658228,cathode,0.0130803369944771,0.0138121842748814,0.0121988046896627,5.288231526612035e-06,high
1200,5.656565656565657,6.278481012658228,cathode,0.0131849248926384,0.0136907590391234,0.0126128361731708,1.84920951625733e-05,high
1200,5.757575757575758,6.278481012658228,cathode,0.013013372286082,0.0136607698715729,0.0122508893088382,3.423197744058905e-05,high
1200,5.858585858585858,6.278481012658228,cathode,0.0132058122160196,0.0138604177197153,0.0124350965509337,-4.583764706002004e-05,high
1200,5.959595959595959,6.278481012658228,cathode,0.013219826759484,0.0138308330943159,0.0125095217168727,-1.682100692784738e-05,high
1200,6.0606060606060606,6.278481012658228,cathode,0.0132346566327977,0.0137902066563786,0.0125970648927086,7.398374951881645e-05,high
1200,6.161616161616162,6.278481012658228,cathode,0.013164238343968,0.0138006013779319,0.0124180072187461,5.6677548724996965e-05,high
1200,6.262626262626262,6.278481012658228,cathode,0.0133091232894523,0.0138048036057214,0.0127499736002708,-5.542220845697575e-05,high
1200,6.363636363636363,6.278481012658228,cathode,0.013317795123274,0.0139853230543825,0.0125304302200887,4.016278494322042e-05,high
1200,6.4646464646464645,6.278481012658228,cathode,0.0133960934361897,0.0139914900020294,0.0127078602277692,-4.364489178904484e-05,high
1200,6.565656565656566,6.278481012658228,cathode,0.0133431646611648,0.0139445848998851,0.0126469169899703,5.582176828176218e-06,high
1200,6.666666666666667,6.278481012658228,cathode,0.0133767727115272,0.0140020220624073,0.012648415692404,-2.829835923032144e-05,high
1200,6.767676767676767,6.278481012658228,cathode,0.0134824298712333,0.014080988567962,0.0127908049631003,3.725156829764036e-05,high
1200,6.8686868686868685,6.278481012658228,cathode,0.0132972223216052,0.013974856795571,0.0124954946582641,4.025211313411061e-05,high
1200,6.96969696969697,6.278481012658228,cathode,0.0136191517598143,0.0142733821698502,0.0128530160575705,5.113556822742269e-05,high
1200,7.070707070707071,6.278481012658228,cathode,0.0135491932575675,0.0141839368822904,0.0128097113370585,1.2905486924716989e-06,high
1200,7.171717171717171,6.278481012658228,cathode,0.0136379017008951,0.0142905707442079,0.0128705748074977,-0.0001266419333376,high
1200,7.272727272727272,6.278481012658228,cathode,0.0135449971592027,0.0141724894321821,0.0128145583167806,5.409499662825436e-05,high
1200,7.373737373737374,6.278481012658228,cathode,0.0136237668001023,0.0143110692020191,0.0128123468623862,2.8697179727084252e-05,high
1200,7.474747474747475,6.278481012658228,cathode,0.0137427275340359,0.014395009428333,0.0129810217270915,-2.056456991584082e-05,high
1200,7.575757575757575,6.278481012658228,cathode,0.0137056395652533,0.0143731079277765,0.012922554333134,3.2568026318867953e-05,high
1200,7.6767676767676765,6.278481012658228,cathode,0.0137387562235989,0.0143320489365762,0.0130564663411564,1.1504687831690526e-05,high
1200,7.777777777777778,6.278481012658228,cathode,0.0140107060366458,0.0146713853204892,0.013240039229415,-2.1716504699872728e-05,high
1200,7.878787878787879,6.278481012658228,cathode,0.013974692338492,0.0146639050136625,0.0131608467612057,0.0001203260009855,high
1200,7.979797979797979,6.278481012658228,cathode,0.0139238825077041,0.0145281703446853,0.0132283126838671,2.3763459196595888e-05,high
1200,8.080808080808081,6.278481012658228,cathode,0.0139889471816756,0.014645573448658,0.0132231486237991,-4.745691717533554e-05,high
1200,8.181818181818182,6.278481012658228,cathode,0.0141873432759701,0.0148929944293217,0.0133565693113357,1.6276142698784692e-05,high
1200,8.282828282828282,6.278481012658228,cathode,0.0142820739409885,0.0148511252402596,0.013635124518917,2.605381985320911e-05,high
1200,8.383838383838384,6.278481012658228,cathode,0.014144042995633,0.014787901471407,0.0133971780855336,3.5077070075283144e-05,high
1200,8.484848484848484,6.278481012658228,cathode,0.0143305348822813,0.015004824134678,0.0135442942170721,2.1052446861241364e-05,high
1200,8.585858585858587,6.278481012658228,cathode,0.0144474867954359,0.0151277212948589,0.0136539570652067,3.931346365595131e-05,high
1200,8.686868686868687,6.278481012658228,cathode,0.0144753824317385,0.015131897091658,0.0137140160667729,-4.909211954300639e-05,high
1200,8.787878787878787,6.278481012658228,cathode,0.0146030174862712,0.0154217702526795,0.0136163603461801,8.828691333873182e-06,high
1200,8.88888888888889,6.278481012658228,cathode,0.0147125045050044,0.015425517915363,0.0138734001811062,0.0001215679619639,high
1200,8.98989898989899,6.278481012658228,cathode,0.0147360772400903,0.0154994442951101,0.0138305131057389,2.139825429758934e-05,high
1200,9.09090909090909,6.278481012658228,cathode,0.0149602639104718,0.0157303744102972,0.0140467839420014,-6.794296086802646e-05,high
1200,9.191919191919192,6.278481012658228,cathode,0.0150496751373082,0.015877981935277,0.014053912330478,-7.686722766014389e-05,critical
1200,9.292929292929292,6.278481012658228,cathode,0.0151740716874735,0.0158984301853577,0.0143267520760434,-5.6011407706626e-05,critical
1200,9.393939393939394,6.278481012658228,cathode,0.0152490429122082,0.0159727961736859,0.0144032668114514,5.610200508263439e-05,critical
1200,9.494949494949497,6.278481012658228,cathode,0.0155673455010984,0.0163693744627746,0.014616808214015,-3.0278642131336805e-05,critical
1200,9.595959595959595,6.278481012658228,cathode,0.0156320675268114,0.0164061528759606,0.0147215204944782,3.32179953074877e-06,critical
1200,9.696969696969695,6.278481012658228,cathode,0.0158469960287734,0.016595647692013,0.0149735040590105,1.765494836732495e-05,critical
1200,9.797979797979798,6.278481012658228,cathode,0.0159051981843687,0.0166311759247811,0.0150620016890287,-6.885160930255652e-05,critical
1200,9.8989898989899,6.278481012658228,cathode,0.0162587953502836,0.0170711516708435,0.0153015124907308,2.8064758702724077e-05,critical
1200,10.0,6.278481012658228,cathode,0.0162979647381701,0.0171295213396853,0.0153140881469069,-4.023770590870856e-05,critical
1200,0.0,6.379746835443038,cathode,0.0161796164996061,0.0168849160731448,0.0153673615480597,1.1666662718263676e-05,critical
1200,0.101010101010101,6.379746835443038,cathode,0.0160879546581982,0.0169316955845397,0.0150845488920235,3.3388175151452274e-05,critical
1200,0.202020202020202,6.379746835443038,cathode,0.015997195718082,0.0168392775815907,0.0149951618448196,2.459882259631337e-05,critical
1200,0.303030303030303,6.379746835443038,cathode,0.0158512140373898,0.0165807803012431,0.0150034919795434,-3.436929396137799e-05,critical
1200,0.404040404040404,6.379746835443038,cathode,0.0156472853106169,0.0164222790486867,0.0147355563541412,1.902417931192485e-05,critical
1200,0.5050505050505051,6.379746835443038,cathode,0.0154668322088582,0.0161322371026706,0.0147020341427542,-1.5463806670521804e-05,critical
1200,0.6060606060606061,6.379746835443038,cathode,0.0153285600718385,0.0160198606761094,0.0145270459941482,-7.07232625474588e-05,critical
1200,0.7070707070707071,6.379746835443038,cathode,0.0152894302011894,0.0159830286763521,0.0144854320516813,-3.0574256296971604e-05,critical
1200,0.8080808080808081,6.379746835443038,cathode,0.0151217005133984,0.0158911844962756,0.0142117875146059,-3.324042922812142e-05,critical
1200,0.9090909090909092,6.379746835443038,cathode,0.0149813320171326,0.0156515508539194,0.0142063089275238,1.6514197145952505e-05,high
1200,1.0101010101010102,6.379746835443038,cathode,0.0149141369855455,0.0156904171846834,0.0139920205902644,4.579197074277666e-05,high
1200,1.1111111111111112,6.379746835443038,cathode,0.014754388956872,0.0155232549968324,0.0138409116415986,-4.364067142133821e-05,high
1200,1.2121212121212122,6.379746835443038,cathode,0.0145620370899074,0.0153015102727171,0.0136880796776569,2.216695230825944e-05,high
1200,1.3131313131313131,6.379746835443038,cathode,0.014534219570111,0.0152504616859961,0.0136922609465065,-2.737400405367301e-05,high
1200,1.414141414141414,6.379746835443038,cathode,0.0144443864431076,0.0150627202751457,0.0137334029992195,-6.002081490086855e-05,high
1200,1.5151515151515151,6.379746835443038,cathode,0.0143470189974662,0.0150750549642951,0.0134854413524008,-7.374070182402267e-05,high
1200,1.616161616161616,6.379746835443038,cathode,0.0143028480738102,0.014917159222345,0.013596992340255,-6.396388025315614e-06,high
1200,1.7171717171717171,6.379746835443038,cathode,0.0142970675927017,0.0149721099626654,0.0135094927502546,2.0669168661212195e-05,high
1200,1.818181818181818,6.379746835443038,cathode,0.0141917834462071,0.0148621457946507,0.0134072088253221,-9.997255965676436e-05,high
1200,1.9191919191919191,6.379746835443038,cathode,0.0139491748493968,0.0146585376001738,0.0131105868694502,-2.079205069491923e-05,high
1200,2.0202020202020203,6.379746835443038,cathode,0.0140700648031335,0.0147961637797966,0.0132093825293163,-1.4849172267626646e-05,high
1200,2.121212121212121,6.379746835443038,cathode,0.0140774142925027,0.0147634401396633,0.0132727325619409,7.9877511567041e-06,high
1200,2.2222222222222223,6.379746835443038,cathode,0.0138813412857093,0.0145040500774789,0.013160513804388,-4.395038502337784e-05,high
1200,2.323232323232323,6.379746835443038,cathode,0.0137597578962069,0.014338974093265,0.0130953741279282,5.821261737893029e-05,high
1200,2.4242424242424243,6.379746835443038,cathode,0.0137833809935828,0.0144371462406114,0.0130192309885474,5.934708716880564e-05,high
1200,2.525252525252525,6.379746835443038,cathode,0.0137243219319763,0.0143831371671581,0.0129532951448281,3.436785783785807e-05,high
1200,2.6262626262626263,6.379746835443038,cathode,0.0136547774663211,0.0143092227878862,0.0128891073966704,-3.220069581509201e-05,high
1200,2.727272727272727,6.379746835443038,cathode,0.0136420895576444,0.0142844214581624,0.0128931307135052,1.229598129373364e-06,high
1200,2.8282828282828283,6.379746835443038,cathode,0.0135119424073514,0.0141439106217781,0.0127737007572983,-9.13431739806733e-05,high
1200,2.929292929292929,6.379746835443038,cathode,0.013500096085256,0.0142100043155664,0.0126530095996282,-9.838826160501773e-05,high
1200,3.0303030303030303,6.379746835443038,cathode,0.0134845724361758,0.0141522613771577,0.0126989351479349,3.102274850215457e-05,high
1200,3.131313131313131,6.379746835443038,cathode,0.0133527293275057,0.0139573065347483,0.0126514893773947,-5.62929355637017e-05,high
1200,3.2323232323232323,6.379746835443038,cathode,0.0133562014247742,0.0138815466108219,0.012759893141637,3.1403818586775056e-05,high
1200,3.333333333333333,6.379746835443038,cathode,0.0133812246076853,0.0140033716946328,0.012657333875058,-1.0446839854917263e-06,high
1200,3.4343434343434343,6.379746835443038,cathode,0.0133348095106519,0.0140131154843205,0.0125326085897689,-3.808994765802239e-05,high
1200,3.5353535353535355,6.379746835443038,cathode,0.0134148490775644,0.0140669716733978,0.0126500088959583,3.201798196057315e-05,high
1200,3.636363636363636,6.379746835443038,cathode,0.0133135487373802,0.0140100676889496,0.0124857951040178,-1.0622488408488263e-05,high
1200,3.7373737373737375,6.379746835443038,cathode,0.0132571631421491,0.0138595371329117,0.0125586933502255,2.888599604512688e-05,high
1200,3.8383838383838382,6.379746835443038,cathode,0.0132646693619451,0.013856943110189,0.012580040934981,4.566427963267986e-06,high
1200,3.939393939393939,6.379746835443038,cathode,0.0132987254640374,0.0139320524040798,0.0125588369356439,-1.143591020122738e-06,high
1200,4.040404040404041,6.379746835443038,cathode,0.0132747769358194,0.0139109729110366,0.0125305872425586,2.2937679402250724e-05,high
1200,4.141414141414141,6.379746835443038,cathode,0.0132833363460088,0.0139837129906146,0.012446789960748,-0.0001041691187439,high
1200,4.242424242424242,6.379746835443038,cathode,0.0132299415850679,0.0138234974319797,0.0125429123637101,3.889892003755551e-05,high
1200,4.343434343434343,6.379746835443038,cathode,0.0130903955459626,0.013737738088576,0.0123287304047895,3.778726030847545e-05,high
1200,4.444444444444445,6.379746835443038,cathode,0.0131946423836079,0.0137917731652657,0.0125023456535786,-4.636462553433771e-05,high
1200,4.545454545454545,6.379746835443038,cathode,0.013062459648775,0.0136028097480386,0.012444613718385,-3.967044973999034e-05,high
1200,4.646464646464646,6.379746835443038,cathode,0.0132424692702787,0.013868259668317,0.0125100051007739,9.334115655804137e-05,high
1200,4.747474747474747,6.379746835443038,cathode,0.0130570668639923,0.0136541392192841,0.0123616089920308,-9.870925464833607e-05,high
1200,4.848484848484849,6.379746835443038,cathode,0.0131360063299254,0.0137534275088268,0.0124156402523572,4.959626934912366e-05,high
1200,4.94949494949495,6.379746835443038,cathode,0.0132567887639526,0.0138374903628363,0.0125875274760676,9.146433530000348e-06,high
1200,5.05050505050505,6.379746835443038,cathode,0.0130400845199951,0.0136424104363356,0.0123390546471804,5.9498129610563024e-05,high
1200,5.151515151515151,6.379746835443038,cathode,0.0132143910722014,0.013804686036712,0.0125316854239157,-3.4727802988042807e-05,high
1200,5.252525252525253,6.379746835443038,cathode,0.01320922621041,0.0138050918376992,0.0125187175236271,-4.779504155776983e-05,high
1200,5.353535353535354,6.379746835443038,cathode,0.0131778165101466,0.0138741855881221,0.0123486508795894,-6.2652960681863385e-06,high
1200,5.454545454545454,6.379746835443038,cathode,0.0132034772990696,0.0139686823208155,0.0122744687922757,-3.315665190074981e-05,high
1200,5.555555555555555,6.379746835443038,cathode,0.0131749184778597,0.0138347369816723,0.0123964924469182,5.071836649321057e-05,high
1200,5.656565656565657,6.379746835443038,cathode,0.0132644235801509,0.0139438546051274,0.0124590065341741,-6.728913481664675e-05,high
1200,5.757575757575758,6.379746835443038,cathode,0.0132454702279136,0.0139654174973336,0.0123826298992136,5.375475265934644e-05,high
1200,5.858585858585858,6.379746835443038,cathode,0.0131593049716822,0.0136599690455334,0.0125936346142322,-2.2943533527052653e-05,high
1200,5.959595959595959,6.379746835443038,cathode,0.0132406061639957,0.0139278543211905,0.0124232562743487,8.272992915763613e-05,high
1200,6.0606060606060606,6.379746835443038,cathode,0.0132423466715844,0.0137278693350689,0.0126955926705895,5.975769206302597e-05,high
1200,6.161616161616162,6.379746835443038,cathode,0.0132337376241802,0.0138649659712457,0.0124946098455959,7.437576074213163e-05,high
1200,6.262626262626262,6.379746835443038,cathode,0.013349338892802,0.0140566564511482,0.0125066999427854,5.752209164801382e-06,high
1200,6.363636363636363,6.379746835443038,cathode,0.0133094210587706,0.0139924667901361,0.0125002601085097,-3.887459569221002e-05,high
1200,6.4646464646464645,6.379746835443038,cathode,0.0133389196975447,0.0139817638234702,0.0125851026059671,6.875999393511724e-05,high
1200,6.565656565656566,6.379746835443038,cathode,0.0133173095122517,0.0140257662437846,0.0124725402236209,2.071981891781362e-05,high
1200,6.666666666666667,6.379746835443038,cathode,0.0133222680307361,0.013932898933431,0.0126134401097892,4.7484351179898905e-06,high
1200,6.767676767676767,6.379746835443038,cathode,0.0133117319648644,0.0140092990081877,0.0124811405479118,7.049757860318838e-05,high
1200,6.8686868686868685,6.379746835443038,cathode,0.0134420653067411,0.0140741600500887,0.0127051806117946,9.480023572453975e-06,high
1200,6.96969696969697,6.379746835443038,cathode,0.0135119176066641,0.0141710121832346,0.0127386656915992,1.3092279825976871e-05,high
1200,7.070707070707071,6.379746835443038,cathode,0.0134958322587777,0.0141758096545986,0.0126907553581441,0.000100614385184,high
1200,7.171717171717171,6.379746835443038,cathode,0.0135922695550505,0.0142893039644573,0.0127650219444224,-8.770652528592015e-05,high
1200,7.272727272727272,6.379746835443038,cathode,0.0135650144858816,0.0142863065522182,0.0127049662083949,2.542131959649361e-05,high
1200,7.373737373737374,6.379746835443038,cathode,0.0136139696283503,0.0143042072509014,0.0127982571716825,3.346822605221105e-05,high
1200,7.474747474747475,6.379746835443038,cathode,0.0135377178536907,0.0141804997076854,0.0127865379965363,4.891186561841439e-05,high
1200,7.575757575757575,6.379746835443038,cathode,0.0136766030194943,0.0144082134933808,0.0128023674066592,6.187536600835134e-05,high
1200,7.6767676767676765,6.379746835443038,cathode,0.0137398034624638,0.0143740410882112,0.0130026490675445,1.7040738524760612e-05,high
1200,7.777777777777778,6.379746835443038,cathode,0.0138629620838678,0.0145805131349262,0.0130119809868794,4.652909231528232e-06,high
1200,7.878787878787879,6.379746835443038,cathode,0.0139407070336095,0.0146946054123831,0.0130365799719033,9.463195646897368e-05,high
1200,7.979797979797979,6.379746835443038,cathode,0.0139971358853834,0.0147285747732401,0.0131280533768352,1.4473720242186325e-05,high
1200,8.080808080808081,6.379746835443038,cathode,0.0140300532681356,0.0146268415601945,0.0133452705750107,1.645436163057301e-05,high
1200,8.181818181818182,6.379746835443038,cathode,0.0141286913535053,0.0148514176872239,0.0132734001132563,-1.7987840789220198e-05,high
1200,8.282828282828282,6.379746835443038,cathode,0.0142216649491438,0.0148374196195938,0.0135126614401261,-5.079936673869174e-05,high
1200,8.383838383838384,6.379746835443038,cathode,0.0141680816625713,0.0148228305117273,0.0134069776450995,1.3433162003961886e-05,high
1200,8.484848484848484,6.379746835443038,cathode,0.0143907719177534,0.0151000490898147,0.0135571570771728,-4.591386489809935e-06,high
1200,8.585858585858587,6.379746835443038,cathode,0.0144225442298975,0.0151050036871474,0.0136247240849539,7.538086203457689e-05,high
1200,8.686868686868687,6.379746835443038,cathode,0.0146336126363456,0.0153401816896994,0.0138060408101409,2.487374328676773e-05,high
1200,8.787878787878787,6.379746835443038,cathode,0.0146761662506029,0.0153539334385563,0.0138883861562517,-1.4948429221152944e-05,high
1200,8.88888888888889,6.379746835443038,cathode,0.0148289147654443,0.0156024569656792,0.0139101713124993,3.321664122433401e-06,high
1200,8.98989898989899,6.379746835443038,cathode,0.0148836208259266,0.015639000541225,0.0139903937881837,5.319347838065689e-05,high
1200,9.09090909090909,6.379746835443038,cathode,0.0149704510218904,0.015665245628813,0.0141622014291828,1.7300288062487384e-05,high
1200,9.191919191919192,6.379746835443038,cathode,0.0151044808484401,0.0158295813716263,0.0142536795220767,-0.000103433105085,critical
1200,9.292929292929292,6.379746835443038,cathode,0.0152792588743618,0.0159732212882502,0.0144733092886246,-8.295320499107749e-05,critical
1200,9.393939393939394,6.379746835443038,cathode,0.0152971913543585,0.0160699760559913,0.014381122866616,0.0001258810441229,critical
1200,9.494949494949497,6.379746835443038,cathode,0.0155491133023328,0.0162914230854991,0.0146814255652836,-2.2487710609726857e-05,critical
1200,9.595959595959595,6.379746835443038,cathode,0.0156399398414598,0.0163907133670655,0.0147615175101818,2.3357597520862555e-05,critical
1200,9.696969696969695,6.379746835443038,cathode,0.0157251245581864,0.0163587849706427,0.0150037709659607,2.340702893123374e-06,critical
1200,9.797979797979798,6.379746835443038,cathode,0.0160334866981408,0.0168779187707145,0.0150260150829253,-0.0001084533900941,critical
1200,9.8989898989899,6.379746835443038,cathode,0.0160261953548005,0.0167602922353325,0.0151740547438848,-1.996888004371339e-05,critical
1200,10.0,6.379746835443038,cathode,0.016270401866688,0.0170458585264656,0.0153630058913611,-7.822818470982405e-05,critical
1200,0.0,6.481012658227848,cathode,0.0163282175533236,0.0170865245154896,0.015445092394038,6.693087129986289e-05,critical
1200,0.101010101010101,6.481012658227848,cathode,0.0161623509395941,0.0169084999687802,0.0152951966944013,1.5926609383340785e-06,critical
1200,0.202020202020202,6.481012658227848,cathode,0.0160141003047114,0.0167735379248349,0.0151275177370777,-3.3486001099101203e-06,critical
1200,0.303030303030303,6.481012658227848,cathode,0.0159249732853759,0.0167151262597713,0.0149951808780609,-8.570472040096248e-06,critical
1200,0.404040404040404,6.481012658227848,cathode,0.0158413512042881,0.0165887877564534,0.0149684927843461,-6.807434035226127e-05,critical
1200,0.5050505050505051,6.481012658227848,cathode,0.01554319672426,0.0161607528765943,0.0148415495868989,-4.159724037501079e-06,critical
1200,0.6060606060606061,6.481012658227848,cathode,0.0153202641111324,0.0160301314461445,0.0144939821287988,-5.859182808297855e-05,critical
1200,0.7070707070707071,6.481012658227848,cathode,0.0152478087660589,0.0159841764459027,0.0143854154553562,1.4336147573878178e-05,critical
1200,0.8080808080808081,6.481012658227848,cathode,0.0151444841192382,0.0158487448519503,0.0143248291235301,2.897276834137179e-05,critical
1200,0.9090909090909092,6.481012658227848,cathode,0.0150925737636471,0.0158629424672242,0.0141810970730441,3.2923595311104486e-05,critical
1200,1.0101010101010102,6.481012658227848,cathode,0.0148068215447479,0.0155679023405033,0.0139053197028937,1.93570228764583e-05,high
1200,1.1111111111111112,6.481012658227848,cathode,0.0146800208371986,0.0153368037555381,0.0139205254621352,1.6333906277057402e-05,high
1200,1.2121212121212122,6.481012658227848,cathode,0.0145646570917275,0.0152503199190188,0.0137645154960932,5.277805955317603e-05,high
1200,1.3131313131313131,6.481012658227848,cathode,0.0144326847043939,0.0151093408181107,0.0136441937885371,1.78682103220803e-05,high
1200,1.414141414141414,6.481012658227848,cathode,0.0145186203716608,0.0152215246394732,0.0136951017820002,3.721190569529921e-06,high
1200,1.5151515151515151,6.481012658227848,cathode,0.014338241308363,0.0149906325194995,0.0135814063146342,-4.23247747611637e-05,high
1200,1.616161616161616,6.481012658227848,cathode,0.0142150064303035,0.0150240573263615,0.0132368943049827,-1.4110132719065984e-05,high
1200,1.7171717171717171,6.481012658227848,cathode,0.014170972671113,0.0149364356837913,0.0132543747070024,-6.836659950619935e-05,high
1200,1.818181818181818,6.481012658227848,cathode,0.0140827305877332,0.0147441558251627,0.0133116969237729,-2.329922071501337e-05,high
1200,1.9191919191919191,6.481012658227848,cathode,0.0141427925986951,0.0147938641730536,0.0133863582964529,-2.268103088470856e-05,high
1200,2.0202020202020203,6.481012658227848,cathode,0.0139899488259329,0.0146133553016459,0.0132689182565699,-5.079446261803269e-05,high
1200,2.121212121212121,6.481012658227848,cathode,0.0139136228560224,0.014559981892637,0.0131606383162208,-6.346378246001166e-05,high
1200,2.2222222222222223,6.481012658227848,cathode,0.013715638137544,0.0144010975254958,0.0129069631550871,-6.286718493959866e-05,high
1200,2.323232323232323,6.481012658227848,cathode,0.013717628418429,0.0144112170448199,0.0128986600176318,-6.098200915417021e-06,high
1200,2.4242424242424243,6.481012658227848,cathode,0.0137387346836826,0.0143517439796725,0.0130300375450835,-2.68322991255186e-05,high
1200,2.525252525252525,6.481012658227848,cathode,0.0136510084550584,0.0143117412154401,0.0128767348558937,2.7638323331153093e-05,high
1200,2.6262626262626263,6.481012658227848,cathode,0.013759577834937,0.0144110869060304,0.0129991961335355,-6.960172095057422e-07,high
1200,2.727272727272727,6.481012658227848,cathode,0.0136362914101532,0.0142936075412876,0.0128667177814058,-1.431460607187786e-05,high
1200,2.8282828282828283,6.481012658227848,cathode,0.0134942894974691,0.0141373517078127,0.0127425746677671,3.735553854119112e-05,high
1200,2.929292929292929,6.481012658227848,cathode,0.0135416007279011,0.014226118766588,0.01273335410566,-1.1491110133972916e-05,high
1200,3.0303030303030303,6.481012658227848,cathode,0.0134986093717841,0.0141501682423471,0.0127346862215131,-6.0313273283001626e-05,high
1200,3.131313131313131,6.481012658227848,cathode,0.0134967630113159,0.0141449220217557,0.012738453957028,-2.674985281272604e-06,high
1200,3.2323232323232323,6.481012658227848,cathode,0.0134094405717044,0.0140409248651011,0.0126730516001729,1.4763102547860314e-05,high
1200,3.333333333333333,6.481012658227848,cathode,0.0133321585646715,0.0140650360347446,0.012449676432356,0.0001031466698705,high
1200,3.4343434343434343,6.481012658227848,cathode,0.0133810405412834,0.0139968056394311,0.0126655366031718,-3.116925232757934e-05,high
1200,3.5353535353535355,6.481012658227848,cathode,0.0133437430473926,0.0140056274491372,0.0125632745794681,-7.864140756407484e-05,high
1200,3.636363636363636,6.481012658227848,cathode,0.013300075148132,0.0139342931533355,0.012558960166225,8.669165334270261e-06,high
1200,3.7373737373737375,6.481012658227848,cathode,0.0132301602387824,0.0138241343523779,0.0125418251944709,-6.569285857003947e-05,high
1200,3.8383838383838382,6.481012658227848,cathode,0.0131829279299183,0.01369869199762,0.0125977552090667,-3.9826802584821554e-05,high
1200,3.939393939393939,6.481012658227848,cathode,0.0131554036676899,0.0138705893482414,0.0122974395948677,7.552231042361448e-05,high
1200,4.040404040404041,6.481012658227848,cathode,0.0133417215504724,0.0140646552419624,0.0124766034701357,-1.28983488286829e-05,high
1200,4.141414141414141,6.481012658227848,cathode,0.013213013179896,0.013846139811935,0.0124724090640488,2.490938212081106e-05,high
1200,4.242424242424242,6.481012658227848,cathode,0.0131251964885894,0.0136890990794756,0.0124771070250365,2.238923187130229e-05,high
1200,4.343434343434343,6.481012658227848,cathode,0.013212158739488,0.013748501252564,0.0125998870473245,6.392994250600131e-05,high
1200,4.444444444444445,6.481012658227848,cathode,0.0132350075001297,0.013848483663289,0.0125215663895011,1.4711920649874706e-06,high
1200,4.545454545454545,6.481012658227848,cathode,0.0132491583835385,0.0138903198834133,0.0124979769881849,1.5065111660915088e-05,high
1200,4.646464646464646,6.481012658227848,cathode,0.0132214119236922,0.0137881674033783,0.0125697968262661,-4.7761650469420974e-05,high
1200,4.747474747474747,6.481012658227848,cathode,0.013125950409998,0.0138060268867408,0.0123178281765722,7.2045755762453e-05,high
1200,4.848484848484849,6.481012658227848,cathode,0.013201511848515,0.0137929026289885,0.0125166028323189,5.969311408511698e-05,high
1200,4.94949494949495,6.481012658227848,cathode,0.0132187850402299,0.0139164481177715,0.0123880429351109,-2.9993056005574777e-05,high
1200,5.05050505050505,6.481012658227848,cathode,0.0132839373291652,0.0139329444269295,0.012521211022437,6.496775189405395e-05,high
1200,5.151515151515151,6.481012658227848,cathode,0.0130815739394147,0.013612093784059,0.012476185076629,-5.855712426592438e-05,high
1200,5.252525252525253,6.481012658227848,cathode,0.0130178005484746,0.0135412661828378,0.0124203791973258,-7.975521468199588e-05,high
1200,5.353535353535354,6.481012658227848,cathode,0.0132321592956286,0.0138553294567557,0.012505262353012,-3.07061130376207e-05,high
1200,5.454545454545454,6.481012658227848,cathode,0.0132070935936294,0.0138672373472399,0.0124289536816562,3.3717487174905095e-05,high
1200,5.555555555555555,6.481012658227848,cathode,0.0132961739393874,0.0139560240909513,0.0125195265181833,-2.5182366893623817e-05,high
1200,5.656565656565657,6.481012658227848,cathode,0.0131626614640108,0.0138461295614667,0.0123483743767977,0.0001083124005134,high
1200,5.757575757575758,6.481012658227848,cathode,0.0132204552790001,0.0139330727230401,0.0123685301206982,-1.839003986511114e-05,high
1200,5.858585858585858,6.481012658227848,cathode,0.0131311606418652,0.0137417395548788,0.0124206314800106,-1.7984730120996064e-05,high
1200,5.959595959595959,6.481012658227848,cathode,0.0131955818759787,0.0137720968105878,0.0125313377970422,1.915558159479751e-05,high
1200,6.0606060606060606,6.481012658227848,cathode,0.0131862979386657,0.0139025803016345,0.0123285242675326,2.8880782228714465e-05,high
1200,6.161616161616162,6.481012658227848,cathode,0.0134818285110875,0.0141683742574219,0.0126698537680354,-3.1125407242568536e-05,high
1200,6.262626262626262,6.481012658227848,cathode,0.0133605066772111,0.0139286434998416,0.0127086925632823,1.8548262999644351e-06,high
1200,6.363636363636363,6.481012658227848,cathode,0.0133314449456879,0.0139136279289475,0.0126608106516748,4.637650874096354e-06,high
1200,6.4646464646464645,6.481012658227848,cathode,0.0132453871770393,0.0137498993402787,0.0126744807846818,-6.033633588796951e-05,high
1200,6.565656565656566,6.481012658227848,cathode,0.0133175178585941,0.0139272310506631,0.0126098893009637,4.115445087162712e-06,high
1200,6.666666666666667,6.481012658227848,cathode,0.0133986968617262,0.0140971007845016,0.0125687977981869,-4.381123673083688e-05,high
1200,6.767676767676767,6.481012658227848,cathode,0.0135854846694728,0.0142920170075702,0.0127463615023623,-4.134161463482983e-05,high
1200,6.8686868686868685,6.481012658227848,cathode,0.0134702331901814,0.0141874458941134,0.012612468285305,-9.646474421914635e-05,high
1200,6.96969696969697,6.481012658227848,cathode,0.013506629385441,0.0141101589953631,0.0128087635271744,2.3925499626297988e-05,high
1200,7.070707070707071,6.481012658227848,cathode,0.0134340073255588,0.0140943732457332,0.0126580569040955,-2.6892488790888525e-05,high
1200,7.171717171717171,6.481012658227848,cathode,0.0137254538164317,0.0142621621971328,0.0131163793886848,-4.9443376071549824e-05,high
1200,7.272727272727272,6.481012658227848,cathode,0.0136332426756049,0.0143607845955074,0.0127652989555953,-2.7583938221000807e-06,high
1200,7.373737373737374,6.481012658227848,cathode,0.0135962231128017,0.0141959905283047,0.0129042531699766,-3.7306991595952767e-06,high
1200,7.474747474747475,6.481012658227848,cathode,0.0137566944586823,0.0143867111983148,0.0130252011473046,3.227798170430282e-05,high
1200,7.575757575757575,6.481012658227848,cathode,0.0137854904837924,0.0145585460648916,0.0128530196301841,5.671302100597949e-05,high
1200,7.6767676767676765,6.481012658227848,cathode,0.0138678822067987,0.0146100020931706,0.0129810889231175,6.072464543315055e-05,high
1200,7.777777777777778,6.481012658227848,cathode,0.0138592320949696,0.0145731464516532,0.0130114325522557,-8.534601891720798e-05,high
1200,7.878787878787879,6.481012658227848,cathode,0.0138324908587599,0.0145172935000525,0.0130259838136509,6.263286468894197e-05,high
1200,7.979797979797979,6.481012658227848,cathode,0.013965325853347,0.0145640693087006,0.0132775510588077,2.7756420814115054e-06,high
1200,8.080808080808081,6.481012658227848,cathode,0.0140733727786053,0.0147487180239933,0.013283263644466,-1.962053789955808e-05,high
1200,8.181818181818182,6.481012658227848,cathode,0.0140780521058297,0.0147707150616682,0.0132640924843407,-2.242666666255779e-05,high
1200,8.282828282828282,6.481012658227848,cathode,0.0142541386494245,0.0148844671385223,0.0135256490718368,6.325335756330064e-05,high
1200,8.383838383838384,6.481012658227848,cathode,0.0142736170962493,0.014987642318194,0.0134311623235458,6.339877415154204e-05,high
1200,8.484848484848484,6.481012658227848,cathode,0.0144608280468371,0.015175960779773,0.013619395407584,-4.179909319710815e-05,high
1200,8.585858585858587,6.481012658227848,cathode,0.014338346816125,0.0150785014015459,0.0134592490442322,8.347783259933958e-05,high
1200,8.686868686868687,6.481012658227848,cathode,0.0144135140794081,0.0150972048525195,0.0136151740005782,2.51772500638971e-05,high
1200,8.787878787878787,6.481012658227848,cathode,0.0146680723073962,0.0153958405468586,0.0138117083973216,-1.860370577539176e-06,high
1200,8.88888888888889,6.481012658227848,cathode,0.0147083947446546,0.0154767927631862,0.0137952894220047,-2.9365431131947845e-05,high
1200,8.98989898989899,6.481012658227848,cathode,0.0148621709442973,0.0155802127368756,0.0140202919446093,-6.229277447597782e-05,high
1200,9.09090909090909,6.481012658227848,cathode,0.0149089374211686,0.0155802028666532,0.0141315841053413,4.070841153061171e-05,high
1200,9.191919191919192,6.481012658227848,cathode,0.0151635339192334,0.0158129028752052,0.0144177298967381,5.499752578409488e-06,critical
1200,9.292929292929292,6.481012658227848,cathode,0.0152155373774679,0.0159245527896419,0.0143898503228578,4.216998211124648e-05,critical
1200,9.393939393939394,6.481012658227848,cathode,0.0153759214890223,0.0160982337322264,0.0145336581915477,-4.015993968425327e-05,critical
1200,9.494949494949497,6.481012658227848,cathode,0.0155195273878452,0.0162789982642213,0.0146270647651191,-6.553404863877744e-05,critical
1200,9.595959595959595,6.481012658227848,cathode,0.0157354745588933,0.0165889725847306,0.0147139598949244,-1.7978616364984962e-06,critical
1200,9.696969696969695,6.481012658227848,cathode,0.0157031057032158,0.0164608835977906,0.0148158050910866,-8.983726491830425e-07,critical
1200,9.797979797979798,6.481012658227848,cathode,0.0159164289203045,0.0167804929305757,0.0148816918354757,4.138975777490325e-05,critical
1200,9.8989898989899,6.481012658227848,cathode,0.0161226503604637,0.0166568198719404,0.015529284303309,-2.9892508506739665e-06,critical
1200,10.0,6.481012658227848,cathode,0.0164091325637316,0.0171942513642693,0.0154911307786378,-1.4320617388166004e-05,critical
1200,0.0,6.582278481012658,cathode,0.0164102393153487,0.017202811136978,0.0154816284910677,4.454833232429339e-05,critical
1200,0.101010101010101,6.582278481012658,cathode,0.0160484217868533,0.0167287002059981,0.015268176479114,-2.5594794957542532e-05,critical
1200,0.202020202020202,6.582278481012658,cathode,0.0158742258132985,0.0166782948628187,0.0149241651169391,3.850369899382671e-05,critical
1200,0.303030303030303,6.582278481012658,cathode,0.0157609168772392,0.0165441158595451,0.0148377993726881,-7.463898776972157e-05,critical
1200,0.404040404040404,6.582278481012658,cathode,0.0156568757753793,0.0163827712881991,0.0148126422506029,-1.0387258472666753e-05,critical
1200,0.5050505050505051,6.582278481012658,cathode,0.0155149405833872,0.0163723003672728,0.0144847801434533,2.2191951839359557e-05,critical
1200,0.6060606060606061,6.582278481012658,cathode,0.0153027907373783,0.0160068807133666,0.0144846586077128,-3.670470248052901e-05,critical
1200,0.7070707070707071,6.582278481012658,cathode,0.0153238274702714,0.0161346031891648,0.0143581731280331,-1.3645932337149417e-05,critical
1200,0.8080808080808081,6.582278481012658,cathode,0.0150431759607169,0.015786004738319,0.0141697123399781,2.3063164308341397e-05,critical
1200,0.9090909090909092,6.582278481012658,cathode,0.0149594718762815,0.015789947809086,0.0139597226232871,-6.527617100739167e-05,high
1200,1.0101010101010102,6.582278481012658,cathode,0.0148398866289827,0.0155554086727623,0.0140013378468539,-5.934884411626583e-05,high
1200,1.1111111111111112,6.582278481012658,cathode,0.0148055505177755,0.0154311420804929,0.014088467217133,1.170500973504737e-05,high
1200,1.2121212121212122,6.582278481012658,cathode,0.0146274875155602,0.0153426235822766,0.0137881048819335,-1.965970242144184e-05,high
1200,1.3131313131313131,6.582278481012658,cathode,0.014453439234894,0.0151682133081251,0.0136119415203463,-6.080384033704753e-05,high
1200,1.414141414141414,6.582278481012658,cathode,0.0143555794637847,0.0149629321351064,0.0136576768178892,8.181065256671002e-05,high
1200,1.5151515151515151,6.582278481012658,cathode,0.0143324387528426,0.015026867564544,0.0135187413593464,-2.575976185774041e-06,high
1200,1.616161616161616,6.582278481012658,cathode,0.0141717346708619,0.0147945377900052,0.0134534210856479,-2.7826307291459088e-05,high
1200,1.7171717171717171,6.582278481012658,cathode,0.0141011104111625,0.0148287952499675,0.0132386063816981,3.202182256954412e-06,high
1200,1.818181818181818,6.582278481012658,cathode,0.0141286344707781,0.0147377491744421,0.0134283595670618,-2.2906599303136394e-06,high
1200,1.9191919191919191,6.582278481012658,cathode,0.0140301749523221,0.0147463741988078,0.0131801584026889,-0.0001052449003384,high
1200,2.0202020202020203,6.582278481012658,cathode,0.0140277925387551,0.0147234448792822,0.0132092538915006,-1.2484589454639094e-05,high
1200,2.121212121212121,6.582278481012658,cathode,0.0139067943646318,0.0146250511719807,0.0130548819620393,4.155884709096359e-05,high
1200,2.2222222222222223,6.582278481012658,cathode,0.013908516977828,0.0145105142591119,0.0132139393649251,9.07055538709658e-05,high
1200,2.323232323232323,6.582278481012658,cathode,0.0137237369276526,0.0143701154390103,0.0129688538714576,-6.706721557340043e-05,high
1200,2.4242424242424243,6.582278481012658,cathode,0.0137063816773206,0.0143719611772407,0.0129257513399058,-4.0740426244942784e-05,high
1200,2.525252525252525,6.582278481012658,cathode,0.013699614642869,0.0143229425592708,0.0129760468220245,5.813764652997255e-05,high
1200,2.6262626262626263,6.582278481012658,cathode,0.0137712923545537,0.0144189734293194,0.0130160409664963,2.783743585161193e-05,high
1200,2.727272727272727,6.582278481012658,cathode,0.0136280734188349,0.0144314010323164,0.0126493953130382,-1.0710537756828544e-05,high
1200,2.8282828282828283,6.582278481012658,cathode,0.0135515941276792,0.0141991021379411,0.012793419043254,6.998749891963533e-05,high
1200,2.929292929292929,6.582278481012658,cathode,0.0134713450664003,0.0140882018982701,0.0127542709872619,-6.588244300620575e-05,high
1200,3.0303030303030303,6.582278481012658,cathode,0.0135472238365006,0.0142787129664988,0.0126723706191296,2.446264944816425e-05,high
1200,3.131313131313131,6.582278481012658,cathode,0.0132866761960999,0.0139331861748396,0.0125255452049144,0.0001057638223497,high
1200,3.2323232323232323,6.582278481012658,cathode,0.0134717820819254,0.014256575446036,0.0125176213502426,4.668308388987334e-05,high
1200,3.333333333333333,6.582278481012658,cathode,0.0133956219546724,0.0139418153729749,0.0127711736108944,-7.945824495889557e-05,high
1200,3.4343434343434343,6.582278481012658,cathode,0.0135330428253489,0.014223927234807,0.0127146170781218,-6.693983870137936e-05,high
1200,3.5353535353535355,6.582278481012658,cathode,0.0133606136161908,0.0140006484961141,0.0126120665395921,1.555549990897185e-05,high
1200,3.636363636363636,6.582278481012658,cathode,0.0133474187565668,0.013994841074906,0.0125885891386201,-1.5690788897635915e-05,high
1200,3.7373737373737375,6.582278481012658,cathode,0.0133620267161924,0.0141207313722453,0.0124439763150329,6.880817584288051e-05,high
1200,3.8383838383838382,6.582278481012658,cathode,0.0132187699657396,0.0138598245365023,0.0124667978263208,5.07463857685506e-05,high
1200,3.939393939393939,6.582278481012658,cathode,0.0131489200026908,0.0138747681366549,0.0122671708501743,-0.0001875961644602,high
1200,4.040404040404041,6.582278481012658,cathode,0.0130372405354064,0.0136360661825745,0.0123418757229018,-5.0878134655559465e-06,high
1200,4.141414141414141,6.582278481012658,cathode,0.0132153083392757,0.0137458470469018,0.0126116490872218,-7.530565264728389e-06,high
1200,4.242424242424242,6.582278481012658,cathode,0.0131472787813748,0.0137489269725775,0.0124490330575301,-1.1087194213282543e-05,high
1200,4.343434343434343,6.582278481012658,cathode,0.0132359249303453,0.0139349146992615,0.0124020948843303,7.754111038461618e-05,high
1200,4.444444444444445,6.582278481012658,cathode,0.0131936017045909,0.0137754860012938,0.0125221208867546,-2.5171723828333944e-05,high
1200,4.545454545454545,6.582278481012658,cathode,0.0130458193795498,0.0136970121347495,0.0122764795197649,9.018761810552208e-05,high
1200,4.646464646464646,6.582278481012658,cathode,0.0132690534995904,0.0139601900057349,0.0124480238081899,3.81077758930264e-05,high
1200,4.747474747474747,6.582278481012658,cathode,0.0131227766217313,0.0136534613740445,0.0125183037745655,1.2992736674025768e-05,high
1200,4.848484848484849,6.582278481012658,cathode,0.0132087759849685,0.0139316890861873,0.0123418003541899,2.5110041685742323e-05,high
1200,4.94949494949495,6.582278481012658,cathode,0.0132163159155212,0.0137024729199883,0.0126691573352304,3.8643568205025954e-05,high
1200,5.05050505050505,6.582278481012658,cathode,0.0131716239926947,0.0138348782815875,0.0123878663646979,-6.636212057354677e-05,high
1200,5.151515151515151,6.582278481012658,cathode,0.0132746230083062,0.013984881323657,0.0124267931356205,-1.5811131779987006e-05,high
1200,5.252525252525253,6.582278481012658,cathode,0.0131664400493539,0.0137114027972029,0.0125431297358748,-4.610669240363521e-05,high
1200,5.353535353535354,6.582278481012658,cathode,0.0131425807914721,0.0136720898002571,0.0125397258010223,-1.7553835588314984e-05,high
1200,5.454545454545454,6.582278481012658,cathode,0.0131443395578128,0.0136343907306153,0.0125921772366104,1.6215742253702424e-05,high
1200,5.555555555555555,6.582278481012658,cathode,0.0130286687035537,0.0136140073320855,0.0123504410905531,-5.947822833795536e-05,high
1200,5.656565656565657,6.582278481012658,cathode,0.0132516290922495,0.0139008028970164,0.0124893951849269,1.8084064749604084e-05,high
1200,5.757575757575758,6.582278481012658,cathode,0.0131996666804912,0.0138416863114176,0.0124468392950036,1.09115657891545e-05,high
1200,5.858585858585858,6.582278481012658,cathode,0.0131953079338026,0.0137838276601569,0.0125146549716817,-4.283611683477053e-05,high
1200,5.959595959595959,6.582278481012658,cathode,0.0133843064765269,0.0140073133693265,0.012659057997883,-2.8722663231224637e-05,high
1200,6.0606060606060606,6.582278481012658,cathode,0.0131745322594004,0.0137892594944216,0.0124587686750331,1.7322360334822433e-05,high
1200,6.161616161616162,6.582278481012658,cathode,0.0132542255812734,0.0138973652272122,0.0124992038528142,-6.742783423144555e-05,high
1200,6.262626262626262,6.582278481012658,cathode,0.0132709203741304,0.0139583292812963,0.0124555607321908,8.086639692172968e-06,high
1200,6.363636363636363,6.582278481012658,cathode,0.0131429591239616,0.0137667610675653,0.0124139991185913,4.778383590375499e-05,high
1200,6.4646464646464645,6.582278481012658,cathode,0.01323672217414,0.0137742907888724,0.0126227532789598,-7.141675352065495e-05,high
1200,6.565656565656566,6.582278481012658,cathode,0.0133443950510486,0.0140536515236293,0.0124987908030667,-2.335954522198301e-05,high
1200,6.666666666666667,6.582278481012658,cathode,0.0134010678561402,0.0140395680691354,0.0126539755004478,6.42975758039485e-05,high
1200,6.767676767676767,6.582278481012658,cathode,0.0134098406720234,0.0139840923262932,0.012747566651837,0.0001027652836984,high
1200,6.8686868686868685,6.582278481012658,cathode,0.0134463785431203,0.0141614658943452,0.0125931302034486,-5.239340403536906e-05,high
1200,6.96969696969697,6.582278481012658,cathode,0.0135606376397699,0.0141607346669403,0.0128666242494289,7.145947348152425e-05,high
1200,7.070707070707071,6.582278481012658,cathode,0.0135588968689332,0.0140864919979901,0.0129611472118911,-7.893661813343052e-06,high
1200,7.171717171717171,6.582278481012658,cathode,0.0135139990303388,0.0140252613733956,0.0129365354277881,3.896565342302208e-05,high
1200,7.272727272727272,6.582278481012658,cathode,0.0136244632703826,0.0142477893548093,0.0129009983798792,-2.1955201338999257e-05,high
1200,7.373737373737374,6.582278481012658,cathode,0.0135777083524612,0.0143049553763287,0.0127094552027125,1.0859223968125567e-05,high
1200,7.474747474747475,6.582278481012658,cathode,0.0137380128261518,0.0144239437680971,0.0129293459515859,-4.8355676827519344e-05,high
1200,7.575757575757575,6.582278481012658,cathode,0.0137510745195602,0.0144043000917976,0.0129882228972754,-1.3109158879723293e-05,high
1200,7.6767676767676765,6.582278481012658,cathode,0.0137956709609756,0.0143296768856121,0.0131910563060096,-1.2984531544344648e-05,high
1200,7.777777777777778,6.582278481012658,cathode,0.0138383312480583,0.0145203885017657,0.0130366001555381,2.0695200672853207e-05,high
1200,7.878787878787879,6.582278481012658,cathode,0.0140183002616862,0.0147174519804342,0.0131940607280781,-5.497310437601034e-05,high
1200,7.979797979797979,6.582278481012658,cathode,0.0140199853796637,0.0147317544356532,0.0131789158953666,-6.5781232445399045e-06,high
1200,8.080808080808081,6.582278481012658,cathode,0.0141355381674327,0.0148428589324645,0.0133019462634336,-6.20521283032705e-06,high
1200,8.181818181818182,6.582278481012658,cathode,0.0141608297330058,0.0148320297901131,0.0133770929438447,-3.064012802548243e-05,high
1200,8.282828282828282,6.582278481012658,cathode,0.0140874934574845,0.0148643136493562,0.0131542540071703,3.746353317797546e-05,high
1200,8.383838383838384,6.582278481012658,cathode,0.014325719481931,0.0150490575632409,0.0134707830165975,-6.506174423706886e-05,high
1200,8.484848484848484,6.582278481012658,cathode,0.0142843851240922,0.0150096754440661,0.0134273178811524,-6.3096770574860224e-06,high
1200,8.585858585858587,6.582278481012658,cathode,0.0144620086389831,0.015174583627097,0.0136245128915854,1.4881051821497956e-05,high
1200,8.686868686868687,6.582278481012658,cathode,0.0145374130976729,0.0150943034004093,0.0139077498379627,1.4994939544395755e-05,high
1200,8.787878787878787,6.582278481012658,cathode,0.0148244251793021,0.0155721988960648,0.0139411591656641,5.4123085533944616e-05,high
1200,8.88888888888889,6.582278481012658,cathode,0.0146581032888413,0.0154387138481031,0.0137271028405357,-2.285509863377388e-05,high
1200,8.98989898989899,6.582278481012658,cathode,0.0147632570748702,0.0154924929989885,0.0139048411987672,6.446264036989952e-05,high
1200,9.09090909090909,6.582278481012658,cathode,0.0148879243594455,0.0156396196027795,0.0140000747400061,4.597474431818792e-05,high
1200,9.191919191919192,6.582278481012658,cathode,0.0151272139210733,0.0158741660742333,0.0142481840367054,-5.9843609095019874e-05,critical
1200,9.292929292929292,6.582278481012658,cathode,0.0151200940032217,0.0159483962534603,0.0141257604526647,-6.328855442468938e-05,critical
1200,9.393939393939394,6.582278481012658,cathode,0.0152908492317076,0.0160213577528927,0.0144359425634113,6.615284107965494e-05,critical
1200,9.494949494949497,6.582278481012658,cathode,0.0153946878974377,0.0161621251440167,0.0144908140951182,-1.6165739100287454e-05,critical
1200,9.595959595959595,6.582278481012658,cathode,0.0156610949103535,0.0164328880243198,0.0147526411071373,-7.78132632931791e-05,critical
1200,9.696969696969695,6.582278481012658,cathode,0.0158217239584769,0.0167153804830653,0.0147426630937156,4.513747482051874e-05,critical
1200,9.797979797979798,6.582278481012658,cathode,0.0160061311601447,0.016724248506746,0.0151750277497711,4.169163775064365e-05,critical
1200,9.8989898989899,6.582278481012658,cathode,0.0161790988841693,0.0170620365935872,0.0151210424398594,9.927834761944195e-07,critical
1200,10.0,6.582278481012658,cathode,0.01623781701692,0.0171303755192878,0.015166501688873,2.602440445591261e-05,critical
1200,0.0,6.6835443037974684,cathode,0.0162637334219488,0.017063052754876,0.015324727669751,-1.4306590208387292e-05,critical
1200,0.101010101010101,6.6835443037974684,cathode,0.0161240784882801,0.0168497391867978,0.0152842141967507,2.288475089887006e-06,critical
1200,0.202020202020202,6.6835443037974684,cathode,0.0159132318414035,0.0165679501772957,0.0151656586082911,1.4716948429760666e-05,critical
1200,0.303030303030303,6.6835443037974684,cathode,0.0157291529440436,0.0164839626505296,0.0148461781618749,-4.760335553036818e-06,critical
1200,0.404040404040404,6.6835443037974684,cathode,0.0156974557497209,0.0164448622803851,0.0148243221713947,3.1760013202094275e-06,critical
1200,0.5050505050505051,6.6835443037974684,cathode,0.0155799849352104,0.0164133279125981,0.0145853364758882,1.2484582041446682e-05,critical
1200,0.6060606060606061,6.6835443037974684,cathode,0.0152893054092043,0.015867039972581,0.014636468743123,6.088169016199362e-05,critical
1200,0.7070707070707071,6.6835443037974684,cathode,0.015144326730622,0.0158270030557559,0.0143539987760817,-6.000681453766848e-06,critical
1200,0.8080808080808081,6.6835443037974684,cathode,0.0150745285772606,0.0158590651029731,0.0141428405416843,3.538450855334708e-05,critical
1200,0.9090909090909092,6.6835443037974684,cathode,0.0149279975690372,0.0157311667123085,0.0139676135961733,-5.206973926609228e-05,high
1200,1.0101010101010102,6.6835443037974684,cathode,0.0147410526769177,0.0155178148842983,0.0138164228635198,-3.269483143360937e-05,high
1200,1.1111111111111112,6.6835443037974684,cathode,0.014838144169716,0.0155123213764654,0.0140565337467025,-2.405452365935836e-05,high
1200,1.2121212121212122,6.6835443037974684,cathode,0.0146995545381113,0.0154012446223629,0.0138771492162697,9.775321176961418e-05,high
1200,1.3131313131313131,6.6835443037974684,cathode,0.014487184045507,0.0151840474868997,0.0136699042862034,-8.445139251248773e-05,high
1200,1.414141414141414,6.6835443037974684,cathode,0.0144665527651855,0.0151319204006367,0.0136937233484437,-1.1639730376055735e-05,high
1200,1.5151515151515151,6.6835443037974684,cathode,0.014371871361552,0.0150580775319293,0.0135695799686537,-3.3036310412208206e-05,high
1200,1.616161616161616,6.6835443037974684,cathode,0.0143194608321927,0.0149341639586004,0.0136114914102702,8.41653383488096e-05,high
1200,1.7171717171717171,6.6835443037974684,cathode,0.0141649430399916,0.0147723028904214,0.0134672541584474,5.819579214403425e-06,high
1200,1.818181818181818,6.6835443037974684,cathode,0.0140922394234663,0.0148142551927456,0.0132375570343445,1.5131096980935458e-05,high
1200,1.9191919191919191,6.6835443037974684,cathode,0.0139835841711956,0.0146238511235847,0.0132404598834979,1.0658419107853574e-05,high
1200,2.0202020202020203,6.6835443037974684,cathode,0.0139155963018922,0.014629852641578,0.0130698653380452,4.324703586216706e-06,high
1200,2.121212121212121,6.6835443037974684,cathode,0.0137711671776998,0.0144753475708992,0.0129378847672679,1.7075568920335787e-05,high
1200,2.2222222222222223,6.6835443037974684,cathode,0.0138573021037063,0.0145703979630297,0.0130125033021003,-1.2030682881270736e-05,high
1200,2.323232323232323,6.6835443037974684,cathode,0.0138786581910021,0.0145518181145168,0.0130889340556822,-5.578447180558636e-05,high
1200,2.4242424242424243,6.6835443037974684,cathode,0.0137801245154308,0.0144105859763644,0.0130483684992248,-2.2796903216600948e-05,high
1200,2.525252525252525,6.6835443037974684,cathode,0.013681103881022,0.014208710073361,0.013081998204329,9.092873025575704e-05,high
1200,2.6262626262626263,6.6835443037974684,cathode,0.0135475502884227,0.0142898322770945,0.0126573155421696,5.530270288448202e-06,high
1200,2.727272727272727,6.6835443037974684,cathode,0.0134741422341359,0.0141118468923645,0.0127298851698232,1.2913419766226586e-05,high
1200,2.8282828282828283,6.6835443037974684,cathode,0.0135719125975819,0.0141558188005132,0.01289847651695,-9.557817349739e-05,high
1200,2.929292929292929,6.6835443037974684,cathode,0.0135894067793721,0.0142404496571646,0.0128279192136355,2.1576170471625366e-05,high
1200,3.0303030303030303,6.6835443037974684,cathode,0.0134235147166238,0.0140527394877657,0.0126884670844536,8.521682161715233e-05,high
1200,3.131313131313131,6.6835443037974684,cathode,0.0134893622322451,0.0141352924668929,0.0127331816033166,-5.695776804355506e-05,high
1200,3.2323232323232323,6.6835443037974684,cathode,0.0134499249411052,0.0141370854335478,0.0126368614309322,2.1750113756313888e-05,high
1200,3.333333333333333,6.6835443037974684,cathode,0.0134600958974833,0.0141221661641694,0.0126816678244578,-4.6639921886351225e-05,high
1200,3.4343434343434343,6.6835443037974684,cathode,0.0132953444687929,0.0139877836133962,0.0124730155430045,2.462935044647187e-05,high
1200,3.5353535353535355,6.6835443037974684,cathode,0.0133470463082892,0.0140281520831794,0.0125369174369267,0.0001292025876405,high
1200,3.636363636363636,6.6835443037974684,cathode,0.0131556398651818,0.0137853818861819,0.0124191124092132,2.556514709679549e-05,high
1200,3.7373737373737375,6.6835443037974684,cathode,0.0131670595641529,0.0137451432131261,0.0125005870123047,7.717872676498343e-06,high
1200,3.8383838383838382,6.6835443037974684,cathode,0.0133562414287372,0.0139539260084626,0.0126649724808161,2.376979708117845e-05,high
1200,3.939393939393939,6.6835443037974684,cathode,0.0132319889911926,0.0138583325731604,0.012500198581688,-5.5062233487332085e-05,high
1200,4.040404040404041,6.6835443037974684,cathode,0.0133490499969037,0.01396734809668,0.0126299885776857,-1.965040425993206e-05,high
1200,4.141414141414141,6.6835443037974684,cathode,0.0131912451732903,0.013757922882268,0.0125384442059364,-7.931483873917354e-05,high
1200,4.242424242424242,6.6835443037974684,cathode,0.013292883799809,0.0139844663916548,0.0124718556042115,1.3200786180050593e-05,high
1200,4.343434343434343,6.6835443037974684,cathode,0.0131650920076328,0.013758081134497,0.012473814858793,-0.0001348466024253,high
1200,4.444444444444445,6.6835443037974684,cathode,0.0131090089768076,0.0136632703170871,0.0124736273984561,-1.037786819132388e-05,high
1200,4.545454545454545,6.6835443037974684,cathode,0.0131778357235406,0.0137515672579807,0.0125172453544386,4.561390524998036e-06,high
1200,4.646464646464646,6.6835443037974684,cathode,0.0131094563588273,0.0137610577981723,0.0123424213978195,-1.3448206800915977e-05,high
1200,4.747474747474747,6.6835443037974684,cathode,0.0130844986362065,0.0137678680043214,0.0122726403503793,1.010635517317975e-05,high
1200,4.848484848484849,6.6835443037974684,cathode,0.0132838897548168,0.0139155882873536,0.0125442263913405,8.32740916904807e-05,high
1200,4.94949494949495,6.6835443037974684,cathode,0.0130807268622441,0.0137237475004675,0.0123250293603621,-3.372403552697943e-05,high
1200,5.05050505050505,6.6835443037974684,cathode,0.0130582906736764,0.0136314127569976,0.0123974758231529,-2.0370495186411136e-05,high
1200,5.151515151515151,6.6835443037974684,cathode,0.0130319505388924,0.013702264908067,0.0122378795893175,-1.4633756804535814e-05,high
1200,5.252525252525253,6.6835443037974684,cathode,0.0130037382420492,0.0136492168376114,0.0122435672448259,-4.565559304465377e-05,high
1200,5.353535353535354,6.6835443037974684,cathode,0.0131465109579828,0.0138636909788517,0.0122869474888594,-2.7001704912735016e-05,high
1200,5.454545454545454,6.6835443037974684,cathode,0.0132046441637657,0.0137652969174196,0.0125609456503786,-4.8370363571960304e-05,high
1200,5.555555555555555,6.6835443037974684,cathode,0.0131926735166255,0.0137785710047475,0.0125149532807746,6.253629261584717e-05,high
1200,5.656565656565657,6.6835443037974684,cathode,0.0132718684770568,0.0139338006668848,0.0124905357051163,7.925567220398655e-05,high
1200,5.757575757575758,6.6835443037974684,cathode,0.0131910832011608,0.0137050760874373,0.0126084626945544,-2.6922803306460224e-05,high
1200,5.858585858585858,6.6835443037974684,cathode,0.0132908565504991,0.0138565812189648,0.0126414868934879,2.9573400465798773e-05,high
1200,5.959595959595959,6.6835443037974684,cathode,0.0131521865324733,0.0137412444340208,0.0124703223209597,-4.837487010109566e-05,high
1200,6.0606060606060606,6.6835443037974684,cathode,0.0131901862220443,0.0138175623527334,0.0124566222094835,5.3852931573504174e-05,high
1200,6.161616161616162,6.6835443037974684,cathode,0.0132555310413451,0.0139038940629572,0.0124945349110672,6.32981429569347e-06,high
1200,6.262626262626262,6.6835443037974684,cathode,0.0133920803263683,0.0140036983667541,0.0126822414805259,3.307999455344698e-05,high
1200,6.363636363636363,6.6835443037974684,cathode,0.013349862774942,0.0139725078806718,0.0126248140761121,2.7345617823139348e-05,high
1200,6.4646464646464645,6.6835443037974684,cathode,0.0133032923859837,0.0139515571199203,0.0125421808558786,5.258083987288255e-05,high
1200,6.565656565656566,6.6835443037974684,cathode,0.0133368103256876,0.0140476400522034,0.0124889471351121,-1.5833177454299613e-05,high
1200,6.666666666666667,6.6835443037974684,cathode,0.0134027821631698,0.0139844921504332,0.012733182254331,2.384653415505737e-05,high
1200,6.767676767676767,6.6835443037974684,cathode,0.0133974498103761,0.0139680408455405,0.0127384660922925,-0.0001270074289789,high
1200,6.8686868686868685,6.6835443037974684,cathode,0.013609597054821,0.0143253736789008,0.012757861473669,3.111552175292313e-05,high
1200,6.96969696969697,6.6835443037974684,cathode,0.0134347811700888,0.0140990047853052,0.0126526017279744,6.369451741091876e-05,high
1200,7.070707070707071,6.6835443037974684,cathode,0.0134544670455327,0.0141093307447797,0.0126865187876454,1.1432673468557385e-07,high
1200,7.171717171717171,6.6835443037974684,cathode,0.0135181055017013,0.0142052688433324,0.012705115691594,-5.5174848499868806e-05,high
1200,7.272727272727272,6.6835443037974684,cathode,0.0137317712601209,0.0144624593675211,0.0128595011361027,-6.338817222578367e-05,high
1200,7.373737373737374,6.6835443037974684,cathode,0.0136282874748018,0.0143810369500315,0.0127219864851397,8.643558331151032e-05,high
1200,7.474747474747475,6.6835443037974684,cathode,0.0137012102844385,0.0143111811544001,0.0129963386426078,-2.156980371655947e-05,high
1200,7.575757575757575,6.6835443037974684,cathode,0.0137609798424734,0.0144527907864654,0.0129447812584586,2.743588489855174e-05,high
1200,7.6767676767676765,6.6835443037974684,cathode,0.0137920237959679,0.0144156110534292,0.0130692533791473,-4.460167763642471e-05,high
1200,7.777777777777778,6.6835443037974684,cathode,0.0138434320927169,0.0145701620071001,0.0129789806812538,-3.110670373524026e-05,high
1200,7.878787878787879,6.6835443037974684,cathode,0.013854165880198,0.0146424557203181,0.0129004045900179,-5.6471561979581775e-05,high
1200,7.979797979797979,6.6835443037974684,cathode,0.0139733849622827,0.0146540817507037,0.0131738502439767,6.763515821180002e-05,high
1200,8.080808080808081,6.6835443037974684,cathode,0.014013446527097,0.0146808636811365,0.0132336267582058,-1.930813690887762e-05,high
1200,8.181818181818182,6.6835443037974684,cathode,0.0141197403622446,0.0148539071651345,0.0132472313626001,-6.459078270062929e-05,high
1200,8.282828282828282,6.6835443037974684,cathode,0.0141019596432155,0.0148086863114008,0.0132678244392395,-6.314088575596334e-05,high
1200,8.383838383838384,6.6835443037974684,cathode,0.0143157360431799,0.0150868338458411,0.013392047619041,-9.018650931029411e-05,high
1200,8.484848484848484,6.6835443037974684,cathode,0.0144266624825223,0.01512104006044,0.0136137310450988,-3.075392600527406e-05,high
1200,8.585858585858587,6.6835443037974684,cathode,0.014341196965613,0.0150665903088859,0.01348310558639,-7.762855690345104e-05,high
1200,8.686868686868687,6.6835443037974684,cathode,0.0144995188017079,0.0151040451301222,0.0138059280172643,-9.233563127161724e-05,high
1200,8.787878787878787,6.6835443037974684,cathode,0.0146184158032638,0.0152365644315391,0.0139093861331833,-4.2506235166586416e-05,high
1200,8.88888888888889,6.6835443037974684,cathode,0.0147641749281519,0.0155549646471132,0.0138199561307363,-2.3648248069902413e-05,high
1200,8.98989898989899,6.6835443037974684,cathode,0.0147941896924423,0.0154196492092759,0.0140771963313385,1.2105744352718675e-05,high
1200,9.09090909090909,6.6835443037974684,cathode,0.0149294317770322,0.0155871621245624,0.0141707400330437,4.4468579408718265e-06,high
1200,9.191919191919192,6.6835443037974684,cathode,0.0152374581247778,0.0160268039199753,0.0143011911464414,-1.2019527976803628e-06,critical
1200,9.292929292929292,6.6835443037974684,cathode,0.0153411641233426,0.0160775890886217,0.0144766993020192,0.0001126141096614,critical
1200,9.393939393939394,6.6835443037974684,cathode,0.0154903318667308,0.0163018365438509,0.0145249491495602,-5.687906935074114e-05,critical
1200,9.494949494949497,6.6835443037974684,cathode,0.0154848786871421,0.0162965306852347,0.0145199647293415,-8.76735667953929e-06,critical
1200,9.595959595959595,6.6835443037974684,cathode,0.015567993225131,0.0163173181692314,0.0146901264360026,6.108223566970423e-05,critical
1200,9.696969696969695,6.6835443037974684,cathode,0.015843038033962,0.0165311911966362,0.0150498284846428,7.26326484681361e-05,critical
1200,9.797979797979798,6.6835443037974684,cathode,0.0161431939959721,0.0168672477365612,0.0153046904412997,-6.613593534994103e-05,critical
1200,9.8989898989899,6.6835443037974684,cathode,0.0161347971223534,0.0168490436073709,0.0153095019138508,-6.061957828631104e-05,critical
1200,10.0,6.6835443037974684,cathode,0.0162536738168557,0.0170654977990083,0.0152970464685119,3.0438991941194984e-05,critical
1200,0.0,6.784810126582278,cathode,0.0163710194907217,0.0170417558459892,0.0156053820545065,3.650863116958725e-05,critical
1200,0.101010101010101,6.784810126582278,cathode,0.0161165054756038,0.016894959870772,0.0152039537111619,-6.340106774273897e-05,critical
1200,0.202020202020202,6.784810126582278,cathode,0.0158846724660583,0.0165912483980443,0.0150682424334543,2.780317957389082e-05,critical
1200,0.303030303030303,6.784810126582278,cathode,0.0157272793252032,0.0163821809682198,0.0149780823153371,2.687563450451504e-05,critical
1200,0.404040404040404,6.784810126582278,cathode,0.015454249311967,0.0162748478534725,0.014476084603684,2.7068608444967623e-05,critical
1200,0.5050505050505051,6.784810126582278,cathode,0.0154864420066986,0.0162069464648346,0.014647475772038,-4.858498658985369e-05,critical
1200,0.6060606060606061,6.784810126582278,cathode,0.0153024080421077,0.0160118212966229,0.0144771867278866,2.864648227935774e-05,critical
1200,0.7070707070707071,6.784810126582278,cathode,0.0152284142629675,0.0160147482589172,0.014296290056334,2.3153023828235566e-06,critical
1200,0.8080808080808081,6.784810126582278,cathode,0.0151380919492704,0.0158592640711958,0.0142947501523504,-5.746466860597212e-05,critical
1200,0.9090909090909092,6.784810126582278,cathode,0.0148702613620809,0.0156367709216448,0.0139616977719352,-3.126863566215072e-05,high
1200,1.0101010101010102,6.784810126582278,cathode,0.014833786141595,0.0154508415280862,0.0141280323739768,-2.158643394918752e-05,high
1200,1.1111111111111112,6.784810126582278,cathode,0.0147074117126218,0.0153744323299038,0.0139343768743572,1.884370218851592e-05,high
1200,1.2121212121212122,6.784810126582278,cathode,0.0147509934439714,0.0154965398869315,0.0138699796966979,-5.6023598672508827e-05,high
1200,1.3131313131313131,6.784810126582278,cathode,0.0145516861961949,0.0152314780898245,0.013760076688829,-8.990170078134228e-06,high
1200,1.414141414141414,6.784810126582278,cathode,0.0142815424013848,0.0148794871422631,0.0135970321736656,-1.7293689364111566e-05,high
1200,1.5151515151515151,6.784810126582278,cathode,0.0143070159714266,0.0149900559074558,0.0135076212906057,6.606887946867046e-05,high
1200,1.616161616161616,6.784810126582278,cathode,0.0143819633009514,0.0150670246944928,0.013580859402672,5.488510061231059e-05,high
1200,1.7171717171717171,6.784810126582278,cathode,0.0142155689425306,0.0147971204647864,0.0135519674621141,2.5161399062778284e-05,high
1200,1.818181818181818,6.784810126582278,cathode,0.0141323634956051,0.0148654798985195,0.0132625599375653,-3.023017202603799e-06,high
1200,1.9191919191919191,6.784810126582278,cathode,0.0141228046433938,0.014811618813212,0.0133141778257006,-4.745074214585697e-05,high
1200,2.0202020202020203,6.784810126582278,cathode,0.013953928308515,0.0146509785312767,0.0131325367248174,-2.540408806406194e-05,high
1200,2.121212121212121,6.784810126582278,cathode,0.0138773367283536,0.0145412116695779,0.013101100511716,1.504304750457626e-05,high
1200,2.2222222222222223,6.784810126582278,cathode,0.0138253352966648,0.0145189702431954,0.0130074773774136,6.011106096292087e-06,high
1200,2.323232323232323,6.784810126582278,cathode,0.0137809415306816,0.0144084372030342,0.0130524385697675,-5.880957883588205e-05,high
1200,2.4242424242424243,6.784810126582278,cathode,0.0137772417563667,0.0143897396730739,0.0130695566840972,-2.574854266360577e-05,high
1200,2.525252525252525,6.784810126582278,cathode,0.0135757662123739,0.0142719399549693,0.0127515610575985,-1.0992653487897026e-05,high
1200,2.6262626262626263,6.784810126582278,cathode,0.0136931924291215,0.0143278933553355,0.0129550377992498,-1.1350786815633947e-05,high
1200,2.727272727272727,6.784810126582278,cathode,0.0135514701981362,0.0142013525080122,0.0127912196631943,-2.0416059844857472e-05,high
1200,2.8282828282828283,6.784810126582278,cathode,0.0135955833149326,0.0143399528493351,0.0127029389450977,1.323669047173395e-05,high
1200,2.929292929292929,6.784810126582278,cathode,0.0134721354774576,0.0141081963969548,0.0127299475107776,2.7475599762503276e-05,high
1200,3.0303030303030303,6.784810126582278,cathode,0.0134870730450445,0.0140597412177145,0.0128301205296343,1.8237754488801227e-05,high
1200,3.131313131313131,6.784810126582278,cathode,0.0133922662936926,0.0140234222985534,0.0126560996266294,-2.1567531388182807e-05,high
1200,3.2323232323232323,6.784810126582278,cathode,0.0134148345245974,0.0140370702882678,0.0126880147359168,0.0001084431838341,high
1200,3.333333333333333,6.784810126582278,cathode,0.0134155782042894,0.0140516797351795,0.012671788531528,6.763801824702233e-05,high
1200,3.4343434343434343,6.784810126582278,cathode,0.0131925047958174,0.0138742270071011,0.0123840168244262,3.052713147598828e-05,high
1200,3.5353535353535355,6.784810126582278,cathode,0.0133458365112107,0.013968148465669,0.0126214012604614,2.415113678162962e-06,high
1200,3.636363636363636,6.784810126582278,cathode,0.0133261595704882,0.0139058156403414,0.0126587143060743,2.2507599916719857e-05,high
1200,3.7373737373737375,6.784810126582278,cathode,0.0132400535650835,0.0138824877469054,0.0124864310548675,-4.938959782332029e-05,high
1200,3.8383838383838382,6.784810126582278,cathode,0.0133558213559127,0.0139657162572216,0.0126477863600059,4.331778418800717e-05,high
1200,3.939393939393939,6.784810126582278,cathode,0.0132942668895208,0.0140291000271276,0.0124113639459064,8.079420729801306e-06,high
1200,4.040404040404041,6.784810126582278,cathode,0.0130721363616897,0.0137868157904528,0.0122149729785197,3.863026868411645e-05,high
1200,4.141414141414141,6.784810126582278,cathode,0.013135515890724,0.013810727706271,0.0123357461811221,-1.3852253496143151e-05,high
1200,4.242424242424242,6.784810126582278,cathode,0.0131942584628475,0.0138906337148789,0.0123649081045769,-3.7453738915781815e-05,high
1200,4.343434343434343,6.784810126582278,cathode,0.0133092806222053,0.0140309587758405,0.0124452724132467,3.388832505289778e-05,high
1200,4.444444444444445,6.784810126582278,cathode,0.0131537967909796,0.0138364675507627,0.0123433117149758,4.092128716063186e-05,high
1200,4.545454545454545,6.784810126582278,cathode,0.0132225284099487,0.0138064045210711,0.0125478684425272,5.886961919004168e-05,high
1200,4.646464646464646,6.784810126582278,cathode,0.0132443583209088,0.0139600179022134,0.0123884426839513,9.95016692914347e-06,high
1200,4.747474747474747,6.784810126582278,cathode,0.0132167147334352,0.0139010726781643,0.012404977640803,1.5834860061451116e-05,high
1200,4.848484848484849,6.784810126582278,cathode,0.0132053503390352,0.0138878569649961,0.0123959515487691,2.765110825036542e-05,high
1200,4.94949494949495,6.784810126582278,cathode,0.0130552094875138,0.0136706699991652,0.0123339353955847,-0.000113247190396,high
1200,5.05050505050505,6.784810126582278,cathode,0.0130429226704204,0.0137309691557575,0.0122237021541274,3.000402680479024e-05,high
1200,5.151515151515151,6.784810126582278,cathode,0.0132305759576919,0.0138963320233255,0.0124441482325445,-6.133738156148004e-05,high
1200,5.252525252525253,6.784810126582278,cathode,0.0130955800943896,0.0138123019466598,0.0122354207637436,5.2718466973849325e-05,high
1200,5.353535353535354,6.784810126582278,cathode,0.0132433648344324,0.0139517678828001,0.0123978032999927,-1.4517979101021769e-05,high
1200,5.454545454545454,6.784810126582278,cathode,0.0132840348264445,0.0138273343231398,0.0126642494653949,1.0915152258798914e-06,high
1200,5.555555555555555,6.784810126582278,cathode,0.0131450620508929,0.0137892473280878,0.012388014613133,5.100913613091308e-05,high
1200,5.656565656565657,6.784810126582278,cathode,0.0131862661739438,0.0138853637006986,0.0123533287692627,-2.689698751506885e-06,high
1200,5.757575757575758,6.784810126582278,cathode,0.0132542394346299,0.0139567433018125,0.0124172580233885,-1.1035143976614783e-05,high
1200,5.858585858585858,6.784810126582278,cathode,0.0132145827614068,0.0138139313456954,0.0125196470365906,-3.864819734548815e-05,high
1200,5.959595959595959,6.784810126582278,cathode,0.0132808463834865,0.0139646939829416,0.0124674928861643,0.00010731052727,high
1200,6.0606060606060606,6.784810126582278,cathode,0.0131780434602484,0.013770630022116,0.0124921529831695,-2.242758854557172e-05,high
1200,6.161616161616162,6.784810126582278,cathode,0.0132959782161699,0.0139189902818647,0.0125688074356095,-7.05560195051206e-05,high
1200,6.262626262626262,6.784810126582278,cathode,0.0133219763059252,0.0140890138417528,0.0123918824771821,4.24031470135777e-05,high
1200,6.363636363636363,6.784810126582278,cathode,0.0132098440116721,0.0137531126382687,0.0125869197215842,0.0001010745500298,high
1200,6.4646464646464645,6.784810126582278,cathode,0.0133939411257304,0.0140209299913674,0.0126631927851017,3.859642104939244e-05,high
1200,6.565656565656566,6.784810126582278,cathode,0.0133307151155871,0.0139388311234251,0.0126253435401048,-7.839656835736005e-06,high
1200,6.666666666666667,6.784810126582278,cathode,0.0134233588229434,0.0140133997274967,0.0127429725971991,8.332166782482933e-06,high
1200,6.767676767676767,6.784810126582278,cathode,0.0133879670213292,0.0139973108102132,0.0126808442240849,-4.781475153053588e-05,high
1200,6.8686868686868685,6.784810126582278,cathode,0.0134478790516407,0.0140675120568849,0.0127276746701804,3.449582522191434e-05,high
1200,6.96969696969697,6.784810126582278,cathode,0.013508819861816,0.0142519919180779,0.0126167189446929,-1.5491170483457275e-05,high
1200,7.070707070707071,6.784810126582278,cathode,0.0135020919545182,0.0141788845534806,0.0127007508698264,0.0001142039633344,high
1200,7.171717171717171,6.784810126582278,cathode,0.0136622031617733,0.0143012017820764,0.0129179389529665,-1.0449948172907676e-05,high
1200,7.272727272727272,6.784810126582278,cathode,0.0134894163665183,0.0140656217356546,0.0128278976997297,3.48387308841266e-06,high
1200,7.373737373737374,6.784810126582278,cathode,0.0136772057294238,0.0143248622695468,0.0129213078126746,-3.497265375003754e-06,high
1200,7.474747474747475,6.784810126582278,cathode,0.0136724178011752,0.0142673808652199,0.0129854456136127,-8.822748356033179e-05,high
1200,7.575757575757575,6.784810126582278,cathode,0.0138129464779974,0.0144766800114763,0.0130347513653943,7.833185317061631e-05,high
1200,7.6767676767676765,6.784810126582278,cathode,0.0138394735920072,0.0144441208770493,0.0131414727390535,7.553451110458968e-05,high
1200,7.777777777777778,6.784810126582278,cathode,0.0138770037447087,0.0145068725150003,0.0131466608573751,-3.707704246893567e-05,high
1200,7.878787878787879,6.784810126582278,cathode,0.0139508539402549,0.0146323090445556,0.0131501858946385,6.338408606624127e-05,high
1200,7.979797979797979,6.784810126582278,cathode,0.0139023982267292,0.0144570530154118,0.0132712873872639,4.806588958875933e-05,high
1200,8.080808080808081,6.784810126582278,cathode,0.0140002662679232,0.0146808408030751,0.0132018478005523,-4.400532127766345e-05,high
1200,8.181818181818182,6.784810126582278,cathode,0.0141963925583128,0.0148444210244958,0.0134445677753653,-1.9561873862158644e-05,high
1200,8.282828282828282,6.784810126582278,cathode,0.0141105181796924,0.0147981895759449,0.0133039158804929,2.0045928684201355e-07,high
1200,8.383838383838384,6.784810126582278,cathode,0.0142743711461034,0.0149445366635648,0.0134933387473866,-4.474262954565222e-07,high
1200,8.484848484848484,6.784810126582278,cathode,0.0143562031315204,0.0150926507196675,0.0134836181751205,-5.177859792990684e-05,high
1200,8.585858585858587,6.784810126582278,cathode,0.0145196300021889,0.0152487459087307,0.0136586672169282,-6.772323946668825e-05,high
1200,8.686868686868687,6.784810126582278,cathode,0.0144078593407334,0.0150018810360102,0.013727881903311,8.017855567812219e-05,high
1200,8.787878787878787,6.784810126582278,cathode,0.0146123773950224,0.0153872042590062,0.0136886736618948,4.527425605353846e-05,high
1200,8.88888888888889,6.784810126582278,cathode,0.0148096612222023,0.0155273223798009,0.0139674863286504,7.144683225483179e-05,high
1200,8.98989898989899,6.784810126582278,cathode,0.0148108551833683,0.0155901367311704,0.0138836362733455,2.2357868559902477e-05,high
1200,9.09090909090909,6.784810126582278,cathode,0.015002462786605,0.0157804441885979,0.0140793581136338,-2.360018042967216e-05,critical
1200,9.191919191919192,6.784810126582278,cathode,0.014995292800021,0.0157118920820984,0.014157505857779,2.2251853177729936e-05,high
1200,9.292929292929292,6.784810126582278,cathode,0.0152551354160037,0.0159206642422925,0.0144877925506822,5.987337916027015e-05,critical
1200,9.393939393939394,6.784810126582278,cathode,0.0153582330763805,0.0160479611100619,0.0145602061937038,9.760229499738917e-06,critical
1200,9.494949494949497,6.784810126582278,cathode,0.0154918145354027,0.0162569717107578,0.0145910827569185,-6.906997476351295e-05,critical
1200,9.595959595959595,6.784810126582278,cathode,0.0156877114462734,0.0164863405436556,0.0147431227174522,-4.219097502562242e-05,critical
1200,9.696969696969695,6.784810126582278,cathode,0.0157906427466919,0.016558454140427,0.0148902237583689,-2.7799894383710877e-05,critical
1200,9.797979797979798,6.784810126582278,cathode,0.0159758752971435,0.0167925853060673,0.015009397709821,2.73378346788702e-05,critical
1200,9.8989898989899,6.784810126582278,cathode,0.016272284517482,0.0171513161144789,0.0152206219266767,4.459165717603409e-05,critical
1200,10.0,6.784810126582278,cathode,0.0163559517831605,0.017168026396313,0.015400206922655,-1.647305684174449e-05,critical
1200,0.0,6.886075949367089,cathode,0.0162410003914688,0.0169401310904971,0.0154373221643934,-2.1586232118332343e-05,critical
1200,0.101010101010101,6.886075949367089,cathode,0.0162209934619443,0.0170260224404762,0.0152721531953421,-8.276179699828271e-05,critical
1200,0.202020202020202,6.886075949367089,cathode,0.0158081586784882,0.0165790977374419,0.0149036021555523,2.780037457524423e-05,critical
1200,0.303030303030303,6.886075949367089,cathode,0.0157946858035637,0.0165532613309671,0.014907139872847,1.4162931632930892e-05,critical
1200,0.404040404040404,6.886075949367089,cathode,0.0156420821346288,0.0164698091353458,0.0146562267918574,1.1470013508025971e-05,critical
1200,0.5050505050505051,6.886075949367089,cathode,0.0154941707940017,0.016299241788702,0.0145374968678221,-7.16635107517566e-05,critical
1200,0.6060606060606061,6.886075949367089,cathode,0.0153764640248279,0.0161768828232493,0.0144255947124942,4.993509203790015e-05,critical
1200,0.7070707070707071,6.886075949367089,cathode,0.0152777975449122,0.0160309362117786,0.0143915752887055,6.625241373861604e-05,critical
1200,0.8080808080808081,6.886075949367089,cathode,0.0151636785475924,0.0159289436363127,0.0142603314059213,-1.6981551194237e-05,critical
1200,0.9090909090909092,6.886075949367089,cathode,0.0149018626750714,0.0156595965565725,0.0140044224807073,-8.622433840122515e-05,high
1200,1.0101010101010102,6.886075949367089,cathode,0.01494340127384,0.0157334335490418,0.014001849556005,5.683001840368047e-05,high
1200,1.1111111111111112,6.886075949367089,cathode,0.0148063727791144,0.0154872488094769,0.0140154731747845,-2.1841205629462503e-05,high
1200,1.2121212121212122,6.886075949367089,cathode,0.0146510075269668,0.015493285004444,0.0136299099364367,-5.0910644101623104e-05,high
1200,1.3131313131313131,6.886075949367089,cathode,0.0145417421054018,0.0152548906096927,0.0137041975589471,2.294825359439466e-05,high
1200,1.414141414141414,6.886075949367089,cathode,0.0143168079643223,0.015040594303969,0.013462078961547,-2.317651395004537e-05,high
1200,1.5151515151515151,6.886075949367089,cathode,0.0144046330322795,0.0151125535225516,0.0135716046934748,7.599820996572964e-05,high
1200,1.616161616161616,6.886075949367089,cathode,0.0142068250729006,0.0148934365052742,0.0134017828362846,5.844157797604006e-05,high
1200,1.7171717171717171,6.886075949367089,cathode,0.0142664188431494,0.0150364346954314,0.0133455539238923,-2.632346002750575e-05,high
1200,1.818181818181818,6.886075949367089,cathode,0.0140307113285438,0.01471710793778,0.0132248434689603,2.920243764130476e-05,high
1200,1.9191919191919191,6.886075949367089,cathode,0.0140029997276506,0.0146199302992689,0.0132913234877941,-1.3932414238766942e-05,high
1200,2.0202020202020203,6.886075949367089,cathode,0.0139378832355381,0.0145105164079817,0.0132838594100572,-3.76021541037107e-05,high
1200,2.121212121212121,6.886075949367089,cathode,0.0138370742841202,0.0145121985159292,0.0130388516632573,0.0001543481336002,high
1200,2.2222222222222223,6.886075949367089,cathode,0.0138954668331056,0.0145005878940888,0.0131979238230752,-5.600717822038861e-05,high
1200,2.323232323232323,6.886075949367089,cathode,0.0139137800718659,0.0146510255950392,0.0130351932999241,3.372046284531118e-05,high
1200,2.4242424242424243,6.886075949367089,cathode,0.0138454993770128,0.014461264630695,0.0131337470946726,-4.06524363103534e-05,high
1200,2.525252525252525,6.886075949367089,cathode,0.0137273386754695,0.0143086707089393,0.0130600368133234,5.469398897469321e-05,high
1200,2.6262626262626263,6.886075949367089,cathode,0.0135795952954659,0.0141660890576137,0.012904943612703,2.7928804650706973e-05,high
1200,2.727272727272727,6.886075949367089,cathode,0.0136125653309963,0.0142968173738956,0.0128053673457535,-2.2460011217558995e-05,high
1200,2.8282828282828283,6.886075949367089,cathode,0.0135814973997407,0.0141738085504925,0.0128992599977425,1.7850815287192314e-05,high
1200,2.929292929292929,6.886075949367089,cathode,0.0134439637429797,0.0140906976257518,0.0126865324693224,-4.614611402043431e-05,high
1200,3.0303030303030303,6.886075949367089,cathode,0.0135098271018094,0.0141813986721618,0.0127188948757276,-3.996692045274153e-05,high
1200,3.131313131313131,6.886075949367089,cathode,0.0134186665359203,0.0140842946869086,0.012634574186476,5.731778931368301e-05,high
1200,3.2323232323232323,6.886075949367089,cathode,0.0133173362873838,0.0140085890221011,0.0124966851526837,3.943787676781935e-05,high
1200,3.333333333333333,6.886075949367089,cathode,0.0134489361715628,0.0141577172861109,0.0126032617077768,8.96955223413247e-05,high
1200,3.4343434343434343,6.886075949367089,cathode,0.0133919758957894,0.0140131767989427,0.0126688597858107,4.7812627436232346e-05,high
1200,3.5353535353535355,6.886075949367089,cathode,0.0134336917359176,0.0141022246925924,0.0126464942803384,-2.01552936266696e-05,high
1200,3.636363636363636,6.886075949367089,cathode,0.0132608580786348,0.0139259168830785,0.0124766134444716,-2.3055834584996054e-05,high
1200,3.7373737373737375,6.886075949367089,cathode,0.0132598203454138,0.0138604171769832,0.0125638667591847,-2.12757171757578e-05,high
1200,3.8383838383838382,6.886075949367089,cathode,0.0132185065080805,0.0137897285122065,0.0125601607301644,7.273429930623317e-05,high
1200,3.939393939393939,6.886075949367089,cathode,0.0131397335615343,0.0138152044943221,0.0123388136539713,-5.666953235889974e-05,high
1200,4.040404040404041,6.886075949367089,cathode,0.0132585420965455,0.0138621255754729,0.0125575394570693,-6.533175003349204e-05,high
1200,4.141414141414141,6.886075949367089,cathode,0.0132046575604747,0.013857736756079,0.0124359526238055,4.950891788335969e-05,high
1200,4.242424242424242,6.886075949367089,cathode,0.0131276089191087,0.0137226304248533,0.0124378130310133,-3.581749818145468e-05,high
1200,4.343434343434343,6.886075949367089,cathode,0.0131737904338501,0.0137953685920853,0.0124471008466988,-7.870704899688702e-05,high
1200,4.444444444444445,6.886075949367089,cathode,0.0132092079687386,0.0139092012834086,0.0123752431003731,1.1550467285029543e-05,high
1200,4.545454545454545,6.886075949367089,cathode,0.0131009537241116,0.0137402237552114,0.0123509500874215,-5.457920213973004e-06,high
1200,4.646464646464646,6.886075949367089,cathode,0.0130788986786624,0.0138589297908247,0.0121223853933163,-0.0001136018469796,high
1200,4.747474747474747,6.886075949367089,cathode,0.0131381139132049,0.0137929912336074,0.0123664225622985,4.074730879163213e-05,high
1200,4.848484848484849,6.886075949367089,cathode,0.0131670452563778,0.0138188067957546,0.0124002633498677,-2.563739023260821e-05,high
1200,4.94949494949495,6.886075949367089,cathode,0.013162121040863,0.0138109723962831,0.0123994672948586,1.1300517291101129e-05,high
1200,5.05050505050505,6.886075949367089,cathode,0.0132514261407652,0.0138675471610666,0.0125343425447702,2.7530847402938807e-05,high
1200,5.151515151515151,6.886075949367089,cathode,0.0132024669111456,0.013819988965854,0.0124832395539988,-4.674132398077383e-07,high
1200,5.252525252525253,6.886075949367089,cathode,0.0131591067295521,0.0138095609449051,0.0123940269349335,2.7586685181123817e-05,high
1200,5.353535353535354,6.886075949367089,cathode,0.0132257133831209,0.0137687313271204,0.0126058478123439,-1.4885617138422778e-05,high
1200,5.454545454545454,6.886075949367089,cathode,0.013126598998709,0.01370879798108,0.0124542497077063,-1.7480024918743025e-05,high
1200,5.555555555555555,6.886075949367089,cathode,0.0131410944355933,0.0137556385596505,0.0124252660486076,1.8286378351267817e-05,high
1200,5.656565656565657,6.886075949367089,cathode,0.0130816514737613,0.013778413216671,0.0122500013407053,-5.15817841085504e-05,high
1200,5.757575757575758,6.886075949367089,cathode,0.0132923603602827,0.0139455412440257,0.0125247343158427,3.629806419565704e-05,high
1200,5.858585858585858,6.886075949367089,cathode,0.0132581129987653,0.0138738262520694,0.0125413975616675,4.092002086428573e-05,high
1200,5.959595959595959,6.886075949367089,cathode,0.0133201926442326,0.013937601869292,0.0125999944495099,-9.061323938243732e-05,high
1200,6.0606060606060606,6.886075949367089,cathode,0.0131353874765941,0.0137572015383086,0.0124093019845246,-3.787084338432121e-05,high
1200,6.161616161616162,6.886075949367089,cathode,0.0133636943017442,0.0139948580316168,0.0126269630353905,-3.930063191615999e-05,high
1200,6.262626262626262,6.886075949367089,cathode,0.0131639899126949,0.0138128358576347,0.0124000369467147,-7.0603789463934e-05,high
1200,6.363636363636363,6.886075949367089,cathode,0.0133971297725958,0.0140321880408176,0.0126557995393747,5.224731827545791e-06,high
1200,6.4646464646464645,6.886075949367089,cathode,0.0134004297318211,0.0139715365807056,0.0127449888738184,-2.54617125983507e-06,high
1200,6.565656565656566,6.886075949367089,cathode,0.0133815907434595,0.0140694011880024,0.0125666064795477,-3.628937940882504e-05,high
1200,6.666666666666667,6.886075949367089,cathode,0.0133652033732727,0.013984302940048,0.0126432388545914,8.817792930102716e-05,high
1200,6.767676767676767,6.886075949367089,cathode,0.0133233390344529,0.0139215649445591,0.0126311982392958,-9.489941477482738e-06,high
1200,6.8686868686868685,6.886075949367089,cathode,0.0134186255418879,0.0140703968448772,0.0126535423178799,6.237728409995447e-05,high
1200,6.96969696969697,6.886075949367089,cathode,0.0133708659963914,0.0140409802283491,0.0125808757110446,1.0411178423654468e-05,high
1200,7.070707070707071,6.886075949367089,cathode,0.0134872614347583,0.0141634852318358,0.0126889932311543,6.251963191683491e-05,high
1200,7.171717171717171,6.886075949367089,cathode,0.0135593681999071,0.0142927221750092,0.0126821566413908,-1.0307320672839702e-06,high
1200,7.272727272727272,6.886075949367089,cathode,0.0137723724526359,0.0144244235681843,0.0130090748002346,-9.420843984287832e-05,high
1200,7.373737373737374,6.886075949367089,cathode,0.0136103121731091,0.0142293576952791,0.0128925981356259,-9.675326827555431e-06,high
1200,7.474747474747475,6.886075949367089,cathode,0.0135712864529919,0.0142009220302656,0.0128380996857025,-5.679962699918032e-05,high
1200,7.575757575757575,6.886075949367089,cathode,0.0138518771266593,0.0145888162687123,0.0129732571978309,-1.0254517499606202e-06,high
1200,7.6767676767676765,6.886075949367089,cathode,0.0137746935164049,0.0144299331478312,0.013007927880632,-7.428050802352261e-05,high
1200,7.777777777777778,6.886075949367089,cathode,0.0139681753075693,0.014590659581622,0.0132479224879249,-6.069413802202666e-05,high
1200,7.878787878787879,6.886075949367089,cathode,0.013943686330948,0.0145869679125443,0.0131938356115224,9.576739016033108e-05,high
1200,7.979797979797979,6.886075949367089,cathode,0.0140407083325353,0.0147535294878146,0.0131980144403316,3.902217464980481e-05,high
1200,8.080808080808081,6.886075949367089,cathode,0.0140820170292507,0.0147032925649817,0.0133626729858821,0.0001010814764435,high
1200,8.181818181818182,6.886075949367089,cathode,0.0142991372772734,0.0150520220443973,0.0134032667107083,1.4907799119103524e-05,high
1200,8.282828282828282,6.886075949367089,cathode,0.0141852802740555,0.0149115295442814,0.0133257532383827,6.502492082677237e-06,high
1200,8.383838383838384,6.886075949367089,cathode,0.0142161057277193,0.0149111722092049,0.0133979738824987,9.729177659239224e-05,high
1200,8.484848484848484,6.886075949367089,cathode,0.0142897165667156,0.0149533805683068,0.0135175469364907,2.127320314178624e-05,high
1200,8.585858585858587,6.886075949367089,cathode,0.0144105606235314,0.0150946638468138,0.0136117489071891,-1.220170829990844e-05,high
1200,8.686868686868687,6.886075949367089,cathode,0.0144810989254186,0.0151450634904249,0.0137076836062367,-0.0001039657526578,high
1200,8.787878787878787,6.886075949367089,cathode,0.0147264074197644,0.0153708191961996,0.0139825454114725,7.437286498438735e-05,high
1200,8.88888888888889,6.886075949367089,cathode,0.0147688067431376,0.015534388111988,0.0138604915067613,2.212300624354429e-05,high
1200,8.98989898989899,6.886075949367089,cathode,0.0149297664208951,0.0155924851071555,0.0141643788296446,1.3806873621691391e-05,high
1200,9.09090909090909,6.886075949367089,cathode,0.0149458557628931,0.0157532504940398,0.0139801232300865,2.7331361302228685e-05,high
1200,9.191919191919192,6.886075949367089,cathode,0.0151164893094961,0.0157051135605021,0.0144492443892924,-3.659540785483724e-05,critical
1200,9.292929292929292,6.886075949367089,cathode,0.0152283704192579,0.0160149021684735,0.0142955810430085,-4.028501952817277e-05,critical
1200,9.393939393939394,6.886075949367089,cathode,0.0153005871558276,0.0160478123264139,0.0144237439554168,-1.6665319555576736e-05,critical
1200,9.494949494949497,6.886075949367089,cathode,0.0155584753308622,0.0164124793035551,0.0145334211795554,-4.404871687755831e-05,critical
1200,9.595959595959595,6.886075949367089,cathode,0.0157026624310897,0.0164860615990559,0.0147791278086829,5.8802000449477936e-05,critical
1200,9.696969696969695,6.886075949367089,cathode,0.0157197439564749,0.0164823760126428,0.0148255595383729,4.025882276128254e-05,critical
1200,9.797979797979798,6.886075949367089,cathode,0.0159629423695588,0.0169077737293699,0.0148106159761763,-3.117014756007664e-05,critical
1200,9.8989898989899,6.886075949367089,cathode,0.0162215148315859,0.0171558554316503,0.0150889213191167,-2.5651741286132814e-05,critical
1200,10.0,6.886075949367089,cathode,0.0162603828603568,0.0170054042005609,0.0153955548705921,1.6354753151921484e-05,critical
1200,0.0,6.987341772151899,cathode,0.0162603872926268,0.0171672228036634,0.0151687281742038,-2.0639020300072905e-05,critical
1200,0.101010101010101,6.987341772151899,cathode,0.0160488665638854,0.0168286521461889,0.0151338372805087,-6.228249021482072e-05,critical
1200,0.202020202020202,6.987341772151899,cathode,0.0159884305778158,0.016725423561192,0.0151318297008339,-3.7013275057236576e-05,critical
1200,0.303030303030303,6.987341772151899,cathode,0.0157857979915315,0.0165849234716813,0.0148419779623168,1.2786808574552422e-05,critical
1200,0.404040404040404,6.987341772151899,cathode,0.0156819689718191,0.0164438951574876,0.0147887468681223,3.264112062901746e-06,critical
1200,0.5050505050505051,6.987341772151899,cathode,0.0154129069039743,0.0162219611239825,0.0144501608355199,5.3152796361074905e-05,critical
1200,0.6060606060606061,6.987341772151899,cathode,0.0153411352511476,0.0161114998516674,0.0144325807891253,1.9479324654515112e-05,critical
1200,0.7070707070707071,6.987341772151899,cathode,0.0152444773755222,0.0158962152600229,0.014493927028726,9.847869055740123e-05,critical
1200,0.8080808080808081,6.987341772151899,cathode,0.0151154698376477,0.0158528847113669,0.0142483603905238,9.18613442090687e-05,critical
1200,0.9090909090909092,6.987341772151899,cathode,0.0149788773907927,0.0157369879796942,0.0140835701216976,-1.0891774903665994e-06,high
1200,1.0101010101010102,6.987341772151899,cathode,0.01483434901601,0.0154902921329336,0.0140768499868378,4.310228468818975e-05,high
1200,1.1111111111111112,6.987341772151899,cathode,0.0147255324234595,0.0154765891627967,0.0138369228004124,3.842705255530508e-05,high
1200,1.2121212121212122,6.987341772151899,cathode,0.0145401096757159,0.0151366967194605,0.0138591778803552,-1.369478717616999e-05,high
1200,1.3131313131313131,6.987341772151899,cathode,0.0145646407987438,0.0153121976271441,0.0136792338971205,3.19282123087717e-05,high
1200,1.414141414141414,6.987341772151899,cathode,0.0144433849739186,0.0150631476092,0.0137224720082125,-0.0001917785310506,high
1200,1.5151515151515151,6.987341772151899,cathode,0.0143407541158112,0.0150429031845405,0.0135158430554086,-5.098180137629266e-05,high
1200,1.616161616161616,6.987341772151899,cathode,0.0142739265865562,0.0149510964601875,0.0134831129199869,2.9903588253998133e-05,high
1200,1.7171717171717171,6.987341772151899,cathode,0.014214330213618,0.0150529278401703,0.0131909189975881,7.779176411837845e-05,high
1200,1.818181818181818,6.987341772151899,cathode,0.0140417818693687,0.0146998651362025,0.0132744627714958,4.848941153135679e-05,high
1200,1.9191919191919191,6.987341772151899,cathode,0.0139594627859074,0.0146153695106891,0.0131947130752084,3.0162790372996808e-05,high
1200,2.0202020202020203,6.987341772151899,cathode,0.0140134579825644,0.0147950018783432,0.0130725635135928,-2.3158658340037396e-05,high
1200,2.121212121212121,6.987341772151899,cathode,0.0138626363758273,0.0145924482177118,0.0129942723422956,-9.572144577506757e-06,high
1200,2.2222222222222223,6.987341772151899,cathode,0.0138152799611897,0.0144243644223859,0.0131118452528274,-5.543662711368236e-05,high
1200,2.323232323232323,6.987341772151899,cathode,0.0138496618995871,0.0146102895414057,0.0129369012632711,1.8557824116440223e-05,high
1200,2.4242424242424243,6.987341772151899,cathode,0.0138038500983977,0.0145100353294534,0.0129681975612838,-1.7380181628847096e-06,high
1200,2.525252525252525,6.987341772151899,cathode,0.0136927047040693,0.0143090126885371,0.0129793907895865,-2.714139825165873e-07,high
1200,2.6262626262626263,6.987341772151899,cathode,0.0137150369138038,0.0144409191189737,0.0128497420388485,5.262307478467136e-05,high
1200,2.727272727272727,6.987341772151899,cathode,0.0135468655308218,0.014204828945482,0.0127755269163738,-1.2739495869289716e-05,high
1200,2.8282828282828283,6.987341772151899,cathode,0.0135219613420137,0.0142279709058203,0.0126831828070568,-1.9255240211796575e-05,high
1200,2.929292929292929,6.987341772151899,cathode,0.0135248466102487,0.01410603304517,0.0128567141650921,3.387871280005235e-05,high
1200,3.0303030303030303,6.987341772151899,cathode,0.0134855726536252,0.0139998203376702,0.0129043961381407,2.2271949427199305e-05,high
1200,3.131313131313131,6.987341772151899,cathode,0.0135174085207294,0.0141152557571979,0.0128272953297718,-1.7671076497694285e-05,high
1200,3.2323232323232323,6.987341772151899,cathode,0.0133299286348555,0.0139121736507391,0.0126586081944818,-4.766437845024301e-05,high
1200,3.333333333333333,6.987341772151899,cathode,0.0133444794743992,0.0139809800117433,0.0126006045051315,1.7283723386809926e-05,high
1200,3.4343434343434343,6.987341772151899,cathode,0.0134203261002539,0.0140846544966911,0.0126389125924367,9.414617873773086e-06,high
1200,3.5353535353535355,6.987341772151899,cathode,0.013249304455764,0.0139444711480196,0.0124215001912055,6.677573122830993e-05,high
1200,3.636363636363636,6.987341772151899,cathode,0.0132335887601213,0.0138617275499488,0.0125001581084981,-8.447816952666766e-06,high
1200,3.7373737373737375,6.987341772151899,cathode,0.0133451781261707,0.0140122020462611,0.0125545048281054,0.0001324635764176,high
1200,3.8383838383838382,6.987341772151899,cathode,0.0132852171274648,0.0139353575504104,0.0125201774607842,-8.388469704317983e-05,high
1200,3.939393939393939,6.987341772151899,cathode,0.0132823742630915,0.0139305612406377,0.0125218994273993,4.128690972534759e-06,high
1200,4.040404040404041,6.987341772151899,cathode,0.0132243688325863,0.0139346910659342,0.0123753066597183,-4.537306307021511e-05,high
1200,4.141414141414141,6.987341772151899,cathode,0.0131624909873538,0.0138254386636682,0.012379924826621,-3.5437211164213766e-05,high
1200,4.242424242424242,6.987341772151899,cathode,0.0131860983350567,0.0138585786475998,0.012390794189363,-8.768190222317755e-07,high
1200,4.343434343434343,6.987341772151899,cathode,0.0131598364505651,0.0138537216501061,0.0123336258693287,-3.644398742137695e-05,high
1200,4.444444444444445,6.987341772151899,cathode,0.0130642015193404,0.0135906823693965,0.0124645763098013,3.2398481788200607e-05,high
1200,4.545454545454545,6.987341772151899,cathode,0.0131991949528027,0.0138492811731947,0.012434853071593,-3.814014349072639e-05,high
1200,4.646464646464646,6.987341772151899,cathode,0.0132494105632185,0.0139544847787692,0.0124086727067903,-1.5393713181730316e-05,high
1200,4.747474747474747,6.987341772151899,cathode,0.0131063786603069,0.01372793845192,0.0123807123914948,-1.2725670845122814e-05,high
1200,4.848484848484849,6.987341772151899,cathode,0.0130886966506915,0.0137602718933763,0.0122870001101397,0.000153826739196,high
1200,4.94949494949495,6.987341772151899,cathode,0.0131868755734996,0.0138302924907488,0.0124313851550209,-4.84867607908585e-05,high
1200,5.05050505050505,6.987341772151899,cathode,0.0132829928414846,0.0139747544626774,0.0124595178361522,-8.80422417352883e-05,high
1200,5.151515151515151,6.987341772151899,cathode,0.0132244820986166,0.0138908425264641,0.0124376365111365,4.422999000995784e-05,high
1200,5.252525252525253,6.987341772151899,cathode,0.0131313752639546,0.0136566099226078,0.0125340698873147,2.38035009913798e-06,high
1200,5.353535353535354,6.987341772151899,cathode,0.0131259409554515,0.0139053521742625,0.0121745516815204,3.2796976601787424e-05,high
1200,5.454545454545454,6.987341772151899,cathode,0.0129926916178612,0.0135736079377213,0.0123196585553318,-7.171997996167841e-05,high
1200,5.555555555555555,6.987341772151899,cathode,0.0131212624739372,0.013725291753975,0.0124196047362921,1.987221546474976e-06,high
1200,5.656565656565657,6.987341772151899,cathode,0.013214792024777,0.0138334458681743,0.0124937948604793,3.572368577655208e-05,high
1200,5.757575757575758,6.987341772151899,cathode,0.0131381634412049,0.0137871802230161,0.0123744718658482,-4.661875985023567e-05,high
1200,5.858585858585858,6.987341772151899,cathode,0.0132289223430828,0.0138865256924967,0.0124536095183655,-6.774721672872266e-05,high
1200,5.959595959595959,6.987341772151899,cathode,0.0131790568365839,0.0138221239926079,0.012424042892169,4.5632566829431136e-05,high
1200,6.0606060606060606,6.987341772151899,cathode,0.0132195337697248,0.013815075740914,0.0125293831233408,-5.3823000442915496e-05,high
1200,6.161616161616162,6.987341772151899,cathode,0.0133320303843206,0.0140334611812488,0.0124968517501753,5.0930347461258965e-05,high
1200,6.262626262626262,6.987341772151899,cathode,0.0133013926249851,0.0138860909733782,0.0126266790279357,-4.364112022206144e-05,high
1200,6.363636363636363,6.987341772151899,cathode,0.0134365555324468,0.0140939248281044,0.0126649536548988,-7.330282023150381e-06,high
1200,6.4646464646464645,6.987341772151899,cathode,0.0133417639367428,0.014034275663927,0.0125200431490438,3.052687306865831e-06,high
1200,6.565656565656566,6.987341772151899,cathode,0.0133262571828943,0.0140146771213671,0.0125101186721364,7.312945433586969e-06,high
1200,6.666666666666667,6.987341772151899,cathode,0.013502993256471,0.0141513613428124,0.012743467221625,6.124163705122406e-05,high
1200,6.767676767676767,6.987341772151899,cathode,0.0134567109285955,0.014055440811985,0.0127640416089603,6.0898160220210775e-05,high
1200,6.8686868686868685,6.987341772151899,cathode,0.013387404555353,0.0140756567216723,0.012571344096191,-5.692165814429656e-05,high
1200,6.96969696969697,6.987341772151899,cathode,0.0133540458987227,0.0139745334893952,0.0126320573419105,1.99273190893863e-05,high
1200,7.070707070707071,6.987341772151899,cathode,0.013468529517549,0.0140748082987924,0.0127668048638655,5.270430424011327e-06,high
1200,7.171717171717171,6.987341772151899,cathode,0.0135237098844766,0.0141423777068149,0.0128049253872528,-5.732654497340468e-05,high
1200,7.272727272727272,6.987341772151899,cathode,0.0135916489150955,0.0142508154801047,0.0128190191276033,2.1627241881583635e-05,high
1200,7.373737373737374,6.987341772151899,cathode,0.0136854859651854,0.0143217575532709,0.0129436032517549,-7.760839116309015e-05,high
1200,7.474747474747475,6.987341772151899,cathode,0.0136719943092388,0.0143612779131327,0.0128573438156066,-6.763347674892386e-05,high
1200,7.575757575757575,6.987341772151899,cathode,0.0136014436541709,0.0142556956973099,0.012834917689466,5.767278088567864e-05,high
1200,7.6767676767676765,6.987341772151899,cathode,0.0136836143236449,0.0143822438468258,0.0128544735281203,0.0001017284089268,high
1200,7.777777777777778,6.987341772151899,cathode,0.0139640157719362,0.014647319915579,0.0131601906280715,-8.298731178435565e-05,high
1200,7.878787878787879,6.987341772151899,cathode,0.0139430375000193,0.0146445128233347,0.0131153870080785,2.3207364197030196e-05,high
1200,7.979797979797979,6.987341772151899,cathode,0.0141262642526106,0.0147340428302331,0.0134265596912932,-6.90990153792702e-05,high
1200,8.080808080808081,6.987341772151899,cathode,0.0140635014187954,0.0147781093201543,0.0132189252980148,-9.90273611962007e-06,high
1200,8.181818181818182,6.987341772151899,cathode,0.0139979542800114,0.0146569673671296,0.0132293798644048,2.6639490801900457e-05,high
1200,8.282828282828282,6.987341772151899,cathode,0.0141003869809441,0.0148110862295325,0.0132615291071461,2.667455369804394e-05,high
1200,8.383838383838384,6.987341772151899,cathode,0.0142878460222852,0.0150362456113578,0.0133981494284525,2.0970679512913837e-05,high
1200,8.484848484848484,6.987341772151899,cathode,0.0142941545442332,0.0150456280756132,0.0134002008126437,-1.812632645428472e-05,high
1200,8.585858585858587,6.987341772151899,cathode,0.0144419870296869,0.0151181238162842,0.0136543534417176,7.295957605295777e-06,high
1200,8.686868686868687,6.987341772151899,cathode,0.0143813944488872,0.0151510125885002,0.0134563557896949,-0.0001583547323175,high
1200,8.787878787878787,6.987341772151899,cathode,0.014575699567795,0.01523453765942,0.0138126425584626,-1.7300757199004696e-06,high
1200,8.88888888888889,6.987341772151899,cathode,0.0148081066623711,0.0155490883542172,0.0139328393554972,-9.094308578033712e-05,high
1200,8.98989898989899,6.987341772151899,cathode,0.0148664889060751,0.0157174055796894,0.0138362908483023,3.3190262128028273e-05,high
1200,9.09090909090909,6.987341772151899,cathode,0.0148540667521999,0.0154825597767023,0.0141317518844553,-8.741437038503234e-05,high
1200,9.191919191919192,6.987341772151899,cathode,0.0151099289258287,0.0158925933726089,0.0141814926331569,2.152957369048137e-05,critical
1200,9.292929292929292,6.987341772151899,cathode,0.0151438156139277,0.0158772735713862,0.0142833794096322,-6.715737520163076e-05,critical
1200,9.393939393939394,6.987341772151899,cathode,0.015342221406784,0.0160624551965873,0.0145027831215683,1.7093830986216704e-05,critical
1200,9.494949494949497,6.987341772151899,cathode,0.0153600012956229,0.0161011543931525,0.0144910650238694,-6.922608835089507e-05,critical
1200,9.595959595959595,6.987341772151899,cathode,0.0157310017770708,0.0165060188932799,0.0148201769156319,-8.823556252255959e-06,critical
1200,9.696969696969695,6.987341772151899,cathode,0.0157514952830668,0.0165394809848342,0.0148228163215466,-1.8049878900155247e-05,critical
1200,9.797979797979798,6.987341772151899,cathode,0.0158847964175404,0.0166317724585039,0.0150138733333381,2.4729514164619524e-05,critical
1200,9.8989898989899,6.987341772151899,cathode,0.0160737902418708,0.0168295971640684,0.0151926525899288,-1.7533384474829628e-05,critical
1200,10.0,6.987341772151899,cathode,0.0163212946831813,0.0171251132009938,0.0153764869054566,3.102323996651409e-05,critical
1200,0.0,7.0886075949367084,cathode,0.0162477874224438,0.0168131471790811,0.0156162201831769,-7.1547352424367175e-06,critical
1200,0.101010101010101,7.0886075949367084,cathode,0.0163095964285308,0.0171441800496996,0.0153218924729777,-1.7515615917363607e-05,critical
1200,0.202020202020202,7.0886075949367084,cathode,0.0158775351813701,0.01663890501213,0.014986243442377,5.8172287619218045e-05,critical
1200,0.303030303030303,7.0886075949367084,cathode,0.0158013928631205,0.0164775827268293,0.0150242918366655,-5.147929214521936e-05,critical
1200,0.404040404040404,7.0886075949367084,cathode,0.0157216847234197,0.0164468246069484,0.0148790733428314,2.375780426853683e-06,critical
1200,0.5050505050505051,7.0886075949367084,cathode,0.0154104276572527,0.0161862881220504,0.0144941961098177,6.0196540728309856e-05,critical
1200,0.6060606060606061,7.0886075949367084,cathode,0.0155090948638811,0.0162496129695729,0.0146419471246881,8.457763873449605e-05,critical
1200,0.7070707070707071,7.0886075949367084,cathode,0.0153523119355015,0.0160771244060748,0.0145060768626359,5.564475571160618e-05,critical
1200,0.8080808080808081,7.0886075949367084,cathode,0.0149654030296245,0.0157445648337773,0.0140392371245333,-6.699780889871065e-05,high
1200,0.9090909090909092,7.0886075949367084,cathode,0.0150284402450642,0.0157632438494093,0.0141660376850964,8.986249694271539e-06,critical
1200,1.0101010101010102,7.0886075949367084,cathode,0.0148894321331687,0.0156448420311952,0.0139960529573752,-5.9571413480114056e-05,high
1200,1.1111111111111112,7.0886075949367084,cathode,0.0147716284611214,0.0155400423408372,0.0138590731998465,3.985728738095037e-05,high
1200,1.2121212121212122,7.0886075949367084,cathode,0.0146402818493849,0.0153709917529394,0.0137791518855167,-3.944815641966903e-05,high
1200,1.3131313131313131,7.0886075949367084,cathode,0.0146656689971376,0.0152724009865964,0.0139719002250279,-4.502636790879106e-05,high
1200,1.414141414141414,7.0886075949367084,cathode,0.0144332754721318,0.0151285214962079,0.0136193875905911,-1.5893184214620925e-05,high
1200,1.5151515151515151,7.0886075949367084,cathode,0.0143503638421052,0.0151461789269371,0.0133934560325242,-2.0193542895772227e-05,high
1200,1.616161616161616,7.0886075949367084,cathode,0.0142989161349196,0.0148891624269036,0.013624611175468,1.6970278023271162e-05,high
1200,1.7171717171717171,7.0886075949367084,cathode,0.0141143661898885,0.0148470133481442,0.0132449372191252,1.7562568267150583e-05,high
1200,1.818181818181818,7.0886075949367084,cathode,0.0141530165320245,0.0149548044207428,0.0131845594870437,-2.310359340804139e-05,high
1200,1.9191919191919191,7.0886075949367084,cathode,0.0141719577284454,0.0149183327787084,0.0132838439503077,3.027405588168586e-06,high
1200,2.0202020202020203,7.0886075949367084,cathode,0.0138721035509561,0.014579491935603,0.0130338777061803,-7.962134421521364e-05,high
1200,2.121212121212121,7.0886075949367084,cathode,0.0138776174411536,0.0145767124541436,0.0130523226276963,-3.893454932587241e-05,high
1200,2.2222222222222223,7.0886075949367084,cathode,0.0138562793355675,0.0145521937292212,0.0130350980493155,4.330369597194e-05,high
1200,2.323232323232323,7.0886075949367084,cathode,0.0137193769358618,0.014303588197848,0.0130489528353514,-1.0736936590997671e-05,high
1200,2.4242424242424243,7.0886075949367084,cathode,0.0135373773621275,0.0141785215363456,0.0127887381952609,3.506273089402113e-05,high
1200,2.525252525252525,7.0886075949367084,cathode,0.0137414874189814,0.0145630559837828,0.0127369009886763,-4.255295477686541e-05,high
1200,2.6262626262626263,7.0886075949367084,cathode,0.013730248097505,0.0144383373622795,0.0128898148930011,-6.902902455871877e-05,high
1200,2.727272727272727,7.0886075949367084,cathode,0.01358264564651,0.0142200169025314,0.0128389860953509,5.892758555930508e-05,high
1200,2.8282828282828283,7.0886075949367084,cathode,0.0134038135843228,0.0140626096493014,0.0126273858673124,9.72161779595959e-05,high
1200,2.929292929292929,7.0886075949367084,cathode,0.0134478626408588,0.0140418862925204,0.0127619191153946,4.193860661140453e-05,high
1200,3.0303030303030303,7.0886075949367084,cathode,0.0135561625804471,0.014240058592096,0.0127487809177407,-2.7371268762079333e-05,high
1200,3.131313131313131,7.0886075949367084,cathode,0.0134827927917755,0.0140877679242593,0.0127827868771595,2.4433460471950197e-05,high
1200,3.2323232323232323,7.0886075949367084,cathode,0.0133203371455942,0.0139270997370486,0.0126166074503484,2.034153881308369e-05,high
1200,3.333333333333333,7.0886075949367084,cathode,0.0134125700915268,0.0141217600491108,0.0125680492269919,-3.815422976146706e-06,high
1200,3.4343434343434343,7.0886075949367084,cathode,0.0133700938855837,0.0139954752830826,0.0126407108934559,6.12837334828894e-05,high
1200,3.5353535353535355,7.0886075949367084,cathode,0.0133585743940596,0.013934867206033,0.0126949590578774,-6.209929740739506e-05,high
1200,3.636363636363636,7.0886075949367084,cathode,0.0132432304542617,0.0137678914772023,0.0126473301803091,-1.1914217664819762e-05,high
1200,3.7373737373737375,7.0886075949367084,cathode,0.0132852931827557,0.0139151106415275,0.0125480277551736,-8.737808156604357e-05,high
1200,3.8383838383838382,7.0886075949367084,cathode,0.0133128004952881,0.01397803483939,0.0125285089743722,-4.3192841236510704e-05,high
1200,3.939393939393939,7.0886075949367084,cathode,0.0132896043169498,0.0138459294034876,0.0126490945064623,0.0001193029418911,high
1200,4.040404040404041,7.0886075949367084,cathode,0.0131796273844123,0.0139473596432787,0.0122424295704846,0.0001241280411173,high
1200,4.141414141414141,7.0886075949367084,cathode,0.0131534397156978,0.0137110370092411,0.0125128605837036,-6.596729783075442e-05,high
1200,4.242424242424242,7.0886075949367084,cathode,0.0130648275795987,0.0136303186567783,0.0124143079265301,4.64207528401581e-06,high
1200,4.343434343434343,7.0886075949367084,cathode,0.0132729071033931,0.0139624886478704,0.0124541407640373,3.719587696156086e-05,high
1200,4.444444444444445,7.0886075949367084,cathode,0.013152197628934,0.0138487942930634,0.0123222701521806,2.192378264290349e-05,high
1200,4.545454545454545,7.0886075949367084,cathode,0.0131561077723994,0.0136965317105584,0.0125391587073781,1.499545674273056e-05,high
1200,4.646464646464646,7.0886075949367084,cathode,0.0131758074829946,0.0137353236240129,0.0125312785935491,-0.0001016718389201,high
1200,4.747474747474747,7.0886075949367084,cathode,0.0130697035094244,0.0137225958219178,0.0122986833844725,-8.116232273631046e-05,high
1200,4.848484848484849,7.0886075949367084,cathode,0.0132018570941142,0.0137575188824943,0.0125629821228167,-9.424947056352438e-05,high
1200,4.94949494949495,7.0886075949367084,cathode,0.0131127868329149,0.0137855069314139,0.012315121881629,-6.569695688562417e-05,high
1200,5.05050505050505,7.0886075949367084,cathode,0.013222783602444,0.0138837110227259,0.0124423722321239,-7.799183668847846e-05,high
1200,5.151515151515151,7.0886075949367084,cathode,0.0132478752302028,0.0138975190977445,0.0124843572847284,5.025938610478877e-05,high
1200,5.252525252525253,7.0886075949367084,cathode,0.0131251902442837,0.0136629304016657,0.0125102571695347,-7.11579329742771e-05,high
1200,5.353535353535354,7.0886075949367084,cathode,0.013235288882521,0.0138876210564161,0.0124680442598627,-4.54588710575081e-05,high
1200,5.454545454545454,7.0886075949367084,cathode,0.0130365053848835,0.0135033998225667,0.0125121117233131,-6.26453771964417e-05,high
1200,5.555555555555555,7.0886075949367084,cathode,0.0131431454366269,0.0137739396974987,0.0124037872055999,7.288604514376784e-05,high
1200,5.656565656565657,7.0886075949367084,cathode,0.0131883092727322,0.0138271865874615,0.0124397295767333,-9.240418794627397e-07,high
1200,5.757575757575758,7.0886075949367084,cathode,0.013152304323102,0.0137342617627752,0.0124794198133331,6.547856017386266e-05,high
1200,5.858585858585858,7.0886075949367084,cathode,0.0131991742341806,0.0139420754098079,0.0123030098930573,-2.691343802724476e-05,high
1200,5.959595959595959,7.0886075949367084,cathode,0.0133566113852118,0.0139592617054091,0.0126588286290166,-3.642024450285276e-06,high
1200,6.0606060606060606,7.0886075949367084,cathode,0.0131507710688757,0.0137188424192262,0.0124974882422098,7.851228432519514e-07,high
1200,6.161616161616162,7.0886075949367084,cathode,0.0132098119876665,0.0138118341680539,0.0125116312176088,-3.135160377898585e-06,high
1200,6.262626262626262,7.0886075949367084,cathode,0.0133421430928334,0.0139405671793087,0.0126479274407447,8.676145304749316e-05,high
1200,6.363636363636363,7.0886075949367084,cathode,0.0133234544048324,0.0140027711479596,0.0125199889303872,-2.044835526419549e-05,high
1200,6.4646464646464645,7.0886075949367084,cathode,0.0133029951519769,0.0139173876399587,0.01258817718283,-5.271951014871017e-05,high
1200,6.565656565656566,7.0886075949367084,cathode,0.0134045302428159,0.0140201781450122,0.0126896351466625,6.8558659199294e-06,high
1200,6.666666666666667,7.0886075949367084,cathode,0.0134802968096092,0.0140887407790783,0.0127751906681459,-4.704060097377581e-05,high
1200,6.767676767676767,7.0886075949367084,cathode,0.0134123111077716,0.0139793484283466,0.0127593804301474,0.000106368184727,high
1200,6.8686868686868685,7.0886075949367084,cathode,0.0134225830941065,0.0140695935146551,0.0126645432457635,-4.688689731009182e-05,high
1200,6.96969696969697,7.0886075949367084,cathode,0.0133037651632541,0.0138211338020041,0.0127173886376811,3.257891839035413e-05,high
1200,7.070707070707071,7.0886075949367084,cathode,0.0136399687022268,0.0143504568509351,0.0127959605263614,-3.833177443583264e-05,high
1200,7.171717171717171,7.0886075949367084,cathode,0.0135740994811051,0.0142924215577396,0.0127185346212523,1.1521435773604591e-05,high
1200,7.272727272727272,7.0886075949367084,cathode,0.0136763690305209,0.0143716373958884,0.0128501426240813,-0.0001297860285334,high
1200,7.373737373737374,7.0886075949367084,cathode,0.0136846611845726,0.0143065253582014,0.012963453218282,-3.713384040819733e-05,high
1200,7.474747474747475,7.0886075949367084,cathode,0.0137208681341137,0.0144559448626297,0.0128421116710215,-6.559102423253063e-05,high
1200,7.575757575757575,7.0886075949367084,cathode,0.0137239464966811,0.0144057155706774,0.0129181054700747,-0.0001142665282627,high
1200,7.6767676767676765,7.0886075949367084,cathode,0.0138476893543931,0.0145311935832547,0.0130434859787828,-5.101235538982498e-05,high
1200,7.777777777777778,7.0886075949367084,cathode,0.0138483351833116,0.014468623214663,0.0131307426301866,2.997357804680633e-05,high
1200,7.878787878787879,7.0886075949367084,cathode,0.0137410708941095,0.0143045832651488,0.0130969783688587,-6.298712092406179e-05,high
1200,7.979797979797979,7.0886075949367084,cathode,0.0140075932221266,0.0146701395260732,0.0132334458099638,6.346284939592241e-05,high
1200,8.080808080808081,7.0886075949367084,cathode,0.0141393545635381,0.0148463223932509,0.0133049247013734,7.357330676355245e-05,high
1200,8.181818181818182,7.0886075949367084,cathode,0.0140486460357835,0.0147099611592601,0.0132773888499374,-2.779531331309421e-05,high
1200,8.282828282828282,7.0886075949367084,cathode,0.0142318989463144,0.0148763706078621,0.0134847204692962,-4.675562447958275e-05,high
1200,8.383838383838384,7.0886075949367084,cathode,0.0142948427136636,0.0150105739365552,0.0134512511873435,3.66448613700473e-06,high
1200,8.484848484848484,7.0886075949367084,cathode,0.0142976679309748,0.015124737005867,0.0132942931276849,5.6638653533332855e-06,high
1200,8.585858585858587,7.0886075949367084,cathode,0.0144685000337359,0.0152457286808527,0.0135400116214574,-1.5044635500543768e-05,high
1200,8.686868686868687,7.0886075949367084,cathode,0.0145189891631106,0.0152965408405966,0.0135895219344207,-6.94154123891249e-05,high
1200,8.787878787878787,7.0886075949367084,cathode,0.0147980520627561,0.0155502505186046,0.0139073043879546,8.367714271605522e-05,high
1200,8.88888888888889,7.0886075949367084,cathode,0.0146972894031526,0.0154448698142371,0.0138135010029541,-2.022318912008068e-05,high
1200,8.98989898989899,7.0886075949367084,cathode,0.0149340464216427,0.0157195583359694,0.0139982827918049,-7.3325929174714e-05,high
1200,9.09090909090909,7.0886075949367084,cathode,0.014875392626133,0.0155700059939401,0.0140665336740925,1.6962168517140934e-05,high
1200,9.191919191919192,7.0886075949367084,cathode,0.0150807551545586,0.0158687263722797,0.0141444294097498,2.513975213296102e-05,critical
1200,9.292929292929292,7.0886075949367084,cathode,0.0153207207293536,0.0160832919769936,0.0144219191625143,-6.425801853405845e-05,critical
1200,9.393939393939394,7.0886075949367084,cathode,0.0153276573128434,0.0160456759116922,0.0144911527102477,-8.089924968669182e-06,critical
1200,9.494949494949497,7.0886075949367084,cathode,0.0154814086129864,0.0161866896244287,0.0146613065262658,9.865903711190264e-05,critical
1200,9.595959595959595,7.0886075949367084,cathode,0.0157494789359039,0.0165596577955618,0.0147893361460005,4.359819673871857e-05,critical
1200,9.696969696969695,7.0886075949367084,cathode,0.0158248184516706,0.0166212534634193,0.0148851991464141,-1.0433451362239222e-05,critical
1200,9.797979797979798,7.0886075949367084,cathode,0.0159099211316407,0.01664244208968,0.0150581513269234,6.110580471611505e-05,critical
1200,9.8989898989899,7.0886075949367084,cathode,0.016039204527418,0.0168129862124389,0.0151331950426869,7.829336429358073e-06,critical
1200,10.0,7.0886075949367084,cathode,0.0164367280856839,0.0171998304869968,0.015548960092508,1.9826439376387225e-05,critical
1200,0.0,7.189873417721519,cathode,0.0163402104580919,0.0172329789116595,0.0152698138829308,-3.687933116011632e-05,critical
1200,0.101010101010101,7.189873417721519,cathode,0.0161991731975526,0.0171497889753599,0.0150422468734068,6.2975817388603145e-06,critical
1200,0.202020202020202,7.189873417721519,cathode,0.0159423508816196,0.0166295889580072,0.015151724334065,5.006697327948156e-05,critical
1200,0.303030303030303,7.189873417721519,cathode,0.0158766279161487,0.0167490813967237,0.0148293914510382,-3.376399930681869e-05,critical
1200,0.404040404040404,7.189873417721519,cathode,0.0156256154685463,0.0163270024233333,0.0148129921410968,7.273937872363761e-05,critical
1200,0.5050505050505051,7.189873417721519,cathode,0.0155043308313953,0.0162605980154391,0.0146170817740604,-1.4583173902345677e-05,critical
1200,0.6060606060606061,7.189873417721519,cathode,0.015398674397242,0.0161058291072626,0.0145772521214797,-3.602808523601492e-05,critical
1200,0.7070707070707071,7.189873417721519,cathode,0.0152681320392185,0.015992902286806,0.0144216137619002,3.39048982858861e-05,critical
1200,0.8080808080808081,7.189873417721519,cathode,0.0150086255851141,0.0158295714488604,0.0140243903158266,4.9833053699351605e-06,critical
1200,0.9090909090909092,7.189873417721519,cathode,0.0149297780653793,0.0156559809847221,0.014078248835089,-8.91226036587062e-06,high
1200,1.0101010101010102,7.189873417721519,cathode,0.0148841498039823,0.0155616659246719,0.014098568016566,-4.258662451491091e-06,high
1200,1.1111111111111112,7.189873417721519,cathode,0.0146757285182879,0.0154421735454572,0.0137651075459601,-2.063636935617189e-05,high
1200,1.2121212121212122,7.189873417721519,cathode,0.0145486206834934,0.0153201975120516,0.01362858376818,-5.231824302515537e-05,high
1200,1.3131313131313131,7.189873417721519,cathode,0.0146707737676553,0.0154216021525542,0.0137822232145921,5.047981565843086e-06,high
1200,1.414141414141414,7.189873417721519,cathode,0.0143185948204404,0.0149964908169174,0.0135273473633033,-1.8570887740471764e-05,high
1200,1.5151515151515151,7.189873417721519,cathode,0.0143631711844855,0.0150650569455361,0.0135394800797268,9.368160754266915e-06,high
1200,1.616161616161616,7.189873417721519,cathode,0.0142860314567284,0.0149131890059235,0.0135630012027049,-5.393056232605304e-06,high
1200,1.7171717171717171,7.189873417721519,cathode,0.0140761317710537,0.0146185448336971,0.0134622861592257,-2.249245114865984e-05,high
1200,1.818181818181818,7.189873417721519,cathode,0.0141748165379095,0.0148158635654257,0.0134321283959718,2.657791195155085e-05,high
1200,1.9191919191919191,7.189873417721519,cathode,0.0140536345500164,0.0147865099189977,0.0131831551298487,1.864934613221297e-05,high
1200,2.0202020202020203,7.189873417721519,cathode,0.0138915793562765,0.0144691610137872,0.0132308124973759,3.5183309822245616e-05,high
1200,2.121212121212121,7.189873417721519,cathode,0.0138587350755999,0.0144823799381382,0.0131366317051668,3.562830101031369e-05,high
1200,2.2222222222222223,7.189873417721519,cathode,0.0138758111840446,0.0146393835486306,0.0129584541109996,5.425960040878949e-05,high
1200,2.323232323232323,7.189873417721519,cathode,0.0138054731759872,0.0145430735305651,0.0129248312084174,4.324644707983278e-05,high
1200,2.4242424242424243,7.189873417721519,cathode,0.0137332848808107,0.0143842981316411,0.0129725564483599,5.471000651471241e-05,high
1200,2.525252525252525,7.189873417721519,cathode,0.0135584799126736,0.0142505075986861,0.0127398353359523,1.937864790150976e-05,high
1200,2.6262626262626263,7.189873417721519,cathode,0.0137982875182202,0.014567282334715,0.0128727143283818,1.542370162671525e-05,high
1200,2.727272727272727,7.189873417721519,cathode,0.0136193453593548,0.0141632344452076,0.0130008877807988,1.728789393213078e-05,high
1200,2.8282828282828283,7.189873417721519,cathode,0.013511334399208,0.0141872203216691,0.0127148408004491,1.6331764744233849e-06,high
1200,2.929292929292929,7.189873417721519,cathode,0.0135025165571173,0.0141893342285925,0.012686947975046,0.000117535472221,high
1200,3.0303030303030303,7.189873417721519,cathode,0.0134584897212799,0.0141370169413299,0.0126577399312191,6.477044920959296e-07,high
1200,3.131313131313131,7.189873417721519,cathode,0.0134110825838078,0.0140035438304323,0.0127273780704114,-6.840252726937374e-06,high
1200,3.2323232323232323,7.189873417721519,cathode,0.0133705331715129,0.0138939466881664,0.0127764575513946,-4.814989451606202e-05,high
1200,3.333333333333333,7.189873417721519,cathode,0.0132971448799192,0.0140565174560275,0.0123782813620162,-2.6188607687784276e-05,high
1200,3.4343434343434343,7.189873417721519,cathode,0.0134516943338854,0.0140771461173662,0.012723873669783,-1.7371494406950195e-05,high
1200,3.5353535353535355,7.189873417721519,cathode,0.0132922186940567,0.0139126643037266,0.0125684557821382,-7.182188152761438e-05,high
1200,3.636363636363636,7.189873417721519,cathode,0.013199606346349,0.01387017077765,0.0124068117404726,3.459470277739025e-05,high
1200,3.7373737373737375,7.189873417721519,cathode,0.01333604639141,0.0139060755347287,0.0126804082297407,-6.622778206839633e-05,high
1200,3.8383838383838382,7.189873417721519,cathode,0.0133004914808379,0.0140379887113028,0.0124138274193243,1.231928706423821e-06,high
1200,3.939393939393939,7.189873417721519,cathode,0.0132840279491337,0.0139610560681894,0.0124829339566958,-4.325394758447982e-05,high
1200,4.040404040404041,7.189873417721519,cathode,0.0132374153548352,0.0137941929295482,0.0125995338314865,-2.276270305786473e-05,high
1200,4.141414141414141,7.189873417721519,cathode,0.0133939488835454,0.0140709781877111,0.0125940936261805,4.266918858212365e-05,high
1200,4.242424242424242,7.189873417721519,cathode,0.0131646980096908,0.0137913408167462,0.0124311172468577,7.591846927338198e-05,high
1200,4.343434343434343,7.189873417721519,cathode,0.0132021928204107,0.0137506113808113,0.0125751655438329,1.6236810751067315e-06,high
1200,4.444444444444445,7.189873417721519,cathode,0.0130599525482971,0.0136266012179662,0.0124078217873476,1.2881297731786266e-05,high
1200,4.545454545454545,7.189873417721519,cathode,0.0131611007638921,0.013704808630341,0.012538121327879,-8.3387994770098e-05,high
1200,4.646464646464646,7.189873417721519,cathode,0.0130233721063594,0.0136641253903766,0.012270027940989,-4.286798810600184e-05,high
1200,4.747474747474747,7.189873417721519,cathode,0.0131347358178929,0.013764276233023,0.0123984276459557,-1.09494134221936e-05,high
1200,4.848484848484849,7.189873417721519,cathode,0.0131536621782087,0.0136919608321669,0.0125387804958477,-5.326780791329672e-05,high
1200,4.94949494949495,7.189873417721519,cathode,0.0131924733744484,0.0138099006534147,0.0124732645993726,-8.423251011445316e-06,high
1200,5.05050505050505,7.189873417721519,cathode,0.013115293817757,0.0137467545087973,0.0123694877621231,0.0001567977137611,high
1200,5.151515151515151,7.189873417721519,cathode,0.0132812420188582,0.0139657401468335,0.0124701202276876,-4.160179558372957e-06,high
1200,5.252525252525253,7.189873417721519,cathode,0.0131796606480605,0.0137877576015319,0.012471569270936,-7.332361615360903e-05,high
1200,5.353535353535354,7.189873417721519,cathode,0.0131533240587764,0.0138808517522723,0.0122790817648985,-7.143065372527002e-06,high
1200,5.454545454545454,7.189873417721519,cathode,0.0132384605571163,0.0138070634744019,0.0125825772996201,-9.836680108932866e-05,high
1200,5.555555555555555,7.189873417721519,cathode,0.0132011035772201,0.0137805529834813,0.0125319750468766,-6.491705366091964e-05,high
1200,5.656565656565657,7.189873417721519,cathode,0.0133069767023677,0.0139338301989101,0.0125760055689575,2.2400334178903304e-06,high
1200,5.757575757575758,7.189873417721519,cathode,0.0131281033063921,0.0136930561110668,0.0124787253131317,1.427385941947233e-05,high
1200,5.858585858585858,7.189873417721519,cathode,0.0133181588543651,0.0138820337684301,0.0126713646774914,-3.3283015297879343e-05,high
1200,5.959595959595959,7.189873417721519,cathode,0.0132355724812107,0.0138735645565261,0.0124884238831805,-3.060102316881592e-05,high
1200,6.0606060606060606,7.189873417721519,cathode,0.0131683409108085,0.013740946778867,0.0125091651296115,-6.928630911359997e-06,high
1200,6.161616161616162,7.189873417721519,cathode,0.0132362254433773,0.013830200395283,0.0125489742738717,-2.077378816487356e-05,high
1200,6.262626262626262,7.189873417721519,cathode,0.0132592503262846,0.0139548865835096,0.0124305354473222,-7.607121445505961e-05,high
1200,6.363636363636363,7.189873417721519,cathode,0.0132875084018627,0.0138742309156931,0.0126100196547223,4.213025896447135e-05,high
1200,6.4646464646464645,7.189873417721519,cathode,0.0133458799811449,0.0140278801359016,0.0125378987311106,-6.410233591734164e-05,high
1200,6.565656565656566,7.189873417721519,cathode,0.0134032034856897,0.0140796605707326,0.0126043368627616,-3.872505066675748e-05,high
1200,6.666666666666667,7.189873417721519,cathode,0.0134080920031899,0.0140011287940622,0.012723510717943,-1.924355326957653e-05,high
1200,6.767676767676767,7.189873417721519,cathode,0.0135032724894323,0.0142215780811774,0.0126468885803885,1.5779752946972857e-06,high
1200,6.8686868686868685,7.189873417721519,cathode,0.0134140560006462,0.0141685690409147,0.012503192419885,-6.075652398267683e-05,high
1200,6.96969696969697,7.189873417721519,cathode,0.0135029387347611,0.0141550505597257,0.0127376783902899,-7.730670506020496e-05,high
1200,7.070707070707071,7.189873417721519,cathode,0.0134400174780593,0.0141973314071118,0.0125257767025236,4.957049828608261e-05,high
1200,7.171717171717171,7.189873417721519,cathode,0.0135265243532946,0.0141534647583065,0.0127972004427178,-2.990382105740323e-05,high
1200,7.272727272727272,7.189873417721519,cathode,0.0135869810180236,0.0142549045766402,0.012802024433312,3.4427646731444075e-05,high
1200,7.373737373737374,7.189873417721519,cathode,0.0136392049830546,0.014331347663019,0.0128201593280312,-6.846400676594043e-05,high
1200,7.474747474747475,7.189873417721519,cathode,0.0136745301609373,0.014393146491763,0.0128193994219826,-3.916403845799514e-05,high
1200,7.575757575757575,7.189873417721519,cathode,0.0137683665730265,0.0144544624798287,0.0129603950160606,-6.758193469778756e-06,high
1200,7.6767676767676765,7.189873417721519,cathode,0.0137491428992268,0.014363105151724,0.0130393903542199,-1.3842280523298076e-05,high
1200,7.777777777777778,7.189873417721519,cathode,0.0140155885779983,0.0147355893065511,0.0131622587649611,5.0710576137593234e-05,high
1200,7.878787878787879,7.189873417721519,cathode,0.0138961920228891,0.0145924140307129,0.0130748823383352,4.8832420217199385e-05,high
1200,7.979797979797979,7.189873417721519,cathode,0.0138311875305095,0.0144729300276271,0.0130847457988283,-5.249612821086655e-06,high
1200,8.080808080808081,7.189873417721519,cathode,0.0141066553042343,0.0147328508533872,0.0133814067407965,-9.13837373568983e-05,high
1200,8.181818181818182,7.189873417721519,cathode,0.0140022521340611,0.0146676048946485,0.0132252295764214,7.663750584870693e-06,high
1200,8.282828282828282,7.189873417721519,cathode,0.0142544405948305,0.0149980210153815,0.0133708658415019,-4.047973558359784e-05,high
1200,8.383838383838384,7.189873417721519,cathode,0.0141834739222538,0.0148576465215555,0.0133960775709842,1.3703782419862477e-05,high
1200,8.484848484848484,7.189873417721519,cathode,0.0143652576543185,0.0151353231452693,0.013445642039315,-2.2121441233133232e-05,high
1200,8.585858585858587,7.189873417721519,cathode,0.0143973935106218,0.0150791864995784,0.0136014264756679,-3.0103845414388075e-05,high
1200,8.686868686868687,7.189873417721519,cathode,0.0144678100749613,0.0151490894953356,0.0136730176338754,-4.071207060357254e-05,high
1200,8.787878787878787,7.189873417721519,cathode,0.0146288118615768,0.0152638040181323,0.0138964630925943,-8.08828044975937e-05,high
1200,8.88888888888889,7.189873417721519,cathode,0.0147383822212288,0.0154376855813613,0.0139219300431444,-2.377367402640445e-06,high
1200,8.98989898989899,7.189873417721519,cathode,0.0149894205557103,0.0157347247890829,0.0141111807556722,-6.13398402957902e-05,high
1200,9.09090909090909,7.189873417721519,cathode,0.0149800645250751,0.0158252544568522,0.0139599156157308,3.4772441640942165e-05,high
1200,9.191919191919192,7.189873417721519,cathode,0.0151224692902322,0.0158027053123376,0.0143349528629999,3.532903074582376e-05,critical
1200,9.292929292929292,7.189873417721519,cathode,0.0153317079250625,0.016103588717004,0.0144209982374771,1.0530474165749708e-05,critical
1200,9.393939393939394,7.189873417721519,cathode,0.0153800729207511,0.0161839735726319,0.0144244574693327,-4.36182172117534e-05,critical
1200,9.494949494949497,7.189873417721519,cathode,0.0155197372410556,0.0163173225576023,0.0145751000859209,9.924368451731551e-06,critical
1200,9.595959595959595,7.189873417721519,cathode,0.0156673883689675,0.0164333979048383,0.0147674785229403,-6.30351712449392e-05,critical
1200,9.696969696969695,7.189873417721519,cathode,0.0157689613056256,0.0164880894383237,0.014934847312593,-1.2666483741299956e-05,critical
1200,9.797979797979798,7.189873417721519,cathode,0.0159742755025179,0.0167194290062523,0.0151066788594068,2.2136576737667314e-05,critical
1200,9.8989898989899,7.189873417721519,cathode,0.0161016411420928,0.0168639232741277,0.0152112459999538,5.83662261351948e-05,critical
1200,10.0,7.189873417721519,cathode,0.016253378117414,0.016995551936846,0.0153919949190629,4.264606174200124e-05,critical
1200,0.0,7.291139240506329,cathode,0.0164086896565713,0.0172997276064719,0.0153413347293314,-5.441092811793658e-05,critical
1200,0.101010101010101,7.291139240506329,cathode,0.016110268856484,0.0169012714225882,0.0151810869700152,-2.6183373732761664e-05,critical
1200,0.202020202020202,7.291139240506329,cathode,0.0159376723141887,0.0167637878280204,0.0149553489700011,0.0001010786231295,critical
1200,0.303030303030303,7.291139240506329,cathode,0.0157974760353483,0.016595228432888,0.0148556474088515,2.0368929635882053e-05,critical
1200,0.404040404040404,7.291139240506329,cathode,0.0157348517239297,0.0165209490539766,0.014808455004966,3.26200398886094e-05,critical
1200,0.5050505050505051,7.291139240506329,cathode,0.0154827438137375,0.0161371000723075,0.0147325010656902,2.9516210332889126e-05,critical
1200,0.6060606060606061,7.291139240506329,cathode,0.0153995460467506,0.0160843786176637,0.0146079697414209,4.516311088839104e-05,critical
1200,0.7070707070707071,7.291139240506329,cathode,0.0153647395719079,0.0160279236230849,0.0146016981736679,4.54605510239232e-05,critical
1200,0.8080808080808081,7.291139240506329,cathode,0.0151802385121452,0.0159390907248188,0.0142860822637045,3.786365504119759e-06,critical
1200,0.9090909090909092,7.291139240506329,cathode,0.0148836205265645,0.0156218799352391,0.0140145530796913,4.080359966264638e-05,high
1200,1.0101010101010102,7.291139240506329,cathode,0.0148025715791171,0.0155808384963514,0.013874226965731,-0.0001024903632219,high
1200,1.1111111111111112,7.291139240506329,cathode,0.0147524989482087,0.0154396902845018,0.0139523740002742,-3.550675898398241e-05,high
1200,1.2121212121212122,7.291139240506329,cathode,0.0145997830308309,0.0153804991740341,0.0136680201624552,-5.982277033643062e-06,high
1200,1.3131313131313131,7.291139240506329,cathode,0.0144149509711003,0.0150702312997715,0.0136553156572594,-4.464583160649777e-06,high
1200,1.414141414141414,7.291139240506329,cathode,0.0144627376376709,0.0151528300756776,0.0136560422119367,3.010494589635739e-05,high
1200,1.5151515151515151,7.291139240506329,cathode,0.0143418984609688,0.0151267781082122,0.0134007355013932,1.7087693117184447e-05,high
1200,1.616161616161616,7.291139240506329,cathode,0.0142075427224505,0.0148425143576644,0.0134730846934168,-3.864194986809254e-05,high
1200,1.7171717171717171,7.291139240506329,cathode,0.0142839203043499,0.0149791584887698,0.0134684234612518,-2.8339123103044998e-05,high
1200,1.818181818181818,7.291139240506329,cathode,0.0140367655745831,0.0147119448045923,0.0132466156048825,6.337864949844004e-06,high
1200,1.9191919191919191,7.291139240506329,cathode,0.0140590502003292,0.0147027217548675,0.0133116647929649,3.719103426496438e-05,high
1200,2.0202020202020203,7.291139240506329,cathode,0.0140137938564995,0.014667854536899,0.0132521868056711,-1.9619427682861307e-05,high
1200,2.121212121212121,7.291139240506329,cathode,0.0139172068690491,0.0146755714885972,0.0130074275705824,-6.954545244206485e-05,high
1200,2.2222222222222223,7.291139240506329,cathode,0.013844087898309,0.0145656962185585,0.012987121790165,1.1572397692362749e-05,high
1200,2.323232323232323,7.291139240506329,cathode,0.0137759846755428,0.0144896514703853,0.0129292194567954,3.120896592997194e-05,high
1200,2.4242424242424243,7.291139240506329,cathode,0.013758571962625,0.0143935686551131,0.0130206308636671,-2.8715515697768743e-08,high
1200,2.525252525252525,7.291139240506329,cathode,0.0137664245937744,0.0144794664914358,0.0129205076901605,-2.604739261429212e-05,high
1200,2.6262626262626263,7.291139240506329,cathode,0.0136096732014685,0.0141686740021187,0.0129713315455274,3.166307226782719e-05,high
1200,2.727272727272727,7.291139240506329,cathode,0.0136796092939325,0.0143103415226782,0.0129466956321436,-1.3468899131209625e-05,high
1200,2.8282828282828283,7.291139240506329,cathode,0.0135920464284693,0.0142646313852777,0.0128002207029999,5.4152527805984566e-05,high
1200,2.929292929292929,7.291139240506329,cathode,0.0134189479879885,0.0140349058772144,0.0127017381930996,-8.780473259900272e-05,high
1200,3.0303030303030303,7.291139240506329,cathode,0.0135619742226457,0.014270990109335,0.0127148517079102,-0.0001317258846611,high
1200,3.131313131313131,7.291139240506329,cathode,0.013369011992839,0.0140053084423927,0.0126254802873794,-3.060647647591508e-05,high
1200,3.2323232323232323,7.291139240506329,cathode,0.0134932762531593,0.0142360063608723,0.0126016066509327,-1.5156872303936173e-05,high
1200,3.333333333333333,7.291139240506329,cathode,0.0134425099206374,0.0140681801611036,0.0127133580381612,6.249972841033118e-05,high
1200,3.4343434343434343,7.291139240506329,cathode,0.0134518901242091,0.0141233059329492,0.0126589305161839,8.756728566337259e-05,high
1200,3.5353535353535355,7.291139240506329,cathode,0.0133569903894105,0.0139707257515188,0.0126442437766946,-1.1190676478393972e-05,high
1200,3.636363636363636,7.291139240506329,cathode,0.0133190227159838,0.0139938035241556,0.0125217774121571,2.71560647104548e-05,high
1200,3.7373737373737375,7.291139240506329,cathode,0.0132627513096937,0.0140188401975836,0.0123483909303583,4.179251279139668e-06,high
1200,3.8383838383838382,7.291139240506329,cathode,0.0131818690425671,0.0137666182739343,0.0125056210621697,6.176850855399794e-05,high
1200,3.939393939393939,7.291139240506329,cathode,0.013244979872502,0.0138570622162698,0.0125332018461691,3.429184561674352e-05,high
1200,4.040404040404041,7.291139240506329,cathode,0.0133140137664395,0.0140231346325905,0.0124663539195058,8.570685222615805e-05,high
1200,4.141414141414141,7.291139240506329,cathode,0.0132161672401564,0.0139010238873142,0.012403725010146,1.5219882815328943e-05,high
1200,4.242424242424242,7.291139240506329,cathode,0.0131645732587419,0.013803741412821,0.0124136073569383,-8.018818696922423e-05,high
1200,4.343434343434343,7.291139240506329,cathode,0.0132348433014492,0.0139672152999106,0.0123544609046803,-2.991713322685448e-05,high
1200,4.444444444444445,7.291139240506329,cathode,0.0131969063840031,0.0138469423396626,0.0124302407518701,0.0001007765846127,high
1200,4.545454545454545,7.291139240506329,cathode,0.0132894119028337,0.0138429530129881,0.0126562732269454,-4.626317114238222e-06,high
1200,4.646464646464646,7.291139240506329,cathode,0.0131337777761259,0.0137346573125181,0.0124362840808361,2.735892603860145e-05,high
1200,4.747474747474747,7.291139240506329,cathode,0.0130059052605443,0.0136586433357035,0.0122356971715515,-4.386429938765641e-05,high
1200,4.848484848484849,7.291139240506329,cathode,0.0132269219944449,0.0138969391493684,0.012434130206716,-7.142498715610336e-05,high
1200,4.94949494949495,7.291139240506329,cathode,0.0133050132809363,0.0139820524467165,0.0125034381199291,-6.670962296339178e-05,high
1200,5.05050505050505,7.291139240506329,cathode,0.0132436091289517,0.0138259725478371,0.0125720413885889,-6.838601647477387e-06,high
1200,5.151515151515151,7.291139240506329,cathode,0.0132680321840095,0.0139193323034587,0.012499245159307,0.0001195597816081,high
1200,5.252525252525253,7.291139240506329,cathode,0.0132223987100905,0.0138704607105623,0.0124614118906828,-1.7175990518846815e-05,high
1200,5.353535353535354,7.291139240506329,cathode,0.0132091233726654,0.0138685835977942,0.0124309055860093,-7.063731985279561e-05,high
1200,5.454545454545454,7.291139240506329,cathode,0.0132486041687008,0.0138533696708072,0.0125464374380783,-4.832072232133557e-05,high
1200,5.555555555555555,7.291139240506329,cathode,0.013072140299988,0.0136270793089903,0.0124350463558089,4.671387916851402e-05,high
1200,5.656565656565657,7.291139240506329,cathode,0.0131140442418653,0.0136860359212017,0.0124552487866987,-1.0600391201654392e-05,high
1200,5.757575757575758,7.291139240506329,cathode,0.0131673710580272,0.0137918471496213,0.0124375979837477,-5.234334155590279e-05,high
1200,5.858585858585858,7.291139240506329,cathode,0.0133744412114889,0.0139650859232711,0.0126893307202922,0.0001162362019903,high
1200,5.959595959595959,7.291139240506329,cathode,0.0131998036540744,0.0138025345881166,0.012498728137108,8.322224167037819e-05,high
1200,6.0606060606060606,7.291139240506329,cathode,0.0132411701953421,0.013902093323765,0.0124623548781177,-3.120256758151042e-05,high
1200,6.161616161616162,7.291139240506329,cathode,0.0132358410538788,0.0137928158884746,0.0125971022836359,-5.2424079312641705e-05,high
1200,6.262626262626262,7.291139240506329,cathode,0.0133803027894119,0.0139073973471762,0.0127817965789124,-3.652311193386889e-05,high
1200,6.363636363636363,7.291139240506329,cathode,0.0132338471785832,0.0138927400150451,0.0124568287967283,-6.67987882412416e-05,high
1200,6.4646464646464645,7.291139240506329,cathode,0.0133796176145879,0.0140141691280151,0.0126374037632924,-7.296338190305861e-05,high
1200,6.565656565656566,7.291139240506329,cathode,0.013295264885804,0.0139075780392212,0.0125832440240123,-5.085780614941422e-05,high
1200,6.666666666666667,7.291139240506329,cathode,0.0134206910495188,0.0140182212256767,0.0127296949708455,4.8194399909868485e-05,high
1200,6.767676767676767,7.291139240506329,cathode,0.0134529969302385,0.0141749787601259,0.0125897545943212,5.968466988047056e-05,high
1200,6.8686868686868685,7.291139240506329,cathode,0.0134935972163859,0.0141634779659629,0.0127039828248314,-6.942370296285924e-05,high
1200,6.96969696969697,7.291139240506329,cathode,0.0134672625635174,0.0141153201289956,0.0127071725855689,-7.846967770300374e-05,high
1200,7.070707070707071,7.291139240506329,cathode,0.0135569456748777,0.0141387206647554,0.0128878690963042,5.217045367521027e-05,high
1200,7.171717171717171,7.291139240506329,cathode,0.013557848308736,0.0143026854547867,0.0126631096245638,-5.935211320841384e-05,high
1200,7.272727272727272,7.291139240506329,cathode,0.0136919955170842,0.0143521616667987,0.0129175493044675,7.718517374946013e-05,high
1200,7.373737373737374,7.291139240506329,cathode,0.013552294335656,0.014217383661986,0.0127709576187117,3.124774874141336e-05,high
1200,7.474747474747475,7.291139240506329,cathode,0.0136439053225526,0.0143109873340038,0.0128603480223278,5.006788652821455e-05,high
1200,7.575757575757575,7.291139240506329,cathode,0.0138602988914338,0.0146043274188107,0.0129715563365721,-1.904452711475037e-05,high
1200,7.6767676767676765,7.291139240506329,cathode,0.0138395971965808,0.0145973091563166,0.0129284267602903,9.8386630336397e-05,high
1200,7.777777777777778,7.291139240506329,cathode,0.0137758985727842,0.0144220982110533,0.0130228901230527,-8.12132355768003e-06,high
1200,7.878787878787879,7.291139240506329,cathode,0.0139504436285517,0.0146761943166459,0.0130886247017653,-3.316971785310818e-05,high
1200,7.979797979797979,7.291139240506329,cathode,0.0139828147415681,0.0147052021223405,0.0131256654548559,-5.356774280370739e-05,high
1200,8.080808080808081,7.291139240506329,cathode,0.0141199928977713,0.0148112623852048,0.0133052099331019,-0.0001140906587192,high
1200,8.181818181818182,7.291139240506329,cathode,0.0140625862732177,0.0146664446557057,0.0133684183355652,-3.782728743429228e-05,high
1200,8.282828282828282,7.291139240506329,cathode,0.014109510730958,0.014782459868863,0.0133230787489588,-1.44092296940049e-05,high
1200,8.383838383838384,7.291139240506329,cathode,0.0142698686615664,0.0148387724369075,0.0136229188510529,-3.3955455560569034e-05,high
1200,8.484848484848484,7.291139240506329,cathode,0.0143151213603489,0.0149309447479548,0.0136068872062455,4.430996748133579e-05,high
1200,8.585858585858587,7.291139240506329,cathode,0.0143886313521328,0.0150339134262884,0.0136415448039339,5.233935385302419e-05,high
1200,8.686868686868687,7.291139240506329,cathode,0.0146042645449101,0.0151651146430794,0.0139699186724612,1.4505943219166884e-05,high
1200,8.787878787878787,7.291139240506329,cathode,0.0146324222959745,0.0153189527657655,0.0138322642325856,2.406262992414691e-05,high
1200,8.88888888888889,7.291139240506329,cathode,0.014706337785445,0.0153709597935392,0.0139363822262982,3.048166307767783e-05,high
1200,8.98989898989899,7.291139240506329,cathode,0.0149255352388744,0.0156787903873278,0.0140355190566744,6.137381035103626e-05,high
1200,9.09090909090909,7.291139240506329,cathode,0.0151145952965724,0.0158824722487806,0.0142070466307193,1.747501056100907e-05,critical
1200,9.191919191919192,7.291139240506329,cathode,0.0151106553783502,0.0158989696843637,0.0141725924877909,8.545842300739226e-05,critical
1200,9.292929292929292,7.291139240506329,cathode,0.0152763429464647,0.0160610066522729,0.014345424565494,8.460209896319498e-05,critical
1200,9.393939393939394,7.291139240506329,cathode,0.0154068974212025,0.0161083340297035,0.0145928030198192,-5.747008677089899e-05,critical
1200,9.494949494949497,7.291139240506329,cathode,0.0155538086932279,0.0164184476758033,0.0145136533190334,1.884781729545113e-05,critical
1200,9.595959595959595,7.291139240506329,cathode,0.0155887489732425,0.0163208809738814,0.0147352746083989,2.7592289847646064e-05,critical
1200,9.696969696969695,7.291139240506329,cathode,0.0158528966434141,0.0166383697840637,0.0149288567024254,-4.4250132019795884e-06,critical
1200,9.797979797979798,7.291139240506329,cathode,0.0159722530034741,0.0168071455473258,0.0149785235810852,8.714317762429868e-05,critical
1200,9.8989898989899,7.291139240506329,cathode,0.0162447221266891,0.0170447409382126,0.0153042193335356,-4.134293690043926e-05,critical
1200,10.0,7.291139240506329,cathode,0.0163663827325183,0.0171368173825114,0.0154679905435691,-2.1381528964262204e-05,critical
1200,0.0,7.3924050632911396,cathode,0.0163153318621505,0.0169854426897216,0.0155503304549835,-2.049305944274775e-05,critical
1200,0.101010101010101,7.3924050632911396,cathode,0.0160514610904778,0.016855737123739,0.0151029904402771,-4.181530454612195e-05,critical
1200,0.202020202020202,7.3924050632911396,cathode,0.0159769447010383,0.0167184425263778,0.0151137155049529,5.7239663299161485e-05,critical
1200,0.303030303030303,7.3924050632911396,cathode,0.0157626723119644,0.0165737037076536,0.0148015515002721,-3.994157882361241e-05,critical
1200,0.404040404040404,7.3924050632911396,cathode,0.0156026888128506,0.0163862309452295,0.0146786578749019,-8.455688243902603e-06,critical
1200,0.5050505050505051,7.3924050632911396,cathode,0.0154047597461181,0.0161142793852902,0.0145802012561625,3.554618493694553e-05,critical
1200,0.6060606060606061,7.3924050632911396,cathode,0.0152393891316615,0.0159933779007706,0.014352588804668,-1.1770597358562573e-05,critical
1200,0.7070707070707071,7.3924050632911396,cathode,0.0153102396526843,0.0161296015987045,0.0143320071050013,-2.9026111015261724e-05,critical
1200,0.8080808080808081,7.3924050632911396,cathode,0.0150382343486176,0.0156368696013149,0.0143578990728188,-6.612127061346353e-06,critical
1200,0.9090909090909092,7.3924050632911396,cathode,0.0150040106665924,0.0157014574722287,0.0141925343800535,-2.016065864469992e-06,critical
1200,1.0101010101010102,7.3924050632911396,cathode,0.014750935521293,0.0152951161537843,0.0141385014170078,2.78070161287846e-05,high
1200,1.1111111111111112,7.3924050632911396,cathode,0.0148378288288923,0.0155291686250644,0.0140313704594546,-8.611446836049117e-05,high
1200,1.2121212121212122,7.3924050632911396,cathode,0.0146038398529061,0.0153550140419919,0.0137137391205698,3.511085813645409e-05,high
1200,1.3131313131313131,7.3924050632911396,cathode,0.0145626252766068,0.0151669318829612,0.0138705378524195,7.283469127770286e-05,high
1200,1.414141414141414,7.3924050632911396,cathode,0.0144850202509173,0.015281004050264,0.0135296204978215,-2.75783488232174e-05,high
1200,1.5151515151515151,7.3924050632911396,cathode,0.0142692810040918,0.0149235502658534,0.0135096318971773,-2.269015758630333e-05,high
1200,1.616161616161616,7.3924050632911396,cathode,0.0143921710557212,0.0149464919377554,0.0137649922018044,1.001837565054008e-05,high
1200,1.7171717171717171,7.3924050632911396,cathode,0.014208779279214,0.0149581361973671,0.0133168710807644,5.356416446156273e-06,high
1200,1.818181818181818,7.3924050632911396,cathode,0.0141590856977749,0.0147723055414239,0.0134533639769633,-3.107903250298847e-05,high
1200,1.9191919191919191,7.3924050632911396,cathode,0.0139533497418341,0.0145809820115831,0.0132260978715217,-5.989668008625781e-05,high
1200,2.0202020202020203,7.3924050632911396,cathode,0.013892585287032,0.0145570130392048,0.0131155413139676,-3.15134846505378e-05,high
1200,2.121212121212121,7.3924050632911396,cathode,0.0138118541981771,0.0145459197809788,0.0129362919350861,-4.5276330621607184e-05,high
1200,2.2222222222222223,7.3924050632911396,cathode,0.0139885391722579,0.0147538581034626,0.0130668271388607,0.0001252214425779,high
1200,2.323232323232323,7.3924050632911396,cathode,0.0137581549270457,0.0144764912296546,0.0129035144510583,7.060988627925966e-05,high
1200,2.4242424242424243,7.3924050632911396,cathode,0.0137730584858122,0.0143521127652984,0.0131082832728475,7.846136189486982e-05,high
1200,2.525252525252525,7.3924050632911396,cathode,0.0138431585362925,0.0145577595468249,0.0129957402508548,-3.773713912865632e-05,high
1200,2.6262626262626263,7.3924050632911396,cathode,0.0136297329990922,0.0142413137008218,0.0129222299194099,-6.044493275839541e-06,high
1200,2.727272727272727,7.3924050632911396,cathode,0.0136992507334636,0.014307002437295,0.0129970195328829,-4.09280422441053e-05,high
1200,2.8282828282828283,7.3924050632911396,cathode,0.0135775700395337,0.0142624952683626,0.0127686520653229,-4.472507923973544e-05,high
1200,2.929292929292929,7.3924050632911396,cathode,0.0134747284975349,0.0140586359500099,0.0128020418801397,-5.7830834284382417e-05,high
1200,3.0303030303030303,7.3924050632911396,cathode,0.0133935294201683,0.0140671733172629,0.0125988896911688,-1.696222010440058e-06,high
1200,3.131313131313131,7.3924050632911396,cathode,0.0134806047850859,0.0139982789722775,0.0128951375190361,4.160467569557913e-06,high
1200,3.2323232323232323,7.3924050632911396,cathode,0.013268974381528,0.0138196751103935,0.0126393891544077,-1.0870326646855866e-05,high
1200,3.333333333333333,7.3924050632911396,cathode,0.013425287590688,0.01408251868312,0.0126537090588085,-1.5871554411950306e-05,high
1200,3.4343434343434343,7.3924050632911396,cathode,0.0134141502432486,0.0140752938472031,0.0126355824911226,7.554571793416521e-05,high
1200,3.5353535353535355,7.3924050632911396,cathode,0.0133891626948765,0.0140173592012666,0.0126570479974575,-1.676196716481758e-05,high
1200,3.636363636363636,7.3924050632911396,cathode,0.0132685805491327,0.0138933974634364,0.0125396735517716,3.6481243148157314e-05,high
1200,3.7373737373737375,7.3924050632911396,cathode,0.0132098339240131,0.0138450296649929,0.0124648528435771,7.866988525362904e-05,high
1200,3.8383838383838382,7.3924050632911396,cathode,0.0133139798667688,0.0139567012186284,0.0125612304874167,-2.145133915928012e-05,high
1200,3.939393939393939,7.3924050632911396,cathode,0.0130895210437744,0.0137996147336195,0.0122395027663807,-1.990894244058314e-05,high
1200,4.040404040404041,7.3924050632911396,cathode,0.0131772717383448,0.0137896250995861,0.0124636203131677,6.720682109806708e-05,high
1200,4.141414141414141,7.3924050632911396,cathode,0.0132286529177122,0.0138656468480927,0.0124830365295936,9.49760127254932e-06,high
1200,4.242424242424242,7.3924050632911396,cathode,0.013223094262689,0.0138310599002822,0.0125168203399083,-2.648506224910101e-05,high
1200,4.343434343434343,7.3924050632911396,cathode,0.0131706186217745,0.0137810447186655,0.0124603195288677,-3.940903906290426e-05,high
1200,4.444444444444445,7.3924050632911396,cathode,0.013062366907855,0.0136636692020242,0.0123629352652407,5.905542830302705e-05,high
1200,4.545454545454545,7.3924050632911396,cathode,0.0132851747806205,0.0139241813248984,0.0125372106144164,2.440830682339392e-05,high
1200,4.646464646464646,7.3924050632911396,cathode,0.0132226097251222,0.0137864438031243,0.0125753911151437,-1.669749078495972e-05,high
1200,4.747474747474747,7.3924050632911396,cathode,0.013167430400015,0.0137785095448793,0.0124558672841222,-5.339951707872228e-05,high
1200,4.848484848484849,7.3924050632911396,cathode,0.0131167252970238,0.0137966420281975,0.0123099965928454,2.4162693772414504e-05,high
1200,4.94949494949495,7.3924050632911396,cathode,0.0130825548199603,0.013686092731589,0.0123799194245628,6.934612489116431e-05,high
1200,5.05050505050505,7.3924050632911396,cathode,0.0132412853299043,0.013846697341992,0.0125386497585475,-2.422411701278564e-05,high
1200,5.151515151515151,7.3924050632911396,cathode,0.0131796490549788,0.0138705639351348,0.0123579265264411,3.496327370432524e-05,high
1200,5.252525252525253,7.3924050632911396,cathode,0.0131395048357136,0.0137311345511464,0.0124535748830406,-6.510570983984835e-05,high
1200,5.353535353535354,7.3924050632911396,cathode,0.0130827635877369,0.0136361248448256,0.012448397093777,-6.027528430464878e-06,high
1200,5.454545454545454,7.3924050632911396,cathode,0.0130920071938144,0.0137405898707927,0.0123288509683059,2.556625690849593e-05,high
1200,5.555555555555555,7.3924050632911396,cathode,0.0131872043833327,0.0138930987306943,0.0123445626054205,7.488928903377417e-06,high
1200,5.656565656565657,7.3924050632911396,cathode,0.0133011407115845,0.0140071235483239,0.0124592179584504,-4.664495220663727e-05,high
1200,5.757575757575758,7.3924050632911396,cathode,0.0131116713311889,0.0136584924519602,0.0124845218420638,7.73967227102953e-05,high
1200,5.858585858585858,7.3924050632911396,cathode,0.0132835350492422,0.0139510475250243,0.0124943862233646,8.299650298988628e-05,high
1200,5.959595959595959,7.3924050632911396,cathode,0.0132793900682953,0.0138923691879327,0.0125664637195992,-4.554080788582352e-05,high
1200,6.0606060606060606,7.3924050632911396,cathode,0.0133142680449018,0.0139995888034939,0.0125022248405548,2.3294043527198367e-05,high
1200,6.161616161616162,7.3924050632911396,cathode,0.0132138408148667,0.0137595399150998,0.0125901165832159,-3.571409135009533e-05,high
1200,6.262626262626262,7.3924050632911396,cathode,0.0132313669968536,0.0137603116467227,0.012629744075745,-2.3629587938810145e-05,high
1200,6.363636363636363,7.3924050632911396,cathode,0.0133876929974701,0.0140567171367456,0.0125939421994703,0.0001427470290542,high
1200,6.4646464646464645,7.3924050632911396,cathode,0.0133709191304162,0.014060151202926,0.0125539827372231,2.6073362988462173e-05,high
1200,6.565656565656566,7.3924050632911396,cathode,0.0134137520755391,0.0140467709406617,0.0126751922385898,2.578503266337157e-05,high
1200,6.666666666666667,7.3924050632911396,cathode,0.0134458035547787,0.0141655357201085,0.0125840467024251,9.791604214751134e-05,high
1200,6.767676767676767,7.3924050632911396,cathode,0.0133375076351064,0.0139513738499399,0.0126233487047875,-6.429647921951572e-05,high
1200,6.8686868686868685,7.3924050632911396,cathode,0.0135848414654511,0.0141762396763649,0.0129022430509133,8.074731640157386e-05,high
1200,6.96969696969697,7.3924050632911396,cathode,0.013494831481242,0.0141347125409187,0.012747415857966,4.0107475157344285e-05,high
1200,7.070707070707071,7.3924050632911396,cathode,0.0135415333777265,0.0142136493817746,0.0127506046768446,8.424511752109528e-07,high
1200,7.171717171717171,7.3924050632911396,cathode,0.0135156507087693,0.0142120952390417,0.0126877122451199,-0.0001001594996321,high
1200,7.272727272727272,7.3924050632911396,cathode,0.0135958014032949,0.0143368329008014,0.0127078970563832,-2.1503446652743654e-05,high
1200,7.373737373737374,7.3924050632911396,cathode,0.0136236259591997,0.0142866844955391,0.0128459290891471,2.3609224323389596e-05,high
1200,7.474747474747475,7.3924050632911396,cathode,0.0137415770794567,0.0145510151729851,0.0127553693781071,-3.174613950921748e-05,high
1200,7.575757575757575,7.3924050632911396,cathode,0.0138486235765096,0.0145638966050614,0.0129993699784653,-7.106593469173167e-05,high
1200,7.6767676767676765,7.3924050632911396,cathode,0.0138858524486216,0.0145035463207841,0.0131717343711016,-4.588238309925944e-05,high
1200,7.777777777777778,7.3924050632911396,cathode,0.0140112178189966,0.0147507726309028,0.0131298608404417,6.131287565594395e-05,high
1200,7.878787878787879,7.3924050632911396,cathode,0.0138587705683514,0.0143960805999269,0.0132500538954652,3.316939538271386e-05,high
1200,7.979797979797979,7.3924050632911396,cathode,0.0139816569116252,0.0146707548244415,0.0131717161556464,1.4079858296306273e-05,high
1200,8.080808080808081,7.3924050632911396,cathode,0.0140560430046372,0.0147461080117747,0.0132455721588859,-5.755279236200183e-06,high
1200,8.181818181818182,7.3924050632911396,cathode,0.0142139421145323,0.0148304231698731,0.01350454635974,-4.614741328225035e-06,high
1200,8.282828282828282,7.3924050632911396,cathode,0.0140898398050133,0.0146907740571966,0.0134000534906448,1.24895236868642e-05,high
1200,8.383838383838384,7.3924050632911396,cathode,0.0143130425150233,0.0150553586614808,0.0134318928242697,-4.313057818518745e-05,high
1200,8.484848484848484,7.3924050632911396,cathode,0.0142364500645525,0.0149294009440632,0.0134235785543972,3.174391571576527e-05,high
1200,8.585858585858587,7.3924050632911396,cathode,0.0144581509681964,0.0151887606030346,0.0135946481384318,-6.076954342869624e-05,high
1200,8.686868686868687,7.3924050632911396,cathode,0.0144893173669884,0.0152183554812904,0.0136287549437289,-4.564497502514162e-05,high
1200,8.787878787878787,7.3924050632911396,cathode,0.0147469829808333,0.0154758034206265,0.0138898594095663,-2.276597007820436e-05,high
1200,8.88888888888889,7.3924050632911396,cathode,0.0147825710544035,0.01550045013163,0.0139410558883054,4.281488505707286e-06,high
1200,8.98989898989899,7.3924050632911396,cathode,0.0148204257204768,0.0155288624433621,0.0139922585805176,-1.666938286919262e-06,high
1200,9.09090909090909,7.3924050632911396,cathode,0.0149692669554976,0.0157958023077969,0.013976144393613,-3.358766422106383e-05,high
1200,9.191919191919192,7.3924050632911396,cathode,0.0150381601204678,0.0157358862404025,0.0142253756865994,-7.239738568342257e-05,critical
1200,9.292929292929292,7.3924050632911396,cathode,0.0151655879305838,0.0158738505840345,0.0143408848863732,-1.781472740694832e-06,critical
1200,9.393939393939394,7.3924050632911396,cathode,0.0152382457972095,0.0159261595314224,0.014441532541213,-2.4943579862855565e-05,critical
1200,9.494949494949497,7.3924050632911396,cathode,0.0155804847183028,0.0164051955065659,0.0145981892810957,5.271310700126524e-06,critical
1200,9.595959595959595,7.3924050632911396,cathode,0.0157771837262819,0.0165652676284661,0.0148485879328234,2.3833753302553423e-05,critical
1200,9.696969696969695,7.3924050632911396,cathode,0.0158117048107361,0.0165247071119059,0.0149861002554484,-2.436180190091639e-05,critical
1200,9.797979797979798,7.3924050632911396,cathode,0.0159846288045328,0.0167969024441195,0.0150233353572657,7.598119470534288e-05,critical
1200,9.8989898989899,7.3924050632911396,cathode,0.0160857456898593,0.0168678138980029,0.0151687301683961,-1.8360547233793192e-05,critical
1200,10.0,7.3924050632911396,cathode,0.0162915913956659,0.0170863639527664,0.015359163181251,-1.2590650355926996e-05,critical
1200,0.0,7.493670886075949,cathode,0.0162587118953333,0.0170542473912742,0.0153219856634189,-0.000115538986431,critical
1200,0.101010101010101,7.493670886075949,cathode,0.0161982335330234,0.0169894566534392,0.0152694489701283,3.958854977488064e-05,critical
1200,0.202020202020202,7.493670886075949,cathode,0.0158831963830961,0.0165933044285596,0.0150614900506248,-5.65169526489548e-05,critical
1200,0.303030303030303,7.493670886075949,cathode,0.0157627946393879,0.0165073706941514,0.0148940522245189,2.047071789134917e-05,critical
1200,0.404040404040404,7.493670886075949,cathode,0.0155806558601306,0.0163690506026313,0.0146495677739118,-1.527127720779828e-05,critical
1200,0.5050505050505051,7.493670886075949,cathode,0.0155825675306555,0.0164191237360675,0.0145818779197994,8.01681329606745e-05,critical
1200,0.6060606060606061,7.493670886075949,cathode,0.0154165100429242,0.0162474237968253,0.0144232896264196,2.403271866579553e-06,critical
1200,0.7070707070707071,7.493670886075949,cathode,0.0152057794477785,0.0159516800442923,0.0143272398111242,-0.0001054785261678,critical
1200,0.8080808080808081,7.493670886075949,cathode,0.0150918153355672,0.0157260842876117,0.0143653833055344,7.171088971895348e-06,critical
1200,0.9090909090909092,7.493670886075949,cathode,0.0148838647311785,0.0157184130620853,0.0138781545610374,1.0198945900965208e-05,high
1200,1.0101010101010102,7.493670886075949,cathode,0.0148088446273434,0.0154604449267701,0.0140570745813256,3.560652673604677e-05,high
1200,1.1111111111111112,7.493670886075949,cathode,0.0148416837345276,0.0154817087326558,0.0141057728240419,1.7417809842886422e-05,high
1200,1.2121212121212122,7.493670886075949,cathode,0.0146641105157146,0.0153103736262506,0.0139179609791134,5.209456587341263e-05,high
1200,1.3131313131313131,7.493670886075949,cathode,0.0145728172145693,0.0152254888900529,0.0138176769011629,3.73310781546589e-05,high
1200,1.414141414141414,7.493670886075949,cathode,0.0144886430727693,0.0151347883750056,0.0137416862675667,2.904613005473626e-05,high
1200,1.5151515151515151,7.493670886075949,cathode,0.0142860930851905,0.0149304643627407,0.0135394242140401,5.024016878403504e-05,high
1200,1.616161616161616,7.493670886075949,cathode,0.0142784407929031,0.0150224616828667,0.0133937682596143,-6.796749282567311e-05,high
1200,1.7171717171717171,7.493670886075949,cathode,0.0140919809671285,0.0148233875743539,0.0132233503678201,-5.465339863860729e-05,high
1200,1.818181818181818,7.493670886075949,cathode,0.0140732214041587,0.0147525812994163,0.0132772121070994,-4.357138683993206e-05,high
1200,1.9191919191919191,7.493670886075949,cathode,0.0140303096714506,0.0147017905761086,0.0132451792634898,-2.6637008995611534e-06,high
1200,2.0202020202020203,7.493670886075949,cathode,0.014112252154857,0.0148965078537563,0.0131687551357607,2.624959474103969e-05,high
1200,2.121212121212121,7.493670886075949,cathode,0.0138250666003177,0.0144605582298231,0.013085776554785,-7.025666344751973e-05,high
1200,2.2222222222222223,7.493670886075949,cathode,0.0138726566176981,0.0145485480969916,0.0130789059417081,6.234692991073154e-05,high
1200,2.323232323232323,7.493670886075949,cathode,0.0138147652376754,0.0144829079119084,0.0130321042556441,-6.867560750396185e-06,high
1200,2.4242424242424243,7.493670886075949,cathode,0.0137411991498791,0.0144990346750015,0.0128310733497978,-9.689823806062024e-06,high
1200,2.525252525252525,7.493670886075949,cathode,0.0137073486686952,0.0143476374678366,0.0129595687272201,9.215721863055256e-05,high
1200,2.6262626262626263,7.493670886075949,cathode,0.0136873895979909,0.014228640167716,0.0130707888185391,-9.030218380575265e-05,high
1200,2.727272727272727,7.493670886075949,cathode,0.0136011771015039,0.0142136998450514,0.0128917289857602,4.181429705795315e-05,high
1200,2.8282828282828283,7.493670886075949,cathode,0.013494897560113,0.0140053535801976,0.0129175077381281,-6.973362272226353e-05,high
1200,2.929292929292929,7.493670886075949,cathode,0.0135424268480482,0.0140841562145553,0.0129258078973653,-4.639139637451434e-05,high
1200,3.0303030303030303,7.493670886075949,cathode,0.0134602807384748,0.0140667323670532,0.0127581531960447,2.042551617126818e-05,high
1200,3.131313131313131,7.493670886075949,cathode,0.0134862279534956,0.0141848610087022,0.0126563336890855,6.736563762715225e-05,high
1200,3.2323232323232323,7.493670886075949,cathode,0.0133690769703403,0.0140153970597028,0.0126114288923385,4.798960852733883e-05,high
1200,3.333333333333333,7.493670886075949,cathode,0.0133519652291394,0.0140902142397438,0.0124649165765051,3.5563337512851865e-06,high
1200,3.4343434343434343,7.493670886075949,cathode,0.0133217659933622,0.013890745130513,0.0126685234562598,1.1443339495523813e-05,high
1200,3.5353535353535355,7.493670886075949,cathode,0.0133406980490446,0.0140238293993997,0.0125320509246827,-2.2190281759923735e-05,high
1200,3.636363636363636,7.493670886075949,cathode,0.0133206577383653,0.0140253194469709,0.0124808699126829,-4.6226677882530864e-05,high
1200,3.7373737373737375,7.493670886075949,cathode,0.0132699266545227,0.0139231228299434,0.012501820042259,4.646057795397352e-05,high
1200,3.8383838383838382,7.493670886075949,cathode,0.0131831733749932,0.0138526563219941,0.0123918135155947,2.866293975626368e-05,high
1200,3.939393939393939,7.493670886075949,cathode,0.0132847001428202,0.0139155494774419,0.0125480424672479,-9.603188485509748e-06,high
1200,4.040404040404041,7.493670886075949,cathode,0.0131361028622041,0.013704281841924,0.0124802990338452,9.224796407518992e-05,high
1200,4.141414141414141,7.493670886075949,cathode,0.0132586785078694,0.0138877952482544,0.0125219861303751,9.00772787193691e-05,high
1200,4.242424242424242,7.493670886075949,cathode,0.0132828622653271,0.0140146355256974,0.0124042516636197,-3.040929427930781e-06,high
1200,4.343434343434343,7.493670886075949,cathode,0.0132122774675607,0.0138874347205315,0.0124134883686077,-9.104181218887713e-06,high
1200,4.444444444444445,7.493670886075949,cathode,0.0131053106444945,0.0137575357191469,0.0123367787287845,4.810628016505356e-05,high
1200,4.545454545454545,7.493670886075949,cathode,0.0132952697013475,0.0139836473874285,0.012478369183415,4.171062638961019e-05,high
1200,4.646464646464646,7.493670886075949,cathode,0.013168997102859,0.0138012236390929,0.0124291531814445,2.8193691376100463e-05,high
1200,4.747474747474747,7.493670886075949,cathode,0.0132038895327964,0.0138906927576238,0.0123878230817779,-5.3656832228228005e-05,high
1200,4.848484848484849,7.493670886075949,cathode,0.0131257270529859,0.0138248897450323,0.0122919310153635,7.237901999356772e-06,high
1200,4.94949494949495,7.493670886075949,cathode,0.0130977895141582,0.0136560532255158,0.0124569761714204,-1.9788461575884452e-05,high
1200,5.05050505050505,7.493670886075949,cathode,0.0131554614396793,0.0138657985748323,0.0123054993278043,4.4932944655330735e-05,high
1200,5.151515151515151,7.493670886075949,cathode,0.013191880438798,0.0137234727664631,0.0125863457437505,-3.776507253351357e-05,high
1200,5.252525252525253,7.493670886075949,cathode,0.0131284814626725,0.0137742514454741,0.0123689771586006,5.42469307768326e-05,high
1200,5.353535353535354,7.493670886075949,cathode,0.013204475127738,0.0137971217981736,0.012515149988852,-0.0001178458888451,high
1200,5.454545454545454,7.493670886075949,cathode,0.013206177419068,0.0137871975129499,0.0125351527356491,-6.021981442127394e-05,high
1200,5.555555555555555,7.493670886075949,cathode,0.0132653898366028,0.0138901422623118,0.0125368274246396,-1.6227763095783546e-05,high
1200,5.656565656565657,7.493670886075949,cathode,0.0132332064695433,0.0138487885896548,0.0125163430212007,4.529111929347616e-05,high
1200,5.757575757575758,7.493670886075949,cathode,0.0132217762467291,0.0138160891902551,0.0125338380393098,2.9296513750624933e-05,high
1200,5.858585858585858,7.493670886075949,cathode,0.0131782137370892,0.0138386818848528,0.0123994194039506,-2.720369662978861e-05,high
1200,5.959595959595959,7.493670886075949,cathode,0.0132815352168392,0.0140216582119622,0.0123894974211038,-6.814350597715216e-05,high
1200,6.0606060606060606,7.493670886075949,cathode,0.013389364155434,0.0139785977208818,0.0127096470374314,2.4450897331756173e-05,high
1200,6.161616161616162,7.493670886075949,cathode,0.013247052571125,0.0139379166177274,0.012426449038738,1.8770752483592e-05,high
1200,6.262626262626262,7.493670886075949,cathode,0.0131468223496259,0.0138158836082586,0.0123558709746257,-2.9290593724658974e-06,high
1200,6.363636363636363,7.493670886075949,cathode,0.0132619801871181,0.0139418445980964,0.0124569938097083,2.493167553844366e-05,high
1200,6.4646464646464645,7.493670886075949,cathode,0.0133443743790235,0.0139259569566507,0.0126743601849111,3.2856761611308984e-05,high
1200,6.565656565656566,7.493670886075949,cathode,0.01330813805398,0.0139503983058982,0.0125542121238244,8.355250782072924e-05,high
1200,6.666666666666667,7.493670886075949,cathode,0.0135248715253787,0.0140903616004653,0.0128776721435587,1.260931039016602e-05,high
1200,6.767676767676767,7.493670886075949,cathode,0.0134002753214464,0.0140336865475698,0.0126611091215636,2.1394263890882405e-05,high
1200,6.8686868686868685,7.493670886075949,cathode,0.0134293021429018,0.0141340665636897,0.0125911582285865,2.098728206149977e-05,high
1200,6.96969696969697,7.493670886075949,cathode,0.0134831242798076,0.0141881662314496,0.0126452601806609,-1.8509277214864608e-05,high
1200,7.070707070707071,7.493670886075949,cathode,0.0135536456700548,0.0142606107066407,0.0127114473414949,-9.72998158002097e-05,high
1200,7.171717171717171,7.493670886075949,cathode,0.0136144337384488,0.0142596075026681,0.0128613178082131,9.092795686576537e-06,high
1200,7.272727272727272,7.493670886075949,cathode,0.0135279113280567,0.0141675498499303,0.0127815625076023,-8.521125223293412e-09,high
1200,7.373737373737374,7.493670886075949,cathode,0.0136078519924062,0.0141715488918705,0.0129633969265176,2.9390060559733225e-05,high
1200,7.474747474747475,7.493670886075949,cathode,0.0137487245541297,0.014551687368308,0.0127725134590442,-1.0712957970533502e-05,high
1200,7.575757575757575,7.493670886075949,cathode,0.0138059157432428,0.0144617315982637,0.0130393901021047,5.1943289998890143e-05,high
1200,7.6767676767676765,7.493670886075949,cathode,0.013739544953562,0.0144098192937034,0.0129526231893327,-4.7312812366530304e-05,high
1200,7.777777777777778,7.493670886075949,cathode,0.01381020093225,0.0146398382951637,0.0127949159273977,2.8349419277616047e-05,high
1200,7.878787878787879,7.493670886075949,cathode,0.0138423506926995,0.0145045997212152,0.0130680605276918,3.685935735764541e-06,high
1200,7.979797979797979,7.493670886075949,cathode,0.0138979740601679,0.0144403706741529,0.0132826651679082,-4.758281432487432e-05,high
1200,8.080808080808081,7.493670886075949,cathode,0.0140968980405296,0.014853471157223,0.0131931698788045,2.284558894640572e-05,high
1200,8.181818181818182,7.493670886075949,cathode,0.014081267401697,0.014689019336173,0.013382440632748,2.199259666263633e-06,high
1200,8.282828282828282,7.493670886075949,cathode,0.0142082565928817,0.0149089389169279,0.0133843994675725,3.235621901148333e-05,high
1200,8.383838383838384,7.493670886075949,cathode,0.0140884779869439,0.0147853807925426,0.0132688182618682,1.5485588914004227e-05,high
1200,8.484848484848484,7.493670886075949,cathode,0.0143537560777618,0.0150729316540261,0.0135059556745295,-1.357712630564355e-05,high
1200,8.585858585858587,7.493670886075949,cathode,0.0145085396055459,0.0151308442757201,0.0137905069395788,0.0001143158271847,high
1200,8.686868686868687,7.493670886075949,cathode,0.01447839700158,0.0151222223033068,0.0137343757386221,-3.4537572136246e-05,high
1200,8.787878787878787,7.493670886075949,cathode,0.0146343785510422,0.0153190974440356,0.0138368255984203,-8.681255173734795e-06,high
1200,8.88888888888889,7.493670886075949,cathode,0.0146784665394534,0.0153112572651199,0.0139506945106195,3.4526616435288225e-05,high
1200,8.98989898989899,7.493670886075949,cathode,0.014931683175134,0.0157920673611331,0.0138884406638336,-3.73154818059912e-05,high
1200,9.09090909090909,7.493670886075949,cathode,0.0149534239705351,0.0156357309903874,0.0141619764899506,5.209797090207515e-06,high
1200,9.191919191919192,7.493670886075949,cathode,0.0149827394797444,0.0156432644485192,0.0142199794927442,-5.727883564341837e-05,high
1200,9.292929292929292,7.493670886075949,cathode,0.0153100264544621,0.0161235783849984,0.0143396165712523,-5.30989203224584e-05,critical
1200,9.393939393939394,7.493670886075949,cathode,0.0153231174495589,0.0160433254179694,0.0144832838997695,3.724741435603389e-05,critical
1200,9.494949494949497,7.493670886075949,cathode,0.0155176343725079,0.016171450461356,0.0147674152830956,-7.103295993948227e-05,critical
1200,9.595959595959595,7.493670886075949,cathode,0.0154598542012367,0.0162372655799275,0.0145428136915994,-1.1496836285149784e-05,critical
1200,9.696969696969695,7.493670886075949,cathode,0.0157434183982314,0.0164259001886088,0.014957090309617,-6.867280726072233e-05,critical
1200,9.797979797979798,7.493670886075949,cathode,0.0159740411759585,0.0168207155926694,0.0149653051397506,1.0033762322073927e-05,critical
1200,9.8989898989899,7.493670886075949,cathode,0.0161229315134348,0.0169117229147967,0.0151966915021303,-4.223716690897559e-05,critical
1200,10.0,7.493670886075949,cathode,0.0162755757158182,0.0170561726425232,0.0153622847903098,3.330294442642894e-05,critical
1200,0.0,7.594936708860759,cathode,0.0164552815762015,0.0172511408731094,0.015522208129818,6.133028626131032e-05,critical
1200,0.101010101010101,7.594936708860759,cathode,0.0161233439173261,0.016903055707861,0.0152098614334693,2.6938861430816936e-05,critical
1200,0.202020202020202,7.594936708860759,cathode,0.0160157829151069,0.0168228187059405,0.0150620666546137,7.88203235657503e-05,critical
1200,0.303030303030303,7.594936708860759,cathode,0.0158920118334758,0.0166877907064958,0.014954056489899,3.6907536208186232e-06,critical
1200,0.404040404040404,7.594936708860759,cathode,0.0156586263481436,0.0163146405309066,0.0149076297687581,-9.643319730810711e-06,critical
1200,0.5050505050505051,7.594936708860759,cathode,0.0156729449901261,0.0164406798620191,0.0147708274124323,-5.874429105023678e-05,critical
1200,0.6060606060606061,7.594936708860759,cathode,0.0153676247507808,0.0160226490287015,0.0146123915723305,-0.0001236160104943,critical
1200,0.7070707070707071,7.594936708860759,cathode,0.0152471334787932,0.0160660037299475,0.014268823941337,2.7358509113568243e-05,critical
1200,0.8080808080808081,7.594936708860759,cathode,0.0150807592998687,0.0157277478790443,0.0143370984880913,-4.1331966204625125e-05,critical
1200,0.9090909090909092,7.594936708860759,cathode,0.0148642906156016,0.0154877538346989,0.0141504524734102,-3.464889312939737e-06,high
1200,1.0101010101010102,7.594936708860759,cathode,0.0149144762899677,0.0156135482357259,0.0140998103487365,-2.6655949423506144e-05,high
1200,1.1111111111111112,7.594936708860759,cathode,0.0146652633708645,0.0154376395801231,0.0137454971776748,5.345573905071631e-05,high
1200,1.2121212121212122,7.594936708860759,cathode,0.0146279165001879,0.0152504049225012,0.0139136639163852,4.318123427115081e-06,high
1200,1.3131313131313131,7.594936708860759,cathode,0.0144908197032522,0.0151703396512078,0.0136986786227415,-3.856600284565367e-05,high
1200,1.414141414141414,7.594936708860759,cathode,0.0145198612083867,0.0151760701517613,0.013759652990928,2.984897035877437e-05,high
1200,1.5151515151515151,7.594936708860759,cathode,0.0143124128469852,0.015040652845753,0.0134508125609731,-5.343890139779677e-05,high
1200,1.616161616161616,7.594936708860759,cathode,0.0142764358028313,0.0151026002925969,0.0132739636199218,-2.11368679538856e-05,high
1200,1.7171717171717171,7.594936708860759,cathode,0.0141923107546901,0.0149539341831853,0.013281685057589,-6.277798620246804e-05,high
1200,1.818181818181818,7.594936708860759,cathode,0.0140936226588359,0.0147408574452316,0.0133414881159535,-4.827250910701429e-05,high
1200,1.9191919191919191,7.594936708860759,cathode,0.0141297897642903,0.0148749833933475,0.0132427156635875,-2.2250563585446505e-05,high
1200,2.0202020202020203,7.594936708860759,cathode,0.0139357877064371,0.0146312880107004,0.0131161992366472,-3.5573250753112643e-05,high
1200,2.121212121212121,7.594936708860759,cathode,0.0138829995880566,0.014635135326867,0.0129829581814163,1.4586682832485191e-05,high
1200,2.2222222222222223,7.594936708860759,cathode,0.0139265967350394,0.0145462114120058,0.0132107136364822,-1.537153478883303e-05,high
1200,2.323232323232323,7.594936708860759,cathode,0.0137456784758337,0.0142921996328799,0.01312253207488,9.25679240835895e-05,high
1200,2.4242424242424243,7.594936708860759,cathode,0.0138432667767116,0.0145789658640008,0.0129659282336762,-3.7945313780393456e-05,high
1200,2.525252525252525,7.594936708860759,cathode,0.013624014388139,0.0141478495677466,0.0130314857057844,-3.4940260978929657e-07,high
1200,2.6262626262626263,7.594936708860759,cathode,0.0136358570315101,0.0144026955288416,0.0127107341156374,-4.0947708222042406e-05,high
1200,2.727272727272727,7.594936708860759,cathode,0.0136080324510758,0.0143011024401112,0.0127882809267493,3.367834060923347e-05,high
1200,2.8282828282828283,7.594936708860759,cathode,0.0134358695760157,0.0141459089387823,0.0125903991272869,-1.0660402138699444e-05,high
1200,2.929292929292929,7.594936708860759,cathode,0.0135884298807463,0.014266323248321,0.0127899275391759,-1.2134489298666825e-05,high
1200,3.0303030303030303,7.594936708860759,cathode,0.0134318490908028,0.0141071914546562,0.0126332776689877,-8.579311214612493e-05,high
1200,3.131313131313131,7.594936708860759,cathode,0.0134674187540028,0.0140311229293701,0.0128199683321853,9.29530667588809e-05,high
1200,3.2323232323232323,7.594936708860759,cathode,0.0135745119603696,0.0141542518825018,0.0129089002806809,-1.4699786899291388e-05,high
1200,3.333333333333333,7.594936708860759,cathode,0.0133827081876642,0.0141272192722394,0.0124867210180035,-3.161276855426426e-05,high
1200,3.4343434343434343,7.594936708860759,cathode,0.0132648331025871,0.0139260708917096,0.0124859170550154,2.574302491219357e-05,high
1200,3.5353535353535355,7.594936708860759,cathode,0.0133823855965571,0.0140915769098179,0.0125372769472086,-2.824617905441198e-05,high
1200,3.636363636363636,7.594936708860759,cathode,0.0133297225734488,0.0139964415863158,0.012540207098081,0.0001191761606376,high
1200,3.7373737373737375,7.594936708860759,cathode,0.0132463847745437,0.0138423985734228,0.0125563869593441,-2.8111624813582345e-05,high
1200,3.8383838383838382,7.594936708860759,cathode,0.0132074619153295,0.0138067560163132,0.0125122092505422,5.221292565486945e-05,high
1200,3.939393939393939,7.594936708860759,cathode,0.0132281189925344,0.0138494378672019,0.0125031682226899,-5.427915989742004e-05,high
1200,4.040404040404041,7.594936708860759,cathode,0.0133242818813899,0.0140107205855357,0.0125097674171691,6.524663238250065e-05,high
1200,4.141414141414141,7.594936708860759,cathode,0.0132816410918803,0.0139233558140642,0.0125291175221379,5.980072992410277e-05,high
1200,4.242424242424242,7.594936708860759,cathode,0.0130563507088201,0.0137475119678628,0.012232446700841,-4.88659810662489e-05,high
1200,4.343434343434343,7.594936708860759,cathode,0.0132305543541218,0.0138964905368351,0.0124439180085714,-6.003532360166083e-05,high
1200,4.444444444444445,7.594936708860759,cathode,0.0131581346907153,0.0138855836411149,0.0122840806998428,4.72074250857011e-06,high
1200,4.545454545454545,7.594936708860759,cathode,0.0131598458320893,0.0137740182205223,0.0124447618698449,9.002467002103368e-06,high
1200,4.646464646464646,7.594936708860759,cathode,0.01331652759889,0.0139947244119015,0.0125143067098861,-3.650163783350439e-05,high
1200,4.747474747474747,7.594936708860759,cathode,0.0130381790171197,0.013729480424396,0.0122143933686635,2.120255547151247e-05,high
1200,4.848484848484849,7.594936708860759,cathode,0.0130581488236922,0.0135892819435819,0.0124517839627566,5.9290456911451006e-05,high
1200,4.94949494949495,7.594936708860759,cathode,0.0131592167221169,0.013777719556168,0.0124374862276266,5.342326823607367e-05,high
1200,5.05050505050505,7.594936708860759,cathode,0.0132123721832225,0.0139212178524851,0.0123655840427296,-3.051134152741585e-05,high
1200,5.151515151515151,7.594936708860759,cathode,0.0131201320505573,0.0136479770208189,0.0125186795770225,-5.131961709853318e-05,high
1200,5.252525252525253,7.594936708860759,cathode,0.0130894961824175,0.0137029976053517,0.0123712890202409,0.000112128994747,high
1200,5.353535353535354,7.594936708860759,cathode,0.0130978175550168,0.0136376240991445,0.012480654865637,-5.088329295929795e-05,high
1200,5.454545454545454,7.594936708860759,cathode,0.0130858237057016,0.0136829340660438,0.0123920688503311,6.477661772050832e-05,high
1200,5.555555555555555,7.594936708860759,cathode,0.0133169851393654,0.0139330728942277,0.0126005905120625,2.3365133698823054e-05,high
1200,5.656565656565657,7.594936708860759,cathode,0.0131555508200872,0.0138064925301131,0.0123899101822797,-1.4253084896764315e-05,high
1200,5.757575757575758,7.594936708860759,cathode,0.0132990901666757,0.0139321963751613,0.0125591943140768,-3.417164565910977e-05,high
1200,5.858585858585858,7.594936708860759,cathode,0.0132538877735162,0.0139595577436856,0.0124124183623616,3.161199629265673e-06,high
1200,5.959595959595959,7.594936708860759,cathode,0.0132696978734445,0.0139986947106118,0.0123916332778569,0.0001088484899173,high
1200,6.0606060606060606,7.594936708860759,cathode,0.0132247487208495,0.0137731688315466,0.0125977656879142,2.0432487546647016e-05,high
1200,6.161616161616162,7.594936708860759,cathode,0.01333395134094,0.0138975047947231,0.0126879537243647,-1.075253717248813e-05,high
1200,6.262626262626262,7.594936708860759,cathode,0.0132106931738255,0.0138282169774672,0.0124915382615119,-9.452954326505946e-07,high
1200,6.363636363636363,7.594936708860759,cathode,0.0133921084466169,0.0140977069515153,0.0125516677706448,5.35335216844965e-05,high
1200,6.4646464646464645,7.594936708860759,cathode,0.0134270854014613,0.0141068920942131,0.0126240590514735,-2.301966827625944e-05,high
1200,6.565656565656566,7.594936708860759,cathode,0.013361984113918,0.0139207043708019,0.0127216706260376,-5.865620662891197e-05,high
1200,6.666666666666667,7.594936708860759,cathode,0.0135073312618657,0.0141037877466852,0.012818680935729,3.8915259245993605e-05,high
1200,6.767676767676767,7.594936708860759,cathode,0.0134889736090822,0.0140876953470548,0.0127974169048081,-2.22109867969052e-05,high
1200,6.8686868686868685,7.594936708860759,cathode,0.0133940513810554,0.0140471612674358,0.0126277319540007,-2.611272175512155e-05,high
1200,6.96969696969697,7.594936708860759,cathode,0.0133491457111358,0.0139888949802443,0.0126001946234002,5.292516305253688e-05,high
1200,7.070707070707071,7.594936708860759,cathode,0.0135375755160552,0.0142472094455841,0.012692985175402,-5.977593503575408e-05,high
1200,7.171717171717171,7.594936708860759,cathode,0.0135243363668353,0.0142179995736711,0.0127030354335622,1.6385346813090087e-05,high
1200,7.272727272727272,7.594936708860759,cathode,0.0137487471073447,0.0144906471127669,0.0128616977631361,9.082609566279868e-06,high
1200,7.373737373737374,7.594936708860759,cathode,0.0136361775179363,0.0142608213616538,0.0129108545200475,3.433603810035477e-05,high
1200,7.474747474747475,7.594936708860759,cathode,0.0137838717618929,0.014452764092452,0.0129997480674923,2.2899044708698724e-05,high
1200,7.575757575757575,7.594936708860759,cathode,0.0138521346779289,0.0146690987006055,0.0128545477351097,9.020430723069174e-05,high
1200,7.6767676767676765,7.594936708860759,cathode,0.0138630867080106,0.0145017995654425,0.0131209061544587,2.2769075371564182e-05,high
1200,7.777777777777778,7.594936708860759,cathode,0.0138729141072789,0.0144994605058491,0.0131473081647015,-1.359389507206832e-05,high
1200,7.878787878787879,7.594936708860759,cathode,0.0140055544193543,0.014653422903079,0.0132509103221182,7.598300899696173e-05,high
1200,7.979797979797979,7.594936708860759,cathode,0.0139897459933626,0.0145553738185163,0.0133455105414847,1.047344952309092e-05,high
1200,8.080808080808081,7.594936708860759,cathode,0.0139899344142539,0.0146869600467942,0.0131690486213111,1.7501085915158e-05,high
1200,8.181818181818182,7.594936708860759,cathode,0.0142169441670172,0.0149098921159228,0.0134024373129605,8.203056026287864e-05,high
1200,8.282828282828282,7.594936708860759,cathode,0.0141594657512942,0.014834738263576,0.013370314281158,-1.6531778101829962e-05,high
1200,8.383838383838384,7.594936708860759,cathode,0.0143128239544796,0.0150079573332486,0.0134979146205461,-1.3830458533236196e-05,high
1200,8.484848484848484,7.594936708860759,cathode,0.0143984373140959,0.0150153531144991,0.0136898447306132,7.569662598324442e-06,high
1200,8.585858585858587,7.594936708860759,cathode,0.0144119330012161,0.0151351584909942,0.0135588785180243,-3.3560631299067564e-05,high
1200,8.686868686868687,7.594936708860759,cathode,0.0147177329823306,0.0154931896149749,0.0137930629715944,8.697422117916625e-05,high
1200,8.787878787878787,7.594936708860759,cathode,0.0146484652067677,0.0153664949836588,0.0138052415912629,-2.4799854005400384e-05,high
1200,8.88888888888889,7.594936708860759,cathode,0.0149075933993458,0.0157081841990897,0.0139506403110485,-5.213041541032537e-05,high
1200,8.98989898989899,7.594936708860759,cathode,0.0148160281972877,0.0155081041049566,0.0140099475025127,2.8832640268855344e-05,high
1200,9.09090909090909,7.594936708860759,cathode,0.0150047378244546,0.015714422013164,0.0141766094180505,-4.707861749661435e-06,critical
1200,9.191919191919192,7.594936708860759,cathode,0.0151417924848334,0.0158725388606622,0.0142859651142897,2.662681888567383e-05,critical
1200,9.292929292929292,7.594936708860759,cathode,0.0152404568826818,0.0160014995151447,0.0143432839966131,5.097505794074975e-05,critical
1200,9.393939393939394,7.594936708860759,cathode,0.0153589378128106,0.0162361580201838,0.0142975261747516,-2.437918974323745e-05,critical
1200,9.494949494949497,7.594936708860759,cathode,0.0153482798274757,0.0160249696173872,0.0145676256124619,5.3002085623915325e-06,critical
1200,9.595959595959595,7.594936708860759,cathode,0.0156468988030065,0.0163991939097212,0.0147639252965468,0.0001078036913162,critical
1200,9.696969696969695,7.594936708860759,cathode,0.0156420392671018,0.0162553784769696,0.0149457411932448,-5.645914039250187e-05,critical
1200,9.797979797979798,7.594936708860759,cathode,0.0160646055248149,0.016852997901757,0.0151387026384131,-8.53653893737507e-06,critical
1200,9.8989898989899,7.594936708860759,cathode,0.0161952380867754,0.0169903490343687,0.0152610243192161,4.099963995994997e-05,critical
1200,10.0,7.594936708860759,cathode,0.0164045172423474,0.0171210023625923,0.0155791650484179,-8.266221003716988e-07,critical
1200,0.0,7.69620253164557,cathode,0.0163308122723436,0.0171621477243701,0.0153479200183609,-1.5670442990854998e-05,critical
1200,0.101010101010101,7.69620253164557,cathode,0.0161024253072871,0.0168624140773775,0.015215622125896,-3.677097374502391e-05,critical
1200,0.202020202020202,7.69620253164557,cathode,0.0159241492810868,0.0167116932139025,0.0149978332792478,-2.5985987730671795e-05,critical
1200,0.303030303030303,7.69620253164557,cathode,0.0158458543591277,0.0166467443541376,0.0148990133852451,-7.409425980909444e-05,critical
1200,0.404040404040404,7.69620253164557,cathode,0.0156748638795717,0.0164071615156742,0.0148220567139121,-1.7530077886536135e-05,critical
1200,0.5050505050505051,7.69620253164557,cathode,0.015586175531082,0.0162450747940292,0.0148305177292118,4.093185741704365e-05,critical
1200,0.6060606060606061,7.69620253164557,cathode,0.0154584148671458,0.0162498687987219,0.0145216805906352,-1.3557131661338474e-05,critical
1200,0.7070707070707071,7.69620253164557,cathode,0.0151794540945631,0.0159232861970979,0.0143061323507143,2.898793133388989e-07,critical
1200,0.8080808080808081,7.69620253164557,cathode,0.0150676624890357,0.0158328276465897,0.0141634445961581,-8.868322513228797e-06,critical
1200,0.9090909090909092,7.69620253164557,cathode,0.0150916015833616,0.0158509116409867,0.0141953825802139,4.437300562846984e-05,critical
1200,1.0101010101010102,7.69620253164557,cathode,0.0148543352583137,0.0155940821815317,0.0139799497008585,-0.0001174276690144,high
1200,1.1111111111111112,7.69620253164557,cathode,0.0147099191625008,0.0154120481336307,0.0138880070345164,7.39089515324091e-05,high
1200,1.2121212121212122,7.69620253164557,cathode,0.0146034680313066,0.0152462093863634,0.0138620133979922,-2.6590880695361776e-05,high
1200,1.3131313131313131,7.69620253164557,cathode,0.0144719782432897,0.0151616125186864,0.0136661801436631,1.3017132273806026e-05,high
1200,1.414141414141414,7.69620253164557,cathode,0.0145617306420865,0.0153264409760523,0.0136516211120817,-5.232116901696336e-05,high
1200,1.5151515151515151,7.69620253164557,cathode,0.0143328078916592,0.0149838880531678,0.0135769268189679,6.997757545628937e-05,high
1200,1.616161616161616,7.69620253164557,cathode,0.0142782237398198,0.0149338628605856,0.0135140299701446,-0.0001081318016637,high
1200,1.7171717171717171,7.69620253164557,cathode,0.0142413579980023,0.015051103644083,0.0132626360918078,1.081711866812386e-05,high
1200,1.818181818181818,7.69620253164557,cathode,0.0142019621160607,0.0148687086927291,0.0134241818835082,5.422293293607683e-05,high
1200,1.9191919191919191,7.69620253164557,cathode,0.0140294296519243,0.014694522395188,0.0132530105942919,9.64545976971343e-06,high
1200,2.0202020202020203,7.69620253164557,cathode,0.0140682173876399,0.0147400077435443,0.0132830160381301,7.219801219080118e-06,high
1200,2.121212121212121,7.69620253164557,cathode,0.0138795571755941,0.0144058993249291,0.0132850747723763,-2.8343241234552156e-05,high
1200,2.2222222222222223,7.69620253164557,cathode,0.0138919393148618,0.0146559696145517,0.0129748189600797,-1.9646641234334817e-05,high
1200,2.323232323232323,7.69620253164557,cathode,0.0139077472423399,0.0145987639183612,0.0130922995964539,9.056792395318613e-05,high
1200,2.4242424242424243,7.69620253164557,cathode,0.0138171930450531,0.0144075722609056,0.0131393093467829,-1.6165320475125385e-05,high
1200,2.525252525252525,7.69620253164557,cathode,0.0136372885046371,0.0142762264634854,0.0128929061658227,2.199774951710525e-06,high
1200,2.6262626262626263,7.69620253164557,cathode,0.0135310820756752,0.0141054113498684,0.0128722045779641,2.3399747471752826e-05,high
1200,2.727272727272727,7.69620253164557,cathode,0.0135978186252775,0.0141770484655189,0.0129327861429356,-3.5339760205039e-05,high
1200,2.8282828282828283,7.69620253164557,cathode,0.0135986185942231,0.0142705523571777,0.012808511338521,-1.052072634497918e-05,high
1200,2.929292929292929,7.69620253164557,cathode,0.0133805767520033,0.0141000160666573,0.0125210163035021,-4.5794449975361424e-06,high
1200,3.0303030303030303,7.69620253164557,cathode,0.0133869385489753,0.0140181474024137,0.0126506293291438,-2.331926302617445e-05,high
1200,3.131313131313131,7.69620253164557,cathode,0.0132445545536683,0.0138175241685326,0.0125852038273243,3.293352789054166e-05,high
1200,3.2323232323232323,7.69620253164557,cathode,0.0133448434147388,0.0140243757554969,0.0125412633641313,-2.4721995952791907e-05,high
1200,3.333333333333333,7.69620253164557,cathode,0.0133361633803766,0.0139282274255074,0.012652350418595,1.3874123700619351e-05,high
1200,3.4343434343434343,7.69620253164557,cathode,0.0133685568139471,0.0140088147011003,0.0126165821702271,0.0001105110609721,high
1200,3.5353535353535355,7.69620253164557,cathode,0.0132942245578299,0.0139117888483964,0.0125757465197564,-9.439214010090418e-06,high
1200,3.636363636363636,7.69620253164557,cathode,0.0133725823576538,0.0140149525565478,0.0126210111278294,2.1628180833889346e-06,high
1200,3.7373737373737375,7.69620253164557,cathode,0.0131992818222053,0.0137664191841549,0.0125475998696881,4.24071357239659e-07,high
1200,3.8383838383838382,7.69620253164557,cathode,0.0133121525051301,0.0139656200464717,0.0125438853324076,-5.458407507003534e-05,high
1200,3.939393939393939,7.69620253164557,cathode,0.0132949645990348,0.0138961963133385,0.0125985449646391,-1.0497233914020694e-05,high
1200,4.040404040404041,7.69620253164557,cathode,0.0131311262600859,0.013719813454699,0.012450120766873,-1.846552488912725e-05,high
1200,4.141414141414141,7.69620253164557,cathode,0.0133148762429638,0.0140001691412298,0.0125029797659543,1.3188976082278954e-05,high
1200,4.242424242424242,7.69620253164557,cathode,0.01326981198449,0.0139445551916722,0.0124721157580387,2.398383552300088e-05,high
1200,4.343434343434343,7.69620253164557,cathode,0.013118181001158,0.0136312969863419,0.0125338926037983,-9.859669201235604e-05,high
1200,4.444444444444445,7.69620253164557,cathode,0.0131382912516436,0.0138192708823269,0.0123301015297991,-3.678136131567335e-05,high
1200,4.545454545454545,7.69620253164557,cathode,0.0131550594512572,0.0138520074759188,0.0123223583890829,-9.374132978017606e-05,high
1200,4.646464646464646,7.69620253164557,cathode,0.0131329951818892,0.0138681817513439,0.012247347907498,-2.109110727259247e-06,high
1200,4.747474747474747,7.69620253164557,cathode,0.0132059483762426,0.0137689519965565,0.0125597271598,-1.3753266560012338e-05,high
1200,4.848484848484849,7.69620253164557,cathode,0.0131270815772275,0.0138425438928845,0.0122696970381744,-2.946016230838608e-05,high
1200,4.94949494949495,7.69620253164557,cathode,0.013132162746176,0.0138256353751175,0.0123059655375933,4.658152511300375e-05,high
1200,5.05050505050505,7.69620253164557,cathode,0.0131401808077547,0.0137983205609512,0.0123635136607437,-5.76080693437111e-05,high
1200,5.151515151515151,7.69620253164557,cathode,0.0132266274982745,0.0138780868511371,0.012461014772183,-1.3372104080149149e-05,high
1200,5.252525252525253,7.69620253164557,cathode,0.0131415405374827,0.0138055033025124,0.0123571313179005,4.430603284572556e-05,high
1200,5.353535353535354,7.69620253164557,cathode,0.0130720269028022,0.0137490129284969,0.0122680187331555,-6.163162541314485e-05,high
1200,5.454545454545454,7.69620253164557,cathode,0.0131606632756892,0.0137557972993394,0.0124694245331144,-8.451162732298031e-05,high
1200,5.555555555555555,7.69620253164557,cathode,0.0132939601787052,0.0140782604345237,0.0123355570163685,9.862005880712052e-05,high
1200,5.656565656565657,7.69620253164557,cathode,0.0131657790157029,0.0137770245346527,0.0124543163782973,3.9824269417591525e-05,high
1200,5.757575757575758,7.69620253164557,cathode,0.0131977902448476,0.013869753686153,0.0124033385530085,-3.802985052964602e-06,high
1200,5.858585858585858,7.69620253164557,cathode,0.0132809277928008,0.0139567632173215,0.0124819792359243,2.975818302855066e-06,high
1200,5.959595959595959,7.69620253164557,cathode,0.0133069790693806,0.0139942412343622,0.0124902781664944,-8.528637486425045e-05,high
1200,6.0606060606060606,7.69620253164557,cathode,0.0133243202272794,0.0139424637866366,0.012604900884905,4.107262294523005e-05,high
1200,6.161616161616162,7.69620253164557,cathode,0.0132897767644493,0.0138394190573864,0.0126606928183476,-6.360668817857896e-05,high
1200,6.262626262626262,7.69620253164557,cathode,0.0134204893275977,0.0140082008022622,0.012743125728088,1.6879981590306608e-05,high
1200,6.363636363636363,7.69620253164557,cathode,0.0132674741633771,0.0138408214961764,0.0126080047482062,-1.7227874087700484e-05,high
1200,6.4646464646464645,7.69620253164557,cathode,0.0133143324398025,0.013930180530041,0.0125974007666937,-6.077151380463656e-05,high
1200,6.565656565656566,7.69620253164557,cathode,0.0132813002447637,0.0138923446824313,0.012571086687687,-4.220665355612215e-05,high
1200,6.666666666666667,7.69620253164557,cathode,0.0134972235250749,0.0141706678464223,0.012703959296589,-8.590484090977095e-06,high
1200,6.767676767676767,7.69620253164557,cathode,0.0134499676565088,0.0140831204152979,0.0127116796948701,1.4882740916114417e-05,high
1200,6.8686868686868685,7.69620253164557,cathode,0.0134146490864211,0.0141379695274357,0.0125498422268517,-2.140725423864712e-05,high
1200,6.96969696969697,7.69620253164557,cathode,0.0135915564823123,0.0143201710998767,0.0127212509962395,-3.352234798662102e-05,high
1200,7.070707070707071,7.69620253164557,cathode,0.0135934613811931,0.0143010933688821,0.0127533039768664,-1.0791741459555082e-05,high
1200,7.171717171717171,7.69620253164557,cathode,0.0134798072952317,0.0141447741664219,0.0126974233074699,5.226543806806326e-05,high
1200,7.272727272727272,7.69620253164557,cathode,0.0136479132162919,0.014368583716854,0.0127897140433125,-2.960161847500488e-05,high
1200,7.373737373737374,7.69620253164557,cathode,0.013691889962725,0.0144735905611405,0.0127450629411736,6.638356189716524e-05,high
1200,7.474747474747475,7.69620253164557,cathode,0.0136782005956038,0.0143594842195513,0.012875969589015,4.958147458834269e-06,high
1200,7.575757575757575,7.69620253164557,cathode,0.0137413780398071,0.0144717755359089,0.0128706306531294,1.758483782766523e-05,high
1200,7.6767676767676765,7.69620253164557,cathode,0.0137500232806303,0.0143830705416102,0.0130146445343159,-1.5208505390237637e-07,high
1200,7.777777777777778,7.69620253164557,cathode,0.0138862388377919,0.0145954631096084,0.0130472063776835,-1.30484139779518e-05,high
1200,7.878787878787879,7.69620253164557,cathode,0.0138597833599479,0.0144946234872446,0.0131229234647061,8.147801630785488e-06,high
1200,7.979797979797979,7.69620253164557,cathode,0.0139834950398883,0.0145822371672368,0.0132953218624742,-4.635340908546208e-05,high
1200,8.080808080808081,7.69620253164557,cathode,0.0140742980877351,0.0146166493028244,0.0134605138718378,-2.3143229288374063e-05,high
1200,8.181818181818182,7.69620253164557,cathode,0.0141148265512549,0.0148335479972421,0.0132647097351259,-3.815125098323996e-05,high
1200,8.282828282828282,7.69620253164557,cathode,0.014276771948312,0.0149921884939274,0.0134333248650013,2.0190544484056344e-05,high
1200,8.383838383838384,7.69620253164557,cathode,0.0142281627190253,0.0149115214939157,0.0134286211318166,1.22233985311411e-05,high
1200,8.484848484848484,7.69620253164557,cathode,0.0143577105997691,0.0150528748514461,0.0135412799385207,8.89611207042187e-05,high
1200,8.585858585858587,7.69620253164557,cathode,0.0144896866852012,0.0152292282700946,0.0136144264484135,-4.5560080075238735e-05,high
1200,8.686868686868687,7.69620253164557,cathode,0.014480545182185,0.0151691311487416,0.0136762964081455,5.755181673546689e-06,high
1200,8.787878787878787,7.69620253164557,cathode,0.0146532943928917,0.0153426965288927,0.0138479311694042,8.186900036605945e-05,high
1200,8.88888888888889,7.69620253164557,cathode,0.0145957429040368,0.0153134714310242,0.0137513985665856,-6.82890935413105e-05,high
1200,8.98989898989899,7.69620253164557,cathode,0.014809963346328,0.0154985030780689,0.0140084239635183,4.113649829511853e-05,high
1200,9.09090909090909,7.69620253164557,cathode,0.0149588188956823,0.0156937345883563,0.014095283218726,-3.4555223198747133e-05,high
1200,9.191919191919192,7.69620253164557,cathode,0.0152429318626981,0.0160713084772764,0.0142505917846733,-4.5847358739981375e-05,critical
1200,9.292929292929292,7.69620253164557,cathode,0.0152559405057289,0.0159797357107712,0.0144085549083145,0.0001003530290718,critical
1200,9.393939393939394,7.69620253164557,cathode,0.0152738582008877,0.0159980635427425,0.0144283615921819,-1.7649908777562917e-05,critical
1200,9.494949494949497,7.69620253164557,cathode,0.0155087090251176,0.0163784982465366,0.0144602301381912,-3.39073609918142e-05,critical
1200,9.595959595959595,7.69620253164557,cathode,0.0156889474160028,0.016348854078506,0.0149330245982985,-1.4807619116743243e-05,critical
1200,9.696969696969695,7.69620253164557,cathode,0.0157405064771113,0.0164959265629173,0.0148567460382955,1.673073070858149e-05,critical
1200,9.797979797979798,7.69620253164557,cathode,0.0159689210543388,0.0166984004624118,0.0151226043333221,-1.0011382436200802e-06,critical
1200,9.8989898989899,7.69620253164557,cathode,0.0161203048798389,0.0169013227535624,0.0152036436838929,-8.251517785172592e-05,critical
1200,10.0,7.69620253164557,cathode,0.0163878927630652,0.0171903814667633,0.0154450714274402,-5.845927716541007e-05,critical
1200,0.0,7.7974683544303796,cathode,0.016273105159004,0.0170505770252731,0.015362142149294,9.958446306093367e-05,critical
1200,0.101010101010101,7.7974683544303796,cathode,0.0161298795659952,0.0168598298997855,0.0152834429417364,-6.263835685430898e-05,critical
1200,0.202020202020202,7.7974683544303796,cathode,0.0160294607333984,0.0168272500079237,0.0150900551580945,-2.3342940929715773e-05,critical
1200,0.303030303030303,7.7974683544303796,cathode,0.0157852582649601,0.0165652573821643,0.0148679980085845,2.217611761494364e-05,critical
1200,0.404040404040404,7.7974683544303796,cathode,0.0157112477008301,0.0165379593657251,0.0147276024260414,2.1768412543930287e-05,critical
1200,0.5050505050505051,7.7974683544303796,cathode,0.0154401424972203,0.016216950276153,0.0145237409279777,9.2733484840829e-06,critical
1200,0.6060606060606061,7.7974683544303796,cathode,0.0154108487296434,0.0162044513722249,0.0144705644092022,1.060298456324464e-05,critical
1200,0.7070707070707071,7.7974683544303796,cathode,0.0152512921595643,0.0159328477106505,0.0144621298993786,7.30031906809587e-05,critical
1200,0.8080808080808081,7.7974683544303796,cathode,0.0150444945071145,0.0158511259081983,0.01408057207655,-5.487336627266276e-05,critical
1200,0.9090909090909092,7.7974683544303796,cathode,0.0148877102502989,0.0156606432768594,0.0139704707879691,-1.49892682145748e-05,high
1200,1.0101010101010102,7.7974683544303796,cathode,0.0148552051067916,0.0155953021167083,0.0139830952312547,-4.9372952191927344e-05,high
1200,1.1111111111111112,7.7974683544303796,cathode,0.0147920198878858,0.0155387744151896,0.013910354516811,2.7325971371616996e-05,high
1200,1.2121212121212122,7.7974683544303796,cathode,0.0146722100399157,0.0153726348119189,0.0138516500464827,-8.943357243691317e-05,high
1200,1.3131313131313131,7.7974683544303796,cathode,0.0143283812735498,0.0150180813865232,0.0135204987087941,-5.1009961534782526e-05,high
1200,1.414141414141414,7.7974683544303796,cathode,0.0143264720104362,0.0150478722188393,0.0134745095016977,-5.66651951925722e-05,high
1200,1.5151515151515151,7.7974683544303796,cathode,0.0143956992670354,0.0150258961525381,0.013669459268369,1.0968718039873928e-05,high
1200,1.616161616161616,7.7974683544303796,cathode,0.0142930704405861,0.015091736767584,0.0133311509704736,-2.568407587158112e-05,high
1200,1.7171717171717171,7.7974683544303796,cathode,0.0142898783009243,0.0150333276775434,0.0134048059790908,-9.949572073378794e-05,high
1200,1.818181818181818,7.7974683544303796,cathode,0.0140510562600517,0.0146522534111407,0.0133596555301527,6.406878558076871e-05,high
1200,1.9191919191919191,7.7974683544303796,cathode,0.0140511963809206,0.0147375074649745,0.0132438764975762,8.842609003175992e-05,high
1200,2.0202020202020203,7.7974683544303796,cathode,0.0138667948366053,0.0145629296973476,0.0130456312480643,3.2627867569684575e-05,high
1200,2.121212121212121,7.7974683544303796,cathode,0.0138934591151139,0.0146401979426917,0.0130007871245971,-4.633730662533073e-05,high
1200,2.2222222222222223,7.7974683544303796,cathode,0.0138622320881628,0.0145531165406317,0.0130478376833881,-5.450265569521805e-05,high
1200,2.323232323232323,7.7974683544303796,cathode,0.0136403734734077,0.0143117392323803,0.0128511472005797,-3.738020445008434e-05,high
1200,2.4242424242424243,7.7974683544303796,cathode,0.0137639376308424,0.0144223515073871,0.0129937465715211,-3.952463600813049e-05,high
1200,2.525252525252525,7.7974683544303796,cathode,0.0137547578020141,0.0144143433117381,0.0129829819874788,3.370150269183875e-05,high
1200,2.6262626262626263,7.7974683544303796,cathode,0.0136645314292757,0.0143850844375273,0.012805990210832,-5.952622927485274e-05,high
1200,2.727272727272727,7.7974683544303796,cathode,0.0136836128723671,0.0142712314938705,0.0130079922254522,-4.2502829869571554e-05,high
1200,2.8282828282828283,7.7974683544303796,cathode,0.0134987735613691,0.0140139855186764,0.0129164710373033,1.9248853840910843e-05,high
1200,2.929292929292929,7.7974683544303796,cathode,0.0135242049463282,0.0142190683174935,0.0127012794304004,-5.045924652840015e-06,high
1200,3.0303030303030303,7.7974683544303796,cathode,0.0133768014869916,0.0139069805044436,0.0127742919741671,-3.653889684358685e-05,high
1200,3.131313131313131,7.7974683544303796,cathode,0.0134681630636524,0.0141097459011176,0.012717158977437,7.356678002810739e-05,high
1200,3.2323232323232323,7.7974683544303796,cathode,0.0135306158922835,0.0141283936600649,0.0128407338732964,1.3609457411605654e-05,high
1200,3.333333333333333,7.7974683544303796,cathode,0.013356542288856,0.0139276518506638,0.0127002524396552,4.478915341888194e-05,high
1200,3.4343434343434343,7.7974683544303796,cathode,0.0133662446962444,0.0140008011233942,0.0126248808935721,4.039060784966084e-05,high
1200,3.5353535353535355,7.7974683544303796,cathode,0.0133752487966527,0.0139936219052884,0.0126562995639198,2.1436029452965155e-05,high
1200,3.636363636363636,7.7974683544303796,cathode,0.0132433344129612,0.0139285160447477,0.0124305997956718,2.795582482387649e-05,high
1200,3.7373737373737375,7.7974683544303796,cathode,0.0134377235017065,0.0140663705188014,0.0127054969365925,-8.335985344652568e-06,high
1200,3.8383838383838382,7.7974683544303796,cathode,0.0134451939206968,0.0141349442906393,0.0126275617167899,6.098072854683492e-05,high
1200,3.939393939393939,7.7974683544303796,cathode,0.0131752300862496,0.0138861978725679,0.0123234612874949,-7.857115290252876e-05,high
1200,4.040404040404041,7.7974683544303796,cathode,0.0133877152989052,0.0140347492883866,0.0126277289170982,8.982421005671334e-05,high
1200,4.141414141414141,7.7974683544303796,cathode,0.0132557633021294,0.0139646309780063,0.0124095561218135,-2.665252791805443e-05,high
1200,4.242424242424242,7.7974683544303796,cathode,0.013176108171318,0.0139231343464294,0.0122707160225617,-0.0001041033400177,high
1200,4.343434343434343,7.7974683544303796,cathode,0.0132896039878201,0.0139762647279816,0.0124754463142374,-1.805505049716817e-05,high
1200,4.444444444444445,7.7974683544303796,cathode,0.0131629115818311,0.0137978525412586,0.0124182692174666,-6.719048435180758e-05,high
1200,4.545454545454545,7.7974683544303796,cathode,0.0131393032560699,0.0137937650788458,0.0123686468610588,6.29750350903097e-06,high
1200,4.646464646464646,7.7974683544303796,cathode,0.0131297307674764,0.0137442246934989,0.012413941243737,7.706791207864649e-06,high
1200,4.747474747474747,7.7974683544303796,cathode,0.0132072176309681,0.0139474301060983,0.0123143951822303,5.665211426285992e-05,high
1200,4.848484848484849,7.7974683544303796,cathode,0.0130812304881473,0.0136428509776814,0.012435884045724,1.7407830201028232e-05,high
1200,4.94949494949495,7.7974683544303796,cathode,0.0132233515998332,0.0138502548172882,0.0124905531119559,-6.026440593115761e-05,high
1200,5.05050505050505,7.7974683544303796,cathode,0.0131771331480979,0.0138669186937083,0.0123573086156629,-6.365754876095206e-06,high
1200,5.151515151515151,7.7974683544303796,cathode,0.0131266192357114,0.0137640551998645,0.0123792579100348,2.366303975722325e-05,high
1200,5.252525252525253,7.7974683544303796,cathode,0.0130507934051424,0.0136797553752916,0.0123144943953362,1.4343483565422212e-07,high
1200,5.353535353535354,7.7974683544303796,cathode,0.0132531809729527,0.0137696407889568,0.0126679128379853,1.1432395649953707e-05,high
1200,5.454545454545454,7.7974683544303796,cathode,0.013187389997877,0.0138623859618197,0.012388098399071,4.1351330121278415e-05,high
1200,5.555555555555555,7.7974683544303796,cathode,0.0131071970332983,0.0138179637226597,0.0122563175572463,2.90054266632117e-05,high
1200,5.656565656565657,7.7974683544303796,cathode,0.0132058582686865,0.0138023243608275,0.012515099587157,9.679612327543732e-06,high
1200,5.757575757575758,7.7974683544303796,cathode,0.01318610145757,0.0138760635132461,0.0123643636022391,-8.029193162501824e-05,high
1200,5.858585858585858,7.7974683544303796,cathode,0.0132523189477524,0.0138657033207192,0.0125387532109293,-3.8853848476419416e-05,high
1200,5.959595959595959,7.7974683544303796,cathode,0.0133591730242259,0.0140524386964142,0.0125361928241957,-3.838922482566303e-05,high
1200,6.0606060606060606,7.7974683544303796,cathode,0.0133125812929744,0.0138899131068156,0.0126482055759976,1.2995925208778013e-05,high
1200,6.161616161616162,7.7974683544303796,cathode,0.0131844419440684,0.0138315966240832,0.0124230043355224,-7.162940023881097e-05,high
1200,6.262626262626262,7.7974683544303796,cathode,0.0133392325741491,0.013979675886377,0.0125899748771088,-5.433613592803558e-06,high
1200,6.363636363636363,7.7974683544303796,cathode,0.0133365701041425,0.0139914833722932,0.0125656424346041,7.979677765288495e-05,high
1200,6.4646464646464645,7.7974683544303796,cathode,0.0134011205525664,0.0140496005524299,0.0126412699077075,2.4793687441055047e-05,high
1200,6.565656565656566,7.7974683544303796,cathode,0.0132433622804507,0.0138589269528873,0.0125234120087069,0.0001183104610121,high
1200,6.666666666666667,7.7974683544303796,cathode,0.0133973714325827,0.0140225044906109,0.0126695346127351,1.1941679324906736e-05,high
1200,6.767676767676767,7.7974683544303796,cathode,0.0134298777057386,0.0141167371838184,0.0126165179940241,4.791964494477189e-05,high
1200,6.8686868686868685,7.7974683544303796,cathode,0.0134875987268199,0.0140615753730208,0.0128289932146153,8.278309206159687e-06,high
1200,6.96969696969697,7.7974683544303796,cathode,0.013448895897052,0.0141718528881273,0.0125848644968456,-3.376600543348301e-05,high
1200,7.070707070707071,7.7974683544303796,cathode,0.0134606583508231,0.0141691596822563,0.0126170946981636,4.7567560045334497e-05,high
1200,7.171717171717171,7.7974683544303796,cathode,0.0136201942867591,0.0143308417414791,0.0127759065778767,-2.8129312027452397e-05,high
1200,7.272727272727272,7.7974683544303796,cathode,0.0135840920758422,0.0141716486438285,0.0129061633523442,-9.035510079308052e-05,high
1200,7.373737373737374,7.7974683544303796,cathode,0.0135790355016976,0.0142312631279159,0.0128149924158629,-6.014807881365036e-05,high
1200,7.474747474747475,7.7974683544303796,cathode,0.0138166380723708,0.0144690535377231,0.0130513911023689,-0.0001270750963461,high
1200,7.575757575757575,7.7974683544303796,cathode,0.013777089986124,0.0145179868664307,0.0128917912577263,1.6734829495532577e-05,high
1200,7.6767676767676765,7.7974683544303796,cathode,0.0138358461991143,0.014565990366881,0.012966681927398,-9.806733285110368e-06,high
1200,7.777777777777778,7.7974683544303796,cathode,0.0137965467233518,0.0146149296527688,0.0127957239886409,9.413871148623462e-05,high
1200,7.878787878787879,7.7974683544303796,cathode,0.0138525339100857,0.0145513903841685,0.0130275690188752,2.176868084532668e-05,high
1200,7.979797979797979,7.7974683544303796,cathode,0.0139828207849805,0.0145647694903252,0.0133171304837282,2.407104772727155e-05,high
1200,8.080808080808081,7.7974683544303796,cathode,0.014034715839002,0.0146416810571845,0.0133359093973809,5.188785993750063e-05,high
1200,8.181818181818182,7.7974683544303796,cathode,0.0141810872026083,0.0149086300611039,0.0133184808373015,6.917589847967811e-05,high
1200,8.282828282828282,7.7974683544303796,cathode,0.0142483561009958,0.0149397366771198,0.013437891093201,2.2781532063892257e-05,high
1200,8.383838383838384,7.7974683544303796,cathode,0.0142853444526514,0.0149986032250163,0.0134444355285462,5.123418510241592e-05,high
1200,8.484848484848484,7.7974683544303796,cathode,0.0143687908519108,0.015110516475517,0.0134879860172406,-7.981337161555143e-05,high
1200,8.585858585858587,7.7974683544303796,cathode,0.0143814593969201,0.0150553051736493,0.0135931071585571,0.0001154337035219,high
1200,8.686868686868687,7.7974683544303796,cathode,0.0144470197733353,0.0151284362674247,0.0136522350928579,-8.979850592044522e-06,high
1200,8.787878787878787,7.7974683544303796,cathode,0.0146631668200181,0.0154060481750652,0.013783553759084,-9.28795380058536e-05,high
1200,8.88888888888889,7.7974683544303796,cathode,0.0146770203158143,0.0154028152878187,0.0138231486396747,-3.729807231722135e-05,high
1200,8.98989898989899,7.7974683544303796,cathode,0.0148704183793578,0.0155601678345943,0.0140681725907492,-7.446059159828703e-06,high
1200,9.09090909090909,7.7974683544303796,cathode,0.0148392556270358,0.0156247771238219,0.0139035854021753,1.3946216179940614e-05,high
1200,9.191919191919192,7.7974683544303796,cathode,0.0150826745407019,0.0158484865403997,0.0141774659819436,-3.357976646857025e-05,critical
1200,9.292929292929292,7.7974683544303796,cathode,0.015281825270688,0.0160171345177811,0.0144209584592261,3.639632387973399e-05,critical
1200,9.393939393939394,7.7974683544303796,cathode,0.0152549477667891,0.0160125922501759,0.0143627622480106,-4.632086572874648e-05,critical
1200,9.494949494949497,7.7974683544303796,cathode,0.0153929794871872,0.0161913552665426,0.0144450283585341,5.6491400594166175e-05,critical
1200,9.595959595959595,7.7974683544303796,cathode,0.0155049541259012,0.0161669766698633,0.0147449227801949,-1.344860380658153e-05,critical
1200,9.696969696969695,7.7974683544303796,cathode,0.0158312543591722,0.0167136351963617,0.014769258931433,1.791146124826859e-06,critical
1200,9.797979797979798,7.7974683544303796,cathode,0.0159106531568076,0.0166378981157577,0.0150668350375107,7.71144966364595e-06,critical
1200,9.8989898989899,7.7974683544303796,cathode,0.0161898153163717,0.0169967304723807,0.0152391321352216,-4.299817082421769e-05,critical
1200,10.0,7.7974683544303796,cathode,0.0162992521998278,0.0170307690358636,0.0154529669689705,9.15685412793588e-06,critical
1200,0.0,7.898734177215189,cathode,0.0163587257863884,0.0172103118445942,0.01534694748305,5.782319163773399e-05,critical
1200,0.101010101010101,7.898734177215189,cathode,0.0162107888230271,0.0170324311277608,0.0152401770896422,-8.814257747504715e-06,critical
1200,0.202020202020202,7.898734177215189,cathode,0.0160230351658032,0.0167678629521874,0.0151558207193848,5.244366393013821e-05,critical
1200,0.303030303030303,7.898734177215189,cathode,0.0158577213276086,0.0165912460691526,0.0150043656311824,5.168455990679418e-05,critical
1200,0.404040404040404,7.898734177215189,cathode,0.0157523996094678,0.0164816247302245,0.0149044933037754,-1.2708174516979363e-05,critical
1200,0.5050505050505051,7.898734177215189,cathode,0.0154425971672231,0.0161364223236583,0.0146378450793169,-9.241825888464625e-05,critical
1200,0.6060606060606061,7.898734177215189,cathode,0.0153365410338732,0.0161063051009691,0.0144281199356149,5.622489980097813e-05,critical
1200,0.7070707070707071,7.898734177215189,cathode,0.0152212684610091,0.0160165180834925,0.0142762828613609,2.740024161884776e-05,critical
1200,0.8080808080808081,7.898734177215189,cathode,0.0151979816047841,0.0159216884317379,0.0143525145096292,4.960753199335381e-06,critical
1200,0.9090909090909092,7.898734177215189,cathode,0.0148152118233009,0.0155530758413742,0.0139457929359328,-4.888022943260044e-05,high
1200,1.0101010101010102,7.898734177215189,cathode,0.0147828599019309,0.0154880414624416,0.0139587075540754,-1.864865696920921e-05,high
1200,1.1111111111111112,7.898734177215189,cathode,0.0146915578400511,0.0153782395168031,0.0138909228752924,-6.277443685320645e-05,high
1200,1.2121212121212122,7.898734177215189,cathode,0.0147483575871671,0.0155128601911417,0.0138412144849532,3.069729219988262e-05,high
1200,1.3131313131313131,7.898734177215189,cathode,0.0145503179584472,0.015157623639646,0.0138546747435857,-5.811326063899582e-05,high
1200,1.414141414141414,7.898734177215189,cathode,0.0145046158058961,0.0152553253074537,0.0136132782609038,6.473742501118965e-05,high
1200,1.5151515151515151,7.898734177215189,cathode,0.0144125014569886,0.0150539719439329,0.0136712877939778,-1.9999176538569847e-05,high
1200,1.616161616161616,7.898734177215189,cathode,0.0142965780056646,0.0149612212129571,0.0135228430983907,4.067779269473227e-05,high
1200,1.7171717171717171,7.898734177215189,cathode,0.0140911132680703,0.0147689466715051,0.0132972359104236,-4.9573278537310805e-05,high
1200,1.818181818181818,7.898734177215189,cathode,0.0141392236032448,0.0148479350708713,0.0133024606682324,-7.090060791421998e-05,high
1200,1.9191919191919191,7.898734177215189,cathode,0.0140070202374983,0.0146923154405843,0.0132023756133418,3.280329549753923e-05,high
1200,2.0202020202020203,7.898734177215189,cathode,0.0139825385577752,0.014711141055298,0.0131171613023639,2.709798722866096e-05,high
1200,2.121212121212121,7.898734177215189,cathode,0.0138949536437076,0.0144418799528715,0.0132739288060645,4.139468286462884e-05,high
1200,2.2222222222222223,7.898734177215189,cathode,0.0139181935600677,0.0146255614414257,0.0130815417543192,4.906629857314581e-05,high
1200,2.323232323232323,7.898734177215189,cathode,0.0138648118955183,0.0146261144369898,0.0129507994194232,-4.638293880900854e-05,high
1200,2.4242424242424243,7.898734177215189,cathode,0.0137618547099535,0.0145214820774936,0.0128482420933412,6.682247014772576e-05,high
1200,2.525252525252525,7.898734177215189,cathode,0.0136391360079619,0.0143460627465543,0.0128003650566778,-2.5880580177160064e-05,high
1200,2.6262626262626263,7.898734177215189,cathode,0.0136628450660036,0.0142499291777543,0.0129839339736894,0.0001296814908312,high
1200,2.727272727272727,7.898734177215189,cathode,0.0135952678339158,0.0141275084088851,0.0129905651666477,-6.915902412250062e-05,high
1200,2.8282828282828283,7.898734177215189,cathode,0.013524497729269,0.0142136600127306,0.0127093595601881,2.9457367061873707e-05,high
1200,2.929292929292929,7.898734177215189,cathode,0.0135597944278951,0.0142276925081099,0.0127746161023707,-3.308611076887124e-05,high
1200,3.0303030303030303,7.898734177215189,cathode,0.0134160055832455,0.0140644934556363,0.0126563869272572,-1.6028141924378587e-05,high
1200,3.131313131313131,7.898734177215189,cathode,0.0134608247138439,0.0141245518430599,0.0126806335289702,1.4562466408059912e-05,high
1200,3.2323232323232323,7.898734177215189,cathode,0.0134046317524756,0.0141143781079962,0.0125578969325769,6.979308085499436e-05,high
1200,3.333333333333333,7.898734177215189,cathode,0.0131845367049106,0.0137823973419981,0.0124881257949488,0.000116271984004,high
1200,3.4343434343434343,7.898734177215189,cathode,0.0134789698844506,0.0141028547987003,0.0127530436860062,4.588304242460074e-05,high
1200,3.5353535353535355,7.898734177215189,cathode,0.0132950535506156,0.0138833802953573,0.0126149041818911,6.299501730140577e-05,high
1200,3.636363636363636,7.898734177215189,cathode,0.0134382554872625,0.0141906725275677,0.0125313514432642,4.106669737854354e-05,high
1200,3.7373737373737375,7.898734177215189,cathode,0.0132641858122394,0.013910698274578,0.0125044774532967,7.107584993710929e-05,high
1200,3.8383838383838382,7.898734177215189,cathode,0.0133435076768503,0.014068864221242,0.0124748668607792,1.967650567917224e-05,high
1200,3.939393939393939,7.898734177215189,cathode,0.0131649857587313,0.0138212914571148,0.012392048489655,4.623649397950657e-07,high
1200,4.040404040404041,7.898734177215189,cathode,0.0131173577019946,0.0137179169778568,0.0124203197825049,-1.153235821308355e-05,high
1200,4.141414141414141,7.898734177215189,cathode,0.0133513706764237,0.0140013400734011,0.012588762533417,-3.731978536251231e-05,high
1200,4.242424242424242,7.898734177215189,cathode,0.0132999953326407,0.0140721619683852,0.0123624466894179,1.1509041558659052e-05,high
1200,4.343434343434343,7.898734177215189,cathode,0.0133101985440059,0.0140030797329814,0.0124875315964334,1.4124608332592991e-05,high
1200,4.444444444444445,7.898734177215189,cathode,0.0133102393638816,0.0138821168236554,0.0126531132581503,-2.928436166945288e-06,high
1200,4.545454545454545,7.898734177215189,cathode,0.0132058708005603,0.0137897799771033,0.0125319534063348,2.2921818569879327e-06,high
1200,4.646464646464646,7.898734177215189,cathode,0.0131446886383524,0.0137784902958953,0.0124006893894032,8.509924989017742e-05,high
1200,4.747474747474747,7.898734177215189,cathode,0.013196157239871,0.0138173821742669,0.0124717161128626,2.066277005873807e-05,high
1200,4.848484848484849,7.898734177215189,cathode,0.0133064409918989,0.0140617559565134,0.0123936834560925,-2.552020361162542e-05,high
1200,4.94949494949495,7.898734177215189,cathode,0.0131683669253708,0.0138219367803117,0.0123992510502935,-7.929994359718407e-06,high
1200,5.05050505050505,7.898734177215189,cathode,0.0130675673302529,0.0137257802137616,0.0122908644391706,1.44766631760534e-05,high
1200,5.151515151515151,7.898734177215189,cathode,0.0130563423903312,0.0136673570493028,0.0123425935571473,8.649709716977679e-05,high
1200,5.252525252525253,7.898734177215189,cathode,0.0130291930752125,0.0136635572463504,0.0122847747894567,-4.126149724342881e-05,high
1200,5.353535353535354,7.898734177215189,cathode,0.0131944078205474,0.0137731377481399,0.0125272910891966,7.258438153914454e-06,high
1200,5.454545454545454,7.898734177215189,cathode,0.0132447734461549,0.0138155194009871,0.0125886564566109,-1.0719169957493546e-06,high
1200,5.555555555555555,7.898734177215189,cathode,0.0132663866723311,0.0139940743568559,0.0123934221791443,-1.2334706315520534e-05,high
1200,5.656565656565657,7.898734177215189,cathode,0.0132936871155477,0.0139555194012999,0.0125139264703632,4.314048352929906e-05,high
1200,5.757575757575758,7.898734177215189,cathode,0.0132489965204966,0.0138724950945092,0.0125217368713413,-3.477403368702297e-05,high
1200,5.858585858585858,7.898734177215189,cathode,0.0131991667965017,0.0139134143200479,0.0123427376617364,-8.437224170570936e-05,high
1200,5.959595959595959,7.898734177215189,cathode,0.0132897843015838,0.0138764394681878,0.0126114269936331,-7.395254610227526e-05,high
1200,6.0606060606060606,7.898734177215189,cathode,0.0132504199420375,0.013776978483652,0.0126442805590538,0.0001738225614536,high
1200,6.161616161616162,7.898734177215189,cathode,0.0132893310683364,0.0139651231074846,0.0124893959558131,-6.480112298619102e-05,high
1200,6.262626262626262,7.898734177215189,cathode,0.0133422586870389,0.0140515473545507,0.0124950738088239,7.77509914677817e-05,high
1200,6.363636363636363,7.898734177215189,cathode,0.0133774021514189,0.0139673504878543,0.0126967703274617,-9.542001149135836e-06,high
1200,6.4646464646464645,7.898734177215189,cathode,0.0132426496220803,0.0138196980471922,0.0125767067087668,-7.40549402576301e-05,high
1200,6.565656565656566,7.898734177215189,cathode,0.0133830813081084,0.0141644651654949,0.0124293164826023,-0.000117620858362,high
1200,6.666666666666667,7.898734177215189,cathode,0.0133179022224943,0.0140198596805235,0.0124784588652501,-0.0001216015550916,high
1200,6.767676767676767,7.898734177215189,cathode,0.0134693171637951,0.0141680017304522,0.0126403534313409,9.05988155230993e-06,high
1200,6.8686868686868685,7.898734177215189,cathode,0.0134987331102592,0.0141925794358295,0.0126759530046318,6.101886899576772e-05,high
1200,6.96969696969697,7.898734177215189,cathode,0.0135371367832194,0.0141333678868979,0.0128493403147473,-1.7240545975032526e-05,high
1200,7.070707070707071,7.898734177215189,cathode,0.0134973954777781,0.0141392884813249,0.012746730364025,5.991316736910454e-05,high
1200,7.171717171717171,7.898734177215189,cathode,0.0136240544948068,0.0143257004350832,0.0127919249359379,5.510285948319591e-05,high
1200,7.272727272727272,7.898734177215189,cathode,0.0135505609229828,0.0142151484956862,0.0127698865398428,3.2071636124412245e-05,high
1200,7.373737373737374,7.898734177215189,cathode,0.0136733667722933,0.0142403964971853,0.0130249536930595,3.241775701718807e-05,high
1200,7.474747474747475,7.898734177215189,cathode,0.0137781501825371,0.0144973098105552,0.0129234264117304,4.241459923414861e-05,high
1200,7.575757575757575,7.898734177215189,cathode,0.0136143740657763,0.0142401113353799,0.012887086430147,4.816379949345537e-05,high
1200,7.6767676767676765,7.898734177215189,cathode,0.0136980247424909,0.0142902141546161,0.0130162712962491,5.0488023421636086e-05,high
1200,7.777777777777778,7.898734177215189,cathode,0.0139185114038408,0.0146661087247807,0.0130254940576872,-3.22329744765684e-06,high
1200,7.878787878787879,7.898734177215189,cathode,0.0139243213312719,0.0145603914430891,0.0131859830325975,3.937656296939725e-05,high
1200,7.979797979797979,7.898734177215189,cathode,0.0139176491297683,0.0145737006389976,0.0131518966749109,5.0417628753573175e-05,high
1200,8.080808080808081,7.898734177215189,cathode,0.0139925288328677,0.0146412840075371,0.0132380277642089,1.9025203132476323e-06,high
1200,8.181818181818182,7.898734177215189,cathode,0.0141151552981623,0.0147966944084944,0.0133170304025575,7.620706485221313e-06,high
1200,8.282828282828282,7.898734177215189,cathode,0.0141949929642229,0.0148524582231864,0.0134294254762408,-6.537636728544332e-05,high
1200,8.383838383838384,7.898734177215189,cathode,0.0142287477857167,0.0148259616816651,0.0135446287116926,3.318181060230085e-05,high
1200,8.484848484848484,7.898734177215189,cathode,0.014256398922831,0.0148591664485689,0.0135649293418375,4.588974110303453e-05,high
1200,8.585858585858587,7.898734177215189,cathode,0.0144865405811909,0.0151300493103908,0.013741719557971,-8.063081993956895e-05,high
1200,8.686868686868687,7.898734177215189,cathode,0.0145562498167083,0.0152382228385652,0.0137612249865347,-4.572816444530124e-05,high
1200,8.787878787878787,7.898734177215189,cathode,0.0146286864721843,0.0152679814830886,0.0138921721917939,-7.935390512111566e-06,high
1200,8.88888888888889,7.898734177215189,cathode,0.0147383010295225,0.0154407137104814,0.0139175674139812,1.1084684235710142e-05,high
1200,8.98989898989899,7.898734177215189,cathode,0.0149340139800351,0.0157407039562777,0.0139693057539532,8.477754820529779e-06,high
1200,9.09090909090909,7.898734177215189,cathode,0.0149846697742361,0.0157080486925779,0.0141375387144618,-1.5056909487427792e-05,high
1200,9.191919191919192,7.898734177215189,cathode,0.0151552945544974,0.0158751262462451,0.0143145871769878,-2.444210394739555e-05,critical
1200,9.292929292929292,7.898734177215189,cathode,0.0151697310063753,0.0158017083227105,0.0144468640609852,-1.1199281379198926e-06,critical
1200,9.393939393939394,7.898734177215189,cathode,0.0152910160663728,0.0160069307271985,0.0144562219468202,5.980897583351781e-05,critical
1200,9.494949494949497,7.898734177215189,cathode,0.0155671391680714,0.0163348983461896,0.0146638962344432,5.865001262130704e-05,critical
1200,9.595959595959595,7.898734177215189,cathode,0.0155662915003654,0.0162887723734384,0.0147236852040464,9.861784773735547e-05,critical
1200,9.696969696969695,7.898734177215189,cathode,0.0157748128379588,0.016529724240637,0.0148921451023289,-9.56618393771075e-07,critical
1200,9.797979797979798,7.898734177215189,cathode,0.0159460323220575,0.0167000042323607,0.0150658973456144,4.119895921204877e-05,critical
1200,9.8989898989899,7.898734177215189,cathode,0.0161571875007916,0.0169227378008281,0.0152634726848599,-2.450193654641012e-05,critical
1200,10.0,7.898734177215189,cathode,0.0160987968514583,0.0167726209531743,0.0153263938199003,-7.278512495603033e-05,critical
1200,0.0,8.0,cathode,0.0163041955724363,0.0169809215637921,0.0155305256657554,-1.2997801806426873e-05,critical
1200,0.101010101010101,8.0,cathode,0.0160540565657499,0.0167601291096641,0.0152387413240908,7.033103077766846e-05,critical
1200,0.202020202020202,8.0,cathode,0.0158563502682637,0.0166167189376033,0.0149668857788207,-2.129178379336353e-05,critical
1200,0.303030303030303,8.0,cathode,0.0157191619308776,0.0164167334542645,0.0149135943500358,-6.360108167740732e-06,critical
1200,0.404040404040404,8.0,cathode,0.0155790810504347,0.0162837122223052,0.0147627117156521,-2.929525696819669e-05,critical
1200,0.5050505050505051,8.0,cathode,0.0154826002403063,0.0162449383317265,0.0145863031202973,4.562440662905242e-05,critical
1200,0.6060606060606061,8.0,cathode,0.0153477317913888,0.0159842748070748,0.0146201147468663,1.4883615620824296e-06,critical
1200,0.7070707070707071,8.0,cathode,0.0151901369540464,0.0158868080354173,0.014379571727031,8.756661180981686e-05,critical
1200,0.8080808080808081,8.0,cathode,0.0151102056173101,0.0158545599445921,0.0142348160517767,-5.163695685818466e-05,critical
1200,0.9090909090909092,8.0,cathode,0.0150075954356782,0.0157156928019652,0.0141810696560289,-5.006077481678948e-05,critical
1200,1.0101010101010102,8.0,cathode,0.0148214560417489,0.0156177116872047,0.0138702343419074,1.3676491895698962e-05,high
1200,1.1111111111111112,8.0,cathode,0.0148486392294352,0.0155467729705237,0.014034283726972,4.70473056689738e-05,high
1200,1.2121212121212122,8.0,cathode,0.0145909011489908,0.0152754952880734,0.0137919502159521,6.980883775092806e-05,high
1200,1.3131313131313131,8.0,cathode,0.0146467480108348,0.0153804781845034,0.0137807968425254,-6.583235143533975e-05,high
1200,1.414141414141414,8.0,cathode,0.0144831607782537,0.0152171504800906,0.013615685327847,-4.212272342916337e-05,high
1200,1.5151515151515151,8.0,cathode,0.0143389844165888,0.014987242758804,0.0135881362445266,9.63542873174514e-06,high
1200,1.616161616161616,8.0,cathode,0.0142573377316383,0.0149604884506152,0.0134308074089204,-1.0262895742817833e-05,high
1200,1.7171717171717171,8.0,cathode,0.0140857040444486,0.0147702245217738,0.0132812217931814,-8.813151777307379e-05,high
1200,1.818181818181818,8.0,cathode,0.0142619177194673,0.0148848588700404,0.0135438962170214,4.136205679224858e-05,high
1200,1.9191919191919191,8.0,cathode,0.0140823890821291,0.0147788681699914,0.0132628086781137,-4.451539020538837e-05,high
1200,2.0202020202020203,8.0,cathode,0.0138956333267453,0.0145191324163256,0.0131743285541189,-1.0121760666598937e-05,high
1200,2.121212121212121,8.0,cathode,0.0138012205198233,0.0145234981525099,0.0129426430056569,2.6664959583048777e-05,high
1200,2.2222222222222223,8.0,cathode,0.0137390081297774,0.0144012419968167,0.0129613200397936,-9.637194701606988e-05,high
1200,2.323232323232323,8.0,cathode,0.0137363936455329,0.0144554336588626,0.0128816838680746,2.232645394768773e-05,high
1200,2.4242424242424243,8.0,cathode,0.0137352052280199,0.0143941791750967,0.0129642140203917,2.47846614894722e-05,high
1200,2.525252525252525,8.0,cathode,0.0136872666457994,0.0143967745917869,0.0128447664124289,5.577371102059882e-05,high
1200,2.6262626262626263,8.0,cathode,0.0135488684098751,0.0142109712552249,0.0127717319042444,-2.3876823089383817e-05,high
1200,2.727272727272727,8.0,cathode,0.0135855914588403,0.0141789800038943,0.0129018926551082,2.356000081350385e-05,high
1200,2.8282828282828283,8.0,cathode,0.0136416034841648,0.0143333254079851,0.0128229834796012,-7.35254246312831e-05,high
1200,2.929292929292929,8.0,cathode,0.0134361598426968,0.0140514813360794,0.0127219127376226,-1.750493798205905e-05,high
1200,3.0303030303030303,8.0,cathode,0.0135081716733775,0.0141914738360136,0.012701065328684,2.9144108613592784e-05,high
1200,3.131313131313131,8.0,cathode,0.0134381414987836,0.0139546895540711,0.0128508128215079,0.0001095439927076,high
1200,3.2323232323232323,8.0,cathode,0.0135098915268533,0.0141664290298501,0.012740134414312,-1.4637007065514444e-05,high
1200,3.333333333333333,8.0,cathode,0.0133744877851359,0.0140380134438969,0.0125937285148903,3.384167793705916e-06,high
1200,3.4343434343434343,8.0,cathode,0.013221262360071,0.0138539028320907,0.0124814866361476,1.7786902634604704e-05,high
1200,3.5353535353535355,8.0,cathode,0.0132898986447675,0.0140378169305504,0.0123876757493571,-2.895804913074208e-05,high
1200,3.636363636363636,8.0,cathode,0.0133653170987417,0.0140452221210858,0.0125613805508974,2.9070945734116997e-05,high
1200,3.7373737373737375,8.0,cathode,0.0133676345963974,0.0139525279013108,0.0126935350705886,-2.37312475870638e-05,high
1200,3.8383838383838382,8.0,cathode,0.0133479184009292,0.0139143502237965,0.0126964576712293,8.307572685009365e-05,high
1200,3.939393939393939,8.0,cathode,0.0132374037748474,0.0139567183915304,0.0123759051654755,-3.090311660054048e-05,high
1200,4.040404040404041,8.0,cathode,0.0132971760444745,0.0138595581818612,0.0126521955466353,3.329623567008774e-05,high
1200,4.141414141414141,8.0,cathode,0.0132316282080561,0.0138963849043934,0.0124476333308108,-1.3717072505063849e-08,high
1200,4.242424242424242,8.0,cathode,0.0132814308017236,0.0138779199800337,0.0125909576691609,-3.572649231542569e-05,high
1200,4.343434343434343,8.0,cathode,0.0133312878613486,0.0140049874508686,0.0125352634841491,4.809613620075048e-05,high
1200,4.444444444444445,8.0,cathode,0.0132000408917542,0.0138607380436258,0.0124212816906627,-1.7447746143357448e-05,high
1200,4.545454545454545,8.0,cathode,0.0130776726701844,0.0137287553395492,0.0123094444214239,7.687253230940366e-05,high
1200,4.646464646464646,8.0,cathode,0.0130852461055497,0.0136516629169561,0.0124336519175997,5.478516001212323e-06,high
1200,4.747474747474747,8.0,cathode,0.0133295822853883,0.014001152333127,0.0125371412403189,1.923143140472961e-06,high
1200,4.848484848484849,8.0,cathode,0.0132461075695718,0.0139509764214068,0.0124023334030143,0.0001101660419146,high
1200,4.94949494949495,8.0,cathode,0.0132218530085966,0.0138422422907677,0.0124981318223459,5.352620152212102e-05,high
1200,5.05050505050505,8.0,cathode,0.0131626816249297,0.0138014587776408,0.0124139838084065,-2.233904522768267e-06,high
1200,5.151515151515151,8.0,cathode,0.013160205381462,0.0138250941533651,0.0123751390005801,1.9781246783474687e-05,high
1200,5.252525252525253,8.0,cathode,0.0131492319249252,0.0138138107882466,0.0123644839920709,-1.923272026200952e-05,high
1200,5.353535353535354,8.0,cathode,0.0132756884320399,0.0140294517651655,0.0123649376036333,2.950727180931014e-07,high
1200,5.454545454545454,8.0,cathode,0.0132857033676182,0.013955626085636,0.0124948400130989,3.0015551373371625e-05,high
1200,5.555555555555555,8.0,cathode,0.0133266595633602,0.0139550243272315,0.0125937546013933,1.469713790543441e-05,high
1200,5.656565656565657,8.0,cathode,0.0132017313603249,0.0137986679554304,0.0125101841032578,2.340776736315111e-05,high
1200,5.757575757575758,8.0,cathode,0.0131756799885359,0.0139453904806229,0.0122398393898415,9.982077095429857e-06,high
1200,5.858585858585858,8.0,cathode,0.0132087865404536,0.0137098342902445,0.012642939551553,1.9759339159703945e-05,high
1200,5.959595959595959,8.0,cathode,0.0131826543221321,0.0138394921041672,0.0124091149265948,1.351616804736241e-05,high
1200,6.0606060606060606,8.0,cathode,0.0133031514772077,0.0139575600651203,0.0125342498024348,1.2683755534817862e-05,high
1200,6.161616161616162,8.0,cathode,0.0131632316519084,0.0137870546379943,0.0124344455596132,4.738452396051027e-05,high
1200,6.262626262626262,8.0,cathode,0.0131942573292303,0.0138577399869943,0.0124112485568258,3.756593291058989e-05,high
1200,6.363636363636363,8.0,cathode,0.0134396347315772,0.0141190278474501,0.0126354831374511,8.590407051054125e-05,high
1200,6.4646464646464645,8.0,cathode,0.0133281689873168,0.0140389908722373,0.0124800343655781,2.974682762161377e-05,high
1200,6.565656565656566,8.0,cathode,0.0134004689859756,0.0139283760821431,0.0128003829458335,6.232405505080245e-05,high
1200,6.666666666666667,8.0,cathode,0.0133936106364607,0.0139663298459593,0.0127359712376646,9.098758801029107e-06,high
1200,6.767676767676767,8.0,cathode,0.0134081766060014,0.0139812102639407,0.012750168459383,-1.779364922149197e-05,high
1200,6.8686868686868685,8.0,cathode,0.0134249140077608,0.0141112822104786,0.0126127742359401,-1.1154455167704927e-05,high
1200,6.96969696969697,8.0,cathode,0.013420891213455,0.01411850959112,0.012592861019269,-9.803373778170156e-06,high
1200,7.070707070707071,8.0,cathode,0.0133917406969811,0.0139851584750093,0.0127063669791519,-3.0851041236586804e-05,high
1200,7.171717171717171,8.0,cathode,0.01353546680802,0.0141292746880072,0.0128489311694739,8.851411330950663e-05,high
1200,7.272727272727272,8.0,cathode,0.0135836207829387,0.0142051539183618,0.0128623300322685,8.159421540337714e-06,high
1200,7.373737373737374,8.0,cathode,0.0135779539402304,0.0143089166383917,0.0127040569273992,3.6363752622521546e-05,high
1200,7.474747474747475,8.0,cathode,0.0136613678647479,0.0143567429301079,0.0128392718138429,-6.544874466284981e-06,high
1200,7.575757575757575,8.0,cathode,0.0137747614221761,0.0143195432430301,0.0131561346134386,1.5210634476290447e-05,high
1200,7.6767676767676765,8.0,cathode,0.0137051268341663,0.0144097905578395,0.0128699828057468,4.372990347494855e-05,high
1200,7.777777777777778,8.0,cathode,0.0138207479478156,0.0145604408530877,0.012937387839091,-3.959093442306754e-05,high
1200,7.878787878787879,8.0,cathode,0.0139572748617749,0.0146528220459406,0.0131377218954556,4.200030939042948e-05,high
1200,7.979797979797979,8.0,cathode,0.013981008634284,0.0147086487131879,0.013115494049725,-8.013732567525737e-05,high
1200,8.080808080808081,8.0,cathode,0.0141501261945382,0.0148566612874429,0.013317395933851,3.955111711166962e-05,high
1200,8.181818181818182,8.0,cathode,0.014020185868495,0.0146385320583238,0.0133067676330306,-1.2526157775885943e-05,high
1200,8.282828282828282,8.0,cathode,0.0142027592650068,0.0148024303944849,0.0135150508277674,-4.252620753280425e-05,high
1200,8.383838383838384,8.0,cathode,0.0141728998203309,0.0148560588066803,0.0133703167598652,-0.000105590149417,high
1200,8.484848484848484,8.0,cathode,0.0143505875330383,0.0149614124264319,0.0136496640836208,-1.19022578061072e-05,high
1200,8.585858585858587,8.0,cathode,0.0144324238721512,0.0150342137501171,0.0137434690973741,-4.685078726421008e-05,high
1200,8.686868686868687,8.0,cathode,0.014528702800461,0.0153737069928283,0.0135023081075274,-1.3449959136244727e-05,high
1200,8.787878787878787,8.0,cathode,0.0147074628834983,0.0154953476628843,0.0137667922462534,-1.0465542180657548e-05,high
1200,8.88888888888889,8.0,cathode,0.0149096076435147,0.0155885615194219,0.0141221704710562,2.4318723945945505e-05,high
1200,8.98989898989899,8.0,cathode,0.0148428343378583,0.0155156582658365,0.0140624609694764,-5.659805620277017e-05,high
1200,9.09090909090909,8.0,cathode,0.0150959755728763,0.0158203430862441,0.0142471505055904,7.902447143865312e-05,critical
1200,9.191919191919192,8.0,cathode,0.0150711807191045,0.0157431675735106,0.0142925354289854,9.376271526877322e-05,critical
1200,9.292929292929292,8.0,cathode,0.0152085865211789,0.0159736251658833,0.0143059393031112,-2.717696033302547e-05,critical
1200,9.393939393939394,8.0,cathode,0.0153119933751278,0.0161403123249774,0.0143203721123687,5.680445687044215e-05,critical
1200,9.494949494949497,8.0,cathode,0.0154755748716267,0.0162568339060087,0.014553318704449,-1.376718250677183e-05,critical
1200,9.595959595959595,8.0,cathode,0.0157606383093826,0.0165393451107973,0.0148435977700453,7.91089351679128e-05,critical
1200,9.696969696969695,8.0,cathode,0.0157490742123824,0.016503115445277,0.0148665261751058,-6.032238358775618e-05,critical
1200,9.797979797979798,8.0,cathode,0.0158860024737284,0.0166497738572492,0.0149913988697303,-6.182235637971565e-05,critical
1200,9.8989898989899,8.0,cathode,0.0162472278531719,0.0170507683999429,0.0153020704276993,2.8339680293828717e-05,critical
1200,10.0,8.0,cathode,0.0164094826058835,0.0171935281313952,0.0154928540064765,2.585677005531312e-05,critical
1500,0.0,0.0,anode,0.0223551884220666,0.023333907822186,0.0212271048918908,3.882404643749196e-05,critical
1500,0.101010101010101,0.0,anode,0.0221905453161374,0.0232904392900058,0.0208963709366902,-3.203885546040755e-05,critical
1500,0.202020202020202,0.0,anode,0.0217436373923243,0.0228183028199235,0.0204799572942283,3.650230205525018e-06,critical
1500,0.303030303030303,0.0,anode,0.0215827178480687,0.0226290209692726,0.0203564179189728,3.254298386382103e-05,critical
1500,0.404040404040404,0.0,anode,0.0215029880743373,0.0225683633503371,0.0202490685279211,-6.063994230774944e-05,critical
1500,0.5050505050505051,0.0,anode,0.0212015049181069,0.0222761535168912,0.019929226063172,-0.0001281185173189,critical
1500,0.6060606060606061,0.0,anode,0.0212344886549433,0.022265279497799,0.0200262209004148,-1.548549851909131e-05,critical
1500,0.7070707070707071,0.0,anode,0.0208298472068307,0.0217690771858511,0.0197422255597287,-3.818863435524519e-05,critical
1500,0.8080808080808081,0.0,anode,0.0206953025874104,0.0216370434269683,0.0196022264907649,-8.335341358046778e-05,critical
1500,0.9090909090909092,0.0,anode,0.0206193974151671,0.0215428901468327,0.019550883884837,-5.451914722758608e-05,critical
1500,1.0101010101010102,0.0,anode,0.0202261825013364,0.021301463634182,0.0189442420160274,2.504954239653576e-05,critical
1500,1.1111111111111112,0.0,anode,0.0201513490279757,0.0211624951487746,0.0189584087298549,6.228411030811902e-05,critical
1500,1.2121212121212122,0.0,anode,0.0199968844357187,0.0209520206319676,0.0188804401577523,-1.3781007257371749e-05,critical
1500,1.3131313131313131,0.0,anode,0.0200092011364841,0.0210688737952587,0.0187466568136882,-3.869504774382422e-05,critical
1500,1.414141414141414,0.0,anode,0.019701736029771,0.020699272302435,0.0185234483892185,-2.7632691506563097e-05,critical
1500,1.5151515151515151,0.0,anode,0.0195975581520092,0.0206387201464782,0.0183556164042023,7.139734110964846e-05,critical
1500,1.616161616161616,0.0,anode,0.0195574000863036,0.0204392712159259,0.0185361361066022,4.025631730268903e-05,critical
1500,1.7171717171717171,0.0,anode,0.0195100135873851,0.0204415902550786,0.018420866564146,4.281548436606091e-05,critical
1500,1.818181818181818,0.0,anode,0.0192791192565801,0.0200805043536285,0.0183617622569882,7.50954346870176e-05,critical
1500,1.9191919191919191,0.0,anode,0.0191400733136285,0.0201162910068164,0.0179841798716239,8.468124890146806e-05,critical
1500,2.0202020202020203,0.0,anode,0.019092724599588,0.02012055077052,0.0178643252207055,-2.2481991262467224e-05,critical
1500,2.121212121212121,0.0,anode,0.0190846046015176,0.0200170398230113,0.0179903340862053,-2.1313687453053e-05,critical
1500,2.2222222222222223,0.0,anode,0.0190285897778372,0.0199572112038266,0.0179378516060122,-8.14917252201209e-05,critical
1500,2.323232323232323,0.0,anode,0.018860506221304,0.0197292058068349,0.0178512072796827,-2.3622972798375083e-05,critical
1500,2.4242424242424243,0.0,anode,0.0186686658171137,0.0195888494797571,0.0175868008986312,4.354781332650156e-05,critical
1500,2.525252525252525,0.0,anode,0.0187857197087202,0.0197099821529482,0.017699536365279,3.5715703049558254e-05,critical
1500,2.6262626262626263,0.0,anode,0.0187071416602344,0.0196601414691777,0.0175801139133457,3.218634503206246e-05,critical
1500,2.727272727272727,0.0,anode,0.0187106765598878,0.0195586068582109,0.0177270252110538,7.918150023153066e-05,critical
1500,2.8282828282828283,0.0,anode,0.0185771790422599,0.019572409641721,0.0173888885908006,-2.1340688600308405e-05,critical
1500,2.929292929292929,0.0,anode,0.0185415848514938,0.0195206695639979,0.0173758337562293,2.6702113187908352e-05,critical
1500,3.0303030303030303,0.0,anode,0.0185120682708402,0.019375233550807,0.0175069765758028,-3.884848735745912e-05,critical
1500,3.131313131313131,0.0,anode,0.0184190706573914,0.0193488340449115,0.0173213126230146,-3.704674067593989e-05,critical
1500,3.2323232323232323,0.0,anode,0.0181473622035004,0.0188598450946407,0.017339172252196,8.292679026426674e-06,critical
1500,3.333333333333333,0.0,anode,0.0183314303979054,0.0192875506820931,0.017195164861161,-5.957701744530602e-05,critical
1500,3.4343434343434343,0.0,anode,0.0183145225933491,0.0191420622994735,0.0173553603286384,6.336468285165358e-05,critical
1500,3.5353535353535355,0.0,anode,0.0182912658182571,0.0191920982627656,0.0172325962876385,1.8938221382691937e-05,critical
1500,3.636363636363636,0.0,anode,0.0183202905442105,0.0191767591949478,0.01732277580279,-1.9070463367708676e-05,critical
1500,3.7373737373737375,0.0,anode,0.0180979621484885,0.0190101841720563,0.0170190350223546,0.0001104065006042,critical
1500,3.8383838383838382,0.0,anode,0.018121485128335,0.0190315149229602,0.0170481562035711,-2.7521200733568808e-05,critical
1500,3.939393939393939,0.0,anode,0.0181694860053868,0.0190669722216271,0.0171121705242634,-0.0001027812986459,critical
1500,4.040404040404041,0.0,anode,0.0181373986067472,0.0189560489842324,0.0171893270566074,-2.7056480704239892e-05,critical
1500,4.141414141414141,0.0,anode,0.0180984294365773,0.0190715544145843,0.0169352232767464,5.229752916076005e-05,critical
1500,4.242424242424242,0.0,anode,0.0179822598437304,0.0189014307966725,0.016894168244468,5.35854265016386e-05,critical
1500,4.343434343434343,0.0,anode,0.0180477762129194,0.0187689259428171,0.0172276829578413,2.373949469951721e-05,critical
1500,4.444444444444445,0.0,anode,0.018019067871896,0.018743686670915,0.0171941382928721,3.726507804062199e-05,critical
1500,4.545454545454545,0.0,anode,0.0179969390863914,0.0188790991879798,0.0169598580317105,-8.059749509481579e-05,critical
1500,4.646464646464646,0.0,anode,0.0179738458224718,0.018847215700062,0.0169499356898776,1.1077960710415058e-05,critical
1500,4.747474747474747,0.0,anode,0.0180405643246247,0.0189573119329293,0.0169571022046303,3.925217631175133e-06,critical
1500,4.848484848484849,0.0,anode,0.0180266566512542,0.0189008436466831,0.0170021361234241,-1.34565332783025e-05,critical
1500,4.94949494949495,0.0,anode,0.0180732896545693,0.0189893806032083,0.0169911010157156,-8.032707908282224e-06,critical
1500,5.05050505050505,0.0,anode,0.0180545923079052,0.0189769986015893,0.0169632226124197,-2.5546531252318923e-05,critical
1500,5.151515151515151,0.0,anode,0.0181106450227811,0.0189653246468854,0.017112939205692,-6.240624989952743e-05,critical
1500,5.252525252525253,0.0,anode,0.0179937527702894,0.0188458573511304,0.0169991658217585,1.8393736003305497e-05,critical
1500,5.353535353535354,0.0,anode,0.0180886381640726,0.0189628700970022,0.0170646841195447,1.0526481236454214e-05,critical
1500,5.454545454545454,0.0,anode,0.0179919372291557,0.0188646555110364,0.0169686348498044,4.98664079765229e-05,critical
1500,5.555555555555555,0.0,anode,0.0180579584832753,0.0189552496420997,0.0170013524285765,4.922982054821075e-05,critical
1500,5.656565656565657,0.0,anode,0.0180271497909374,0.018934810421478,0.0169558079924675,4.71490208814687e-05,critical
1500,5.757575757575758,0.0,anode,0.018232685990371,0.0191645886576539,0.0171297837386897,4.142551015135203e-05,critical
1500,5.858585858585858,0.0,anode,0.018115412048341,0.0189793299571106,0.0171058237340207,-1.875523985731082e-05,critical
1500,5.959595959595959,0.0,anode,0.0181377293142686,0.0189288421060176,0.0172265725729097,-1.1984070945885692e-05,critical
1500,6.0606060606060606,0.0,anode,0.0181301803269005,0.0188889502532226,0.0172616486290683,1.737687039881228e-05,critical
1500,6.161616161616162,0.0,anode,0.0180827992323184,0.018930045733594,0.0170942773446103,-8.588865297628783e-05,critical
1500,6.262626262626262,0.0,anode,0.0181683081111808,0.0190248414803381,0.0171693662410461,-7.307653588241518e-06,critical
1500,6.363636363636363,0.0,anode,0.0181644556731314,0.0190020883287298,0.017191162941302,-9.051920015558036e-07,critical
1500,6.4646464646464645,0.0,anode,0.0183129064550544,0.0193175839122513,0.0171072973577513,-4.2910598431240326e-05,critical
1500,6.565656565656566,0.0,anode,0.0182778981056663,0.0191347715996229,0.017279153199295,4.316483940539367e-05,critical
1500,6.666666666666667,0.0,anode,0.0182902020240689,0.0191331542880683,0.0173105873626806,-3.464609879467003e-05,critical
1500,6.767676767676767,0.0,anode,0.0183585161036396,0.0192438071567439,0.0173203643230591,-9.261079067218984e-05,critical
1500,6.8686868686868685,0.0,anode,0.0183127170421431,0.0191146852092316,0.0173882592000674,-3.63215026520762e-05,critical
1500,6.96969696969697,0.0,anode,0.0184647486482202,0.0193776057770988,0.017388656439928,0.0001161804484125,critical
1500,7.070707070707071,0.0,anode,0.0185032949594828,0.0194254785893023,0.0174172466334274,-1.3870914213337956e-05,critical
1500,7.171717171717171,0.0,anode,0.0185398804019281,0.0194699662264714,0.0174422582321368,-7.16168379061309e-05,critical
1500,7.272727272727272,0.0,anode,0.0185407932314917,0.0194315329953552,0.0174977909560178,-6.51998735715793e-05,critical
1500,7.373737373737374,0.0,anode,0.0187378786668506,0.019668959294909,0.0176419645093118,1.0120225551081084e-05,critical
1500,7.474747474747475,0.0,anode,0.018739399342573,0.0196463522688486,0.017676659468258,3.424977786268388e-05,critical
1500,7.575757575757575,0.0,anode,0.0188485680486802,0.0197715936550597,0.0177635983384386,-8.529184183900681e-05,critical
1500,7.6767676767676765,0.0,anode,0.0188517021769013,0.0196678047249212,0.0179128680322355,-5.216958238642046e-06,critical
1500,7.777777777777778,0.0,anode,0.0188376422881492,0.0196990092150908,0.0178375164349893,-5.834089106468303e-05,critical
1500,7.878787878787879,0.0,anode,0.0191052963353425,0.0200077736669036,0.0180523477883618,2.1361874225987654e-05,critical
1500,7.979797979797979,0.0,anode,0.0191045439101903,0.0200551655904766,0.0179852230242642,-2.7748007151820188e-05,critical
1500,8.080808080808081,0.0,anode,0.0192972011986558,0.0201286704403273,0.0183412131956615,-3.0192762057231488e-05,critical
1500,8.181818181818182,0.0,anode,0.0192485135445316,0.0201579070844896,0.0181858185085582,-9.6782525604567e-05,critical
1500,8.282828282828282,0.0,anode,0.0194477819267157,0.0204531478698396,0.0182555335625478,-3.4572763209252464e-05,critical
1500,8.383838383838384,0.0,anode,0.0195092101735164,0.0203581947585745,0.0185312652552876,5.323844007100378e-05,critical
1500,8.484848484848484,0.0,anode,0.0197602117787448,0.0207899692850804,0.0185373944953407,-2.1736238340666777e-06,critical
1500,8.585858585858587,0.0,anode,0.0197882041986072,0.0207608659794917,0.0186452579390335,4.292163244125749e-05,critical
1500,8.686868686868687,0.0,anode,0.0197824164336337,0.0207893573098532,0.0185912263090602,6.473919384487749e-05,critical
1500,8.787878787878787,0.0,anode,0.02010680505485,0.0210606574532175,0.0189925523289237,-6.031016177480101e-05,critical
1500,8.88888888888889,0.0,anode,0.0201710522299608,0.021139871407244,0.0190374356771358,-2.689439991285437e-05,critical
1500,8.98989898989899,0.0,anode,0.0202960951799978,0.0213174986677754,0.01909069503952,-4.816321156140516e-05,critical
1500,9.09090909090909,0.0,anode,0.020563216955161,0.0216748074358318,0.0192337061223263,-3.625990600575564e-06,critical
1500,9.191919191919192,0.0,anode,0.0207113790896665,0.0218778167406751,0.0193040151955887,-4.852007862374988e-05,critical
1500,9.292929292929292,0.0,anode,0.0209206689418872,0.0219516353862381,0.0197075011213762,-9.37574654641563e-05,critical
1500,9.393939393939394,0.0,anode,0.0209926459373589,0.0218930457429714,0.0199582130650945,2.2615465552534308e-05,critical
1500,9.494949494949497,0.0,anode,0.0211578525671183,0.0221608193715176,0.0199870231579413,1.3232488802388198e-05,critical
1500,9.595959595959595,0.0,anode,0.0212530140931961,0.022347595874897,0.0199558718440989,3.875092660035484e-05,critical
1500,9.696969696969695,0.0,anode,0.0215924304561886,0.0226378886758469,0.0203675394869514,-1.2597080367979536e-05,critical
1500,9.797979797979798,0.0,anode,0.0218698114490174,0.0230134805464803,0.0205107994230008,1.0901005565605823e-05,critical
1500,9.8989898989899,0.0,anode,0.022233053261722,0.0234127651062557,0.0208267103034411,5.8027651180117856e-05,critical
1500,10.0,0.0,anode,0.0223298838406418,0.0233723206511976,0.0211155900815773,-5.926591720466097e-05,critical
1500,0.0,0.1012658227848101,anode,0.0223874424936882,0.0235478521436262,0.0210105402215592,-4.66727020273708e-05,critical
1500,0.101010101010101,0.1012658227848101,anode,0.0220155018622573,0.0230560220457188,0.0208010916870145,4.89312906862e-05,critical
1500,0.202020202020202,0.1012658227848101,anode,0.0218230496295567,0.0229300045158997,0.02051520622768,1.255542364200512e-05,critical
1500,0.303030303030303,0.1012658227848101,anode,0.0215961440196405,0.0226157820563043,0.0204065501740278,2.966339234573017e-05,critical
1500,0.404040404040404,0.1012658227848101,anode,0.0213175866465075,0.0224018888716205,0.0200358543761697,1.1518315373728082e-05,critical
1500,0.5050505050505051,0.1012658227848101,anode,0.0212165176387657,0.0222461062653476,0.0200096965879844,2.0460021082399837e-05,critical
1500,0.6060606060606061,0.1012658227848101,anode,0.0209882383364236,0.0220296665110737,0.0197625720499358,3.4445655974294746e-05,critical
1500,0.7070707070707071,0.1012658227848101,anode,0.0208192903810726,0.0219476705519344,0.0194659680166373,-0.0001308325826836,critical
1500,0.8080808080808081,0.1012658227848101,anode,0.0206142634707914,0.0216477039526932,0.0193958801703179,1.709061513240519e-05,critical
1500,0.9090909090909092,0.1012658227848101,anode,0.0204283782039267,0.0214677969911596,0.0191982248009985,8.960189327368908e-05,critical
1500,1.0101010101010102,0.1012658227848101,anode,0.0204462842462351,0.0214834426885737,0.0192201802397957,-6.465786904202662e-05,critical
1500,1.1111111111111112,0.1012658227848101,anode,0.0201811238106093,0.021134360946453,0.0190681555547169,7.13476507491247e-05,critical
1500,1.2121212121212122,0.1012658227848101,anode,0.0200943824948043,0.0209224503961221,0.0191485330869334,3.261675330994814e-05,critical
1500,1.3131313131313131,0.1012658227848101,anode,0.0199762628701667,0.0208671377150069,0.0189465509561486,2.6687908321550587e-05,critical
1500,1.414141414141414,0.1012658227848101,anode,0.0197456254548984,0.0206452535199153,0.0187023193155203,-1.4231458100721338e-05,critical
1500,1.5151515151515151,0.1012658227848101,anode,0.0197463617774285,0.0207220602410808,0.0185988268866359,-3.9464791734314496e-05,critical
1500,1.616161616161616,0.1012658227848101,anode,0.0194118360841437,0.020434831523634,0.0181932499693977,7.893943115133092e-05,critical
1500,1.7171717171717171,0.1012658227848101,anode,0.0192589759243407,0.0201431233292786,0.0182323727595769,9.180290198510044e-06,critical
1500,1.818181818181818,0.1012658227848101,anode,0.0193527727371466,0.0201938872891343,0.0183842053990181,4.579790447939513e-05,critical
1500,1.9191919191919191,0.1012658227848101,anode,0.0192239681930801,0.0202824372207487,0.0179531019565528,-2.879215197246245e-05,critical
1500,2.0202020202020203,0.1012658227848101,anode,0.0191916303998324,0.0200905351936749,0.0181444147383902,9.826953263210624e-06,critical
1500,2.121212121212121,0.1012658227848101,anode,0.0191850681327541,0.0200878842709587,0.0181324304877554,-1.7074063550599993e-05,critical
1500,2.2222222222222223,0.1012658227848101,anode,0.0189493040805535,0.0198761243402291,0.0178614869213634,8.684418824318548e-06,critical
1500,2.323232323232323,0.1012658227848101,anode,0.0188803170176861,0.0198330079902823,0.0177556712866436,-2.9846313071821992e-05,critical
1500,2.4242424242424243,0.1012658227848101,anode,0.0187957562005538,0.0197267289403948,0.0176996619784287,7.074955191138013e-05,critical
1500,2.525252525252525,0.1012658227848101,anode,0.0187403516953591,0.0196337257388694,0.0176964813300359,-1.2634927146460402e-06,critical
1500,2.6262626262626263,0.1012658227848101,anode,0.0186800011809408,0.0196358154403918,0.0175487649715464,2.801352258569033e-05,critical
1500,2.727272727272727,0.1012658227848101,anode,0.018551497375723,0.0194112949011055,0.0175514128429206,3.287849406519039e-05,critical
1500,2.8282828282828283,0.1012658227848101,anode,0.0185663710160461,0.0194557431096755,0.0175260983041598,3.335320759060417e-05,critical
1500,2.929292929292929,0.1012658227848101,anode,0.0185543880044979,0.0195221839828543,0.0174045433657689,-4.551451862626683e-05,critical
1500,3.0303030303030303,0.1012658227848101,anode,0.0184365799405473,0.0194295119450997,0.0172498751055038,-1.7066346945530837e-06,critical
1500,3.131313131313131,0.1012658227848101,anode,0.018271412801618,0.0192338568547237,0.0171257444821119,4.571685340816181e-05,critical
1500,3.2323232323232323,0.1012658227848101,anode,0.0183989526949639,0.019290587317652,0.0173540301077737,2.4312803310409013e-05,critical
1500,3.333333333333333,0.1012658227848101,anode,0.0182891075162006,0.0192793312815367,0.0171038089901747,-5.34066201555543e-05,critical
1500,3.4343434343434343,0.1012658227848101,anode,0.0181803418124315,0.0191674298192701,0.0169986890329759,8.421392313022366e-06,critical
1500,3.5353535353535355,0.1012658227848101,anode,0.018165525848542,0.0191657412606957,0.0169639973363289,-6.0743587730510464e-05,critical
1500,3.636363636363636,0.1012658227848101,anode,0.0180470222529682,0.0189074345199117,0.0170410996753361,-5.269468141265811e-05,critical
1500,3.7373737373737375,0.1012658227848101,anode,0.0182137924981854,0.0189612369044101,0.0173600721598606,5.7930207992165465e-05,critical
1500,3.8383838383838382,0.1012658227848101,anode,0.0182411813414955,0.0191247782504592,0.0172057299242437,-2.6961803369485216e-05,critical
1500,3.939393939393939,0.1012658227848101,anode,0.0181750951007103,0.0190948261496099,0.0170879559891888,-7.072296498703973e-05,critical
1500,4.040404040404041,0.1012658227848101,anode,0.0181598521437703,0.0191727683354268,0.0169403214006211,3.441329730809051e-05,critical
1500,4.141414141414141,0.1012658227848101,anode,0.018287459098923,0.0191695602180827,0.0172546636792731,-2.387316890523491e-06,critical
1500,4.242424242424242,0.1012658227848101,anode,0.0180080350836907,0.0188519239848899,0.0170248321774667,8.583658369027133e-06,critical
1500,4.343434343434343,0.1012658227848101,anode,0.0179747674651749,0.0188345050481185,0.0169695738515432,1.604875739663469e-05,critical
1500,4.444444444444445,0.1012658227848101,anode,0.018058856642381,0.0189617998933057,0.0169944219461401,-4.795483279568119e-05,critical
1500,4.545454545454545,0.1012658227848101,anode,0.0180395970806449,0.0189295343084656,0.0169931136829347,-4.324166301252237e-05,critical
1500,4.646464646464646,0.1012658227848101,anode,0.0179355603658476,0.0187313728473129,0.0170163514183584,-3.3685887338292694e-05,critical
1500,4.747474747474747,0.1012658227848101,anode,0.0179992872583458,0.0188278323733394,0.0170363717730279,4.850681574659388e-05,critical
1500,4.848484848484849,0.1012658227848101,anode,0.0180113292533421,0.0188993871298331,0.0169673044353106,3.3580059334825275e-05,critical
1500,4.94949494949495,0.1012658227848101,anode,0.0180687887640422,0.0190099328137936,0.0169512914845879,-8.387455215535698e-06,critical
1500,5.05050505050505,0.1012658227848101,anode,0.0180039476007963,0.0187883907729776,0.0171006405337912,6.097137449454687e-06,critical
1500,5.151515151515151,0.1012658227848101,anode,0.0179135361293608,0.0187495006905439,0.0169401207631114,-2.6551774992109035e-05,critical
1500,5.252525252525253,0.1012658227848101,anode,0.0180201904652126,0.0189692834628983,0.0168908289755217,1.1084319797617794e-05,critical
1500,5.353535353535354,0.1012658227848101,anode,0.0180693657904716,0.0189768218880788,0.0169991545487867,-1.716434980557395e-05,critical
1500,5.454545454545454,0.1012658227848101,anode,0.0180012747601438,0.0189250453435534,0.0169073164405808,-3.126653429491418e-05,critical
1500,5.555555555555555,0.1012658227848101,anode,0.018123192669566,0.0190877888914287,0.0169725173358394,5.135147420016102e-05,critical
1500,5.656565656565657,0.1012658227848101,anode,0.0182006432177442,0.018987575721201,0.0172950198240086,-5.21841817125092e-05,critical
1500,5.757575757575758,0.1012658227848101,anode,0.0180803923106226,0.019003288798978,0.0169853700104501,-0.0001299976959338,critical
1500,5.858585858585858,0.1012658227848101,anode,0.0180472995187665,0.0189627258171891,0.0169657639473087,-3.326577195328361e-06,critical
1500,5.959595959595959,0.1012658227848101,anode,0.0182755594851519,0.0191251182474197,0.0172863192470587,6.322728564824499e-05,critical
1500,6.0606060606060606,0.1012658227848101,anode,0.0181671327834684,0.0191094764925123,0.0170490490427072,-1.7798829163095573e-05,critical
1500,6.161616161616162,0.1012658227848101,anode,0.0182380179157328,0.0191121491544586,0.0172155331214212,2.773882773753788e-05,critical
1500,6.262626262626262,0.1012658227848101,anode,0.0181760640245589,0.0191190456296765,0.0170572403483434,5.940549834306923e-06,critical
1500,6.363636363636363,0.1012658227848101,anode,0.0182615213500671,0.0191948144164603,0.0171573237359483,7.041570009754318e-06,critical
1500,6.4646464646464645,0.1012658227848101,anode,0.0182704538499529,0.0191020802173794,0.0173061396256757,-1.6471101016828845e-05,critical
1500,6.565656565656566,0.1012658227848101,anode,0.0181768759544728,0.0191074764508373,0.0170754802553926,1.2570591858267542e-05,critical
1500,6.666666666666667,0.1012658227848101,anode,0.0182793433048626,0.019080719770472,0.0173553168536628,-4.257941287791626e-05,critical
1500,6.767676767676767,0.1012658227848101,anode,0.018378870384882,0.0193500897637977,0.0172208962842341,8.85491161201655e-05,critical
1500,6.8686868686868685,0.1012658227848101,anode,0.0184742442161974,0.0193107897105433,0.017505092001691,-1.2430581845658946e-06,critical
1500,6.96969696969697,0.1012658227848101,anode,0.0185316364898626,0.0194933008190738,0.0173900330202524,5.3760708821524906e-05,critical
1500,7.070707070707071,0.1012658227848101,anode,0.018567564001482,0.019446085330594,0.0175414967583252,6.716281407061125e-05,critical
1500,7.171717171717171,0.1012658227848101,anode,0.0185661345551264,0.0194559121978264,0.0175252605300608,-3.654376334382749e-05,critical
1500,7.272727272727272,0.1012658227848101,anode,0.0186421122959028,0.0195176897505169,0.017621357830827,-3.6882599758586216e-05,critical
1500,7.373737373737374,0.1012658227848101,anode,0.0186688595420177,0.019474470720005,0.0177399107762517,-0.0001186667792553,critical
1500,7.474747474747475,0.1012658227848101,anode,0.0188422963454556,0.0198963187196842,0.0175704873719203,-0.0001074295114884,critical
1500,7.575757575757575,0.1012658227848101,anode,0.0187996857131024,0.0197892075084978,0.0176222568112872,-2.588938446256037e-05,critical
1500,7.6767676767676765,0.1012658227848101,anode,0.0188419280735362,0.0197677834785289,0.0177543394136471,1.0942160304633725e-05,critical
1500,7.777777777777778,0.1012658227848101,anode,0.0189196506232567,0.019780257894543,0.0179201320897631,-9.708665665115672e-05,critical
1500,7.878787878787879,0.1012658227848101,anode,0.0190268634718399,0.01989496042922,0.01801895302361,-7.250841201388798e-05,critical
1500,7.979797979797979,0.1012658227848101,anode,0.0191592326918598,0.020077961991067,0.0180846464307172,3.947989855153222e-06,critical
1500,8.080808080808081,0.1012658227848101,anode,0.019203417832102,0.0200915178609017,0.0181708471617674,-2.81673653749279e-05,critical
1500,8.181818181818182,0.1012658227848101,anode,0.0193697018963224,0.0201532482064508,0.0184754609893133,-9.97172004159462e-05,critical
1500,8.282828282828282,0.1012658227848101,anode,0.0193677322376292,0.0203573040674258,0.0181963481562439,-5.980313545752461e-05,critical
1500,8.383838383838384,0.1012658227848101,anode,0.0195357683606163,0.0204361040513992,0.0184897033098762,9.467011572946465e-06,critical
1500,8.484848484848484,0.1012658227848101,anode,0.0197669451460186,0.020709158769925,0.0186659767785747,-1.6842928240769997e-05,critical
1500,8.585858585858587,0.1012658227848101,anode,0.0197949389240192,0.0207592426545075,0.0186639325960806,-7.683647066481159e-06,critical
1500,8.686868686868687,0.1012658227848101,anode,0.0198802028992027,0.0208224266773395,0.0187786345200931,-9.770795984596868e-05,critical
1500,8.787878787878787,0.1012658227848101,anode,0.0199173217552777,0.0209334362753846,0.0187155348284323,-7.379795267254069e-06,critical
1500,8.88888888888889,0.1012658227848101,anode,0.0201238089731112,0.0210253306443672,0.0190811705721465,1.716479428025782e-06,critical
1500,8.98989898989899,0.1012658227848101,anode,0.0202869568050755,0.0211486546975716,0.0192983644919049,-2.9414841148660056e-05,critical
1500,9.09090909090909,0.1012658227848101,anode,0.0203123983965131,0.0212005388452813,0.0192891126921992,1.1485614237558492e-05,critical
1500,9.191919191919192,0.1012658227848101,anode,0.0207351297741047,0.0217692242952028,0.0195170061378819,-3.181160373728584e-05,critical
1500,9.292929292929292,0.1012658227848101,anode,0.0208336726268606,0.0218679889049936,0.0196162688950703,-3.3274441363563766e-05,critical
1500,9.393939393939394,0.1012658227848101,anode,0.0210678013152486,0.0220664273048183,0.0199016264604311,-5.194877662758657e-05,critical
1500,9.494949494949497,0.1012658227848101,anode,0.0211994942716545,0.0221799002286293,0.0200597419367752,-1.1710702628856969e-05,critical
1500,9.595959595959595,0.1012658227848101,anode,0.0214744862656758,0.022581775778271,0.0201607146853287,9.536771842440296e-05,critical
1500,9.696969696969695,0.1012658227848101,anode,0.0215652175637436,0.0226154300218685,0.020333526158463,5.335266876070277e-06,critical
1500,9.797979797979798,0.1012658227848101,anode,0.0219017439288983,0.022917762460077,0.0207194899146446,-5.667681844163668e-05,critical
1500,9.8989898989899,0.1012658227848101,anode,0.022041071808631,0.0230503333060972,0.0208684401557,8.885866351990447e-05,critical
1500,10.0,0.1012658227848101,anode,0.022376474168599,0.0235337805604786,0.0210034417054666,6.731365770431382e-05,critical
1500,0.0,0.2025316455696202,anode,0.0223697392093303,0.0234060102479424,0.0211629811002859,-0.0001050397161553,critical
1500,0.101010101010101,0.2025316455696202,anode,0.0221085165519903,0.0232148501107015,0.0208038309205668,-7.228195969999853e-05,critical
1500,0.202020202020202,0.2025316455696202,anode,0.0218646667696388,0.022904414227811,0.0206502068266813,-2.09036819620964e-05,critical
1500,0.303030303030303,0.2025316455696202,anode,0.0216540198498454,0.0227684676002222,0.0203336242669028,2.9711297621090456e-05,critical
1500,0.404040404040404,0.2025316455696202,anode,0.0215209224896334,0.0225030589928553,0.0203812955167493,4.7360996766235e-05,critical
1500,0.5050505050505051,0.2025316455696202,anode,0.0212739809253735,0.0222333085331983,0.0201628172902696,5.535555690623237e-05,critical
1500,0.6060606060606061,0.2025316455696202,anode,0.0209372950723634,0.0218289384811803,0.0199135684713913,-5.663205818628153e-05,critical
1500,0.7070707070707071,0.2025316455696202,anode,0.0208367458575557,0.0218805534028432,0.0196054393610101,-7.296369926433221e-05,critical
1500,0.8080808080808081,0.2025316455696202,anode,0.0206363469288277,0.0215193728482263,0.019622283662248,-1.4479017044835402e-05,critical
1500,0.9090909090909092,0.2025316455696202,anode,0.0205461659840481,0.0215607645863804,0.0193520512946565,8.465618971352477e-05,critical
1500,1.0101010101010102,0.2025316455696202,anode,0.0201756872645946,0.0210289418251534,0.019197554121242,-6.50322622615938e-06,critical
1500,1.1111111111111112,0.2025316455696202,anode,0.020226013147989,0.0212095733002974,0.0190726591843027,2.734302121515745e-05,critical
1500,1.2121212121212122,0.2025316455696202,anode,0.020032437898637,0.0209809287301226,0.0189254455340551,6.6597698641947415e-06,critical
1500,1.3131313131313131,0.2025316455696202,anode,0.0200058506477317,0.0209635382877519,0.0188842082111676,-0.0001010358076284,critical
1500,1.414141414141414,0.2025316455696202,anode,0.0197175310516023,0.0206005578957495,0.018695692931107,-6.004334254668149e-05,critical
1500,1.5151515151515151,0.2025316455696202,anode,0.0198747392271914,0.0207804474082447,0.0188243469606403,-1.3884975151053129e-05,critical
1500,1.616161616161616,0.2025316455696202,anode,0.0196403547184192,0.02058037413692,0.0185391827590163,0.0001060720679694,critical
1500,1.7171717171717171,0.2025316455696202,anode,0.0193901331420727,0.0203860981878847,0.0182100512787218,5.8280191000939136e-05,critical
1500,1.818181818181818,0.2025316455696202,anode,0.0193907750676179,0.0204079936026355,0.0181797269488213,9.171363629069188e-05,critical
1500,1.9191919191919191,0.2025316455696202,anode,0.0191739540876527,0.0200173178223425,0.0182003155668351,7.641332917633937e-05,critical
1500,2.0202020202020203,0.2025316455696202,anode,0.0191677102380615,0.020109203478396,0.0180607772966224,7.576347479009165e-05,critical
1500,2.121212121212121,0.2025316455696202,anode,0.0189641979135573,0.0198516666558397,0.017930440429173,1.3734363301489178e-05,critical
1500,2.2222222222222223,0.2025316455696202,anode,0.0188342198710401,0.0197605236987936,0.0177455832397727,-4.4101923001982506e-05,critical
1500,2.323232323232323,0.2025316455696202,anode,0.0188119495538279,0.0197075313519077,0.017765631276683,-2.404677350154183e-05,critical
1500,2.4242424242424243,0.2025316455696202,anode,0.0187696616449649,0.0197930818783453,0.0175434279807125,1.5802512805177637e-05,critical
1500,2.525252525252525,0.2025316455696202,anode,0.0185920310726638,0.0194991471206963,0.017527724636113,2.1843561644177388e-05,critical
1500,2.6262626262626263,0.2025316455696202,anode,0.0186582171383541,0.0195445750425204,0.0176231329575777,1.268230382001578e-05,critical
1500,2.727272727272727,0.2025316455696202,anode,0.0185233842225685,0.0193489779423078,0.0175671835527682,-0.0001063402390491,critical
1500,2.8282828282828283,0.2025316455696202,anode,0.018516672598761,0.0194116455306161,0.0174683542520929,-2.06751998135216e-05,critical
1500,2.929292929292929,0.2025316455696202,anode,0.0184320372166816,0.0193867463886534,0.0172996142606044,1.4618998257440289e-05,critical
1500,3.0303030303030303,0.2025316455696202,anode,0.0183630647634641,0.0192351355584178,0.0173443612035249,4.465020377244123e-05,critical
1500,3.131313131313131,0.2025316455696202,anode,0.0184225947723532,0.0192585001575688,0.0174537814616012,-2.109933918895801e-05,critical
1500,3.2323232323232323,0.2025316455696202,anode,0.0184162019955211,0.0193190589641409,0.0173560694774138,-8.918051902904167e-06,critical
1500,3.333333333333333,0.2025316455696202,anode,0.0183811629916141,0.0192709737193041,0.0173385435944683,2.73788050866284e-05,critical
1500,3.4343434343434343,0.2025316455696202,anode,0.0181746116272678,0.0191033230771014,0.0170756234660049,3.554469088142276e-05,critical
1500,3.5353535353535355,0.2025316455696202,anode,0.0182163780379643,0.0191345807509075,0.0171324070060831,4.583958352682973e-05,critical
1500,3.636363636363636,0.2025316455696202,anode,0.0181913767846428,0.0190714433911263,0.0171597723527099,5.795438550976412e-05,critical
1500,3.7373737373737375,0.2025316455696202,anode,0.018166827823003,0.0191735764584678,0.0169558182698952,-6.192402316068406e-05,critical
1500,3.8383838383838382,0.2025316455696202,anode,0.0181858334975307,0.0189659667653968,0.0172895928600295,1.247609384938522e-05,critical
1500,3.939393939393939,0.2025316455696202,anode,0.0181160992697938,0.0190277733459005,0.0170400288378313,-5.2019194546973005e-05,critical
1500,4.040404040404041,0.2025316455696202,anode,0.0180073376858574,0.0187732485412367,0.0171277348736537,6.65120810809596e-05,critical
1500,4.141414141414141,0.2025316455696202,anode,0.0180715110597933,0.0189027875278338,0.0171055174766993,-4.956454321264452e-05,critical
1500,4.242424242424242,0.2025316455696202,anode,0.0180775519243126,0.018996355043915,0.0169899542180419,9.135424888705358e-05,critical
1500,4.343434343434343,0.2025316455696202,anode,0.0180667828804144,0.0188951488091794,0.0171047189224882,-4.759232878323541e-05,critical
1500,4.444444444444445,0.2025316455696202,anode,0.0179909159976963,0.01876941270737,0.0170948124290862,-5.53254237538442e-05,critical
1500,4.545454545454545,0.2025316455696202,anode,0.0180820391790899,0.0190322585502006,0.0169518108950581,1.449804009808791e-05,critical
1500,4.646464646464646,0.2025316455696202,anode,0.01806432256625,0.0189223008355253,0.0170622984159221,2.7062920610743785e-05,critical
1500,4.747474747474747,0.2025316455696202,anode,0.0179420587487083,0.0188988853571945,0.0167997878961676,-6.830450535483731e-05,critical
1500,4.848484848484849,0.2025316455696202,anode,0.0179860542478996,0.0188476155198866,0.0169771029051758,-8.450200843676435e-05,critical
1500,4.94949494949495,0.2025316455696202,anode,0.0180046901389082,0.0188398664686566,0.0170324243131279,-6.688337034385728e-05,critical
1500,5.05050505050505,0.2025316455696202,anode,0.0180195788015546,0.0188694918799462,0.0170278345511718,4.807172559180071e-05,critical
1500,5.151515151515151,0.2025316455696202,anode,0.0180284254773009,0.0188797370336001,0.01703486759813,4.747385866360875e-05,critical
1500,5.252525252525253,0.2025316455696202,anode,0.0179430559231424,0.0188148672576549,0.0169203998531487,-5.529294964623295e-05,critical
1500,5.353535353535354,0.2025316455696202,anode,0.0181094924134908,0.0189994341138158,0.0170625552991962,8.816785381679084e-05,critical
1500,5.454545454545454,0.2025316455696202,anode,0.0180942070255937,0.0189510402837619,0.0170918560146351,-0.0001084894478268,critical
1500,5.555555555555555,0.2025316455696202,anode,0.018150015358305,0.0190079842349242,0.0171487333965971,3.361435929371395e-05,critical
1500,5.656565656565657,0.2025316455696202,anode,0.0181528652297989,0.0190936598962701,0.0170353703538593,-8.639534565396978e-05,critical
1500,5.757575757575758,0.2025316455696202,anode,0.0179783206125758,0.0189085959967387,0.0168747748873424,-4.196372588596136e-05,critical
1500,5.858585858585858,0.2025316455696202,anode,0.0181686327563742,0.0191508519837239,0.0169936136465832,-3.346330556913159e-05,critical
1500,5.959595959595959,0.2025316455696202,anode,0.018137592619435,0.0189759454064258,0.017162107919745,7.079702494459128e-05,critical
1500,6.0606060606060606,0.2025316455696202,anode,0.0181715225398123,0.0191108100618211,0.017056032274513,-9.578874879149362e-05,critical
1500,6.161616161616162,0.2025316455696202,anode,0.0182019018013431,0.019150641588654,0.0170752465240957,3.5726216832457656e-06,critical
1500,6.262626262626262,0.2025316455696202,anode,0.0182628240090044,0.0191544595800679,0.0172165433806395,-2.3361613198936227e-05,critical
1500,6.363636363636363,0.2025316455696202,anode,0.0182029097304317,0.0190597607868815,0.0172038161193248,1.604358010202419e-05,critical
1500,6.4646464646464645,0.2025316455696202,anode,0.018248016185899,0.0191381621164957,0.0172033791444689,4.339951458149576e-05,critical
1500,6.565656565656566,0.2025316455696202,anode,0.0183367294745209,0.0190879840049378,0.0174793489589804,2.832998962424237e-05,critical
1500,6.666666666666667,0.2025316455696202,anode,0.0184510118837411,0.019288944487265,0.0174796748742124,2.519720298652321e-05,critical
1500,6.767676767676767,0.2025316455696202,anode,0.0182891729304388,0.0191634491370262,0.0172669899229608,2.7115743759167783e-05,critical
1500,6.8686868686868685,0.2025316455696202,anode,0.0184113744692972,0.0192068096552159,0.0174953197863268,8.212852583511055e-05,critical
1500,6.96969696969697,0.2025316455696202,anode,0.018444439981531,0.0193089366283114,0.0174371878000228,-1.1080756523705516e-05,critical
1500,7.070707070707071,0.2025316455696202,anode,0.0184624915287305,0.0193171031743199,0.017467971378632,6.757633589817503e-05,critical
1500,7.171717171717171,0.2025316455696202,anode,0.0185940632347491,0.0194889572197621,0.0175450437510083,9.270189065259691e-05,critical
1500,7.272727272727272,0.2025316455696202,anode,0.0185057443024773,0.0194260915092383,0.0174222143928928,-2.249148990867924e-05,critical
1500,7.373737373737374,0.2025316455696202,anode,0.0186329389890829,0.0194240484573113,0.017725296227474,-3.4849150426740953e-05,critical
1500,7.474747474747475,0.2025316455696202,anode,0.0187722896952135,0.019560540336258,0.0178683488499002,-8.324652888682608e-05,critical
1500,7.575757575757575,0.2025316455696202,anode,0.0188558726644626,0.0197754676538713,0.0177767563709851,-4.2491336076847074e-05,critical
1500,7.6767676767676765,0.2025316455696202,anode,0.0187974068475354,0.0196529704561226,0.0178051825935749,-3.3944706982841626e-05,critical
1500,7.777777777777778,0.2025316455696202,anode,0.0188860688720911,0.019727991802722,0.0179128836149843,-3.5395803201760604e-05,critical
1500,7.878787878787879,0.2025316455696202,anode,0.0190612845121996,0.0199060282855079,0.018084187296846,9.85204134697283e-05,critical
1500,7.979797979797979,0.2025316455696202,anode,0.0190938832036823,0.0199741593809585,0.0180707325919753,4.339482321837192e-05,critical
1500,8.080808080808081,0.2025316455696202,anode,0.0191633747082985,0.0200479373364254,0.0181352868420906,-2.3123644772331774e-05,critical
1500,8.181818181818182,0.2025316455696202,anode,0.0193527942771643,0.020237357737961,0.0183262171658943,-3.640182357262678e-05,critical
1500,8.282828282828282,0.2025316455696202,anode,0.0195345616296006,0.0204288716263774,0.0184961954129812,4.986330197491876e-05,critical
1500,8.383838383838384,0.2025316455696202,anode,0.0194341089917335,0.0203881672385251,0.0183131757776862,4.800109737605786e-05,critical
1500,8.484848484848484,0.2025316455696202,anode,0.0195669321256174,0.0204768409420666,0.0185081869784747,3.3414517799383107e-06,critical
1500,8.585858585858587,0.2025316455696202,anode,0.0198812385618201,0.0208372161108413,0.0187625341063628,-1.100561951878803e-05,critical
1500,8.686868686868687,0.2025316455696202,anode,0.0201083559682179,0.0210176554351042,0.0190535732822588,-9.473293587183311e-05,critical
1500,8.787878787878787,0.2025316455696202,anode,0.0200128955807056,0.0209446843405177,0.0189282431569914,3.5946413158942386e-05,critical
1500,8.88888888888889,0.2025316455696202,anode,0.0201506276774365,0.0211021127182916,0.0190403461885835,4.2359984503213326e-05,critical
1500,8.98989898989899,0.2025316455696202,anode,0.0202882721889759,0.0212935009671675,0.019105704553935,8.100835116857265e-06,critical
1500,9.09090909090909,0.2025316455696202,anode,0.0204124349131591,0.0213787299943091,0.0192845580257266,-2.934710868288888e-05,critical
1500,9.191919191919192,0.2025316455696202,anode,0.0206507053930401,0.0216430136825163,0.0194886986117049,-7.391233150824828e-05,critical
1500,9.292929292929292,0.2025316455696202,anode,0.0208728456570408,0.0218529348939601,0.0197298062989613,6.791727835630869e-05,critical
1500,9.393939393939394,0.2025316455696202,anode,0.0209856370347596,0.0218936029187918,0.0199411816170649,-1.5283539157658006e-05,critical
1500,9.494949494949497,0.2025316455696202,anode,0.0212028557283371,0.0222446726315946,0.0199783438082088,6.614873623387881e-05,critical
1500,9.595959595959595,0.2025316455696202,anode,0.0214957912643814,0.0225364862292285,0.0202734819779626,-0.000135162156611,critical
1500,9.696969696969695,0.2025316455696202,anode,0.0217857522904775,0.0227732305597206,0.0206404453731831,8.288319353595966e-05,critical
1500,9.797979797979798,0.2025316455696202,anode,0.0219230768191681,0.0230027710002672,0.0206538605595459,5.129079818375759e-05,critical
1500,9.8989898989899,0.2025316455696202,anode,0.0222432775841413,0.0232753601334187,0.0210422529772316,-5.948123115538332e-05,critical
1500,10.0,0.2025316455696202,anode,0.0223443918684699,0.0233715762308997,0.0211514130671974,-1.6937207855563094e-05,critical
1500,0.0,0.3037974683544304,anode,0.0224498909271194,0.0235713538151783,0.0211286452345318,1.2872530081672896e-06,critical
1500,0.101010101010101,0.3037974683544304,anode,0.0221689277748931,0.0231842292354767,0.0209901845183224,-4.574166522192993e-05,critical
1500,0.202020202020202,0.3037974683544304,anode,0.0220065971773528,0.0230191189289357,0.0208298841895051,6.321694858014859e-05,critical
1500,0.303030303030303,0.3037974683544304,anode,0.0217060086839561,0.0228316198577436,0.0203700857156577,-5.6595423170961735e-05,critical
1500,0.404040404040404,0.3037974683544304,anode,0.0215216580676967,0.0225682734540577,0.0202939844008802,-5.5334901598178754e-05,critical
1500,0.5050505050505051,0.3037974683544304,anode,0.0211839706786499,0.0222687796190847,0.0199000047747663,1.5261092348415432e-05,critical
1500,0.6060606060606061,0.3037974683544304,anode,0.0210525373200805,0.0220406236738354,0.0199005530352063,5.423690278823397e-05,critical
1500,0.7070707070707071,0.3037974683544304,anode,0.0207327903710404,0.0217742837535333,0.0195044595742997,-1.6906948782937206e-05,critical
1500,0.8080808080808081,0.3037974683544304,anode,0.0206455921215809,0.0216766701282381,0.0194308222686022,1.9294257693157288e-05,critical
1500,0.9090909090909092,0.3037974683544304,anode,0.020165161659305,0.0211255681103457,0.0190411925735605,-0.0001050599076607,critical
1500,1.0101010101010102,0.3037974683544304,anode,0.0203418212355842,0.0213443120549154,0.0191627977603448,-6.819413713018419e-05,critical
1500,1.1111111111111112,0.3037974683544304,anode,0.0201655616727909,0.0210692538246265,0.0191203519443221,6.074783037651034e-06,critical
1500,1.2121212121212122,0.3037974683544304,anode,0.0201959730562047,0.0211076072788495,0.0191401414023204,3.567319165894963e-05,critical
1500,1.3131313131313131,0.3037974683544304,anode,0.0198444082540183,0.0208496715125302,0.0186570154009457,-7.202188248127364e-06,critical
1500,1.414141414141414,0.3037974683544304,anode,0.0198833617133737,0.0208635612375492,0.0187300488483175,8.30196376136961e-05,critical
1500,1.5151515151515151,0.3037974683544304,anode,0.0196942270131831,0.020727431266852,0.0184650085231681,6.278526857249839e-05,critical
1500,1.616161616161616,0.3037974683544304,anode,0.019566904017343,0.0205549268302034,0.0184004950191921,-2.1036766219938927e-05,critical
1500,1.7171717171717171,0.3037974683544304,anode,0.0195945303440925,0.0205458335929543,0.0184794421990077,5.822403757217383e-06,critical
1500,1.818181818181818,0.3037974683544304,anode,0.019414658271451,0.0203791185412114,0.0182795100356808,9.967084530353625e-06,critical
1500,1.9191919191919191,0.3037974683544304,anode,0.0192699606545662,0.0201917147030239,0.018190829940476,8.906070255167423e-05,critical
1500,2.0202020202020203,0.3037974683544304,anode,0.0191927891823995,0.0200947786927417,0.0181412308408648,-3.048731616642265e-05,critical
1500,2.121212121212121,0.3037974683544304,anode,0.0190184130164901,0.0199005692478466,0.0179923873133903,6.473191214367566e-06,critical
1500,2.2222222222222223,0.3037974683544304,anode,0.0190603179746729,0.0200903633035212,0.0178258975331904,0.000114248876725,critical
1500,2.323232323232323,0.3037974683544304,anode,0.0188792515081816,0.0197314102344597,0.0178916668952304,6.748497819516149e-05,critical
1500,2.4242424242424243,0.3037974683544304,anode,0.0189227343389334,0.0198439292165079,0.0178423707794326,-1.7280847524511208e-05,critical
1500,2.525252525252525,0.3037974683544304,anode,0.0186549741260784,0.0195659230788001,0.0175858647351442,3.536438112774659e-05,critical
1500,2.6262626262626263,0.3037974683544304,anode,0.0187455528210255,0.0196931325069297,0.0176260143635204,-6.147280480109493e-05,critical
1500,2.727272727272727,0.3037974683544304,anode,0.0186033849109894,0.0195467574112935,0.0174887495417694,2.701256230943569e-05,critical
1500,2.8282828282828283,0.3037974683544304,anode,0.018702535295153,0.0195463418690214,0.017725493626418,1.61237374346332e-05,critical
1500,2.929292929292929,0.3037974683544304,anode,0.0184415251360431,0.0192663393601177,0.0174878147898275,-1.3232390605392055e-05,critical
1500,3.0303030303030303,0.3037974683544304,anode,0.0184818814250688,0.0194444500917693,0.0173383053547466,5.854403126062421e-05,critical
1500,3.131313131313131,0.3037974683544304,anode,0.0183528706170471,0.0192331088306842,0.0173227472022499,-5.194916544827916e-05,critical
1500,3.2323232323232323,0.3037974683544304,anode,0.0185471601413208,0.0194119504699822,0.0175402827721333,-3.11391206030364e-05,critical
1500,3.333333333333333,0.3037974683544304,anode,0.0184251564553666,0.0193747926576549,0.0172982878103481,8.902877047766928e-05,critical
1500,3.4343434343434343,0.3037974683544304,anode,0.0184744360442034,0.0194156264451226,0.0173615190135614,-1.485624182398976e-05,critical
1500,3.5353535353535355,0.3037974683544304,anode,0.0182131761239949,0.0191031813627808,0.0171687496364718,-2.603984616851422e-06,critical
1500,3.636363636363636,0.3037974683544304,anode,0.0182777437948096,0.0190860383411241,0.0173441591828529,5.912717421435007e-05,critical
1500,3.7373737373737375,0.3037974683544304,anode,0.018176147087942,0.0190420202454623,0.0171641416767905,4.457853892687431e-05,critical
1500,3.8383838383838382,0.3037974683544304,anode,0.0183330552279597,0.0192227225077252,0.0172901684490679,2.606781878199846e-05,critical
1500,3.939393939393939,0.3037974683544304,anode,0.0180641439083908,0.0189321748412418,0.0170476011314826,-6.711142614287052e-05,critical
1500,4.040404040404041,0.3037974683544304,anode,0.0180909061707599,0.0189888074609834,0.017034120162903,2.86100526717399e-05,critical
1500,4.141414141414141,0.3037974683544304,anode,0.0181289535116049,0.0189478191426665,0.0171805848221551,2.0201542035217832e-05,critical
1500,4.242424242424242,0.3037974683544304,anode,0.0180357425186336,0.0189091707929617,0.0170123103940892,2.0379736058460445e-05,critical
1500,4.343434343434343,0.3037974683544304,anode,0.0180601778137539,0.0189795052892079,0.0169732931558543,1.1948690048054692e-05,critical
1500,4.444444444444445,0.3037974683544304,anode,0.0179545858265327,0.018803578531789,0.0169638473048647,-2.2406968478339427e-05,critical
1500,4.545454545454545,0.3037974683544304,anode,0.018009195134435,0.0189235762868636,0.0169284844379903,-3.2920213770255366e-05,critical
1500,4.646464646464646,0.3037974683544304,anode,0.0180703665934242,0.0189053421283567,0.0170998374003916,2.892770617977787e-06,critical
1500,4.747474747474747,0.3037974683544304,anode,0.0180634383346311,0.0188851582235439,0.0171101862391881,-5.386576650098744e-05,critical
1500,4.848484848484849,0.3037974683544304,anode,0.0180487376386331,0.0188927180650153,0.0170648495456382,6.936794753182544e-05,critical
1500,4.94949494949495,0.3037974683544304,anode,0.0180002314436027,0.018945400537944,0.016875983177888,3.455930394826802e-05,critical
1500,5.05050505050505,0.3037974683544304,anode,0.0179456355676,0.0188583073848815,0.0168663746247575,4.747863383899909e-05,critical
1500,5.151515151515151,0.3037974683544304,anode,0.0180281838921837,0.0189297881143684,0.0169651496715144,5.453325878040364e-05,critical
1500,5.252525252525253,0.3037974683544304,anode,0.0180661064616184,0.0187915199780776,0.0172407120558865,-2.0360520554975265e-06,critical
1500,5.353535353535354,0.3037974683544304,anode,0.0181902787997414,0.0191413690957952,0.0170594465390644,-5.96615618298691e-05,critical
1500,5.454545454545454,0.3037974683544304,anode,0.0179678542091551,0.0186426139091508,0.0172065034082829,-4.8893570284508345e-05,critical
1500,5.555555555555555,0.3037974683544304,anode,0.0179666985647847,0.0188744858137417,0.0168948482756715,2.3933457887340053e-05,critical
1500,5.656565656565657,0.3037974683544304,anode,0.0180390401865343,0.0187631201357279,0.0172133290844932,9.89225298662202e-05,critical
1500,5.757575757575758,0.3037974683544304,anode,0.0180809194732396,0.0189234920822704,0.0170998733418631,3.9773922940006566e-05,critical
1500,5.858585858585858,0.3037974683544304,anode,0.018203602836274,0.0189580476351221,0.0173406454438177,-5.88331672568532e-05,critical
1500,5.959595959595959,0.3037974683544304,anode,0.018187480443732,0.0190616484430461,0.0171646021650631,4.007290998118929e-06,critical
1500,6.0606060606060606,0.3037974683544304,anode,0.0181143453186608,0.0189707313930068,0.0171143120552226,-6.376150945678451e-05,critical
1500,6.161616161616162,0.3037974683544304,anode,0.0180433204644526,0.0188502527647819,0.0171101427309075,-3.117228384888548e-05,critical
1500,6.262626262626262,0.3037974683544304,anode,0.0181898991909879,0.0190394165300952,0.0172003637027424,4.253732034376015e-05,critical
1500,6.363636363636363,0.3037974683544304,anode,0.0181921833125004,0.0191356402330887,0.0170716269443402,-7.93125023514774e-05,critical
1500,6.4646464646464645,0.3037974683544304,anode,0.0182396777039395,0.0191134270773083,0.0172178450926495,1.3965150432431515e-05,critical
1500,6.565656565656566,0.3037974683544304,anode,0.0183660922584066,0.0193042913884845,0.0172557784242951,-4.606025812311867e-05,critical
1500,6.666666666666667,0.3037974683544304,anode,0.0183205333908734,0.0192426867601274,0.0172325573591158,-1.4377991318022088e-05,critical
1500,6.767676767676767,0.3037974683544304,anode,0.0183279004256212,0.0191468110941987,0.0173808344005797,-4.361728109819126e-05,critical
1500,6.8686868686868685,0.3037974683544304,anode,0.0185359244882889,0.0196001706637114,0.0172458418809472,7.345863291426542e-05,critical
1500,6.96969696969697,0.3037974683544304,anode,0.0183347457659308,0.0192132895322672,0.0173058000848078,8.763312197552188e-05,critical
1500,7.070707070707071,0.3037974683544304,anode,0.0185243958705398,0.0194868443749587,0.0173813548676799,6.42883369470152e-05,critical
1500,7.171717171717171,0.3037974683544304,anode,0.0185465069971249,0.0194830629498967,0.0174408085777028,2.4134741035409545e-05,critical
1500,7.272727272727272,0.3037974683544304,anode,0.0186868052655494,0.0196109546769679,0.01759999330433,4.257705522083456e-06,critical
1500,7.373737373737374,0.3037974683544304,anode,0.0187038737789356,0.0196260095685889,0.0176197736670414,3.681150169176802e-05,critical
1500,7.474747474747475,0.3037974683544304,anode,0.0186125395803017,0.0195056874314526,0.0175674433097757,3.992151815289903e-05,critical
1500,7.575757575757575,0.3037974683544304,anode,0.0186493403088922,0.0195918807345094,0.0175363424461851,3.0147288042803955e-05,critical
1500,7.6767676767676765,0.3037974683544304,anode,0.0189100067808082,0.0197773431003343,0.0179026101414669,-5.056225151504921e-05,critical
1500,7.777777777777778,0.3037974683544304,anode,0.0189838397013915,0.0198774224501808,0.0179418903833497,2.121887305509394e-05,critical
1500,7.878787878787879,0.3037974683544304,anode,0.0190853528328703,0.0199979826087857,0.0180183796585525,1.439750380076746e-05,critical
1500,7.979797979797979,0.3037974683544304,anode,0.0191310339430311,0.0200208211512579,0.0180948628602314,-6.61596790683968e-05,critical
1500,8.080808080808081,0.3037974683544304,anode,0.0192152648086443,0.020099342626478,0.0181883802122354,6.797335360169852e-06,critical
1500,8.181818181818182,0.3037974683544304,anode,0.019208433274613,0.0200984587444503,0.0181710862086032,-0.0001130154382677,critical
1500,8.282828282828282,0.3037974683544304,anode,0.0195219053637706,0.0205027730819054,0.0183650785437804,-2.0879963189230285e-06,critical
1500,8.383838383838384,0.3037974683544304,anode,0.0195334596089044,0.0204396290217792,0.0184792889253153,-3.3170163174992353e-05,critical
1500,8.484848484848484,0.3037974683544304,anode,0.0197464805114145,0.020731148043163,0.0185867383723727,1.3843341310185046e-05,critical
1500,8.585858585858587,0.3037974683544304,anode,0.0196316196838085,0.020565334813685,0.0185380999526474,0.0001272502680246,critical
1500,8.686868686868687,0.3037974683544304,anode,0.0199214485260318,0.0209302583529308,0.0187299099598985,-1.553422895351797e-05,critical
1500,8.787878787878787,0.3037974683544304,anode,0.0200107930887957,0.02100462017009,0.0188409492625935,3.359236984376652e-05,critical
1500,8.88888888888889,0.3037974683544304,anode,0.0200729959062894,0.0210923999046152,0.0188682234072877,-2.6394232415133453e-05,critical
1500,8.98989898989899,0.3037974683544304,anode,0.0202882380400534,0.0212561378659937,0.019156897881807,3.711153554512786e-05,critical
1500,9.09090909090909,0.3037974683544304,anode,0.0204903515997183,0.021418326497942,0.0194147840582989,-5.2097744484556176e-05,critical
1500,9.191919191919192,0.3037974683544304,anode,0.0205822619310442,0.0215298948605974,0.0194814221265207,9.925337076946176e-06,critical
1500,9.292929292929292,0.3037974683544304,anode,0.0206890437868872,0.0217322958675293,0.0194557055322018,0.0001103333184711,critical
1500,9.393939393939394,0.3037974683544304,anode,0.021013888134612,0.0219949087623605,0.0198714855031101,-3.192482098099248e-05,critical
1500,9.494949494949497,0.3037974683544304,anode,0.0213904689719448,0.0223877364740072,0.0202289508162197,6.16098051876073e-05,critical
1500,9.595959595959595,0.3037974683544304,anode,0.0213896979247188,0.0224665367843512,0.020119044154825,3.271133685612417e-05,critical
1500,9.696969696969695,0.3037974683544304,anode,0.0216523758679922,0.0227598937481139,0.0203418524533595,4.341559017674409e-06,critical
1500,9.797979797979798,0.3037974683544304,anode,0.0217833460593454,0.0227858098826537,0.0206178097021516,-8.256045982967264e-05,critical
1500,9.8989898989899,0.3037974683544304,anode,0.0220333808108838,0.023002946730413,0.0209151523493498,-1.682487500341847e-05,critical
1500,10.0,0.3037974683544304,anode,0.0223154286520088,0.0233902101246045,0.0210570149792683,-4.673105549973677e-05,critical
1500,0.0,0.4050632911392405,anode,0.0223151500758521,0.0233613366677442,0.0210961589203571,1.185672590243765e-05,critical
1500,0.101010101010101,0.4050632911392405,anode,0.0220840435376688,0.0230842609136457,0.0209251764077304,1.915906970242983e-05,critical
1500,0.202020202020202,0.4050632911392405,anode,0.02193749524234,0.0230530481047688,0.0206187697730047,-2.883905317143314e-05,critical
1500,0.303030303030303,0.4050632911392405,anode,0.0216828922474394,0.0226468163232739,0.0205692082527051,-3.776993952785051e-05,critical
1500,0.404040404040404,0.4050632911392405,anode,0.0213818472785628,0.0224480825156058,0.0201249434678187,-8.170357180229437e-05,critical
1500,0.5050505050505051,0.4050632911392405,anode,0.0211431484427247,0.0222056821803224,0.0198899526336081,-7.210501603294081e-06,critical
1500,0.6060606060606061,0.4050632911392405,anode,0.0209772622414354,0.0220054706268894,0.0197699248043879,-2.134199832633048e-05,critical
1500,0.7070707070707071,0.4050632911392405,anode,0.0208342332844506,0.0218049390581663,0.0197043790989128,-6.806313067055897e-06,critical
1500,0.8080808080808081,0.4050632911392405,anode,0.0207288983321064,0.0218428785989171,0.0193958110425954,-0.0001136375915674,critical
1500,0.9090909090909092,0.4050632911392405,anode,0.020455477290102,0.0213341106710038,0.0194459114338778,-3.064740720751746e-06,critical
1500,1.0101010101010102,0.4050632911392405,anode,0.0203334440815045,0.021306350507661,0.0191958445353241,2.0982502372127032e-05,critical
1500,1.1111111111111112,0.4050632911392405,anode,0.0202990500805578,0.0212091849313028,0.0192461813663587,2.7272431210433943e-05,critical
1500,1.2121212121212122,0.4050632911392405,anode,0.0201000030208517,0.020963416374667,0.0191077847131213,2.7722651731944972e-05,critical
1500,1.3131313131313131,0.4050632911392405,anode,0.0199795742968107,0.0208136075533983,0.0190253042119381,6.947167422280381e-06,critical
1500,1.414141414141414,0.4050632911392405,anode,0.0197121049331326,0.0206793065547265,0.0185755103182122,6.442051759646143e-05,critical
1500,1.5151515151515151,0.4050632911392405,anode,0.019551591430802,0.0205431683842091,0.0183798346387189,3.948301538850809e-05,critical
1500,1.616161616161616,0.4050632911392405,anode,0.0195020907901496,0.0204276803747088,0.0184203448176638,7.579098780941124e-05,critical
1500,1.7171717171717171,0.4050632911392405,anode,0.0195184102606357,0.0205436601968056,0.0182989014887299,-3.153456158729568e-05,critical
1500,1.818181818181818,0.4050632911392405,anode,0.0193713106362656,0.0203175054446462,0.0182610224437465,-6.595657234971252e-06,critical
1500,1.9191919191919191,0.4050632911392405,anode,0.0193228092060342,0.0201805607068537,0.0183312722539235,7.242300852512485e-05,critical
1500,2.0202020202020203,0.4050632911392405,anode,0.0190975147849304,0.0200433069493706,0.0179844902629747,5.061667606130411e-05,critical
1500,2.121212121212121,0.4050632911392405,anode,0.0189498766248446,0.0199591011345002,0.0177460479213981,-4.104620136614528e-05,critical
1500,2.2222222222222223,0.4050632911392405,anode,0.0189969794914961,0.0198713786772042,0.0179811213725227,2.878244981745698e-05,critical
1500,2.323232323232323,0.4050632911392405,anode,0.018835914748885,0.0197133378043507,0.0178146720768558,5.897957407913784e-06,critical
1500,2.4242424242424243,0.4050632911392405,anode,0.0188920535091041,0.019723805014732,0.0179311335261688,9.27961236027874e-05,critical
1500,2.525252525252525,0.4050632911392405,anode,0.018750452212351,0.0196534536593416,0.0176934685102813,7.1401047562212056e-06,critical
1500,2.6262626262626263,0.4050632911392405,anode,0.0186772904232212,0.0195773084211257,0.0176228477413708,-6.667211632645163e-05,critical
1500,2.727272727272727,0.4050632911392405,anode,0.0185715865022324,0.0193845503216963,0.0176347677471377,-3.801133781691841e-06,critical
1500,2.8282828282828283,0.4050632911392405,anode,0.018533760893252,0.0193953700918282,0.0175311909385977,-1.993763851670511e-05,critical
1500,2.929292929292929,0.4050632911392405,anode,0.0185023002427381,0.019351561328099,0.0175162231576193,-1.1275357626477753e-05,critical
1500,3.0303030303030303,0.4050632911392405,anode,0.0183995056210313,0.019268466230036,0.0173857511921135,1.1992432246354123e-05,critical
1500,3.131313131313131,0.4050632911392405,anode,0.0184704241156527,0.019334729256616,0.0174636463539783,-1.572361369415066e-05,critical
1500,3.2323232323232323,0.4050632911392405,anode,0.0183852370732417,0.0192322181701002,0.0174010343495936,3.275697393512076e-05,critical
1500,3.333333333333333,0.4050632911392405,anode,0.018382345243387,0.0192929335605723,0.0173110446784177,-2.515459570034493e-05,critical
1500,3.4343434343434343,0.4050632911392405,anode,0.0183181088678989,0.0192624127676633,0.0171988624099445,-3.309351777443757e-05,critical
1500,3.5353535353535355,0.4050632911392405,anode,0.0183730274477354,0.0193466411240518,0.0172127558472844,4.343994896540962e-05,critical
1500,3.636363636363636,0.4050632911392405,anode,0.0181223394405239,0.0191619971461272,0.0168628176227245,5.0652918392100354e-05,critical
1500,3.7373737373737375,0.4050632911392405,anode,0.0180583110196306,0.0188717093703947,0.0171166535043741,2.4936322668418893e-05,critical
1500,3.8383838383838382,0.4050632911392405,anode,0.0181862285975492,0.0190111404064079,0.0172296852296653,5.5865899546005455e-05,critical
1500,3.939393939393939,0.4050632911392405,anode,0.0182550221536332,0.0191801057624985,0.0171621329956313,-2.6418273665231264e-05,critical
1500,4.040404040404041,0.4050632911392405,anode,0.0181448160798705,0.019126020184979,0.0169695313294069,-9.001416971861822e-05,critical
1500,4.141414141414141,0.4050632911392405,anode,0.0181888610030148,0.019104901716477,0.0171075392987037,4.950099850549966e-05,critical
1500,4.242424242424242,0.4050632911392405,anode,0.0180512902082864,0.0188636552708944,0.0171109100697694,2.974063609385013e-05,critical
1500,4.343434343434343,0.4050632911392405,anode,0.018063481435129,0.018916014915285,0.0170679025559564,7.559308487344165e-05,critical
1500,4.444444444444445,0.4050632911392405,anode,0.0180177200655165,0.0188450771142953,0.0170568299583956,-3.2313966774987025e-05,critical
1500,4.545454545454545,0.4050632911392405,anode,0.0179695947814485,0.0187798308209112,0.0170314454189787,-2.4640696461496382e-05,critical
1500,4.646464646464646,0.4050632911392405,anode,0.0178861832958121,0.0188190219849444,0.0167782530716196,1.2932001976170693e-05,critical
1500,4.747474747474747,0.4050632911392405,anode,0.0179517141884645,0.0188743313726913,0.0168590046311833,-4.487263091319747e-06,critical
1500,4.848484848484849,0.4050632911392405,anode,0.0180117227958945,0.0188783877650238,0.0169969598871281,4.8947729480731305e-05,critical
1500,4.94949494949495,0.4050632911392405,anode,0.0179641738936636,0.0187650549947282,0.0170384165825572,-3.385892607715023e-05,critical
1500,5.05050505050505,0.4050632911392405,anode,0.0180387291679039,0.0189121931722184,0.0170150864271922,-3.712428635011466e-05,critical
1500,5.151515151515151,0.4050632911392405,anode,0.0180040102556785,0.0188629698018217,0.0170002051269461,-6.760627470077502e-06,critical
1500,5.252525252525253,0.4050632911392405,anode,0.0179105538151808,0.0187452684194154,0.0169389026853686,-1.5310494868128627e-05,critical
1500,5.353535353535354,0.4050632911392405,anode,0.0177749139583249,0.0186203611939603,0.01678741374592,-7.357922970470778e-06,critical
1500,5.454545454545454,0.4050632911392405,anode,0.0180164377976291,0.0188598983733467,0.0170337920527201,-2.435566041431275e-05,critical
1500,5.555555555555555,0.4050632911392405,anode,0.0180385111381052,0.0189738199225828,0.0169278597251808,7.25002295840833e-05,critical
1500,5.656565656565657,0.4050632911392405,anode,0.0181862842811605,0.0191152690695049,0.01708667655172,-5.5763076928227766e-05,critical
1500,5.757575757575758,0.4050632911392405,anode,0.0180646846502754,0.0189013403082036,0.0170916413134625,-3.10492663448474e-05,critical
1500,5.858585858585858,0.4050632911392405,anode,0.0180608476709702,0.0188999461916046,0.017084630528606,9.127678811170396e-06,critical
1500,5.959595959595959,0.4050632911392405,anode,0.0180708003133525,0.0188907890891168,0.0171204391351605,-1.8975336713087903e-05,critical
1500,6.0606060606060606,0.4050632911392405,anode,0.0181486439261616,0.0190895331836551,0.0170324202586815,-1.4271725553736354e-05,critical
1500,6.161616161616162,0.4050632911392405,anode,0.018156247661779,0.0191002516975842,0.017035748946037,4.648245077398913e-06,critical
1500,6.262626262626262,0.4050632911392405,anode,0.0181677595659933,0.0190207436643339,0.0171715681816635,0.0001033456723454,critical
1500,6.363636363636363,0.4050632911392405,anode,0.0182208060499495,0.0191518142570366,0.0171188364597901,-5.163400459486556e-05,critical
1500,6.4646464646464645,0.4050632911392405,anode,0.0182577071859273,0.0191606998668116,0.0171957641568628,-2.7900241880722143e-06,critical
1500,6.565656565656566,0.4050632911392405,anode,0.0183685198338554,0.019330829345511,0.017224413393481,3.3350851358045745e-05,critical
1500,6.666666666666667,0.4050632911392405,anode,0.0183399257401076,0.0191386425406132,0.0174199221286705,4.168769717978353e-05,critical
1500,6.767676767676767,0.4050632911392405,anode,0.0183400245649504,0.0191221373936568,0.0174410861103595,-8.108170573536395e-05,critical
1500,6.8686868686868685,0.4050632911392405,anode,0.0183379418083819,0.0192265501044348,0.0172948745229512,9.655335324272477e-05,critical
1500,6.96969696969697,0.4050632911392405,anode,0.01845981165051,0.0193014139316403,0.0174831391490869,5.542997517257139e-05,critical
1500,7.070707070707071,0.4050632911392405,anode,0.0185065432226906,0.0193616473675711,0.0175123193064167,-3.9903117648746594e-05,critical
1500,7.171717171717171,0.4050632911392405,anode,0.0185593005649248,0.0193462935318229,0.017656706290571,1.92328784938072e-05,critical
1500,7.272727272727272,0.4050632911392405,anode,0.0186657670962271,0.0196425251671012,0.0175049502134154,-8.356476597083267e-06,critical
1500,7.373737373737374,0.4050632911392405,anode,0.018705583903095,0.0195960732664715,0.0176652794194119,-1.6273704724274794e-05,critical
1500,7.474747474747475,0.4050632911392405,anode,0.0186997362662417,0.0196014380357639,0.0176430852973131,-7.105810725000374e-05,critical
1500,7.575757575757575,0.4050632911392405,anode,0.0188727973710592,0.019751184949434,0.0178505464956815,-1.4245379348117782e-05,critical
1500,7.6767676767676765,0.4050632911392405,anode,0.0189206037574995,0.0198862871264851,0.0177783801543231,8.855023875210649e-07,critical
1500,7.777777777777778,0.4050632911392405,anode,0.0189464356599156,0.0198639071997339,0.0178713249649652,2.9997847968346125e-05,critical
1500,7.878787878787879,0.4050632911392405,anode,0.0191656026966236,0.0201062136088263,0.0180603592370391,-5.587468781698357e-05,critical
1500,7.979797979797979,0.4050632911392405,anode,0.0190246691441567,0.0199754846118749,0.0179040953319145,-3.830449623303532e-05,critical
1500,8.080808080808081,0.4050632911392405,anode,0.0192077111719593,0.0202210611076555,0.0180007612194158,-6.309851971383619e-05,critical
1500,8.181818181818182,0.4050632911392405,anode,0.0192589916863513,0.020178944071912,0.01818356827894,-2.6005712485624867e-05,critical
1500,8.282828282828282,0.4050632911392405,anode,0.0195431787776284,0.0205190065204332,0.0183932302941971,-4.509187604414783e-05,critical
1500,8.383838383838384,0.4050632911392405,anode,0.0195852267614592,0.0205707860327513,0.0184216342813243,7.013527975049183e-05,critical
1500,8.484848484848484,0.4050632911392405,anode,0.0195638816829904,0.020512499789629,0.0184511733103378,7.463467717036236e-05,critical
1500,8.585858585858587,0.4050632911392405,anode,0.0198087405939202,0.0207211400813663,0.0187487341197802,-1.4973261343559902e-05,critical
1500,8.686868686868687,0.4050632911392405,anode,0.0198889783142327,0.0208781177357249,0.0187244615618879,2.387775647155657e-05,critical
1500,8.787878787878787,0.4050632911392405,anode,0.0200565925697426,0.0210056685279603,0.0189488769338845,2.992210389193869e-05,critical
1500,8.88888888888889,0.4050632911392405,anode,0.0202411029421257,0.0212832979491811,0.0190053532651075,7.443153298120162e-05,critical
1500,8.98989898989899,0.4050632911392405,anode,0.0202720960555199,0.0212307726643391,0.0191534066440439,1.6398115849937077e-05,critical
1500,9.09090909090909,0.4050632911392405,anode,0.0203598361952851,0.0213390211828275,0.0192138806912971,2.082237731256673e-05,critical
1500,9.191919191919192,0.4050632911392405,anode,0.020647041521927,0.0215844849542622,0.0195605049332651,1.160535724131332e-05,critical
1500,9.292929292929292,0.4050632911392405,anode,0.0208097409294297,0.0217619678663602,0.0197046925138655,4.097590742527458e-06,critical
1500,9.393939393939394,0.4050632911392405,anode,0.0209119191980131,0.0218991752742094,0.0197600808607192,3.24829850955606e-05,critical
1500,9.494949494949497,0.4050632911392405,anode,0.0212000582014916,0.0222299701588718,0.0199926949198254,4.31231707043583e-06,critical
1500,9.595959595959595,0.4050632911392405,anode,0.0214432883387496,0.0224467560065251,0.0202741430564946,-4.330249259335368e-05,critical
1500,9.696969696969695,0.4050632911392405,anode,0.0216732213019105,0.0226808085354578,0.0204998956337843,7.731461736224776e-05,critical
1500,9.797979797979798,0.4050632911392405,anode,0.0218346663489482,0.0228163911229862,0.0206976272708944,7.817752970018262e-05,critical
1500,9.8989898989899,0.4050632911392405,anode,0.022182584078167,0.0231830768401871,0.0210240315356458,3.568929107183613e-05,critical
1500,10.0,0.4050632911392405,anode,0.0223911838950137,0.0234276164139546,0.0211851674224559,7.866109191364253e-05,critical
1500,0.0,0.5063291139240507,anode,0.0222672156416164,0.0233230608234054,0.0210346306108269,1.8671032088493304e-06,critical
1500,0.101010101010101,0.5063291139240507,anode,0.022248598047869,0.0233760541922099,0.0209167961812961,-1.164761377601768e-06,critical
1500,0.202020202020202,0.5063291139240507,anode,0.0218995384143101,0.0229099009615675,0.0207247301106052,6.657532767681935e-05,critical
1500,0.303030303030303,0.5063291139240507,anode,0.0215782239729035,0.0226339785358625,0.0203390145967444,-4.848354613162487e-06,critical
1500,0.404040404040404,0.5063291139240507,anode,0.0214496398102826,0.0225350901935385,0.0201676851378273,-2.4750200211067663e-05,critical
1500,0.5050505050505051,0.5063291139240507,anode,0.0211587795641225,0.0221629844908163,0.0199862320052192,1.9589946803205592e-05,critical
1500,0.6060606060606061,0.5063291139240507,anode,0.0210305800290146,0.0219959095369589,0.0199090078780607,-6.68370317814373e-05,critical
1500,0.7070707070707071,0.5063291139240507,anode,0.0208722970848118,0.0219403130719955,0.0196079479372969,-5.2732126204448506e-05,critical
1500,0.8080808080808081,0.5063291139240507,anode,0.0206055957317344,0.0215644318948656,0.0194893821840415,-4.929292211157202e-05,critical
1500,0.9090909090909092,0.5063291139240507,anode,0.0204135163803865,0.0213854763051037,0.0192778758554102,-3.221820476612239e-05,critical
1500,1.0101010101010102,0.5063291139240507,anode,0.0203262451060166,0.0213192108184246,0.0191610367846372,-1.0680800270990822e-05,critical
1500,1.1111111111111112,0.5063291139240507,anode,0.0200553687580514,0.0211036558691713,0.0188097285084146,-2.3635078978988317e-05,critical
1500,1.2121212121212122,0.5063291139240507,anode,0.0199901144905891,0.021078364712101,0.0186866044066744,-1.9123054243176302e-05,critical
1500,1.3131313131313131,0.5063291139240507,anode,0.0199583920493421,0.0209789515044572,0.0187508106537383,1.2304071995205151e-05,critical
1500,1.414141414141414,0.5063291139240507,anode,0.0198130470503185,0.0207056227310686,0.0187797562328312,2.100881294942853e-05,critical
1500,1.5151515151515151,0.5063291139240507,anode,0.0195932621373141,0.0205882989046738,0.018417399446444,7.997366293612996e-06,critical
1500,1.616161616161616,0.5063291139240507,anode,0.0195985974439832,0.0205219978755622,0.0185209295667107,-6.896901028796077e-05,critical
1500,1.7171717171717171,0.5063291139240507,anode,0.0194247973786978,0.0203821781870415,0.0182995069622044,-2.1772567170443085e-05,critical
1500,1.818181818181818,0.5063291139240507,anode,0.0193815571225577,0.020251608987299,0.0183748607611814,2.6313869727792424e-05,critical
1500,1.9191919191919191,0.5063291139240507,anode,0.0191602951912494,0.0201038000034476,0.0180483352118944,-0.000131472191476,critical
1500,2.0202020202020203,0.5063291139240507,anode,0.0191428242719507,0.0201433431367282,0.0179537774268239,3.840052011980721e-05,critical
1500,2.121212121212121,0.5063291139240507,anode,0.0191672673735098,0.0200547977889839,0.0181325982350894,0.0001206875428747,critical
1500,2.2222222222222223,0.5063291139240507,anode,0.0189294694875748,0.0198848815863203,0.017801661899664,1.8902412774622665e-05,critical
1500,2.323232323232323,0.5063291139240507,anode,0.0189694215918207,0.0199486076183437,0.0178087510968261,7.784433614096493e-06,critical
1500,2.4242424242424243,0.5063291139240507,anode,0.0187370422522202,0.0196141726510552,0.0177144232504813,-6.818730990762654e-05,critical
1500,2.525252525252525,0.5063291139240507,anode,0.0187852189925467,0.0197178730321346,0.0176874568823811,-3.073428385064752e-05,critical
1500,2.6262626262626263,0.5063291139240507,anode,0.0186876570942446,0.0196126380651212,0.0175988014689831,-6.847443570615503e-05,critical
1500,2.727272727272727,0.5063291139240507,anode,0.0185894995678701,0.0194703332757084,0.0175613327502748,-8.361903226703896e-06,critical
1500,2.8282828282828283,0.5063291139240507,anode,0.018514145932478,0.0193321919194752,0.0175698527754015,3.648972170933269e-05,critical
1500,2.929292929292929,0.5063291139240507,anode,0.01866354472667,0.0195920608664385,0.0175691449143876,8.156036902985625e-05,critical
1500,3.0303030303030303,0.5063291139240507,anode,0.0183844250724984,0.0192994614427859,0.0173069885818952,-2.2936999938712776e-05,critical
1500,3.131313131313131,0.5063291139240507,anode,0.0184355983943668,0.0193388921450598,0.0173750749155527,1.84781524904592e-06,critical
1500,3.2323232323232323,0.5063291139240507,anode,0.0183365663924349,0.0192731215074141,0.0172285821546209,-1.7968793129623533e-05,critical
1500,3.333333333333333,0.5063291139240507,anode,0.0182834685218521,0.0190440666588198,0.0174133516222637,-4.066370720552005e-05,critical
1500,3.4343434343434343,0.5063291139240507,anode,0.0182861185220029,0.019112847582412,0.0173283879601224,3.1604463987955334e-05,critical
1500,3.5353535353535355,0.5063291139240507,anode,0.018345721128513,0.0191858294532511,0.0173703544889539,4.031381728895082e-05,critical
1500,3.636363636363636,0.5063291139240507,anode,0.0181148519926141,0.0190254683831279,0.0170397980000207,-7.032718697930059e-05,critical
1500,3.7373737373737375,0.5063291139240507,anode,0.0181901167442424,0.0190836651763212,0.0171392330573818,-8.19468486124216e-05,critical
1500,3.8383838383838382,0.5063291139240507,anode,0.0181815712932361,0.0190587129263557,0.017154419534736,-2.610261071216582e-05,critical
1500,3.939393939393939,0.5063291139240507,anode,0.0181344346246325,0.0189708686827176,0.0171623724601283,-2.5471179578271372e-05,critical
1500,4.040404040404041,0.5063291139240507,anode,0.0181491562616925,0.0190104765010843,0.0171435084447829,-3.5987217390723948e-06,critical
1500,4.141414141414141,0.5063291139240507,anode,0.0181339116333469,0.0190204584884789,0.0170924997724942,-6.962740943123093e-05,critical
1500,4.242424242424242,0.5063291139240507,anode,0.0180151761533084,0.018802452781298,0.0171080578413604,-2.675743107020835e-05,critical
1500,4.343434343434343,0.5063291139240507,anode,0.0180817065588457,0.0189734566586088,0.0170334215142075,-2.22925328403798e-05,critical
1500,4.444444444444445,0.5063291139240507,anode,0.0180823613175356,0.0190530250047335,0.0169225962827734,4.623908109739614e-05,critical
1500,4.545454545454545,0.5063291139240507,anode,0.0180369396394693,0.01879162811575,0.0171731580153323,7.002256214268221e-06,critical
1500,4.646464646464646,0.5063291139240507,anode,0.0180200984130435,0.0189128065828761,0.0169691166776233,-6.427742435899846e-05,critical
1500,4.747474747474747,0.5063291139240507,anode,0.0180740457649735,0.01901402429802,0.0169577360712197,5.165057308269148e-05,critical
1500,4.848484848484849,0.5063291139240507,anode,0.0179976973653579,0.0189037958070924,0.016928436765002,3.344234326076458e-05,critical
1500,4.94949494949495,0.5063291139240507,anode,0.018030548698607,0.0188373246897389,0.0170975890550319,-1.9747175383308444e-05,critical
1500,5.05050505050505,0.5063291139240507,anode,0.0181478878281694,0.019120141339836,0.016987113996663,1.4611628325102653e-06,critical
1500,5.151515151515151,0.5063291139240507,anode,0.0180652997103542,0.018805226031058,0.0172199425002724,7.531886107234018e-05,critical
1500,5.252525252525253,0.5063291139240507,anode,0.0180086807675516,0.0188536298657185,0.0170240518607552,4.270591843463887e-06,critical
1500,5.353535353535354,0.5063291139240507,anode,0.0180767856607968,0.0188729645018923,0.0171558080060326,0.0001163298413751,critical
1500,5.454545454545454,0.5063291139240507,anode,0.0180000219606235,0.0189150250441627,0.0169184275887527,-2.5216627255017577e-05,critical
1500,5.555555555555555,0.5063291139240507,anode,0.0180555820581999,0.0189121643701416,0.0170554918478171,1.34828991418717e-05,critical
1500,5.656565656565657,0.5063291139240507,anode,0.0180331470422658,0.0189340870947072,0.0169715678711583,-2.4264781974548157e-05,critical
1500,5.757575757575758,0.5063291139240507,anode,0.0180069945745418,0.0188509550510245,0.0170232326194798,-4.861888474370598e-05,critical
1500,5.858585858585858,0.5063291139240507,anode,0.0178641672053845,0.0187507797100918,0.0168206359393308,3.149541809442512e-05,critical
1500,5.959595959595959,0.5063291139240507,anode,0.0179809585638682,0.0189043632572517,0.0168874550563936,1.1065084435601914e-05,critical
1500,6.0606060606060606,0.5063291139240507,anode,0.0181120461295799,0.0189625145311287,0.0171206623442918,3.155437471688492e-05,critical
1500,6.161616161616162,0.5063291139240507,anode,0.0182644868230664,0.0190961965688144,0.0173000540051166,-6.294654542206191e-06,critical
1500,6.262626262626262,0.5063291139240507,anode,0.0182851746565073,0.0192435773957606,0.0171450947500553,6.062184510613156e-05,critical
1500,6.363636363636363,0.5063291139240507,anode,0.0182741569203803,0.0191273155647101,0.0172791758417151,9.11805760997858e-05,critical
1500,6.4646464646464645,0.5063291139240507,anode,0.0182401541204899,0.0189597241414712,0.0174233238275534,2.068023760896777e-05,critical
1500,6.565656565656566,0.5063291139240507,anode,0.0183485996749546,0.019165724978963,0.0174044526262605,-5.075662601830296e-06,critical
1500,6.666666666666667,0.5063291139240507,anode,0.0182350670927117,0.0191433547189726,0.0171655145924939,-9.755886733142308e-06,critical
1500,6.767676767676767,0.5063291139240507,anode,0.0183260071003191,0.0192309524752359,0.0172617002936004,4.337471643650608e-05,critical
1500,6.8686868686868685,0.5063291139240507,anode,0.0184480476776417,0.0193795242861497,0.0173478726305435,-5.578443679453047e-05,critical
1500,6.96969696969697,0.5063291139240507,anode,0.0182946905778502,0.0191368044063332,0.0173158469593017,-5.7273976714965015e-05,critical
1500,7.070707070707071,0.5063291139240507,anode,0.0185301263546927,0.0194017122554931,0.0175139028781602,-2.6168448018989452e-05,critical
1500,7.171717171717171,0.5063291139240507,anode,0.0185316878424687,0.0193458882479784,0.017592155498654,-6.324928624663866e-05,critical
1500,7.272727272727272,0.5063291139240507,anode,0.0186662678758174,0.0196138657055235,0.0175446576747965,9.895294252958992e-05,critical
1500,7.373737373737374,0.5063291139240507,anode,0.0185751642425754,0.0193938446879551,0.0176307560064035,5.808620437795641e-06,critical
1500,7.474747474747475,0.5063291139240507,anode,0.0188324755271607,0.0198609071473265,0.0175991088726363,6.360254343822929e-05,critical
1500,7.575757575757575,0.5063291139240507,anode,0.0186836238747504,0.0195650093356508,0.0176543558289454,-8.076233082060151e-05,critical
1500,7.6767676767676765,0.5063291139240507,anode,0.0189420996737403,0.019848496263184,0.0178817907054658,-5.3395701063239e-05,critical
1500,7.777777777777778,0.5063291139240507,anode,0.0188958683444604,0.0198286112534377,0.0177988771352307,-4.831990058559373e-05,critical
1500,7.878787878787879,0.5063291139240507,anode,0.0191176045470105,0.0200604727434335,0.0180081869371298,-7.785322552700828e-05,critical
1500,7.979797979797979,0.5063291139240507,anode,0.0190234575005334,0.0198409409039313,0.018084077281075,9.252915717863086e-06,critical
1500,8.080808080808081,0.5063291139240507,anode,0.01913249146686,0.0200534297164394,0.0180541862645581,4.795833525024207e-05,critical
1500,8.181818181818182,0.5063291139240507,anode,0.0194344472144304,0.0203689003300708,0.0183403932691631,5.5543137724186303e-05,critical
1500,8.282828282828282,0.5063291139240507,anode,0.0195291282591956,0.0205035897415665,0.0183809451540228,-4.424183074744439e-05,critical
1500,8.383838383838384,0.5063291139240507,anode,0.0195729501567816,0.0204355351868478,0.0185773537989057,5.589434468793792e-05,critical
1500,8.484848484848484,0.5063291139240507,anode,0.019665818103118,0.0205664628691705,0.0186196570963345,6.797705330365655e-05,critical
1500,8.585858585858587,0.5063291139240507,anode,0.0197955574794327,0.0207138387045271,0.0187257980541787,-9.768962121948629e-05,critical
1500,8.686868686868687,0.5063291139240507,anode,0.0200641785166204,0.0209264043571377,0.0190731635450979,3.663024645216972e-05,critical
1500,8.787878787878787,0.5063291139240507,anode,0.0199675095754335,0.0209472352601105,0.0188169433836627,1.088167275196154e-05,critical
1500,8.88888888888889,0.5063291139240507,anode,0.0202863336666772,0.0212946873598513,0.0190982430569457,8.13450262473891e-05,critical
1500,8.98989898989899,0.5063291139240507,anode,0.0202647330866016,0.0211911416096359,0.0191894841426388,-4.358353473088756e-05,critical
1500,9.09090909090909,0.5063291139240507,anode,0.0204595933795795,0.0214229243472149,0.0193361529818635,3.3684961275121804e-05,critical
1500,9.191919191919192,0.5063291139240507,anode,0.0206758391520001,0.0216004789474271,0.0196063340491471,5.0016328058202033e-05,critical
1500,9.292929292929292,0.5063291139240507,anode,0.0209133262171765,0.021934319237827,0.01971226990508,-0.0001347704575052,critical
1500,9.393939393939394,0.5063291139240507,anode,0.0210457606186933,0.0220841216770437,0.0198235047945498,-9.82503293101882e-05,critical
1500,9.494949494949497,0.5063291139240507,anode,0.021184150442252,0.0221095946788287,0.0201180445417326,-7.0110167855372905e-06,critical
1500,9.595959595959595,0.5063291139240507,anode,0.0213351644493103,0.0223986700275258,0.0200822553728685,5.05098056941364e-05,critical
1500,9.696969696969695,0.5063291139240507,anode,0.021629031563205,0.0227692615446517,0.0202719873355008,-1.2195826377832176e-05,critical
1500,9.797979797979798,0.5063291139240507,anode,0.0217874914278079,0.0228349407160453,0.0205616983721263,2.574628714638362e-05,critical
1500,9.8989898989899,0.5063291139240507,anode,0.0221994495398643,0.0231905832466296,0.0210536330721509,-3.1482381672205066e-05,critical
1500,10.0,0.5063291139240507,anode,0.0223258690456296,0.0234810648602767,0.0209558304095546,-2.8322922270783853e-05,critical
1500,0.0,0.6075949367088608,anode,0.0225417578083159,0.0235261038099327,0.0214078767948055,-3.031848402165698e-06,critical
1500,0.101010101010101,0.6075949367088608,anode,0.0222027304071869,0.0232124362178054,0.0210321557367926,-3.696624109097092e-06,critical
1500,0.202020202020202,0.6075949367088608,anode,0.0218565543468711,0.0227790574474113,0.0207990710966402,-4.237375497189853e-05,critical
1500,0.303030303030303,0.6075949367088608,anode,0.0216151602723193,0.0227427109992094,0.0202755738458242,4.785932765160075e-05,critical
1500,0.404040404040404,0.6075949367088608,anode,0.0213987226037739,0.0223685650749056,0.0202742712305656,-6.559217338924555e-05,critical
1500,0.5050505050505051,0.6075949367088608,anode,0.0212490144480459,0.0221995340807267,0.0201499672784209,-1.3678837261673618e-06,critical
1500,0.6060606060606061,0.6075949367088608,anode,0.0210066915924507,0.0220113108135985,0.019832191218727,-1.2140111124346277e-06,critical
1500,0.7070707070707071,0.6075949367088608,anode,0.0206946283478692,0.0216638072031823,0.0195654108237533,3.2078831983375524e-05,critical
1500,0.8080808080808081,0.6075949367088608,anode,0.0208271007048746,0.0218880985347875,0.0195710995666511,-9.21661608994783e-05,critical
1500,0.9090909090909092,0.6075949367088608,anode,0.0205880298014157,0.0215938268770101,0.0194077259184909,1.693263899534963e-05,critical
1500,1.0101010101010102,0.6075949367088608,anode,0.0204469572471955,0.0214705285225935,0.0192400981458288,5.216954899900504e-05,critical
1500,1.1111111111111112,0.6075949367088608,anode,0.0202528901304641,0.0212309329224217,0.0191075310138318,-2.137248210537123e-06,critical
1500,1.2121212121212122,0.6075949367088608,anode,0.0199823552974109,0.020942632518141,0.0188573340455215,-8.91372067300051e-05,critical
1500,1.3131313131313131,0.6075949367088608,anode,0.0196834892790278,0.0204738189824593,0.0187842354577795,-2.6598409150005254e-06,critical
1500,1.414141414141414,0.6075949367088608,anode,0.0197744039927628,0.0207800711170728,0.0185851057473385,-5.5860381454289465e-05,critical
1500,1.5151515151515151,0.6075949367088608,anode,0.0196580516164822,0.0206149111608775,0.0185353115063059,-5.904402678776486e-05,critical
1500,1.616161616161616,0.6075949367088608,anode,0.0196464301818841,0.0207117699149975,0.018371225227332,-3.405628474628939e-05,critical
1500,1.7171717171717171,0.6075949367088608,anode,0.0194956197729412,0.0202946452602443,0.0185836879850436,2.8637097199873e-05,critical
1500,1.818181818181818,0.6075949367088608,anode,0.0193740904928809,0.0202945084476767,0.0182988480168071,4.689069259701109e-05,critical
1500,1.9191919191919191,0.6075949367088608,anode,0.0191967088945071,0.0201036341810701,0.0181385313859856,2.3121559112122853e-05,critical
1500,2.0202020202020203,0.6075949367088608,anode,0.0191209405728981,0.0200582651574479,0.0180203216494352,-1.5966460495464436e-05,critical
1500,2.121212121212121,0.6075949367088608,anode,0.0191240402282402,0.0199664179462922,0.0181523078403879,2.124573732597317e-05,critical
1500,2.2222222222222223,0.6075949367088608,anode,0.0188987382603485,0.0197853475897486,0.0178654814638535,2.353204374363204e-05,critical
1500,2.323232323232323,0.6075949367088608,anode,0.0190205400935713,0.0199913756038599,0.0178693230934836,0.0001231379251096,critical
1500,2.4242424242424243,0.6075949367088608,anode,0.0188142914421456,0.0197508171001627,0.0177109457954608,6.010117359793221e-05,critical
1500,2.525252525252525,0.6075949367088608,anode,0.0188826149917132,0.019760183515935,0.0178615959287407,5.792513273548884e-06,critical
1500,2.6262626262626263,0.6075949367088608,anode,0.0188574075778645,0.0198973444840549,0.0176084250745419,-2.428281027461696e-05,critical
1500,2.727272727272727,0.6075949367088608,anode,0.0187522665421413,0.0196602038706023,0.0176884159037851,-2.3733696204134207e-05,critical
1500,2.8282828282828283,0.6075949367088608,anode,0.0186049209916007,0.0195928065218842,0.0174274138098205,-2.715728030710701e-05,critical
1500,2.929292929292929,0.6075949367088608,anode,0.0185160095039473,0.019460586334343,0.0173976075827869,-7.975429988603692e-05,critical
1500,3.0303030303030303,0.6075949367088608,anode,0.0184568590112475,0.0193883574760204,0.0173572178112173,2.6910407541765216e-05,critical
1500,3.131313131313131,0.6075949367088608,anode,0.0184347402752438,0.0192799049265765,0.0174530041079237,5.722042346128685e-05,critical
1500,3.2323232323232323,0.6075949367088608,anode,0.018275289536654,0.0192645958221227,0.0170916432513812,1.718138597827937e-05,critical
1500,3.333333333333333,0.6075949367088608,anode,0.0182864486122454,0.0191371161092722,0.0172954833811759,-7.509574232970211e-05,critical
1500,3.4343434343434343,0.6075949367088608,anode,0.0183061242442308,0.0191613260815924,0.0173090044729981,-8.085099193620121e-05,critical
1500,3.5353535353535355,0.6075949367088608,anode,0.0183617388555716,0.0192678852425468,0.0172961820606205,-4.0781059156075934e-05,critical
1500,3.636363636363636,0.6075949367088608,anode,0.0183144669646058,0.0192606012633765,0.0171920793575356,6.091504706492656e-05,critical
1500,3.7373737373737375,0.6075949367088608,anode,0.0180901794577187,0.0189369825770154,0.0171029637566982,-6.439747218021535e-05,critical
1500,3.8383838383838382,0.6075949367088608,anode,0.0181603374859981,0.0189946174472318,0.0171915404275621,3.51740081553772e-06,critical
1500,3.939393939393939,0.6075949367088608,anode,0.0181402433570361,0.0189025047784605,0.0172671490646199,-2.3615230503849843e-05,critical
1500,4.040404040404041,0.6075949367088608,anode,0.0181696567343858,0.0190202199198897,0.0171786122995749,3.616334135147824e-05,critical
1500,4.141414141414141,0.6075949367088608,anode,0.0179403427980462,0.0188324025780499,0.0168902051667233,1.444069770145572e-05,critical
1500,4.242424242424242,0.6075949367088608,anode,0.0181033107122515,0.0189018437695717,0.0171820123498885,-1.0417097276112628e-05,critical
1500,4.343434343434343,0.6075949367088608,anode,0.0180936222867964,0.019070021323862,0.0169259722462407,3.449322203772365e-05,critical
1500,4.444444444444445,0.6075949367088608,anode,0.0180289184485796,0.0188745554133765,0.017043542788312,-3.6246408446099553e-07,critical
1500,4.545454545454545,0.6075949367088608,anode,0.0179960969357981,0.0189315051038066,0.0168858662087295,1.1720113925203323e-06,critical
1500,4.646464646464646,0.6075949367088608,anode,0.0181181452104884,0.0190228051275868,0.017052412951286,2.0010384056630462e-06,critical
1500,4.747474747474747,0.6075949367088608,anode,0.0180364526605272,0.0188877174292197,0.0170413832783878,-0.0001030255853206,critical
1500,4.848484848484849,0.6075949367088608,anode,0.0179757184722429,0.0189183602171313,0.0168549892093669,-8.110877208014183e-06,critical
1500,4.94949494949495,0.6075949367088608,anode,0.0180264643453087,0.0189656332969045,0.0169112553658391,9.665233634222494e-06,critical
1500,5.05050505050505,0.6075949367088608,anode,0.0179847851849947,0.0188436061416738,0.0169809296435708,-1.81134470854331e-05,critical
1500,5.151515151515151,0.6075949367088608,anode,0.0181060763460822,0.0188659091386486,0.0172345434167181,8.815967628825938e-05,critical
1500,5.252525252525253,0.6075949367088608,anode,0.0180991623126167,0.0190645819163757,0.0169468270106418,5.949456742097521e-05,critical
1500,5.353535353535354,0.6075949367088608,anode,0.0181002987274141,0.0189418313134553,0.017121119884063,-1.2371622684855874e-05,critical
1500,5.454545454545454,0.6075949367088608,anode,0.0179642430958349,0.0187642331048302,0.0170398959943599,6.083186529889595e-06,critical
1500,5.555555555555555,0.6075949367088608,anode,0.0181415903197472,0.0189932249206469,0.0171490423339025,-1.4963230341148332e-05,critical
1500,5.656565656565657,0.6075949367088608,anode,0.018125744420463,0.0190019397846515,0.0170990793007591,4.493524518902258e-05,critical
1500,5.757575757575758,0.6075949367088608,anode,0.0179540163471562,0.0187751160156337,0.0170012186381227,-6.800737790828658e-06,critical
1500,5.858585858585858,0.6075949367088608,anode,0.01809162060699,0.0189083028738007,0.0171456718134523,-3.791353679530671e-05,critical
1500,5.959595959595959,0.6075949367088608,anode,0.0181359110102032,0.0189310219189805,0.0172193752067774,-1.969967816806396e-05,critical
1500,6.0606060606060606,0.6075949367088608,anode,0.0181894674404708,0.0190873498229143,0.0171338921131774,-6.7367630247370366e-06,critical
1500,6.161616161616162,0.6075949367088608,anode,0.0181354850689523,0.0190794027146389,0.0170141131917091,6.132007719287861e-05,critical
1500,6.262626262626262,0.6075949367088608,anode,0.0181241510941775,0.0189720012988381,0.0171359500517618,-5.9166611742016034e-05,critical
1500,6.363636363636363,0.6075949367088608,anode,0.0181909668662647,0.0191034649256006,0.0171148321098251,-3.6606629529904295e-05,critical
1500,6.4646464646464645,0.6075949367088608,anode,0.0181581805141451,0.0190496357398689,0.017110616395144,5.389481403493672e-05,critical
1500,6.565656565656566,0.6075949367088608,anode,0.0183134318896202,0.0191932185516978,0.0172840661213514,4.691992008518278e-06,critical
1500,6.666666666666667,0.6075949367088608,anode,0.0183814013892975,0.0192547980420805,0.0173611259745873,4.061490476026111e-05,critical
1500,6.767676767676767,0.6075949367088608,anode,0.0184046262546556,0.0193284592424099,0.0173140485741015,-7.860247523149157e-05,critical
1500,6.8686868686868685,0.6075949367088608,anode,0.0184297607914617,0.01934250434438,0.0173560022497387,2.116082736241519e-05,critical
1500,6.96969696969697,0.6075949367088608,anode,0.0185694737351106,0.0194583855134454,0.0175299046269381,2.985534260458693e-05,critical
1500,7.070707070707071,0.6075949367088608,anode,0.0184920976468605,0.0193930102694328,0.0174353483115764,-2.118318710542717e-05,critical
1500,7.171717171717171,0.6075949367088608,anode,0.0184132987149963,0.0192286648316325,0.0174718040065153,3.438198945314378e-05,critical
1500,7.272727272727272,0.6075949367088608,anode,0.0186367058078255,0.0195713959287896,0.0175325503610629,0.0001055578207975,critical
1500,7.373737373737374,0.6075949367088608,anode,0.0188064847177512,0.0197051784071454,0.017755961183232,3.4998606558811902e-06,critical
1500,7.474747474747475,0.6075949367088608,anode,0.0187103530224766,0.0196535691919624,0.0175972550688211,2.030515833849863e-06,critical
1500,7.575757575757575,0.6075949367088608,anode,0.0188556037369328,0.0198075200980627,0.0177314382853435,-5.1174168707548645e-05,critical
1500,7.6767676767676765,0.6075949367088608,anode,0.0188383735512765,0.0197723217072505,0.0177392824491872,-3.772705260528027e-05,critical
1500,7.777777777777778,0.6075949367088608,anode,0.0190188178345437,0.0200388072402641,0.0178006375678161,2.877131453043133e-05,critical
1500,7.878787878787879,0.6075949367088608,anode,0.0189659475551632,0.0199399857275598,0.0178124101260567,-2.14867251789832e-05,critical
1500,7.979797979797979,0.6075949367088608,anode,0.0191164971744556,0.0200726348295675,0.0179897067297285,-1.8804919724565185e-05,critical
1500,8.080808080808081,0.6075949367088608,anode,0.0192478654122716,0.0202367178063493,0.0180764978650968,-3.99437575289491e-05,critical
1500,8.181818181818182,0.6075949367088608,anode,0.0194333072094009,0.0203457977561599,0.0183682767303916,9.236919016114202e-05,critical
1500,8.282828282828282,0.6075949367088608,anode,0.0193789211396415,0.0203820762269493,0.0181891839457535,-1.2573665153556423e-05,critical
1500,8.383838383838384,0.6075949367088608,anode,0.0196585835275709,0.0206742681561796,0.0184544470420868,-6.156562717035354e-06,critical
1500,8.484848484848484,0.6075949367088608,anode,0.0196940726564501,0.0206850306168416,0.0185247605726542,3.869331858701285e-05,critical
1500,8.585858585858587,0.6075949367088608,anode,0.0198037598795029,0.020813555407059,0.0186092678882593,4.0798784234938814e-05,critical
1500,8.686868686868687,0.6075949367088608,anode,0.0197532195571109,0.0206872914781526,0.0186631460922883,-2.929856538118929e-05,critical
1500,8.787878787878787,0.6075949367088608,anode,0.0199813303859668,0.0210149360614615,0.0187552456333034,-4.856391381516726e-05,critical
1500,8.88888888888889,0.6075949367088608,anode,0.0203571528204885,0.0213696068531002,0.0191652286895181,-1.8124788596884067e-05,critical
1500,8.98989898989899,0.6075949367088608,anode,0.0203702426812663,0.0213233599421505,0.0192595623170366,-5.460965057317607e-05,critical
1500,9.09090909090909,0.6075949367088608,anode,0.0204020319117714,0.0212964891394881,0.0193710631726939,1.2244345080655346e-06,critical
1500,9.191919191919192,0.6075949367088608,anode,0.0206571144808742,0.0216401216561384,0.0195088266324967,-1.388647305902582e-05,critical
1500,9.292929292929292,0.6075949367088608,anode,0.020939095636099,0.0220356921289878,0.0196353177207306,-4.513907769756316e-05,critical
1500,9.393939393939394,0.6075949367088608,anode,0.0209283535859094,0.0219790679174862,0.0196867466323095,-0.0001223460072917,critical
1500,9.494949494949497,0.6075949367088608,anode,0.021154540733734,0.0222393216065051,0.019870219721807,2.4104840069830022e-05,critical
1500,9.595959595959595,0.6075949367088608,anode,0.0213626873624142,0.0222789470684046,0.0203082597132203,0.0001067075288171,critical
1500,9.696969696969695,0.6075949367088608,anode,0.0215267235336136,0.0225567395011133,0.0203220261891301,4.9097260173958e-05,critical
1500,9.797979797979798,0.6075949367088608,anode,0.0218986064163334,0.0229941395339993,0.0206075625126497,3.882746663426427e-06,critical
1500,9.8989898989899,0.6075949367088608,anode,0.0220606141888701,0.023167683163177,0.0207551301500792,-2.5865173713215278e-05,critical
1500,10.0,0.6075949367088608,anode,0.0224348539228565,0.0236203286893863,0.0210233404163722,6.100988082147019e-06,critical
1500,0.0,0.7088607594936709,anode,0.0222406871047566,0.0233469041430252,0.0209374113527716,-7.910231592179076e-05,critical
1500,0.101010101010101,0.7088607594936709,anode,0.0220966937738597,0.0231455907726028,0.0208717961248433,3.5032559762490496e-05,critical
1500,0.202020202020202,0.7088607594936709,anode,0.0217996420577797,0.0227822364355907,0.0206620614927027,2.0671118339021077e-05,critical
1500,0.303030303030303,0.7088607594936709,anode,0.0216127163899299,0.0227603961754793,0.0202428058795531,-0.0001110065034894,critical
1500,0.404040404040404,0.7088607594936709,anode,0.0214158929432101,0.0224465460994937,0.0202096361428978,-7.639056863079169e-06,critical
1500,0.5050505050505051,0.7088607594936709,anode,0.0213225569467273,0.0223395494773007,0.0201338434860254,4.204403322121274e-05,critical
1500,0.6060606060606061,0.7088607594936709,anode,0.0209272237902307,0.0219699513661677,0.0196992316214642,-2.134426520017611e-05,critical
1500,0.7070707070707071,0.7088607594936709,anode,0.0207349057761564,0.021736464326252,0.0195616428013558,-4.288731893370635e-05,critical
1500,0.8080808080808081,0.7088607594936709,anode,0.0206220501329934,0.0216769857483279,0.0193737079863149,-9.510119069631174e-06,critical
1500,0.9090909090909092,0.7088607594936709,anode,0.020488455715714,0.0214803925366841,0.0193262902288003,1.0961590968932228e-05,critical
1500,1.0101010101010102,0.7088607594936709,anode,0.0202754305406461,0.0212514925900672,0.0191329989801468,9.701905940433354e-06,critical
1500,1.1111111111111112,0.7088607594936709,anode,0.0202093766415859,0.0211315267931344,0.0191388872137644,6.924304963478673e-05,critical
1500,1.2121212121212122,0.7088607594936709,anode,0.019942601622956,0.0209293202222874,0.0187816813268301,-4.893486985651556e-05,critical
1500,1.3131313131313131,0.7088607594936709,anode,0.0200364358335308,0.0210775432440361,0.0188001673269271,6.049797502887211e-05,critical
1500,1.414141414141414,0.7088607594936709,anode,0.019725707463644,0.0207516784934745,0.0185075937001794,3.644277608353328e-05,critical
1500,1.5151515151515151,0.7088607594936709,anode,0.0196795435518233,0.0204939780330305,0.0187488592502157,-9.75061840202368e-06,critical
1500,1.616161616161616,0.7088607594936709,anode,0.019448141607624,0.0202615611126046,0.0185169181155402,3.985301275340268e-05,critical
1500,1.7171717171717171,0.7088607594936709,anode,0.0193476959053501,0.0202110627823353,0.0183475023572995,0.0001124831034977,critical
1500,1.818181818181818,0.7088607594936709,anode,0.0191786107957946,0.0199842620983382,0.0182559716075626,9.256914808621018e-07,critical
1500,1.9191919191919191,0.7088607594936709,anode,0.0192851529426657,0.0202979626453048,0.0180806544066629,-8.572198269295811e-06,critical
1500,2.0202020202020203,0.7088607594936709,anode,0.0190190386968524,0.0199104827891646,0.017980014366925,-4.6036295505764624e-05,critical
1500,2.121212121212121,0.7088607594936709,anode,0.0189844033805748,0.0199306327425336,0.0178696614606946,-4.585951483904064e-05,critical
1500,2.2222222222222223,0.7088607594936709,anode,0.0190744176814669,0.0200356447881617,0.0179399953865353,-2.761887421776433e-05,critical
1500,2.323232323232323,0.7088607594936709,anode,0.0189023332217451,0.0198098254532141,0.0178406740050028,1.389615829261451e-06,critical
1500,2.4242424242424243,0.7088607594936709,anode,0.0187793741029296,0.0196624186885969,0.0177492539432295,-6.17249621480822e-05,critical
1500,2.525252525252525,0.7088607594936709,anode,0.0187001230818339,0.0196319648354394,0.0176027620854654,-6.663501852795533e-06,critical
1500,2.6262626262626263,0.7088607594936709,anode,0.01868059863195,0.0195880217798922,0.017616828018496,-1.0793271515100237e-05,critical
1500,2.727272727272727,0.7088607594936709,anode,0.018612879101116,0.0194368542555348,0.0176616442817465,-1.908021939454441e-05,critical
1500,2.8282828282828283,0.7088607594936709,anode,0.0186239149610676,0.0195813832670451,0.0174898653967688,1.133171375745273e-06,critical
1500,2.929292929292929,0.7088607594936709,anode,0.0184901013982151,0.0193532416424569,0.0174846192228293,-5.176589410613648e-05,critical
1500,3.0303030303030303,0.7088607594936709,anode,0.0184208408608148,0.0191807893831653,0.0175524067513135,4.736721494361915e-05,critical
1500,3.131313131313131,0.7088607594936709,anode,0.0183327703922312,0.0192304246344884,0.0172789875715906,-5.638796660257362e-06,critical
1500,3.2323232323232323,0.7088607594936709,anode,0.0184546739872894,0.0193600288397549,0.0173912171712865,3.788841815301146e-05,critical
1500,3.333333333333333,0.7088607594936709,anode,0.018294523263227,0.0191809914390015,0.0172550358543704,6.213295539098824e-05,critical
1500,3.4343434343434343,0.7088607594936709,anode,0.0182122796639075,0.0190738340996632,0.0172065582672856,-4.232298746887447e-05,critical
1500,3.5353535353535355,0.7088607594936709,anode,0.0182563296353342,0.0191532528955859,0.0172024645254325,4.017879169141415e-05,critical
1500,3.636363636363636,0.7088607594936709,anode,0.018151896299064,0.0190189058525268,0.0171384903768099,3.7398607475846984e-06,critical
1500,3.7373737373737375,0.7088607594936709,anode,0.0182342976331019,0.0190438474145948,0.0172992415402157,2.4794055320072725e-05,critical
1500,3.8383838383838382,0.7088607594936709,anode,0.0181596098712039,0.0190291150167435,0.0171428210696954,1.4282541400550417e-05,critical
1500,3.939393939393939,0.7088607594936709,anode,0.018238389071285,0.019097593734885,0.0172364415412056,-1.1408162179032992e-05,critical
1500,4.040404040404041,0.7088607594936709,anode,0.0181304522344545,0.019015667142953,0.0170897497504075,-0.0001018947378634,critical
1500,4.141414141414141,0.7088607594936709,anode,0.0180987037887156,0.0189151217772536,0.0171533931188832,-1.704141195322737e-05,critical
1500,4.242424242424242,0.7088607594936709,anode,0.0180844891346987,0.0188942981025936,0.0171474182120946,5.393366928110973e-05,critical
1500,4.343434343434343,0.7088607594936709,anode,0.0180600726088432,0.0189308087598262,0.0170398981318732,6.225435024076752e-05,critical
1500,4.444444444444445,0.7088607594936709,anode,0.018066012416093,0.0189111734718651,0.0170799211279793,9.303786765052356e-05,critical
1500,4.545454545454545,0.7088607594936709,anode,0.0180251268834679,0.0189542816200901,0.0169240454212831,-8.506389285208757e-06,critical
1500,4.646464646464646,0.7088607594936709,anode,0.0180361384238441,0.0188695255255081,0.0170673567490995,-2.2753133965218144e-05,critical
1500,4.747474747474747,0.7088607594936709,anode,0.0181564230903878,0.0191510019053895,0.0169636696390822,1.571992012529662e-06,critical
1500,4.848484848484849,0.7088607594936709,anode,0.0180475045769341,0.0189769729957486,0.0169456417462164,5.516338022407643e-05,critical
1500,4.94949494949495,0.7088607594936709,anode,0.0180979586585716,0.0190051954261822,0.0170281006324427,-4.009791211101963e-05,critical
1500,5.05050505050505,0.7088607594936709,anode,0.0179624148381082,0.0187840129990723,0.017008319675624,5.989479123692715e-05,critical
1500,5.151515151515151,0.7088607594936709,anode,0.0179742569670967,0.018864096527114,0.016927292623163,3.925205224030128e-05,critical
1500,5.252525252525253,0.7088607594936709,anode,0.0179784787774186,0.0187409831371891,0.0171039311653149,2.0611021849704795e-05,critical
1500,5.353535353535354,0.7088607594936709,anode,0.0180995770077745,0.0189797449138952,0.0170675774852581,3.4936552242847385e-06,critical
1500,5.454545454545454,0.7088607594936709,anode,0.0180545667834673,0.0189004861726885,0.0170689974641373,-1.5058735541246152e-05,critical
1500,5.555555555555555,0.7088607594936709,anode,0.017898663756538,0.0187389867837056,0.0169156544499792,-0.0001358900223268,critical
1500,5.656565656565657,0.7088607594936709,anode,0.0179731628515633,0.0188655596798223,0.0169222078487865,-6.0675266746220216e-05,critical
1500,5.757575757575758,0.7088607594936709,anode,0.0179612755938011,0.0187624886544193,0.017035171151739,2.3019852415961345e-05,critical
1500,5.858585858585858,0.7088607594936709,anode,0.0181039511074128,0.0189210962486906,0.0171577473137257,9.271810953631295e-06,critical
1500,5.959595959595959,0.7088607594936709,anode,0.0181201515207856,0.0190830434610477,0.0169719376058483,-4.795919716649664e-05,critical
1500,6.0606060606060606,0.7088607594936709,anode,0.0181192894061497,0.0189438814167278,0.0171632105657713,-3.377181352265997e-06,critical
1500,6.161616161616162,0.7088607594936709,anode,0.0180652732499125,0.0188552540984148,0.0171550871189739,-1.0210004073038114e-06,critical
1500,6.262626262626262,0.7088607594936709,anode,0.0181886501863226,0.019031130994025,0.0172086694054413,4.158393409135774e-05,critical
1500,6.363636363636363,0.7088607594936709,anode,0.0181677710608481,0.0189644094598332,0.01724949297116,1.315391799750454e-05,critical
1500,6.4646464646464645,0.7088607594936709,anode,0.0182113640051305,0.019091596382765,0.0171803854636995,-4.717942108183384e-06,critical
1500,6.565656565656566,0.7088607594936709,anode,0.0182675148348379,0.0191592067364057,0.017220791167578,-5.146254124676591e-05,critical
1500,6.666666666666667,0.7088607594936709,anode,0.0182951614124038,0.0192487900292028,0.0171626964170603,-1.275452950623727e-06,critical
1500,6.767676767676767,0.7088607594936709,anode,0.0183087191679312,0.0192874570939334,0.0171399669658274,-6.084481633596849e-05,critical
1500,6.8686868686868685,0.7088607594936709,anode,0.0184532327426207,0.0192132158011998,0.0175851613136584,3.529882290807232e-05,critical
1500,6.96969696969697,0.7088607594936709,anode,0.0184629568244599,0.0192931202123517,0.0175016388572598,5.8157458533608936e-05,critical
1500,7.070707070707071,0.7088607594936709,anode,0.0185750584563963,0.019541741433362,0.0174273735634544,-1.8413125798176737e-05,critical
1500,7.171717171717171,0.7088607594936709,anode,0.0185279222456998,0.0194315602351981,0.0174663362694235,8.875471727593309e-05,critical
1500,7.272727272727272,0.7088607594936709,anode,0.0185564267140866,0.0194824021322874,0.0174656260370255,2.0302966663584837e-05,critical
1500,7.373737373737374,0.7088607594936709,anode,0.0186492757801879,0.0194901494680963,0.0176757476650568,1.2506935682842312e-05,critical
1500,7.474747474747475,0.7088607594936709,anode,0.01881437420242,0.0196916300664049,0.0177930689526427,2.317156678218704e-05,critical
1500,7.575757575757575,0.7088607594936709,anode,0.0187385437998568,0.0196513175401003,0.0176679990903792,-1.9358808512380998e-06,critical
1500,7.6767676767676765,0.7088607594936709,anode,0.018866467060325,0.019720256970785,0.0178774326409166,2.0141828597500992e-06,critical
1500,7.777777777777778,0.7088607594936709,anode,0.0190056997070076,0.0199651462867321,0.0178728476355062,-4.037368644247066e-05,critical
1500,7.878787878787879,0.7088607594936709,anode,0.0190858207643276,0.0201005663743589,0.0178760896072983,-1.561724856212873e-05,critical
1500,7.979797979797979,0.7088607594936709,anode,0.0191617477545353,0.0201341479361677,0.0180125889115018,3.3835167833014675e-05,critical
1500,8.080808080808081,0.7088607594936709,anode,0.0192868780199372,0.0202344685413928,0.0181735860150461,3.450827334770478e-05,critical
1500,8.181818181818182,0.7088607594936709,anode,0.0194820701102411,0.0204277629691036,0.0183716068120321,0.0001040005133425,critical
1500,8.282828282828282,0.7088607594936709,anode,0.019340918037979,0.0203032285098006,0.0182078623914499,2.683637629462667e-05,critical
1500,8.383838383838384,0.7088607594936709,anode,0.0195783683956876,0.0205583662501315,0.0184229841984522,-4.544578622963709e-05,critical
1500,8.484848484848484,0.7088607594936709,anode,0.0195565649451194,0.0204382741546579,0.0185334937530809,0.0001131631644043,critical
1500,8.585858585858587,0.7088607594936709,anode,0.0199079419620289,0.020908146336726,0.0187275390941134,-6.577058739113461e-05,critical
1500,8.686868686868687,0.7088607594936709,anode,0.0200030250098362,0.0208587614866158,0.0190191810315582,8.244692325582185e-05,critical
1500,8.787878787878787,0.7088607594936709,anode,0.0201462161562191,0.0211454543205673,0.018970422067696,1.8857692741471912e-05,critical
1500,8.88888888888889,0.7088607594936709,anode,0.0202598039125126,0.0213336377319513,0.0189804119835322,-1.581023483511709e-05,critical
1500,8.98989898989899,0.7088607594936709,anode,0.0202430603779273,0.0212994822264235,0.0189870253044229,8.211464362767539e-05,critical
1500,9.09090909090909,0.7088607594936709,anode,0.0206293781590185,0.0217196003403625,0.019331200118957,1.6802052098939023e-05,critical
1500,9.191919191919192,0.7088607594936709,anode,0.0208023257906407,0.0217587240765605,0.0196903861509321,-8.37800817630983e-05,critical
1500,9.292929292929292,0.7088607594936709,anode,0.0208337201966642,0.0219057634559196,0.0195637434839794,-5.848406721286804e-06,critical
1500,9.393939393939394,0.7088607594936709,anode,0.0211807751071846,0.0222097491395137,0.0199741141770346,-4.866655158699258e-05,critical
1500,9.494949494949497,0.7088607594936709,anode,0.0214124982094884,0.0225079412629987,0.0201159600400421,3.940545762734996e-05,critical
1500,9.595959595959595,0.7088607594936709,anode,0.0214053399582803,0.0223949481160469,0.020254687331335,-4.15957168265009e-05,critical
1500,9.696969696969695,0.7088607594936709,anode,0.0216107720752869,0.0225899317585073,0.02047608720933,3.520498025287004e-05,critical
1500,9.797979797979798,0.7088607594936709,anode,0.021900366604873,0.022949118290828,0.0206739866732657,-4.755446960017266e-06,critical
1500,9.8989898989899,0.7088607594936709,anode,0.0221141866643153,0.0232043928167477,0.0208305712205842,-0.0001175665118052,critical
1500,10.0,0.7088607594936709,anode,0.0223401188690539,0.0233661778464257,0.021148189677263,-5.50104112532146e-05,critical
1500,0.0,0.810126582278481,anode,0.0222555792900544,0.0232821010871196,0.0210624234214797,4.607731890674483e-05,critical
1500,0.101010101010101,0.810126582278481,anode,0.0223286243383715,0.023427121324075,0.0210378281732838,3.157041408688991e-05,critical
1500,0.202020202020202,0.810126582278481,anode,0.0218438356380406,0.0227311884650757,0.0208324036365182,2.87420386091567e-05,critical
1500,0.303030303030303,0.810126582278481,anode,0.0216674488814344,0.0227931553309783,0.0203311516994225,4.389534963738869e-05,critical
1500,0.404040404040404,0.810126582278481,anode,0.0214485102766952,0.0225520295221643,0.020141286404805,-2.8922930614196277e-06,critical
1500,0.5050505050505051,0.810126582278481,anode,0.0211701840739552,0.0221428194232901,0.020040365996008,-4.5379455732140766e-05,critical
1500,0.6060606060606061,0.810126582278481,anode,0.0210711700001459,0.0220836732717978,0.0198853024973295,8.336236385303087e-05,critical
1500,0.7070707070707071,0.810126582278481,anode,0.0207254939210511,0.0216192659164743,0.019697558229822,4.614673274510578e-05,critical
1500,0.8080808080808081,0.810126582278481,anode,0.0205276105210465,0.0214868191255791,0.0194101855428819,-4.912810859554853e-05,critical
1500,0.9090909090909092,0.810126582278481,anode,0.0204450381245722,0.0214244638405403,0.0192993838172447,-3.9446472315497465e-05,critical
1500,1.0101010101010102,0.810126582278481,anode,0.0202381322690721,0.0211685093561722,0.0191575544036221,1.990213403961616e-05,critical
1500,1.1111111111111112,0.810126582278481,anode,0.020143081942232,0.0210521057848694,0.0190898107929611,6.43746058849954e-05,critical
1500,1.2121212121212122,0.810126582278481,anode,0.0198880630172747,0.020767041026779,0.0188732029929262,5.114430499030792e-05,critical
1500,1.3131313131313131,0.810126582278481,anode,0.019941711975161,0.0209467701382284,0.018755276551324,4.748880341587396e-05,critical
1500,1.414141414141414,0.810126582278481,anode,0.0198986192766472,0.0208735960191212,0.018753934094285,3.5771510746688752e-06,critical
1500,1.5151515151515151,0.810126582278481,anode,0.0196410531788318,0.0205603399858937,0.0185674002756775,0.000125298261542,critical
1500,1.616161616161616,0.810126582278481,anode,0.0194311569761453,0.0203650231132873,0.0183382124223986,3.549655560366115e-05,critical
1500,1.7171717171717171,0.810126582278481,anode,0.0193978254476582,0.0203627598204915,0.0182618513378952,-6.4024602326788764e-06,critical
1500,1.818181818181818,0.810126582278481,anode,0.019274212535418,0.0202499035647323,0.0181218609729912,-1.5984071692842592e-05,critical
1500,1.9191919191919191,0.810126582278481,anode,0.0192635746035504,0.0201157786627142,0.0182788703424678,-7.607959872529153e-05,critical
1500,2.0202020202020203,0.810126582278481,anode,0.019250776427583,0.02018696879412,0.0181525567333556,5.311723530978655e-05,critical
1500,2.121212121212121,0.810126582278481,anode,0.0189846246867239,0.0199316507337544,0.0178690921703691,-2.0996819685213907e-05,critical
1500,2.2222222222222223,0.810126582278481,anode,0.0189236516486674,0.0198812534280526,0.017790582740383,-0.0001073991023245,critical
1500,2.323232323232323,0.810126582278481,anode,0.018898949950818,0.0197617960568437,0.0178979961899761,-1.7095141940182166e-06,critical
1500,2.4242424242424243,0.810126582278481,anode,0.0186963253628716,0.0195776022604998,0.0176677965945553,-6.358680435858661e-05,critical
1500,2.525252525252525,0.810126582278481,anode,0.018644016147175,0.0195600524191337,0.0175677938344291,-3.304309219656341e-05,critical
1500,2.6262626262626263,0.810126582278481,anode,0.018684746028799,0.019589976282125,0.0176240361507299,-1.1005640665968418e-05,critical
1500,2.727272727272727,0.810126582278481,anode,0.0185833996829597,0.0195423858680239,0.0174465828380713,-2.8864835795363783e-05,critical
1500,2.8282828282828283,0.810126582278481,anode,0.0184829623699143,0.0194801900260723,0.0172906901766284,4.399025977509879e-06,critical
1500,2.929292929292929,0.810126582278481,anode,0.0184978274788204,0.0193218155570881,0.0175457110589422,5.207335484445559e-06,critical
1500,3.0303030303030303,0.810126582278481,anode,0.0185106221359179,0.0193460056578156,0.0175418859641423,8.72904702361325e-05,critical
1500,3.131313131313131,0.810126582278481,anode,0.0183853014645862,0.0192169796564408,0.0174213752952599,5.446798935789581e-05,critical
1500,3.2323232323232323,0.810126582278481,anode,0.0183450918501336,0.0192499889016205,0.0172813828714976,1.362359492632043e-05,critical
1500,3.333333333333333,0.810126582278481,anode,0.0183017333996521,0.0191921141100847,0.0172569110389124,6.279240634103965e-05,critical
1500,3.4343434343434343,0.810126582278481,anode,0.0184394405372455,0.019398063735427,0.0173013983124613,-3.333793443747903e-05,critical
1500,3.5353535353535355,0.810126582278481,anode,0.0182448079278335,0.0190596534226215,0.0173028654819033,-5.572299517269526e-06,critical
1500,3.636363636363636,0.810126582278481,anode,0.0182434123416129,0.0190698347621097,0.0172850582343257,6.69881331522129e-05,critical
1500,3.7373737373737375,0.810126582278481,anode,0.0182714668568281,0.0191050812081685,0.0173045172506248,-9.366493911733664e-06,critical
1500,3.8383838383838382,0.810126582278481,anode,0.0182350627657403,0.0191608471583401,0.0171410879261356,1.0341406405195971e-05,critical
1500,3.939393939393939,0.810126582278481,anode,0.0181100105821685,0.0189965599611984,0.0170689732125268,4.130982428312712e-05,critical
1500,4.040404040404041,0.810126582278481,anode,0.0180886044369373,0.0189899178551152,0.0170269786999321,-3.441664581744091e-05,critical
1500,4.141414141414141,0.810126582278481,anode,0.0182507663790556,0.0191795061787718,0.0171515905552014,-7.957096894905815e-05,critical
1500,4.242424242424242,0.810126582278481,anode,0.0180405787887443,0.01894155195715,0.0169791397845643,7.372940129485861e-06,critical
1500,4.343434343434343,0.810126582278481,anode,0.0180779813643352,0.0189610416685886,0.0170416772520795,-2.2345518363003912e-05,critical
1500,4.444444444444445,0.810126582278481,anode,0.0180370378343907,0.0188335881974139,0.0171161371019265,9.45478109907923e-05,critical
1500,4.545454545454545,0.810126582278481,anode,0.0179250362762064,0.0187142789556362,0.0170141520822199,-5.448503562616185e-05,critical
1500,4.646464646464646,0.810126582278481,anode,0.0179931012111668,0.0188395202533242,0.0170062175246478,2.3894296955477883e-05,critical
1500,4.747474747474747,0.810126582278481,anode,0.0180034277436352,0.0188121544659328,0.0170669133642286,-6.359652153814495e-05,critical
1500,4.848484848484849,0.810126582278481,anode,0.0179069714366462,0.0187195691738208,0.0169651535381491,-2.070916304382763e-05,critical
1500,4.94949494949495,0.810126582278481,anode,0.0180009570154796,0.0188361002092833,0.0170294832462203,2.2625087836273283e-05,critical
1500,5.05050505050505,0.810126582278481,anode,0.0180304041077236,0.0188633151132278,0.0170622718297045,1.5333051716250803e-05,critical
1500,5.151515151515151,0.810126582278481,anode,0.0179403860558687,0.0188258336916555,0.0168994453244005,-1.052827502878564e-05,critical
1500,5.252525252525253,0.810126582278481,anode,0.018129601507696,0.0190819866023411,0.0169955697983986,8.181392685894533e-05,critical
1500,5.353535353535354,0.810126582278481,anode,0.0180472382873146,0.0190665863332454,0.0168168822690559,1.9181446811214622e-05,critical
1500,5.454545454545454,0.810126582278481,anode,0.0180107599152005,0.0188342245474396,0.0170552111501036,-1.7393006709035008e-05,critical
1500,5.555555555555555,0.810126582278481,anode,0.0180207116595215,0.0187677630320035,0.0171668307640577,-4.195184686312701e-06,critical
1500,5.656565656565657,0.810126582278481,anode,0.0181625278977777,0.0190679837111062,0.0170955356368721,5.619363988605689e-05,critical
1500,5.757575757575758,0.810126582278481,anode,0.0180932874926418,0.0189611271882774,0.0170776628155225,-5.1242964761827584e-05,critical
1500,5.858585858585858,0.810126582278481,anode,0.0181726184602547,0.0190483738988842,0.0171473704931366,-1.5526508144312283e-05,critical
1500,5.959595959595959,0.810126582278481,anode,0.0182265933197123,0.0192206461767386,0.0170350333229658,-4.984103372643562e-05,critical
1500,6.0606060606060606,0.810126582278481,anode,0.0181109893577578,0.0189976879185723,0.0170698842350864,3.253188398002681e-05,critical
1500,6.161616161616162,0.810126582278481,anode,0.0181927960284568,0.0190122641701877,0.0172442033622301,1.2091115782177572e-05,critical
1500,6.262626262626262,0.810126582278481,anode,0.0182430251754518,0.0192142442478442,0.0170848700519922,-1.6999652454357836e-05,critical
1500,6.363636363636363,0.810126582278481,anode,0.0183862662360437,0.0192534998894649,0.0173743852093756,-4.468561856399083e-05,critical
1500,6.4646464646464645,0.810126582278481,anode,0.0181876558386612,0.0190427147003013,0.0171909131074695,8.212106507671098e-07,critical
1500,6.565656565656566,0.810126582278481,anode,0.0182236155669659,0.0191469288718454,0.017132258611314,-6.091258490809284e-05,critical
1500,6.666666666666667,0.810126582278481,anode,0.0183123363769319,0.0193483504427565,0.0170615033322484,-4.013413564770077e-06,critical
1500,6.767676767676767,0.810126582278481,anode,0.0183953471340202,0.0193086599308791,0.0173203883383312,-2.635627547920881e-05,critical
1500,6.8686868686868685,0.810126582278481,anode,0.018438078360621,0.0192539360843595,0.017495319385762,7.35747032961462e-05,critical
1500,6.96969696969697,0.810126582278481,anode,0.0185572336079306,0.0194300532451035,0.0175396728795835,1.4180984439843455e-05,critical
1500,7.070707070707071,0.810126582278481,anode,0.0185705766175731,0.0194776581036351,0.0175052339088713,7.046891491858713e-05,critical
1500,7.171717171717171,0.810126582278481,anode,0.0185527721035842,0.0194765374481312,0.0174649592538168,2.5644743732473008e-05,critical
1500,7.272727272727272,0.810126582278481,anode,0.0185180199527562,0.0194896374173732,0.0173624610117366,3.703024867962223e-05,critical
1500,7.373737373737374,0.810126582278481,anode,0.0187932459430345,0.0196978285798868,0.0177341958204328,4.119137592405332e-05,critical
1500,7.474747474747475,0.810126582278481,anode,0.0188255616197064,0.0197582931310042,0.0177282336436475,1.818194192664704e-05,critical
1500,7.575757575757575,0.810126582278481,anode,0.0188490715673812,0.0197357095185414,0.0178145163664071,6.927145573181231e-05,critical
1500,7.6767676767676765,0.810126582278481,anode,0.0189583354635882,0.0198614607525736,0.0179030086576676,-3.1859769066480246e-05,critical
1500,7.777777777777778,0.810126582278481,anode,0.0189588702857327,0.0198439194135695,0.0179282154621276,-3.043036914359352e-05,critical
1500,7.878787878787879,0.810126582278481,anode,0.0191164640602322,0.0200533377719724,0.0180122307916256,0.0001502579667763,critical
1500,7.979797979797979,0.810126582278481,anode,0.0191630249231743,0.0200310814841434,0.0181570430572286,3.783820908336581e-05,critical
1500,8.080808080808081,0.810126582278481,anode,0.0192719019201953,0.0201946109106223,0.018192928828792,1.0854228208165028e-05,critical
1500,8.181818181818182,0.810126582278481,anode,0.0192623921163241,0.0201159750419976,0.0182761283181411,-6.473783971004687e-05,critical
1500,8.282828282828282,0.810126582278481,anode,0.0193747662480169,0.0202733160680257,0.0183288958001897,6.658140924305492e-05,critical
1500,8.383838383838384,0.810126582278481,anode,0.0194972331633845,0.0203478990723516,0.0185172609034522,-3.420020516808329e-05,critical
1500,8.484848484848484,0.810126582278481,anode,0.0195961705539798,0.0204647261973077,0.0185933520708465,-1.1468906055622356e-07,critical
1500,8.585858585858587,0.810126582278481,anode,0.0197534111132823,0.0207019886740154,0.018643239444274,-4.715363918752339e-05,critical
1500,8.686868686868687,0.810126582278481,anode,0.0199150063382963,0.0208926911803482,0.0187663244090247,4.837816383752287e-05,critical
1500,8.787878787878787,0.810126582278481,anode,0.0200567585276852,0.0210783486111252,0.0188485043801971,-4.476315282747839e-05,critical
1500,8.88888888888889,0.810126582278481,anode,0.0202747270372065,0.0212672515016649,0.0191093500011571,3.943365478393401e-05,critical
1500,8.98989898989899,0.810126582278481,anode,0.0203763894599269,0.021362898653852,0.0192205177331467,-2.220364415224412e-05,critical
1500,9.09090909090909,0.810126582278481,anode,0.0204277388238462,0.0213631774636533,0.0193420373330462,-6.582128594481865e-06,critical
1500,9.191919191919192,0.810126582278481,anode,0.020748525047565,0.0218298196801483,0.0194643727070499,-2.7116322220158025e-05,critical
1500,9.292929292929292,0.810126582278481,anode,0.0208324808719484,0.0217781240577863,0.0197358645042121,-6.14536018411907e-05,critical
1500,9.393939393939394,0.810126582278481,anode,0.0210314676123312,0.0220361926073063,0.0198553579650508,0.0001001628454076,critical
1500,9.494949494949497,0.810126582278481,anode,0.0211660811584859,0.0220870672533326,0.0201057246259907,1.6134946039161124e-05,critical
1500,9.595959595959595,0.810126582278481,anode,0.0214327137821383,0.0223556120866854,0.0203711112243109,6.907987858728084e-05,critical
1500,9.696969696969695,0.810126582278481,anode,0.0216536712124333,0.0227742676621048,0.0203235509039577,-8.46093303638333e-05,critical
1500,9.797979797979798,0.810126582278481,anode,0.0217622807574488,0.0228554778232649,0.0204730002335592,-1.2402778837179597e-05,critical
1500,9.8989898989899,0.810126582278481,anode,0.0220204460435321,0.0231538086011485,0.0206777748171941,4.481140572843954e-06,critical
1500,10.0,0.810126582278481,anode,0.0224057427051381,0.0235023697340765,0.021117446453279,-8.044196466411553e-05,critical
1500,0.0,0.9113924050632912,anode,0.022381661705154,0.0234756230117952,0.0210971747580578,-6.440329733118486e-05,critical
1500,0.101010101010101,0.9113924050632912,anode,0.0220579815764264,0.0231459179941586,0.0207791179719675,1.869323242192414e-05,critical
1500,0.202020202020202,0.9113924050632912,anode,0.0218416691459189,0.0228259933612971,0.0207020797057835,-2.561207039423183e-05,critical
1500,0.303030303030303,0.9113924050632912,anode,0.021668270632062,0.0227249403519721,0.0204284557321722,-3.946550725895661e-05,critical
1500,0.404040404040404,0.9113924050632912,anode,0.0213766220724851,0.0223233371017112,0.0202835661084711,2.8411621732914155e-05,critical
1500,0.5050505050505051,0.9113924050632912,anode,0.0211745775759202,0.0221574972865947,0.020030881322811,4.487576538804336e-05,critical
1500,0.6060606060606061,0.9113924050632912,anode,0.0209923752250666,0.0218882835839124,0.0199632196865638,6.666541748552658e-05,critical
1500,0.7070707070707071,0.9113924050632912,anode,0.0208330317262464,0.0219278271358239,0.0195308102723818,2.073312806310013e-05,critical
1500,0.8080808080808081,0.9113924050632912,anode,0.0204915752970409,0.0215177651307821,0.0192804410896558,9.493208835690464e-05,critical
1500,0.9090909090909092,0.9113924050632912,anode,0.0205208079721034,0.0215170453640642,0.0193529345046713,-2.7168311345600744e-05,critical
1500,1.0101010101010102,0.9113924050632912,anode,0.0202928419915339,0.0212674048947998,0.0191522335487651,4.892425750992655e-05,critical
1500,1.1111111111111112,0.9113924050632912,anode,0.0201825618592792,0.0212265306360309,0.0189446277877348,3.958173564682855e-07,critical
1500,1.2121212121212122,0.9113924050632912,anode,0.0200089670827854,0.020916176178199,0.0189576790403644,1.730070394870214e-05,critical
1500,1.3131313131313131,0.9113924050632912,anode,0.0198833911444712,0.0208231062666206,0.0187868427144403,-2.858841851502228e-05,critical
1500,1.414141414141414,0.9113924050632912,anode,0.0196631862070165,0.0205071820365651,0.0186932223506854,4.134599664217332e-05,critical
1500,1.5151515151515151,0.9113924050632912,anode,0.0196177143868478,0.0206049209894076,0.0184529676556376,-2.4993657220571598e-05,critical
1500,1.616161616161616,0.9113924050632912,anode,0.0195138038086879,0.0205260668642497,0.0183083641461523,0.00015451763562,critical
1500,1.7171717171717171,0.9113924050632912,anode,0.0194388337885083,0.0203768527674043,0.0183404712857314,-1.043143001055248e-05,critical
1500,1.818181818181818,0.9113924050632912,anode,0.0193369367551425,0.0202584279271842,0.0182601752587356,-2.3557932629852037e-05,critical
1500,1.9191919191919191,0.9113924050632912,anode,0.019367665898185,0.0202412127868817,0.0183562734248455,9.1210139047768e-06,critical
1500,2.0202020202020203,0.9113924050632912,anode,0.0191555392940778,0.0200043709452109,0.0181755289060469,1.6409433595041193e-07,critical
1500,2.121212121212121,0.9113924050632912,anode,0.0191465498459713,0.0200711618445301,0.0180628712292057,-6.910858693946895e-05,critical
1500,2.2222222222222223,0.9113924050632912,anode,0.0188536891228086,0.0197021786905807,0.0178715780813432,2.2136754357944447e-05,critical
1500,2.323232323232323,0.9113924050632912,anode,0.0189492235394029,0.019869934840318,0.0178697425604024,2.36875577222528e-05,critical
1500,2.4242424242424243,0.9113924050632912,anode,0.018918804915369,0.0198078657104693,0.0178815411201557,7.138579285475145e-05,critical
1500,2.525252525252525,0.9113924050632912,anode,0.018861031986943,0.0199555614869206,0.0175321456088115,-2.431323325917108e-05,critical
1500,2.6262626262626263,0.9113924050632912,anode,0.0187882527710488,0.0195996024443852,0.0178552186479826,1.125909466837827e-05,critical
1500,2.727272727272727,0.9113924050632912,anode,0.0185982842958439,0.0195593351001717,0.017458878924475,8.149557866688889e-06,critical
1500,2.8282828282828283,0.9113924050632912,anode,0.018530222603247,0.0194454364201944,0.0174535290670728,5.763401971961679e-05,critical
1500,2.929292929292929,0.9113924050632912,anode,0.0182656566701783,0.0191836272975867,0.0171821552661676,6.392835794725826e-05,critical
1500,3.0303030303030303,0.9113924050632912,anode,0.0183320889414457,0.019227247276775,0.0172816955081952,-1.7130624162038515e-05,critical
1500,3.131313131313131,0.9113924050632912,anode,0.0183639933161075,0.0192089701945353,0.0173825208530106,1.667884595111223e-06,critical
1500,3.2323232323232323,0.9113924050632912,anode,0.0182646689159707,0.0191676448839175,0.0172005337343713,0.0001078299604081,critical
1500,3.333333333333333,0.9113924050632912,anode,0.0181771913161776,0.0191478314055093,0.0170179180053973,-7.643780220166003e-05,critical
1500,3.4343434343434343,0.9113924050632912,anode,0.0184229326573916,0.0193314274728127,0.0173539783034356,-7.520980362811477e-05,critical
1500,3.5353535353535355,0.9113924050632912,anode,0.0182826509343853,0.0191637469396762,0.0172487792592878,0.0001110303686995,critical
1500,3.636363636363636,0.9113924050632912,anode,0.0182341256826734,0.0191045652495774,0.0172167844735134,1.212148099363146e-05,critical
1500,3.7373737373737375,0.9113924050632912,anode,0.0182749009924795,0.0190927070324618,0.0173285899185393,5.832807485580264e-05,critical
1500,3.8383838383838382,0.9113924050632912,anode,0.0181276322335019,0.0189927568104002,0.0171163065250466,-3.713667198054623e-05,critical
1500,3.939393939393939,0.9113924050632912,anode,0.01808582385978,0.0190306807468755,0.0169622248074476,-7.263985675384892e-05,critical
1500,4.040404040404041,0.9113924050632912,anode,0.0180396193013819,0.0190104908443159,0.0168794152598589,-1.1720881219954512e-05,critical
1500,4.141414141414141,0.9113924050632912,anode,0.0181235220977902,0.0190161071477209,0.0170719888018185,0.0001150200071623,critical
1500,4.242424242424242,0.9113924050632912,anode,0.0180625514818844,0.0190357487982613,0.0168988949995442,4.655355022022656e-05,critical
1500,4.343434343434343,0.9113924050632912,anode,0.0179804835150876,0.0187889571120254,0.0170448867080643,-1.096243905542124e-05,critical
1500,4.444444444444445,0.9113924050632912,anode,0.0180227571308264,0.0189105305109672,0.0169794410848531,1.1965656685782536e-05,critical
1500,4.545454545454545,0.9113924050632912,anode,0.018054988883966,0.018971879425807,0.0169701646789522,8.132967312512464e-05,critical
1500,4.646464646464646,0.9113924050632912,anode,0.0178485048717907,0.0186982200208351,0.0168550173877246,6.559126201242825e-05,critical
1500,4.747474747474747,0.9113924050632912,anode,0.0179963993424413,0.0188169781053436,0.0170445129103824,2.9041202679375428e-05,critical
1500,4.848484848484849,0.9113924050632912,anode,0.0181678820335772,0.0190940271787119,0.0170722898843349,-4.377535137634158e-05,critical
1500,4.94949494949495,0.9113924050632912,anode,0.0179512858667349,0.0187186206238637,0.0170698169904308,-4.719634505421104e-05,critical
1500,5.05050505050505,0.9113924050632912,anode,0.018110882515406,0.0190039586502755,0.0170610799854038,2.024358966513056e-05,critical
1500,5.151515151515151,0.9113924050632912,anode,0.0180796472011123,0.0190807814164514,0.0168763412055889,-1.0142651309079044e-05,critical
1500,5.252525252525253,0.9113924050632912,anode,0.0180998105994832,0.0189491701998661,0.017109860934056,2.839146820710883e-05,critical
1500,5.353535353535354,0.9113924050632912,anode,0.0181390455295308,0.0190388192345726,0.0170802060060434,2.4848240032832244e-05,critical
1500,5.454545454545454,0.9113924050632912,anode,0.0180556632356071,0.0189782346194084,0.0169625199398821,9.162614786869248e-05,critical
1500,5.555555555555555,0.9113924050632912,anode,0.0180209913695743,0.0189374348297542,0.0169362330601776,8.662482529485168e-05,critical
1500,5.656565656565657,0.9113924050632912,anode,0.0180067570366422,0.0188656965612227,0.0170026613794279,-4.222388956486208e-05,critical
1500,5.757575757575758,0.9113924050632912,anode,0.0179904866640975,0.018864835232904,0.0169653742899311,-1.492082543706086e-05,critical
1500,5.858585858585858,0.9113924050632912,anode,0.0181053226679052,0.0189178521891257,0.0171653053349952,-1.389633510023602e-05,critical
1500,5.959595959595959,0.9113924050632912,anode,0.0180761306214754,0.0189165507435549,0.0170977720225529,5.056396053585844e-05,critical
1500,6.0606060606060606,0.9113924050632912,anode,0.0181429020407448,0.0191011919262639,0.0170019815855089,-5.686642765759898e-06,critical
1500,6.161616161616162,0.9113924050632912,anode,0.0181005050396731,0.0189016229321879,0.0171756538806278,-2.295109938859325e-05,critical
1500,6.262626262626262,0.9113924050632912,anode,0.0181025100465398,0.0190165174914749,0.0170232719651046,-3.870043122565628e-05,critical
1500,6.363636363636363,0.9113924050632912,anode,0.0182036136677296,0.0191399089281002,0.0170938005119245,6.111704579578305e-05,critical
1500,6.4646464646464645,0.9113924050632912,anode,0.018224615451039,0.0191223458098504,0.0171694006075227,3.3653182373544703e-05,critical
1500,6.565656565656566,0.9113924050632912,anode,0.0182167778897667,0.0191095124855693,0.0171684437416265,-2.9770107898737797e-05,critical
1500,6.666666666666667,0.9113924050632912,anode,0.0182741896294115,0.0191597189807154,0.0172365478307439,-1.4949799701280598e-06,critical
1500,6.767676767676767,0.9113924050632912,anode,0.0182742088172802,0.0191583468762791,0.0172369703133733,8.787043747281439e-05,critical
1500,6.8686868686868685,0.9113924050632912,anode,0.0184541376238451,0.0193588825165595,0.0173917682610949,-1.2361553271351587e-05,critical
1500,6.96969696969697,0.9113924050632912,anode,0.0184863874272019,0.0193421122111177,0.0174910314767692,-4.664301187394803e-05,critical
1500,7.070707070707071,0.9113924050632912,anode,0.0185933091536918,0.019506323061366,0.017520584503518,-4.399285945947986e-05,critical
1500,7.171717171717171,0.9113924050632912,anode,0.0185401145253389,0.0194506880843419,0.0174703520396211,3.534362905886032e-05,critical
1500,7.272727272727272,0.9113924050632912,anode,0.0185415212762118,0.019390929852804,0.0175551345136175,-4.9949303435787766e-05,critical
1500,7.373737373737374,0.9113924050632912,anode,0.0187639473292314,0.0196786622471858,0.0176908988871529,-2.0753708795644606e-05,critical
1500,7.474747474747475,0.9113924050632912,anode,0.018822300600585,0.0196758174556981,0.0178312076908953,-0.0001046058852397,critical
1500,7.575757575757575,0.9113924050632912,anode,0.0187741072199506,0.0195922524954314,0.0178319215083445,-1.6613768428886208e-05,critical
1500,7.6767676767676765,0.9113924050632912,anode,0.0188303266830225,0.0197386046227013,0.017765304321431,-9.123396236174171e-05,critical
1500,7.777777777777778,0.9113924050632912,anode,0.0189668901348977,0.0198251309185611,0.017971762203922,-7.166418649140676e-05,critical
1500,7.878787878787879,0.9113924050632912,anode,0.0191511713769869,0.0200341998506538,0.0181251263690048,-1.1540615090583628e-05,critical
1500,7.979797979797979,0.9113924050632912,anode,0.0191355999894316,0.0200887807147496,0.0180131410744111,1.6990304082733093e-05,critical
1500,8.080808080808081,0.9113924050632912,anode,0.0193284175480637,0.0204252911387414,0.0180031730331023,1.8422562079147956e-05,critical
1500,8.181818181818182,0.9113924050632912,anode,0.0193763628373538,0.02025217497782,0.0183620097986903,5.066651386197649e-06,critical
1500,8.282828282828282,0.9113924050632912,anode,0.0195302554043218,0.0204437304923717,0.0184659531691644,-4.583718538385628e-05,critical
1500,8.383838383838384,0.9113924050632912,anode,0.0195934941766348,0.0204916379233243,0.0185506858888089,3.5500172497470744e-05,critical
1500,8.484848484848484,0.9113924050632912,anode,0.0195679669323901,0.0205170775935691,0.0184548729861777,-6.475849363487062e-05,critical
1500,8.585858585858587,0.9113924050632912,anode,0.0198914851654478,0.0208307587575254,0.0187957552689754,-5.750805909865843e-06,critical
1500,8.686868686868687,0.9113924050632912,anode,0.0198964448728882,0.0208470819080553,0.0187852134267691,1.0551107387805863e-05,critical
1500,8.787878787878787,0.9113924050632912,anode,0.0200469497975925,0.0211298289904877,0.0187506643676623,8.453862619396635e-05,critical
1500,8.88888888888889,0.9113924050632912,anode,0.0202365353000129,0.0212229528092415,0.0190793243318957,2.954077264814595e-05,critical
1500,8.98989898989899,0.9113924050632912,anode,0.0203016215929701,0.0213122186295895,0.0191117016605811,-1.6331967248109085e-05,critical
1500,9.09090909090909,0.9113924050632912,anode,0.0206015475981505,0.0214902833746324,0.0195795161612895,3.357305947523629e-05,critical
1500,9.191919191919192,0.9113924050632912,anode,0.0207415990242666,0.0216446603370368,0.0197016104517617,-3.568802691376817e-05,critical
1500,9.292929292929292,0.9113924050632912,anode,0.0208141327402379,0.0219160412283388,0.0195015953569066,-1.6380901727642343e-05,critical
1500,9.393939393939394,0.9113924050632912,anode,0.0210177276949006,0.0221778149194432,0.0196243126408404,-6.580281449209115e-06,critical
1500,9.494949494949497,0.9113924050632912,anode,0.0212540503708873,0.0223301189933398,0.0199826948973481,-5.260676884443882e-05,critical
1500,9.595959595959595,0.9113924050632912,anode,0.0213617665747637,0.0223667080743491,0.0201901759363607,-1.623644526703854e-06,critical
1500,9.696969696969695,0.9113924050632912,anode,0.0217057059047129,0.0227931006465607,0.0204238731933851,1.855449261065e-05,critical
1500,9.797979797979798,0.9113924050632912,anode,0.0218682387732082,0.0228984721280117,0.020666389567081,-5.455576595362057e-05,critical
1500,9.8989898989899,0.9113924050632912,anode,0.0219756970145555,0.0229719794657132,0.0208210771899965,-3.425888317498492e-05,critical
1500,10.0,0.9113924050632912,anode,0.0223628916176429,0.023501828377511,0.0210162547907269,1.200301928399658e-05,critical
1500,0.0,1.0126582278481011,anode,0.0222477938697775,0.0233309379027344,0.0209774858688251,1.9794234437633983e-05,critical
1500,0.101010101010101,1.0126582278481011,anode,0.0222454331020531,0.0233655862822928,0.0209237862149823,-1.116797184863604e-05,critical
1500,0.202020202020202,1.0126582278481011,anode,0.0218911191955203,0.0229861315627993,0.0206005012483002,-3.667734078758914e-05,critical
1500,0.303030303030303,1.0126582278481011,anode,0.0217716626868626,0.0227670149311621,0.0206167304512808,7.366366250627074e-06,critical
1500,0.404040404040404,1.0126582278481011,anode,0.0214639620084634,0.0224125448225129,0.0203692231278997,-1.1183309941946152e-05,critical
1500,0.5050505050505051,1.0126582278481011,anode,0.0213519829870478,0.0223708914843776,0.0201605501145668,-6.348130892876724e-05,critical
1500,0.6060606060606061,1.0126582278481011,anode,0.0211039630490657,0.0221546723042647,0.0198666710452537,-3.01099699634275e-05,critical
1500,0.7070707070707071,1.0126582278481011,anode,0.0209436934720164,0.0220274563611594,0.0196577000123369,6.688775295063931e-05,critical
1500,0.8080808080808081,1.0126582278481011,anode,0.0206591990818824,0.0216423886351193,0.0195103601054485,-4.53329912086703e-05,critical
1500,0.9090909090909092,1.0126582278481011,anode,0.0205493117260886,0.0215227734375074,0.0194125697623864,5.4503913674539086e-05,critical
1500,1.0101010101010102,1.0126582278481011,anode,0.0203379667907209,0.0212174861192943,0.0193249018522612,9.161725740984112e-05,critical
1500,1.1111111111111112,1.0126582278481011,anode,0.0202236731243458,0.0211319871879739,0.0191724687393445,-4.0325046844004246e-05,critical
1500,1.2121212121212122,1.0126582278481011,anode,0.0199270174721866,0.0208998616353258,0.0187854959324023,2.014342696505624e-05,critical
1500,1.3131313131313131,1.0126582278481011,anode,0.0198706970297723,0.0208444134848292,0.0187269900765941,-5.162065620036836e-05,critical
1500,1.414141414141414,1.0126582278481011,anode,0.0198001221654905,0.0207448639993391,0.018696047250352,-8.759064810884546e-06,critical
1500,1.5151515151515151,1.0126582278481011,anode,0.0195828696948822,0.0205764588400644,0.0184088566764848,2.003871957950789e-05,critical
1500,1.616161616161616,1.0126582278481011,anode,0.0195050971252217,0.0205369987432846,0.0182760425671579,2.468332789226188e-05,critical
1500,1.7171717171717171,1.0126582278481011,anode,0.0194337386339106,0.0203802706988626,0.0183231751035448,4.928262023565312e-05,critical
1500,1.818181818181818,1.0126582278481011,anode,0.0192838861437647,0.020183484103053,0.0182365456467499,1.4902989287166688e-05,critical
1500,1.9191919191919191,1.0126582278481011,anode,0.0192071594116009,0.0201050019165301,0.0181603298985137,8.115004735042547e-05,critical
1500,2.0202020202020203,1.0126582278481011,anode,0.0190952712718002,0.0200702014023975,0.017942034769102,3.666963799605805e-06,critical
1500,2.121212121212121,1.0126582278481011,anode,0.0190425181790897,0.0198780778080021,0.0180792420170229,-1.922562502016247e-05,critical
1500,2.2222222222222223,1.0126582278481011,anode,0.0190043913443536,0.0199571569543845,0.0178808009383405,4.353262153306325e-05,critical
1500,2.323232323232323,1.0126582278481011,anode,0.0189243523707705,0.0198147217446565,0.017885468030948,-6.713284105809476e-05,critical
1500,2.4242424242424243,1.0126582278481011,anode,0.0187410323111081,0.0196496586079305,0.0176761037383881,-2.5620858786071016e-05,critical
1500,2.525252525252525,1.0126582278481011,anode,0.0186637401088073,0.0195242591258999,0.0176638706684071,7.338028031284422e-06,critical
1500,2.6262626262626263,1.0126582278481011,anode,0.0187026727113406,0.0196655701869437,0.0175618712583484,8.276880125570108e-06,critical
1500,2.727272727272727,1.0126582278481011,anode,0.018568554473369,0.0195053618932046,0.0174627758217393,-2.0779061589026832e-05,critical
1500,2.8282828282828283,1.0126582278481011,anode,0.0184886925207856,0.0194258635959976,0.0173816095068951,5.737308021705711e-07,critical
1500,2.929292929292929,1.0126582278481011,anode,0.0185306448224171,0.0194739006932622,0.0174154378461332,-1.8448995346258157e-05,critical
1500,3.0303030303030303,1.0126582278481011,anode,0.0184185746869168,0.0193424233773783,0.0173291845200513,2.792268695081192e-05,critical
1500,3.131313131313131,1.0126582278481011,anode,0.0184425108788611,0.0193964184046433,0.017307645998502,-0.0001377122190858,critical
1500,3.2323232323232323,1.0126582278481011,anode,0.0184410529095875,0.019378836516944,0.017332531754633,-1.6020155787318358e-05,critical
1500,3.333333333333333,1.0126582278481011,anode,0.0182877353050451,0.0191667738134591,0.0172591064984967,1.5028015275933028e-05,critical
1500,3.4343434343434343,1.0126582278481011,anode,0.0183124650693788,0.0191570343095664,0.0173310847810056,-5.758027386168936e-06,critical
1500,3.5353535353535355,1.0126582278481011,anode,0.018254737369392,0.0189633396321202,0.0174520982799201,2.250204145550069e-05,critical
1500,3.636363636363636,1.0126582278481011,anode,0.018138263424382,0.0190790153708178,0.0170213337996147,6.39202866466433e-05,critical
1500,3.7373737373737375,1.0126582278481011,anode,0.0181823073488368,0.0190780991532223,0.0171295372019715,-1.1513205175025303e-05,critical
1500,3.8383838383838382,1.0126582278481011,anode,0.0181107550013712,0.019070469295728,0.0169669518979472,-4.804881208927898e-05,critical
1500,3.939393939393939,1.0126582278481011,anode,0.0182688338840104,0.0191438842654249,0.017245210149739,-4.090983768213571e-05,critical
1500,4.040404040404041,1.0126582278481011,anode,0.0181241886921488,0.0190123715226856,0.0170810702357136,3.9318193769178144e-05,critical
1500,4.141414141414141,1.0126582278481011,anode,0.0180736024717366,0.0190309704555658,0.01693308201695,-1.813669612351209e-05,critical
1500,4.242424242424242,1.0126582278481011,anode,0.018104893739273,0.0190317509346497,0.0170073496757604,-5.577862735288256e-05,critical
1500,4.343434343434343,1.0126582278481011,anode,0.0180645178164605,0.0188551703544714,0.0171526414979982,6.382778956764928e-05,critical
1500,4.444444444444445,1.0126582278481011,anode,0.0179150490962731,0.0186633745788387,0.0170585718098504,3.202461172548803e-05,critical
1500,4.545454545454545,1.0126582278481011,anode,0.0179926625155344,0.0188347272622983,0.0170115414719149,-3.721127457323463e-05,critical
1500,4.646464646464646,1.0126582278481011,anode,0.0179472873833385,0.0187727059926712,0.0169876236524793,-7.057175245481925e-05,critical
1500,4.747474747474747,1.0126582278481011,anode,0.0180946517812421,0.0189346452175123,0.0171160212236045,8.801600011782462e-05,critical
1500,4.848484848484849,1.0126582278481011,anode,0.0180173958142346,0.0190137334383448,0.0168200952174486,-2.3779616446387917e-05,critical
1500,4.94949494949495,1.0126582278481011,anode,0.0179927212819072,0.0189047751376327,0.0169147225302871,-5.380148036226642e-05,critical
1500,5.05050505050505,1.0126582278481011,anode,0.0179469899186176,0.0188216796909093,0.016920458466241,-5.27747379957749e-05,critical
1500,5.151515151515151,1.0126582278481011,anode,0.0179714324717457,0.0187875300518419,0.0170244426185443,7.456647438398849e-05,critical
1500,5.252525252525253,1.0126582278481011,anode,0.0179396174243104,0.0188210687127542,0.0169039846197646,-3.4669213525840526e-05,critical
1500,5.353535353535354,1.0126582278481011,anode,0.0180312485252352,0.0189503855254653,0.0169428248403042,-8.671958640716963e-05,critical
1500,5.454545454545454,1.0126582278481011,anode,0.018045912038058,0.0189252879520138,0.0170126610288956,9.537773401505852e-05,critical
1500,5.555555555555555,1.0126582278481011,anode,0.0180759504341561,0.0189996194124845,0.016982578329639,-5.478583251733109e-05,critical
1500,5.656565656565657,1.0126582278481011,anode,0.017998858583608,0.0189280119393942,0.0168970677746004,-4.573668774962846e-05,critical
1500,5.757575757575758,1.0126582278481011,anode,0.0180865450067403,0.0188413734156437,0.0172228917606469,1.519269253314804e-05,critical
1500,5.858585858585858,1.0126582278481011,anode,0.018051268508732,0.0188326005856793,0.0171521708160905,-3.859363955307764e-05,critical
1500,5.959595959595959,1.0126582278481011,anode,0.0181088239004509,0.01910539541261,0.0169108345040336,9.169790858740408e-05,critical
1500,6.0606060606060606,1.0126582278481011,anode,0.0181279608309935,0.0189989112219672,0.0171089202072996,-3.7297142870761367e-06,critical
1500,6.161616161616162,1.0126582278481011,anode,0.0181925319255406,0.0190423220561607,0.0172026871818383,4.021543252639471e-05,critical
1500,6.262626262626262,1.0126582278481011,anode,0.0181260945161505,0.0190045509659868,0.0170960995315643,-5.603767683342264e-05,critical
1500,6.363636363636363,1.0126582278481011,anode,0.0182346387486868,0.0191172276594185,0.0172006512108244,2.5770928317497807e-06,critical
1500,6.4646464646464645,1.0126582278481011,anode,0.0182872779404741,0.0190880359018879,0.0173640294754709,-4.8711000104757865e-05,critical
1500,6.565656565656566,1.0126582278481011,anode,0.0182572293962498,0.0192109843781638,0.0171240232090731,2.3635743950014717e-05,critical
1500,6.666666666666667,1.0126582278481011,anode,0.0182898327972537,0.0193313134814143,0.017030242067502,-4.511477334049766e-05,critical
1500,6.767676767676767,1.0126582278481011,anode,0.0183665174435424,0.01936371791457,0.0171727701043809,-3.3952900034721347e-06,critical
1500,6.8686868686868685,1.0126582278481011,anode,0.0184392246470349,0.0193879829194555,0.0173149926277363,-4.0560724874042746e-05,critical
1500,6.96969696969697,1.0126582278481011,anode,0.0184421687854657,0.0192526392506039,0.0175076499337897,6.670699618122507e-06,critical
1500,7.070707070707071,1.0126582278481011,anode,0.0185042941636859,0.0194920202259727,0.0173258713141958,1.2480642666568008e-05,critical
1500,7.171717171717171,1.0126582278481011,anode,0.0184670327097307,0.0193882575853105,0.017381457944088,5.1213520458335486e-05,critical
1500,7.272727272727272,1.0126582278481011,anode,0.0186713844817626,0.0195480141525301,0.0176492791318592,4.846144704169991e-05,critical
1500,7.373737373737374,1.0126582278481011,anode,0.018707811179702,0.0196719117804402,0.0175647002370441,5.951227815083379e-05,critical
1500,7.474747474747475,1.0126582278481011,anode,0.0187061000148338,0.0196180785502849,0.0176363204686669,-5.54913212290706e-06,critical
1500,7.575757575757575,1.0126582278481011,anode,0.0188595091715305,0.0198957787487847,0.0176153657467482,5.592630556655253e-05,critical
1500,7.6767676767676765,1.0126582278481011,anode,0.0188666986886499,0.0198314425032286,0.0177240945903627,7.536885271877825e-05,critical
1500,7.777777777777778,1.0126582278481011,anode,0.0190176064978776,0.0199186850503823,0.0179658253461465,5.136263858095712e-06,critical
1500,7.878787878787879,1.0126582278481011,anode,0.0189981171367668,0.0198589702201545,0.0180005486583102,2.807305325950909e-05,critical
1500,7.979797979797979,1.0126582278481011,anode,0.0190728348503688,0.0199937545740901,0.0179943755864586,-1.1309341391522004e-05,critical
1500,8.080808080808081,1.0126582278481011,anode,0.0193799439242134,0.0203530196158816,0.0182319559337573,5.150600734652001e-05,critical
1500,8.181818181818182,1.0126582278481011,anode,0.0193737283186836,0.0202596808165099,0.018345699630188,-1.4284486696446086e-06,critical
1500,8.282828282828282,1.0126582278481011,anode,0.0194203209267899,0.020310373688519,0.0183863058237594,-6.852181980502389e-05,critical
1500,8.383838383838384,1.0126582278481011,anode,0.0195017565427818,0.0204924461227694,0.0183308053218025,3.0423990071422534e-05,critical
1500,8.484848484848484,1.0126582278481011,anode,0.019739530659416,0.0206494921395733,0.0186822332829077,-1.0550194590327512e-05,critical
1500,8.585858585858587,1.0126582278481011,anode,0.0199428913506302,0.0209757183899001,0.0187164521420085,8.869809349197745e-05,critical
1500,8.686868686868687,1.0126582278481011,anode,0.0198582112211519,0.0208002390584355,0.0187583482598798,1.920697589124211e-05,critical
1500,8.787878787878787,1.0126582278481011,anode,0.0201087814795117,0.0211814803532079,0.0188291032758222,1.943854584864709e-05,critical
1500,8.88888888888889,1.0126582278481011,anode,0.0201450367266342,0.0210617710911876,0.0190821243455511,-7.496229193802974e-06,critical
1500,8.98989898989899,1.0126582278481011,anode,0.0203160774143989,0.0212842768675843,0.0191848082881787,-1.2408798191643822e-05,critical
1500,9.09090909090909,1.0126582278481011,anode,0.0204173097910786,0.0214176399220654,0.0192427658931181,2.470532790550346e-05,critical
1500,9.191919191919192,1.0126582278481011,anode,0.0206768165165435,0.0216828135355707,0.0194971795476618,3.4989620777967665e-06,critical
1500,9.292929292929292,1.0126582278481011,anode,0.0209011364583216,0.0218366453152885,0.0198192421387062,-2.4689213229227783e-05,critical
1500,9.393939393939394,1.0126582278481011,anode,0.0208600400570505,0.0217982252713327,0.0197737301910602,-5.90640680979614e-05,critical
1500,9.494949494949497,1.0126582278481011,anode,0.0212070410096024,0.022227234694691,0.020013060201544,-1.85619517280473e-05,critical
1500,9.595959595959595,1.0126582278481011,anode,0.0214875842672555,0.0225634258778965,0.0202191011656334,5.237307647723861e-05,critical
1500,9.696969696969695,1.0126582278481011,anode,0.0216116917279865,0.0227555642041115,0.0202492775351041,-1.9528903746127017e-06,critical
1500,9.797979797979798,1.0126582278481011,anode,0.0218798186984645,0.0229242267463938,0.0206586804031154,-5.625004247745419e-05,critical
1500,9.8989898989899,1.0126582278481011,anode,0.0221284933147318,0.0231852825898217,0.0208932361390372,-1.9624373671018733e-05,critical
1500,10.0,1.0126582278481011,anode,0.0222993045241371,0.0233432076345634,0.0210832525984701,1.6757853885972182e-05,critical
1500,0.0,1.1139240506329111,anode,0.0223496772935569,0.0234114258599014,0.0211097797878495,-1.2329680435607893e-05,critical
1500,0.101010101010101,1.1139240506329111,anode,0.0220585786132808,0.0231497966824833,0.0207752001162998,-1.3201716007988088e-05,critical
1500,0.202020202020202,1.1139240506329111,anode,0.0218326376701869,0.0229929739572004,0.0204494971856946,3.527130769893562e-06,critical
1500,0.303030303030303,1.1139240506329111,anode,0.0217297445932669,0.022823201487617,0.0204397602990403,8.954060795038428e-06,critical
1500,0.404040404040404,1.1139240506329111,anode,0.0213975784256525,0.022467241897166,0.0201371282223521,-2.0015482009550848e-05,critical
1500,0.5050505050505051,1.1139240506329111,anode,0.0212641513787786,0.0223154065495523,0.0200278042637658,-2.837370194501544e-05,critical
1500,0.6060606060606061,1.1139240506329111,anode,0.0210800565669688,0.0221002752689784,0.0198843592001478,-5.381750641761163e-05,critical
1500,0.7070707070707071,1.1139240506329111,anode,0.02094103400129,0.0219559012522472,0.0197493328638867,0.0001204973490942,critical
1500,0.8080808080808081,1.1139240506329111,anode,0.0206607952007414,0.0217383912429332,0.019380937525331,-1.248620375046433e-05,critical
1500,0.9090909090909092,1.1139240506329111,anode,0.0204635507641278,0.0214364459089766,0.019326785420288,5.3703637672049134e-05,critical
1500,1.0101010101010102,1.1139240506329111,anode,0.0204693763767279,0.0215138906690742,0.0192339582257493,-9.838209586923643e-07,critical
1500,1.1111111111111112,1.1139240506329111,anode,0.0202700281729298,0.0213347917391861,0.0190037041803862,8.08895953231506e-07,critical
1500,1.2121212121212122,1.1139240506329111,anode,0.0200919316629126,0.0211007718373739,0.0189014227407228,-6.824672023912403e-05,critical
1500,1.3131313131313131,1.1139240506329111,anode,0.0199025960293339,0.0209596509945,0.0186423733239982,-4.440091767525506e-05,critical
1500,1.414141414141414,1.1139240506329111,anode,0.019810379742668,0.0208679597490626,0.0185477855548206,6.706927971231656e-05,critical
1500,1.5151515151515151,1.1139240506329111,anode,0.0196633344818887,0.0207320667227908,0.0183835393955201,-2.8148361234227537e-05,critical
1500,1.616161616161616,1.1139240506329111,anode,0.0195382248473531,0.0204643759241343,0.0184567265574108,-4.540046333413468e-05,critical
1500,1.7171717171717171,1.1139240506329111,anode,0.0194237376908593,0.0203723823607636,0.01831050484567,2.3388469056623997e-05,critical
1500,1.818181818181818,1.1139240506329111,anode,0.0192966999187115,0.0202716479349752,0.0181453434974798,-4.259167284032593e-05,critical
1500,1.9191919191919191,1.1139240506329111,anode,0.0192869037174144,0.02019272060819,0.0182311509968072,1.0973001118856023e-05,critical
1500,2.0202020202020203,1.1139240506329111,anode,0.0191272037927047,0.020104259411272,0.0179705669320864,-6.414037114630956e-05,critical
1500,2.121212121212121,1.1139240506329111,anode,0.0190562655769559,0.0200506661504939,0.0178725528137763,-0.0001161755938081,critical
1500,2.2222222222222223,1.1139240506329111,anode,0.0189614515783876,0.019972643871263,0.0177545079770677,-6.338816647521092e-05,critical
1500,2.323232323232323,1.1139240506329111,anode,0.0189000331023413,0.0198741421881475,0.0177457240455338,3.854314556706023e-06,critical
1500,2.4242424242424243,1.1139240506329111,anode,0.018800154264366,0.0196051381570218,0.0178751504427253,-5.211802363958687e-05,critical
1500,2.525252525252525,1.1139240506329111,anode,0.0187219196885686,0.019648455484777,0.0176312734310555,6.822081141363326e-05,critical
1500,2.6262626262626263,1.1139240506329111,anode,0.0187254625011767,0.0196418059408205,0.0176496575306766,-3.2364875218898275e-05,critical
1500,2.727272727272727,1.1139240506329111,anode,0.0185975621102926,0.0195042616679453,0.0175339761287474,3.3088580025896697e-06,critical
1500,2.8282828282828283,1.1139240506329111,anode,0.0185602094221543,0.0194795088682657,0.0174783897428767,4.636104994378582e-05,critical
1500,2.929292929292929,1.1139240506329111,anode,0.0184087667647548,0.0192378853846142,0.0174483148202496,6.178006062908686e-05,critical
1500,3.0303030303030303,1.1139240506329111,anode,0.0185512703344351,0.0194657896144956,0.0174762596663313,-2.712743721589654e-05,critical
1500,3.131313131313131,1.1139240506329111,anode,0.0184476466164609,0.0193092180319601,0.0174443536266352,1.9311760332929808e-05,critical
1500,3.2323232323232323,1.1139240506329111,anode,0.0184624683822722,0.0193122563392973,0.0174744154540459,6.997384984133628e-05,critical
1500,3.333333333333333,1.1139240506329111,anode,0.0183524002092613,0.0192060153930156,0.0173567568402412,-0.0001106001799014,critical
1500,3.4343434343434343,1.1139240506329111,anode,0.0183111587749596,0.019288049563648,0.0171455882404497,-3.385941860279615e-05,critical
1500,3.5353535353535355,1.1139240506329111,anode,0.0182620184717205,0.0191093237890045,0.0172760097298963,-4.971422182803132e-05,critical
1500,3.636363636363636,1.1139240506329111,anode,0.0181462699511349,0.0188771037547254,0.0173143576845242,-1.949559006261326e-06,critical
1500,3.7373737373737375,1.1139240506329111,anode,0.0182587360864789,0.0190958646030074,0.0172863321849279,5.650078942004648e-05,critical
1500,3.8383838383838382,1.1139240506329111,anode,0.0180886434568547,0.0189226724730936,0.017119548159727,-7.350870566421747e-06,critical
1500,3.939393939393939,1.1139240506329111,anode,0.018051716628667,0.0188750852274393,0.017096709737683,3.879730393566768e-07,critical
1500,4.040404040404041,1.1139240506329111,anode,0.0180582739814159,0.0189166841636336,0.0170554485581469,3.8848274021518914e-05,critical
1500,4.141414141414141,1.1139240506329111,anode,0.0180780670569605,0.0189586155121557,0.0170438810926471,8.546373171315321e-05,critical
1500,4.242424242424242,1.1139240506329111,anode,0.0180398113256017,0.0189438775485236,0.0169740479172143,9.637434699698654e-06,critical
1500,4.343434343434343,1.1139240506329111,anode,0.0181363361610888,0.0189833162772773,0.0171492831116855,6.5182967695179e-05,critical
1500,4.444444444444445,1.1139240506329111,anode,0.0180595952431749,0.0190200685648158,0.0169144666910631,-1.9191102446865888e-05,critical
1500,4.545454545454545,1.1139240506329111,anode,0.0181845851961854,0.0189791120847416,0.0172692171583103,-1.816621932784767e-05,critical
1500,4.646464646464646,1.1139240506329111,anode,0.0181734083149389,0.018948429202323,0.0172833938400846,4.9201860667724e-05,critical
1500,4.747474747474747,1.1139240506329111,anode,0.0179382566005346,0.0188420113397518,0.0168693455721812,0.0001114137496755,critical
1500,4.848484848484849,1.1139240506329111,anode,0.0180994584696052,0.0188332286406705,0.0172632928482403,-2.681541129003032e-05,critical
1500,4.94949494949495,1.1139240506329111,anode,0.0179920181425441,0.0187965416096967,0.0170611988023118,-5.7064243135197205e-05,critical
1500,5.05050505050505,1.1139240506329111,anode,0.0180076745394415,0.0189409394260145,0.016899173678456,-8.428119049206909e-05,critical
1500,5.151515151515151,1.1139240506329111,anode,0.0179750848629869,0.0186709833300465,0.0171871628555285,1.550768210643363e-05,critical
1500,5.252525252525253,1.1139240506329111,anode,0.0180969179846958,0.0189903253688938,0.0170458295486314,6.198719914987639e-05,critical
1500,5.353535353535354,1.1139240506329111,anode,0.0179995233042278,0.0188959126717107,0.0169438857794288,2.7350708219788835e-05,critical
1500,5.454545454545454,1.1139240506329111,anode,0.0179548342007287,0.018734503620483,0.0170540752385762,-0.0001324101303311,critical
1500,5.555555555555555,1.1139240506329111,anode,0.0180050800960708,0.0188020751085205,0.0170850274550929,-1.5134728192542613e-05,critical
1500,5.656565656565657,1.1139240506329111,anode,0.0182131382189006,0.0190867869647723,0.0171911914173689,1.307730219748684e-05,critical
1500,5.757575757575758,1.1139240506329111,anode,0.0181607319318282,0.0190649716711472,0.017095569831135,4.8600958741566845e-05,critical
1500,5.858585858585858,1.1139240506329111,anode,0.0181504551109681,0.0189670841924751,0.0172053286902116,1.0335361018705694e-05,critical
1500,5.959595959595959,1.1139240506329111,anode,0.0181067730172687,0.0189683123319266,0.0171002644332071,2.869041286106462e-05,critical
1500,6.0606060606060606,1.1139240506329111,anode,0.018142002996491,0.0189176209167211,0.017251098511954,-4.1768221342435405e-05,critical
1500,6.161616161616162,1.1139240506329111,anode,0.0182110303282519,0.0191624027901336,0.0170807176035791,1.439602124183076e-05,critical
1500,6.262626262626262,1.1139240506329111,anode,0.0182228066280699,0.0190530136298513,0.0172589849928132,-7.408631913134751e-05,critical
1500,6.363636363636363,1.1139240506329111,anode,0.0181657619732969,0.0190260040763637,0.0171612080527048,-5.237523122456901e-05,critical
1500,6.4646464646464645,1.1139240506329111,anode,0.0182947725839724,0.0192346606570983,0.0171816309351617,-1.7628450238086527e-05,critical
1500,6.565656565656566,1.1139240506329111,anode,0.0183047184244588,0.0191600035347185,0.0173087247000261,-9.25276484001744e-06,critical
1500,6.666666666666667,1.1139240506329111,anode,0.0182801609124678,0.0192251380409325,0.017159166535165,-5.384984423821838e-05,critical
1500,6.767676767676767,1.1139240506329111,anode,0.0182939164201503,0.0191211795020866,0.0173355116031599,3.336174286817495e-05,critical
1500,6.8686868686868685,1.1139240506329111,anode,0.0184033680065516,0.019280132235631,0.0173787656799051,-3.5864581974123346e-05,critical
1500,6.96969696969697,1.1139240506329111,anode,0.0185077521792949,0.0193307599267534,0.0175565223646451,5.180998541836929e-05,critical
1500,7.070707070707071,1.1139240506329111,anode,0.0185498010896968,0.0194124577658968,0.0175447678956994,8.121828273685061e-05,critical
1500,7.171717171717171,1.1139240506329111,anode,0.0185612767946644,0.0194209472315235,0.0175616188602907,-1.4388308257312014e-05,critical
1500,7.272727272727272,1.1139240506329111,anode,0.0186508506305218,0.0196225953008117,0.0174925809044027,0.0001499244913545,critical
1500,7.373737373737374,1.1139240506329111,anode,0.0186945819219865,0.0194744947463851,0.0178023058026059,9.425988529790494e-06,critical
1500,7.474747474747475,1.1139240506329111,anode,0.018687432592181,0.019552315428034,0.0176814348976755,4.813380251520762e-05,critical
1500,7.575757575757575,1.1139240506329111,anode,0.0188439958912252,0.01975748723741,0.0177718069375299,-9.487911821164556e-05,critical
1500,7.6767676767676765,1.1139240506329111,anode,0.0188173287076695,0.0196836135934922,0.0178108805362007,-2.7327362261382876e-05,critical
1500,7.777777777777778,1.1139240506329111,anode,0.0188957595258858,0.0198382221737605,0.0177856072720679,-2.3604850640723343e-05,critical
1500,7.878787878787879,1.1139240506329111,anode,0.0190270441782336,0.0200638217172201,0.0177842793743755,-6.187657318358443e-05,critical
1500,7.979797979797979,1.1139240506329111,anode,0.019193028835029,0.0201972715044132,0.0179995685175317,-9.74906540966687e-06,critical
1500,8.080808080808081,1.1139240506329111,anode,0.0192797989916801,0.0202462168027064,0.0181401542503511,-4.341235620227795e-05,critical
1500,8.181818181818182,1.1139240506329111,anode,0.0193268144928491,0.0202073373870772,0.0183056118935893,-2.253129504085999e-05,critical
1500,8.282828282828282,1.1139240506329111,anode,0.019429374897937,0.0203292734599705,0.0183828735592749,2.361344669189352e-05,critical
1500,8.383838383838384,1.1139240506329111,anode,0.0195514495414556,0.0204550305544929,0.0185006681562489,5.136267714030215e-05,critical
1500,8.484848484848484,1.1139240506329111,anode,0.0196063548290687,0.0205193245005914,0.0185437933174805,-1.022537077482622e-05,critical
1500,8.585858585858587,1.1139240506329111,anode,0.0197254978919565,0.0205114586539848,0.0188318993258317,-3.925621392213385e-05,critical
1500,8.686868686868687,1.1139240506329111,anode,0.0198372813504142,0.0207490932281433,0.0187779892703268,-4.557249129208634e-05,critical
1500,8.787878787878787,1.1139240506329111,anode,0.0201008170517195,0.021007998659813,0.0190500845985029,-4.190051927713359e-05,critical
1500,8.88888888888889,1.1139240506329111,anode,0.0203125311002997,0.0214073187178607,0.0190038866054205,7.666838006962255e-06,critical
1500,8.98989898989899,1.1139240506329111,anode,0.0202584686014168,0.0213202826353951,0.0189961696512264,-1.0692011797335827e-05,critical
1500,9.09090909090909,1.1139240506329111,anode,0.0204750140335453,0.021396144464635,0.0194083651996794,5.985435923351156e-05,critical
1500,9.191919191919192,1.1139240506329111,anode,0.0206425204609522,0.0217120800415185,0.0193738002468199,1.4105733938243306e-05,critical
1500,9.292929292929292,1.1139240506329111,anode,0.0208409495219476,0.0218598411834833,0.0196451438408703,1.3763101395463474e-05,critical
1500,9.393939393939394,1.1139240506329111,anode,0.0210419829591412,0.0221028133239727,0.0197882223480691,-0.0001038121611662,critical
1500,9.494949494949497,1.1139240506329111,anode,0.0212436825544723,0.0222492400856578,0.0200701502672594,-2.8394281567185325e-06,critical
1500,9.595959595959595,1.1139240506329111,anode,0.0214162042984303,0.0224154658114298,0.0202527952932249,-1.6555971992894815e-05,critical
1500,9.696969696969695,1.1139240506329111,anode,0.0216903725413998,0.022787131993775,0.0203941011320224,8.677536059931908e-05,critical
1500,9.797979797979798,1.1139240506329111,anode,0.0218673980936166,0.0229913452348329,0.0205361751974285,1.7754858915097744e-05,critical
1500,9.8989898989899,1.1139240506329111,anode,0.0221546472702475,0.0232124497453474,0.0209179128522056,-4.998418321160453e-05,critical
1500,10.0,1.1139240506329111,anode,0.0224007400499882,0.0235015161885263,0.0211075896783201,-2.523308056921912e-05,critical
1500,0.0,1.2151898734177216,anode,0.0225133696775554,0.0237236420673569,0.0210674392016109,-2.135372933977178e-06,critical
1500,0.101010101010101,1.2151898734177216,anode,0.0222183085839201,0.0233332860942785,0.0209028786408387,-6.710295544025203e-05,critical
1500,0.202020202020202,1.2151898734177216,anode,0.021865148053645,0.0229353763004095,0.0206087830799833,2.212360393047395e-05,critical
1500,0.303030303030303,1.2151898734177216,anode,0.0216091702716872,0.0226586412806715,0.0203781070892098,7.114566942302905e-05,critical
1500,0.404040404040404,1.2151898734177216,anode,0.0215367208769985,0.0225762735855745,0.020318516845907,-7.41293282616154e-05,critical
1500,0.5050505050505051,1.2151898734177216,anode,0.021132234107881,0.0220857297234898,0.0200280088786475,-3.611242412311176e-05,critical
1500,0.6060606060606061,1.2151898734177216,anode,0.0210842175344025,0.0220970313606898,0.0198992086803997,1.1048986478624936e-05,critical
1500,0.7070707070707071,1.2151898734177216,anode,0.0208850393806052,0.0218707830155819,0.0197350573791432,2.8214629720787784e-05,critical
1500,0.8080808080808081,1.2151898734177216,anode,0.0205893087206579,0.0214650929006726,0.0195838943346694,5.948192777211005e-05,critical
1500,0.9090909090909092,1.2151898734177216,anode,0.0205251302099529,0.0215682481316453,0.0192920855702517,-3.447498372470639e-05,critical
1500,1.0101010101010102,1.2151898734177216,anode,0.0201780582634874,0.021116756186554,0.0190857435330957,3.1653701376659456e-06,critical
1500,1.1111111111111112,1.2151898734177216,anode,0.0200563203327399,0.0210494621718534,0.0188880272791384,-2.136025022474932e-05,critical
1500,1.2121212121212122,1.2151898734177216,anode,0.0200704375896821,0.0210004292680359,0.018988950003544,-1.0243471835091907e-05,critical
1500,1.3131313131313131,1.2151898734177216,anode,0.0200243218713041,0.0208886633253262,0.0190304032336169,-1.4716713015336634e-05,critical
1500,1.414141414141414,1.2151898734177216,anode,0.0195972385927595,0.020577284234933,0.0184417861866796,-5.6368975750871337e-05,critical
1500,1.5151515151515151,1.2151898734177216,anode,0.0196050403289257,0.0205371970637567,0.0185163331523446,-6.645862980861821e-06,critical
1500,1.616161616161616,1.2151898734177216,anode,0.0194818301403467,0.0204919839026545,0.0182832124875378,-3.530094262632822e-05,critical
1500,1.7171717171717171,1.2151898734177216,anode,0.019517958387635,0.020387637151896,0.0185111914864649,0.0001003261528285,critical
1500,1.818181818181818,1.2151898734177216,anode,0.0193616571605496,0.0203014661066581,0.0182600262506337,-1.8140957074917832e-05,critical
1500,1.9191919191919191,1.2151898734177216,anode,0.0193189998327848,0.0201855237508138,0.0183163439901153,-4.0517160093640274e-05,critical
1500,2.0202020202020203,1.2151898734177216,anode,0.0191618129589394,0.0199913831112992,0.0182073718903324,-2.47179240611602e-05,critical
1500,2.121212121212121,1.2151898734177216,anode,0.0189646718141294,0.0199308347180306,0.0178218040733265,4.94482717494748e-05,critical
1500,2.2222222222222223,1.2151898734177216,anode,0.0189958762124362,0.0200006138617987,0.0177990966322848,3.547832758948671e-05,critical
1500,2.323232323232323,1.2151898734177216,anode,0.0190007067370858,0.0199730429345431,0.0178499125223653,2.648631459685849e-05,critical
1500,2.4242424242424243,1.2151898734177216,anode,0.0188334689010414,0.0196437594752631,0.0179019963042684,3.317817838086552e-05,critical
1500,2.525252525252525,1.2151898734177216,anode,0.0188006711586389,0.0196748916974704,0.017783195928529,-3.77235750352082e-05,critical
1500,2.6262626262626263,1.2151898734177216,anode,0.0186192419619907,0.0195049424687365,0.0175843731620498,-4.241816745957613e-05,critical
1500,2.727272727272727,1.2151898734177216,anode,0.0186797161221959,0.019580745349704,0.0176240650585937,-6.018500718200793e-05,critical
1500,2.8282828282828283,1.2151898734177216,anode,0.0185508842110785,0.0195011414948191,0.0174258691142795,3.746238846310768e-05,critical
1500,2.929292929292929,1.2151898734177216,anode,0.018562100213993,0.0195919267030589,0.0173238359596659,1.2105729934482565e-06,critical
1500,3.0303030303030303,1.2151898734177216,anode,0.0184820609401517,0.0193826234759627,0.0174257698885356,-7.3960484707481154e-06,critical
1500,3.131313131313131,1.2151898734177216,anode,0.0182979459094623,0.0192652472403077,0.0171459130204303,3.1588345222957205e-05,critical
1500,3.2323232323232323,1.2151898734177216,anode,0.0183655200411119,0.0192881225503714,0.017277437475975,-6.843953471578939e-06,critical
1500,3.333333333333333,1.2151898734177216,anode,0.0182823894674421,0.0191100643324824,0.0173234937599698,-1.6832629925523924e-05,critical
1500,3.4343434343434343,1.2151898734177216,anode,0.0182422091078323,0.0191544300327486,0.0171670128497213,-3.6604067182719495e-05,critical
1500,3.5353535353535355,1.2151898734177216,anode,0.0182949794098008,0.0191538854817061,0.0172938718894378,-2.4353891017172e-05,critical
1500,3.636363636363636,1.2151898734177216,anode,0.0183177160634931,0.0191910034781459,0.0172972681390863,-1.3604272900167666e-05,critical
1500,3.7373737373737375,1.2151898734177216,anode,0.0182271344547287,0.0191036580551093,0.0172013428701671,1.8753555506429703e-05,critical
1500,3.8383838383838382,1.2151898734177216,anode,0.01813748040802,0.0188835689250432,0.017283617120052,0.0001032385787946,critical
1500,3.939393939393939,1.2151898734177216,anode,0.0181884717160979,0.0190747673805101,0.0171487608251418,-2.815736959040446e-05,critical
1500,4.040404040404041,1.2151898734177216,anode,0.0180789689243352,0.018941200307463,0.017069871673914,-8.829479796655338e-05,critical
1500,4.141414141414141,1.2151898734177216,anode,0.0181163286192728,0.0190259070436571,0.0170436542185389,-1.8757510854429695e-05,critical
1500,4.242424242424242,1.2151898734177216,anode,0.0181425722542761,0.0188880952757227,0.0172913525182585,-2.9590297622633373e-05,critical
1500,4.343434343434343,1.2151898734177216,anode,0.0180464097671415,0.0189011564466089,0.0170487677315743,6.718521846379702e-06,critical
1500,4.444444444444445,1.2151898734177216,anode,0.0179608071900415,0.0189661771133846,0.0167496721119994,-1.2283177927893169e-05,critical
1500,4.545454545454545,1.2151898734177216,anode,0.0180074318439202,0.018864009000537,0.0170068229594239,2.3095778926293103e-05,critical
1500,4.646464646464646,1.2151898734177216,anode,0.017897366922408,0.0187801677325747,0.0168581674264622,8.649787245906373e-05,critical
1500,4.747474747474747,1.2151898734177216,anode,0.0181016593776569,0.0190313837726191,0.0170005088542897,-2.8348750799404195e-05,critical
1500,4.848484848484849,1.2151898734177216,anode,0.0179960287226775,0.0187966644122363,0.017071038860039,1.5029090007214169e-05,critical
1500,4.94949494949495,1.2151898734177216,anode,0.0179694071442239,0.0187941300035045,0.0170115994155157,-3.636314538485968e-05,critical
1500,5.05050505050505,1.2151898734177216,anode,0.0181106965742095,0.0190659572686471,0.0169729970397531,-5.891123985795688e-05,critical
1500,5.151515151515151,1.2151898734177216,anode,0.01806256881929,0.0188932008740765,0.0170977544321554,-2.2026071185150323e-05,critical
1500,5.252525252525253,1.2151898734177216,anode,0.0180235310666006,0.0188036799561563,0.0171260257990361,-1.6739094584998698e-05,critical
1500,5.353535353535354,1.2151898734177216,anode,0.017887069078741,0.018724301957747,0.0169106415256617,-7.728268248531251e-05,critical
1500,5.454545454545454,1.2151898734177216,anode,0.01806538278021,0.0188459259593254,0.0171676967483489,-1.2381429607902486e-05,critical
1500,5.555555555555555,1.2151898734177216,anode,0.0181459427930645,0.0189763939744576,0.0171821745049239,1.005983757700367e-05,critical
1500,5.656565656565657,1.2151898734177216,anode,0.0181650388328115,0.0190637924393158,0.0171077667977712,3.504356451209603e-05,critical
1500,5.757575757575758,1.2151898734177216,anode,0.0179558555788583,0.0189248221187488,0.0167971535126495,2.9628495463863982e-05,critical
1500,5.858585858585858,1.2151898734177216,anode,0.0181644124184403,0.0190046539491446,0.0171868200464217,6.269221332522238e-05,critical
1500,5.959595959595959,1.2151898734177216,anode,0.0181726466920473,0.0190398375503391,0.017156591919029,-0.0001151095570284,critical
1500,6.0606060606060606,1.2151898734177216,anode,0.0182406557391146,0.0191026768123461,0.017234616164847,-3.902404493762029e-05,critical
1500,6.161616161616162,1.2151898734177216,anode,0.018067602478746,0.0190401784313029,0.0169052009823866,-2.637865885596223e-05,critical
1500,6.262626262626262,1.2151898734177216,anode,0.0182637990821512,0.0191362616606569,0.0172434934758661,-5.093268049791466e-05,critical
1500,6.363636363636363,1.2151898734177216,anode,0.0180681647537625,0.0189240197964239,0.0170687180537212,5.057886393570191e-05,critical
1500,6.4646464646464645,1.2151898734177216,anode,0.0183190725152234,0.019240907110596,0.0172313626689931,3.214784673202302e-05,critical
1500,6.565656565656566,1.2151898734177216,anode,0.0182667575970617,0.0192738534991204,0.0170570311354364,4.2475417769506376e-05,critical
1500,6.666666666666667,1.2151898734177216,anode,0.0183646171856493,0.0192543247171507,0.0173220577101897,-1.8116916946856474e-05,critical
1500,6.767676767676767,1.2151898734177216,anode,0.0183043478359425,0.0192094311370265,0.017238430669635,8.918145912710794e-05,critical
1500,6.8686868686868685,1.2151898734177216,anode,0.0184342202162015,0.019349587684594,0.0173561157359627,6.547587968165722e-05,critical
1500,6.96969696969697,1.2151898734177216,anode,0.0185245767886587,0.0194228621077368,0.0174707899479252,-7.442089763574584e-05,critical
1500,7.070707070707071,1.2151898734177216,anode,0.0184713609306058,0.0194011155500416,0.017373877906547,5.437324180881616e-05,critical
1500,7.171717171717171,1.2151898734177216,anode,0.0185788807840761,0.0194695163275882,0.0175363136555559,-6.829732841997726e-05,critical
1500,7.272727272727272,1.2151898734177216,anode,0.0185977160019123,0.0194756007916243,0.0175735890110503,-1.9896557917625304e-05,critical
1500,7.373737373737374,1.2151898734177216,anode,0.018733112564766,0.0195963096145089,0.017729940181399,-3.989261388892642e-05,critical
1500,7.474747474747475,1.2151898734177216,anode,0.0187766536207622,0.0196536583057953,0.0177554457407574,-3.941069314519747e-06,critical
1500,7.575757575757575,1.2151898734177216,anode,0.0187566425332546,0.0197270112412449,0.0176045341582204,8.541451133144642e-05,critical
1500,7.6767676767676765,1.2151898734177216,anode,0.0188129087954985,0.0197391848170492,0.0177243057522613,2.859314749855417e-05,critical
1500,7.777777777777778,1.2151898734177216,anode,0.0190126478010493,0.0199174494352839,0.0179551748501219,-5.467382123931565e-05,critical
1500,7.878787878787879,1.2151898734177216,anode,0.0191137981057122,0.02009720655128,0.0179463795786,0.0001141988335025,critical
1500,7.979797979797979,1.2151898734177216,anode,0.0191508125960467,0.020100152171201,0.0180338823777831,1.1138502732890522e-05,critical
1500,8.080808080808081,1.2151898734177216,anode,0.019214966834568,0.0201542476796488,0.0181126466033552,-4.0710707959867645e-06,critical
1500,8.181818181818182,1.2151898734177216,anode,0.0193640280147887,0.0202811356071305,0.018293546637277,-1.975650490958528e-05,critical
1500,8.282828282828282,1.2151898734177216,anode,0.0194631480770348,0.0204280309687474,0.0183274204035825,5.309344110552566e-05,critical
1500,8.383838383838384,1.2151898734177216,anode,0.019423626781299,0.0204141680438684,0.0182516461936236,-5.35540616207144e-05,critical
1500,8.484848484848484,1.2151898734177216,anode,0.0196353177583496,0.0205863204422054,0.018520421102547,-5.8991095775245575e-05,critical
1500,8.585858585858587,1.2151898734177216,anode,0.019740095346561,0.0206502685700314,0.0186825080508617,-1.2570049700918604e-05,critical
1500,8.686868686868687,1.2151898734177216,anode,0.0199822351391893,0.0210397904150927,0.0187225924351425,-1.726090928671061e-05,critical
1500,8.787878787878787,1.2151898734177216,anode,0.0201096543173395,0.0211156262782799,0.0189240699275135,-2.3729523786063245e-05,critical
1500,8.88888888888889,1.2151898734177216,anode,0.0202385295677271,0.0212164835983218,0.0190926719651731,5.209482838070274e-05,critical
1500,8.98989898989899,1.2151898734177216,anode,0.0203376304563833,0.0213606331084747,0.019130854416861,-6.76551609737678e-06,critical
1500,9.09090909090909,1.2151898734177216,anode,0.0206173761221915,0.0216082898120795,0.0194570043024826,7.206704560855895e-05,critical
1500,9.191919191919192,1.2151898734177216,anode,0.0205963194312699,0.0215495174872908,0.0194877260966497,4.581145816098393e-05,critical
1500,9.292929292929292,1.2151898734177216,anode,0.0209023256013028,0.0218597352699407,0.0197910466269634,1.5306434638536258e-05,critical
1500,9.393939393939394,1.2151898734177216,anode,0.0210405077865999,0.0221555104093956,0.0197106617919526,9.293483034884672e-05,critical
1500,9.494949494949497,1.2151898734177216,anode,0.0212848893100782,0.0223752317430218,0.0199939942187573,-4.459701778105151e-05,critical
1500,9.595959595959595,1.2151898734177216,anode,0.0212944151159548,0.022333240522335,0.0200756968145408,-9.054011776470397e-06,critical
1500,9.696969696969695,1.2151898734177216,anode,0.0214972702283835,0.0224769283751393,0.0203599830348586,8.424034037998302e-05,critical
1500,9.797979797979798,1.2151898734177216,anode,0.0218089131146277,0.0228729363817543,0.020558780255796,0.0001059870884963,critical
1500,9.8989898989899,1.2151898734177216,anode,0.0221904667410573,0.0233042710530409,0.020876959957115,2.9672801679991075e-05,critical
1500,10.0,1.2151898734177216,anode,0.0224800042709672,0.02357688276224,0.0211928138191736,-4.590018436540896e-05,critical
1500,0.0,1.3164556962025316,anode,0.0223860779115444,0.0235299642868614,0.0210326530631191,-2.796116573825114e-05,critical
1500,0.101010101010101,1.3164556962025316,anode,0.0220680145584606,0.0230912897694333,0.0208779133483144,-9.737621526779436e-06,critical
1500,0.202020202020202,1.3164556962025316,anode,0.0219726717263664,0.0230754794617898,0.0206722656488358,1.1898956752325508e-05,critical
1500,0.303030303030303,1.3164556962025316,anode,0.0216106064351758,0.0226826212225146,0.0203481725456875,-7.909792901123329e-05,critical
1500,0.404040404040404,1.3164556962025316,anode,0.0213687562848807,0.0224375912881277,0.020109078634302,2.8788923284234588e-05,critical
1500,0.5050505050505051,1.3164556962025316,anode,0.0211701686040727,0.0220705618915532,0.0201370473639545,-2.3167053724066988e-05,critical
1500,0.6060606060606061,1.3164556962025316,anode,0.0209815842583203,0.0218968098384435,0.0199274679146001,-1.4081764843695605e-05,critical
1500,0.7070707070707071,1.3164556962025316,anode,0.0207427630611469,0.0218554600254946,0.0194132741456062,-6.300922073016565e-05,critical
1500,0.8080808080808081,1.3164556962025316,anode,0.0205835491576041,0.0215620496525945,0.0194404262039523,-4.38740183390238e-05,critical
1500,0.9090909090909092,1.3164556962025316,anode,0.020510057518359,0.021411751601678,0.0194702616715133,-1.4941300146950312e-05,critical
1500,1.0101010101010102,1.3164556962025316,anode,0.0203617427734432,0.0213622105758851,0.0191854121361176,-8.021489388788804e-05,critical
1500,1.1111111111111112,1.3164556962025316,anode,0.0203392944921788,0.0214027458430983,0.0190751594698455,5.307876207165395e-05,critical
1500,1.2121212121212122,1.3164556962025316,anode,0.0200254613700782,0.0209480598799149,0.0189535555179237,-1.672829675039497e-05,critical
1500,1.3131313131313131,1.3164556962025316,anode,0.0198565531783631,0.0208154388443179,0.0187335946076718,1.4558036370929528e-05,critical
1500,1.414141414141414,1.3164556962025316,anode,0.0195444826281437,0.0205066023290746,0.0184136850633174,3.82165506639322e-05,critical
1500,1.5151515151515151,1.3164556962025316,anode,0.0196413112982381,0.0205054593216669,0.0186447069534409,1.19741423687589e-05,critical
1500,1.616161616161616,1.3164556962025316,anode,0.0195293535175351,0.0204882080451011,0.0184022421909916,7.17141617306918e-05,critical
1500,1.7171717171717171,1.3164556962025316,anode,0.0193813862500107,0.0202543785407814,0.0183705783762104,-3.992270535187891e-05,critical
1500,1.818181818181818,1.3164556962025316,anode,0.0193668731588651,0.0203131232033084,0.0182564550640339,-9.506928692589891e-06,critical
1500,1.9191919191919191,1.3164556962025316,anode,0.0191274394323701,0.0199908840871822,0.0181276139276674,6.70190174429224e-06,critical
1500,2.0202020202020203,1.3164556962025316,anode,0.0191106257427575,0.0200639150122078,0.0179872671245926,5.338832863583844e-05,critical
1500,2.121212121212121,1.3164556962025316,anode,0.0191002340189497,0.0200311846362767,0.0180082557091518,1.0078264784873684e-06,critical
1500,2.2222222222222223,1.3164556962025316,anode,0.018994893314202,0.0198566238383346,0.0179951162052278,7.854496689302655e-05,critical
1500,2.323232323232323,1.3164556962025316,anode,0.0188553884304366,0.0196854074549637,0.0178953992835305,-0.0001201625888537,critical
1500,2.4242424242424243,1.3164556962025316,anode,0.0186593992657324,0.0194782393751952,0.0177143369915608,-7.688312456293878e-05,critical
1500,2.525252525252525,1.3164556962025316,anode,0.0188051950575704,0.0197772808860467,0.0176513485804392,8.184149797999757e-05,critical
1500,2.6262626262626263,1.3164556962025316,anode,0.0185795539032417,0.0194168088309266,0.0176101871984407,2.770807069155304e-05,critical
1500,2.727272727272727,1.3164556962025316,anode,0.0186362181423205,0.0194866462188369,0.0176496380474298,2.4324922403241874e-05,critical
1500,2.8282828282828283,1.3164556962025316,anode,0.0185434756741354,0.0194087488327261,0.0175357160677999,-4.445813326036488e-05,critical
1500,2.929292929292929,1.3164556962025316,anode,0.0184540939415774,0.0193920479768889,0.0173450441856658,4.976502652132325e-05,critical
1500,3.0303030303030303,1.3164556962025316,anode,0.0184474855369637,0.0193568916616437,0.0173786150448873,7.65094300870927e-06,critical
1500,3.131313131313131,1.3164556962025316,anode,0.0184355549450315,0.019349534153727,0.0173599209597589,3.975740101472193e-05,critical
1500,3.2323232323232323,1.3164556962025316,anode,0.0182773034148241,0.0191317105095827,0.0172821087376887,2.8821510245579987e-05,critical
1500,3.333333333333333,1.3164556962025316,anode,0.0182758817827236,0.0191618396698296,0.0172373599422657,3.960290159295641e-05,critical
1500,3.4343434343434343,1.3164556962025316,anode,0.018338512340304,0.0191361402337127,0.0174198714317822,4.602058660145998e-05,critical
1500,3.5353535353535355,1.3164556962025316,anode,0.0183143404346637,0.0192170054057932,0.0172531928694155,3.5614790801414974e-05,critical
1500,3.636363636363636,1.3164556962025316,anode,0.0183704085354037,0.0192368439271453,0.0173596006675732,3.623452475019177e-05,critical
1500,3.7373737373737375,1.3164556962025316,anode,0.0181459642733577,0.0190227755359558,0.0171183623619122,5.9062449136444e-05,critical
1500,3.8383838383838382,1.3164556962025316,anode,0.0181586408615213,0.0190570342563388,0.017102044745694,6.779509657286648e-07,critical
1500,3.939393939393939,1.3164556962025316,anode,0.0182080569878756,0.019156760652724,0.0170814863752548,1.4489806482412295e-05,critical
1500,4.040404040404041,1.3164556962025316,anode,0.0179583918735655,0.0187750943573735,0.0170109678549766,-5.528646806383927e-05,critical
1500,4.141414141414141,1.3164556962025316,anode,0.0181034410346329,0.0190103178983396,0.0170343881717546,-1.953340095882046e-05,critical
1500,4.242424242424242,1.3164556962025316,anode,0.0180872793696145,0.0189849557348063,0.0170309167885224,8.275216444843092e-06,critical
1500,4.343434343434343,1.3164556962025316,anode,0.0180761014230053,0.0188804815007673,0.017146658843316,-2.6624275176059176e-05,critical
1500,4.444444444444445,1.3164556962025316,anode,0.0180830121404893,0.0189778322650201,0.0170296672076935,-6.785569437380102e-05,critical
1500,4.545454545454545,1.3164556962025316,anode,0.0180754516138366,0.0189403357669826,0.0170638905425368,4.118250889308832e-05,critical
1500,4.646464646464646,1.3164556962025316,anode,0.0178252729192599,0.0186672941796714,0.0168427070551004,3.400534939747114e-05,critical
1500,4.747474747474747,1.3164556962025316,anode,0.0180743665098536,0.0189420404872006,0.0170584281361434,6.656535793475963e-05,critical
1500,4.848484848484849,1.3164556962025316,anode,0.0180909743959388,0.0190193349612102,0.0169917203362628,1.7444049812704652e-05,critical
1500,4.94949494949495,1.3164556962025316,anode,0.0180496539844923,0.018884117403164,0.0170783164787185,-8.197265532322733e-05,critical
1500,5.05050505050505,1.3164556962025316,anode,0.0179218537309009,0.0187931180131405,0.0169000289279108,-4.006993666665872e-05,critical
1500,5.151515151515151,1.3164556962025316,anode,0.0180082107258234,0.0189577946836641,0.0168755167683625,-0.0001113405493092,critical
1500,5.252525252525253,1.3164556962025316,anode,0.0180602528742044,0.0189112443134379,0.0170676838251987,-3.098345561946853e-05,critical
1500,5.353535353535354,1.3164556962025316,anode,0.0181187482202405,0.0189839223330442,0.0171070311241551,5.0879755407035744e-05,critical
1500,5.454545454545454,1.3164556962025316,anode,0.018029795159541,0.0188089190325875,0.0171337479288416,-3.547291720045953e-06,critical
1500,5.555555555555555,1.3164556962025316,anode,0.0179763214395219,0.0187456122744584,0.0170928852519797,2.960898740751629e-06,critical
1500,5.656565656565657,1.3164556962025316,anode,0.0180258836500119,0.0189961530876446,0.0168661785046087,-3.256154326240205e-05,critical
1500,5.757575757575758,1.3164556962025316,anode,0.0180193810836705,0.018871585895422,0.0170247455668495,3.330228617113329e-05,critical
1500,5.858585858585858,1.3164556962025316,anode,0.0180736862683905,0.0187850298811566,0.0172661705101624,-4.348399247545089e-05,critical
1500,5.959595959595959,1.3164556962025316,anode,0.0182525075905345,0.0191510164350048,0.017196721448913,-4.808101624540177e-06,critical
1500,6.0606060606060606,1.3164556962025316,anode,0.0180837133830884,0.0189378498082487,0.0170867103593235,-5.297156597775122e-05,critical
1500,6.161616161616162,1.3164556962025316,anode,0.0181338426993357,0.0190991505506804,0.0169824522270122,-4.253409373494023e-05,critical
1500,6.262626262626262,1.3164556962025316,anode,0.0182431939916589,0.019200476881988,0.0171048613927566,-1.850222833132632e-05,critical
1500,6.363636363636363,1.3164556962025316,anode,0.0182600903973367,0.0192429276103484,0.0170854187940683,-2.932564201464132e-05,critical
1500,6.4646464646464645,1.3164556962025316,anode,0.0182245419347945,0.0192394141114687,0.0170032759576211,-1.350912948850294e-05,critical
1500,6.565656565656566,1.3164556962025316,anode,0.0181278871331325,0.0189864602931256,0.0171248242249783,-7.025640435244607e-05,critical
1500,6.666666666666667,1.3164556962025316,anode,0.0183721084835832,0.0192206023491424,0.0173858603819028,2.1472058853956556e-05,critical
1500,6.767676767676767,1.3164556962025316,anode,0.0184210953766011,0.0192475570135503,0.0174645746868723,-4.943646969389684e-05,critical
1500,6.8686868686868685,1.3164556962025316,anode,0.0183775604746565,0.0192266018728274,0.0173893599830884,-8.360625998807127e-05,critical
1500,6.96969696969697,1.3164556962025316,anode,0.0183741564937985,0.0192711723628349,0.0173212663461318,-4.6130560171396784e-05,critical
1500,7.070707070707071,1.3164556962025316,anode,0.01837319605948,0.0192956060691942,0.0172854625517641,-7.753639499118282e-06,critical
1500,7.171717171717171,1.3164556962025316,anode,0.0185783271530632,0.0194497834212755,0.0175625283399929,-4.1374394430159657e-05,critical
1500,7.272727272727272,1.3164556962025316,anode,0.0187345654129545,0.0197154042532445,0.0175686439133886,2.8544244803247145e-05,critical
1500,7.373737373737374,1.3164556962025316,anode,0.018653436842735,0.0194965884197336,0.0176761279390257,-6.439048155579711e-05,critical
1500,7.474747474747475,1.3164556962025316,anode,0.0187282022354371,0.0196138319004137,0.0176942644115019,-5.320356589232245e-05,critical
1500,7.575757575757575,1.3164556962025316,anode,0.018769531252329,0.0197017296932111,0.0176720896992584,4.1354395708941374e-05,critical
1500,7.6767676767676765,1.3164556962025316,anode,0.0186876367865866,0.0196193942708484,0.0175901145490486,2.828351054324737e-05,critical
1500,7.777777777777778,1.3164556962025316,anode,0.0190531564114497,0.0200151978809262,0.017916454636363,7.452328746657491e-05,critical
1500,7.878787878787879,1.3164556962025316,anode,0.0190654853924232,0.0201552528787444,0.0177463980973415,4.834098340474519e-05,critical
1500,7.979797979797979,1.3164556962025316,anode,0.0191051561927487,0.0199838581428645,0.0180844516473649,-2.6657092529914756e-05,critical
1500,8.080808080808081,1.3164556962025316,anode,0.0192770623771739,0.0202699305995352,0.0181004862273621,3.186096372381103e-05,critical
1500,8.181818181818182,1.3164556962025316,anode,0.019359725940026,0.0203741128625933,0.0181522768385374,-9.290879707723128e-05,critical
1500,8.282828282828282,1.3164556962025316,anode,0.019376005051678,0.0202615313065733,0.0183482053396895,4.479061488065146e-05,critical
1500,8.383838383838384,1.3164556962025316,anode,0.0195424746116296,0.0203882678904,0.0185693041229878,-3.529759785953496e-05,critical
1500,8.484848484848484,1.3164556962025316,anode,0.0196387784036255,0.020561957746949,0.0185609315279739,9.733350822356294e-05,critical
1500,8.585858585858587,1.3164556962025316,anode,0.0197494488371047,0.0207156534615629,0.0186152629898066,-2.416638769223691e-05,critical
1500,8.686868686868687,1.3164556962025316,anode,0.0199229113389035,0.0208378509033568,0.0188602723514522,3.667893397227107e-05,critical
1500,8.787878787878787,1.3164556962025316,anode,0.0201438858321492,0.0211390933786845,0.0189736633685203,1.83267279062078e-05,critical
1500,8.88888888888889,1.3164556962025316,anode,0.0201410017207252,0.0211050283195019,0.0190132344668375,-5.626403314229926e-05,critical
1500,8.98989898989899,1.3164556962025316,anode,0.0203395106764946,0.0212467801820257,0.0192908841117279,1.81739980599999e-05,critical
1500,9.09090909090909,1.3164556962025316,anode,0.0204674506824354,0.0214728655309705,0.0192860974623703,-4.762851180030512e-05,critical
1500,9.191919191919192,1.3164556962025316,anode,0.0206591890645122,0.0217126486246247,0.0194130083332805,4.4417137301173616e-05,critical
1500,9.292929292929292,1.3164556962025316,anode,0.0208299651419051,0.0218612926035691,0.0196160099417826,-7.028638994097057e-05,critical
1500,9.393939393939394,1.3164556962025316,anode,0.0208689748184826,0.0218963461501852,0.0196617156583851,-1.6376579419535494e-05,critical
1500,9.494949494949497,1.3164556962025316,anode,0.021198731004946,0.022207102856169,0.0200207890259326,2.8907295682989293e-05,critical
1500,9.595959595959595,1.3164556962025316,anode,0.0213854929239844,0.0224905423320036,0.0200749942109586,-4.805469249242526e-05,critical
1500,9.696969696969695,1.3164556962025316,anode,0.0216426051060866,0.0226419454803097,0.0204808459544735,4.399668785577632e-05,critical
1500,9.797979797979798,1.3164556962025316,anode,0.0218675474004336,0.0229043454698717,0.0206571467494166,-2.082987056244765e-05,critical
1500,9.8989898989899,1.3164556962025316,anode,0.0220920586911727,0.0231823096671842,0.0208095946680103,7.026878043966245e-05,critical
1500,10.0,1.3164556962025316,anode,0.022290774599163,0.02343113377117,0.0209412803277084,2.098700126263691e-05,critical
1500,0.0,1.4177215189873418,anode,0.0223477116031343,0.023406908708192,0.0211113025835926,4.970995704914889e-06,critical
1500,0.101010101010101,1.4177215189873418,anode,0.0220824401238266,0.0231561813990542,0.0208233295493611,-3.249457637262369e-05,critical
1500,0.202020202020202,1.4177215189873418,anode,0.0219281070081129,0.0229991329786323,0.0206712134638079,-2.989095702123239e-05,critical
1500,0.303030303030303,1.4177215189873418,anode,0.0215493606580212,0.0225163317537956,0.0204304372999681,-4.275892016641031e-05,critical
1500,0.404040404040404,1.4177215189873418,anode,0.0215055883322609,0.022583472189024,0.0202345939591044,4.362967666086464e-05,critical
1500,0.5050505050505051,1.4177215189873418,anode,0.021343095978741,0.0223767750718651,0.020131957190087,9.32445535114068e-06,critical
1500,0.6060606060606061,1.4177215189873418,anode,0.0209521882057583,0.0219512115782416,0.0197848235023117,5.960329216939581e-06,critical
1500,0.7070707070707071,1.4177215189873418,anode,0.0207088194423938,0.021699955830405,0.0195498192194684,2.517735164993864e-05,critical
1500,0.8080808080808081,1.4177215189873418,anode,0.0207409438645875,0.0218300497161497,0.0194457440310744,-9.657953747751309e-06,critical
1500,0.9090909090909092,1.4177215189873418,anode,0.0206110865005667,0.021677141205151,0.0193467974971636,-3.226826619559544e-05,critical
1500,1.0101010101010102,1.4177215189873418,anode,0.0203436019367434,0.021184291951804,0.0193831027875134,-1.3527411719632275e-05,critical
1500,1.1111111111111112,1.4177215189873418,anode,0.0202600826581434,0.0212750971323045,0.0190628936589643,-6.374660798157453e-05,critical
1500,1.2121212121212122,1.4177215189873418,anode,0.0201022332528382,0.0210734472563549,0.0189620741406254,0.0001233099673284,critical
1500,1.3131313131313131,1.4177215189873418,anode,0.0199067941286305,0.0209008649133878,0.0187353822854151,4.259585067677629e-05,critical
1500,1.414141414141414,1.4177215189873418,anode,0.0198254242183898,0.0207331985212096,0.0187718519545607,-3.2608766137008035e-06,critical
1500,1.5151515151515151,1.4177215189873418,anode,0.0196367857543018,0.0205552670109447,0.0185669762960826,-1.7315134868351197e-05,critical
1500,1.616161616161616,1.4177215189873418,anode,0.019482354184416,0.0204093223330095,0.01839957972802,5.937666643413224e-06,critical
1500,1.7171717171717171,1.4177215189873418,anode,0.0195275631013389,0.020322814796461,0.0186207879467866,2.582294226284148e-05,critical
1500,1.818181818181818,1.4177215189873418,anode,0.019301077582508,0.0201536986628101,0.018316489080385,6.125169251612573e-05,critical
1500,1.9191919191919191,1.4177215189873418,anode,0.0191064480617946,0.0200280110360155,0.0180272303270891,3.49578465514871e-05,critical
1500,2.0202020202020203,1.4177215189873418,anode,0.0192507738527048,0.0201723416570947,0.0181731703395694,-8.304392260725443e-06,critical
1500,2.121212121212121,1.4177215189873418,anode,0.0189449827791617,0.0198390509774688,0.0179020450813254,-1.62859006485241e-05,critical
1500,2.2222222222222223,1.4177215189873418,anode,0.0188719832888922,0.0197065959211409,0.0179084389262834,3.6584055600177146e-05,critical
1500,2.323232323232323,1.4177215189873418,anode,0.0189482521238406,0.019837261958112,0.0179122573059464,1.2585687697553125e-05,critical
1500,2.4242424242424243,1.4177215189873418,anode,0.0188854651720781,0.0198598764953812,0.0177305304693572,-1.335350395629664e-05,critical
1500,2.525252525252525,1.4177215189873418,anode,0.0187857320486596,0.019759925174256,0.0176293320540571,5.7790714116208055e-05,critical
1500,2.6262626262626263,1.4177215189873418,anode,0.0187804121604706,0.019721754499,0.0176703219337809,4.379593278599742e-05,critical
1500,2.727272727272727,1.4177215189873418,anode,0.0184531817877245,0.0193195041378465,0.017443293639236,-3.637130196407422e-05,critical
1500,2.8282828282828283,1.4177215189873418,anode,0.0185594464092015,0.0195216870812003,0.0174168153544735,-7.515922868798671e-05,critical
1500,2.929292929292929,1.4177215189873418,anode,0.0185720679871951,0.0194590044478559,0.0175341821933187,7.96645469725145e-05,critical
1500,3.0303030303030303,1.4177215189873418,anode,0.0183945523493912,0.019251420100931,0.0173971758531242,1.819785427627995e-05,critical
1500,3.131313131313131,1.4177215189873418,anode,0.0183993359169334,0.0192999591823213,0.0173420925568153,1.462849176466682e-05,critical
1500,3.2323232323232323,1.4177215189873418,anode,0.0184180438303389,0.0192643696276828,0.0174352147392045,-6.045830025521669e-06,critical
1500,3.333333333333333,1.4177215189873418,anode,0.0183581786461855,0.0192530173310284,0.0173084133813496,-2.6178110612351105e-05,critical
1500,3.4343434343434343,1.4177215189873418,anode,0.0183269175048834,0.0191435489057175,0.0173832034173491,-1.7168132544639925e-05,critical
1500,3.5353535353535355,1.4177215189873418,anode,0.0182720949381536,0.0192354877260539,0.0171247805775984,-6.0172392888086335e-05,critical
1500,3.636363636363636,1.4177215189873418,anode,0.0181155546385289,0.0188908888963593,0.0172247350585544,4.724048376148416e-05,critical
1500,3.7373737373737375,1.4177215189873418,anode,0.0182180721229454,0.0191501926597896,0.0171145463296518,4.9787540971925726e-05,critical
1500,3.8383838383838382,1.4177215189873418,anode,0.0182118443956624,0.0189765970627192,0.0173352393770553,-6.675476354426322e-05,critical
1500,3.939393939393939,1.4177215189873418,anode,0.0181704645264694,0.0190930495045181,0.017080238729601,-1.3295096827757994e-05,critical
1500,4.040404040404041,1.4177215189873418,anode,0.0180380953267222,0.0189849112610499,0.0169121463154782,1.7620660959143812e-05,critical
1500,4.141414141414141,1.4177215189873418,anode,0.0180611102614255,0.0189286105546742,0.0170457326798123,-4.632950274835992e-05,critical
1500,4.242424242424242,1.4177215189873418,anode,0.0181394612279738,0.0190452800596123,0.0170721950483155,2.740591094572841e-05,critical
1500,4.343434343434343,1.4177215189873418,anode,0.0180891909209029,0.0189838976912354,0.0170345162040762,-0.0001113959193162,critical
1500,4.444444444444445,1.4177215189873418,anode,0.0179821094133432,0.0187974442130801,0.0170365608366451,6.257469791353096e-05,critical
1500,4.545454545454545,1.4177215189873418,anode,0.0180209841457946,0.0188767641295098,0.017021694998592,-4.709197266957704e-06,critical
1500,4.646464646464646,1.4177215189873418,anode,0.0179935786814933,0.0188096009955133,0.0170463656785647,9.043993723863836e-05,critical
1500,4.747474747474747,1.4177215189873418,anode,0.0180252652855458,0.0190070660228719,0.0168488093538626,4.35314803018863e-05,critical
1500,4.848484848484849,1.4177215189873418,anode,0.0180038281584678,0.0189264876123877,0.0169110589265099,-5.455360309677052e-05,critical
1500,4.94949494949495,1.4177215189873418,anode,0.0180952785838634,0.0190637979103246,0.0169386623836912,-5.0561735061981815e-05,critical
1500,5.05050505050505,1.4177215189873418,anode,0.0179631324088001,0.0188228037517458,0.0169576246538659,-4.160093522147844e-05,critical
1500,5.151515151515151,1.4177215189873418,anode,0.0180444993272854,0.0189486181659547,0.0169766704685579,-0.0001015411463266,critical
1500,5.252525252525253,1.4177215189873418,anode,0.0179828864409627,0.0188140656586003,0.0170165752221754,2.7503727026747284e-05,critical
1500,5.353535353535354,1.4177215189873418,anode,0.0180804120550713,0.0189081584198427,0.017119527505493,-3.347330618758161e-05,critical
1500,5.454545454545454,1.4177215189873418,anode,0.0181053627005641,0.0189920821382606,0.0170631062615249,8.019753362489758e-05,critical
1500,5.555555555555555,1.4177215189873418,anode,0.0179895986664937,0.0189339650667831,0.0168665726551499,1.226579068927519e-05,critical
1500,5.656565656565657,1.4177215189873418,anode,0.0181372332294525,0.0190598544557969,0.0170446173787324,-0.0001002035418447,critical
1500,5.757575757575758,1.4177215189873418,anode,0.0180652005514591,0.018919281904852,0.0170684082510912,-3.51677539494878e-05,critical
1500,5.858585858585858,1.4177215189873418,anode,0.0179892588141907,0.0189071377900198,0.0169017214204694,9.757404595412154e-05,critical
1500,5.959595959595959,1.4177215189873418,anode,0.0181143623521435,0.0189832850633782,0.0170975822346733,4.461244674621286e-05,critical
1500,6.0606060606060606,1.4177215189873418,anode,0.0181017450141432,0.0189621913221702,0.0170963314237792,-5.10947867701837e-05,critical
1500,6.161616161616162,1.4177215189873418,anode,0.0181060258437156,0.0190585418325599,0.0169721547938256,-5.955068175630604e-05,critical
1500,6.262626262626262,1.4177215189873418,anode,0.0181282543176532,0.0189688769578595,0.0171505757666506,8.639242183725085e-06,critical
1500,6.363636363636363,1.4177215189873418,anode,0.0182485502030092,0.0190363970784869,0.0173425381885996,1.8104013282353927e-05,critical
1500,6.4646464646464645,1.4177215189873418,anode,0.0182664275258845,0.0191198199201908,0.0172723387453266,4.155901720908733e-05,critical
1500,6.565656565656566,1.4177215189873418,anode,0.018359531384088,0.0193013861638488,0.0172444175244643,-6.0786394875546095e-06,critical
1500,6.666666666666667,1.4177215189873418,anode,0.0184298515264917,0.0191837842596776,0.0175696876438955,-1.84583588387398e-05,critical
1500,6.767676767676767,1.4177215189873418,anode,0.0183872568105943,0.0192201410332551,0.0174222829840683,7.818325658802266e-06,critical
1500,6.8686868686868685,1.4177215189873418,anode,0.0184065344198096,0.0192838989007497,0.0173810283050107,-4.320578130572784e-05,critical
1500,6.96969696969697,1.4177215189873418,anode,0.0183801220318399,0.019156776179258,0.0174896213578551,-3.9660620268093306e-05,critical
1500,7.070707070707071,1.4177215189873418,anode,0.0185146283676735,0.0193460908153842,0.0175525707043977,1.934178394778356e-05,critical
1500,7.171717171717171,1.4177215189873418,anode,0.0186631691116779,0.019519120561352,0.017669416884816,-1.8249900324251632e-05,critical
1500,7.272727272727272,1.4177215189873418,anode,0.0185853787804067,0.0195432384730459,0.0174499401655656,-4.496150597694294e-05,critical
1500,7.373737373737374,1.4177215189873418,anode,0.0188055052700063,0.0197137203265893,0.0177398098930765,-0.0001049685377172,critical
1500,7.474747474747475,1.4177215189873418,anode,0.0187612857055866,0.0196498890263244,0.0177239999751573,2.6833280484707744e-05,critical
1500,7.575757575757575,1.4177215189873418,anode,0.0187987724206602,0.0197420861955079,0.0176865001359203,-3.136894206555057e-07,critical
1500,7.6767676767676765,1.4177215189873418,anode,0.0189414766400972,0.0198375489047205,0.0178929995076944,0.0001224910389195,critical
1500,7.777777777777778,1.4177215189873418,anode,0.0189965919108771,0.0198756895893902,0.0179739472964165,5.562769059843634e-05,critical
1500,7.878787878787879,1.4177215189873418,anode,0.0190424454502837,0.0198476442455537,0.0181192795420575,-2.8692869278487865e-05,critical
1500,7.979797979797979,1.4177215189873418,anode,0.0191149036320797,0.0200074585837162,0.0180755991971258,1.4808351110229085e-05,critical
1500,8.080808080808081,1.4177215189873418,anode,0.0192073632260603,0.0201227336365264,0.0181377492745202,-2.2669826758571336e-05,critical
1500,8.181818181818182,1.4177215189873418,anode,0.0194669928314556,0.0204633964479771,0.0182868597115987,7.126866574708528e-05,critical
1500,8.282828282828282,1.4177215189873418,anode,0.0193854725760877,0.0202655975926686,0.0183643508302349,7.585901496379613e-05,critical
1500,8.383838383838384,1.4177215189873418,anode,0.0195784380997632,0.0206025440759646,0.0183614220015186,-1.4191429558991035e-05,critical
1500,8.484848484848484,1.4177215189873418,anode,0.0196379131165559,0.0206271169052594,0.0184704584382657,-3.7194669422360856e-05,critical
1500,8.585858585858587,1.4177215189873418,anode,0.0198022053501938,0.0207703274287419,0.0186656621132258,-4.399573821763578e-05,critical
1500,8.686868686868687,1.4177215189873418,anode,0.0199103787648217,0.0207950386754456,0.0188885652065147,5.700227394302019e-06,critical
1500,8.787878787878787,1.4177215189873418,anode,0.0201120206098564,0.0211652717467561,0.0188579298995409,-0.0001100540871821,critical
1500,8.88888888888889,1.4177215189873418,anode,0.0202245892043968,0.0212113540116739,0.0190668409860818,2.2791296547590235e-05,critical
1500,8.98989898989899,1.4177215189873418,anode,0.0202681108478886,0.0211436465640749,0.019261238555624,3.513097995301086e-06,critical
1500,9.09090909090909,1.4177215189873418,anode,0.0204946563062065,0.0215018332720282,0.0193090494829151,-0.0001192668447217,critical
1500,9.191919191919192,1.4177215189873418,anode,0.0206856896383346,0.0217098437110255,0.0194808357870353,-3.3561841448279055e-05,critical
1500,9.292929292929292,1.4177215189873418,anode,0.0208155423384061,0.0217639521049813,0.019713688791103,0.0001086960957125,critical
1500,9.393939393939394,1.4177215189873418,anode,0.021007840977666,0.0219753661779657,0.0198838522016833,2.494619279970698e-06,critical
1500,9.494949494949497,1.4177215189873418,anode,0.0213320283437857,0.0223007167527965,0.0202090764166014,-3.4568587999307574e-05,critical
1500,9.595959595959595,1.4177215189873418,anode,0.0214231950151941,0.0223115620954829,0.0204075167652469,3.794081807223978e-05,critical
1500,9.696969696969695,1.4177215189873418,anode,0.0216882779722958,0.0227557398784868,0.0204339816196076,1.2510972854971072e-05,critical
1500,9.797979797979798,1.4177215189873418,anode,0.0218142405926234,0.0228956212320298,0.020541652901614,-4.480110518715542e-05,critical
1500,9.8989898989899,1.4177215189873418,anode,0.0221325544452595,0.0231953981593328,0.0208890976804673,-1.4703654833452913e-06,critical
1500,10.0,1.4177215189873418,anode,0.0223179262072478,0.0234241911055528,0.0210163199529978,2.3747213079688583e-05,critical
1500,0.0,1.5189873417721518,anode,0.0224237335159901,0.0234691645836956,0.0212061002636375,6.559322566673573e-05,critical
1500,0.101010101010101,1.5189873417721518,anode,0.0221405043746867,0.0233083734936852,0.0207493656441682,8.051625161276044e-05,critical
1500,0.202020202020202,1.5189873417721518,anode,0.0218551458434225,0.022888890841872,0.0206484877170076,-4.834690973571514e-05,critical
1500,0.303030303030303,1.5189873417721518,anode,0.0216481357350567,0.022504764819744,0.0206750544057129,-4.7270738810703344e-05,critical
1500,0.404040404040404,1.5189873417721518,anode,0.0213552135987827,0.0224035263201706,0.0201237861979489,3.723384450290747e-05,critical
1500,0.5050505050505051,1.5189873417721518,anode,0.0212685407636044,0.0222646928157402,0.0201079398360154,-2.6703253742362427e-05,critical
1500,0.6060606060606061,1.5189873417721518,anode,0.020957334093817,0.0219515220642883,0.0197962642237375,-4.685105034553039e-05,critical
1500,0.7070707070707071,1.5189873417721518,anode,0.0208647504331463,0.0218332044519288,0.019738048386054,3.309482499684809e-05,critical
1500,0.8080808080808081,1.5189873417721518,anode,0.0206198767657139,0.0215807748752975,0.01949724895829,0.0001554532404508,critical
1500,0.9090909090909092,1.5189873417721518,anode,0.0205156165026886,0.0214843748737609,0.0193854926300436,2.771041327951656e-06,critical
1500,1.0101010101010102,1.5189873417721518,anode,0.0202303222963391,0.0210869887669718,0.0192476195651949,-5.267381100401481e-05,critical
1500,1.1111111111111112,1.5189873417721518,anode,0.0201036933070683,0.0209687127366096,0.0191094326781516,-2.1274876735994195e-05,critical
1500,1.2121212121212122,1.5189873417721518,anode,0.0200565911192778,0.0209840117768482,0.0189782943980603,-3.261885411375629e-05,critical
1500,1.3131313131313131,1.5189873417721518,anode,0.0197867934493771,0.0207034838250189,0.018720821376866,-2.711579166699945e-06,critical
1500,1.414141414141414,1.5189873417721518,anode,0.0197624382209743,0.0206951001000844,0.0186743902049256,2.7817011953115897e-05,critical
1500,1.5151515151515151,1.5189873417721518,anode,0.0195895629395309,0.0205193985893621,0.0185037819472625,-2.441671156510025e-05,critical
1500,1.616161616161616,1.5189873417721518,anode,0.0196625776707733,0.0205484161583571,0.0186369151734789,-3.6677656039341566e-05,critical
1500,1.7171717171717171,1.5189873417721518,anode,0.0195755442754464,0.0204893434255318,0.0185115909338441,5.315546152069348e-06,critical
1500,1.818181818181818,1.5189873417721518,anode,0.0193382201788586,0.0202669381147569,0.0182513241391513,4.3217075363871295e-05,critical
1500,1.9191919191919191,1.5189873417721518,anode,0.0192332537227164,0.0202168161101985,0.01806944650082,7.646414288981833e-06,critical
1500,2.0202020202020203,1.5189873417721518,anode,0.0192602135290914,0.0201796064410401,0.0181853496728068,-4.307256904088632e-05,critical
1500,2.121212121212121,1.5189873417721518,anode,0.0190074805097167,0.0199340329523868,0.0179205347504805,2.3166626187208983e-05,critical
1500,2.2222222222222223,1.5189873417721518,anode,0.018925393080558,0.0197945124752109,0.0179161459112283,1.7015262145950244e-05,critical
1500,2.323232323232323,1.5189873417721518,anode,0.0188268204111294,0.0198191790204371,0.0176453260626021,5.051073131613017e-05,critical
1500,2.4242424242424243,1.5189873417721518,anode,0.0188751909774608,0.0198241957668488,0.0177556042775056,3.26012773988774e-05,critical
1500,2.525252525252525,1.5189873417721518,anode,0.0187432043457284,0.019719340974744,0.0175825041179517,9.352985522975448e-05,critical
1500,2.6262626262626263,1.5189873417721518,anode,0.0186711252144569,0.0195250058227554,0.0176797624672055,-5.331858839830013e-05,critical
1500,2.727272727272727,1.5189873417721518,anode,0.0185632981979437,0.0193968034121457,0.0175987464440777,3.467010906514717e-05,critical
1500,2.8282828282828283,1.5189873417721518,anode,0.0186599359991458,0.0196135680608716,0.0175310399597764,5.785836566717076e-05,critical
1500,2.929292929292929,1.5189873417721518,anode,0.018525669570573,0.0193903744274784,0.0175188816777653,-9.533157308727258e-06,critical
1500,3.0303030303030303,1.5189873417721518,anode,0.0185116558880525,0.0194277222951708,0.0174333827934297,-6.606585932395145e-05,critical
1500,3.131313131313131,1.5189873417721518,anode,0.0183901147024268,0.019249060858341,0.017389909410733,1.2248741897373597e-05,critical
1500,3.2323232323232323,1.5189873417721518,anode,0.0183859705113244,0.0192812048225844,0.0173356312551807,-4.7603141260469655e-05,critical
1500,3.333333333333333,1.5189873417721518,anode,0.0183202879234949,0.0192359842037046,0.0172413248424754,-1.1990435319245376e-05,critical
1500,3.4343434343434343,1.5189873417721518,anode,0.0183778563341923,0.0191727501208027,0.0174635088903331,1.4208794259922604e-05,critical
1500,3.5353535353535355,1.5189873417721518,anode,0.0183231260996418,0.0192565796703477,0.0172193188304057,2.1082430186462183e-05,critical
1500,3.636363636363636,1.5189873417721518,anode,0.0181917716455026,0.019108020522956,0.0171105570573919,2.462988696675872e-05,critical
1500,3.7373737373737375,1.5189873417721518,anode,0.0182235673683239,0.0190861823797372,0.0172165291516642,4.078030518726379e-05,critical
1500,3.8383838383838382,1.5189873417721518,anode,0.0180547802328548,0.0188977990000575,0.0170731977676784,-4.468320735268679e-06,critical
1500,3.939393939393939,1.5189873417721518,anode,0.0181144540338087,0.0189830218234349,0.0170976593562293,6.736126795801618e-05,critical
1500,4.040404040404041,1.5189873417721518,anode,0.0181720869695443,0.0189534369336143,0.0172740282377488,-2.662371930422046e-05,critical
1500,4.141414141414141,1.5189873417721518,anode,0.0181810414666509,0.0190225879434535,0.0172018016140215,-6.382780499380998e-05,critical
1500,4.242424242424242,1.5189873417721518,anode,0.0181195951918807,0.0191283687125929,0.0169057256316359,-1.454208188567989e-05,critical
1500,4.343434343434343,1.5189873417721518,anode,0.0181607026928677,0.0191377356568379,0.0169932462545852,-3.3030568720308595e-06,critical
1500,4.444444444444445,1.5189873417721518,anode,0.0180037416287483,0.0188916368460189,0.0169597949716021,3.8349361263890935e-05,critical
1500,4.545454545454545,1.5189873417721518,anode,0.0180576226610657,0.0189863507784209,0.0169572662197046,-3.627364806661719e-05,critical
1500,4.646464646464646,1.5189873417721518,anode,0.0180351060561681,0.0189394249883937,0.0169689463736924,-7.692195457704201e-06,critical
1500,4.747474747474747,1.5189873417721518,anode,0.0179471534371328,0.0186576266759856,0.0171399819378174,-4.353816626922464e-05,critical
1500,4.848484848484849,1.5189873417721518,anode,0.0180135697935677,0.0188604228709731,0.0170262949020775,-2.272680045066377e-05,critical
1500,4.94949494949495,1.5189873417721518,anode,0.0180484450230486,0.0188772310765456,0.0170859978601335,-2.2520622597415627e-05,critical
1500,5.05050505050505,1.5189873417721518,anode,0.0179898616555566,0.0190053131046786,0.0167643539348535,2.1823960077243805e-05,critical
1500,5.151515151515151,1.5189873417721518,anode,0.0180188124637221,0.0188310075839837,0.0170771249660922,8.569056020958528e-05,critical
1500,5.252525252525253,1.5189873417721518,anode,0.0180804625297179,0.0188952199580656,0.0171372676384645,9.7881138087406e-06,critical
1500,5.353535353535354,1.5189873417721518,anode,0.0179659750886343,0.0188158420163981,0.0169738232850802,4.6370006736185575e-05,critical
1500,5.454545454545454,1.5189873417721518,anode,0.0180756245645868,0.0189727020296262,0.0170199516197839,1.2891805429130402e-05,critical
1500,5.555555555555555,1.5189873417721518,anode,0.0180535839009912,0.0188351924169306,0.0171543930406511,1.3056422526122402e-05,critical
1500,5.656565656565657,1.5189873417721518,anode,0.0181876185805096,0.0190942182453062,0.0171188184439573,7.485493578528719e-05,critical
1500,5.757575757575758,1.5189873417721518,anode,0.018033096178543,0.0189167712090796,0.0169944066188258,7.696389699982403e-05,critical
1500,5.858585858585858,1.5189873417721518,anode,0.0180978575689976,0.0189234914486673,0.0171398594166126,4.1320940308103256e-05,critical
1500,5.959595959595959,1.5189873417721518,anode,0.0181551210076031,0.0190702688749016,0.0170745788067782,5.425612637877174e-05,critical
1500,6.0606060606060606,1.5189873417721518,anode,0.0182787759177401,0.0192208630464137,0.0171623966377862,9.828061645735774e-06,critical
1500,6.161616161616162,1.5189873417721518,anode,0.0182220100752588,0.0191589583208572,0.017111576526592,-5.743835596625662e-05,critical
1500,6.262626262626262,1.5189873417721518,anode,0.0182196760775804,0.0191643004594161,0.0170989074568587,2.675871167469582e-05,critical
1500,6.363636363636363,1.5189873417721518,anode,0.0181628859710941,0.0190330452747623,0.0171451728888181,2.2456007742071507e-05,critical
1500,6.4646464646464645,1.5189873417721518,anode,0.0181468421157189,0.0190176143474391,0.0171281200707843,-2.3861744226839648e-05,critical
1500,6.565656565656566,1.5189873417721518,anode,0.0182998081951911,0.0192585297000734,0.0171601757243222,6.750997369793988e-06,critical
1500,6.666666666666667,1.5189873417721518,anode,0.0184495970969108,0.019219593025116,0.0175686055982826,-1.1887486596403118e-05,critical
1500,6.767676767676767,1.5189873417721518,anode,0.0183678812943691,0.0192831399306472,0.0172898776269538,3.076236008187813e-05,critical
1500,6.8686868686868685,1.5189873417721518,anode,0.018285062957831,0.0191007923041054,0.0173421498218447,-2.518026805885392e-05,critical
1500,6.96969696969697,1.5189873417721518,anode,0.0183177519782362,0.0193141144940707,0.0171229314297654,-9.036261443834016e-05,critical
1500,7.070707070707071,1.5189873417721518,anode,0.0186212754308996,0.0195725984015518,0.0174958349994796,-3.165490829191662e-07,critical
1500,7.171717171717171,1.5189873417721518,anode,0.0186087599724436,0.0195128131540444,0.017548903503637,-1.3310049246772102e-05,critical
1500,7.272727272727272,1.5189873417721518,anode,0.0184803737752707,0.0192348634635433,0.0176152909388808,0.0001565073279488,critical
1500,7.373737373737374,1.5189873417721518,anode,0.0185983547749486,0.0196357537838024,0.0173495413241835,1.539719417438766e-05,critical
1500,7.474747474747475,1.5189873417721518,anode,0.0187279868288831,0.0195761149651923,0.0177453938779625,5.173843732709785e-06,critical
1500,7.575757575757575,1.5189873417721518,anode,0.0187855052802788,0.0197163894883919,0.0176879643208096,-0.0001124072492317,critical
1500,7.6767676767676765,1.5189873417721518,anode,0.0189465116433247,0.0198658453782503,0.0178683183767649,-6.0385668317073176e-05,critical
1500,7.777777777777778,1.5189873417721518,anode,0.0189561568803977,0.0199386687251915,0.0177899196562716,-6.176956881282758e-05,critical
1500,7.878787878787879,1.5189873417721518,anode,0.0190702485273164,0.0199652116807449,0.0180271678241611,2.67288226658933e-05,critical
1500,7.979797979797979,1.5189873417721518,anode,0.0190714493585768,0.0200279980048847,0.017943171310272,-5.1248046337437896e-05,critical
1500,8.080808080808081,1.5189873417721518,anode,0.0192156728578188,0.0201434456598538,0.0181269733732499,0.000109878378817,critical
1500,8.181818181818182,1.5189873417721518,anode,0.0193577889078539,0.0202069966690102,0.0183771463342707,-9.78168202358976e-05,critical
1500,8.282828282828282,1.5189873417721518,anode,0.0193840971435444,0.0203331667138853,0.0182693327893262,-5.894134198668122e-05,critical
1500,8.383838383838384,1.5189873417721518,anode,0.0194504746679238,0.0204157704906885,0.0183145316301002,-1.272338685492531e-05,critical
1500,8.484848484848484,1.5189873417721518,anode,0.0197176324595954,0.0207011844952107,0.0185591038535089,1.903854753077093e-05,critical
1500,8.585858585858587,1.5189873417721518,anode,0.019883079601963,0.0208315455131885,0.0187729691391688,-9.858453233398445e-05,critical
1500,8.686868686868687,1.5189873417721518,anode,0.019893788509152,0.0208603472421847,0.0187605705324689,2.41056521983054e-05,critical
1500,8.787878787878787,1.5189873417721518,anode,0.0199595443574762,0.0209539192029546,0.0187884778632985,-2.599787498963438e-05,critical
1500,8.88888888888889,1.5189873417721518,anode,0.0201485845892912,0.0212067883048197,0.0188899900939046,2.507322705459562e-05,critical
1500,8.98989898989899,1.5189873417721518,anode,0.0202859882670998,0.0212279658194263,0.0191900079615228,-3.273459227813705e-05,critical
1500,9.09090909090909,1.5189873417721518,anode,0.0204933559212521,0.0214395676226878,0.0193932866481161,4.722488669222208e-05,critical
1500,9.191919191919192,1.5189873417721518,anode,0.0208148554261286,0.0218897007131148,0.0195395239643905,-8.275264980349887e-05,critical
1500,9.292929292929292,1.5189873417721518,anode,0.0208999888402971,0.021877794350733,0.0197610364801168,1.804967587627242e-05,critical
1500,9.393939393939394,1.5189873417721518,anode,0.0210612262118041,0.0221718332877131,0.0197392442772612,2.9022463317059568e-05,critical
1500,9.494949494949497,1.5189873417721518,anode,0.0212391616306473,0.0222723528675138,0.0200272251315598,5.152065854071071e-05,critical
1500,9.595959595959595,1.5189873417721518,anode,0.0213840923489557,0.0224417634902688,0.0201402321077603,3.330791757119179e-06,critical
1500,9.696969696969695,1.5189873417721518,anode,0.021648014524669,0.0226723867192308,0.0204508149524226,0.0001038691812602,critical
1500,9.797979797979798,1.5189873417721518,anode,0.0218037806964693,0.022934946210396,0.0204614773071288,-3.616084467050508e-05,critical
1500,9.8989898989899,1.5189873417721518,anode,0.0220183923785086,0.0231394443397572,0.0206921825255491,-7.049049260941214e-05,critical
1500,10.0,1.5189873417721518,anode,0.0222182460043481,0.0232115611693287,0.0210693139352394,-5.645970293580207e-05,critical
1500,0.0,1.620253164556962,anode,0.0224191793104155,0.0234684690478361,0.0211969361797301,-5.736977217890395e-06,critical
1500,0.101010101010101,1.620253164556962,anode,0.0220300567999493,0.023112667051524,0.0207582982465571,-1.5429520190876e-05,critical
1500,0.202020202020202,1.620253164556962,anode,0.0220010976976136,0.0230900980821421,0.0207202129997681,8.044641259102157e-06,critical
1500,0.303030303030303,1.620253164556962,anode,0.0217132610151017,0.0227847066204143,0.0204536549484158,2.1406366393561485e-05,critical
1500,0.404040404040404,1.620253164556962,anode,0.0214205894806309,0.0224377520029951,0.0202328462761173,-1.2347402615619874e-05,critical
1500,0.5050505050505051,1.620253164556962,anode,0.0213248463263731,0.0223097851471153,0.0201800012269168,-2.3091525529222817e-05,critical
1500,0.6060606060606061,1.620253164556962,anode,0.0210810133001278,0.0221448739907973,0.0198252027863923,2.3307487748794043e-05,critical
1500,0.7070707070707071,1.620253164556962,anode,0.0207688636658064,0.0217139358394579,0.0196730014118835,2.5782448761031348e-05,critical
1500,0.8080808080808081,1.620253164556962,anode,0.0208819930694827,0.0218289322123847,0.0197844198364702,4.018385656720869e-05,critical
1500,0.9090909090909092,1.620253164556962,anode,0.0205361709104909,0.0214269009912729,0.0195111662361205,1.2231750649706898e-05,critical
1500,1.0101010101010102,1.620253164556962,anode,0.0204054651782052,0.0214009678707341,0.0192373733289972,-3.395716285385844e-05,critical
1500,1.1111111111111112,1.620253164556962,anode,0.0202098528744823,0.0212277240074697,0.0190086162194965,3.676484821563154e-05,critical
1500,1.2121212121212122,1.620253164556962,anode,0.0200075653690579,0.021010311859601,0.018825376860736,2.375099491385377e-05,critical
1500,1.3131313131313131,1.620253164556962,anode,0.0199563228859222,0.0210359358695309,0.0186648295430597,1.3173612748160495e-05,critical
1500,1.414141414141414,1.620253164556962,anode,0.0197208715197575,0.0206891644617662,0.0185825866156587,7.508364378913169e-05,critical
1500,1.5151515151515151,1.620253164556962,anode,0.0197512776372417,0.0206952987384123,0.0186475122381445,-3.512955131291178e-05,critical
1500,1.616161616161616,1.620253164556962,anode,0.0195303018973733,0.0204307756694197,0.0184822657966223,-9.827703152363834e-05,critical
1500,1.7171717171717171,1.620253164556962,anode,0.0193757521678349,0.0203359552311526,0.0182457184135001,4.6794936807116655e-05,critical
1500,1.818181818181818,1.620253164556962,anode,0.0192895464395414,0.0202347803975551,0.0181797374194853,1.1630892899308786e-05,critical
1500,1.9191919191919191,1.620253164556962,anode,0.0191744978731829,0.0201088997918441,0.0180785047084998,2.8823960949871747e-06,critical
1500,2.0202020202020203,1.620253164556962,anode,0.0191084138291019,0.0199758239267535,0.0181022762014049,-6.687279548839008e-05,critical
1500,2.121212121212121,1.620253164556962,anode,0.019208708521017,0.0201129831247514,0.0181542310562486,-2.601603582274549e-05,critical
1500,2.2222222222222223,1.620253164556962,anode,0.0189809770022969,0.0199545635049726,0.0178283077147358,-1.1913526191543745e-05,critical
1500,2.323232323232323,1.620253164556962,anode,0.0189953452907689,0.0198429525973511,0.0180156181786743,1.7645645774237048e-05,critical
1500,2.4242424242424243,1.620253164556962,anode,0.0187855325451711,0.0196267017535805,0.0178127269119045,1.4716900990042402e-05,critical
1500,2.525252525252525,1.620253164556962,anode,0.0186426414919966,0.0194602386578314,0.0176994499749484,-6.372960720006441e-05,critical
1500,2.6262626262626263,1.620253164556962,anode,0.0187703283831481,0.0197679259461431,0.0175803469260562,-6.513959448184034e-05,critical
1500,2.727272727272727,1.620253164556962,anode,0.0186554638206596,0.0195400436128017,0.0176218130651249,-7.240188929313247e-05,critical
1500,2.8282828282828283,1.620253164556962,anode,0.0185375125140978,0.0194540711724553,0.0174592102434025,4.892645521682899e-05,critical
1500,2.929292929292929,1.620253164556962,anode,0.0185583233264516,0.0193741198917983,0.0176175792516013,-1.6703738819497053e-05,critical
1500,3.0303030303030303,1.620253164556962,anode,0.0183851171076515,0.0192597663163352,0.0173633530140433,-2.598801289088522e-05,critical
1500,3.131313131313131,1.620253164556962,anode,0.0183416986270684,0.0191834657212798,0.0173629294862849,-8.639776642548507e-05,critical
1500,3.2323232323232323,1.620253164556962,anode,0.0183979152524239,0.0191741306087037,0.0175073088025245,7.65182228914461e-05,critical
1500,3.333333333333333,1.620253164556962,anode,0.0183970628975584,0.0192415914902864,0.0174161910118529,3.91730484842821e-05,critical
1500,3.4343434343434343,1.620253164556962,anode,0.0182314213475106,0.0190452622723243,0.0172900105035025,6.063785414917466e-05,critical
1500,3.5353535353535355,1.620253164556962,anode,0.0182027769165164,0.0190287717935849,0.017241405625673,0.0001456440898272,critical
1500,3.636363636363636,1.620253164556962,anode,0.0181369887003114,0.0189800187941938,0.0171561178425814,-1.00887120315591e-05,critical
1500,3.7373737373737375,1.620253164556962,anode,0.018336693119461,0.0192888314255893,0.0172068196021076,5.734358183062874e-06,critical
1500,3.8383838383838382,1.620253164556962,anode,0.0183268998246824,0.0193075056659887,0.0171563117348451,2.605012197406406e-05,critical
1500,3.939393939393939,1.620253164556962,anode,0.018021758858193,0.0188947759264287,0.0169985325498823,3.911432658589026e-05,critical
1500,4.040404040404041,1.620253164556962,anode,0.018014313603122,0.0188950062988025,0.0169802266414678,-5.0412002065671904e-05,critical
1500,4.141414141414141,1.620253164556962,anode,0.0180133727176625,0.0188766698876813,0.0170034786678317,3.510728516109618e-05,critical
1500,4.242424242424242,1.620253164556962,anode,0.0180394822008641,0.0188172612634202,0.017145277805163,-8.514633163113799e-06,critical
1500,4.343434343434343,1.620253164556962,anode,0.0179964076204307,0.018856995184317,0.0169902986943266,7.089803229568474e-06,critical
1500,4.444444444444445,1.620253164556962,anode,0.0180785980922422,0.0190058391959694,0.0169807052961232,2.57382740570398e-05,critical
1500,4.545454545454545,1.620253164556962,anode,0.0181135394354317,0.0189521142085714,0.0171373079669131,-7.86794504753005e-05,critical
1500,4.646464646464646,1.620253164556962,anode,0.0180181151647057,0.0189141399803546,0.0169630460954589,3.77641726335464e-05,critical
1500,4.747474747474747,1.620253164556962,anode,0.0181449503585543,0.0190742568984556,0.0170422667602931,-0.0001178491620267,critical
1500,4.848484848484849,1.620253164556962,anode,0.017897663018524,0.0186768759321722,0.0170004803134543,-7.695289970666338e-06,critical
1500,4.94949494949495,1.620253164556962,anode,0.0180826318744171,0.0189995579616888,0.0169981782788357,-7.784903957750773e-05,critical
1500,5.05050505050505,1.620253164556962,anode,0.0180003963088473,0.0189112394692954,0.01692454107504,-3.290181259698968e-05,critical
1500,5.151515151515151,1.620253164556962,anode,0.017895017319951,0.0187653058834222,0.0168742219552252,4.285605092764632e-05,critical
1500,5.252525252525253,1.620253164556962,anode,0.0181184770452925,0.0189330267675949,0.0171758832307612,8.166326556704444e-06,critical
1500,5.353535353535354,1.620253164556962,anode,0.0180493773941255,0.0189005814738338,0.0170565813999445,-1.1278716499361052e-05,critical
1500,5.454545454545454,1.620253164556962,anode,0.0179058574415678,0.0187131483467703,0.0169708767437487,4.353656904130516e-05,critical
1500,5.555555555555555,1.620253164556962,anode,0.0180578769348281,0.0189732487150733,0.0169748154925031,-9.271428617525186e-05,critical
1500,5.656565656565657,1.620253164556962,anode,0.0180072388803677,0.0189994631557173,0.0168146854650132,7.616116537625771e-05,critical
1500,5.757575757575758,1.620253164556962,anode,0.0180900609216983,0.0188970781971628,0.0171570617716655,3.789923938741799e-05,critical
1500,5.858585858585858,1.620253164556962,anode,0.0180725654108524,0.0190200860136688,0.0169454454928643,-5.673454197087424e-05,critical
1500,5.959595959595959,1.620253164556962,anode,0.0182087786670933,0.0191109510429951,0.0171473321462959,2.5795412252488023e-05,critical
1500,6.0606060606060606,1.620253164556962,anode,0.0181043336613945,0.0188438440621673,0.0172594604865356,-8.57204817157712e-05,critical
1500,6.161616161616162,1.620253164556962,anode,0.0182371022960243,0.0191491772029779,0.0171622074076041,2.3807180005240478e-05,critical
1500,6.262626262626262,1.620253164556962,anode,0.018168066938406,0.0189960634797258,0.0172078115487798,6.602577540995776e-06,critical
1500,6.363636363636363,1.620253164556962,anode,0.018194560298621,0.0189941765521869,0.0172725347052674,-1.154867188673807e-05,critical
1500,6.4646464646464645,1.620253164556962,anode,0.0182239954899106,0.0190890617932515,0.0172132255435143,6.034323804412084e-05,critical
1500,6.565656565656566,1.620253164556962,anode,0.0183874718077665,0.0192397644541741,0.0173962990446987,4.42610066302643e-06,critical
1500,6.666666666666667,1.620253164556962,anode,0.0181758292002755,0.0190110790058007,0.0172053701146642,-5.010636730643169e-05,critical
1500,6.767676767676767,1.620253164556962,anode,0.0183503369710184,0.0192797016174108,0.0172521124753218,-5.218054105329455e-05,critical
1500,6.8686868686868685,1.620253164556962,anode,0.0184376866148979,0.0193602207151454,0.0173502194140781,-3.69917384553629e-05,critical
1500,6.96969696969697,1.620253164556962,anode,0.0184268148084231,0.0193498799884431,0.0173376196225715,-7.627411493814042e-05,critical
1500,7.070707070707071,1.620253164556962,anode,0.0184979281084659,0.0193839070865962,0.017461853270016,6.112456614551617e-06,critical
1500,7.171717171717171,1.620253164556962,anode,0.0186145087534743,0.0194951300411413,0.0175863781060714,5.123167313684155e-05,critical
1500,7.272727272727272,1.620253164556962,anode,0.0186256143895394,0.019580269222731,0.0174955364582167,-5.374023624752779e-06,critical
1500,7.373737373737374,1.620253164556962,anode,0.0187397514600912,0.019635014774977,0.01769326490559,1.1171270925632486e-05,critical
1500,7.474747474747475,1.620253164556962,anode,0.0186154929649466,0.0195894909299904,0.0174579660268803,-1.3073838321429128e-05,critical
1500,7.575757575757575,1.620253164556962,anode,0.0187772179956468,0.0195762221489957,0.0178604122646396,-1.3088564400822643e-05,critical
1500,7.6767676767676765,1.620253164556962,anode,0.0188531673119405,0.0196633808918618,0.0179218230048923,-4.187997383938471e-05,critical
1500,7.777777777777778,1.620253164556962,anode,0.0188836316837176,0.0197972449564653,0.0178133207746162,1.7469438174997667e-05,critical
1500,7.878787878787879,1.620253164556962,anode,0.0190449197143948,0.0199759338580869,0.0179520654117206,3.489106363734555e-05,critical
1500,7.979797979797979,1.620253164556962,anode,0.0192174190039168,0.0201124478888343,0.0181755624801384,-2.952317534098264e-05,critical
1500,8.080808080808081,1.620253164556962,anode,0.0191544104520675,0.0200076586168011,0.0181684734428989,8.629956192316313e-06,critical
1500,8.181818181818182,1.620253164556962,anode,0.0194453138162001,0.0203311722428238,0.0184179978648946,-1.2990393938334176e-05,critical
1500,8.282828282828282,1.620253164556962,anode,0.0196089093319197,0.0205916755918743,0.0184501688524629,3.357800511625594e-05,critical
1500,8.383838383838384,1.620253164556962,anode,0.0196183099714405,0.0204542291988757,0.018658924081363,-1.87608274333498e-05,critical
1500,8.484848484848484,1.620253164556962,anode,0.0197130302126088,0.0206754918980897,0.0185836897761151,-1.8226748202014933e-05,critical
1500,8.585858585858587,1.620253164556962,anode,0.0197781174701897,0.0207838392125571,0.0185893267772266,1.247702212364286e-05,critical
1500,8.686868686868687,1.620253164556962,anode,0.0199345454964878,0.02089809908896,0.018804947206446,7.565109670614889e-05,critical
1500,8.787878787878787,1.620253164556962,anode,0.0200876060701298,0.0211395686221097,0.0188354626169964,9.909360009612112e-05,critical
1500,8.88888888888889,1.620253164556962,anode,0.0202341906831975,0.0211525069870872,0.0191698974295488,1.0686846733303272e-05,critical
1500,8.98989898989899,1.620253164556962,anode,0.0203446777453143,0.02135770596042,0.0191517658832814,-2.553806851849625e-05,critical
1500,9.09090909090909,1.620253164556962,anode,0.0203974796202596,0.0213109753115997,0.0193408201903751,3.615740608762126e-05,critical
1500,9.191919191919192,1.620253164556962,anode,0.0206765946249519,0.021589707852634,0.0196220829887753,-7.065996489037257e-05,critical
1500,9.292929292929292,1.620253164556962,anode,0.0208694992387975,0.0218781694220026,0.0196875463056868,-5.684851536252507e-05,critical
1500,9.393939393939394,1.620253164556962,anode,0.0210182656781047,0.0221174800311585,0.0197119980967492,-2.179066724846036e-05,critical
1500,9.494949494949497,1.620253164556962,anode,0.0211787332851,0.0222312696247619,0.0199374273867058,-0.0001193139979788,critical
1500,9.595959595959595,1.620253164556962,anode,0.021403922587089,0.0224531882586363,0.0201718998772386,7.301985964383177e-06,critical
1500,9.696969696969695,1.620253164556962,anode,0.0217886857190998,0.0227461571907795,0.0206846678184888,1.1273793099930182e-05,critical
1500,9.797979797979798,1.620253164556962,anode,0.0219274560968558,0.0230479207885149,0.0206017986807025,1.9945086680654028e-05,critical
1500,9.8989898989899,1.620253164556962,anode,0.0221433386151136,0.0232026154077178,0.0209048443106722,1.4494946433307066e-05,critical
1500,10.0,1.620253164556962,anode,0.0223432229540566,0.0233696171359227,0.0211513178268483,-1.3670118010782932e-05,critical
1500,0.0,1.7215189873417722,anode,0.0224371383280763,0.0236092735285873,0.0210444711142487,-2.762925911806256e-05,critical
1500,0.101010101010101,1.7215189873417722,anode,0.0221598172946789,0.0232643465591104,0.0208590431426,1.7745602798409626e-06,critical
1500,0.202020202020202,1.7215189873417722,anode,0.0218305806837695,0.0228778047014031,0.0206046422926172,7.746685546211684e-05,critical
1500,0.303030303030303,1.7215189873417722,anode,0.0216093975295296,0.0226577502677748,0.0203803992740189,4.372997531409768e-05,critical
1500,0.404040404040404,1.7215189873417722,anode,0.0214856225012992,0.0225100635220022,0.0202882883685337,-4.09451151872549e-05,critical
1500,0.5050505050505051,1.7215189873417722,anode,0.0213554147319684,0.0223913015321906,0.0201413427000889,-1.3490334124040648e-05,critical
1500,0.6060606060606061,1.7215189873417722,anode,0.0210436838049312,0.0220872840873099,0.0198145473731323,-8.516458207622928e-05,critical
1500,0.7070707070707071,1.7215189873417722,anode,0.020875995902436,0.0218739240601987,0.0197091093427285,4.17177042940892e-05,critical
1500,0.8080808080808081,1.7215189873417722,anode,0.0206903409412834,0.021679093019136,0.0195342565572176,4.049631498775922e-05,critical
1500,0.9090909090909092,1.7215189873417722,anode,0.0205263316735587,0.0215159985147922,0.0193676743273436,-6.906433250898759e-06,critical
1500,1.0101010101010102,1.7215189873417722,anode,0.0202842718133256,0.0212639848090773,0.019136505213471,4.884468267210016e-05,critical
1500,1.1111111111111112,1.7215189873417722,anode,0.0202069201276706,0.0210803602496491,0.0192003451448704,0.0001079686380298,critical
1500,1.2121212121212122,1.7215189873417722,anode,0.0199213244676442,0.0207884776825938,0.0189221652049401,6.592220582863464e-05,critical
1500,1.3131313131313131,1.7215189873417722,anode,0.0199982829158707,0.0208793061486175,0.0189817504055357,4.0099174046284095e-05,critical
1500,1.414141414141414,1.7215189873417722,anode,0.0199095290097624,0.020842310962068,0.0188224262649855,-4.672588732810606e-05,critical
1500,1.5151515151515151,1.7215189873417722,anode,0.0195370800864975,0.0204228349437418,0.0185106641283011,1.6959633013108824e-05,critical
1500,1.616161616161616,1.7215189873417722,anode,0.0195077187377486,0.0204107922175228,0.0184576917066616,1.123247999087013e-05,critical
1500,1.7171717171717171,1.7215189873417722,anode,0.019417129716417,0.020303994618435,0.0183881857767938,-1.805410064980126e-05,critical
1500,1.818181818181818,1.7215189873417722,anode,0.0192069306166778,0.0201567496931223,0.0180894862666432,4.952738474309985e-05,critical
1500,1.9191919191919191,1.7215189873417722,anode,0.0191216894707632,0.0199949991649519,0.0181085041356984,1.4371836807103814e-05,critical
1500,2.0202020202020203,1.7215189873417722,anode,0.0192559891661603,0.0201322622398368,0.0182397475576049,3.7085157380783896e-05,critical
1500,2.121212121212121,1.7215189873417722,anode,0.0189996682434146,0.0199011893279177,0.0179470353239332,2.1036730619790423e-05,critical
1500,2.2222222222222223,1.7215189873417722,anode,0.0190489420542868,0.0199637113302558,0.0179787110811419,-7.5118707701238494e-06,critical
1500,2.323232323232323,1.7215189873417722,anode,0.0189934342226001,0.0199744899773145,0.0178304071334057,7.388031843128268e-06,critical
1500,2.4242424242424243,1.7215189873417722,anode,0.0188287552917001,0.0197832820436159,0.0177010162496918,2.5807440116360757e-05,critical
1500,2.525252525252525,1.7215189873417722,anode,0.0186153654704327,0.0194324289168509,0.017672627144152,6.546898971293532e-05,critical
1500,2.6262626262626263,1.7215189873417722,anode,0.0188068380562933,0.0197590554168282,0.0176818756649089,-4.211419973005828e-05,critical
1500,2.727272727272727,1.7215189873417722,anode,0.0187430914733168,0.0196601158463211,0.0176666185745447,-2.365598037513123e-05,critical
1500,2.8282828282828283,1.7215189873417722,anode,0.0186103822520783,0.0195254261951506,0.0175346523331191,6.214770250790303e-05,critical
1500,2.929292929292929,1.7215189873417722,anode,0.0184666460715739,0.0194063080792184,0.017354239902687,9.001351644992497e-05,critical
1500,3.0303030303030303,1.7215189873417722,anode,0.018482529940347,0.0194093281939915,0.017389654550921,3.326165133304705e-05,critical
1500,3.131313131313131,1.7215189873417722,anode,0.0184251783293459,0.019303837459084,0.0173981919084885,3.57902234347826e-05,critical
1500,3.2323232323232323,1.7215189873417722,anode,0.0182987695199062,0.0192171819196097,0.0172150810338414,-6.113917920498574e-05,critical
1500,3.333333333333333,1.7215189873417722,anode,0.0183295502065335,0.0193688665378368,0.0170741333435873,-3.463484907153961e-07,critical
1500,3.4343434343434343,1.7215189873417722,anode,0.0182099748178115,0.0191323263213955,0.0171205290622307,1.0096861108433558e-05,critical
1500,3.5353535353535355,1.7215189873417722,anode,0.0182679717903016,0.0190800643226162,0.0173289730348837,6.964788299830084e-05,critical
1500,3.636363636363636,1.7215189873417722,anode,0.0182349867427203,0.0190662227254826,0.0172708355826732,-2.400444529995639e-05,critical
1500,3.7373737373737375,1.7215189873417722,anode,0.0181340117189754,0.018952203931535,0.0171864543538478,-3.327500911969269e-05,critical
1500,3.8383838383838382,1.7215189873417722,anode,0.0181905439787941,0.0189661668875822,0.0173000230968785,3.970683700817637e-05,critical
1500,3.939393939393939,1.7215189873417722,anode,0.0182998758380203,0.0191360245861603,0.0173297078199558,-1.7893326877006175e-05,critical
1500,4.040404040404041,1.7215189873417722,anode,0.0180254684232424,0.01877392847154,0.0171695733599151,3.273330214884047e-05,critical
1500,4.141414141414141,1.7215189873417722,anode,0.0181739590226704,0.0190010515668622,0.0172141418059402,-6.568594491208135e-05,critical
1500,4.242424242424242,1.7215189873417722,anode,0.0180631938248407,0.0188727312612398,0.0171261879368705,5.948419347149281e-05,critical
1500,4.343434343434343,1.7215189873417722,anode,0.0180653035219307,0.0189599485492928,0.017011265242539,-9.148943937155146e-05,critical
1500,4.444444444444445,1.7215189873417722,anode,0.0180315124813352,0.0189690360371392,0.0169186353596796,-1.911011459556751e-05,critical
1500,4.545454545454545,1.7215189873417722,anode,0.0180747703907464,0.0189248098587955,0.0170837186390272,-2.2955565364041417e-05,critical
1500,4.646464646464646,1.7215189873417722,anode,0.0181262753098441,0.0189212057075318,0.0172096082758648,4.378929281739887e-05,critical
1500,4.747474747474747,1.7215189873417722,anode,0.0180248330765088,0.0189914042239492,0.0168698046412284,-6.362265314771046e-05,critical
1500,4.848484848484849,1.7215189873417722,anode,0.0179908072438627,0.0187918394312661,0.0170645826601995,6.00888802516116e-05,critical
1500,4.94949494949495,1.7215189873417722,anode,0.0179149593297778,0.01869423952651,0.0170176733079517,-2.8475133233598895e-05,critical
1500,5.05050505050505,1.7215189873417722,anode,0.0180796540905686,0.0189831010676543,0.017014991579222,3.2312342819899284e-05,critical
1500,5.151515151515151,1.7215189873417722,anode,0.0179771720330294,0.0187677683492048,0.0170654537181909,1.09094009854499e-05,critical
1500,5.252525252525253,1.7215189873417722,anode,0.0180540977603139,0.0188971960232306,0.0170724019967254,-3.897875039231617e-06,critical
1500,5.353535353535354,1.7215189873417722,anode,0.0180279608290857,0.0188746295482442,0.0170408814586266,3.8361837603856494e-05,critical
1500,5.454545454545454,1.7215189873417722,anode,0.0181260513182489,0.0189677710275187,0.0171468427164616,1.3783892324025422e-05,critical
1500,5.555555555555555,1.7215189873417722,anode,0.0181898096703306,0.019043008918272,0.0171954213937224,3.179742064179619e-05,critical
1500,5.656565656565657,1.7215189873417722,anode,0.0180517378129363,0.0188622963680714,0.0171135878435446,-4.355355813923858e-05,critical
1500,5.757575757575758,1.7215189873417722,anode,0.0181000581455749,0.0189840841433384,0.0170621504523612,-5.469889320419051e-05,critical
1500,5.858585858585858,1.7215189873417722,anode,0.0182354082224649,0.0190915801855454,0.0172370841914674,-5.093342547606196e-05,critical
1500,5.959595959595959,1.7215189873417722,anode,0.0182132733484674,0.0191041844516014,0.0171675539611514,-1.4954963439940114e-05,critical
1500,6.0606060606060606,1.7215189873417722,anode,0.0182374696723316,0.0191604116411597,0.0171474718583264,-1.585422305370538e-05,critical
1500,6.161616161616162,1.7215189873417722,anode,0.0182290420517514,0.0191195764745079,0.0171813735487924,0.0001165590551967,critical
1500,6.262626262626262,1.7215189873417722,anode,0.0181682507005069,0.0190294925011502,0.0171628922767099,-1.5535861057268798e-06,critical
1500,6.363636363636363,1.7215189873417722,anode,0.0181293417934465,0.01896830089462,0.0171526597293148,-8.09735219707437e-05,critical
1500,6.4646464646464645,1.7215189873417722,anode,0.0181223814683932,0.0190148398337554,0.0170735383395289,2.2073157521371747e-05,critical
1500,6.565656565656566,1.7215189873417722,anode,0.0182464817187435,0.0191321860396782,0.0172073299163428,-7.11496341188501e-05,critical
1500,6.666666666666667,1.7215189873417722,anode,0.0182100824267226,0.0191248483935399,0.0171304641340685,-6.325593139891623e-05,critical
1500,6.767676767676767,1.7215189873417722,anode,0.0183373988265921,0.0191795046842676,0.0173595726281367,3.582286901476474e-06,critical
1500,6.8686868686868685,1.7215189873417722,anode,0.0184802876698756,0.0193587410982808,0.0174536845596251,-5.896706719211532e-05,critical
1500,6.96969696969697,1.7215189873417722,anode,0.0183226514789029,0.0191531956151157,0.0173590966384552,-7.872412010243395e-05,critical
1500,7.070707070707071,1.7215189873417722,anode,0.0185402403307371,0.0193843030522972,0.0175599200802826,-9.188014402133142e-05,critical
1500,7.171717171717171,1.7215189873417722,anode,0.0184566848303998,0.0194333896860494,0.0172934131229051,5.132207071678048e-06,critical
1500,7.272727272727272,1.7215189873417722,anode,0.0186461327052366,0.0194912922093243,0.017666677283444,-2.9866001336073384e-05,critical
1500,7.373737373737374,1.7215189873417722,anode,0.0187570812586135,0.0194975524042512,0.0179163221259731,-3.3558936606125474e-05,critical
1500,7.474747474747475,1.7215189873417722,anode,0.0188357310937482,0.0197152951221403,0.0178114160039094,2.992812985203206e-05,critical
1500,7.575757575757575,1.7215189873417722,anode,0.0187534172163387,0.0195661581756968,0.0178180507382685,-3.6416798897787474e-05,critical
1500,7.6767676767676765,1.7215189873417722,anode,0.0190203006767892,0.0199700447223242,0.017900891404394,-5.428464223765023e-05,critical
1500,7.777777777777778,1.7215189873417722,anode,0.0189712678240356,0.0198832759617422,0.0179018746704157,0.0001082242573239,critical
1500,7.878787878787879,1.7215189873417722,anode,0.0190724785842734,0.0200329578806796,0.0179385514334679,5.959774710224605e-05,critical
1500,7.979797979797979,1.7215189873417722,anode,0.0191933475959161,0.0200768468101336,0.0181640187968632,-0.0001283979339058,critical
1500,8.080808080808081,1.7215189873417722,anode,0.0192576206574348,0.0202382214919854,0.0180979694537237,-3.898819792265627e-05,critical
1500,8.181818181818182,1.7215189873417722,anode,0.0193465475484753,0.0201884534639609,0.0183768465884293,4.785536921976784e-05,critical
1500,8.282828282828282,1.7215189873417722,anode,0.0194616733234068,0.0204682625809724,0.0182680307807721,1.6908718254366514e-05,critical
1500,8.383838383838384,1.7215189873417722,anode,0.0195854393826971,0.0205623486464016,0.0184340677781121,-6.358127091911314e-05,critical
1500,8.484848484848484,1.7215189873417722,anode,0.0197947544741055,0.0207320235201124,0.0187006593238605,3.3442729248194304e-05,critical
1500,8.585858585858587,1.7215189873417722,anode,0.0198323953766259,0.0207177234167101,0.0188087926407014,-3.884127922653882e-05,critical
1500,8.686868686868687,1.7215189873417722,anode,0.0198859120404391,0.0208827868097646,0.0187106902484617,-6.799173679824235e-06,critical
1500,8.787878787878787,1.7215189873417722,anode,0.0199798679633654,0.020962960649625,0.0188242617458002,-5.426047316573506e-05,critical
1500,8.88888888888889,1.7215189873417722,anode,0.0200759105932176,0.0210493236930678,0.0189348990857051,-3.905029263814582e-05,critical
1500,8.98989898989899,1.7215189873417722,anode,0.0203735871741625,0.0214007137210943,0.0191610515693882,-4.756945032418246e-05,critical
1500,9.09090909090909,1.7215189873417722,anode,0.0205492578376156,0.0215169180694819,0.0194154284213687,0.0001784715749523,critical
1500,9.191919191919192,1.7215189873417722,anode,0.0206144002662326,0.0216786634827822,0.0193528127749915,-1.634245178593445e-05,critical
1500,9.292929292929292,1.7215189873417722,anode,0.0209404163825886,0.0219561096657598,0.0197496131398337,-5.079174061158147e-05,critical
1500,9.393939393939394,1.7215189873417722,anode,0.0208837059587354,0.0219364908987492,0.0196410619169592,-3.743606698718882e-05,critical
1500,9.494949494949497,1.7215189873417722,anode,0.0211853085317168,0.0222275648962718,0.0199606268738777,-2.6835158983071096e-05,critical
1500,9.595959595959595,1.7215189873417722,anode,0.0214128374907559,0.022396491922587,0.0202705821265988,-7.917919256378085e-06,critical
1500,9.696969696969695,1.7215189873417722,anode,0.0215978449808214,0.0226114448737196,0.0204153330582717,8.911169752347073e-05,critical
1500,9.797979797979798,1.7215189873417722,anode,0.021934574055474,0.0230517429025949,0.0206133054191971,4.811354152828025e-05,critical
1500,9.8989898989899,1.7215189873417722,anode,0.0220659471377504,0.0230578544320228,0.0209181298282193,1.1678136833967475e-05,critical
1500,10.0,1.7215189873417722,anode,0.0224197588627835,0.0235189673182145,0.0211290205763003,1.8235828124843345e-05,critical
1500,0.0,1.8227848101265824,anode,0.022439120572597,0.0235209641996833,0.021172484999614,2.247831648070311e-05,critical
1500,0.101010101010101,1.8227848101265824,anode,0.0220943897479211,0.0231763672756095,0.0208239844165217,3.670712209336888e-05,critical
1500,0.202020202020202,1.8227848101265824,anode,0.0217143066911346,0.0228201129951929,0.0204068570617205,1.3252056484246587e-05,critical
1500,0.303030303030303,1.8227848101265824,anode,0.0215847647628336,0.0226102535346835,0.0203870204642582,3.465577281779677e-05,critical
1500,0.404040404040404,1.8227848101265824,anode,0.0213513829424711,0.022353282884853,0.0201826574810587,-8.423552347954416e-05,critical
1500,0.5050505050505051,1.8227848101265824,anode,0.0211257938694108,0.0222670345848105,0.0197608800592703,-2.681045122879528e-05,critical
1500,0.6060606060606061,1.8227848101265824,anode,0.0210193289562359,0.022047562308175,0.0198124451879584,-1.0351659434480266e-05,critical
1500,0.7070707070707071,1.8227848101265824,anode,0.0207505297009478,0.0217144809202105,0.0196287030838916,4.801070642917688e-05,critical
1500,0.8080808080808081,1.8227848101265824,anode,0.0207134023824151,0.0217323881183373,0.0195161436669821,-1.7224436012207147e-05,critical
1500,0.9090909090909092,1.8227848101265824,anode,0.0203932527825848,0.021385091069722,0.0192302537209631,1.5361620364187074e-05,critical
1500,1.0101010101010102,1.8227848101265824,anode,0.0202416428293659,0.0212949421093424,0.0189908342918588,-4.645694703392473e-05,critical
1500,1.1111111111111112,1.8227848101265824,anode,0.0202649218380002,0.0213300015711382,0.0189975216997812,5.605665559315374e-05,critical
1500,1.2121212121212122,1.8227848101265824,anode,0.0200250575207636,0.0209268635261184,0.0189804848498948,6.460816595600874e-05,critical
1500,1.3131313131313131,1.8227848101265824,anode,0.0199881741630646,0.0209735074582847,0.0188292306288129,6.873675490865534e-05,critical
1500,1.414141414141414,1.8227848101265824,anode,0.0199092530012597,0.0209254356826743,0.0187066132489395,-6.0963634994449335e-05,critical
1500,1.5151515151515151,1.8227848101265824,anode,0.01971371023378,0.0206785936329765,0.0185809420990786,-2.874160207045832e-05,critical
1500,1.616161616161616,1.8227848101265824,anode,0.019429710844319,0.0204800657726105,0.0181727918171088,-5.824861018406342e-05,critical
1500,1.7171717171717171,1.8227848101265824,anode,0.0194806962138272,0.020420927031142,0.0183788135243711,7.044501576100667e-05,critical
1500,1.818181818181818,1.8227848101265824,anode,0.0192753048010539,0.0202208453331219,0.0181647770848849,3.060821256913755e-05,critical
1500,1.9191919191919191,1.8227848101265824,anode,0.0191710190135942,0.0201380206255786,0.0180297301697235,1.0554358391594266e-06,critical
1500,2.0202020202020203,1.8227848101265824,anode,0.0191971425086765,0.0200541952262745,0.0182061328185307,-4.322027771590497e-05,critical
1500,2.121212121212121,1.8227848101265824,anode,0.0190194686871902,0.019948989700574,0.0179285802491415,-1.8903752124852604e-05,critical
1500,2.2222222222222223,1.8227848101265824,anode,0.0189455961116555,0.0197403018042959,0.0180356066953596,2.0874398712791102e-05,critical
1500,2.323232323232323,1.8227848101265824,anode,0.0188997372031968,0.0198694123647109,0.0177511787531154,-5.053748201067247e-05,critical
1500,2.4242424242424243,1.8227848101265824,anode,0.0189199951110689,0.0198594963734223,0.0178120558831764,0.0001091531441492,critical
1500,2.525252525252525,1.8227848101265824,anode,0.0187503712625942,0.0196129968296121,0.0177482192263128,-3.296239483286928e-05,critical
1500,2.6262626262626263,1.8227848101265824,anode,0.018747160511359,0.0196880958457553,0.0176367839309748,6.696820894843062e-05,critical
1500,2.727272727272727,1.8227848101265824,anode,0.0186594405938674,0.0195281007816115,0.0176480754730326,4.772028325379231e-05,critical
1500,2.8282828282828283,1.8227848101265824,anode,0.0184487565962548,0.0193264159706332,0.0174234024894709,3.284053942212093e-05,critical
1500,2.929292929292929,1.8227848101265824,anode,0.0185246995631182,0.0193640158332643,0.0175522092212772,1.406455322797256e-05,critical
1500,3.0303030303030303,1.8227848101265824,anode,0.018449175638178,0.0193563010541094,0.0173834730102047,9.90430913242738e-06,critical
1500,3.131313131313131,1.8227848101265824,anode,0.0185226314572756,0.019421041709713,0.0174694711777575,3.614863299433153e-05,critical
1500,3.2323232323232323,1.8227848101265824,anode,0.0183661921352609,0.0192240631295323,0.0173669774345163,-3.819118737519966e-05,critical
1500,3.333333333333333,1.8227848101265824,anode,0.0182426060252531,0.0191404340269895,0.0171870100485373,-5.766974300068565e-05,critical
1500,3.4343434343434343,1.8227848101265824,anode,0.0183689284618863,0.0192595102907547,0.0173252696975554,-3.4706074403296264e-06,critical
1500,3.5353535353535355,1.8227848101265824,anode,0.0183743273104424,0.0190977221668334,0.0175529077319496,5.445912292860782e-05,critical
1500,3.636363636363636,1.8227848101265824,anode,0.0182354913136448,0.0191588967633008,0.0171447593427402,-2.3941748170067505e-05,critical
1500,3.7373737373737375,1.8227848101265824,anode,0.0180419109958369,0.0187738973557902,0.0172076359346978,-3.155296432758415e-05,critical
1500,3.8383838383838382,1.8227848101265824,anode,0.0182360328147464,0.0190551281837059,0.0172883247473255,4.254248031635481e-06,critical
1500,3.939393939393939,1.8227848101265824,anode,0.0181476354835421,0.0189821804750077,0.0171780033790072,4.342928803244109e-05,critical
1500,4.040404040404041,1.8227848101265824,anode,0.0181533248928669,0.0190002349057277,0.0171673512261443,-3.467815099116082e-06,critical
1500,4.141414141414141,1.8227848101265824,anode,0.0182364204814487,0.0191994314373317,0.0170897631685365,2.9413926910154897e-05,critical
1500,4.242424242424242,1.8227848101265824,anode,0.0181515260080387,0.0190800387401568,0.0170524341329721,-4.325161402194748e-05,critical
1500,4.343434343434343,1.8227848101265824,anode,0.018112469085084,0.0189814625890313,0.0170959476715119,9.638518145560344e-06,critical
1500,4.444444444444445,1.8227848101265824,anode,0.0180681745605573,0.0187976549134306,0.0172375171212601,-1.0970280629044529e-06,critical
1500,4.545454545454545,1.8227848101265824,anode,0.0179915945285188,0.018792600823981,0.01706469006731,8.541950538086216e-05,critical
1500,4.646464646464646,1.8227848101265824,anode,0.018024098238415,0.0188425613837162,0.017075461340919,3.927477683730809e-06,critical
1500,4.747474747474747,1.8227848101265824,anode,0.0180130697680739,0.0189050552259285,0.016962357647002,8.62177626835297e-05,critical
1500,4.848484848484849,1.8227848101265824,anode,0.0180991665662646,0.0190658476201341,0.0169456763992909,1.844215024004818e-05,critical
1500,4.94949494949495,1.8227848101265824,anode,0.0180209032206835,0.0188576704080874,0.0170472935223182,-3.289289138973929e-05,critical
1500,5.05050505050505,1.8227848101265824,anode,0.017967773980842,0.0189121569631538,0.016844122851586,4.25889820503172e-05,critical
1500,5.151515151515151,1.8227848101265824,anode,0.0179905897930848,0.0189270203205777,0.0168788462775562,-3.545387868669394e-06,critical
1500,5.252525252525253,1.8227848101265824,anode,0.018164482395734,0.019136428190868,0.0170038731553709,-4.9098951535491496e-05,critical
1500,5.353535353535354,1.8227848101265824,anode,0.0181315885339211,0.0189972086356817,0.0171198722853157,-1.0414263439375178e-05,critical
1500,5.454545454545454,1.8227848101265824,anode,0.0181422590141107,0.01890290069813,0.0172713198731209,-2.207305521007509e-05,critical
1500,5.555555555555555,1.8227848101265824,anode,0.0180928017831758,0.0189292935195045,0.0171197560109748,-5.82061178622375e-05,critical
1500,5.656565656565657,1.8227848101265824,anode,0.0180046104152714,0.0188257390381557,0.0170504673336704,-9.444236104178608e-05,critical
1500,5.757575757575758,1.8227848101265824,anode,0.0181486322248491,0.0190834727983753,0.0170397469363794,7.850495153386806e-05,critical
1500,5.858585858585858,1.8227848101265824,anode,0.0180936908053023,0.0189785414785384,0.0170541719897462,-7.103646706326944e-05,critical
1500,5.959595959595959,1.8227848101265824,anode,0.0181933005870843,0.0190703768846889,0.0171663984738038,-2.1321465691636493e-05,critical
1500,6.0606060606060606,1.8227848101265824,anode,0.0183173101725409,0.0191905245876949,0.0172965370227738,-4.845631530009706e-05,critical
1500,6.161616161616162,1.8227848101265824,anode,0.0182315314342806,0.0190407666376011,0.0172944372088841,-0.0001150781510529,critical
1500,6.262626262626262,1.8227848101265824,anode,0.0182206431314351,0.0191130778887187,0.0171728666825004,1.895717250703213e-05,critical
1500,6.363636363636363,1.8227848101265824,anode,0.0182803183652752,0.0190716963422877,0.0173695104633311,-4.681024979474798e-05,critical
1500,6.4646464646464645,1.8227848101265824,anode,0.0183126512386674,0.0192779945672693,0.0171632015494031,5.3974235553636e-05,critical
1500,6.565656565656566,1.8227848101265824,anode,0.0182343467550133,0.0190636523802563,0.017272627083308,3.773397130424094e-05,critical
1500,6.666666666666667,1.8227848101265824,anode,0.0183452162051889,0.0191741229609904,0.0173849180980151,4.141777130958116e-05,critical
1500,6.767676767676767,1.8227848101265824,anode,0.0184481409739096,0.0193569513199372,0.0173799721801801,-2.697801943604764e-05,critical
1500,6.8686868686868685,1.8227848101265824,anode,0.0183744708527447,0.0193569430781814,0.0172019134433465,-1.3748123356485706e-05,critical
1500,6.96969696969697,1.8227848101265824,anode,0.0184532736789028,0.0194322586464798,0.0172864293927961,3.8119319679219306e-05,critical
1500,7.070707070707071,1.8227848101265824,anode,0.0185901306220054,0.0195487375633826,0.0174529884348577,-7.505891846985535e-05,critical
1500,7.171717171717171,1.8227848101265824,anode,0.0185222852863812,0.0194474925772674,0.0174322646838746,4.855346629773123e-06,critical
1500,7.272727272727272,1.8227848101265824,anode,0.0185836406350419,0.0194684032632689,0.0175494418359672,-5.679080035897482e-05,critical
1500,7.373737373737374,1.8227848101265824,anode,0.018676823283046,0.0195281722236476,0.0176890762818342,4.5188324584938695e-05,critical
1500,7.474747474747475,1.8227848101265824,anode,0.0186267946479754,0.0195743809800324,0.0175065472589284,2.39225730551114e-05,critical
1500,7.575757575757575,1.8227848101265824,anode,0.0187997044747776,0.0196378446715714,0.0178308776673387,-3.5367572713330545e-05,critical
1500,7.6767676767676765,1.8227848101265824,anode,0.0189216269608775,0.0198163461336885,0.0178775882632418,-1.5359106114467148e-05,critical
1500,7.777777777777778,1.8227848101265824,anode,0.0190064431481211,0.0199272979851994,0.0179269837554219,4.9250566117402655e-05,critical
1500,7.878787878787879,1.8227848101265824,anode,0.0190201439923082,0.019985751715665,0.017879104298443,1.3841248624792676e-05,critical
1500,7.979797979797979,1.8227848101265824,anode,0.0191418727853094,0.0199755290326014,0.0181817718871062,3.274567109243848e-05,critical
1500,8.080808080808081,1.8227848101265824,anode,0.0193110662675192,0.0201796847699325,0.0183057703886605,1.8702640160682085e-05,critical
1500,8.181818181818182,1.8227848101265824,anode,0.0193085670828842,0.0203530060269081,0.0180592081697115,-5.211053381580904e-06,critical
1500,8.282828282828282,1.8227848101265824,anode,0.0194674532322681,0.0204007362754362,0.0183756269004421,3.807483037727925e-05,critical
1500,8.383838383838384,1.8227848101265824,anode,0.0195109758949569,0.0203963863985794,0.0184842197042139,-5.919330808911183e-05,critical
1500,8.484848484848484,1.8227848101265824,anode,0.0195979178415104,0.0206098922778716,0.0183964526305109,-0.0001002690385711,critical
1500,8.585858585858587,1.8227848101265824,anode,0.0197019395904868,0.0206433385803127,0.0185984087502925,0.0001309411192667,critical
1500,8.686868686868687,1.8227848101265824,anode,0.0198822100928133,0.020926549793356,0.0186397265082003,5.0174790634188976e-05,critical
1500,8.787878787878787,1.8227848101265824,anode,0.0200465612525048,0.0210140173238054,0.018913610399707,-2.5639867898605542e-05,critical
1500,8.88888888888889,1.8227848101265824,anode,0.0201210431903104,0.0210317229535175,0.0190657193621143,4.575810100449009e-05,critical
1500,8.98989898989899,1.8227848101265824,anode,0.02028313285981,0.0211234679078032,0.019322510097825,3.467768627078281e-05,critical
1500,9.09090909090909,1.8227848101265824,anode,0.0205943849050062,0.0215012368431072,0.0195469259464709,-9.358455194512778e-05,critical
1500,9.191919191919192,1.8227848101265824,anode,0.0206756738042955,0.0216109196728843,0.019591207327959,-8.214102921906107e-05,critical
1500,9.292929292929292,1.8227848101265824,anode,0.0208454799117248,0.0218293925987759,0.019697646736407,-2.6002867591369203e-05,critical
1500,9.393939393939394,1.8227848101265824,anode,0.0209982522991019,0.0219641294937176,0.0198764089320061,9.69583436289908e-07,critical
1500,9.494949494949497,1.8227848101265824,anode,0.021230222848799,0.0222308818995322,0.0200629275354494,4.383106004684212e-05,critical
1500,9.595959595959595,1.8227848101265824,anode,0.0214224449085488,0.0225578419266937,0.0200696028921022,3.099889776311217e-05,critical
1500,9.696969696969695,1.8227848101265824,anode,0.0214559666236657,0.0224830892922911,0.0202539380595163,7.80824876570023e-05,critical
1500,9.797979797979798,1.8227848101265824,anode,0.0219408438887761,0.0230140652862542,0.0206809647721962,3.741253310360703e-05,critical
1500,9.8989898989899,1.8227848101265824,anode,0.022069159093786,0.0231710728547204,0.0207667889336446,-0.0001616813673171,critical
1500,10.0,1.8227848101265824,anode,0.022404046605726,0.0234243762075987,0.0212205233024357,4.766384226583665e-05,critical
1500,0.0,1.9240506329113924,anode,0.0224614854335102,0.0234007721484155,0.0213856885158437,-7.33522035219264e-05,critical
1500,0.101010101010101,1.9240506329113924,anode,0.0220479545662315,0.0230713531122722,0.0208575047988069,-1.0294746052286887e-05,critical
1500,0.202020202020202,1.9240506329113924,anode,0.021979357474261,0.0230412027821639,0.0207353428342127,-5.140000325204513e-05,critical
1500,0.303030303030303,1.9240506329113924,anode,0.0216345162881375,0.0226850720761452,0.0204030057587754,1.6453337917101544e-05,critical
1500,0.404040404040404,1.9240506329113924,anode,0.0214695987486732,0.0223991762134944,0.0204002018937713,4.285194344887182e-06,critical
1500,0.5050505050505051,1.9240506329113924,anode,0.0212399068905697,0.0222317695273823,0.0200847480408558,-3.85313578522824e-05,critical
1500,0.6060606060606061,1.9240506329113924,anode,0.0210554013929651,0.0220297662100942,0.0199223159989846,3.923266207684432e-05,critical
1500,0.7070707070707071,1.9240506329113924,anode,0.0209970236509537,0.0220382302364477,0.0197706735005529,8.666816675711638e-05,critical
1500,0.8080808080808081,1.9240506329113924,anode,0.0206749147927074,0.0215979858158232,0.0196057940584408,0.0001119697955912,critical
1500,0.9090909090909092,1.9240506329113924,anode,0.02052344501276,0.0215340350236175,0.0193358691081443,-1.3894998740138356e-05,critical
1500,1.0101010101010102,1.9240506329113924,anode,0.02034693861346,0.0213123952609916,0.0192195155177976,-3.5841690687586326e-05,critical
1500,1.1111111111111112,1.9240506329113924,anode,0.0201676608334501,0.0211719528126798,0.018984969567539,-3.0375123882060863e-05,critical
1500,1.2121212121212122,1.9240506329113924,anode,0.0201068460289906,0.0210794919029655,0.0189659825257269,9.139705140296409e-05,critical
1500,1.3131313131313131,1.9240506329113924,anode,0.0198771110362698,0.0208162142979066,0.0187814227879554,1.8664454318699323e-05,critical
1500,1.414141414141414,1.9240506329113924,anode,0.0198736177934667,0.0208525060362371,0.0187231993053231,1.9239842002145307e-05,critical
1500,1.5151515151515151,1.9240506329113924,anode,0.0195627468807943,0.0204752674171201,0.0184995867677397,6.773801986377873e-05,critical
1500,1.616161616161616,1.9240506329113924,anode,0.0194756180682414,0.0204012362930525,0.0183946316082665,-1.8986933089009013e-06,critical
1500,1.7171717171717171,1.9240506329113924,anode,0.019626351105737,0.0205160197092518,0.0185952220284464,-3.764908833103708e-05,critical
1500,1.818181818181818,1.9240506329113924,anode,0.0193148432281784,0.02019098784392,0.0182995159534729,-8.14146929335915e-06,critical
1500,1.9191919191919191,1.9240506329113924,anode,0.0192950429569672,0.0203395970283482,0.0180450258129925,-4.11187161769969e-05,critical
1500,2.0202020202020203,1.9240506329113924,anode,0.0192086719975331,0.0201168765668553,0.0181487151578942,3.632216364375737e-05,critical
1500,2.121212121212121,1.9240506329113924,anode,0.0191213784003047,0.0200947772496711,0.0179703823120915,-3.2804592756263134e-05,critical
1500,2.2222222222222223,1.9240506329113924,anode,0.0188579373478267,0.0197917535049173,0.0177588304634156,5.952549692144344e-05,critical
1500,2.323232323232323,1.9240506329113924,anode,0.0189597156337793,0.0198451478916152,0.0179280440361702,6.0123251261849055e-05,critical
1500,2.4242424242424243,1.9240506329113924,anode,0.0186161592632793,0.0195613558974359,0.0174990204852692,-3.459669845650303e-05,critical
1500,2.525252525252525,1.9240506329113924,anode,0.018782082078232,0.0196448388081445,0.0177797446542813,-5.103334643587844e-05,critical
1500,2.6262626262626263,1.9240506329113924,anode,0.0186593612973753,0.0195405127027645,0.0176307983088484,-5.749390033094243e-05,critical
1500,2.727272727272727,1.9240506329113924,anode,0.0185720470213696,0.0195109146576496,0.017462588360619,-6.884460557785677e-05,critical
1500,2.8282828282828283,1.9240506329113924,anode,0.0186302952828756,0.0195544410312096,0.0175422803712795,5.664136484858756e-05,critical
1500,2.929292929292929,1.9240506329113924,anode,0.0184892894340921,0.0194441849478687,0.0173572043583846,-2.3409929265928013e-05,critical
1500,3.0303030303030303,1.9240506329113924,anode,0.0185150423944641,0.0194164140945128,0.0174575251348296,-4.834538660703245e-05,critical
1500,3.131313131313131,1.9240506329113924,anode,0.0185449967871707,0.0194141293944641,0.0175318321370615,5.355757030329227e-05,critical
1500,3.2323232323232323,1.9240506329113924,anode,0.0183528305975929,0.0192149596917918,0.0173479434144418,1.4232826702586982e-05,critical
1500,3.333333333333333,1.9240506329113924,anode,0.0183520282708483,0.0191118540854023,0.0174835677943301,-2.7256992038921105e-05,critical
1500,3.4343434343434343,1.9240506329113924,anode,0.0182422368280032,0.0190088890728794,0.0173640756953824,2.5850180897126138e-05,critical
1500,3.5353535353535355,1.9240506329113924,anode,0.0182991577832009,0.0192404615822588,0.0171839357292388,3.1737254236385163e-05,critical
1500,3.636363636363636,1.9240506329113924,anode,0.0182155246404991,0.01914042153215,0.0171219174091535,5.848756055473157e-05,critical
1500,3.7373737373737375,1.9240506329113924,anode,0.0181146191005514,0.0190199572622304,0.0170478573964294,-1.557973774639189e-05,critical
1500,3.8383838383838382,1.9240506329113924,anode,0.0182439809255967,0.019176776441867,0.0171397731078407,5.1186838525400896e-05,critical
1500,3.939393939393939,1.9240506329113924,anode,0.0180908696980707,0.0188949757691524,0.0171619992085943,-1.632458806665765e-05,critical
1500,4.040404040404041,1.9240506329113924,anode,0.0179680427708519,0.018809563483404,0.0169876885443201,-1.0434091839106522e-05,critical
1500,4.141414141414141,1.9240506329113924,anode,0.0181761587400304,0.0189731605801728,0.0172550283406176,0.0001130554852234,critical
1500,4.242424242424242,1.9240506329113924,anode,0.0179588950889455,0.0187701346874656,0.0170192167941229,-3.2699875942738475e-05,critical
1500,4.343434343434343,1.9240506329113924,anode,0.0181310314955737,0.0191007301195478,0.0169736900782279,-6.593912086995425e-06,critical
1500,4.444444444444445,1.9240506329113924,anode,0.0179781975877293,0.0187821541155276,0.0170482479521182,-4.5961880995733786e-05,critical
1500,4.545454545454545,1.9240506329113924,anode,0.0179957131688345,0.0189025517957063,0.0169255414171464,-1.999258235953306e-05,critical
1500,4.646464646464646,1.9240506329113924,anode,0.0179838573889912,0.0188373738435286,0.0169858053813076,8.728271339662846e-05,critical
1500,4.747474747474747,1.9240506329113924,anode,0.0181132583077429,0.0189313036711247,0.017165878657683,1.7695523511690143e-05,critical
1500,4.848484848484849,1.9240506329113924,anode,0.0180915740989464,0.0189834916348558,0.0170430945752799,2.86898761202598e-05,critical
1500,4.94949494949495,1.9240506329113924,anode,0.0179652647361055,0.0188368611105042,0.016943716486129,-1.0104859961284697e-05,critical
1500,5.05050505050505,1.9240506329113924,anode,0.0179287071305308,0.0187347043095012,0.0169957947207871,3.43715759224422e-05,critical
1500,5.151515151515151,1.9240506329113924,anode,0.0181085089885529,0.0188948701463612,0.017203465158652,1.4962036453423751e-06,critical
1500,5.252525252525253,1.9240506329113924,anode,0.0180302520331825,0.018772122915262,0.0171831764875125,1.337325189204836e-05,critical
1500,5.353535353535354,1.9240506329113924,anode,0.0180224998034931,0.0188723006763431,0.0170313558463525,1.3574997635455342e-05,critical
1500,5.454545454545454,1.9240506329113924,anode,0.0178625964857178,0.0187567306888318,0.0168083795583991,4.484191328947961e-05,critical
1500,5.555555555555555,1.9240506329113924,anode,0.0178562760476485,0.0186891139433143,0.0168865737622176,2.7940598237566175e-05,critical
1500,5.656565656565657,1.9240506329113924,anode,0.0180159332545371,0.0188200409681345,0.0170864275119629,1.974539876444825e-05,critical
1500,5.757575757575758,1.9240506329113924,anode,0.0181546264049626,0.0190005825829142,0.0171699545191971,6.377282912483124e-06,critical
1500,5.858585858585858,1.9240506329113924,anode,0.0180910254893639,0.0189489990370903,0.0170893379021093,1.8405327809550037e-05,critical
1500,5.959595959595959,1.9240506329113924,anode,0.0181724954569731,0.0191512230937694,0.0170021458253055,5.528789696976199e-05,critical
1500,6.0606060606060606,1.9240506329113924,anode,0.0182495096169942,0.0191932459058371,0.0171287604572707,-9.307626773200557e-05,critical
1500,6.161616161616162,1.9240506329113924,anode,0.0182043141101466,0.0190578046613635,0.0172096941454356,2.915725338135662e-05,critical
1500,6.262626262626262,1.9240506329113924,anode,0.0181200515136447,0.018950034530388,0.0171563156113529,-4.496682948736349e-05,critical
1500,6.363636363636363,1.9240506329113924,anode,0.0181232071248809,0.0190441199616527,0.0170348323880662,1.6746129062499207e-06,critical
1500,6.4646464646464645,1.9240506329113924,anode,0.0183621482692264,0.0192025588395507,0.0173867886598902,1.4553846402755542e-05,critical
1500,6.565656565656566,1.9240506329113924,anode,0.0182551191373095,0.0190801553216938,0.0172991012494406,-5.060416333189082e-05,critical
1500,6.666666666666667,1.9240506329113924,anode,0.0183229836372076,0.0192505625337391,0.0172274333745034,1.7265598989618463e-05,critical
1500,6.767676767676767,1.9240506329113924,anode,0.0183856523620284,0.0192610188325802,0.0173600027321612,-0.0001251812093257,critical
1500,6.8686868686868685,1.9240506329113924,anode,0.0183969115433272,0.0192829662524341,0.0173597322895168,1.1453774400961735e-05,critical
1500,6.96969696969697,1.9240506329113924,anode,0.018454998170307,0.0193296832953336,0.0174319581504284,0.0001022520988183,critical
1500,7.070707070707071,1.9240506329113924,anode,0.0185007578100211,0.0194313679486731,0.0174023493453726,-5.6773677097910895e-05,critical
1500,7.171717171717171,1.9240506329113924,anode,0.0185542669519841,0.0194538599015422,0.0175000397287505,-5.406889006143859e-06,critical
1500,7.272727272727272,1.9240506329113924,anode,0.0186289051120357,0.0194707749709101,0.0176538703273785,1.1925875658816357e-05,critical
1500,7.373737373737374,1.9240506329113924,anode,0.0187427007992955,0.0196505573483968,0.0176781035066964,-6.750882668650548e-05,critical
1500,7.474747474747475,1.9240506329113924,anode,0.0187080650161368,0.0196058659680005,0.0176571791646491,5.781670855263127e-05,critical
1500,7.575757575757575,1.9240506329113924,anode,0.0187014778244683,0.0196034963752236,0.0176451624401222,-3.328203992436855e-05,critical
1500,7.6767676767676765,1.9240506329113924,anode,0.0189157489197121,0.0198180883313825,0.017860711242222,-5.501231603563109e-05,critical
1500,7.777777777777778,1.9240506329113924,anode,0.0190560171692717,0.0200211662884579,0.0179160415964333,8.00736086238931e-06,critical
1500,7.878787878787879,1.9240506329113924,anode,0.0191533290251006,0.0200913329430909,0.0180505529192465,9.230588745127324e-05,critical
1500,7.979797979797979,1.9240506329113924,anode,0.019123933348267,0.0200496527316146,0.0180392187120338,3.1150366220405006e-05,critical
1500,8.080808080808081,1.9240506329113924,anode,0.019259477045958,0.0200909015999591,0.0183034278510743,-2.93160634865832e-06,critical
1500,8.181818181818182,1.9240506329113924,anode,0.0192626230726612,0.0201620642909611,0.018214928553107,-4.743245999495806e-05,critical
1500,8.282828282828282,1.9240506329113924,anode,0.0194472398858914,0.0203536808527315,0.0183917204124116,-4.7056006114749465e-05,critical
1500,8.383838383838384,1.9240506329113924,anode,0.0195547678866478,0.0204918344780426,0.0184588537533965,-7.319036637361647e-06,critical
1500,8.484848484848484,1.9240506329113924,anode,0.0197932871528324,0.0207459618816516,0.0186782813863153,9.733769637405509e-08,critical
1500,8.585858585858587,1.9240506329113924,anode,0.0197290371717534,0.0207665510094854,0.018493904452839,-7.158949774245979e-05,critical
1500,8.686868686868687,1.9240506329113924,anode,0.0198484539207926,0.0207828092929213,0.0187590015002389,1.383665438297459e-05,critical
1500,8.787878787878787,1.9240506329113924,anode,0.0198621162861948,0.0208466831564027,0.0187037571447497,-8.802348238767355e-06,critical
1500,8.88888888888889,1.9240506329113924,anode,0.0202489073993581,0.0212677332420214,0.0190465038315865,5.300342968795141e-05,critical
1500,8.98989898989899,1.9240506329113924,anode,0.0203117213221905,0.0212800666576058,0.0191801874900645,1.695344706695038e-05,critical
1500,9.09090909090909,1.9240506329113924,anode,0.0205619640601307,0.0215185325644447,0.019448822670851,-1.3453421491421932e-05,critical
1500,9.191919191919192,1.9240506329113924,anode,0.0205839976993807,0.0216068729992943,0.0193799714247216,2.073130773739443e-05,critical
1500,9.292929292929292,1.9240506329113924,anode,0.0208817731625271,0.021877174113839,0.019718661225176,-1.5139415776523223e-05,critical
1500,9.393939393939394,1.9240506329113924,anode,0.0208281285277226,0.0218615299613315,0.0196121227314264,-5.668127111599389e-06,critical
1500,9.494949494949497,1.9240506329113924,anode,0.0212682165225501,0.0222404659984077,0.0201397494739963,4.694230954347269e-05,critical
1500,9.595959595959595,1.9240506329113924,anode,0.0214642079711606,0.0224814240048162,0.0202756174783766,-8.541644319022322e-05,critical
1500,9.696969696969695,1.9240506329113924,anode,0.0216725619989716,0.0225760026022643,0.0206389833130986,2.6825908285338297e-05,critical
1500,9.797979797979798,1.9240506329113924,anode,0.0219196438312676,0.0229133185407876,0.020768172866282,2.141128610661468e-05,critical
1500,9.8989898989899,1.9240506329113924,anode,0.0221947151586614,0.0232531998378206,0.0209578204680075,8.698946462392492e-06,critical
1500,10.0,1.9240506329113924,anode,0.02235351245839,0.0234948363923319,0.0210034331688738,8.230544171990063e-06,critical
1500,0.0,2.0253164556962027,anode,0.0221953307437062,0.0231540561825528,0.0210927582216361,-1.6818938400173533e-05,critical
1500,0.101010101010101,2.0253164556962027,anode,0.022150313419817,0.0232536510755526,0.0208499288294535,-8.472309703661657e-05,critical
1500,0.202020202020202,2.0253164556962027,anode,0.0219708188078583,0.0230264088665358,0.0207356049650289,2.9317530904131656e-05,critical
1500,0.303030303030303,2.0253164556962027,anode,0.0215820152928141,0.02265234724039,0.0203226420817586,1.0209390343853698e-05,critical
1500,0.404040404040404,2.0253164556962027,anode,0.0214124498133564,0.0224121721774725,0.0202477265051651,6.493408196626632e-05,critical
1500,0.5050505050505051,2.0253164556962027,anode,0.0210575792347467,0.022009899739484,0.0199545104315151,9.019833444726992e-06,critical
1500,0.6060606060606061,2.0253164556962027,anode,0.020961116210613,0.0219944579929248,0.0197465481555617,-1.4947074872292747e-05,critical
1500,0.7070707070707071,2.0253164556962027,anode,0.0208039258354854,0.0218068544382817,0.0196296904904393,-2.2241995246664744e-05,critical
1500,0.8080808080808081,2.0253164556962027,anode,0.0207484678818865,0.0218224009422938,0.0194748425217046,4.729726094227986e-06,critical
1500,0.9090909090909092,2.0253164556962027,anode,0.0203319191149364,0.0213004322118316,0.0192003510600067,-1.6511158073470236e-05,critical
1500,1.0101010101010102,2.0253164556962027,anode,0.0202253083630246,0.0211758714636521,0.019117020380025,3.943035824046582e-05,critical
1500,1.1111111111111112,2.0253164556962027,anode,0.0202276025069051,0.021270260642775,0.0189920247810912,8.704558992951255e-06,critical
1500,1.2121212121212122,2.0253164556962027,anode,0.0200491835183412,0.0209886807699012,0.0189543950570485,-3.50920295934983e-05,critical
1500,1.3131313131313131,2.0253164556962027,anode,0.0200333993888998,0.0210447579873556,0.0188395645876434,-6.728321343390041e-06,critical
1500,1.414141414141414,2.0253164556962027,anode,0.0196499364922562,0.020676849105856,0.0184298257418934,7.399080124298449e-06,critical
1500,1.5151515151515151,2.0253164556962027,anode,0.0195902728441052,0.0205612826392283,0.0184465678408568,-8.500260482174664e-05,critical
1500,1.616161616161616,2.0253164556962027,anode,0.0196118679574551,0.0205661330365928,0.0184927822974666,2.280750440575753e-05,critical
1500,1.7171717171717171,2.0253164556962027,anode,0.0194860556160485,0.0204639825931538,0.0183325012593206,4.8867629197777015e-05,critical
1500,1.818181818181818,2.0253164556962027,anode,0.0193371114250754,0.020250120767461,0.0182716390563782,4.687171705222743e-05,critical
1500,1.9191919191919191,2.0253164556962027,anode,0.0192497323156823,0.0201571446045307,0.0181905294840727,7.184694374397369e-05,critical
1500,2.0202020202020203,2.0253164556962027,anode,0.018986570235213,0.0198214478583886,0.0180238189698293,-7.994918948000147e-06,critical
1500,2.121212121212121,2.0253164556962027,anode,0.0190821917593324,0.0200004749658953,0.0180070938156629,4.48882357889112e-05,critical
1500,2.2222222222222223,2.0253164556962027,anode,0.0190797994261823,0.0200014299150163,0.0180004178573079,1.4150080110140543e-05,critical
1500,2.323232323232323,2.0253164556962027,anode,0.0190267177165698,0.0198904353603243,0.0180247749076654,6.994749483739563e-05,critical
1500,2.4242424242424243,2.0253164556962027,anode,0.0188149221348188,0.0198002336124695,0.0176436325562903,2.781148840991484e-05,critical
1500,2.525252525252525,2.0253164556962027,anode,0.0188372827212088,0.0197906489105185,0.0177113841950597,5.544909578760696e-06,critical
1500,2.6262626262626263,2.0253164556962027,anode,0.0187012271699144,0.0196410691066606,0.0175927128270348,-1.2190201449829654e-05,critical
1500,2.727272727272727,2.0253164556962027,anode,0.0186296878597121,0.019543686730863,0.0175563469186181,1.4029904392193082e-06,critical
1500,2.8282828282828283,2.0253164556962027,anode,0.0185247625108841,0.0194475805222512,0.0174380365954287,-1.768663585704838e-05,critical
1500,2.929292929292929,2.0253164556962027,anode,0.018554224232696,0.0194436481034634,0.017513888475475,2.144928056899474e-05,critical
1500,3.0303030303030303,2.0253164556962027,anode,0.0183636570783746,0.0192732264539461,0.0172936353067429,-1.798798894280899e-05,critical
1500,3.131313131313131,2.0253164556962027,anode,0.0184650957981401,0.0193924590490458,0.0173714267453275,-1.3031750431928086e-05,critical
1500,3.2323232323232323,2.0253164556962027,anode,0.0183962117432,0.0192551007420609,0.01739480867747,-8.391754188668846e-05,critical
1500,3.333333333333333,2.0253164556962027,anode,0.0182750580203208,0.0191705399620529,0.0172236804361642,8.747141173015858e-06,critical
1500,3.4343434343434343,2.0253164556962027,anode,0.0182303472121618,0.0191292503454419,0.0171731748542087,-5.587824968701909e-05,critical
1500,3.5353535353535355,2.0253164556962027,anode,0.0181874434245078,0.0190604686494324,0.0171658292587787,-3.953677862721104e-05,critical
1500,3.636363636363636,2.0253164556962027,anode,0.0182152539545395,0.0191906042207416,0.0170500314347784,6.587756402701108e-05,critical
1500,3.7373737373737375,2.0253164556962027,anode,0.0181765465604942,0.0190136342023675,0.0172037233450006,-4.383664231536463e-05,critical
1500,3.8383838383838382,2.0253164556962027,anode,0.018305438031517,0.0191803871147581,0.0172824307413485,-3.220366067277489e-05,critical
1500,3.939393939393939,2.0253164556962027,anode,0.0181803946419414,0.0190578693307875,0.0171519649015262,6.921412118014047e-05,critical
1500,4.040404040404041,2.0253164556962027,anode,0.0181962969168807,0.0189742677217595,0.0173029960201588,-1.145297167642204e-05,critical
1500,4.141414141414141,2.0253164556962027,anode,0.0179914707892919,0.0187221570473789,0.0171583571385765,-4.507025526106961e-05,critical
1500,4.242424242424242,2.0253164556962027,anode,0.0181590429444035,0.0190497402946052,0.0171128988827127,-3.269351796676802e-05,critical
1500,4.343434343434343,2.0253164556962027,anode,0.0179771728904686,0.0187531608940231,0.0170848131342617,-1.9246949288111905e-05,critical
1500,4.444444444444445,2.0253164556962027,anode,0.0180521976092911,0.018929206715627,0.0170240730505895,-5.95333780850986e-06,critical
1500,4.545454545454545,2.0253164556962027,anode,0.0180582779541153,0.0189383238567494,0.0170259445608326,2.126057798688708e-05,critical
1500,4.646464646464646,2.0253164556962027,anode,0.0181318190432668,0.0188995962683268,0.0172506607394073,6.670857657269371e-05,critical
1500,4.747474747474747,2.0253164556962027,anode,0.0181032118956389,0.019014721063637,0.0170277059738662,-1.800485800017814e-05,critical
1500,4.848484848484849,2.0253164556962027,anode,0.0180956187220339,0.0189524071965036,0.0170954237141246,-3.463068263856064e-05,critical
1500,4.94949494949495,2.0253164556962027,anode,0.017896695994109,0.0187308709968331,0.0169246902592054,-7.12945581030961e-05,critical
1500,5.05050505050505,2.0253164556962027,anode,0.0179710602141254,0.0189090031014857,0.0168547182849642,-0.0001048789576526,critical
1500,5.151515151515151,2.0253164556962027,anode,0.0180588690239476,0.0189681337606425,0.0169860396421711,1.392040870750584e-05,critical
1500,5.252525252525253,2.0253164556962027,anode,0.0179304515075301,0.0188354261077809,0.0168617925316697,-4.766024246997386e-05,critical
1500,5.353535353535354,2.0253164556962027,anode,0.0180757718060903,0.0189468149055098,0.0170560938703705,3.948848871128252e-06,critical
1500,5.454545454545454,2.0253164556962027,anode,0.0179331392476299,0.0187810644093559,0.0169437397300703,9.203114677676836e-06,critical
1500,5.555555555555555,2.0253164556962027,anode,0.0180730601973397,0.0189400864934668,0.0170575644808469,8.138208962974436e-05,critical
1500,5.656565656565657,2.0253164556962027,anode,0.0180152843895158,0.0188433463139894,0.0170534997277484,2.5295568562613227e-05,critical
1500,5.757575757575758,2.0253164556962027,anode,0.0181002812880119,0.0189052592397966,0.0171692040461393,7.754920266745529e-05,critical
1500,5.858585858585858,2.0253164556962027,anode,0.0181372417842916,0.0189838911837222,0.0171510568128222,4.6409374941471055e-05,critical
1500,5.959595959595959,2.0253164556962027,anode,0.0181120013272135,0.0188851992789165,0.0172243882274523,-9.909514962808643e-06,critical
1500,6.0606060606060606,2.0253164556962027,anode,0.0180590110068163,0.0188661990159637,0.0171255371387027,3.734014515373409e-05,critical
1500,6.161616161616162,2.0253164556962027,anode,0.0181498913034935,0.0190702289897256,0.0170615220892332,-7.420189037027469e-05,critical
1500,6.262626262626262,2.0253164556962027,anode,0.0181986701228693,0.0190564485209014,0.0171974067554598,6.846270745379331e-05,critical
1500,6.363636363636363,2.0253164556962027,anode,0.0182061236752134,0.0190001647087335,0.0172908896529283,-6.209319499676353e-05,critical
1500,6.4646464646464645,2.0253164556962027,anode,0.0182243891472658,0.0191146185886479,0.0171790077121131,6.215619341180328e-05,critical
1500,6.565656565656566,2.0253164556962027,anode,0.018271390789474,0.019240389041015,0.0171167585276855,1.6549227067645286e-05,critical
1500,6.666666666666667,2.0253164556962027,anode,0.0183683919602895,0.0193140574997978,0.0172473768251327,-5.723190981551766e-05,critical
1500,6.767676767676767,2.0253164556962027,anode,0.0182357962221861,0.0191184498544721,0.0172013851197302,-4.206273442397736e-05,critical
1500,6.8686868686868685,2.0253164556962027,anode,0.0183058149941082,0.0191621532255676,0.0173084056325431,-7.340272556177287e-06,critical
1500,6.96969696969697,2.0253164556962027,anode,0.0185108140316442,0.0193937907729554,0.0174782907653569,-5.994904167814704e-05,critical
1500,7.070707070707071,2.0253164556962027,anode,0.0185425340224679,0.0193515475947729,0.0176107308529382,-8.73243685102594e-06,critical
1500,7.171717171717171,2.0253164556962027,anode,0.0185155866513056,0.0193947059132884,0.0174886246154764,4.855197584548107e-05,critical
1500,7.272727272727272,2.0253164556962027,anode,0.0186902174881328,0.0196072663594185,0.0176132716166886,5.962954300708216e-06,critical
1500,7.373737373737374,2.0253164556962027,anode,0.0186383030003667,0.0195034776900815,0.0176317283797677,3.094166792348599e-05,critical
1500,7.474747474747475,2.0253164556962027,anode,0.0187396306383589,0.019684523698694,0.0176235754964996,6.966456158159957e-05,critical
1500,7.575757575757575,2.0253164556962027,anode,0.0188183903060693,0.019697498254632,0.0177940537547854,5.879333821414307e-05,critical
1500,7.6767676767676765,2.0253164556962027,anode,0.0187882512740282,0.0197025824416432,0.0177153866601961,5.93652651541027e-05,critical
1500,7.777777777777778,2.0253164556962027,anode,0.0190240868384441,0.0198898042478712,0.0180203119467729,1.1568144565542027e-05,critical
1500,7.878787878787879,2.0253164556962027,anode,0.0189531713691617,0.0197246552119594,0.0180736609211574,-8.01483743203117e-06,critical
1500,7.979797979797979,2.0253164556962027,anode,0.0190481094173664,0.0199545785842741,0.0179891467236333,2.386082119909815e-05,critical
1500,8.080808080808081,2.0253164556962027,anode,0.0192400180841591,0.0202422405104588,0.0180491937359923,6.51180977129624e-05,critical
1500,8.181818181818182,2.0253164556962027,anode,0.019207629475398,0.0201527987725807,0.0180970854098342,-7.118047632661255e-06,critical
1500,8.282828282828282,2.0253164556962027,anode,0.0194913972274113,0.0205272315076729,0.0182566160179619,-1.904054646306499e-05,critical
1500,8.383838383838384,2.0253164556962027,anode,0.0195773180719131,0.0204916692235008,0.0185126150611866,1.069603738559958e-05,critical
1500,8.484848484848484,2.0253164556962027,anode,0.0197225328646185,0.020783790947168,0.0184542099614487,3.116137050461161e-05,critical
1500,8.585858585858587,2.0253164556962027,anode,0.0197895184661959,0.0207712396453967,0.0186342851205265,-2.053146722509037e-05,critical
1500,8.686868686868687,2.0253164556962027,anode,0.019845828783042,0.020760184076659,0.0187835056292534,1.4467585843696968e-05,critical
1500,8.787878787878787,2.0253164556962027,anode,0.0200674655286791,0.0210700973921347,0.0188861796805407,3.2114048929559887e-06,critical
1500,8.88888888888889,2.0253164556962027,anode,0.0202554816464321,0.0213648909284014,0.0189236149769405,-8.895411620629501e-05,critical
1500,8.98989898989899,2.0253164556962027,anode,0.0203822206241505,0.0214485604593523,0.0191148612913024,2.8911854293507475e-05,critical
1500,9.09090909090909,2.0253164556962027,anode,0.0204928693814736,0.0214713161070277,0.0193475814742584,-9.901002548681996e-05,critical
1500,9.191919191919192,2.0253164556962027,anode,0.0205293032215871,0.0215658853905906,0.0193056466469783,9.103218595834965e-06,critical
1500,9.292929292929292,2.0253164556962027,anode,0.0207526653552346,0.0218061917873997,0.0195076971514956,2.2032847074256748e-05,critical
1500,9.393939393939394,2.0253164556962027,anode,0.0209923844840899,0.0219451354413226,0.0198881251911593,2.0929760393070387e-05,critical
1500,9.494949494949497,2.0253164556962027,anode,0.0212772947615493,0.02227811638489,0.0201104584692552,-2.1580848560244545e-05,critical
1500,9.595959595959595,2.0253164556962027,anode,0.0214317727493947,0.0224151480460683,0.020290043810777,-1.2639766158906168e-05,critical
1500,9.696969696969695,2.0253164556962027,anode,0.0216590385220561,0.0225750687580059,0.020608850041562,-2.3992688614426687e-05,critical
1500,9.797979797979798,2.0253164556962027,anode,0.0218760805347353,0.022841945056734,0.0207610337499862,-5.863860357876645e-05,critical
1500,9.8989898989899,2.0253164556962027,anode,0.0220593504581639,0.0230756250831204,0.0208784587545256,-3.613044773042501e-05,critical
1500,10.0,2.0253164556962027,anode,0.0223666705198349,0.0234400311396459,0.0211110544435269,3.836003021272652e-06,critical
1500,0.0,2.1265822784810124,anode,0.0223724943553335,0.0233980010105851,0.021178552665414,0.0001491711036099,critical
1500,0.101010101010101,2.1265822784810124,anode,0.0222755821063878,0.023440769567086,0.0208907887988265,-3.156977446821216e-05,critical
1500,0.202020202020202,2.1265822784810124,anode,0.0219102395855529,0.0230711371658936,0.0205264594969202,6.940622871319134e-05,critical
1500,0.303030303030303,2.1265822784810124,anode,0.0215796779804449,0.0225813874787816,0.0204140562200194,4.9877973102285854e-05,critical
1500,0.404040404040404,2.1265822784810124,anode,0.0215034730214126,0.0225903045173361,0.0202202811002333,3.341885603141108e-06,critical
1500,0.5050505050505051,2.1265822784810124,anode,0.0210463678378623,0.0220112191387521,0.0199263119537544,1.0679502562368578e-05,critical
1500,0.6060606060606061,2.1265822784810124,anode,0.0210252046219375,0.0219637772312271,0.0199400636143614,3.957014414084161e-05,critical
1500,0.7070707070707071,2.1265822784810124,anode,0.0208349066207133,0.021912629170217,0.0195568812782508,-1.913624020831213e-05,critical
1500,0.8080808080808081,2.1265822784810124,anode,0.020665197912242,0.0216732953362745,0.0194824940749441,1.776337058755992e-05,critical
1500,0.9090909090909092,2.1265822784810124,anode,0.0205284515379009,0.0213966984541912,0.0195325249427078,-5.953546545236004e-05,critical
1500,1.0101010101010102,2.1265822784810124,anode,0.0203235025817516,0.0212662614243325,0.019226890698353,-2.3382787398597425e-05,critical
1500,1.1111111111111112,2.1265822784810124,anode,0.02014733551699,0.0210993003228108,0.0190361872153012,5.310895371790984e-05,critical
1500,1.2121212121212122,2.1265822784810124,anode,0.020001633272314,0.0210088367809546,0.0188132632933964,-2.0633934499375777e-06,critical
1500,1.3131313131313131,2.1265822784810124,anode,0.0199167346024035,0.0208334195368624,0.0188519064069543,-9.0864887665644e-06,critical
1500,1.414141414141414,2.1265822784810124,anode,0.0198314487694388,0.0207954097523034,0.01870102478021,3.846553045239792e-05,critical
1500,1.5151515151515151,2.1265822784810124,anode,0.0196420572651471,0.0205212772191836,0.0186252719117245,2.007733574433965e-05,critical
1500,1.616161616161616,2.1265822784810124,anode,0.0194949899837719,0.0203476747928188,0.018512468324858,-1.7949937329323256e-05,critical
1500,1.7171717171717171,2.1265822784810124,anode,0.0194918062675424,0.0203217021688258,0.0185382708951281,-8.299519583558673e-05,critical
1500,1.818181818181818,2.1265822784810124,anode,0.019347869403384,0.0202137939221997,0.0183456571031012,7.019787770885311e-05,critical
1500,1.9191919191919191,2.1265822784810124,anode,0.0193057618109065,0.0202559878661901,0.0181891268435716,-2.4440217243341463e-05,critical
1500,2.0202020202020203,2.1265822784810124,anode,0.0191972390296404,0.0201338518861178,0.0180982278805928,3.256644600695285e-05,critical
1500,2.121212121212121,2.1265822784810124,anode,0.0189596760415003,0.0199552208599279,0.0177757628807284,1.1939990935746002e-06,critical
1500,2.2222222222222223,2.1265822784810124,anode,0.0189061531360534,0.0198212824943055,0.0178333011904909,6.233254054168647e-05,critical
1500,2.323232323232323,2.1265822784810124,anode,0.0188065841269085,0.0196727678069613,0.0178000214885789,3.974101884755576e-05,critical
1500,2.4242424242424243,2.1265822784810124,anode,0.0187292521929052,0.0196864930785738,0.0175967171091695,-4.98423710860396e-06,critical
1500,2.525252525252525,2.1265822784810124,anode,0.0188250883452569,0.0197665073107897,0.0177151890594815,5.363637544870958e-05,critical
1500,2.6262626262626263,2.1265822784810124,anode,0.0185848368990388,0.0195410591211594,0.0174517816945558,-3.993551334058967e-05,critical
1500,2.727272727272727,2.1265822784810124,anode,0.0187985886533582,0.0195965271751428,0.0178833111674868,1.855616778550025e-05,critical
1500,2.8282828282828283,2.1265822784810124,anode,0.0186254937354538,0.0194312194451327,0.0176966845966139,-0.0001036724016599,critical
1500,2.929292929292929,2.1265822784810124,anode,0.018432247421483,0.0194702843626361,0.0171800480794792,2.671642976067676e-05,critical
1500,3.0303030303030303,2.1265822784810124,anode,0.0183847226647192,0.0193053388154184,0.017299493514022,-2.6002962514275008e-05,critical
1500,3.131313131313131,2.1265822784810124,anode,0.0184205204693924,0.0193639955924552,0.0173030396055078,6.338276853070518e-05,critical
1500,3.2323232323232323,2.1265822784810124,anode,0.0182267465568411,0.0190410573755243,0.0172852973858946,2.047460473301088e-05,critical
1500,3.333333333333333,2.1265822784810124,anode,0.0183847359052349,0.0192091419895595,0.0174300696680726,-7.468341679377075e-05,critical
1500,3.4343434343434343,2.1265822784810124,anode,0.0181579922252198,0.0190069519393392,0.0171691276886746,2.7681858037965855e-05,critical
1500,3.5353535353535355,2.1265822784810124,anode,0.0183183654249033,0.0192480473950961,0.0172198191378821,-1.7388463532041567e-05,critical
1500,3.636363636363636,2.1265822784810124,anode,0.0181491075643312,0.0190583818728154,0.0170760328757942,-7.925153213160354e-05,critical
1500,3.7373737373737375,2.1265822784810124,anode,0.0181602456799638,0.0190249857185654,0.0171489373637351,7.455935744988318e-05,critical
1500,3.8383838383838382,2.1265822784810124,anode,0.0181381087777225,0.0191039245836915,0.0169863698627487,-1.4413277031832008e-05,critical
1500,3.939393939393939,2.1265822784810124,anode,0.0181661093385967,0.0191013704189573,0.0170576322808613,4.658418060356276e-05,critical
1500,4.040404040404041,2.1265822784810124,anode,0.0181221551708054,0.0190677540470972,0.0169986243108576,-4.3292304626514455e-05,critical
1500,4.141414141414141,2.1265822784810124,anode,0.0181433494107225,0.0190615624676538,0.0170589488125827,-1.2219718129872575e-05,critical
1500,4.242424242424242,2.1265822784810124,anode,0.0181932529094407,0.0190636586565524,0.0171754735255727,2.4791005425806933e-05,critical
1500,4.343434343434343,2.1265822784810124,anode,0.0181052270692169,0.0189612838280838,0.0171038907358814,-0.0001119692239935,critical
1500,4.444444444444445,2.1265822784810124,anode,0.0180404166736739,0.0189605346102515,0.0169522236347726,-5.71074166803768e-06,critical
1500,4.545454545454545,2.1265822784810124,anode,0.0180445470706626,0.0189082439127319,0.0170333965554824,7.960242673216453e-05,critical
1500,4.646464646464646,2.1265822784810124,anode,0.0179576108637156,0.018879716674703,0.0168656886962083,4.286658504931325e-06,critical
1500,4.747474747474747,2.1265822784810124,anode,0.0180210193997253,0.0189672021177465,0.016895742156594,2.0309449112577174e-05,critical
1500,4.848484848484849,2.1265822784810124,anode,0.017983009109663,0.0187883063241008,0.0170516513765004,-1.8228528305407765e-05,critical
1500,4.94949494949495,2.1265822784810124,anode,0.0179492228253109,0.0188552331878728,0.0168797779088629,-3.0464284338234667e-06,critical
1500,5.05050505050505,2.1265822784810124,anode,0.017950882824153,0.0187884819669241,0.0169756918135585,-1.2993732191181448e-05,critical
1500,5.151515151515151,2.1265822784810124,anode,0.0180333247687518,0.0189460512685883,0.0169549496763308,4.820387429090211e-05,critical
1500,5.252525252525253,2.1265822784810124,anode,0.017979954930955,0.0188374660480806,0.0169779115284606,1.200422422635999e-06,critical
1500,5.353535353535354,2.1265822784810124,anode,0.0179696152600446,0.0188104542894286,0.0169896340632372,5.462404012411485e-05,critical
1500,5.454545454545454,2.1265822784810124,anode,0.0180327491006915,0.0189184053068658,0.0169912916691575,-7.774031891959361e-05,critical
1500,5.555555555555555,2.1265822784810124,anode,0.0181258268384347,0.0190375589208736,0.0170480825255246,-0.0001059979271469,critical
1500,5.656565656565657,2.1265822784810124,anode,0.0179941641458577,0.018855560662504,0.0169851941758752,-9.365426871176922e-05,critical
1500,5.757575757575758,2.1265822784810124,anode,0.0179443523262049,0.0187452242736006,0.0170174182195053,7.988651142191361e-05,critical
1500,5.858585858585858,2.1265822784810124,anode,0.0180673002003139,0.0188877655633905,0.017112513659823,-0.0001398463443537,critical
1500,5.959595959595959,2.1265822784810124,anode,0.0180341103061214,0.0189378790865131,0.0169685689980538,2.7351736995846844e-05,critical
1500,6.0606060606060606,2.1265822784810124,anode,0.0181927095159032,0.0190986198356402,0.0171260287858123,4.12333655577899e-06,critical
1500,6.161616161616162,2.1265822784810124,anode,0.018131998628481,0.0190788160247022,0.0170072306053861,5.301064937530365e-06,critical
1500,6.262626262626262,2.1265822784810124,anode,0.0181635148568489,0.0189565918868593,0.0172499633272662,-7.66064131676094e-06,critical
1500,6.363636363636363,2.1265822784810124,anode,0.0181025305200203,0.0189885953017784,0.0170622360035935,-3.085809938857894e-05,critical
1500,6.4646464646464645,2.1265822784810124,anode,0.0182316340169497,0.0191020857555987,0.0172142797837673,2.509337513449831e-06,critical
1500,6.565656565656566,2.1265822784810124,anode,0.0182956105583164,0.0192329315389168,0.0171856001480712,-5.269020967324702e-05,critical
1500,6.666666666666667,2.1265822784810124,anode,0.0183829219492246,0.0192047822091158,0.0174323855008915,4.188225554802679e-05,critical
1500,6.767676767676767,2.1265822784810124,anode,0.0184301081349781,0.0193371951498641,0.0173639002506732,-4.421688127760624e-05,critical
1500,6.8686868686868685,2.1265822784810124,anode,0.018298364086358,0.0190825357005062,0.0173969985510198,-5.844320071325855e-05,critical
1500,6.96969696969697,2.1265822784810124,anode,0.0184410425762073,0.0193488678321328,0.0173742960665403,7.288625465936293e-06,critical
1500,7.070707070707071,2.1265822784810124,anode,0.0185339119991692,0.019409442532199,0.0175124548574679,1.0733143564411595e-05,critical
1500,7.171717171717171,2.1265822784810124,anode,0.0185897068263032,0.0195297523133739,0.0174792994179318,-4.638450879067571e-05,critical
1500,7.272727272727272,2.1265822784810124,anode,0.0187047736593648,0.0196195067832377,0.0176311806261054,-4.0352846687651376e-06,critical
1500,7.373737373737374,2.1265822784810124,anode,0.0187392780681449,0.0197571776127594,0.0175196576695947,-7.084896205792444e-05,critical
1500,7.474747474747475,2.1265822784810124,anode,0.0187401459290773,0.0197468256695055,0.0175372309895905,-4.515793141661083e-05,critical
1500,7.575757575757575,2.1265822784810124,anode,0.0188497920182076,0.0197652765065902,0.0177764631006791,2.9279526575383336e-05,critical
1500,7.6767676767676765,2.1265822784810124,anode,0.0188554513631907,0.0197249819424836,0.0178449168589039,-3.0213596033490267e-05,critical
1500,7.777777777777778,2.1265822784810124,anode,0.0191219911850343,0.0200534263867774,0.0180294620687948,2.3273234201401364e-05,critical
1500,7.878787878787879,2.1265822784810124,anode,0.0192188496651983,0.0202215360587515,0.0180278274035174,-2.208233282503559e-05,critical
1500,7.979797979797979,2.1265822784810124,anode,0.0191562658758387,0.0200952060674889,0.0180537881446292,-1.3442531233424962e-05,critical
1500,8.080808080808081,2.1265822784810124,anode,0.0191959679911357,0.0200395253085256,0.0182233113634818,-3.862162641874874e-06,critical
1500,8.181818181818182,2.1265822784810124,anode,0.0193378137027044,0.0203601398094583,0.018120433723866,7.988006160109995e-06,critical
1500,8.282828282828282,2.1265822784810124,anode,0.0194880300170228,0.0204352050716593,0.0183775724298024,-4.216086214539953e-07,critical
1500,8.383838383838384,2.1265822784810124,anode,0.0196259394666045,0.0204476792018392,0.0186851096949347,3.5212625361075974e-05,critical
1500,8.484848484848484,2.1265822784810124,anode,0.0197021181172496,0.0205954361550438,0.0186669697105973,-5.555656454865507e-06,critical
1500,8.585858585858587,2.1265822784810124,anode,0.0197942079667762,0.0207062796464346,0.0187344518921383,2.425172214755165e-05,critical
1500,8.686868686868687,2.1265822784810124,anode,0.0198088647780387,0.0206692462224843,0.018818453351451,2.854058909127216e-05,critical
1500,8.787878787878787,2.1265822784810124,anode,0.0201478531544152,0.021108674819,0.019025088043767,-9.236940915029412e-06,critical
1500,8.88888888888889,2.1265822784810124,anode,0.0201104558880046,0.0211692994912303,0.0188501517353668,-4.994052708157728e-05,critical
1500,8.98989898989899,2.1265822784810124,anode,0.0203865106719043,0.0213893399540639,0.0192082990871134,3.605493790719121e-06,critical
1500,9.09090909090909,2.1265822784810124,anode,0.0204978089332185,0.0214587865012846,0.0193775728728672,5.633738747150141e-05,critical
1500,9.191919191919192,2.1265822784810124,anode,0.0206793138817688,0.0216026951542603,0.0196119111609602,1.4871786211974898e-05,critical
1500,9.292929292929292,2.1265822784810124,anode,0.0208902823613411,0.0219725143431927,0.0196051349940929,9.183734912176352e-05,critical
1500,9.393939393939394,2.1265822784810124,anode,0.0209838005870029,0.02191236876082,0.0199108986633804,7.968825268591913e-05,critical
1500,9.494949494949497,2.1265822784810124,anode,0.0211998327082931,0.0222395974997129,0.0199788665045034,4.189918941296998e-06,critical
1500,9.595959595959595,2.1265822784810124,anode,0.0213809842422878,0.0224396874810475,0.0201356474763838,9.132857760653762e-06,critical
1500,9.696969696969695,2.1265822784810124,anode,0.0216376249486443,0.0225970728351381,0.0205297088844425,-2.23067077569099e-05,critical
1500,9.797979797979798,2.1265822784810124,anode,0.0217404647659709,0.0227625718192711,0.0205488978618801,2.375193240557053e-05,critical
1500,9.8989898989899,2.1265822784810124,anode,0.0222274594090723,0.0232595379453216,0.0210268607167849,-3.626847963003782e-06,critical
1500,10.0,2.1265822784810124,anode,0.0221989141250534,0.0233082081282681,0.0208917759972767,3.0446533051957043e-05,critical
1500,0.0,2.2278481012658227,anode,0.0223036397536063,0.0233214755308322,0.0211226116923934,-4.786211874028275e-05,critical
1500,0.101010101010101,2.2278481012658227,anode,0.0220870552231996,0.0232355996352184,0.0207235618828841,3.3105070847098454e-05,critical
1500,0.202020202020202,2.2278481012658227,anode,0.0218563299483416,0.0228691305101962,0.0206785156648302,-1.5186769441446274e-05,critical
1500,0.303030303030303,2.2278481012658227,anode,0.021545989959538,0.0226897256817608,0.0201814173446988,9.530512821506436e-05,critical
1500,0.404040404040404,2.2278481012658227,anode,0.021375268859849,0.0224227470812363,0.0201454319366286,-3.1307978420569644e-06,critical
1500,0.5050505050505051,2.2278481012658227,anode,0.0212389152596709,0.0222752437166111,0.0200219720270099,8.161190988744892e-05,critical
1500,0.6060606060606061,2.2278481012658227,anode,0.0208273447753348,0.0217755852135448,0.0197276699076588,-3.0420123155704676e-05,critical
1500,0.7070707070707071,2.2278481012658227,anode,0.0207415405360228,0.0217896899897286,0.0195036423298391,4.888717094434076e-05,critical
1500,0.8080808080808081,2.2278481012658227,anode,0.0207347210353373,0.021660678268358,0.0196633819055226,7.588264818616695e-05,critical
1500,0.9090909090909092,2.2278481012658227,anode,0.0203195952764189,0.0214014608279452,0.0190294684622069,-1.9837202453270416e-05,critical
1500,1.0101010101010102,2.2278481012658227,anode,0.020412630581284,0.0214316345821885,0.0192121142806393,-2.7105135283235757e-05,critical
1500,1.1111111111111112,2.2278481012658227,anode,0.0202648683810519,0.0211838725390647,0.0191984992674194,9.05944281807603e-05,critical
1500,1.2121212121212122,2.2278481012658227,anode,0.0199782360064236,0.02101458939133,0.018744975414475,-0.0001423667080188,critical
1500,1.3131313131313131,2.2278481012658227,anode,0.0199632059547025,0.0209358957750277,0.018822284937304,1.6788103513417014e-05,critical
1500,1.414141414141414,2.2278481012658227,anode,0.0198372556597607,0.0207203642682504,0.0188165761056365,-4.468986668819457e-05,critical
1500,1.5151515151515151,2.2278481012658227,anode,0.0196388884661493,0.0205631056728149,0.0185606248239703,-6.30370977853089e-05,critical
1500,1.616161616161616,2.2278481012658227,anode,0.0196515157976262,0.0206669082942942,0.0184473710189097,4.321384386823856e-05,critical
1500,1.7171717171717171,2.2278481012658227,anode,0.0193692828979093,0.0202796432226254,0.0183077899997203,4.268277359628976e-05,critical
1500,1.818181818181818,2.2278481012658227,anode,0.0193166081603464,0.020249792079172,0.0182235911304943,-2.5358809012240558e-05,critical
1500,1.9191919191919191,2.2278481012658227,anode,0.0191750195191957,0.0202283071821982,0.0179109355844274,3.294195409986694e-05,critical
1500,2.0202020202020203,2.2278481012658227,anode,0.0190756465862109,0.0199415783076007,0.0180720292681444,-9.86987224106513e-06,critical
1500,2.121212121212121,2.2278481012658227,anode,0.0191109584439906,0.0199996137239191,0.0180768938573696,1.813364308604458e-05,critical
1500,2.2222222222222223,2.2278481012658227,anode,0.0190088187006212,0.0199750223735262,0.0178667360964474,-2.4927217661824295e-05,critical
1500,2.323232323232323,2.2278481012658227,anode,0.0189205223951872,0.0197815066859908,0.0179222627824185,2.500354118847559e-06,critical
1500,2.4242424242424243,2.2278481012658227,anode,0.0188213352905963,0.0196159660582194,0.0179096815915995,-7.199357768925701e-05,critical
1500,2.525252525252525,2.2278481012658227,anode,0.0187707702727099,0.0196067051770774,0.0178048930975008,2.507743889003778e-07,critical
1500,2.6262626262626263,2.2278481012658227,anode,0.0186743548749293,0.0194891325478617,0.0177357022528393,-3.444880404219735e-05,critical
1500,2.727272727272727,2.2278481012658227,anode,0.0185627178741388,0.0194262025622805,0.0175574275021133,-5.174141075791576e-05,critical
1500,2.8282828282828283,2.2278481012658227,anode,0.0184675853843939,0.0193572875818488,0.0174260678439122,-1.520502402172644e-05,critical
1500,2.929292929292929,2.2278481012658227,anode,0.0185187329891343,0.0194258351814435,0.0174535235507083,-3.7356492599096346e-05,critical
1500,3.0303030303030303,2.2278481012658227,anode,0.0184492985411749,0.0194155899690518,0.0173007266498226,-7.1880171667816906e-06,critical
1500,3.131313131313131,2.2278481012658227,anode,0.0183968533876815,0.0193009034708668,0.0173346905143489,-3.179550633924207e-05,critical
1500,3.2323232323232323,2.2278481012658227,anode,0.0184046265176826,0.0192678166753871,0.0173988103522513,-1.208643871869614e-06,critical
1500,3.333333333333333,2.2278481012658227,anode,0.0182552025998128,0.0190511242083842,0.0173385334994835,-1.7317949328735797e-05,critical
1500,3.4343434343434343,2.2278481012658227,anode,0.0182913127092818,0.0191520346811284,0.0172876743388238,2.67248297105815e-05,critical
1500,3.5353535353535355,2.2278481012658227,anode,0.0182347244477201,0.0191994192913031,0.0170848342637016,-7.025974214288723e-05,critical
1500,3.636363636363636,2.2278481012658227,anode,0.0182737787065308,0.0190632542711769,0.0173658062605641,1.7108452068788897e-05,critical
1500,3.7373737373737375,2.2278481012658227,anode,0.018246060616564,0.019097909116124,0.0172536233983291,5.53974408125733e-05,critical
1500,3.8383838383838382,2.2278481012658227,anode,0.018174310084609,0.0190640915198047,0.0171297385018277,1.753989925276012e-05,critical
1500,3.939393939393939,2.2278481012658227,anode,0.018182391273945,0.0190122032594389,0.0172196817360947,-2.6644559783985605e-05,critical
1500,4.040404040404041,2.2278481012658227,anode,0.0180847784156515,0.0189349421666113,0.0170909785022647,-0.0001187698567315,critical
1500,4.141414141414141,2.2278481012658227,anode,0.0181786354318769,0.0189794259249274,0.0172549158194671,1.230751558713325e-05,critical
1500,4.242424242424242,2.2278481012658227,anode,0.0181231794337197,0.0189248533054582,0.017197452252098,-4.6394285108788497e-05,critical
1500,4.343434343434343,2.2278481012658227,anode,0.0181012534325436,0.0188895821278137,0.0171933375610184,3.2497634323885726e-05,critical
1500,4.444444444444445,2.2278481012658227,anode,0.0181393983683078,0.0190347898588604,0.0170856311910967,-7.561817138784278e-05,critical
1500,4.545454545454545,2.2278481012658227,anode,0.0179899052053593,0.0188586026367577,0.0169714185700394,7.74308329549668e-05,critical
1500,4.646464646464646,2.2278481012658227,anode,0.0179805327528722,0.0187664899157367,0.01707448733442,5.320076490375365e-05,critical
1500,4.747474747474747,2.2278481012658227,anode,0.0179763952376002,0.0189372400726383,0.0168297395290965,-1.168153691191995e-05,critical
1500,4.848484848484849,2.2278481012658227,anode,0.0179871084866385,0.018841691521941,0.0169891387131067,1.726727388818178e-06,critical
1500,4.94949494949495,2.2278481012658227,anode,0.0180506968070528,0.0189704362485317,0.0169627531674293,4.485645142806907e-05,critical
1500,5.05050505050505,2.2278481012658227,anode,0.0178729222035834,0.0186198934372689,0.017017875479708,3.586362187002954e-05,critical
1500,5.151515151515151,2.2278481012658227,anode,0.0180972746628845,0.0189343968720149,0.0171239243989514,2.804206384520612e-05,critical
1500,5.252525252525253,2.2278481012658227,anode,0.0179964066862684,0.0188561377006654,0.0169903939419245,-7.404072484617218e-05,critical
1500,5.353535353535354,2.2278481012658227,anode,0.0180573540789027,0.0189096366190938,0.0170629680475459,-3.3297124104801946e-05,critical
1500,5.454545454545454,2.2278481012658227,anode,0.0180296993496139,0.0189608940555079,0.0169256881139256,-2.4605338865360864e-05,critical
1500,5.555555555555555,2.2278481012658227,anode,0.0179914731676856,0.0187342777632399,0.0171429466851159,-3.969213736882394e-06,critical
1500,5.656565656565657,2.2278481012658227,anode,0.0179134791315251,0.0187351391931143,0.0169591701658758,-4.566162678332373e-05,critical
1500,5.757575757575758,2.2278481012658227,anode,0.0179666766516688,0.0187923956721768,0.0170075041293382,3.598653090631005e-05,critical
1500,5.858585858585858,2.2278481012658227,anode,0.0180156978055828,0.0188861013203269,0.016996301173708,7.229349476226535e-06,critical
1500,5.959595959595959,2.2278481012658227,anode,0.0181073160699337,0.0190262477159936,0.0170212727857012,-3.659837485127304e-05,critical
1500,6.0606060606060606,2.2278481012658227,anode,0.0182115469630716,0.0190389836644952,0.0172522538764856,2.9775396267250755e-05,critical
1500,6.161616161616162,2.2278481012658227,anode,0.0180272517401811,0.0189809567210445,0.0168914254478174,-9.11007312980572e-06,critical
1500,6.262626262626262,2.2278481012658227,anode,0.0181984010340492,0.0190908100496229,0.0171502739570758,3.414408723015802e-05,critical
1500,6.363636363636363,2.2278481012658227,anode,0.018241004532739,0.0191915802070742,0.0171118667922755,-4.1930255518483305e-05,critical
1500,6.4646464646464645,2.2278481012658227,anode,0.0182474341251787,0.0191702185802913,0.0171574998959164,-3.996813006485362e-05,critical
1500,6.565656565656566,2.2278481012658227,anode,0.0182258145656479,0.0190988412163023,0.0172036418742969,-7.939675921579678e-05,critical
1500,6.666666666666667,2.2278481012658227,anode,0.0183159725170641,0.0192656490385956,0.0171891616717901,-2.9963449717680604e-05,critical
1500,6.767676767676767,2.2278481012658227,anode,0.0183918812994756,0.0192949572643888,0.0173312115736631,-2.1557865729919206e-06,critical
1500,6.8686868686868685,2.2278481012658227,anode,0.0184034262777646,0.0192271625133491,0.0174508523400449,-1.22064304223684e-05,critical
1500,6.96969696969697,2.2278481012658227,anode,0.0184243584676381,0.0193813261891574,0.0172881122238458,-5.4461100302890857e-05,critical
1500,7.070707070707071,2.2278481012658227,anode,0.0185173740752707,0.0194054902806945,0.0174784180962105,2.7464834301717108e-05,critical
1500,7.171717171717171,2.2278481012658227,anode,0.0186789178087635,0.0196726426691875,0.0174935517405102,-5.519910958752154e-05,critical
1500,7.272727272727272,2.2278481012658227,anode,0.0186124761806359,0.0195454169002774,0.0175094834708612,0.0001279198958025,critical
1500,7.373737373737374,2.2278481012658227,anode,0.0186951637427078,0.0195881446471457,0.0176506784380208,6.145375212673476e-05,critical
1500,7.474747474747475,2.2278481012658227,anode,0.0186555887543671,0.0195470675196734,0.0176134842825591,9.680036696973868e-06,critical
1500,7.575757575757575,2.2278481012658227,anode,0.0187513165239798,0.0196658684485083,0.0176766178050244,9.783130328364788e-05,critical
1500,7.6767676767676765,2.2278481012658227,anode,0.0188403333489548,0.0197277781245053,0.0178049513677484,5.406126984083272e-05,critical
1500,7.777777777777778,2.2278481012658227,anode,0.019006769462637,0.0200360090597006,0.017775200615929,2.5495147593575903e-05,critical
1500,7.878787878787879,2.2278481012658227,anode,0.019035648221446,0.0199785019821802,0.0179259555334747,5.543202608289327e-05,critical
1500,7.979797979797979,2.2278481012658227,anode,0.0192084976844809,0.020148500059945,0.0181043579250685,-6.3795215658296e-05,critical
1500,8.080808080808081,2.2278481012658227,anode,0.0192213901119575,0.0202263680503607,0.0180271691502017,-2.003243626840969e-05,critical
1500,8.181818181818182,2.2278481012658227,anode,0.0194143902352607,0.0204587881566563,0.0181660723059276,-4.537726790887193e-05,critical
1500,8.282828282828282,2.2278481012658227,anode,0.019311100158911,0.0203003574143531,0.0181396136126047,-5.5184166083467073e-05,critical
1500,8.383838383838384,2.2278481012658227,anode,0.0194998179321637,0.0203893213644658,0.0184679850648144,-2.3690859835311548e-05,critical
1500,8.484848484848484,2.2278481012658227,anode,0.0195180058914003,0.0204191841308386,0.0184706389668656,1.0764788592296484e-05,critical
1500,8.585858585858587,2.2278481012658227,anode,0.019797365124298,0.0207033546683401,0.0187457967228374,3.030215206841607e-05,critical
1500,8.686868686868687,2.2278481012658227,anode,0.0198882102472717,0.0207405105321963,0.0189090163509684,3.5977414570600334e-05,critical
1500,8.787878787878787,2.2278481012658227,anode,0.0201221878861993,0.0211213941873411,0.0189461105679712,-2.7790164547443294e-05,critical
1500,8.88888888888889,2.2278481012658227,anode,0.020201451072767,0.021167668599433,0.0190717039391118,2.613413134793697e-05,critical
1500,8.98989898989899,2.2278481012658227,anode,0.0202917369324138,0.0212886711854367,0.0191207063341814,-5.35899004553903e-06,critical
1500,9.09090909090909,2.2278481012658227,anode,0.0205174968685199,0.0215220749050251,0.0193374064819818,-6.780082829270056e-05,critical
1500,9.191919191919192,2.2278481012658227,anode,0.0206803149534682,0.0216327385191701,0.0195738021750634,-2.0521748191036956e-05,critical
1500,9.292929292929292,2.2278481012658227,anode,0.0209126035663668,0.0219784055877895,0.0196522230152482,2.109053819347774e-05,critical
1500,9.393939393939394,2.2278481012658227,anode,0.0210622847446272,0.0220946950481626,0.0198494286327139,-6.203457995626443e-05,critical
1500,9.494949494949497,2.2278481012658227,anode,0.0214217707845308,0.0225541147768903,0.0200734000940105,1.3521888045825249e-05,critical
1500,9.595959595959595,2.2278481012658227,anode,0.0212643364451371,0.0222519940372334,0.0201152109877307,2.948273320532869e-05,critical
1500,9.696969696969695,2.2278481012658227,anode,0.0216675678300443,0.0227839009760056,0.0203440988371904,6.564510742622891e-05,critical
1500,9.797979797979798,2.2278481012658227,anode,0.0218525237591172,0.0228605069366514,0.0206807213366707,5.643819327573247e-05,critical
1500,9.8989898989899,2.2278481012658227,anode,0.0222024748992931,0.0232420365940157,0.0209909999201812,-5.518833499504023e-05,critical
1500,10.0,2.2278481012658227,anode,0.0221985079048057,0.0233340289292469,0.0208541962566716,6.262152553559244e-05,critical
1500,0.0,2.329113924050633,anode,0.0223200999085557,0.0234841420969837,0.0209376218621937,-1.5955190046538562e-06,critical
1500,0.101010101010101,2.329113924050633,anode,0.0221823911494861,0.0232511193714673,0.0209310963198813,-3.894885394875789e-05,critical
1500,0.202020202020202,2.329113924050633,anode,0.0219376299502073,0.0229229144871741,0.0207971800545173,5.440891466428078e-05,critical
1500,0.303030303030303,2.329113924050633,anode,0.0216236525160233,0.022598422162325,0.0204950587022077,-2.721209437989212e-05,critical
1500,0.404040404040404,2.329113924050633,anode,0.0214727305899324,0.0224510937336189,0.0203381221139651,-1.1888032335164154e-05,critical
1500,0.5050505050505051,2.329113924050633,anode,0.0211599411183235,0.0221606626945337,0.0199915766085172,-6.214962881586009e-05,critical
1500,0.6060606060606061,2.329113924050633,anode,0.0210312482740807,0.0221280575024649,0.0197284585394979,3.089652593176373e-05,critical
1500,0.7070707070707071,2.329113924050633,anode,0.0207501642064476,0.0216666251380933,0.0196924199949689,-3.4382914917724126e-05,critical
1500,0.8080808080808081,2.329113924050633,anode,0.0208001955223599,0.0218304347253092,0.0195878511304184,-5.048787529358152e-05,critical
1500,0.9090909090909092,2.329113924050633,anode,0.0204107998938852,0.0214359812849487,0.0192016167859876,-3.092748950117026e-05,critical
1500,1.0101010101010102,2.329113924050633,anode,0.0203369990957853,0.0212778187817937,0.019242391053908,-6.94176083869832e-05,critical
1500,1.1111111111111112,2.329113924050633,anode,0.0201753406871378,0.0211520954817751,0.0190307471198286,3.684562938289418e-05,critical
1500,1.2121212121212122,2.329113924050633,anode,0.0199788084167394,0.0210105437687921,0.0187557405063704,1.0664197864211042e-05,critical
1500,1.3131313131313131,2.329113924050633,anode,0.0200859243956823,0.0210890642652487,0.0189012688059343,-0.0001262765670779,critical
1500,1.414141414141414,2.329113924050633,anode,0.0198947196063287,0.0209063384856805,0.0186989490850426,1.5719944716418866e-05,critical
1500,1.5151515151515151,2.329113924050633,anode,0.0195672166854824,0.0205814135494002,0.018364016891286,-2.3768392722601448e-05,critical
1500,1.616161616161616,2.329113924050633,anode,0.0195220947098397,0.0204869556407281,0.0183865312613312,-7.382174168198067e-05,critical
1500,1.7171717171717171,2.329113924050633,anode,0.0195168443903474,0.0206119940277685,0.0181947354306416,-0.0001069233345892,critical
1500,1.818181818181818,2.329113924050633,anode,0.0193570412102128,0.0203542220286266,0.0181751947636842,-4.055843091479135e-05,critical
1500,1.9191919191919191,2.329113924050633,anode,0.0191335710516906,0.020035828562669,0.0180810437851264,-3.4948298355763386e-05,critical
1500,2.0202020202020203,2.329113924050633,anode,0.0191112023103179,0.0200560378025439,0.0180000958873422,1.3577202282196358e-05,critical
1500,2.121212121212121,2.329113924050633,anode,0.0190364026883583,0.0199345043004704,0.0179885228901471,4.280479437158535e-05,critical
1500,2.2222222222222223,2.329113924050633,anode,0.0188826553547748,0.0198478316144553,0.0177407103379846,5.2174164569928494e-06,critical
1500,2.323232323232323,2.329113924050633,anode,0.0188446086390201,0.0196694571735269,0.0178939264237622,-3.133611357404233e-05,critical
1500,2.4242424242424243,2.329113924050633,anode,0.018882149443414,0.0197897020409398,0.0178201112857468,2.300129824027575e-05,critical
1500,2.525252525252525,2.329113924050633,anode,0.0188042831333933,0.019645660782783,0.017831392853661,5.015353421105394e-07,critical
1500,2.6262626262626263,2.329113924050633,anode,0.0187545380238187,0.0196880793067329,0.0176551327950956,3.728416525843274e-05,critical
1500,2.727272727272727,2.329113924050633,anode,0.0186573232361961,0.0195913041688256,0.0175557335886525,6.441043103403603e-05,critical
1500,2.8282828282828283,2.329113924050633,anode,0.0186215509073379,0.0195308229216024,0.0175546380523749,1.039717039603056e-05,critical
1500,2.929292929292929,2.329113924050633,anode,0.0184643574708387,0.0193793878057102,0.0173878375562179,1.3872154649278549e-05,critical
1500,3.0303030303030303,2.329113924050633,anode,0.0184909046578861,0.0193905622176778,0.0174359470661852,-8.5296656318805e-06,critical
1500,3.131313131313131,2.329113924050633,anode,0.0184407299086486,0.0193243163885625,0.0174073534387977,-1.3751049638399644e-05,critical
1500,3.2323232323232323,2.329113924050633,anode,0.0183995623423263,0.0191945053150804,0.017485225724232,2.581711519411124e-05,critical
1500,3.333333333333333,2.329113924050633,anode,0.0184576278280758,0.0193741123711532,0.0173790548289346,-1.759051383641127e-06,critical
1500,3.4343434343434343,2.329113924050633,anode,0.0182003407833251,0.0190398841945708,0.0172246690301833,-2.3769109124371363e-05,critical
1500,3.5353535353535355,2.329113924050633,anode,0.0183471689976138,0.0192988189694815,0.0172174683565751,5.711078950723017e-05,critical
1500,3.636363636363636,2.329113924050633,anode,0.0181499861431638,0.019011996905402,0.0171434041088166,2.0077109414530504e-06,critical
1500,3.7373737373737375,2.329113924050633,anode,0.0181889159720248,0.0190993006702832,0.017115941404328,-1.2098530495831412e-05,critical
1500,3.8383838383838382,2.329113924050633,anode,0.0181600739087284,0.0191428559672207,0.0169835066923595,6.499397271339451e-05,critical
1500,3.939393939393939,2.329113924050633,anode,0.018162577425805,0.0191107300319612,0.0170357988616714,-4.9418157007584926e-05,critical
1500,4.040404040404041,2.329113924050633,anode,0.0182251600973919,0.0191023169639404,0.0171980820184521,4.877143846398881e-05,critical
1500,4.141414141414141,2.329113924050633,anode,0.0181494963685332,0.0189804593185169,0.0171844219367058,-5.84427716221427e-05,critical
1500,4.242424242424242,2.329113924050633,anode,0.0181532777048232,0.0189602015439205,0.017221193546252,-3.7482740749109513e-06,critical
1500,4.343434343434343,2.329113924050633,anode,0.0181037313794442,0.0189304456822251,0.0171438209626447,6.5550111411895e-05,critical
1500,4.444444444444445,2.329113924050633,anode,0.0180989564085074,0.019048431663978,0.0169690676587916,-6.9144079228713e-05,critical
1500,4.545454545454545,2.329113924050633,anode,0.0180761666556778,0.0188860301703851,0.0171395101966913,-7.354476901498804e-06,critical
1500,4.646464646464646,2.329113924050633,anode,0.0181491058367336,0.0190459577703306,0.0170935388662033,7.13762438303442e-05,critical
1500,4.747474747474747,2.329113924050633,anode,0.0180686032085033,0.0190457118222735,0.0168997971544062,-1.638787018435458e-05,critical
1500,4.848484848484849,2.329113924050633,anode,0.0180908673868454,0.0190378775255834,0.0169652276786678,-2.365502337525534e-05,critical
1500,4.94949494949495,2.329113924050633,anode,0.018019478870056,0.0189497305800709,0.0169166283478175,-2.923780242195125e-05,critical
1500,5.05050505050505,2.329113924050633,anode,0.0180080019931402,0.0189580505205724,0.0168771578907354,-1.7992399034549006e-06,critical
1500,5.151515151515151,2.329113924050633,anode,0.0179834220944243,0.018953912680611,0.0168230429779745,-1.120877510980061e-05,critical
1500,5.252525252525253,2.329113924050633,anode,0.0180015659781221,0.0187374347089955,0.017162123312742,-1.422004785411937e-05,critical
1500,5.353535353535354,2.329113924050633,anode,0.0180079544551173,0.0188672029765391,0.0170037890796272,-7.580034946698538e-06,critical
1500,5.454545454545454,2.329113924050633,anode,0.0179835801075191,0.0188791312091168,0.0169287250867668,-4.261191272020919e-05,critical
1500,5.555555555555555,2.329113924050633,anode,0.0179549390473539,0.0188059565160921,0.0169615327615388,-5.466505910563174e-06,critical
1500,5.656565656565657,2.329113924050633,anode,0.0180252998600314,0.0188631418207133,0.0170503365704485,-2.7418663918526432e-05,critical
1500,5.757575757575758,2.329113924050633,anode,0.0180915420957778,0.018983806661458,0.0170427236721137,-1.0344978161805656e-05,critical
1500,5.858585858585858,2.329113924050633,anode,0.0180074326874601,0.0189352686460319,0.0169075615154853,-4.766669386453224e-05,critical
1500,5.959595959595959,2.329113924050633,anode,0.0181232611139246,0.0190491906253868,0.0170278483943541,3.60482527583517e-06,critical
1500,6.0606060606060606,2.329113924050633,anode,0.0181603351127493,0.019044985732357,0.0171212363083133,-8.804988870994796e-05,critical
1500,6.161616161616162,2.329113924050633,anode,0.0181745031750183,0.0190816106399373,0.0171056146331601,4.213966134405217e-05,critical
1500,6.262626262626262,2.329113924050633,anode,0.0182285826675937,0.0192022834474942,0.0170667296454333,-1.2326860060533214e-05,critical
1500,6.363636363636363,2.329113924050633,anode,0.0182788721481358,0.0191800111102775,0.0172194253177436,-3.873607746905232e-05,critical
1500,6.4646464646464645,2.329113924050633,anode,0.0182169898533308,0.0191463465383686,0.0171174673559728,4.245280881616003e-05,critical
1500,6.565656565656566,2.329113924050633,anode,0.0183250225940702,0.0192565628308439,0.0172233441761435,-5.792434779963174e-05,critical
1500,6.666666666666667,2.329113924050633,anode,0.0184341850676191,0.0193760407839602,0.0173192437958397,-5.8853267678286e-05,critical
1500,6.767676767676767,2.329113924050633,anode,0.0183892747722227,0.0192782256716852,0.017347630341506,4.7243083695586873e-05,critical
1500,6.8686868686868685,2.329113924050633,anode,0.0182946500040511,0.0191323784041618,0.0173223537642265,-8.215952272281086e-06,critical
1500,6.96969696969697,2.329113924050633,anode,0.0184106856565294,0.0191565194329071,0.0175605773161783,-4.752014713617655e-05,critical
1500,7.070707070707071,2.329113924050633,anode,0.0184806689781602,0.0192812806925489,0.0175585067259703,7.456320578663846e-05,critical
1500,7.171717171717171,2.329113924050633,anode,0.0186825330349265,0.019617090611323,0.0175751949819175,0.0001765506233246,critical
1500,7.272727272727272,2.329113924050633,anode,0.0186910523568377,0.0196623499180148,0.0175382769844345,-2.1096495338879325e-06,critical
1500,7.373737373737374,2.329113924050633,anode,0.0187136809788815,0.0196621499232815,0.0175915523306548,9.441412354330378e-05,critical
1500,7.474747474747475,2.329113924050633,anode,0.0186986434625447,0.0195616989914487,0.0176955589955683,2.3023889127554164e-05,critical
1500,7.575757575757575,2.329113924050633,anode,0.0188011823245174,0.0196883880486326,0.0177662888938704,-1.1571694993976777e-05,critical
1500,7.6767676767676765,2.329113924050633,anode,0.0188845100215513,0.0197259585575332,0.0179121501408374,-1.2733513866316462e-05,critical
1500,7.777777777777778,2.329113924050633,anode,0.0189868004097503,0.0198474833234859,0.017989451219839,1.8013116461824646e-05,critical
1500,7.878787878787879,2.329113924050633,anode,0.0190766488871472,0.0199638375218308,0.0180442714483382,-1.727675276202249e-05,critical
1500,7.979797979797979,2.329113924050633,anode,0.0191526360854665,0.0201590128792151,0.0179552938187707,4.506285335587443e-05,critical
1500,8.080808080808081,2.329113924050633,anode,0.0192798819606617,0.0202275026225353,0.0181664814334728,3.410394637045925e-05,critical
1500,8.181818181818182,2.329113924050633,anode,0.019300982359718,0.020279261624167,0.0181436510415494,9.529113352813994e-05,critical
1500,8.282828282828282,2.329113924050633,anode,0.0194160372947269,0.0203795556769545,0.0182821280069969,-2.349317431734677e-05,critical
1500,8.383838383838384,2.329113924050633,anode,0.0196626938152385,0.0205717205563247,0.018605435263398,5.608074899909899e-05,critical
1500,8.484848484848484,2.329113924050633,anode,0.0195693080705581,0.0205405568669354,0.0184258592759752,5.311051018917359e-05,critical
1500,8.585858585858587,2.329113924050633,anode,0.0198488974094765,0.0208102230440598,0.0187223840790448,2.982295877758136e-05,critical
1500,8.686868686868687,2.329113924050633,anode,0.0198489541901142,0.0208814263166204,0.0186224152889054,-7.131835933105616e-05,critical
1500,8.787878787878787,2.329113924050633,anode,0.0199833861658343,0.02089386401312,0.0189270710127759,5.0990322768444565e-05,critical
1500,8.88888888888889,2.329113924050633,anode,0.0200529877316439,0.0210054901738005,0.0189406343350451,-2.1439218576406773e-05,critical
1500,8.98989898989899,2.329113924050633,anode,0.0203000312825676,0.0213303708339148,0.0190825718948279,1.0567578486135309e-05,critical
1500,9.09090909090909,2.329113924050633,anode,0.0204686747258781,0.0214420957970656,0.01933173727297,-4.809811301722051e-06,critical
1500,9.191919191919192,2.329113924050633,anode,0.0207811516592973,0.0218566623324895,0.0195056596329063,-1.2033624615961607e-05,critical
1500,9.292929292929292,2.329113924050633,anode,0.0208142481888666,0.0217769425074312,0.019695014634823,-2.08375897442502e-05,critical
1500,9.393939393939394,2.329113924050633,anode,0.0208902063343868,0.0218717510079305,0.0197459788660344,2.989051259153064e-05,critical
1500,9.494949494949497,2.329113924050633,anode,0.0211320143849776,0.0222083793512682,0.019859317740263,-1.5049711731038088e-05,critical
1500,9.595959595959595,2.329113924050633,anode,0.021466926642187,0.0225327100125765,0.0202125362403855,-2.895631523766864e-05,critical
1500,9.696969696969695,2.329113924050633,anode,0.0216012361433825,0.0226101685189699,0.0204264099174571,3.205268120715681e-06,critical
1500,9.797979797979798,2.329113924050633,anode,0.0218315358905769,0.0227965272744386,0.0207178513385576,9.287884519267864e-07,critical
1500,9.8989898989899,2.329113924050633,anode,0.0220163034870234,0.0231218348631004,0.0207122211407045,4.769373884111792e-05,critical
1500,10.0,2.329113924050633,anode,0.0223411247442641,0.0234555776548481,0.0210284727013287,-3.740521472236272e-06,critical
1500,0.0,2.430379746835443,anode,0.0223141866506853,0.0234546803259402,0.0209642947710787,-5.794697383277997e-05,critical
1500,0.101010101010101,2.430379746835443,anode,0.0221290693522922,0.0232683806949569,0.0207792730239951,2.4572446976426314e-06,critical
1500,0.202020202020202,2.430379746835443,anode,0.021951439073778,0.0229649568589667,0.0207735222561485,-9.117202107897053e-06,critical
1500,0.303030303030303,2.430379746835443,anode,0.0216292250968643,0.0226437471801654,0.0204470504355844,4.5114561113876426e-06,critical
1500,0.404040404040404,2.430379746835443,anode,0.0212425675022672,0.0222337387643518,0.0200877567939329,-7.187617333370384e-05,critical
1500,0.5050505050505051,2.430379746835443,anode,0.0212075396929328,0.0222379919799289,0.0199993063383682,3.4700954925732485e-05,critical
1500,0.6060606060606061,2.430379746835443,anode,0.0210921106556897,0.0221193365597233,0.0198858575743313,9.438761980318976e-05,critical
1500,0.7070707070707071,2.430379746835443,anode,0.0209272998013514,0.0219579576876852,0.0197159181375388,3.577426112793166e-05,critical
1500,0.8080808080808081,2.430379746835443,anode,0.0205029060577763,0.0214791403171052,0.0193624037744073,-1.6285738807736273e-05,critical
1500,0.9090909090909092,2.430379746835443,anode,0.0204004340137318,0.0213447456773287,0.0193021391771169,4.551508891043097e-05,critical
1500,1.0101010101010102,2.430379746835443,anode,0.0203938043480306,0.021296403502466,0.0193517219416684,3.361783034745941e-05,critical
1500,1.1111111111111112,2.430379746835443,anode,0.0201716236869186,0.0212703579795364,0.0188552848257735,-3.248475697924387e-05,critical
1500,1.2121212121212122,2.430379746835443,anode,0.0201281206449398,0.0210693855220561,0.0190318371689652,-1.320227435040334e-05,critical
1500,1.3131313131313131,2.430379746835443,anode,0.0199621304395587,0.0208781803282034,0.018898571113949,-2.791796917820721e-06,critical
1500,1.414141414141414,2.430379746835443,anode,0.0197286775536248,0.0206863219453007,0.0186060143894998,3.180517822483336e-05,critical
1500,1.5151515151515151,2.430379746835443,anode,0.019725068013255,0.0207284298162764,0.0185389455817673,2.028591417673969e-05,critical
1500,1.616161616161616,2.430379746835443,anode,0.0195207364382787,0.0203965577828256,0.0185066019194438,-7.358105173779315e-05,critical
1500,1.7171717171717171,2.430379746835443,anode,0.0195329295669756,0.0204552327495623,0.0184567977720154,-3.416075121201462e-05,critical
1500,1.818181818181818,2.430379746835443,anode,0.0193338142853134,0.0202276490453054,0.018294769115125,-7.766785127486887e-06,critical
1500,1.9191919191919191,2.430379746835443,anode,0.0192764971723573,0.0201821443848361,0.0182208517544934,1.6467444456186417e-05,critical
1500,2.0202020202020203,2.430379746835443,anode,0.0191024683926707,0.0199556634647499,0.0181161423364583,1.6542527835854664e-05,critical
1500,2.121212121212121,2.430379746835443,anode,0.0190475790267854,0.0199091121927496,0.0180495757317622,2.1312411942669407e-05,critical
1500,2.2222222222222223,2.430379746835443,anode,0.0189155655302324,0.0198520864776879,0.01781270264169,-8.209680021387056e-05,critical
1500,2.323232323232323,2.430379746835443,anode,0.0189258273192251,0.0198958088076308,0.0177776118179558,-8.47434821271549e-06,critical
1500,2.4242424242424243,2.430379746835443,anode,0.0188697270386545,0.0197399988530356,0.0178580017566802,5.083059532867938e-05,critical
1500,2.525252525252525,2.430379746835443,anode,0.0187568542507444,0.0195563244440699,0.0178390811748896,-3.557947854938321e-05,critical
1500,2.6262626262626263,2.430379746835443,anode,0.0186581697050307,0.0195701384885498,0.0175872527187344,5.913100380281174e-05,critical
1500,2.727272727272727,2.430379746835443,anode,0.0186849389280225,0.0195799970193132,0.017637950746331,3.819239703231941e-05,critical
1500,2.8282828282828283,2.430379746835443,anode,0.0185266500112565,0.0194419250673641,0.0174500458276881,-4.723815603861371e-05,critical
1500,2.929292929292929,2.430379746835443,anode,0.0185323256730695,0.0194836172741147,0.0174058016477535,-2.449096143503863e-05,critical
1500,3.0303030303030303,2.430379746835443,anode,0.0184201883154716,0.0192304256525776,0.0174848918838394,-6.960848631291243e-05,critical
1500,3.131313131313131,2.430379746835443,anode,0.0184463575148958,0.019378178863579,0.0173462274455349,1.808271884800589e-05,critical
1500,3.2323232323232323,2.430379746835443,anode,0.0183730923767539,0.0191373712323847,0.0174989502070998,2.704156277954229e-05,critical
1500,3.333333333333333,2.430379746835443,anode,0.0184156344998643,0.0193085092773365,0.017368897039875,-4.46794857927793e-05,critical
1500,3.4343434343434343,2.430379746835443,anode,0.0183987761292668,0.0192331377149516,0.0174304919201008,-8.637062489689798e-05,critical
1500,3.5353535353535355,2.430379746835443,anode,0.0182065765363362,0.0190830983654742,0.01718032145465,4.125098604700554e-05,critical
1500,3.636363636363636,2.430379746835443,anode,0.0181991102219333,0.0191279067015278,0.0171005301550948,-1.9879413611980232e-06,critical
1500,3.7373737373737375,2.430379746835443,anode,0.0181907430360582,0.0189898080147271,0.017268909425951,5.280665528186807e-05,critical
1500,3.8383838383838382,2.430379746835443,anode,0.0181908986011777,0.0190900556074371,0.0171334298205691,2.7564637424114514e-05,critical
1500,3.939393939393939,2.430379746835443,anode,0.0181322335871486,0.0189767626001311,0.0171488756906855,4.68382461260298e-05,critical
1500,4.040404040404041,2.430379746835443,anode,0.0181307027900142,0.0191089913738138,0.0169607065996467,-4.187315160755772e-05,critical
1500,4.141414141414141,2.430379746835443,anode,0.0180006883433738,0.0189122712954599,0.016923493034785,-5.115442131209437e-05,critical
1500,4.242424242424242,2.430379746835443,anode,0.0180533138483824,0.0189275351457963,0.0170289459976511,-2.2555770390166316e-05,critical
1500,4.343434343434343,2.430379746835443,anode,0.0180735726839951,0.0189132721027788,0.0170961526134364,-5.138104887798366e-05,critical
1500,4.444444444444445,2.430379746835443,anode,0.0180650728220507,0.0188791089140363,0.0171221236349757,5.60412076273204e-05,critical
1500,4.545454545454545,2.430379746835443,anode,0.017955608565423,0.018815192452495,0.0169504633048168,1.204050673364489e-05,critical
1500,4.646464646464646,2.430379746835443,anode,0.0180748966485174,0.0189571048649566,0.0170384447638031,8.376186013824131e-05,critical
1500,4.747474747474747,2.430379746835443,anode,0.0180329356968496,0.0189889691610966,0.0168938749633235,5.146493841782571e-06,critical
1500,4.848484848484849,2.430379746835443,anode,0.0181575718471336,0.0191630400200742,0.0169490068001801,1.8043213522066432e-05,critical
1500,4.94949494949495,2.430379746835443,anode,0.0180760585072795,0.0189619633129766,0.0170357345422763,-2.921461543753335e-05,critical
1500,5.05050505050505,2.430379746835443,anode,0.0179407340200602,0.0188746165858565,0.0168317801439167,3.3465286330462465e-05,critical
1500,5.151515151515151,2.430379746835443,anode,0.0182437737704582,0.0191889814537398,0.0171223386564342,3.665157129782269e-05,critical
1500,5.252525252525253,2.430379746835443,anode,0.0180500870386286,0.0188287168071701,0.0171523513687708,0.0001135407699838,critical
1500,5.353535353535354,2.430379746835443,anode,0.0179634823036775,0.0187774752372214,0.0170188550708383,8.721988763957516e-05,critical
1500,5.454545454545454,2.430379746835443,anode,0.0180788307974795,0.0190122741429417,0.0169723365319065,4.566402901058987e-06,critical
1500,5.555555555555555,2.430379746835443,anode,0.0180927912205108,0.0189762277411901,0.0170533468252117,-0.0001203190581173,critical
1500,5.656565656565657,2.430379746835443,anode,0.018026376505692,0.0189112070377233,0.0169869451500082,-3.572787053335121e-05,critical
1500,5.757575757575758,2.430379746835443,anode,0.0181584661573229,0.0190314417796818,0.0171359130246782,7.241743514903259e-05,critical
1500,5.858585858585858,2.430379746835443,anode,0.0179949738493231,0.0188191678082831,0.0170376530647556,6.010261079073359e-05,critical
1500,5.959595959595959,2.430379746835443,anode,0.0180487457599509,0.0189026705477013,0.017052144962048,-2.380626632760362e-05,critical
1500,6.0606060606060606,2.430379746835443,anode,0.0181213886029303,0.0189548806208896,0.0171533049956491,-8.199973863573424e-06,critical
1500,6.161616161616162,2.430379746835443,anode,0.0182439575894033,0.019017073398473,0.0173570988893922,4.1831363921628e-05,critical
1500,6.262626262626262,2.430379746835443,anode,0.0182598388643893,0.0191666817860491,0.0171925569268127,-9.638271848651923e-06,critical
1500,6.363636363636363,2.430379746835443,anode,0.0181307651841669,0.0190747411236198,0.0170099713051228,-1.3815385192049358e-05,critical
1500,6.4646464646464645,2.430379746835443,anode,0.0182127187092897,0.0190923754237328,0.0171825377192377,-7.785843218881284e-06,critical
1500,6.565656565656566,2.430379746835443,anode,0.0182560873151158,0.0190936378683241,0.0172835088226892,3.2136899178598284e-05,critical
1500,6.666666666666667,2.430379746835443,anode,0.0184166020699467,0.0192869319971597,0.0174011203520926,-1.550630940521143e-05,critical
1500,6.767676767676767,2.430379746835443,anode,0.0183928389762505,0.01935766194699,0.0172449171432955,6.207156346757017e-05,critical
1500,6.8686868686868685,2.430379746835443,anode,0.0184253075520989,0.0193279892835001,0.0173654590394443,-1.850417213842518e-05,critical
1500,6.96969696969697,2.430379746835443,anode,0.0184879141129871,0.0194037803817218,0.0174104962733019,1.0656584395128109e-05,critical
1500,7.070707070707071,2.430379746835443,anode,0.0184597755182931,0.0193034367159276,0.0174807961437341,2.4842341301625725e-05,critical
1500,7.171717171717171,2.430379746835443,anode,0.0186807915566974,0.0195125329013398,0.0177197619714116,1.300136536088054e-05,critical
1500,7.272727272727272,2.430379746835443,anode,0.0186997497003575,0.0194717714862284,0.0178177708857254,2.127430951892253e-05,critical
1500,7.373737373737374,2.430379746835443,anode,0.0186269602241777,0.0196062443787136,0.0174615951949616,5.107000797119635e-05,critical
1500,7.474747474747475,2.430379746835443,anode,0.0186814651252481,0.0195644809126801,0.0176511829106302,8.141252234646127e-06,critical
1500,7.575757575757575,2.430379746835443,anode,0.0187304852022778,0.0196847145922367,0.0176019116244877,3.830189058807043e-05,critical
1500,7.6767676767676765,2.430379746835443,anode,0.0190425554968066,0.0199989935752045,0.0179130816590115,-8.997465598098115e-05,critical
1500,7.777777777777778,2.430379746835443,anode,0.0190024189004024,0.0199498976767785,0.0178863614347518,2.978708353720638e-05,critical
1500,7.878787878787879,2.430379746835443,anode,0.0190863817280642,0.0200636475967102,0.0179272541133707,-0.0001150093422055,critical
1500,7.979797979797979,2.430379746835443,anode,0.0190380064061179,0.0199795535075132,0.0179294556407409,8.2195541798261e-05,critical
1500,8.080808080808081,2.430379746835443,anode,0.0192062252682913,0.0201263788566166,0.0181301285077363,-8.916933357178386e-06,critical
1500,8.181818181818182,2.430379746835443,anode,0.0193485306438512,0.020357268097928,0.018149859794894,6.171135844585171e-05,critical
1500,8.282828282828282,2.430379746835443,anode,0.0193822945765838,0.0202922492689476,0.0183218059629876,-3.767104685654892e-06,critical
1500,8.383838383838384,2.430379746835443,anode,0.0195719975770406,0.0205431197151118,0.0184289194491971,-4.377185655712504e-05,critical
1500,8.484848484848484,2.430379746835443,anode,0.0196227552232861,0.0206207217896218,0.0184426975638003,4.829600216634386e-05,critical
1500,8.585858585858587,2.430379746835443,anode,0.0197173664641914,0.0205951828606356,0.0187028527667916,-4.063804266175115e-05,critical
1500,8.686868686868687,2.430379746835443,anode,0.0199744127606304,0.0210365824321799,0.0187081448832682,-6.102535403179383e-06,critical
1500,8.787878787878787,2.430379746835443,anode,0.0200198751107943,0.0209895655165454,0.0188828184842413,7.038153560017324e-05,critical
1500,8.88888888888889,2.430379746835443,anode,0.0201191329283169,0.0210588826468678,0.019024577188305,3.9885978129239607e-05,critical
1500,8.98989898989899,2.430379746835443,anode,0.0203821710896588,0.0213319650331231,0.0192762930366457,-4.435442504671457e-05,critical
1500,9.09090909090909,2.430379746835443,anode,0.0203726053162131,0.0213125060153165,0.0192777506701392,0.0001233436072583,critical
1500,9.191919191919192,2.430379746835443,anode,0.0206390367924221,0.0216097749924256,0.0195073133154482,-1.6764667339318094e-05,critical
1500,9.292929292929292,2.430379746835443,anode,0.0208571704092135,0.0218625082525597,0.0196802157605882,-9.617353105242087e-06,critical
1500,9.393939393939394,2.430379746835443,anode,0.0209882080983601,0.02197503310972,0.0198358213333471,0.0001092727430255,critical
1500,9.494949494949497,2.430379746835443,anode,0.0212387027056627,0.0223007183095439,0.01998715716003,2.5598128650815805e-05,critical
1500,9.595959595959595,2.430379746835443,anode,0.0213318798272102,0.0224297446517721,0.0200309630669813,-4.3039321316086896e-05,critical
1500,9.696969696969695,2.430379746835443,anode,0.0215910159293234,0.0225731464486296,0.0204522660511414,-2.4754939545671566e-05,critical
1500,9.797979797979798,2.430379746835443,anode,0.0217708928123279,0.0227298907319597,0.0206646679603616,-1.811075461018213e-05,critical
1500,9.8989898989899,2.430379746835443,anode,0.0222086662347261,0.0233829007524636,0.0208099789371484,-4.918370169637172e-05,critical
1500,10.0,2.430379746835443,anode,0.0223087578192179,0.0234967823180607,0.020892054530246,1.9247215125880967e-06,critical
1500,0.0,2.5316455696202533,anode,0.0324319203832671,0.0339712764160542,0.0306343611094244,4.511801369632446e-05,critical
1500,0.101010101010101,2.5316455696202533,anode,0.0319946030435626,0.0334982573549757,0.0302418896201378,5.528547273159425e-06,critical
1500,0.202020202020202,2.5316455696202533,anode,0.0315421570916236,0.0330489484651668,0.02978088305169,1.3579683804487426e-05,critical
1500,0.303030303030303,2.5316455696202533,anode,0.0313291792726741,0.0328170846539261,0.0295911510925797,7.191695402003655e-05,critical
1500,0.404040404040404,2.5316455696202533,anode,0.030983061340777,0.0325445397314555,0.0291404243407305,1.1412049280417388e-05,critical
1500,0.5050505050505051,2.5316455696202533,anode,0.0307396820209874,0.0321400198819133,0.0291154689972786,-5.288431999277038e-05,critical
1500,0.6060606060606061,2.5316455696202533,anode,0.0303713275288407,0.0317716802861,0.0287442044215758,-9.179564862160538e-06,critical
1500,0.7070707070707071,2.5316455696202533,anode,0.0300561251336466,0.031502616584908,0.0283629577847195,-4.40316623518349e-05,critical
1500,0.8080808080808081,2.5316455696202533,anode,0.0299125499696572,0.0313150328350262,0.0282777979787947,-7.229086419964464e-05,critical
1500,0.9090909090909092,2.5316455696202533,anode,0.0296021308144002,0.0309908152918647,0.0279838438553752,-2.667992180838896e-05,critical
1500,1.0101010101010102,2.5316455696202533,anode,0.029462444555239,0.0309302541691212,0.0277339054123947,2.7387881585374208e-05,critical
1500,1.1111111111111112,2.5316455696202533,anode,0.029206945496551,0.0305767803335779,0.0276107021084618,-2.3607729656018903e-05,critical
1500,1.2121212121212122,2.5316455696202533,anode,0.0289574860691031,0.0302533993266475,0.0274589499823624,1.256181612818052e-05,critical
1500,1.3131313131313131,2.5316455696202533,anode,0.0287392399422893,0.0301488168412986,0.0270837704127276,-4.3853187160684576e-05,critical
1500,1.414141414141414,2.5316455696202533,anode,0.0285761586197285,0.0298694899874557,0.0270777648431968,3.690669428333975e-05,critical
1500,1.5151515151515151,2.5316455696202533,anode,0.0283336820997615,0.0297064614098722,0.0267241592221578,8.795898133190898e-05,critical
1500,1.616161616161616,2.5316455696202533,anode,0.0281358888598932,0.0294263403570644,0.0266377482525917,-1.353494951505694e-05,critical
1500,1.7171717171717171,2.5316455696202533,anode,0.0279472766532888,0.0292703196531281,0.0264030872747733,-2.855673840697804e-05,critical
1500,1.818181818181818,2.5316455696202533,anode,0.028020668862552,0.0294017880894947,0.0263973698474605,-2.221228391409568e-05,critical
1500,1.9191919191919191,2.5316455696202533,anode,0.0277246829967927,0.0290521848538744,0.0261723469448707,1.5485352125651742e-05,critical
1500,2.0202020202020203,2.5316455696202533,anode,0.0277052528868669,0.0290280695287297,0.0261577163769371,-0.0001066155190707,critical
1500,2.121212121212121,2.5316455696202533,anode,0.0274397423477149,0.0287869790866822,0.0258571058583383,4.945499199505312e-05,critical
1500,2.2222222222222223,2.5316455696202533,anode,0.0274326566049461,0.0286913303936597,0.0259713353348897,6.121745663236837e-06,critical
1500,2.323232323232323,2.5316455696202533,anode,0.0273377609100796,0.028714801559335,0.0257115339529116,0.0001032150133212,critical
1500,2.4242424242424243,2.5316455696202533,anode,0.027275355537254,0.0285914343498651,0.0257343547898794,-4.322612941865926e-07,critical
1500,2.525252525252525,2.5316455696202533,anode,0.026977353030519,0.0283064791801183,0.025415217270863,3.0889963175664045e-05,critical
1500,2.6262626262626263,2.5316455696202533,anode,0.0269175532039414,0.0282791325604151,0.0253096796656709,2.027860742551468e-05,critical
1500,2.727272727272727,2.5316455696202533,anode,0.0269893759683862,0.0282997225748096,0.025453323940998,-2.8424422218516623e-05,critical
1500,2.8282828282828283,2.5316455696202533,anode,0.0267886615169405,0.0280418071659142,0.0253260509896861,0.0001514553109036,critical
1500,2.929292929292929,2.5316455696202533,anode,0.0267136238100636,0.0279761975859176,0.0252396910120937,7.883754429751907e-05,critical
1500,3.0303030303030303,2.5316455696202533,anode,0.0267959329952876,0.0280864335184075,0.0252835762789919,-0.0001162355595435,critical
1500,3.131313131313131,2.5316455696202533,anode,0.0265720639368537,0.0277307797623754,0.0252372960213713,4.9067745918856063e-05,critical
1500,3.2323232323232323,2.5316455696202533,anode,0.0265694580027805,0.027855733632675,0.0250624777293393,6.22405742037726e-06,critical
1500,3.333333333333333,2.5316455696202533,anode,0.0264507119658804,0.0277617957875715,0.0249080903291793,3.271840284101271e-05,critical
1500,3.4343434343434343,2.5316455696202533,anode,0.0263995928309379,0.0277115145173567,0.0248543759468288,-8.72944399141355e-05,critical
1500,3.5353535353535355,2.5316455696202533,anode,0.0264238656443374,0.0277449781831759,0.024866194903438,-8.415724133638446e-05,critical
1500,3.636363636363636,2.5316455696202533,anode,0.0264182397910072,0.0276679960106965,0.0249598638658699,1.5588181573977106e-07,critical
1500,3.7373737373737375,2.5316455696202533,anode,0.026254166869331,0.0274717586052889,0.0248375431353241,-6.109418522087136e-05,critical
1500,3.8383838383838382,2.5316455696202533,anode,0.0261657696064398,0.02742821095737,0.024687489730621,-2.750706067213617e-05,critical
1500,3.939393939393939,2.5316455696202533,anode,0.0261665636565002,0.0273313614796643,0.0248204876938982,-4.7767346380259895e-05,critical
1500,4.040404040404041,2.5316455696202533,anode,0.0260713732364667,0.027292859640086,0.0246481105598858,3.822230434704605e-05,critical
1500,4.141414141414141,2.5316455696202533,anode,0.0259751397741725,0.0271588320525797,0.0246023604722878,1.791817578391282e-05,critical
1500,4.242424242424242,2.5316455696202533,anode,0.0259856276337743,0.0272961182706041,0.0244384988914957,-5.971852595597225e-05,critical
1500,4.343434343434343,2.5316455696202533,anode,0.0261555529791381,0.0273218380294322,0.0248076880989047,1.10400540718922e-05,critical
1500,4.444444444444445,2.5316455696202533,anode,0.0260693579180325,0.0272621818959653,0.024684813331319,-4.733720907217506e-05,critical
1500,4.545454545454545,2.5316455696202533,anode,0.0260595753452163,0.027385630902437,0.0244912239445744,7.361213722513211e-05,critical
1500,4.646464646464646,2.5316455696202533,anode,0.0261388267316411,0.0273459100698802,0.0247359108878634,7.583766501381015e-06,critical
1500,4.747474747474747,2.5316455696202533,anode,0.026032793920316,0.0272655281081181,0.0245939997918612,1.7350667974519594e-05,critical
1500,4.848484848484849,2.5316455696202533,anode,0.0259497121929447,0.0271364765426422,0.0245726111619362,-4.85863253260101e-06,critical
1500,4.94949494949495,2.5316455696202533,anode,0.0259250292545848,0.0272047050444239,0.0244205893868548,1.7421978275580926e-05,critical
1500,5.05050505050505,2.5316455696202533,anode,0.0259412813466334,0.0271536572035625,0.0245291670718606,4.295461005538263e-05,critical
1500,5.151515151515151,2.5316455696202533,anode,0.0259808573803755,0.0272612164746375,0.0244760847783721,6.977561331393733e-06,critical
1500,5.252525252525253,2.5316455696202533,anode,0.0259837410364936,0.0272730284577252,0.0244642207435867,-0.0001316674354152,critical
1500,5.353535353535354,2.5316455696202533,anode,0.0259623479855612,0.0272744667453438,0.0244131523717804,1.5060609533472384e-05,critical
1500,5.454545454545454,2.5316455696202533,anode,0.0260241100564991,0.0272317613794622,0.0246182105860105,9.38442241834526e-05,critical
1500,5.555555555555555,2.5316455696202533,anode,0.0261568515338981,0.0275125383634792,0.0245483895628872,4.544023097070724e-05,critical
1500,5.656565656565657,2.5316455696202533,anode,0.0260977151878023,0.0274260459514003,0.0245273528727827,1.7799317982617874e-06,critical
1500,5.757575757575758,2.5316455696202533,anode,0.0261239643069632,0.0274528452765573,0.0245525893775175,6.215440917695531e-05,critical
1500,5.858585858585858,2.5316455696202533,anode,0.0261335817481393,0.0273130543242941,0.0247672777326782,6.611695379860425e-05,critical
1500,5.959595959595959,2.5316455696202533,anode,0.026228593164904,0.0275771653057914,0.0246312535756218,1.356397564507602e-05,critical
1500,6.0606060606060606,2.5316455696202533,anode,0.0262449661151756,0.0275553644288377,0.0247008214686392,5.684368944054773e-05,critical
1500,6.161616161616162,2.5316455696202533,anode,0.0262383659796004,0.0275359703294537,0.024711817005229,6.363289990364253e-05,critical
1500,6.262626262626262,2.5316455696202533,anode,0.0263541562683959,0.0276178028656688,0.0248758758878212,-4.601697691106976e-05,critical
1500,6.363636363636363,2.5316455696202533,anode,0.0263705395981161,0.0276856521244343,0.0248214341631881,3.661827734769114e-05,critical
1500,6.4646464646464645,2.5316455696202533,anode,0.0263238237359339,0.0275675065458381,0.0248724635306399,5.365952762259321e-05,critical
1500,6.565656565656566,2.5316455696202533,anode,0.0265357905217814,0.0279447592627756,0.0248565831297111,-6.194946507080588e-06,critical
1500,6.666666666666667,2.5316455696202533,anode,0.026607605925708,0.0278983948256541,0.0250947771879501,1.1820717374316844e-05,critical
1500,6.767676767676767,2.5316455696202533,anode,0.0265504798889961,0.0278318484446875,0.025049843991553,4.0710452206783664e-05,critical
1500,6.8686868686868685,2.5316455696202533,anode,0.0266114555589565,0.0278344036711913,0.0251911320741555,2.911554154820875e-05,critical
1500,6.96969696969697,2.5316455696202533,anode,0.0266358551690314,0.0279599113124527,0.0250773081526791,-4.75061141691101e-06,critical
1500,7.070707070707071,2.5316455696202533,anode,0.0267204163792101,0.0279088205560747,0.0253467723174593,-7.754572353561e-05,critical
1500,7.171717171717171,2.5316455696202533,anode,0.026784426772643,0.0280810240633912,0.0252653101776955,2.2284404611227527e-05,critical
1500,7.272727272727272,2.5316455696202533,anode,0.0268633078328877,0.028114885777203,0.0254061470455274,-5.513614718582456e-05,critical
1500,7.373737373737374,2.5316455696202533,anode,0.027061302145596,0.0284341951979032,0.0254389918422914,4.309289264385704e-05,critical
1500,7.474747474747475,2.5316455696202533,anode,0.0269773519769444,0.0282940376414189,0.0254325329353574,9.421880679331871e-06,critical
1500,7.575757575757575,2.5316455696202533,anode,0.0272751351825631,0.0284712668920805,0.0258961952469167,-3.88110163595261e-05,critical
1500,7.6767676767676765,2.5316455696202533,anode,0.0274110844820514,0.0286538343445278,0.0259710390678016,-1.0178102173721017e-05,critical
1500,7.777777777777778,2.5316455696202533,anode,0.0274776988976459,0.0287643034532895,0.0259788480521519,2.384798362561284e-05,critical
1500,7.878787878787879,2.5316455696202533,anode,0.0275248436930948,0.0288680534845572,0.0259489256965326,-1.5688766478181437e-05,critical
1500,7.979797979797979,2.5316455696202533,anode,0.0275937351527172,0.0289648772884257,0.0259794672053384,-5.6174409337155454e-05,critical
1500,8.080808080808081,2.5316455696202533,anode,0.0277894350400554,0.0290682069065067,0.0263040738315485,-1.5884900101045822e-06,critical
1500,8.181818181818182,2.5316455696202533,anode,0.0281189629399296,0.0296420155964572,0.0262962737677073,-5.010416284332133e-05,critical
1500,8.282828282828282,2.5316455696202533,anode,0.0279265141262692,0.0293785517729055,0.0262023526906888,7.017962551108044e-05,critical
1500,8.383838383838384,2.5316455696202533,anode,0.0282395938590931,0.0296407267571894,0.0265902954144206,6.794404019550732e-05,critical
1500,8.484848484848484,2.5316455696202533,anode,0.028265010488829,0.0296507525601806,0.0266375066827582,-5.491734756523293e-05,critical
1500,8.585858585858587,2.5316455696202533,anode,0.0285549685118383,0.0298648263132353,0.0270342604356949,-1.4504093511476156e-05,critical
1500,8.686868686868687,2.5316455696202533,anode,0.0287461429811472,0.0301207032930409,0.0271382673392904,8.585581002783513e-05,critical
1500,8.787878787878787,2.5316455696202533,anode,0.0290990866783829,0.030462896688306,0.0275101199949405,-2.0021977157957463e-06,critical
1500,8.88888888888889,2.5316455696202533,anode,0.0292048865643763,0.0305419440408437,0.0276531012587062,-1.310749141808153e-05,critical
1500,8.98989898989899,2.5316455696202533,anode,0.0294351369569081,0.0310042449070538,0.0275626794052349,8.727732450392304e-05,critical
1500,9.09090909090909,2.5316455696202533,anode,0.0295617528688975,0.0308910230902777,0.0280232070392353,-4.9423565576962086e-05,critical
1500,9.191919191919192,2.5316455696202533,anode,0.0298956319537628,0.0313224154609664,0.0282281644371769,-6.488833754647348e-06,critical
1500,9.292929292929292,2.5316455696202533,anode,0.030083942342238,0.0315159828521773,0.0284106402589879,-6.105464324095563e-05,critical
1500,9.393939393939394,2.5316455696202533,anode,0.0302260983683852,0.0316779827198409,0.0285271097805429,-5.0766198258364405e-05,critical
1500,9.494949494949497,2.5316455696202533,anode,0.0306527741161371,0.0322483296645932,0.0287584539735331,-2.020143021818808e-05,critical
1500,9.595959595959595,2.5316455696202533,anode,0.0310246622945837,0.0325588655915087,0.0292199196141736,-6.751528427038145e-05,critical
1500,9.696969696969695,2.5316455696202533,anode,0.0312776328496924,0.0327982083376045,0.0294946382134365,-4.263077254047004e-05,critical
1500,9.797979797979798,2.5316455696202533,anode,0.0316301977279503,0.0332814574551847,0.029668414278182,4.919264253480175e-05,critical
1500,9.8989898989899,2.5316455696202533,anode,0.0318529016473721,0.0334453978159587,0.029976318146986,-3.132689895200039e-05,critical
1500,10.0,2.5316455696202533,anode,0.0323313391030069,0.033852024143744,0.0305585381428636,-4.730957985574424e-06,critical
1500,0.0,2.632911392405063,anode,0.0323135744741359,0.0338000383727035,0.030587061232358,-3.153263375735472e-06,critical
1500,0.101010101010101,2.632911392405063,anode,0.0320446015091486,0.0336278394631473,0.0301828932664601,-3.337805780771341e-05,critical
1500,0.202020202020202,2.632911392405063,anode,0.0314986058510839,0.0329999203947605,0.0297444267904124,8.479044674266048e-06,critical
1500,0.303030303030303,2.632911392405063,anode,0.0312423530028265,0.0328034375879526,0.0294028758443401,-4.2419786926599074e-05,critical
1500,0.404040404040404,2.632911392405063,anode,0.0309159365038236,0.0323481874817278,0.0292504540896822,1.2808263699555285e-06,critical
1500,0.5050505050505051,2.632911392405063,anode,0.0306891523330619,0.0321761716944951,0.0289467231051903,1.8735250349595504e-07,critical
1500,0.6060606060606061,2.632911392405063,anode,0.0302967311623047,0.0317805675263108,0.0285546893857631,-2.1564834235251977e-05,critical
1500,0.7070707070707071,2.632911392405063,anode,0.0300927275186377,0.031643152737199,0.0282556153081568,-5.4405350661349965e-06,critical
1500,0.8080808080808081,2.632911392405063,anode,0.0299501543542948,0.0314198423799449,0.0282241288373248,-2.222175806520653e-05,critical
1500,0.9090909090909092,2.632911392405063,anode,0.0295920273088161,0.0309011432630378,0.0280809616787411,-1.6696093983036872e-05,critical
1500,1.0101010101010102,2.632911392405063,anode,0.0293533312774807,0.0307941813581001,0.0276601042017079,9.192803701352684e-05,critical
1500,1.1111111111111112,2.632911392405063,anode,0.0292084980016564,0.0306524298883445,0.027510461149236,2.5208346818201277e-05,critical
1500,1.2121212121212122,2.632911392405063,anode,0.0288934914715414,0.0301799831447843,0.0274069400017848,-3.21135439687405e-05,critical
1500,1.3131313131313131,2.632911392405063,anode,0.0287961995448999,0.0299952996863125,0.0274246679862429,-2.4670139261349074e-05,critical
1500,1.414141414141414,2.632911392405063,anode,0.0284987103029792,0.0299620114145095,0.0267658966535596,-2.031677826805173e-05,critical
1500,1.5151515151515151,2.632911392405063,anode,0.0282682093376575,0.0296361586838074,0.0266656310556896,-1.5826117002542336e-05,critical
1500,1.616161616161616,2.632911392405063,anode,0.0282473163154811,0.0296413233579499,0.0266084502828369,-3.098951218067036e-05,critical
1500,1.7171717171717171,2.632911392405063,anode,0.0280638009207666,0.0294404029706673,0.0264469052389293,5.274431840715919e-05,critical
1500,1.818181818181818,2.632911392405063,anode,0.0279546266726122,0.0292674363130042,0.0264245546239333,8.297622148204977e-06,critical
1500,1.9191919191919191,2.632911392405063,anode,0.0278073105731781,0.0291417875716006,0.0262459171632134,5.0044309764158494e-05,critical
1500,2.0202020202020203,2.632911392405063,anode,0.0275753582448746,0.0288860549799451,0.026043854093731,-7.762133383316532e-05,critical
1500,2.121212121212121,2.632911392405063,anode,0.0275048110129065,0.0288637791345245,0.0259066526571691,4.520855838514196e-05,critical
1500,2.2222222222222223,2.632911392405063,anode,0.0273004577845838,0.0286514087434029,0.0257108555255923,7.282676875270979e-05,critical
1500,2.323232323232323,2.632911392405063,anode,0.0272277892773978,0.0284989486520679,0.0257474615633184,4.561695854162703e-05,critical
1500,2.4242424242424243,2.632911392405063,anode,0.0272005392196607,0.0284936391059613,0.0256897484961704,6.610324207299908e-05,critical
1500,2.525252525252525,2.632911392405063,anode,0.027191022456634,0.0284925098187841,0.0256681833190655,-8.928757162501115e-05,critical
1500,2.6262626262626263,2.632911392405063,anode,0.0271038431271791,0.0283109376880484,0.0257089274051683,3.657392624815172e-05,critical
1500,2.727272727272727,2.632911392405063,anode,0.0268589103834351,0.0281327824285081,0.0253716255436794,-2.9767794936604208e-05,critical
1500,2.8282828282828283,2.632911392405063,anode,0.0269229397126912,0.0282406373596239,0.0253758330843339,5.1249079544293546e-05,critical
1500,2.929292929292929,2.632911392405063,anode,0.0267996383844761,0.0281130723838545,0.0252565067628958,-8.688613860028268e-05,critical
1500,3.0303030303030303,2.632911392405063,anode,0.0266866775815152,0.0280337086169666,0.02509666196193,1.691806679052435e-06,critical
1500,3.131313131313131,2.632911392405063,anode,0.0266970381389103,0.0279962939750132,0.0251727938880488,7.01303241936641e-05,critical
1500,3.2323232323232323,2.632911392405063,anode,0.0264808783784683,0.0278170840285403,0.0249035170535476,4.008612702932472e-05,critical
1500,3.333333333333333,2.632911392405063,anode,0.0264940333085836,0.0277058438076129,0.0250877342272289,-2.861931124612553e-05,critical
1500,3.4343434343434343,2.632911392405063,anode,0.0263895593830617,0.0277001543692539,0.0248470739903444,-1.8180821473005537e-05,critical
1500,3.5353535353535355,2.632911392405063,anode,0.0263981857387496,0.0276405186731257,0.024949740271298,-7.303682382033039e-06,critical
1500,3.636363636363636,2.632911392405063,anode,0.0263270026165654,0.0277077458102105,0.0246852228807189,3.4356299693218654e-05,critical
1500,3.7373737373737375,2.632911392405063,anode,0.0263445060288906,0.0276757875176955,0.0247727438041385,-6.864152923799235e-06,critical
1500,3.8383838383838382,2.632911392405063,anode,0.0261496557533497,0.0274922670794383,0.0245594092662925,-5.477896318101585e-05,critical
1500,3.939393939393939,2.632911392405063,anode,0.0261114223115653,0.0273652481718839,0.024643502616206,-8.739059085417954e-05,critical
1500,4.040404040404041,2.632911392405063,anode,0.0261523105603154,0.0274874099627845,0.0245728806916643,3.661162203082713e-05,critical
1500,4.141414141414141,2.632911392405063,anode,0.0262135643121432,0.0274668379812864,0.0247481128369509,-4.85863537098824e-05,critical
1500,4.242424242424242,2.632911392405063,anode,0.0262148462169083,0.027529290732304,0.024664809022383,5.230766591464557e-05,critical
1500,4.343434343434343,2.632911392405063,anode,0.0261146193523393,0.0273844720798178,0.0246257210106847,-9.433869048409422e-06,critical
1500,4.444444444444445,2.632911392405063,anode,0.0259988308294737,0.0272023544383949,0.0245994791068485,1.2843203622703136e-05,critical
1500,4.545454545454545,2.632911392405063,anode,0.0261998739949802,0.0274581661668,0.024727635472404,2.630441329666104e-05,critical
1500,4.646464646464646,2.632911392405063,anode,0.0259199834198459,0.0272623185368585,0.0243278353847613,1.9592035162234288e-05,critical
1500,4.747474747474747,2.632911392405063,anode,0.0260268953655516,0.0273251288574289,0.024497585544296,3.915562095047586e-05,critical
1500,4.848484848484849,2.632911392405063,anode,0.0259760490770948,0.0271451118251657,0.0246228629533709,3.171728964091245e-05,critical
1500,4.94949494949495,2.632911392405063,anode,0.0260476806213251,0.0273588812852895,0.0245001618167843,6.421353740813762e-05,critical
1500,5.05050505050505,2.632911392405063,anode,0.0259477671724754,0.0272364002474346,0.0244311505459561,-1.4148902869496135e-05,critical
1500,5.151515151515151,2.632911392405063,anode,0.025964945954705,0.0272436208428679,0.0244615873357652,-7.415615466427557e-05,critical
1500,5.252525252525253,2.632911392405063,anode,0.0260368802174882,0.027310444529891,0.0245411159985335,8.399159812546093e-05,critical
1500,5.353535353535354,2.632911392405063,anode,0.0260979629981587,0.0273029086719261,0.0246958287278232,-0.0001137987771354,critical
1500,5.454545454545454,2.632911392405063,anode,0.0261734190911173,0.0274230155259194,0.0247119923100971,8.340912489301939e-05,critical
1500,5.555555555555555,2.632911392405063,anode,0.0259865982368192,0.0272568002218122,0.0244954069444372,-6.213333246265751e-05,critical
1500,5.656565656565657,2.632911392405063,anode,0.0261984314428223,0.0273720892629054,0.0248406079612788,-5.79483183898612e-05,critical
1500,5.757575757575758,2.632911392405063,anode,0.0260946549481878,0.0272938962431411,0.0247017727058882,-3.782052543637897e-05,critical
1500,5.858585858585858,2.632911392405063,anode,0.0259891115290394,0.0272299126557405,0.0245387596596068,-3.332371001373268e-05,critical
1500,5.959595959595959,2.632911392405063,anode,0.0261339800735392,0.0274914292339434,0.0245224249383096,-6.68783483263199e-05,critical
1500,6.0606060606060606,2.632911392405063,anode,0.0262542657851238,0.0276336831163097,0.0246136278375847,-1.349101890405616e-05,critical
1500,6.161616161616162,2.632911392405063,anode,0.0261352706682804,0.0273138805105797,0.0247707005867579,-1.475115016533071e-05,critical
1500,6.262626262626262,2.632911392405063,anode,0.0263225758395861,0.0276332398527384,0.0247793271571177,5.490429008157681e-06,critical
1500,6.363636363636363,2.632911392405063,anode,0.0265084491474861,0.027866400135925,0.0249002440230613,-8.089229501011596e-05,critical
1500,6.4646464646464645,2.632911392405063,anode,0.0262886475919468,0.0275459199968107,0.0248186660087671,2.6391875062316277e-05,critical
1500,6.565656565656566,2.632911392405063,anode,0.0265523024000711,0.0277897059878293,0.0251109486070787,-8.783084820042663e-05,critical
1500,6.666666666666667,2.632911392405063,anode,0.0265160642258225,0.0277474078016662,0.0250835553178189,2.525505278140731e-05,critical
1500,6.767676767676767,2.632911392405063,anode,0.0265932498205253,0.0278560501154349,0.0251185913086402,-2.896535495611904e-05,critical
1500,6.8686868686868685,2.632911392405063,anode,0.0266759467552672,0.0280672852471624,0.0250227207493054,7.510299016454298e-05,critical
1500,6.96969696969697,2.632911392405063,anode,0.02675627225155,0.0281318516949966,0.0251269819934003,1.0518147882785776e-05,critical
1500,7.070707070707071,2.632911392405063,anode,0.0268256590326403,0.0281317905516389,0.0252937775483934,2.835770167189257e-05,critical
1500,7.171717171717171,2.632911392405063,anode,0.0269580984014146,0.0282992327326824,0.0253786192298849,-6.74145557588688e-05,critical
1500,7.272727272727272,2.632911392405063,anode,0.0268895329101556,0.0281702146007133,0.0253923633535244,8.601877075410427e-05,critical
1500,7.373737373737374,2.632911392405063,anode,0.0269924563777666,0.0283114424094142,0.0254439528388661,7.11791238657247e-05,critical
1500,7.474747474747475,2.632911392405063,anode,0.0270536713466429,0.0282768895087303,0.0256368148263386,-2.421296763349925e-05,critical
1500,7.575757575757575,2.632911392405063,anode,0.0271678897724126,0.0284262265299562,0.0257032565470629,0.0001050015775052,critical
1500,7.6767676767676765,2.632911392405063,anode,0.027263677099792,0.0286138151661823,0.0256751513527303,-5.2627060368057866e-05,critical
1500,7.777777777777778,2.632911392405063,anode,0.0272747801205622,0.0285993563596984,0.0257219984624101,-2.477798651004769e-05,critical
1500,7.878787878787879,2.632911392405063,anode,0.0275597283093104,0.0289514284007682,0.0259164559977729,-5.521707126848411e-05,critical
1500,7.979797979797979,2.632911392405063,anode,0.0276813661109326,0.0291361603342011,0.0259505591171521,5.866132716063083e-05,critical
1500,8.080808080808081,2.632911392405063,anode,0.0277427142446426,0.0289914098391493,0.0262974444105831,-1.586715819033999e-05,critical
1500,8.181818181818182,2.632911392405063,anode,0.0278614163403251,0.0292106887651591,0.0262805046973893,-1.730617601262e-05,critical
1500,8.282828282828282,2.632911392405063,anode,0.0279632136142277,0.0291877185994115,0.0265517067523779,5.480922892874457e-05,critical
1500,8.383838383838384,2.632911392405063,anode,0.0283054771346083,0.029670179865658,0.0267077077925266,2.0824905369187284e-05,critical
1500,8.484848484848484,2.632911392405063,anode,0.0282438011660047,0.0296478962456301,0.0265905856244844,-5.840195597002443e-05,critical
1500,8.585858585858587,2.632911392405063,anode,0.028575142047446,0.0301004640931245,0.0267553219891392,-1.96511389772386e-05,critical
1500,8.686868686868687,2.632911392405063,anode,0.0287966943229487,0.0301204474266816,0.0272592101441045,-3.326210944860394e-05,critical
1500,8.787878787878787,2.632911392405063,anode,0.0289649865254315,0.0303206717352515,0.0273852037930196,7.233663765984153e-05,critical
1500,8.88888888888889,2.632911392405063,anode,0.0291842239898389,0.0305777656920123,0.0275549360851437,-6.595904545615247e-05,critical
1500,8.98989898989899,2.632911392405063,anode,0.0292568199037718,0.030675136215306,0.0275926428178116,0.0001312356144288,critical
1500,9.09090909090909,2.632911392405063,anode,0.0296179153648745,0.0310118348473709,0.0279923185711189,-5.851351919533663e-05,critical
1500,9.191919191919192,2.632911392405063,anode,0.029815369725507,0.0313402698988554,0.0280108960234017,2.8867420729673472e-05,critical
1500,9.292929292929292,2.632911392405063,anode,0.0299331377214489,0.0313013178516952,0.0283452432971076,-6.024132730093556e-05,critical
1500,9.393939393939394,2.632911392405063,anode,0.0304825398555379,0.0319969926953049,0.0287000471807381,7.880809012963469e-06,critical
1500,9.494949494949497,2.632911392405063,anode,0.0307540839056254,0.0321776505495372,0.0290987018680956,4.431604131076631e-05,critical
1500,9.595959595959595,2.632911392405063,anode,0.0309170758740108,0.0324422388348504,0.0291242630565797,-1.03176803009099e-05,critical
1500,9.696969696969695,2.632911392405063,anode,0.0312657530280529,0.0326992889232393,0.0296005657710216,-9.621988554953276e-05,critical
1500,9.797979797979798,2.632911392405063,anode,0.0315331085650129,0.0330239982121571,0.029793351186926,-3.776788779214253e-05,critical
1500,9.8989898989899,2.632911392405063,anode,0.031888473936488,0.0335092193517883,0.0299728272146219,2.9770915596079007e-05,critical
1500,10.0,2.632911392405063,anode,0.0322673786356763,0.0337982615789494,0.0304798114064007,-4.821369042645421e-05,critical
1500,0.0,2.7341772151898733,anode,0.0322796328520644,0.0337783975339566,0.0305357477677422,6.135270252942843e-05,critical
1500,0.101010101010101,2.7341772151898733,anode,0.0318540524129346,0.0333742020665889,0.0300774871369792,-8.009038620355583e-06,critical
1500,0.202020202020202,2.7341772151898733,anode,0.0316083571036631,0.0330750756590382,0.0299023209089893,1.064022346560202e-05,critical
1500,0.303030303030303,2.7341772151898733,anode,0.031174633551662,0.0326278794628756,0.0294828877806568,-2.997595940831284e-05,critical
1500,0.404040404040404,2.7341772151898733,anode,0.030981954190621,0.0324850733630742,0.0292202576705199,-9.125945004050993e-06,critical
1500,0.5050505050505051,2.7341772151898733,anode,0.0305849548387384,0.0320447460885106,0.0288788447476617,2.068751109904368e-05,critical
1500,0.6060606060606061,2.7341772151898733,anode,0.0304328468972037,0.031911722370369,0.028699053451608,-1.5304105876743917e-05,critical
1500,0.7070707070707071,2.7341772151898733,anode,0.0300007917061362,0.0314449250973189,0.0283104358724781,-3.1330559123750886e-05,critical
1500,0.8080808080808081,2.7341772151898733,anode,0.0298233186218141,0.031259119562209,0.0281421971656142,-7.029093979961017e-05,critical
1500,0.9090909090909092,2.7341772151898733,anode,0.0295398133482265,0.0309103697504738,0.0279455417829631,-3.335856922920379e-05,critical
1500,1.0101010101010102,2.7341772151898733,anode,0.0293754773048884,0.0308063202827506,0.0276972257337057,-2.9388653883556944e-05,critical
1500,1.1111111111111112,2.7341772151898733,anode,0.0291078191292494,0.0305347493763781,0.0274323195175099,1.881623418843022e-05,critical
1500,1.2121212121212122,2.7341772151898733,anode,0.02899457987368,0.0303484654089554,0.0274177860867668,5.491847693126896e-05,critical
1500,1.3131313131313131,2.7341772151898733,anode,0.0288176680076669,0.0302557811466179,0.027123358724142,5.004547408555301e-05,critical
1500,1.414141414141414,2.7341772151898733,anode,0.0286754610691551,0.0299731483245389,0.0271721733071112,-1.8490053703251377e-05,critical
1500,1.5151515151515151,2.7341772151898733,anode,0.0285074757592189,0.0299340438945201,0.0268260774248378,-3.53054900952826e-05,critical
1500,1.616161616161616,2.7341772151898733,anode,0.0281790192061896,0.029420529486856,0.0267469072369441,1.5214476250797271e-05,critical
1500,1.7171717171717171,2.7341772151898733,anode,0.027993544826795,0.0293868013435319,0.0263531776046105,5.289704789904246e-06,critical
1500,1.818181818181818,2.7341772151898733,anode,0.0279821728347144,0.0292497937816576,0.0265126386484667,-8.319706208718806e-05,critical
1500,1.9191919191919191,2.7341772151898733,anode,0.0277479174772367,0.028942095824542,0.0263749607751346,5.802252195658504e-05,critical
1500,2.0202020202020203,2.7341772151898733,anode,0.0277169744259156,0.0290943627088914,0.0260955209733755,-4.109864277690855e-05,critical
1500,2.121212121212121,2.7341772151898733,anode,0.027635873113536,0.0289569444568607,0.0260912769222703,-4.387741220109215e-05,critical
1500,2.2222222222222223,2.7341772151898733,anode,0.0274719324666234,0.0287747342465557,0.025950810467616,-4.0221275744371536e-05,critical
1500,2.323232323232323,2.7341772151898733,anode,0.027264221350449,0.0285016856499556,0.0258286777645696,-0.0001031831562185,critical
1500,2.4242424242424243,2.7341772151898733,anode,0.0272605508496822,0.0286734717531641,0.025584473259089,-4.066843278554992e-06,critical
1500,2.525252525252525,2.7341772151898733,anode,0.0271790682828389,0.0285306427635389,0.0255879094923086,-2.9262187138351323e-05,critical
1500,2.6262626262626263,2.7341772151898733,anode,0.0269384022878867,0.028204214391263,0.0254629697107852,-3.590011546777944e-06,critical
1500,2.727272727272727,2.7341772151898733,anode,0.0269083642059935,0.0282352579019102,0.0253485540120863,-3.671930967789644e-05,critical
1500,2.8282828282828283,2.7341772151898733,anode,0.0269232567684049,0.0282267877251517,0.0253959335813682,2.824624312962085e-05,critical
1500,2.929292929292929,2.7341772151898733,anode,0.0266956623647395,0.0279672212643231,0.0252097692499921,5.0506909666761534e-05,critical
1500,3.0303030303030303,2.7341772151898733,anode,0.026640555372185,0.0280585434671018,0.0249496045691695,-3.708178498486028e-05,critical
1500,3.131313131313131,2.7341772151898733,anode,0.0266147562313626,0.0278514794810854,0.0251755995597415,-4.906233870586733e-05,critical
1500,3.2323232323232323,2.7341772151898733,anode,0.0265300622781882,0.0279238509371788,0.0248723843949795,8.423706933726957e-07,critical
1500,3.333333333333333,2.7341772151898733,anode,0.026522109608936,0.0277924116228996,0.0250363539525805,-4.393039783483597e-05,critical
1500,3.4343434343434343,2.7341772151898733,anode,0.0264685287551795,0.0277740098230743,0.0249339876356983,-1.2528855749170248e-05,critical
1500,3.5353535353535355,2.7341772151898733,anode,0.0264153077125855,0.0277305022427004,0.0248667084324643,1.6858311546946397e-05,critical
1500,3.636363636363636,2.7341772151898733,anode,0.026300353573373,0.02752763986462,0.0248712554120869,-4.186390595475222e-05,critical
1500,3.7373737373737375,2.7341772151898733,anode,0.0262342260560765,0.0274757836992077,0.0247852084682579,-2.825405163101459e-05,critical
1500,3.8383838383838382,2.7341772151898733,anode,0.0262499060135277,0.0274999918589302,0.024789454892573,-1.578332426245214e-05,critical
1500,3.939393939393939,2.7341772151898733,anode,0.026241685141019,0.0275303421436155,0.0247276641358426,-5.768001666908284e-05,critical
1500,4.040404040404041,2.7341772151898733,anode,0.0260388008366925,0.0272811357544451,0.0245869099490695,-2.2122535299430388e-05,critical
1500,4.141414141414141,2.7341772151898733,anode,0.026029094313315,0.0272577608759599,0.0245955285715014,-4.910366150186009e-05,critical
1500,4.242424242424242,2.7341772151898733,anode,0.0260918562378723,0.0272939430540581,0.0246952857097086,8.565044698747677e-06,critical
1500,4.343434343434343,2.7341772151898733,anode,0.0261271243116399,0.0273092662397167,0.024757763650961,-5.781908126584056e-06,critical
1500,4.444444444444445,2.7341772151898733,anode,0.0260639414778258,0.0274258196308675,0.0244457855736042,-3.0202100074324885e-05,critical
1500,4.545454545454545,2.7341772151898733,anode,0.0261700139786326,0.0274349942794387,0.0246870629094258,-9.844648509942134e-05,critical
1500,4.646464646464646,2.7341772151898733,anode,0.0260986162148247,0.0273648094160275,0.0246143392418381,4.464637072763319e-05,critical
1500,4.747474747474747,2.7341772151898733,anode,0.0259869413859714,0.0271584242414456,0.0246304774231055,-4.340643389552123e-05,critical
1500,4.848484848484849,2.7341772151898733,anode,0.0259833875059347,0.0272460886132477,0.0245029926097245,1.951635816561697e-05,critical
1500,4.94949494949495,2.7341772151898733,anode,0.0260411771276478,0.0273425523905782,0.0245068629788319,8.482693401635843e-05,critical
1500,5.05050505050505,2.7341772151898733,anode,0.0260121235661561,0.0272198394005375,0.024607228740936,2.8012938539339337e-06,critical
1500,5.151515151515151,2.7341772151898733,anode,0.0259421121409557,0.0272162331710771,0.024445220747353,5.113610295520271e-05,critical
1500,5.252525252525253,2.7341772151898733,anode,0.0260259087691331,0.0272508194311765,0.0245976363875059,-3.054704762366317e-05,critical
1500,5.353535353535354,2.7341772151898733,anode,0.0260669100951627,0.0273629951176874,0.0245408626331983,-5.120460019677591e-05,critical
1500,5.454545454545454,2.7341772151898733,anode,0.0261041387086364,0.0272461871558315,0.0247881333691966,2.522089672641745e-05,critical
1500,5.555555555555555,2.7341772151898733,anode,0.0261741492328639,0.0273765169054223,0.0247778543508892,-2.3752015272760215e-05,critical
1500,5.656565656565657,2.7341772151898733,anode,0.0260988173216595,0.0274201121833368,0.0245381354583927,-3.673648139090796e-05,critical
1500,5.757575757575758,2.7341772151898733,anode,0.0261445717756787,0.0273893162857531,0.0246901254957611,-4.948425507732317e-05,critical
1500,5.858585858585858,2.7341772151898733,anode,0.0260856035561043,0.0274132883916067,0.0245160115095534,1.394229097452221e-06,critical
1500,5.959595959595959,2.7341772151898733,anode,0.0261451675502538,0.0274379573092383,0.0246245972815871,-4.524973769643783e-05,critical
1500,6.0606060606060606,2.7341772151898733,anode,0.0263146440584499,0.0277171131719681,0.0246419327164392,1.3155623315189096e-05,critical
1500,6.161616161616162,2.7341772151898733,anode,0.02620754901842,0.0274388611993677,0.0247722692253941,2.617841523755828e-05,critical
1500,6.262626262626262,2.7341772151898733,anode,0.0262386332152082,0.0274530457185818,0.0248266706959323,-1.002641548161648e-05,critical
1500,6.363636363636363,2.7341772151898733,anode,0.0263257588705299,0.0276755111319743,0.0247278156278262,2.4046113986780823e-05,critical
1500,6.4646464646464645,2.7341772151898733,anode,0.026364536600499,0.0275179535504819,0.0250355213815852,1.4370478204733769e-06,critical
1500,6.565656565656566,2.7341772151898733,anode,0.0264527338396173,0.027714777895974,0.0249768174646945,8.897880663619386e-05,critical
1500,6.666666666666667,2.7341772151898733,anode,0.0264015903548565,0.0277933010106364,0.0247447041123109,-6.587969992437072e-05,critical
1500,6.767676767676767,2.7341772151898733,anode,0.0265597704472226,0.0279414688943299,0.024919123360535,5.751356694729134e-05,critical
1500,6.8686868686868685,2.7341772151898733,anode,0.0267068129950005,0.0279294084230953,0.0252857934460065,-0.000126369494335,critical
1500,6.96969696969697,2.7341772151898733,anode,0.0266736781649832,0.0278772392995292,0.0252800751153466,-1.9506827111121583e-05,critical
1500,7.070707070707071,2.7341772151898733,anode,0.0266896984274843,0.0279535757293668,0.0252144805553589,-2.868272949220889e-05,critical
1500,7.171717171717171,2.7341772151898733,anode,0.0268689954121107,0.0280839614450713,0.0254616756175754,-2.4597588226827587e-05,critical
1500,7.272727272727272,2.7341772151898733,anode,0.0268834768871171,0.0281845070373257,0.0253591471653394,3.4686173236075814e-05,critical
1500,7.373737373737374,2.7341772151898733,anode,0.0270424387485401,0.0283788874635204,0.0254705491768591,5.541706938566431e-05,critical
1500,7.474747474747475,2.7341772151898733,anode,0.0270570031835235,0.0283852130315519,0.0254968750269574,3.956246272972492e-05,critical
1500,7.575757575757575,2.7341772151898733,anode,0.0271960974306629,0.0284271581092878,0.0257699249048365,-1.9126081742067555e-05,critical
1500,7.6767676767676765,2.7341772151898733,anode,0.0273717237100464,0.0287520578781762,0.0257425952065503,-2.453551176697325e-05,critical
1500,7.777777777777778,2.7341772151898733,anode,0.027541308800042,0.0288952726949214,0.0259507237579197,-5.239631259559281e-06,critical
1500,7.878787878787879,2.7341772151898733,anode,0.0275975905322919,0.028935554748528,0.0260296645568394,2.6777883492801883e-06,critical
1500,7.979797979797979,2.7341772151898733,anode,0.0276134165366521,0.029010120755775,0.0259641358275816,-3.3149351642098934e-06,critical
1500,8.080808080808081,2.7341772151898733,anode,0.0278455819552811,0.029156735271363,0.0263165585854706,4.040994641023255e-05,critical
1500,8.181818181818182,2.7341772151898733,anode,0.027902992393233,0.029335359830526,0.0262066354902584,4.825779824368983e-05,critical
1500,8.282828282828282,2.7341772151898733,anode,0.0281325697746033,0.0294543844992307,0.0265917130235444,-3.676164913691071e-05,critical
1500,8.383838383838384,2.7341772151898733,anode,0.0283198152645812,0.0296908837024302,0.0267126770239097,8.00722643227265e-05,critical
1500,8.484848484848484,2.7341772151898733,anode,0.0284724972751688,0.0299092293658538,0.0267766914163997,5.826603954756106e-06,critical
1500,8.585858585858587,2.7341772151898733,anode,0.028540514451783,0.0298912678815861,0.0269641545689357,8.274595422515997e-06,critical
1500,8.686868686868687,2.7341772151898733,anode,0.0288223535220791,0.0303117576606463,0.027055950774647,-6.918794044870653e-05,critical
1500,8.787878787878787,2.7341772151898733,anode,0.0289144159964086,0.030337442085769,0.0272415202176475,-8.302262476792356e-05,critical
1500,8.88888888888889,2.7341772151898733,anode,0.0292349511768894,0.0306707613113106,0.0275483811518264,3.311411627918292e-05,critical
1500,8.98989898989899,2.7341772151898733,anode,0.0293349188592508,0.0306804857975737,0.0277727786720436,-1.0987025334694742e-05,critical
1500,9.09090909090909,2.7341772151898733,anode,0.0296220699889101,0.0309806782871375,0.0280443318593662,6.449023507235882e-05,critical
1500,9.191919191919192,2.7341772151898733,anode,0.0298052267589024,0.03128283134475,0.0280667774716032,-9.549865969365936e-06,critical
1500,9.292929292929292,2.7341772151898733,anode,0.0300900669922891,0.0315169424196771,0.0284242137608533,-3.0836222882690515e-05,critical
1500,9.393939393939394,2.7341772151898733,anode,0.0303892689279248,0.0319714427215815,0.0285106112992609,-4.056159275837936e-05,critical
1500,9.494949494949497,2.7341772151898733,anode,0.0305357622172547,0.0319630901533164,0.0288735358040707,2.318457255206974e-07,critical
1500,9.595959595959595,2.7341772151898733,anode,0.0310769306892384,0.032526745261018,0.0293889988182413,2.3736661348190253e-05,critical
1500,9.696969696969695,2.7341772151898733,anode,0.0312966816441329,0.0328217556058605,0.0295078541586967,1.59319655352519e-05,critical
1500,9.797979797979798,2.7341772151898733,anode,0.0315670903560504,0.0330194346634147,0.0298800215475922,-3.5868291978919296e-05,critical
1500,9.8989898989899,2.7341772151898733,anode,0.0319403153799768,0.0335187846204756,0.0300842073495263,2.12831369667548e-05,critical
1500,10.0,2.7341772151898733,anode,0.0323558679498925,0.0339000479252284,0.0305510134869192,4.218116103833662e-05,critical
1500,0.0,2.835443037974684,anode,0.0321730517432128,0.0337733985816844,0.0302881545682644,-9.021474512237714e-05,critical
1500,0.101010101010101,2.835443037974684,anode,0.0318707486954326,0.0333488724077471,0.0301516072805288,2.1623166021573947e-06,critical
1500,0.202020202020202,2.835443037974684,anode,0.0316183940795513,0.0331240045117882,0.0298587501862252,8.079289225999966e-05,critical
1500,0.303030303030303,2.835443037974684,anode,0.0312093798426655,0.0327487846346878,0.0293981442962896,-0.0001226149363015,critical
1500,0.404040404040404,2.835443037974684,anode,0.0308869785038167,0.0323494315174687,0.0291800337953555,-3.084495648163246e-05,critical
1500,0.5050505050505051,2.835443037974684,anode,0.0305523633066268,0.0321001533009751,0.0287241066666112,-1.812283029412357e-05,critical
1500,0.6060606060606061,2.835443037974684,anode,0.0304469247927364,0.0318366365655283,0.0288335416824602,-0.0001059292473593,critical
1500,0.7070707070707071,2.835443037974684,anode,0.0301328269779038,0.0315618791104953,0.028464490401012,-1.4604611818966618e-05,critical
1500,0.8080808080808081,2.835443037974684,anode,0.0297923712747955,0.0312181813219028,0.0281252477678332,-4.606723716646457e-06,critical
1500,0.9090909090909092,2.835443037974684,anode,0.029572539655083,0.0309564087944375,0.0279606065839644,1.0053416330641925e-05,critical
1500,1.0101010101010102,2.835443037974684,anode,0.0294209318538185,0.0307662453426244,0.0278597148205222,3.868732517004628e-05,critical
1500,1.1111111111111112,2.835443037974684,anode,0.0291753647876495,0.0306562665927585,0.0274255217180253,-5.562179825945417e-06,critical
1500,1.2121212121212122,2.835443037974684,anode,0.0288970237024986,0.0303566225465183,0.0271739029425898,1.09550842233855e-05,critical
1500,1.3131313131313131,2.835443037974684,anode,0.0287302302166557,0.0301124431007485,0.0271126168815692,3.5495593044372605e-06,critical
1500,1.414141414141414,2.835443037974684,anode,0.0285950175367557,0.0300320909360311,0.0269000294963305,-1.903548958768533e-05,critical
1500,1.5151515151515151,2.835443037974684,anode,0.0283942473826467,0.029722120077623,0.0268476914403323,1.4556093031952533e-05,critical
1500,1.616161616161616,2.835443037974684,anode,0.0282299353354063,0.0296654397554399,0.0265324088077043,7.700880923549379e-05,critical
1500,1.7171717171717171,2.835443037974684,anode,0.0280550983745419,0.0293944504691324,0.0264892385412415,6.239175614966603e-05,critical
1500,1.818181818181818,2.835443037974684,anode,0.0279597915067121,0.0291683853333994,0.0265691081473724,-7.237587464895221e-05,critical
1500,1.9191919191919191,2.835443037974684,anode,0.0276985246809259,0.0289665697525553,0.0262266873260197,3.717517548039607e-05,critical
1500,2.0202020202020203,2.835443037974684,anode,0.0276498671326225,0.0289811855693505,0.026090938241517,-7.141423704909764e-05,critical
1500,2.121212121212121,2.835443037974684,anode,0.0274198847406476,0.0287288359169943,0.0258895427861236,6.342197002228296e-05,critical
1500,2.2222222222222223,2.835443037974684,anode,0.0273646358274904,0.0286740709929426,0.0258336168684617,7.076890554481445e-06,critical
1500,2.323232323232323,2.835443037974684,anode,0.0273542953262289,0.0286260139550806,0.0258745770544383,-1.883201327645554e-05,critical
1500,2.4242424242424243,2.835443037974684,anode,0.0271744123354982,0.0283977062425531,0.0257582123691582,-5.036427085361221e-05,critical
1500,2.525252525252525,2.835443037974684,anode,0.0271283489898459,0.0284456320070855,0.0255841504428407,-2.5255107714231456e-05,critical
1500,2.6262626262626263,2.835443037974684,anode,0.0270991721427425,0.0284131340001771,0.0255592940670623,1.898403518700803e-05,critical
1500,2.727272727272727,2.835443037974684,anode,0.0268981443381908,0.0281471913449932,0.0254450654701236,-2.2789040155787863e-05,critical
1500,2.8282828282828283,2.835443037974684,anode,0.0268259036144073,0.0281027728427116,0.0253343126335352,9.995552325285163e-06,critical
1500,2.929292929292929,2.835443037974684,anode,0.0267717133245022,0.0280754032600468,0.0252426902002651,-2.355355170301492e-05,critical
1500,3.0303030303030303,2.835443037974684,anode,0.0267559684220993,0.0279933466220484,0.0253171594284524,5.114991977893258e-05,critical
1500,3.131313131313131,2.835443037974684,anode,0.026631723174038,0.0279680781698121,0.0250555576914364,5.8044750851656026e-05,critical
1500,3.2323232323232323,2.835443037974684,anode,0.0263481961335313,0.0276308244381231,0.0248433917865416,-6.894877928636495e-05,critical
1500,3.333333333333333,2.835443037974684,anode,0.026480782630614,0.0277843805421611,0.0249486845838872,-4.806473755572419e-05,critical
1500,3.4343434343434343,2.835443037974684,anode,0.0264483176442663,0.0276100003509353,0.0251089273327514,1.4691276860854516e-05,critical
1500,3.5353535353535355,2.835443037974684,anode,0.026412449217941,0.0276957168574608,0.0249073236886114,-7.337726559721147e-05,critical
1500,3.636363636363636,2.835443037974684,anode,0.0263095846221462,0.0275489348215851,0.0248639030265259,-6.000933655276783e-05,critical
1500,3.7373737373737375,2.835443037974684,anode,0.0263371357613872,0.0276510665529972,0.0247891994850792,4.701858447185749e-05,critical
1500,3.8383838383838382,2.835443037974684,anode,0.0262822599361345,0.0274398124012114,0.0249470903848339,-3.837694559824064e-06,critical
1500,3.939393939393939,2.835443037974684,anode,0.0262122947945033,0.0275266368921435,0.0246626804156144,-2.2383825213100268e-05,critical
1500,4.040404040404041,2.835443037974684,anode,0.0261356103145089,0.0274595782494515,0.0245714412728607,-4.958824589748697e-05,critical
1500,4.141414141414141,2.835443037974684,anode,0.026214434862163,0.0275144314481169,0.0246848679991084,4.376579261109604e-06,critical
1500,4.242424242424242,2.835443037974684,anode,0.0261553193846414,0.0273848293045046,0.0247217780156254,-4.90539962456499e-05,critical
1500,4.343434343434343,2.835443037974684,anode,0.0260583076915431,0.0273068323146443,0.0245981898261447,-1.896514918259018e-06,critical
1500,4.444444444444445,2.835443037974684,anode,0.0259551721456628,0.0272037413532632,0.0244933426242015,-6.86590971322171e-05,critical
1500,4.545454545454545,2.835443037974684,anode,0.0261710634415262,0.0274912543861618,0.0246126433550468,4.366769387339116e-05,critical
1500,4.646464646464646,2.835443037974684,anode,0.0261610827003136,0.0273638008297775,0.0247641102049389,3.501110852949097e-05,critical
1500,4.747474747474747,2.835443037974684,anode,0.0261618426329023,0.0274532368669152,0.0246435851266276,-2.3715787612862742e-05,critical
1500,4.848484848484849,2.835443037974684,anode,0.0260434369200519,0.0273694273519141,0.0244746076726583,9.06071555203762e-05,critical
1500,4.94949494949495,2.835443037974684,anode,0.0260719407846359,0.0273492135737826,0.0245722230415853,3.3881729120284395e-05,critical
1500,5.05050505050505,2.835443037974684,anode,0.0260103160231998,0.0273165482427474,0.0244698901952103,-6.869617327738466e-06,critical
1500,5.151515151515151,2.835443037974684,anode,0.0260304303253037,0.0273250686040543,0.0245063536741884,-1.0857903762761133e-05,critical
1500,5.252525252525253,2.835443037974684,anode,0.0261027715135238,0.0273877621882366,0.0245928480639022,4.524718735533459e-06,critical
1500,5.353535353535354,2.835443037974684,anode,0.0259970686417196,0.0272351777464463,0.0245506214363074,8.098897637057477e-06,critical
1500,5.454545454545454,2.835443037974684,anode,0.0261100861957534,0.0273958385695004,0.0245991577700728,1.4404179947164472e-05,critical
1500,5.555555555555555,2.835443037974684,anode,0.0258557237718906,0.0271421594207992,0.0243394494563556,-0.0001126221775491,critical
1500,5.656565656565657,2.835443037974684,anode,0.0260964369061437,0.0273763584119523,0.0245934062743071,2.0751383311031656e-05,critical
1500,5.757575757575758,2.835443037974684,anode,0.0261393299101917,0.027411574596054,0.024647194412816,3.8131902701113e-05,critical
1500,5.858585858585858,2.835443037974684,anode,0.026023869927439,0.0273134698451962,0.024505869997921,7.926302064958938e-05,critical
1500,5.959595959595959,2.835443037974684,anode,0.0262495620715506,0.0275254062361502,0.0247537516856713,1.1090297636271072e-05,critical
1500,6.0606060606060606,2.835443037974684,anode,0.0261808087622386,0.027445760110646,0.0246968590608076,0.0001344385779802,critical
1500,6.161616161616162,2.835443037974684,anode,0.0261929815466756,0.027418620309579,0.0247645703529664,-7.735091995005603e-05,critical
1500,6.262626262626262,2.835443037974684,anode,0.0263022720729887,0.0276083362091457,0.0247648874941526,-4.82199353340957e-05,critical
1500,6.363636363636363,2.835443037974684,anode,0.0262478860585483,0.0275212028543857,0.0247545099104153,-8.764300861937521e-05,critical
1500,6.4646464646464645,2.835443037974684,anode,0.0263894696769763,0.0276635410773667,0.0248965302203445,8.48023481798686e-05,critical
1500,6.565656565656566,2.835443037974684,anode,0.026456769844748,0.0277837829448107,0.0248920132511362,3.672160033310798e-05,critical
1500,6.666666666666667,2.835443037974684,anode,0.0265104679925234,0.0278322722583096,0.0249535763913452,-3.312272977979639e-05,critical
1500,6.767676767676767,2.835443037974684,anode,0.0265069143781472,0.0278493550860305,0.0249212684921257,-2.282774266611239e-05,critical
1500,6.8686868686868685,2.835443037974684,anode,0.0266722190231085,0.0279283917859766,0.0252072298288512,4.145166042698237e-05,critical
1500,6.96969696969697,2.835443037974684,anode,0.0265331968629379,0.0278282885734964,0.0250128113208806,-8.142918301133349e-05,critical
1500,7.070707070707071,2.835443037974684,anode,0.026748191758381,0.0280114412926457,0.0252735030831561,-8.604036031715213e-05,critical
1500,7.171717171717171,2.835443037974684,anode,0.0269881475101187,0.0282966120008342,0.0254547336646521,1.924800452050441e-05,critical
1500,7.272727272727272,2.835443037974684,anode,0.0269408070909441,0.0282004831133203,0.0254737140010746,1.6076889332188756e-05,critical
1500,7.373737373737374,2.835443037974684,anode,0.0269096446779316,0.0282914718386416,0.0252733341577306,1.148645758544294e-07,critical
1500,7.474747474747475,2.835443037974684,anode,0.0271821573328046,0.0286203428089772,0.025469111169769,3.96808209512768e-05,critical
1500,7.575757575757575,2.835443037974684,anode,0.0271348971464013,0.0284329540696297,0.0256171304629405,3.207654017418969e-05,critical
1500,7.6767676767676765,2.835443037974684,anode,0.0272923381768605,0.028659157502887,0.0256802468058441,8.864968031620784e-05,critical
1500,7.777777777777778,2.835443037974684,anode,0.0274722711950507,0.0287206280624791,0.0260251577144281,2.040615709245414e-05,critical
1500,7.878787878787879,2.835443037974684,anode,0.0275415939066744,0.0288830679020745,0.0259681247509854,-3.3619804812169e-05,critical
1500,7.979797979797979,2.835443037974684,anode,0.0276972689213756,0.0289513852374831,0.0262438114254434,-6.596735931887122e-05,critical
1500,8.080808080808081,2.835443037974684,anode,0.0278797810808671,0.0292513454860983,0.0262682902394853,1.572035242607335e-05,critical
1500,8.181818181818182,2.835443037974684,anode,0.0279193058143505,0.029237787937262,0.0263804191225984,7.741793417016193e-05,critical
1500,8.282828282828282,2.835443037974684,anode,0.0281635101213339,0.0294585766139903,0.026659372448241,-1.4055194996322114e-05,critical
1500,8.383838383838384,2.835443037974684,anode,0.0282544930020373,0.0296269791906876,0.0266455607652867,-3.858216571213078e-06,critical
1500,8.484848484848484,2.835443037974684,anode,0.0283538619721405,0.029657002932002,0.0268399129729375,-6.859340261556434e-05,critical
1500,8.585858585858587,2.835443037974684,anode,0.0286007248483269,0.0298414552501466,0.0271728359874335,3.143215875947172e-05,critical
1500,8.686868686868687,2.835443037974684,anode,0.0288782237153793,0.0302286686332779,0.0273054033616308,1.0567092746304611e-05,critical
1500,8.787878787878787,2.835443037974684,anode,0.0289124669854837,0.0304035288566336,0.0271451840071538,-3.894760764354675e-05,critical
1500,8.88888888888889,2.835443037974684,anode,0.0291170425612029,0.0306174576116101,0.0273373538198733,0.0001194638477799,critical
1500,8.98989898989899,2.835443037974684,anode,0.0294335368497917,0.0308455202153853,0.0277814812881212,5.920094076867937e-05,critical
1500,9.09090909090909,2.835443037974684,anode,0.0294716788293473,0.0308074652445005,0.0279235236644314,-5.70063943437318e-05,critical
1500,9.191919191919192,2.835443037974684,anode,0.0298628870230869,0.0312979029576216,0.0281829499982317,-8.535281733256593e-05,critical
1500,9.292929292929292,2.835443037974684,anode,0.0300524429990442,0.0315060398889578,0.0283496241566243,-2.5693189178141007e-05,critical
1500,9.393939393939394,2.835443037974684,anode,0.0303476299875597,0.03179355930964,0.0286581223255829,3.6372698108512096e-05,critical
1500,9.494949494949497,2.835443037974684,anode,0.0305795467629011,0.0320301343072749,0.0288859707895275,-2.1540763983979907e-05,critical
1500,9.595959595959595,2.835443037974684,anode,0.0308407999247643,0.0324196686130551,0.0289718311898775,-5.8283255088626245e-05,critical
1500,9.696969696969695,2.835443037974684,anode,0.0313159079707052,0.0328305936517221,0.0295415300808188,2.69748200439833e-05,critical
1500,9.797979797979798,2.835443037974684,anode,0.0314645025364586,0.0330616527373868,0.0295772619789377,1.608766499256324e-05,critical
1500,9.8989898989899,2.835443037974684,anode,0.0320207890245498,0.0335818329834315,0.0301892478534793,6.059862430152557e-05,critical
1500,10.0,2.835443037974684,anode,0.0323233797091962,0.0339200687892548,0.0304460482662644,-1.3757496275950543e-06,critical
1500,0.0,2.9367088607594938,anode,0.0324298401024176,0.034068719265641,0.030494828801415,2.6296570726181003e-05,critical
1500,0.101010101010101,2.9367088607594938,anode,0.0319584554660069,0.0335129743089065,0.0301353028331935,5.939005240111354e-05,critical
1500,0.202020202020202,2.9367088607594938,anode,0.0316020917093322,0.0331069669675128,0.0298436310146509,5.98126829210282e-05,critical
1500,0.303030303030303,2.9367088607594938,anode,0.0312182327438058,0.0326790453443164,0.0295165427022139,-3.739568614522155e-05,critical
1500,0.404040404040404,2.9367088607594938,anode,0.0308684125999216,0.032295671967212,0.0292092692948331,-3.4368124918090647e-06,critical
1500,0.5050505050505051,2.9367088607594938,anode,0.030650704049812,0.0320797527850751,0.0289869658406794,4.331861542760118e-05,critical
1500,0.6060606060606061,2.9367088607594938,anode,0.0303653105579928,0.0318262666560189,0.0286554330347857,-2.855708331720664e-05,critical
1500,0.7070707070707071,2.9367088607594938,anode,0.030103783580304,0.0316132612688815,0.028323696568676,6.358775266546164e-05,critical
1500,0.8080808080808081,2.9367088607594938,anode,0.0298816520914452,0.0313924671688339,0.0280974028082093,-5.442850753449177e-05,critical
1500,0.9090909090909092,2.9367088607594938,anode,0.0296008332195151,0.0310502700141841,0.0278987371438455,6.793743585931444e-05,critical
1500,1.0101010101010102,2.9367088607594938,anode,0.0294303828260201,0.0308854676591737,0.0277192636989188,-7.376970906130051e-06,critical
1500,1.1111111111111112,2.9367088607594938,anode,0.0290984016734704,0.0304276060174214,0.0275563132816328,-2.1717791473859742e-06,critical
1500,1.2121212121212122,2.9367088607594938,anode,0.0290446571085408,0.0304666748063711,0.0273744806419014,-8.374980959084938e-05,critical
1500,1.3131313131313131,2.9367088607594938,anode,0.0287048632244403,0.03005871421864,0.0271252680458582,-6.679818051306299e-05,critical
1500,1.414141414141414,2.9367088607594938,anode,0.0286054925464207,0.0300374280300557,0.0269178089964604,1.1978461198640702e-05,critical
1500,1.5151515151515151,2.9367088607594938,anode,0.0284788775767528,0.0298090709169968,0.0269295770187306,-5.571297112815805e-05,critical
1500,1.616161616161616,2.9367088607594938,anode,0.0282862510246533,0.029651802143487,0.0266867045674977,-6.139950442184541e-05,critical
1500,1.7171717171717171,2.9367088607594938,anode,0.0280664912930986,0.0294186037899923,0.0264835710241028,-3.5745706196557894e-05,critical
1500,1.818181818181818,2.9367088607594938,anode,0.0279509643321758,0.0293140116461176,0.0263514341128472,-6.65707193486734e-05,critical
1500,1.9191919191919191,2.9367088607594938,anode,0.0277534465995273,0.0290103510557488,0.0262969728725121,4.8174171736877896e-05,critical
1500,2.0202020202020203,2.9367088607594938,anode,0.0276532083574769,0.0290261898982958,0.0260370353443417,5.463582800702343e-05,critical
1500,2.121212121212121,2.9367088607594938,anode,0.027553714686692,0.0288048317604607,0.0261035917608482,-1.757351360234135e-05,critical
1500,2.2222222222222223,2.9367088607594938,anode,0.027412323254883,0.0287906280286426,0.0257863454968832,3.946002508293925e-05,critical
1500,2.323232323232323,2.9367088607594938,anode,0.0272700169725917,0.028535640485553,0.0257978537831259,-4.788991130764885e-06,critical
1500,2.4242424242424243,2.9367088607594938,anode,0.0271757203195078,0.0285380482158968,0.0255694988701242,-3.604651576012595e-05,critical
1500,2.525252525252525,2.9367088607594938,anode,0.0272136511495236,0.0284101359840183,0.0258337538957075,3.917085772178546e-05,critical
1500,2.6262626262626263,2.9367088607594938,anode,0.0269772806917974,0.0282471907927339,0.0254966260548354,1.4611330413298022e-06,critical
1500,2.727272727272727,2.9367088607594938,anode,0.0269607592788912,0.0284023309577165,0.0252403164485096,1.1312085230422447e-05,critical
1500,2.8282828282828283,2.9367088607594938,anode,0.0266275053469991,0.0279104184609835,0.025125510340941,-4.008368726110263e-05,critical
1500,2.929292929292929,2.9367088607594938,anode,0.0267370401603842,0.0280194233893892,0.0252369566104011,-2.722030707420361e-05,critical
1500,3.0303030303030303,2.9367088607594938,anode,0.0268388728071137,0.0281249798429801,0.025334743104489,-1.3333651259028091e-05,critical
1500,3.131313131313131,2.9367088607594938,anode,0.0265927022596648,0.0277746042915291,0.025227510481748,-1.3789368620617112e-06,critical
1500,3.2323232323232323,2.9367088607594938,anode,0.0266270301283752,0.0277788185273981,0.0253012559985507,8.449551086642734e-05,critical
1500,3.333333333333333,2.9367088607594938,anode,0.0265086943537295,0.0279519059995487,0.0247800748659453,3.664454003863505e-06,critical
1500,3.4343434343434343,2.9367088607594938,anode,0.0263996943344421,0.0276763788027108,0.0249037291250275,-6.119327973016443e-05,critical
1500,3.5353535353535355,2.9367088607594938,anode,0.0262557532274757,0.0274819097984006,0.0248280175842913,-5.595635030260346e-06,critical
1500,3.636363636363636,2.9367088607594938,anode,0.0262617777116613,0.0275023991538788,0.0248142462787561,-3.414105875563586e-05,critical
1500,3.7373737373737375,2.9367088607594938,anode,0.0262514941417628,0.0274342620261087,0.0248823364763683,-5.2265061374710354e-06,critical
1500,3.8383838383838382,2.9367088607594938,anode,0.0262322360267426,0.0275030835424776,0.0247431152886945,1.6485495910407816e-05,critical
1500,3.939393939393939,2.9367088607594938,anode,0.0262664923485672,0.0275486588906556,0.0247619826641609,-3.484266892774087e-05,critical
1500,4.040404040404041,2.9367088607594938,anode,0.0261553122783974,0.027303571113088,0.0248313121648416,3.999395480557516e-05,critical
1500,4.141414141414141,2.9367088607594938,anode,0.0261035319758814,0.027322739620175,0.0246837668357501,2.62688701384988e-05,critical
1500,4.242424242424242,2.9367088607594938,anode,0.0260810661690615,0.0273373878854878,0.0246104295659121,1.684998960229015e-05,critical
1500,4.343434343434343,2.9367088607594938,anode,0.0261176242598553,0.0273230776396119,0.0247162134768492,-6.201190937427078e-05,critical
1500,4.444444444444445,2.9367088607594938,anode,0.0261067284723354,0.0273885684484588,0.0246011309917484,-2.3831884614781515e-05,critical
1500,4.545454545454545,2.9367088607594938,anode,0.026138645815251,0.0273847686272867,0.0246817788957411,-7.713018557157037e-05,critical
1500,4.646464646464646,2.9367088607594938,anode,0.0260771401708426,0.0274227898013444,0.0244821866793304,-8.823907346024005e-06,critical
1500,4.747474747474747,2.9367088607594938,anode,0.0260707863764075,0.027286511198758,0.0246537989602057,0.0001133830288168,critical
1500,4.848484848484849,2.9367088607594938,anode,0.0258912288160669,0.0271847889657168,0.0243669413930802,-4.205215984378655e-05,critical
1500,4.94949494949495,2.9367088607594938,anode,0.0260833503805771,0.0274310493365149,0.02448553062815,-2.071974176649188e-05,critical
1500,5.05050505050505,2.9367088607594938,anode,0.026025684723657,0.0273273553062185,0.0244917863548477,-4.699443199798157e-06,critical
1500,5.151515151515151,2.9367088607594938,anode,0.0259861541367277,0.0272587423182685,0.0244921944419268,-9.245299861992624e-07,critical
1500,5.252525252525253,2.9367088607594938,anode,0.0261010834650411,0.0272597108771693,0.0247630346542049,-5.072067053763688e-07,critical
1500,5.353535353535354,2.9367088607594938,anode,0.0259935150392385,0.0272585534686631,0.024509910332334,3.206087003387199e-05,critical
1500,5.454545454545454,2.9367088607594938,anode,0.0260369610719318,0.0272967152322244,0.0245612078961336,3.819915640455644e-06,critical
1500,5.555555555555555,2.9367088607594938,anode,0.0261791045857846,0.0274800931393161,0.0246467556192736,8.674754821780142e-05,critical
1500,5.656565656565657,2.9367088607594938,anode,0.0259941585993546,0.0272432348861523,0.0245325657121504,2.648182671989633e-05,critical
1500,5.757575757575758,2.9367088607594938,anode,0.0261443629186939,0.0274191465405468,0.0246487474988687,-4.075071299855435e-05,critical
1500,5.858585858585858,2.9367088607594938,anode,0.0261657649100428,0.0273861187234627,0.0247447958758456,4.743170011008407e-05,critical
1500,5.959595959595959,2.9367088607594938,anode,0.0260932855501232,0.0273394623855272,0.024636303538333,5.534480530161168e-05,critical
1500,6.0606060606060606,2.9367088607594938,anode,0.0261660207444596,0.0274779654514447,0.0246192040559803,2.8788834653345048e-05,critical
1500,6.161616161616162,2.9367088607594938,anode,0.0262659935818214,0.027455689098088,0.0248874351359721,4.003700070501252e-05,critical
1500,6.262626262626262,2.9367088607594938,anode,0.0263218981873977,0.0276406469733481,0.0247672717814613,2.9571326439321777e-05,critical
1500,6.363636363636363,2.9367088607594938,anode,0.0264071773879907,0.0277994978944063,0.0247499638090475,3.051047248614539e-05,critical
1500,6.4646464646464645,2.9367088607594938,anode,0.0264843781787061,0.0277536698997024,0.0249995753811232,4.928872432257896e-05,critical
1500,6.565656565656566,2.9367088607594938,anode,0.0264432003167575,0.0277034279380798,0.0249707473460117,1.946510272147572e-07,critical
1500,6.666666666666667,2.9367088607594938,anode,0.0264235884249426,0.0275752848563125,0.0250967762377737,-6.394410800212151e-05,critical
1500,6.767676767676767,2.9367088607594938,anode,0.0266835502344235,0.0279529665436102,0.0252005116658094,-4.755972540822991e-05,critical
1500,6.8686868686868685,2.9367088607594938,anode,0.0265001380267047,0.0277874347585626,0.0249910654719219,-3.311552371098149e-06,critical
1500,6.96969696969697,2.9367088607594938,anode,0.0265858858423932,0.0277929434508961,0.0251868538807092,1.6508224138742866e-05,critical
1500,7.070707070707071,2.9367088607594938,anode,0.0266002694841297,0.0278893442118877,0.0250891080588988,-6.890450382775247e-05,critical
1500,7.171717171717171,2.9367088607594938,anode,0.0267431255977228,0.0281013371872762,0.025138023931351,-2.2019431742356263e-05,critical
1500,7.272727272727272,2.9367088607594938,anode,0.0269777119202972,0.028311096186249,0.025409756308056,1.9256680506310763e-05,critical
1500,7.373737373737374,2.9367088607594938,anode,0.02699863049442,0.0282844142991665,0.0254964925105529,-7.817304020521324e-06,critical
1500,7.474747474747475,2.9367088607594938,anode,0.0270495836594263,0.0282920086284354,0.0256067344494853,3.330035671772494e-05,critical
1500,7.575757575757575,2.9367088607594938,anode,0.0272669407898295,0.0285056697243393,0.0258298858083707,9.66895380390435e-05,critical
1500,7.6767676767676765,2.9367088607594938,anode,0.027356099701578,0.0286414390474767,0.0258571162198921,7.899181160865146e-05,critical
1500,7.777777777777778,2.9367088607594938,anode,0.0274292348829394,0.0286579653733509,0.0260076723614069,-6.297946662271067e-05,critical
1500,7.878787878787879,2.9367088607594938,anode,0.0276837405208917,0.0290698885584055,0.0260499368634386,-1.4369115826517796e-05,critical
1500,7.979797979797979,2.9367088607594938,anode,0.0276683434315371,0.0289910948533578,0.0261219083811282,2.7529408816061905e-05,critical
1500,8.080808080808081,2.9367088607594938,anode,0.0278218465003049,0.0290839684272776,0.0263590898758397,3.287271283577159e-05,critical
1500,8.181818181818182,2.9367088607594938,anode,0.0279118152955133,0.0291966682286632,0.0264189537335491,-5.262498660091135e-05,critical
1500,8.282828282828282,2.9367088607594938,anode,0.0280571543723176,0.0293918508983924,0.0264976361831775,-6.547467319527653e-05,critical
1500,8.383838383838384,2.9367088607594938,anode,0.0281287133272292,0.0296016760740676,0.0263779581719437,-1.1299436392236832e-05,critical
1500,8.484848484848484,2.9367088607594938,anode,0.0284922281674793,0.0298807026901882,0.0268631147241992,6.450945410083156e-05,critical
1500,8.585858585858587,2.9367088607594938,anode,0.0285468303384762,0.0298692915801342,0.0270090088897675,1.0700249778648705e-05,critical
1500,8.686868686868687,2.9367088607594938,anode,0.0287161427771779,0.0300420039651221,0.0271750970007105,3.330970203929774e-05,critical
1500,8.787878787878787,2.9367088607594938,anode,0.0290377133944299,0.0304682881538789,0.027356476103387,1.1946363069972806e-05,critical
1500,8.88888888888889,2.9367088607594938,anode,0.0291162488006329,0.0305179440148974,0.0274755313113361,3.131997579418804e-05,critical
1500,8.98989898989899,2.9367088607594938,anode,0.0293860303571264,0.0308850591485036,0.0276130565028896,-2.5136124978433907e-05,critical
1500,9.09090909090909,2.9367088607594938,anode,0.0297122245384775,0.0312121524912515,0.0279412754599821,5.8594693147530186e-05,critical
1500,9.191919191919192,2.9367088607594938,anode,0.0297797053616417,0.0311997490329389,0.0281199077396333,6.154870235313122e-05,critical
1500,9.292929292929292,2.9367088607594938,anode,0.0299353292439886,0.0313854153732451,0.0282360727069338,-3.961186640863135e-05,critical
1500,9.393939393939394,2.9367088607594938,anode,0.0303929773717093,0.0318902026892832,0.028633433283563,-1.335979422882831e-05,critical
1500,9.494949494949497,2.9367088607594938,anode,0.0306103981885648,0.0320387234125077,0.0289474933640231,3.682141592732468e-06,critical
1500,9.595959595959595,2.9367088607594938,anode,0.0310392209755034,0.0324165851482433,0.0294483639244049,-5.001633251909056e-05,critical
1500,9.696969696969695,2.9367088607594938,anode,0.0312690608500071,0.0326951263475578,0.0296150213601455,9.21144906552476e-06,critical
1500,9.797979797979798,2.9367088607594938,anode,0.0315954679033158,0.0331210022834069,0.0298086752084618,-5.441119139154701e-05,critical
1500,9.8989898989899,2.9367088607594938,anode,0.0319727199908996,0.0335656619528804,0.0300968882144637,1.2338663165543062e-05,critical
1500,10.0,2.9367088607594938,anode,0.0322967182934834,0.033865506527836,0.0304575983016546,2.6956407159460008e-05,critical
1500,0.0,3.037974683544304,anode-electrolyte interface,0.0249042394521152,0.0261431763635822,0.0234456427121175,-1.7151356449971152e-05,critical
1500,0.101010101010101,3.037974683544304,anode-electrolyte interface,0.0246256320131385,0.025830784117516,0.0232087181264057,-0.0001253454125011,critical
1500,0.202020202020202,3.037974683544304,anode-electrolyte interface,0.0243029538652707,0.0253740017955117,0.0230666929592569,-7.207391324970089e-05,critical
1500,0.303030303030303,3.037974683544304,anode-electrolyte interface,0.0241323923045001,0.025221359429835,0.0228715083128736,2.9555014602666715e-06,critical
1500,0.404040404040404,3.037974683544304,anode-electrolyte interface,0.023740773229606,0.0248382606980826,0.0224637881795705,-9.086019980958876e-05,critical
1500,0.5050505050505051,3.037974683544304,anode-electrolyte interface,0.0236565809211072,0.0248147924344582,0.0222957407397583,-8.948148174846095e-05,critical
1500,0.6060606060606061,3.037974683544304,anode-electrolyte interface,0.0233772089917325,0.0242994859110967,0.0223302848146485,-2.384701631114665e-05,critical
1500,0.7070707070707071,3.037974683544304,anode-electrolyte interface,0.0233097082504673,0.0243544177065243,0.0221009632477761,-5.2760690451025255e-05,critical
1500,0.8080808080808081,3.037974683544304,anode-electrolyte interface,0.0229622888859968,0.0241797507033155,0.021511650100492,-2.319058960439226e-05,critical
1500,0.9090909090909092,3.037974683544304,anode-electrolyte interface,0.0228621818366611,0.0240382060066699,0.0214688865652937,3.846188747694639e-05,critical
1500,1.0101010101010102,3.037974683544304,anode-electrolyte interface,0.022523293103073,0.0236373434142169,0.0212130475142313,2.185284316628832e-05,critical
1500,1.1111111111111112,3.037974683544304,anode-electrolyte interface,0.0223260500369065,0.0234202066161111,0.0210411062822752,-4.217143408237864e-05,critical
1500,1.2121212121212122,3.037974683544304,anode-electrolyte interface,0.0222252814248574,0.023260525491739,0.0210203688858893,1.4696249185632789e-06,critical
1500,1.3131313131313131,3.037974683544304,anode-electrolyte interface,0.0221860621379991,0.0232933953153988,0.0208816428593129,1.212881924594322e-05,critical
1500,1.414141414141414,3.037974683544304,anode-electrolyte interface,0.0219352449254381,0.023027701126064,0.0206488192484423,-1.873225413136156e-05,critical
1500,1.5151515151515151,3.037974683544304,anode-electrolyte interface,0.0218760533000469,0.0228619044650763,0.0207344649193302,-4.601755275258401e-05,critical
1500,1.616161616161616,3.037974683544304,anode-electrolyte interface,0.0217112765273951,0.0227446922161534,0.0205040571765259,-1.4299250763026095e-05,critical
1500,1.7171717171717171,3.037974683544304,anode-electrolyte interface,0.0215674153820636,0.0226046587655381,0.0203534964053103,-2.472085974629753e-05,critical
1500,1.818181818181818,3.037974683544304,anode-electrolyte interface,0.0215467912438774,0.0226085368216368,0.0202989210868209,-1.810371815316277e-05,critical
1500,1.9191919191919191,3.037974683544304,anode-electrolyte interface,0.0213789074930301,0.0224769551001656,0.0200784711362223,2.6242849223334812e-05,critical
1500,2.0202020202020203,3.037974683544304,anode-electrolyte interface,0.021225187960462,0.0223711396451703,0.0198543244847841,-5.882118598021564e-05,critical
1500,2.121212121212121,3.037974683544304,anode-electrolyte interface,0.0212537905398552,0.022322357099581,0.0199910736201947,0.0001166840417251,critical
1500,2.2222222222222223,3.037974683544304,anode-electrolyte interface,0.0211575323888495,0.0221357778172626,0.0200203060069441,-1.741839682652339e-05,critical
1500,2.323232323232323,3.037974683544304,anode-electrolyte interface,0.021055937192093,0.0221623201792598,0.0197396965440956,-4.438734067037059e-05,critical
1500,2.4242424242424243,3.037974683544304,anode-electrolyte interface,0.0208816167093292,0.0219004943260522,0.0196862741897006,1.769224420113055e-06,critical
1500,2.525252525252525,3.037974683544304,anode-electrolyte interface,0.0208548566575972,0.0217673964124942,0.0198032428395176,2.651923843666932e-05,critical
1500,2.6262626262626263,3.037974683544304,anode-electrolyte interface,0.0208452414215145,0.0217584819625847,0.0197927063950497,-1.379917731522946e-05,critical
1500,2.727272727272727,3.037974683544304,anode-electrolyte interface,0.020561376423529,0.0215949002057918,0.019342044497795,-4.211445965529735e-05,critical
1500,2.8282828282828283,3.037974683544304,anode-electrolyte interface,0.0207024320094377,0.0217230064778379,0.0194993739600733,0.0001427383186946,critical
1500,2.929292929292929,3.037974683544304,anode-electrolyte interface,0.0205677187496928,0.0216191695472938,0.0193227490833494,7.238569494306557e-05,critical
1500,3.0303030303030303,3.037974683544304,anode-electrolyte interface,0.0205013373847598,0.0215727573936379,0.019228327039362,-1.220071057775685e-05,critical
1500,3.131313131313131,3.037974683544304,anode-electrolyte interface,0.0204363673721998,0.0214253330550835,0.0192775378606629,-3.8375459404460746e-05,critical
1500,3.2323232323232323,3.037974683544304,anode-electrolyte interface,0.0204309302705595,0.021448818112515,0.0192311229320655,-8.140830790598449e-05,critical
1500,3.333333333333333,3.037974683544304,anode-electrolyte interface,0.0202974136683051,0.0212603538898332,0.0191731727964548,-8.904347130510791e-06,critical
1500,3.4343434343434343,3.037974683544304,anode-electrolyte interface,0.0203416203035223,0.0213117938677495,0.0192077613890308,-3.0069459738514025e-05,critical
1500,3.5353535353535355,3.037974683544304,anode-electrolyte interface,0.0204286127005098,0.0213489506010942,0.0193632574582178,2.0541018256436062e-06,critical
1500,3.636363636363636,3.037974683544304,anode-electrolyte interface,0.0202680029651496,0.021250433572723,0.0191159990774822,6.548538913612003e-05,critical
1500,3.7373737373737375,3.037974683544304,anode-electrolyte interface,0.0201652607294827,0.0211480736562376,0.0190124399388793,-1.046742705059648e-05,critical
1500,3.8383838383838382,3.037974683544304,anode-electrolyte interface,0.0202005287454003,0.0211244886037832,0.0191267087637105,9.71184799794664e-05,critical
1500,3.939393939393939,3.037974683544304,anode-electrolyte interface,0.0200973380740906,0.0210353236605459,0.0190051022603324,3.0119110998147604e-05,critical
1500,4.040404040404041,3.037974683544304,anode-electrolyte interface,0.0202514323175553,0.0212746098901728,0.0190434522243162,1.1963111923527074e-05,critical
1500,4.141414141414141,3.037974683544304,anode-electrolyte interface,0.019979473408975,0.0209094099541215,0.018897259691964,-4.438981470252904e-06,critical
1500,4.242424242424242,3.037974683544304,anode-electrolyte interface,0.0200732922377677,0.0209925847794432,0.0190062927880511,1.2815247110377718e-05,critical
1500,4.343434343434343,3.037974683544304,anode-electrolyte interface,0.020108527993888,0.0210313188096183,0.0190370237237311,2.5625972042326885e-05,critical
1500,4.444444444444445,3.037974683544304,anode-electrolyte interface,0.0200913345463463,0.0210116093049014,0.0190222734196717,-7.231736488692125e-05,critical
1500,4.545454545454545,3.037974683544304,anode-electrolyte interface,0.0200970464996822,0.0211150633940324,0.0188922644340126,-0.0001141367786543,critical
1500,4.646464646464646,3.037974683544304,anode-electrolyte interface,0.0201236306237871,0.0211748992115308,0.0188736654237389,7.498763614664252e-05,critical
1500,4.747474747474747,3.037974683544304,anode-electrolyte interface,0.0200200000634248,0.0209023106560049,0.0190002745788913,0.0001049118733451,critical
1500,4.848484848484849,3.037974683544304,anode-electrolyte interface,0.0200392853530638,0.0209387743554576,0.0189986463576252,1.280198024925981e-05,critical
1500,4.94949494949495,3.037974683544304,anode-electrolyte interface,0.0200642543081507,0.0211100678539327,0.0188220560890703,-3.839233949422893e-05,critical
1500,5.05050505050505,3.037974683544304,anode-electrolyte interface,0.0200531753995372,0.0210402881159627,0.0188932798432453,-7.017219176994068e-06,critical
1500,5.151515151515151,3.037974683544304,anode-electrolyte interface,0.0199760508822411,0.0211057751217853,0.0186119085891178,3.864926899752037e-05,critical
1500,5.252525252525253,3.037974683544304,anode-electrolyte interface,0.0199171112224184,0.0208311055945338,0.018855656108156,3.981343885212772e-05,critical
1500,5.353535353535354,3.037974683544304,anode-electrolyte interface,0.0200302311959369,0.0208962110684435,0.0190341675054255,-1.801690527011389e-05,critical
1500,5.454545454545454,3.037974683544304,anode-electrolyte interface,0.0198751691747369,0.0207058286233514,0.0189245445054447,-1.826938222044004e-05,critical
1500,5.555555555555555,3.037974683544304,anode-electrolyte interface,0.0200447305349899,0.0209521449921537,0.0189934568144341,1.9163894749877524e-05,critical
1500,5.656565656565657,3.037974683544304,anode-electrolyte interface,0.0200435286704123,0.0210658037212403,0.0188329594537469,9.313197813524546e-05,critical
1500,5.757575757575758,3.037974683544304,anode-electrolyte interface,0.0201210079332701,0.0210998420547565,0.0189732061718407,-1.5562498136332037e-05,critical
1500,5.858585858585858,3.037974683544304,anode-electrolyte interface,0.020051832187387,0.0210831398832154,0.0188302186130617,7.890308606004045e-06,critical
1500,5.959595959595959,3.037974683544304,anode-electrolyte interface,0.0200793044319445,0.0209903355642604,0.0190232845274709,3.674653432698369e-05,critical
1500,6.0606060606060606,3.037974683544304,anode-electrolyte interface,0.0201982399063931,0.0210940376271737,0.0191627446033125,-8.030539625197623e-05,critical
1500,6.161616161616162,3.037974683544304,anode-electrolyte interface,0.0200843639767734,0.0209951867907378,0.0190276875702085,-8.320343823487425e-05,critical
1500,6.262626262626262,3.037974683544304,anode-electrolyte interface,0.0201445858573114,0.0212175072409569,0.0188647986461098,4.123007517383269e-05,critical
1500,6.363636363636363,3.037974683544304,anode-electrolyte interface,0.0202051735184158,0.0212781995500675,0.018926296154961,-5.19616663347337e-06,critical
1500,6.4646464646464645,3.037974683544304,anode-electrolyte interface,0.020108653372081,0.0211301066416125,0.018901356622356,3.1266001990719853e-05,critical
1500,6.565656565656566,3.037974683544304,anode-electrolyte interface,0.0202527308595664,0.0211719483293015,0.0191868702939882,5.521472757213488e-05,critical
1500,6.666666666666667,3.037974683544304,anode-electrolyte interface,0.0204155833295548,0.021292573687564,0.019407802226267,2.3239393405148507e-05,critical
1500,6.767676767676767,3.037974683544304,anode-electrolyte interface,0.0205208637945167,0.0215823249795343,0.0192603327951454,-0.0001023744270338,critical
1500,6.8686868686868685,3.037974683544304,anode-electrolyte interface,0.0204699276895671,0.0213765793958888,0.0194211093690276,-0.0001113406288428,critical
1500,6.96969696969697,3.037974683544304,anode-electrolyte interface,0.0206628650544536,0.0216187301565546,0.0195487149519725,-0.0001299177396927,critical
1500,7.070707070707071,3.037974683544304,anode-electrolyte interface,0.0205976957112829,0.0215940806769097,0.0194287522182564,0.0001006287368385,critical
1500,7.171717171717171,3.037974683544304,anode-electrolyte interface,0.0205913021324619,0.0215965391129235,0.0194117916207683,1.901679967071793e-05,critical
1500,7.272727272727272,3.037974683544304,anode-electrolyte interface,0.020751709697056,0.0218200450786256,0.0194857988623953,-3.5309972179019244e-05,critical
1500,7.373737373737374,3.037974683544304,anode-electrolyte interface,0.020789495949231,0.0218520223604451,0.0195318543719845,-5.610659751779187e-05,critical
1500,7.474747474747475,3.037974683544304,anode-electrolyte interface,0.0208156895108193,0.0217432289448905,0.0197436248137651,3.811649643585037e-05,critical
1500,7.575757575757575,3.037974683544304,anode-electrolyte interface,0.0209457474367924,0.0220020313950137,0.0196990853798573,1.7130445565324227e-05,critical
1500,7.6767676767676765,3.037974683544304,anode-electrolyte interface,0.0209753783585321,0.0220692115985231,0.0196762736220144,1.2898184424609308e-05,critical
1500,7.777777777777778,3.037974683544304,anode-electrolyte interface,0.0210768955484339,0.0221040765995033,0.0198719051425495,3.067625236149368e-05,critical
1500,7.878787878787879,3.037974683544304,anode-electrolyte interface,0.0211376351020417,0.0221804094867951,0.0199112374818233,-6.0760138394513874e-05,critical
1500,7.979797979797979,3.037974683544304,anode-electrolyte interface,0.0214045156448754,0.0224124745425696,0.0202277130230521,9.487520047114433e-05,critical
1500,8.080808080808081,3.037974683544304,anode-electrolyte interface,0.0214186170029124,0.0225622489208799,0.0200540336091395,-2.5246189817530307e-05,critical
1500,8.181818181818182,3.037974683544304,anode-electrolyte interface,0.0214540686648827,0.022462068130731,0.0202784457008383,6.58949760723207e-05,critical
1500,8.282828282828282,3.037974683544304,anode-electrolyte interface,0.0215996703407297,0.0227168218690927,0.0202739618297513,7.791916568158667e-05,critical
1500,8.383838383838384,3.037974683544304,anode-electrolyte interface,0.021632301778135,0.0226847780213881,0.0203979293145729,3.787970164104803e-05,critical
1500,8.484848484848484,3.037974683544304,anode-electrolyte interface,0.0217557522552504,0.0227857313048621,0.0205535012205631,-3.341085990841718e-05,critical
1500,8.585858585858587,3.037974683544304,anode-electrolyte interface,0.0219400748374217,0.0230125873609853,0.0206800942319604,8.922729089092164e-05,critical
1500,8.686868686868687,3.037974683544304,anode-electrolyte interface,0.0221936932996579,0.0233182072487501,0.0208652958878504,-2.5523293028862483e-05,critical
1500,8.787878787878787,3.037974683544304,anode-electrolyte interface,0.0223334755307447,0.0233710428961955,0.0211259458578937,5.254110594891711e-05,critical
1500,8.88888888888889,3.037974683544304,anode-electrolyte interface,0.0224813282607047,0.0236087658805794,0.02115208580417,8.20022675357877e-06,critical
1500,8.98989898989899,3.037974683544304,anode-electrolyte interface,0.0225280856611347,0.0236644603219229,0.0211855940195747,8.984493662878982e-05,critical
1500,9.09090909090909,3.037974683544304,anode-electrolyte interface,0.0228770793443179,0.0240793255652298,0.0214467999228937,4.505697486791518e-05,critical
1500,9.191919191919192,3.037974683544304,anode-electrolyte interface,0.0230144537369845,0.0241175020105568,0.0217235878034984,-7.207184762958707e-05,critical
1500,9.292929292929292,3.037974683544304,anode-electrolyte interface,0.0231641077653139,0.0242166589695101,0.0219440119485714,-1.0170216120152166e-05,critical
1500,9.393939393939394,3.037974683544304,anode-electrolyte interface,0.0233842965342983,0.0245417001726669,0.0220218762356177,8.471110939444363e-05,critical
1500,9.494949494949497,3.037974683544304,anode-electrolyte interface,0.0234821156960928,0.0245479782606387,0.0222464215914828,5.1383715412083645e-05,critical
1500,9.595959595959595,3.037974683544304,anode-electrolyte interface,0.0238567969582497,0.0250006872667643,0.0225188311495783,-1.7283296937952766e-05,critical
1500,9.696969696969695,3.037974683544304,anode-electrolyte interface,0.0239640500061039,0.0250184053513074,0.0227480651495166,1.7637031349701996e-05,critical
1500,9.797979797979798,3.037974683544304,anode-electrolyte interface,0.024281829682182,0.0255079765379995,0.0228335333318827,7.610024629405253e-05,critical
1500,9.8989898989899,3.037974683544304,anode-electrolyte interface,0.0244273840132739,0.0255810711617905,0.0230810639326359,5.3896924863277495e-05,critical
1500,10.0,3.037974683544304,anode-electrolyte interface,0.0248709529960949,0.0260224282293033,0.0235304729824641,-0.000107109903026,critical
1500,0.0,3.1392405063291138,anode-electrolyte interface,0.0247707789264824,0.0259873552345726,0.0233417872697287,-1.9503673069242094e-05,critical
1500,0.101010101010101,3.1392405063291138,anode-electrolyte interface,0.0244193005736281,0.0256465549327276,0.0229718130370434,6.616589874631826e-06,critical
1500,0.202020202020202,3.1392405063291138,anode-electrolyte interface,0.0242363037516975,0.0254551654017736,0.0227980844761479,5.576532754463472e-05,critical
1500,0.303030303030303,3.1392405063291138,anode-electrolyte interface,0.0241008729000352,0.0253361649122067,0.0226371873318659,9.675256379226876e-05,critical
1500,0.404040404040404,3.1392405063291138,anode-electrolyte interface,0.0237690229658438,0.0248740432117151,0.0224827509806546,6.125032094145749e-05,critical
1500,0.5050505050505051,3.1392405063291138,anode-electrolyte interface,0.0236200233334802,0.0248050892725717,0.0222227165897064,1.1324224976158116e-05,critical
1500,0.6060606060606061,3.1392405063291138,anode-electrolyte interface,0.023332680325817,0.024450425626491,0.0220255088621462,-1.509473688577819e-05,critical
1500,0.7070707070707071,3.1392405063291138,anode-electrolyte interface,0.0231764128141196,0.024303001788651,0.0218554494233631,-2.927981040767202e-05,critical
1500,0.8080808080808081,3.1392405063291138,anode-electrolyte interface,0.0228885196217281,0.0240530255546934,0.0215119363937831,3.67604554162032e-06,critical
1500,0.9090909090909092,3.1392405063291138,anode-electrolyte interface,0.0226484482557487,0.0236759899109716,0.0214559050245812,0.0001058939686646,critical
1500,1.0101010101010102,3.1392405063291138,anode-electrolyte interface,0.0226097424954135,0.0236392657895882,0.0214159013657736,1.75293914810162e-05,critical
1500,1.1111111111111112,3.1392405063291138,anode-electrolyte interface,0.0224584721747762,0.0234993687790305,0.021247179784271,-7.142336717116994e-05,critical
1500,1.2121212121212122,3.1392405063291138,anode-electrolyte interface,0.022294916846299,0.0233500281031906,0.021063550940141,1.666294253973338e-05,critical
1500,1.3131313131313131,3.1392405063291138,anode-electrolyte interface,0.0220616002257602,0.0230671149028813,0.0208944857195002,-7.8281595240022e-05,critical
1500,1.414141414141414,3.1392405063291138,anode-electrolyte interface,0.0219966243270495,0.0228997974811925,0.0209657178070607,6.474821458513811e-06,critical
1500,1.5151515151515151,3.1392405063291138,anode-electrolyte interface,0.0218487210422355,0.0228060326460757,0.0207449359927081,5.417341429077109e-05,critical
1500,1.616161616161616,3.1392405063291138,anode-electrolyte interface,0.0216469648704444,0.0227492929307795,0.0203436629571222,-5.31148048011781e-06,critical
1500,1.7171717171717171,3.1392405063291138,anode-electrolyte interface,0.0216074400476347,0.0226023412422725,0.0204516914061042,4.566249287971099e-06,critical
1500,1.818181818181818,3.1392405063291138,anode-electrolyte interface,0.0215248152487927,0.0225670507053159,0.0203037110472183,-5.427647822383596e-06,critical
1500,1.9191919191919191,3.1392405063291138,anode-electrolyte interface,0.0213895466192821,0.0225055653010583,0.0200639862368432,-3.820943237111822e-06,critical
1500,2.0202020202020203,3.1392405063291138,anode-electrolyte interface,0.0212332231689207,0.0223063842687825,0.0199660224218032,-3.0022805357493007e-05,critical
1500,2.121212121212121,3.1392405063291138,anode-electrolyte interface,0.0210846169174699,0.0222111384565009,0.0197403435293263,1.570218191383236e-05,critical
1500,2.2222222222222223,3.1392405063291138,anode-electrolyte interface,0.0210010059741632,0.0220151853311597,0.0198133273339933,-2.8026335500679296e-08,critical
1500,2.323232323232323,3.1392405063291138,anode-electrolyte interface,0.0209733746194011,0.0219543201456949,0.019830862642174,9.379852333939584e-06,critical
1500,2.4242424242424243,3.1392405063291138,anode-electrolyte interface,0.0210027644828475,0.0220108208877778,0.0198234716816057,1.565050010318676e-05,critical
1500,2.525252525252525,3.1392405063291138,anode-electrolyte interface,0.0208024368576983,0.0217837011996908,0.0196576376020932,4.1348041834002745e-05,critical
1500,2.6262626262626263,3.1392405063291138,anode-electrolyte interface,0.0206741051175591,0.0216246857320441,0.019570028043383,-2.080055178250744e-05,critical
1500,2.727272727272727,3.1392405063291138,anode-electrolyte interface,0.0206031878730263,0.0215435810514529,0.0195123059464245,1.0445435465094643e-05,critical
1500,2.8282828282828283,3.1392405063291138,anode-electrolyte interface,0.0206046261134865,0.0215530944219076,0.0195028576773717,8.437031629766423e-06,critical
1500,2.929292929292929,3.1392405063291138,anode-electrolyte interface,0.0205784771805152,0.0214723284018777,0.0195493451684741,-4.434355982519174e-05,critical
1500,3.0303030303030303,3.1392405063291138,anode-electrolyte interface,0.0205396637970985,0.0215025414847386,0.0194164257476049,8.833630038974074e-05,critical
1500,3.131313131313131,3.1392405063291138,anode-electrolyte interface,0.0204795043881323,0.0214897298170783,0.019291959943773,1.732756902178646e-05,critical
1500,3.2323232323232323,3.1392405063291138,anode-electrolyte interface,0.0204055544161747,0.0213791337227915,0.0192675806776379,-3.564148833773277e-05,critical
1500,3.333333333333333,3.1392405063291138,anode-electrolyte interface,0.0203988567148214,0.0213646212699186,0.0192716737730506,1.74608945874514e-05,critical
1500,3.4343434343434343,3.1392405063291138,anode-electrolyte interface,0.0203014577430181,0.0213227850139928,0.0190964949161214,-2.8067029320286515e-05,critical
1500,3.5353535353535355,3.1392405063291138,anode-electrolyte interface,0.020304467799436,0.0212141624596221,0.019251977189426,-4.715159360428959e-05,critical
1500,3.636363636363636,3.1392405063291138,anode-electrolyte interface,0.0201686560100605,0.0210785018732113,0.019115220156502,-1.4465260149981387e-06,critical
1500,3.7373737373737375,3.1392405063291138,anode-electrolyte interface,0.0202492691579053,0.0212087599520793,0.0191293006002903,-1.3845370026981451e-06,critical
1500,3.8383838383838382,3.1392405063291138,anode-electrolyte interface,0.0202105876906575,0.0210891111731734,0.0191992975611675,-1.0623862073578004e-05,critical
1500,3.939393939393939,3.1392405063291138,anode-electrolyte interface,0.0201439621017514,0.0210866760895272,0.0190458734378398,7.5203680231929666e-06,critical
1500,4.040404040404041,3.1392405063291138,anode-electrolyte interface,0.0200918360955493,0.0211063361444413,0.0188942410887237,1.0157791271735284e-05,critical
1500,4.141414141414141,3.1392405063291138,anode-electrolyte interface,0.020042794832782,0.0209199934442815,0.0190313170179743,6.191072507086871e-05,critical
1500,4.242424242424242,3.1392405063291138,anode-electrolyte interface,0.0202181394434272,0.0211427763884255,0.0191451036725196,-2.46332612960952e-05,critical
1500,4.343434343434343,3.1392405063291138,anode-electrolyte interface,0.0201024511965097,0.0210268629163702,0.0190288047176712,-8.930879282661227e-06,critical
1500,4.444444444444445,3.1392405063291138,anode-electrolyte interface,0.0199610754438782,0.0208787596842,0.0188951238371809,3.147434361596792e-05,critical
1500,4.545454545454545,3.1392405063291138,anode-electrolyte interface,0.0200001925751142,0.020954431273306,0.018884990625339,1.7129803487191696e-05,critical
1500,4.646464646464646,3.1392405063291138,anode-electrolyte interface,0.0199659954618126,0.0208669937063197,0.0189223812161375,4.5633680635498126e-05,critical
1500,4.747474747474747,3.1392405063291138,anode-electrolyte interface,0.0200785212122965,0.0209702919076793,0.0190482974183479,3.913246124388895e-05,critical
1500,4.848484848484849,3.1392405063291138,anode-electrolyte interface,0.0200720446349382,0.0211317345188754,0.0188103614663705,2.965505370961214e-05,critical
1500,4.94949494949495,3.1392405063291138,anode-electrolyte interface,0.0200425831603158,0.0210008885993417,0.0189222518026744,1.0110210270145664e-05,critical
1500,5.05050505050505,3.1392405063291138,anode-electrolyte interface,0.0199672438834632,0.0209143943853794,0.0188614761161934,-1.2513005956520713e-06,critical
1500,5.151515151515151,3.1392405063291138,anode-electrolyte interface,0.0200656343085218,0.0210291697837657,0.0189383662381844,-5.8220041041335e-06,critical
1500,5.252525252525253,3.1392405063291138,anode-electrolyte interface,0.0200037151862794,0.0210508088558133,0.0187589357211531,-4.15073645207013e-05,critical
1500,5.353535353535354,3.1392405063291138,anode-electrolyte interface,0.0201795847953096,0.0211935210108295,0.0189836359520356,2.5580764942074996e-05,critical
1500,5.454545454545454,3.1392405063291138,anode-electrolyte interface,0.0199876238113642,0.0209137373150753,0.018910659722827,8.483043189526393e-06,critical
1500,5.555555555555555,3.1392405063291138,anode-electrolyte interface,0.0202026181486159,0.0211567764865369,0.0190894919538173,2.652715037360577e-07,critical
1500,5.656565656565657,3.1392405063291138,anode-electrolyte interface,0.0200342358440053,0.0210450743664076,0.0188411435059753,3.075941790060996e-06,critical
1500,5.757575757575758,3.1392405063291138,anode-electrolyte interface,0.0199098984431676,0.0208179188003269,0.0188563122145814,-4.823229637252362e-05,critical
1500,5.858585858585858,3.1392405063291138,anode-electrolyte interface,0.020145140029702,0.0211216116138691,0.0190002738195851,5.827693768916104e-05,critical
1500,5.959595959595959,3.1392405063291138,anode-electrolyte interface,0.0200514885906395,0.0210547731232444,0.0188691110234757,-8.645800293231252e-06,critical
1500,6.0606060606060606,3.1392405063291138,anode-electrolyte interface,0.0201052207808758,0.0210701449776386,0.0189743634112413,-0.0001080344705115,critical
1500,6.161616161616162,3.1392405063291138,anode-electrolyte interface,0.02019645121162,0.021176167438698,0.0190481822947048,-1.6563964706042905e-05,critical
1500,6.262626262626262,3.1392405063291138,anode-electrolyte interface,0.0202787964355384,0.0212139083249001,0.0191922358197676,5.595402292463363e-06,critical
1500,6.363636363636363,3.1392405063291138,anode-electrolyte interface,0.0203665523316719,0.0214308158024622,0.0191020876916843,7.222691922304489e-06,critical
1500,6.4646464646464645,3.1392405063291138,anode-electrolyte interface,0.0201882429119621,0.0211017525951241,0.0191300278817399,1.0614906460363346e-05,critical
1500,6.565656565656566,3.1392405063291138,anode-electrolyte interface,0.0203705103498487,0.0212977196565234,0.0192949824591048,-5.036016884818051e-05,critical
1500,6.666666666666667,3.1392405063291138,anode-electrolyte interface,0.020349962181096,0.0213916723112712,0.0191146880768588,0.0001171322556584,critical
1500,6.767676767676767,3.1392405063291138,anode-electrolyte interface,0.0205085460446453,0.0214831205566123,0.0193703995160805,-8.993266505064318e-06,critical
1500,6.8686868686868685,3.1392405063291138,anode-electrolyte interface,0.0205202474602998,0.0214844251693433,0.0193958452815581,-5.716448922209616e-05,critical
1500,6.96969696969697,3.1392405063291138,anode-electrolyte interface,0.0204020229764324,0.0213639438959107,0.0192774304599726,0.000125246967168,critical
1500,7.070707070707071,3.1392405063291138,anode-electrolyte interface,0.0205028329872075,0.0214508796414662,0.0194007480081476,1.8538430446474568e-06,critical
1500,7.171717171717171,3.1392405063291138,anode-electrolyte interface,0.0206572159827529,0.0216260088513436,0.0195280767465076,4.038346159795456e-05,critical
1500,7.272727272727272,3.1392405063291138,anode-electrolyte interface,0.0206436498435627,0.021529681018472,0.0196257013328175,4.113428345641219e-06,critical
1500,7.373737373737374,3.1392405063291138,anode-electrolyte interface,0.0206848954920201,0.0216529227634183,0.01955638576743,7.421497258893276e-05,critical
1500,7.474747474747475,3.1392405063291138,anode-electrolyte interface,0.0209094230625193,0.0218857799357616,0.0197713202661355,-8.615630918019801e-05,critical
1500,7.575757575757575,3.1392405063291138,anode-electrolyte interface,0.0208716975538214,0.0218689845332975,0.0197058349191612,2.545232280189296e-05,critical
1500,7.6767676767676765,3.1392405063291138,anode-electrolyte interface,0.0209216319255737,0.0219933635120347,0.0196529307360239,-3.166015344852872e-05,critical
1500,7.777777777777778,3.1392405063291138,anode-electrolyte interface,0.0210845572320151,0.0221117505313196,0.0198793623658337,4.9984643310253024e-05,critical
1500,7.878787878787879,3.1392405063291138,anode-electrolyte interface,0.0211289550893053,0.022221456195148,0.0198335588085545,-6.60754095996312e-06,critical
1500,7.979797979797979,3.1392405063291138,anode-electrolyte interface,0.0212395598110936,0.0224028107724401,0.0198443687539684,-3.482007784158998e-05,critical
1500,8.080808080808081,3.1392405063291138,anode-electrolyte interface,0.0213434838362286,0.0223618700202561,0.0201531466311518,-3.55799231644565e-05,critical
1500,8.181818181818182,3.1392405063291138,anode-electrolyte interface,0.0214978730520695,0.0225752872334805,0.020227516368994,3.884018879407387e-05,critical
1500,8.282828282828282,3.1392405063291138,anode-electrolyte interface,0.0216748862063804,0.02276201935942,0.0203928753548847,4.010454333464892e-05,critical
1500,8.383838383838384,3.1392405063291138,anode-electrolyte interface,0.0216226137629093,0.0227760996381888,0.0202443460800019,0.0001160552059206,critical
1500,8.484848484848484,3.1392405063291138,anode-electrolyte interface,0.0217905907312619,0.0228414175342289,0.0205602924152564,-5.444454067625974e-06,critical
1500,8.585858585858587,3.1392405063291138,anode-electrolyte interface,0.0219196437895897,0.0228883940687552,0.0208016127236627,1.4354969478223817e-05,critical
1500,8.686868686868687,3.1392405063291138,anode-electrolyte interface,0.0222545042681817,0.0232950617967416,0.0210424344180462,-3.568376381343421e-05,critical
1500,8.787878787878787,3.1392405063291138,anode-electrolyte interface,0.0221477607172321,0.0232123468755632,0.0209000061008771,-0.0001128326408849,critical
1500,8.88888888888889,3.1392405063291138,anode-electrolyte interface,0.022494602488448,0.0236389663702838,0.0211407469309087,-8.293572528824456e-05,critical
1500,8.98989898989899,3.1392405063291138,anode-electrolyte interface,0.0226954596513288,0.0238617502700243,0.0213135758956965,6.18351539484175e-05,critical
1500,9.09090909090909,3.1392405063291138,anode-electrolyte interface,0.0227873184499058,0.0239274128354024,0.0214437299648315,8.60109371804101e-06,critical
1500,9.191919191919192,3.1392405063291138,anode-electrolyte interface,0.0229808447528027,0.0241567583417164,0.0215886507286614,6.384946931265092e-05,critical
1500,9.292929292929292,3.1392405063291138,anode-electrolyte interface,0.0232219946790056,0.0242981676703762,0.021970436426716,-2.1260615923122583e-05,critical
1500,9.393939393939394,3.1392405063291138,anode-electrolyte interface,0.0233392300430442,0.0243878912432972,0.0221258234781023,-1.331384554516159e-05,critical
1500,9.494949494949497,3.1392405063291138,anode-electrolyte interface,0.0236612295680102,0.0247578887054678,0.0223857960262226,2.526123928655568e-05,critical
1500,9.595959595959595,3.1392405063291138,anode-electrolyte interface,0.0239109245893616,0.0251294918270632,0.0224699849296133,-3.42235790333072e-06,critical
1500,9.696969696969695,3.1392405063291138,anode-electrolyte interface,0.0240358753415331,0.0252740560050949,0.0225686927152673,-2.5227341827583045e-05,critical
1500,9.797979797979798,3.1392405063291138,anode-electrolyte interface,0.0242568737247069,0.0254697325681333,0.0228277051649489,4.774995802257105e-06,critical
1500,9.8989898989899,3.1392405063291138,anode-electrolyte interface,0.0245709784769477,0.0258005156581702,0.0231217628002347,-3.588532093207278e-05,critical
1500,10.0,3.1392405063291138,anode-electrolyte interface,0.0248064346906313,0.0259844757607966,0.0234302058587369,6.656105258961253e-05,critical
1500,0.0,3.240506329113924,anode-electrolyte interface,0.0247764413953242,0.025998794928312,0.0233394472043529,2.8380115527997385e-05,critical
1500,0.101010101010101,3.240506329113924,anode-electrolyte interface,0.0244999240105729,0.025639372635382,0.0231740630085341,5.416517570557132e-06,critical
1500,0.202020202020202,3.240506329113924,anode-electrolyte interface,0.0242604091260071,0.0254238617040631,0.0228994926444858,2.219403581590331e-05,critical
1500,0.303030303030303,3.240506329113924,anode-electrolyte interface,0.0241400557208525,0.0251539960461526,0.0229785233323025,-5.139270373765848e-05,critical
1500,0.404040404040404,3.240506329113924,anode-electrolyte interface,0.0238493951874865,0.025063990498424,0.0224100954513652,-0.0001461419701374,critical
1500,0.5050505050505051,3.240506329113924,anode-electrolyte interface,0.0236314117146327,0.0247574850930198,0.0223156233431358,-2.719412805383619e-05,critical
1500,0.6060606060606061,3.240506329113924,anode-electrolyte interface,0.0234119955428604,0.0245068938649104,0.022136691401212,-2.6638882719692847e-05,critical
1500,0.7070707070707071,3.240506329113924,anode-electrolyte interface,0.0230455807644559,0.0241954718741127,0.0216908766456385,3.999878402255488e-05,critical
1500,0.8080808080808081,3.240506329113924,anode-electrolyte interface,0.0229190785602098,0.0240625341886571,0.0215721972681825,1.471712710688804e-05,critical
1500,0.9090909090909092,3.240506329113924,anode-electrolyte interface,0.022637142517347,0.0237418507403186,0.0213410645634417,-5.085235522117068e-06,critical
1500,1.0101010101010102,3.240506329113924,anode-electrolyte interface,0.0225932555573511,0.0238134241795192,0.021134110595613,1.76552982777096e-05,critical
1500,1.1111111111111112,3.240506329113924,anode-electrolyte interface,0.022494858317922,0.0235251252889817,0.0212990274192719,-1.6836924009292003e-05,critical
1500,1.2121212121212122,3.240506329113924,anode-electrolyte interface,0.0222241796597823,0.0232473690888908,0.0210355616329457,1.4189842696620046e-05,critical
1500,1.3131313131313131,3.240506329113924,anode-electrolyte interface,0.0220401867446513,0.0230741788817829,0.0208344723922498,7.118916937311375e-05,critical
1500,1.414141414141414,3.240506329113924,anode-electrolyte interface,0.0220313963851996,0.0230253647824093,0.0208796049433114,-7.663998599353343e-05,critical
1500,1.5151515151515151,3.240506329113924,anode-electrolyte interface,0.0217484784743962,0.0228584913838974,0.020434886738601,6.264723814770754e-05,critical
1500,1.616161616161616,3.240506329113924,anode-electrolyte interface,0.0216689979817677,0.0227611791352295,0.020380137386675,-7.208023208496539e-06,critical
1500,1.7171717171717171,3.240506329113924,anode-electrolyte interface,0.021543402230627,0.0225783738297196,0.0203324613608194,6.91302417459863e-06,critical
1500,1.818181818181818,3.240506329113924,anode-electrolyte interface,0.0214780422627371,0.0226011558412662,0.0201430267033225,-5.232891021841655e-05,critical
1500,1.9191919191919191,3.240506329113924,anode-electrolyte interface,0.0213787269325908,0.0224675160467785,0.020090616465588,6.847337426743737e-05,critical
1500,2.0202020202020203,3.240506329113924,anode-electrolyte interface,0.0212881649829199,0.0223857912255666,0.0199871948341609,-3.431690012250207e-05,critical
1500,2.121212121212121,3.240506329113924,anode-electrolyte interface,0.0212515613751973,0.0222717513659252,0.0200570591701829,7.78125781066108e-05,critical
1500,2.2222222222222223,3.240506329113924,anode-electrolyte interface,0.0210383185384636,0.0220940749096162,0.0197931928867702,-3.874059896235702e-05,critical
1500,2.323232323232323,3.240506329113924,anode-electrolyte interface,0.0209775406760622,0.021901127036935,0.0199122981591838,5.565533955921861e-07,critical
1500,2.4242424242424243,3.240506329113924,anode-electrolyte interface,0.0209048547017585,0.0219166427357656,0.019719412890278,2.4520960144940624e-05,critical
1500,2.525252525252525,3.240506329113924,anode-electrolyte interface,0.0209031760850909,0.0218519583041581,0.0198035190191075,1.8212254488424028e-05,critical
1500,2.6262626262626263,3.240506329113924,anode-electrolyte interface,0.0206368310962669,0.0216823207453371,0.0194011143620112,6.7603546330308e-05,critical
1500,2.727272727272727,3.240506329113924,anode-electrolyte interface,0.0206634831353799,0.0217134928230721,0.0194218409106154,6.288501349608819e-05,critical
1500,2.8282828282828283,3.240506329113924,anode-electrolyte interface,0.020695852239631,0.0217909839810396,0.0193915127156595,-1.52163967805921e-05,critical
1500,2.929292929292929,3.240506329113924,anode-electrolyte interface,0.0205939283498099,0.0215206583406038,0.0195211765389203,3.3599112723527135e-05,critical
1500,3.0303030303030303,3.240506329113924,anode-electrolyte interface,0.0205233720171633,0.0213856074069514,0.0195355279030288,-4.786983158024464e-05,critical
1500,3.131313131313131,3.240506329113924,anode-electrolyte interface,0.0204326126911641,0.0213886257256309,0.0193169619406429,0.0001104557896795,critical
1500,3.2323232323232323,3.240506329113924,anode-electrolyte interface,0.0205009920161098,0.021583792152744,0.0192113734475069,-5.167743513446439e-05,critical
1500,3.333333333333333,3.240506329113924,anode-electrolyte interface,0.0203620674084754,0.0213049401915884,0.0192643392473361,8.970588730294151e-05,critical
1500,3.4343434343434343,3.240506329113924,anode-electrolyte interface,0.0201550252268303,0.0211803298786149,0.0189430170583206,-6.404343651169607e-06,critical
1500,3.5353535353535355,3.240506329113924,anode-electrolyte interface,0.0203027190712592,0.0213720113556392,0.0190303278475329,-1.3381272085213956e-05,critical
1500,3.636363636363636,3.240506329113924,anode-electrolyte interface,0.0202426053843304,0.0212239091073939,0.0190921585682796,5.314843237159335e-05,critical
1500,3.7373737373737375,3.240506329113924,anode-electrolyte interface,0.0201614521025282,0.0211023108570734,0.0190657134780471,-4.400557781362171e-05,critical
1500,3.8383838383838382,3.240506329113924,anode-electrolyte interface,0.0201362577028103,0.0211051372968211,0.0190022783844126,1.970121019859171e-05,critical
1500,3.939393939393939,3.240506329113924,anode-electrolyte interface,0.0201238379857759,0.0211119484095659,0.0189622816670379,7.544510513551621e-05,critical
1500,4.040404040404041,3.240506329113924,anode-electrolyte interface,0.0200738643128839,0.0210497027720169,0.0189292942366741,-5.1246883739116666e-05,critical
1500,4.141414141414141,3.240506329113924,anode-electrolyte interface,0.0201461307562229,0.0212504902431705,0.0188211893781434,-4.312968392641925e-05,critical
1500,4.242424242424242,3.240506329113924,anode-electrolyte interface,0.0200772540486805,0.0209475030821994,0.0190731211488326,0.000127224802077,critical
1500,4.343434343434343,3.240506329113924,anode-electrolyte interface,0.0200090263422391,0.0209275407539964,0.0189421052853181,-5.000279707345429e-05,critical
1500,4.444444444444445,3.240506329113924,anode-electrolyte interface,0.0200415312314379,0.0209879569639236,0.0189374395596535,7.87380838580359e-06,critical
1500,4.545454545454545,3.240506329113924,anode-electrolyte interface,0.0199811575503553,0.0209029606826056,0.0189092022185327,6.651748048769432e-05,critical
1500,4.646464646464646,3.240506329113924,anode-electrolyte interface,0.0199863449452957,0.021019234081051,0.0187613660655962,4.644453352548969e-05,critical
1500,4.747474747474747,3.240506329113924,anode-electrolyte interface,0.0201093859338337,0.0211347314839107,0.0188967807673125,1.4045147069977707e-05,critical
1500,4.848484848484849,3.240506329113924,anode-electrolyte interface,0.0199767208936528,0.0208956042142462,0.0189092950312638,-3.059710662653452e-05,critical
1500,4.94949494949495,3.240506329113924,anode-electrolyte interface,0.0199957436223511,0.0210387956073928,0.018756481057383,4.841496116338647e-05,critical
1500,5.05050505050505,3.240506329113924,anode-electrolyte interface,0.020092950567951,0.0210369188134227,0.0189923011193733,-4.727325871824486e-05,critical
1500,5.151515151515151,3.240506329113924,anode-electrolyte interface,0.0199097409309514,0.0208458153747836,0.0188183822383811,-3.0424889034906523e-05,critical
1500,5.252525252525253,3.240506329113924,anode-electrolyte interface,0.0201138753018379,0.0210020159933475,0.0190885801768991,-5.18872774632908e-05,critical
1500,5.353535353535354,3.240506329113924,anode-electrolyte interface,0.0199753458313064,0.020897930896812,0.0189027027700764,4.520158750586386e-05,critical
1500,5.454545454545454,3.240506329113924,anode-electrolyte interface,0.0201093771518531,0.0211613362014692,0.0188570119549521,0.0001119069085112,critical
1500,5.555555555555555,3.240506329113924,anode-electrolyte interface,0.0200361993596377,0.0209987369144529,0.0189097435948632,-3.941582408363668e-05,critical
1500,5.656565656565657,3.240506329113924,anode-electrolyte interface,0.0200373560232239,0.020992806254592,0.0189203883780772,-5.376821836885919e-05,critical
1500,5.757575757575758,3.240506329113924,anode-electrolyte interface,0.0201405758619879,0.0211278231506511,0.0189813990682367,2.3836444131875958e-06,critical
1500,5.858585858585858,3.240506329113924,anode-electrolyte interface,0.0201329006213797,0.0211392692147844,0.0189470258787936,-2.2178930314998035e-05,critical
1500,5.959595959595959,3.240506329113924,anode-electrolyte interface,0.0201455600086234,0.0210698492713628,0.0190724687125086,-2.44668595583293e-06,critical
1500,6.0606060606060606,3.240506329113924,anode-electrolyte interface,0.0201199177361466,0.0211090544253157,0.0189578650172685,1.7023539608197734e-05,critical
1500,6.161616161616162,3.240506329113924,anode-electrolyte interface,0.0200968778955119,0.0210546422989659,0.0189775096429584,4.220512921050678e-05,critical
1500,6.262626262626262,3.240506329113924,anode-electrolyte interface,0.0202594150869471,0.021262230214782,0.0190793928370367,-5.378286034134512e-05,critical
1500,6.363636363636363,3.240506329113924,anode-electrolyte interface,0.0202155060496039,0.0211372574083861,0.0191441662465261,-0.0001141674797955,critical
1500,6.4646464646464645,3.240506329113924,anode-electrolyte interface,0.0202203485789423,0.021101487739347,0.0192045386998042,-8.112353045085349e-05,critical
1500,6.565656565656566,3.240506329113924,anode-electrolyte interface,0.0203592995070627,0.0213253609142401,0.0192303622303636,7.66851979711216e-05,critical
1500,6.666666666666667,3.240506329113924,anode-electrolyte interface,0.0203535601396086,0.0213386666777376,0.0191992766014743,-3.394409965573291e-05,critical
1500,6.767676767676767,3.240506329113924,anode-electrolyte interface,0.0204756233798771,0.0214770468422288,0.0192998438234866,4.929491193560164e-05,critical
1500,6.8686868686868685,3.240506329113924,anode-electrolyte interface,0.0205688723796369,0.0216095497167343,0.0193399316985768,6.569190814388519e-06,critical
1500,6.96969696969697,3.240506329113924,anode-electrolyte interface,0.0204009022265193,0.0213100372101646,0.0193493129097733,7.701466411510981e-05,critical
1500,7.070707070707071,3.240506329113924,anode-electrolyte interface,0.0205078111845825,0.0214550064722167,0.0194069237199311,-9.319043645529072e-07,critical
1500,7.171717171717171,3.240506329113924,anode-electrolyte interface,0.0204869606687256,0.0215041954525572,0.0192895715227946,3.778037133868078e-05,critical
1500,7.272727272727272,3.240506329113924,anode-electrolyte interface,0.0206804488452634,0.0216965457558644,0.0194868136806489,-2.2390020977173887e-05,critical
1500,7.373737373737374,3.240506329113924,anode-electrolyte interface,0.0207262309356729,0.0217980602039397,0.0194550796566684,3.693835157193638e-05,critical
1500,7.474747474747475,3.240506329113924,anode-electrolyte interface,0.020791247309307,0.0219621545503314,0.0193780968964084,6.795044210548174e-05,critical
1500,7.575757575757575,3.240506329113924,anode-electrolyte interface,0.0207859730465766,0.0217822955484218,0.0196206193868067,-2.3814133021701536e-05,critical
1500,7.6767676767676765,3.240506329113924,anode-electrolyte interface,0.0209613533642678,0.0220218823212628,0.0197088915697608,2.249306090730992e-05,critical
1500,7.777777777777778,3.240506329113924,anode-electrolyte interface,0.0210235072358697,0.0218808414074529,0.020045748053713,2.8605492910230865e-05,critical
1500,7.878787878787879,3.240506329113924,anode-electrolyte interface,0.0212134738865813,0.0222380350335954,0.0200135970699634,-9.614095790890456e-06,critical
1500,7.979797979797979,3.240506329113924,anode-electrolyte interface,0.0212791282517426,0.0223499745333525,0.0200154294383693,-4.7819563395545166e-05,critical
1500,8.080808080808081,3.240506329113924,anode-electrolyte interface,0.0211651602042231,0.0222198240898992,0.0199231646355227,-7.031017862847926e-06,critical
1500,8.181818181818182,3.240506329113924,anode-electrolyte interface,0.021468168862641,0.0225521400688221,0.0201884988380816,2.3244150126877848e-05,critical
1500,8.282828282828282,3.240506329113924,anode-electrolyte interface,0.0215321828933479,0.0226388055314669,0.0202211337930532,4.982620178744035e-05,critical
1500,8.383838383838384,3.240506329113924,anode-electrolyte interface,0.0217710734763481,0.0228227105920526,0.0205349042409725,-0.0001667392028258,critical
1500,8.484848484848484,3.240506329113924,anode-electrolyte interface,0.0217696452943259,0.0228134011806856,0.0205488192228294,-1.492288093630143e-05,critical
1500,8.585858585858587,3.240506329113924,anode-electrolyte interface,0.0219604451938434,0.0229444343261515,0.0208220528546217,-4.628081886197049e-05,critical
1500,8.686868686868687,3.240506329113924,anode-electrolyte interface,0.0221780550615525,0.0233259979088834,0.0208164786125917,3.317944727659085e-05,critical
1500,8.787878787878787,3.240506329113924,anode-electrolyte interface,0.0221249911761034,0.0232287920007805,0.0208248285084486,-1.395463498609446e-05,critical
1500,8.88888888888889,3.240506329113924,anode-electrolyte interface,0.0223027688034175,0.0233428723239259,0.0210899899254691,-0.0001111681223945,critical
1500,8.98989898989899,3.240506329113924,anode-electrolyte interface,0.0225607794112234,0.0237097629552678,0.0212020606750821,-3.814073251749782e-05,critical
1500,9.09090909090909,3.240506329113924,anode-electrolyte interface,0.0226877961629521,0.0237622743638997,0.021432725260583,7.95774231854696e-05,critical
1500,9.191919191919192,3.240506329113924,anode-electrolyte interface,0.0229033328255371,0.0239466015864708,0.0216934751621209,1.8877675658855924e-05,critical
1500,9.292929292929292,3.240506329113924,anode-electrolyte interface,0.023215335069489,0.0243573144687121,0.0218733171162102,-4.573863434527374e-05,critical
1500,9.393939393939394,3.240506329113924,anode-electrolyte interface,0.0233669117542847,0.024482534106324,0.0220630032897811,8.267009248706366e-06,critical
1500,9.494949494949497,3.240506329113924,anode-electrolyte interface,0.0235734446708753,0.0247618897908722,0.0221708552276653,2.2802238579588085e-05,critical
1500,9.595959595959595,3.240506329113924,anode-electrolyte interface,0.0237284696532853,0.0248555796404004,0.0224116774606482,-6.423971922166632e-05,critical
1500,9.696969696969695,3.240506329113924,anode-electrolyte interface,0.0239997866484671,0.025200161418132,0.022585133673284,2.8135675872149457e-05,critical
1500,9.797979797979798,3.240506329113924,anode-electrolyte interface,0.0242737323582769,0.0254735850964239,0.0228619166808732,-7.808254371391294e-05,critical
1500,9.8989898989899,3.240506329113924,anode-electrolyte interface,0.0245705753697456,0.0257280175490427,0.023220791185323,-2.624781115894304e-05,critical
1500,10.0,3.240506329113924,anode-electrolyte interface,0.0249236496612231,0.0261207967824634,0.0235229719850414,1.681087381266723e-05,critical
1500,0.0,3.3417721518987342,anode-electrolyte interface,0.0248693118884891,0.0259328673518909,0.0236478525453779,3.982429995030562e-05,critical
1500,0.101010101010101,3.3417721518987342,anode-electrolyte interface,0.0245867262195348,0.0256756627091893,0.0233295928395523,-1.0090756182525932e-05,critical
1500,0.202020202020202,3.3417721518987342,anode-electrolyte interface,0.024411544637883,0.0256437616945976,0.0229568855155488,-3.319937209114196e-05,critical
1500,0.303030303030303,3.3417721518987342,anode-electrolyte interface,0.0239447912736339,0.0251474186741814,0.0225264470481118,2.266945510982977e-05,critical
1500,0.404040404040404,3.3417721518987342,anode-electrolyte interface,0.0237845110077642,0.0248912442029377,0.0224965148294664,2.576024737316677e-05,critical
1500,0.5050505050505051,3.3417721518987342,anode-electrolyte interface,0.0236613238116759,0.0248193785008584,0.0223019385240478,1.2740394037565518e-05,critical
1500,0.6060606060606061,3.3417721518987342,anode-electrolyte interface,0.0234636471204326,0.0246512127441824,0.0220611563601633,-5.332376870549542e-06,critical
1500,0.7070707070707071,3.3417721518987342,anode-electrolyte interface,0.0230917129430461,0.024238357123743,0.0217422585555587,-4.866057962321566e-06,critical
1500,0.8080808080808081,3.3417721518987342,anode-electrolyte interface,0.0230218606542534,0.0241887522192096,0.0216433434677309,-2.2285537655832112e-05,critical
1500,0.9090909090909092,3.3417721518987342,anode-electrolyte interface,0.0227902014824609,0.0238941563511323,0.0214964638162314,3.8672547332895706e-05,critical
1500,1.0101010101010102,3.3417721518987342,anode-electrolyte interface,0.0225744182631719,0.0237154620550112,0.0212271847664094,1.0664476255309258e-05,critical
1500,1.1111111111111112,3.3417721518987342,anode-electrolyte interface,0.0224255362457441,0.0234478698941754,0.021238594293126,8.940825352319943e-05,critical
1500,1.2121212121212122,3.3417721518987342,anode-electrolyte interface,0.022259463345819,0.0233770979170298,0.0209408798056584,6.20539336873256e-05,critical
1500,1.3131313131313131,3.3417721518987342,anode-electrolyte interface,0.022217035718115,0.0232917846769391,0.0209579883180122,1.9317436956880277e-05,critical
1500,1.414141414141414,3.3417721518987342,anode-electrolyte interface,0.0221146574003164,0.0231494456499042,0.020909359617504,9.057413828474228e-07,critical
1500,1.5151515151515151,3.3417721518987342,anode-electrolyte interface,0.0219808421537062,0.0229663326413454,0.0208389784119634,-0.000110868772145,critical
1500,1.616161616161616,3.3417721518987342,anode-electrolyte interface,0.021771706876298,0.0228134517818913,0.0205536940294574,-1.5839803636541549e-06,critical
1500,1.7171717171717171,3.3417721518987342,anode-electrolyte interface,0.0215816747461648,0.0226074760898778,0.020383485043869,3.365471174619315e-05,critical
1500,1.818181818181818,3.3417721518987342,anode-electrolyte interface,0.0215875212170361,0.0225775230653673,0.0204380459893248,-3.2941372444403127e-05,critical
1500,1.9191919191919191,3.3417721518987342,anode-electrolyte interface,0.0213423078534461,0.0222909290255801,0.0202463700616196,3.4083646932293e-05,critical
1500,2.0202020202020203,3.3417721518987342,anode-electrolyte interface,0.0213738007131485,0.0223893147226174,0.0201875469419868,4.558363671249153e-05,critical
1500,2.121212121212121,3.3417721518987342,anode-electrolyte interface,0.0211791037941138,0.0222746703004465,0.0198794120880608,-5.722933274666906e-05,critical
1500,2.2222222222222223,3.3417721518987342,anode-electrolyte interface,0.021086889838178,0.0221228576359127,0.0198698746315706,-2.9342301266326184e-05,critical
1500,2.323232323232323,3.3417721518987342,anode-electrolyte interface,0.0210137523479673,0.0219609224744173,0.0199170849616553,3.1396410806759936e-05,critical
1500,2.4242424242424243,3.3417721518987342,anode-electrolyte interface,0.0208907999402934,0.0219893205140078,0.0195838440307659,-3.550467144797213e-05,critical
1500,2.525252525252525,3.3417721518987342,anode-electrolyte interface,0.0208549172586692,0.0219188948662099,0.0195965090366305,9.602184989793658e-06,critical
1500,2.6262626262626263,3.3417721518987342,anode-electrolyte interface,0.0208466133317965,0.0218982306239009,0.0196053469356542,-2.2826439804475104e-05,critical
1500,2.727272727272727,3.3417721518987342,anode-electrolyte interface,0.0208483883901847,0.0218061207023169,0.0197361970408027,-1.652903542353176e-05,critical
1500,2.8282828282828283,3.3417721518987342,anode-electrolyte interface,0.0205998799216996,0.02162054019604,0.0193971865079942,0.0001066154774878,critical
1500,2.929292929292929,3.3417721518987342,anode-electrolyte interface,0.0205405093602434,0.0215015818960715,0.0194204668930576,5.9793426208940416e-05,critical
1500,3.0303030303030303,3.3417721518987342,anode-electrolyte interface,0.0206216103543625,0.0215689743391082,0.0195214188752915,-2.119312468181567e-05,critical
1500,3.131313131313131,3.3417721518987342,anode-electrolyte interface,0.0203176980170386,0.0212716937432483,0.0192047617239122,-7.92357997834399e-05,critical
1500,3.2323232323232323,3.3417721518987342,anode-electrolyte interface,0.0204063116504332,0.0213885058034718,0.0192567018235673,1.7207137797613272e-05,critical
1500,3.333333333333333,3.3417721518987342,anode-electrolyte interface,0.0204196537455837,0.0214369724116483,0.0192213287799835,4.504669896860876e-05,critical
1500,3.4343434343434343,3.3417721518987342,anode-electrolyte interface,0.020329309108905,0.0212720740901272,0.0192328259146142,7.700776679307046e-06,critical
1500,3.5353535353535355,3.3417721518987342,anode-electrolyte interface,0.0201420096688068,0.0210638814620501,0.0190721524386049,1.8975902125018117e-06,critical
1500,3.636363636363636,3.3417721518987342,anode-electrolyte interface,0.0202796772121543,0.0212178011244557,0.0191879002170882,8.115691254331781e-05,critical
1500,3.7373737373737375,3.3417721518987342,anode-electrolyte interface,0.0202663247607506,0.0213142631576476,0.0190233224756915,-4.969480284874415e-05,critical
1500,3.8383838383838382,3.3417721518987342,anode-electrolyte interface,0.0201981044065178,0.0211409930218405,0.0190999884764842,4.082059872024009e-05,critical
1500,3.939393939393939,3.3417721518987342,anode-electrolyte interface,0.0201783407411748,0.0211412800417923,0.0190527712663583,3.460851337716505e-05,critical
1500,4.040404040404041,3.3417721518987342,anode-electrolyte interface,0.0200824391817766,0.0210620666840461,0.0189329269670476,3.897542441850065e-05,critical
1500,4.141414141414141,3.3417721518987342,anode-electrolyte interface,0.0202382974350773,0.0213350133972528,0.0189250193903903,-7.087481992404203e-05,critical
1500,4.242424242424242,3.3417721518987342,anode-electrolyte interface,0.0199913442356992,0.0208684358049307,0.018980189194582,2.243001083605552e-05,critical
1500,4.343434343434343,3.3417721518987342,anode-electrolyte interface,0.0200883539722887,0.0209461939522679,0.0191033052980216,-3.736675114373181e-05,critical
1500,4.444444444444445,3.3417721518987342,anode-electrolyte interface,0.0199228211191411,0.0208307058153077,0.0188697256400838,3.490211798433887e-05,critical
1500,4.545454545454545,3.3417721518987342,anode-electrolyte interface,0.0200354092791226,0.0210419183088562,0.0188482437846127,-2.7148249859382623e-05,critical
1500,4.646464646464646,3.3417721518987342,anode-electrolyte interface,0.0200566881734348,0.0208951417692833,0.0190971677319957,9.479467168928316e-07,critical
1500,4.747474747474747,3.3417721518987342,anode-electrolyte interface,0.0200177377024776,0.0210213293252639,0.0188345429084403,1.4818043648075264e-05,critical
1500,4.848484848484849,3.3417721518987342,anode-electrolyte interface,0.0200435144684315,0.0209417628834361,0.0190045623074757,-1.5150666398922336e-05,critical
1500,4.94949494949495,3.3417721518987342,anode-electrolyte interface,0.0200171888814624,0.0210698544822111,0.0187643042810496,6.090518429037796e-05,critical
1500,5.05050505050505,3.3417721518987342,anode-electrolyte interface,0.0200306958163547,0.0210299924738686,0.0188534256492851,3.620420946022198e-05,critical
1500,5.151515151515151,3.3417721518987342,anode-electrolyte interface,0.020126341990125,0.021076645709287,0.0190175812519754,-3.2006086088258855e-05,critical
1500,5.252525252525253,3.3417721518987342,anode-electrolyte interface,0.0200896543952257,0.0211520822997373,0.0188236106229759,-6.800072239020218e-05,critical
1500,5.353535353535354,3.3417721518987342,anode-electrolyte interface,0.0201525398220086,0.0211868245713766,0.0189278001190579,-2.372872317139848e-05,critical
1500,5.454545454545454,3.3417721518987342,anode-electrolyte interface,0.020120419288231,0.0211147525646047,0.018951198067109,1.219673129774036e-05,critical
1500,5.555555555555555,3.3417721518987342,anode-electrolyte interface,0.0201167750423325,0.0210169289526128,0.0190733011673073,-0.0001221114394226,critical
1500,5.656565656565657,3.3417721518987342,anode-electrolyte interface,0.0201248508440701,0.0211417766500383,0.0189238885246721,-4.460650397079991e-05,critical
1500,5.757575757575758,3.3417721518987342,anode-electrolyte interface,0.0201449954190549,0.0210712677387134,0.0190691784274359,1.5433962673261676e-05,critical
1500,5.858585858585858,3.3417721518987342,anode-electrolyte interface,0.0200505181160587,0.0210139300971183,0.0189230777649326,3.356522389321342e-05,critical
1500,5.959595959595959,3.3417721518987342,anode-electrolyte interface,0.0201595844092355,0.0210925510570842,0.0190748772490758,2.13493325607096e-06,critical
1500,6.0606060606060606,3.3417721518987342,anode-electrolyte interface,0.0200621079519963,0.0209259780337315,0.0190683058570377,-6.899289008071771e-05,critical
1500,6.161616161616162,3.3417721518987342,anode-electrolyte interface,0.0201368023408071,0.0211710656265452,0.0189118307131357,3.192163767878813e-05,critical
1500,6.262626262626262,3.3417721518987342,anode-electrolyte interface,0.020238741861902,0.0212177069636568,0.0190919376809354,-1.4583402162588512e-05,critical
1500,6.363636363636363,3.3417721518987342,anode-electrolyte interface,0.0202070805870263,0.021184069869483,0.0190624079443046,-4.193150402559166e-05,critical
1500,6.4646464646464645,3.3417721518987342,anode-electrolyte interface,0.0201436932858864,0.0211560531322296,0.0189496175203438,1.737805745163508e-05,critical
1500,6.565656565656566,3.3417721518987342,anode-electrolyte interface,0.0203782527355584,0.0212728690528882,0.019346818940551,1.97450988187735e-05,critical
1500,6.666666666666667,3.3417721518987342,anode-electrolyte interface,0.0204374439209337,0.0213667761583805,0.0193600458004676,-1.1288007689006244e-05,critical
1500,6.767676767676767,3.3417721518987342,anode-electrolyte interface,0.0203170447688396,0.0213092882995478,0.0191523440928699,4.857276741625424e-05,critical
1500,6.8686868686868685,3.3417721518987342,anode-electrolyte interface,0.020455873259905,0.0214561263609989,0.0192819228234013,8.509219885932383e-06,critical
1500,6.96969696969697,3.3417721518987342,anode-electrolyte interface,0.0203976198098859,0.0213799670714387,0.0192477593261132,6.414778474049837e-06,critical
1500,7.070707070707071,3.3417721518987342,anode-electrolyte interface,0.020504805492538,0.0214652536794226,0.019385883385725,1.0996881631877423e-05,critical
1500,7.171717171717171,3.3417721518987342,anode-electrolyte interface,0.0205918990243425,0.0215940193925194,0.0194167251928739,1.3601994544349017e-05,critical
1500,7.272727272727272,3.3417721518987342,anode-electrolyte interface,0.0207336446690188,0.021780708500893,0.0194973963837,-3.3664406916282e-05,critical
1500,7.373737373737374,3.3417721518987342,anode-electrolyte interface,0.0207873052728615,0.0217577407397228,0.0196574008680817,6.393237503566438e-07,critical
1500,7.474747474747475,3.3417721518987342,anode-electrolyte interface,0.0209478980034668,0.0219068783545643,0.0198349273529852,6.030954495860845e-06,critical
1500,7.575757575757575,3.3417721518987342,anode-electrolyte interface,0.0210321829841357,0.0220312297335816,0.0198655121061551,-1.556974065199944e-05,critical
1500,7.6767676767676765,3.3417721518987342,anode-electrolyte interface,0.0210582108367521,0.0221118066699956,0.0198165524130697,-9.586753606920133e-06,critical
1500,7.777777777777778,3.3417721518987342,anode-electrolyte interface,0.0209992636386216,0.022024658878993,0.0197953191579704,6.822980168127807e-05,critical
1500,7.878787878787879,3.3417721518987342,anode-electrolyte interface,0.0211338465169298,0.0220715976908575,0.0200509382245778,-7.350858577873251e-06,critical
1500,7.979797979797979,3.3417721518987342,anode-electrolyte interface,0.0213143788922984,0.0222742054064109,0.0202028654788139,-5.634120933950953e-05,critical
1500,8.080808080808081,3.3417721518987342,anode-electrolyte interface,0.0213429331318342,0.0224126111175461,0.0200818378921245,-2.4950883869026563e-05,critical
1500,8.181818181818182,3.3417721518987342,anode-electrolyte interface,0.0216302695510896,0.0226406060692702,0.0204534084897668,4.886447357082408e-05,critical
1500,8.282828282828282,3.3417721518987342,anode-electrolyte interface,0.0216880603662473,0.0227301266898903,0.0204685172679266,-4.120929624515543e-05,critical
1500,8.383838383838384,3.3417721518987342,anode-electrolyte interface,0.0217469058690287,0.0228176724033304,0.0204877458421245,7.457476671467734e-05,critical
1500,8.484848484848484,3.3417721518987342,anode-electrolyte interface,0.0217966796054343,0.0228403781411541,0.0205757057756205,-5.6569904960475216e-05,critical
1500,8.585858585858587,3.3417721518987342,anode-electrolyte interface,0.0219990918317394,0.0230434615564799,0.0207792460003382,5.037511024026283e-05,critical
1500,8.686868686868687,3.3417721518987342,anode-electrolyte interface,0.0220848604632508,0.023168160850406,0.0208127422805045,-5.892058192957652e-06,critical
1500,8.787878787878787,3.3417721518987342,anode-electrolyte interface,0.0222308440334498,0.0233296915204182,0.0209386548039568,1.837054952095505e-05,critical
1500,8.88888888888889,3.3417721518987342,anode-electrolyte interface,0.0224189568156459,0.0232964210117746,0.0214239002574811,3.209680145403386e-05,critical
1500,8.98989898989899,3.3417721518987342,anode-electrolyte interface,0.0225613509841523,0.0237467235645978,0.0211505869599275,7.63570420607639e-05,critical
1500,9.09090909090909,3.3417721518987342,anode-electrolyte interface,0.0227158555112411,0.0238671642377113,0.021355839321096,-2.180213972903905e-06,critical
1500,9.191919191919192,3.3417721518987342,anode-electrolyte interface,0.0229037186095537,0.02393494060168,0.0217101231803157,-1.2663857025326112e-06,critical
1500,9.292929292929292,3.3417721518987342,anode-electrolyte interface,0.0231616714250391,0.0242270047488214,0.0219243128625057,-8.194380159037459e-06,critical
1500,9.393939393939394,3.3417721518987342,anode-electrolyte interface,0.0232718683699994,0.024311065096321,0.0220703959990892,3.840829705233913e-05,critical
1500,9.494949494949497,3.3417721518987342,anode-electrolyte interface,0.0235981872215726,0.0246993349112259,0.0223157242412548,-5.565817423511635e-05,critical
1500,9.595959595959595,3.3417721518987342,anode-electrolyte interface,0.0238297819282772,0.0250290183164024,0.0224148564248789,-3.061773084859533e-05,critical
1500,9.696969696969695,3.3417721518987342,anode-electrolyte interface,0.0240085455482497,0.0250363557551069,0.022828148208565,1.2096746629589184e-05,critical
1500,9.797979797979798,3.3417721518987342,anode-electrolyte interface,0.024275250138781,0.0254142823846012,0.0229478926473029,-1.2477901359815524e-05,critical
1500,9.8989898989899,3.3417721518987342,anode-electrolyte interface,0.0244951454514733,0.0256350578515983,0.0231685417314916,-2.2666378415732404e-05,critical
1500,10.0,3.3417721518987342,anode-electrolyte interface,0.02500624474187,0.0262060036930004,0.0236019576443084,-7.79552816415733e-05,critical
1500,0.0,3.4430379746835444,anode-electrolyte interface,0.0247899935421672,0.0259271886457361,0.023469250175551,5.955843625782347e-05,critical
1500,0.101010101010101,3.4430379746835444,anode-electrolyte interface,0.0245988225273494,0.0257245490191926,0.0232921577152842,-4.1989550718407727e-05,critical
1500,0.202020202020202,3.4430379746835444,anode-electrolyte interface,0.024292285887114,0.025358240371316,0.0230634777451653,-1.3724065325356289e-06,critical
1500,0.303030303030303,3.4430379746835444,anode-electrolyte interface,0.0239305902378494,0.0250672589507396,0.0226032067600181,1.9655048299423147e-05,critical
1500,0.404040404040404,3.4430379746835444,anode-electrolyte interface,0.0237609757230827,0.0249925735323934,0.0222998122958875,3.319474134807206e-05,critical
1500,0.5050505050505051,3.4430379746835444,anode-electrolyte interface,0.0234565707064814,0.0246334667903827,0.0220688998409477,8.04855596243391e-06,critical
1500,0.6060606060606061,3.4430379746835444,anode-electrolyte interface,0.0232542669625967,0.0244139600269845,0.0218883682828389,-1.3784006147313738e-05,critical
1500,0.7070707070707071,3.4430379746835444,anode-electrolyte interface,0.0231981916024735,0.0242650711990808,0.0219588008832044,-4.220575704608104e-05,critical
1500,0.8080808080808081,3.4430379746835444,anode-electrolyte interface,0.0230605849366362,0.0241963167294881,0.0217254103100422,-5.85666181625596e-05,critical
1500,0.9090909090909092,3.4430379746835444,anode-electrolyte interface,0.0228320802787964,0.0239684254569844,0.0214941949967808,4.580719591814745e-06,critical
1500,1.0101010101010102,3.4430379746835444,anode-electrolyte interface,0.0225261245434046,0.0236275939816575,0.0212333280310901,-2.1007181195016213e-05,critical
1500,1.1111111111111112,3.4430379746835444,anode-electrolyte interface,0.0225477779146519,0.023589866282794,0.0213364350547517,-1.5129395642820011e-05,critical
1500,1.2121212121212122,3.4430379746835444,anode-electrolyte interface,0.0223013985616118,0.0235065158360284,0.0208601313348036,2.537212695681232e-06,critical
1500,1.3131313131313131,3.4430379746835444,anode-electrolyte interface,0.0221111458627444,0.0232457487376107,0.0207673104242601,-5.3024560846318185e-05,critical
1500,1.414141414141414,3.4430379746835444,anode-electrolyte interface,0.0220240455516143,0.0230853035665236,0.0207813647674098,4.595028909533332e-05,critical
1500,1.5151515151515151,3.4430379746835444,anode-electrolyte interface,0.0218755220762021,0.0230219171836996,0.0205127340405451,7.676440684772581e-07,critical
1500,1.616161616161616,3.4430379746835444,anode-electrolyte interface,0.0217008214074787,0.0226550344401251,0.020600384558874,2.33948972320926e-05,critical
1500,1.7171717171717171,3.4430379746835444,anode-electrolyte interface,0.0215755356080159,0.0226123819071817,0.0203622342518858,2.552720762561897e-05,critical
1500,1.818181818181818,3.4430379746835444,anode-electrolyte interface,0.0216616973133209,0.0226853503639353,0.0204664850455321,-7.38990676167401e-05,critical
1500,1.9191919191919191,3.4430379746835444,anode-electrolyte interface,0.0214455618872548,0.0225094634132747,0.0201926189146835,8.029020520473194e-05,critical
1500,2.0202020202020203,3.4430379746835444,anode-electrolyte interface,0.0213111513411998,0.0223262946555123,0.0201251205632182,-1.4519306888508505e-05,critical
1500,2.121212121212121,3.4430379746835444,anode-electrolyte interface,0.0212264538777912,0.0222402694349147,0.0200413342002019,-2.802149101133025e-05,critical
1500,2.2222222222222223,3.4430379746835444,anode-electrolyte interface,0.0210214653724418,0.0220535695224813,0.0198069213795098,0.0001172758246051,critical
1500,2.323232323232323,3.4430379746835444,anode-electrolyte interface,0.0209167690103493,0.0219519812712597,0.0196986691133341,-5.475614608461803e-05,critical
1500,2.4242424242424243,3.4430379746835444,anode-electrolyte interface,0.0209339660914357,0.0219082429411169,0.0197997482370041,4.997282885596333e-05,critical
1500,2.525252525252525,3.4430379746835444,anode-electrolyte interface,0.020618150576859,0.0216005052286339,0.0194703853841248,1.3679239176423744e-05,critical
1500,2.6262626262626263,3.4430379746835444,anode-electrolyte interface,0.0207226018767394,0.0217137047027555,0.0195633580785504,-5.555065466864514e-05,critical
1500,2.727272727272727,3.4430379746835444,anode-electrolyte interface,0.0208391927740015,0.0217650809464323,0.0197696164775076,3.0408948132724707e-05,critical
1500,2.8282828282828283,3.4430379746835444,anode-electrolyte interface,0.0206140882473503,0.0216869558168837,0.0193403941687047,-1.7207581857769977e-06,critical
1500,2.929292929292929,3.4430379746835444,anode-electrolyte interface,0.020609817914742,0.0216158216900314,0.0194292784608377,-3.561090774075728e-05,critical
1500,3.0303030303030303,3.4430379746835444,anode-electrolyte interface,0.0206381460399336,0.0217149473926295,0.0193589065716502,3.875492782522488e-05,critical
1500,3.131313131313131,3.4430379746835444,anode-electrolyte interface,0.0204192544420061,0.021492194528208,0.0191425755270041,-5.563427984893991e-05,critical
1500,3.2323232323232323,3.4430379746835444,anode-electrolyte interface,0.0205101683010258,0.0215334140001707,0.0193043809999949,5.533995125405853e-05,critical
1500,3.333333333333333,3.4430379746835444,anode-electrolyte interface,0.0203201412879181,0.0212726390316935,0.0192098009442096,5.680266696787876e-05,critical
1500,3.4343434343434343,3.4430379746835444,anode-electrolyte interface,0.0202385607745275,0.021155047803053,0.0191767508789834,1.4165125305807432e-05,critical
1500,3.5353535353535355,3.4430379746835444,anode-electrolyte interface,0.0202885943120887,0.0212051130941411,0.0192263495995863,-6.984875664204412e-05,critical
1500,3.636363636363636,3.4430379746835444,anode-electrolyte interface,0.0201828496424348,0.0211731236106451,0.0190198932623123,1.248535057280486e-05,critical
1500,3.7373737373737375,3.4430379746835444,anode-electrolyte interface,0.0202454636099796,0.0212125009571059,0.0191143389076138,6.728155981818746e-05,critical
1500,3.8383838383838382,3.4430379746835444,anode-electrolyte interface,0.0202010161733813,0.0211198471064972,0.0191356923294327,2.072022582752221e-05,critical
1500,3.939393939393939,3.4430379746835444,anode-electrolyte interface,0.0201622850807706,0.0211229704359795,0.0190398095465339,-1.679512657822489e-05,critical
1500,4.040404040404041,3.4430379746835444,anode-electrolyte interface,0.0201323842765748,0.0211224615996759,0.0189691901554537,1.0458037650577275e-05,critical
1500,4.141414141414141,3.4430379746835444,anode-electrolyte interface,0.0200351387704508,0.0210624622322278,0.0188189279234413,-1.1265256602512869e-05,critical
1500,4.242424242424242,3.4430379746835444,anode-electrolyte interface,0.0201422717577591,0.0210822522765014,0.0190478719690379,1.1047567846143338e-05,critical
1500,4.343434343434343,3.4430379746835444,anode-electrolyte interface,0.0201693564348548,0.0211311701523434,0.0190452121569478,-3.696647904886372e-05,critical
1500,4.444444444444445,3.4430379746835444,anode-electrolyte interface,0.0201518250262351,0.0210744146482552,0.0190810844842681,-3.584592645602943e-07,critical
1500,4.545454545454545,3.4430379746835444,anode-electrolyte interface,0.0200247600740383,0.0210297713672908,0.0188395242063653,-3.134043421786066e-05,critical
1500,4.646464646464646,3.4430379746835444,anode-electrolyte interface,0.0200412578214728,0.0209749523253148,0.0189544868355979,-9.601113410682624e-06,critical
1500,4.747474747474747,3.4430379746835444,anode-electrolyte interface,0.0200228151873319,0.0209515571208864,0.0189420836980245,5.476008610586328e-05,critical
1500,4.848484848484849,3.4430379746835444,anode-electrolyte interface,0.0200595743610827,0.0209881249281761,0.0189799442605015,-9.87732352373575e-06,critical
1500,4.94949494949495,3.4430379746835444,anode-electrolyte interface,0.0200083650283603,0.0209211361713567,0.0189494855242436,2.8854832045630808e-05,critical
1500,5.05050505050505,3.4430379746835444,anode-electrolyte interface,0.0200850890197325,0.0210695507529024,0.0189291972101533,1.450470693746327e-06,critical
1500,5.151515151515151,3.4430379746835444,anode-electrolyte interface,0.0199766034408923,0.0209914632093008,0.0187771603713997,2.218757427885647e-05,critical
1500,5.252525252525253,3.4430379746835444,anode-electrolyte interface,0.0200072925483845,0.0210184182674438,0.018812615678221,7.015464940665533e-05,critical
1500,5.353535353535354,3.4430379746835444,anode-electrolyte interface,0.0200426934652553,0.021001093960182,0.0189218798529392,4.565575385580003e-05,critical
1500,5.454545454545454,3.4430379746835444,anode-electrolyte interface,0.020063477699975,0.0210613389089073,0.0188887424112148,1.5878601557137934e-05,critical
1500,5.555555555555555,3.4430379746835444,anode-electrolyte interface,0.0199957910027383,0.0208677782762849,0.0189909783137623,-5.702345872812931e-05,critical
1500,5.656565656565657,3.4430379746835444,anode-electrolyte interface,0.0201390344477881,0.0210951618394624,0.0190221994976057,4.884899831636919e-05,critical
1500,5.757575757575758,3.4430379746835444,anode-electrolyte interface,0.0201243825757961,0.0210810423514397,0.019007103183888,1.0309503112055298e-06,critical
1500,5.858585858585858,3.4430379746835444,anode-electrolyte interface,0.0200590089744243,0.0210782427878564,0.0188537026949364,6.413412272594982e-05,critical
1500,5.959595959595959,3.4430379746835444,anode-electrolyte interface,0.0200495363275104,0.0209557908345014,0.0189996220820471,4.1651226982171446e-05,critical
1500,6.0606060606060606,3.4430379746835444,anode-electrolyte interface,0.0200636455562559,0.0210213686056588,0.0189443264359572,5.768771248890099e-06,critical
1500,6.161616161616162,3.4430379746835444,anode-electrolyte interface,0.0201619538151331,0.0211794476293464,0.0189566339401656,-0.0001553975357194,critical
1500,6.262626262626262,3.4430379746835444,anode-electrolyte interface,0.020132338781125,0.021096150425534,0.0190053142142054,-1.2925272015324234e-05,critical
1500,6.363636363636363,3.4430379746835444,anode-electrolyte interface,0.0203230634689784,0.0212857494476113,0.0191993361262549,2.2582239764502216e-05,critical
1500,6.4646464646464645,3.4430379746835444,anode-electrolyte interface,0.0202191837288857,0.021187374575228,0.0190863722926156,6.072074053413984e-05,critical
1500,6.565656565656566,3.4430379746835444,anode-electrolyte interface,0.0202790618323967,0.0212533836979517,0.019138587561737,-5.241252388441995e-05,critical
1500,6.666666666666667,3.4430379746835444,anode-electrolyte interface,0.0203426133039211,0.0212772968949095,0.0192569283484995,-3.934977561381336e-05,critical
1500,6.767676767676767,3.4430379746835444,anode-electrolyte interface,0.020463454056377,0.0214151544224998,0.0193557317602379,4.376303476196016e-05,critical
1500,6.8686868686868685,3.4430379746835444,anode-electrolyte interface,0.0204829075272467,0.02152608078868,0.0192489324764415,-5.779489620485424e-05,critical
1500,6.96969696969697,3.4430379746835444,anode-electrolyte interface,0.0204151051494894,0.0213325314410053,0.0193522715443383,8.592211956633403e-05,critical
1500,7.070707070707071,3.4430379746835444,anode-electrolyte interface,0.0204907498716767,0.0214595971277664,0.0193594770610756,-6.769459403269672e-05,critical
1500,7.171717171717171,3.4430379746835444,anode-electrolyte interface,0.0207650156374653,0.0217341517392526,0.0196362713551687,4.854925979604184e-05,critical
1500,7.272727272727272,3.4430379746835444,anode-electrolyte interface,0.0207002036021395,0.0216905039992827,0.0195422584588749,-2.60449029289067e-05,critical
1500,7.373737373737374,3.4430379746835444,anode-electrolyte interface,0.0207817685927076,0.0218236095621404,0.0195532486910556,4.042380019288738e-05,critical
1500,7.474747474747475,3.4430379746835444,anode-electrolyte interface,0.0208549980235834,0.0218856348477977,0.0196430462629881,-2.0009937475613988e-05,critical
1500,7.575757575757575,3.4430379746835444,anode-electrolyte interface,0.0209771315858544,0.0220352230283224,0.019728329401642,7.14198949477538e-06,critical
1500,7.6767676767676765,3.4430379746835444,anode-electrolyte interface,0.0208980471220088,0.0219361392039615,0.0196762126164694,1.7947806081352864e-05,critical
1500,7.777777777777778,3.4430379746835444,anode-electrolyte interface,0.0212128515555707,0.0222674639751958,0.019970848808283,5.9086098940331103e-05,critical
1500,7.878787878787879,3.4430379746835444,anode-electrolyte interface,0.0210805369721727,0.0220732034450236,0.0199230532720033,9.7493525950285e-06,critical
1500,7.979797979797979,3.4430379746835444,anode-electrolyte interface,0.0212761062363107,0.0222442560007401,0.0201532104187077,-4.848766897463455e-05,critical
1500,8.080808080808081,3.4430379746835444,anode-electrolyte interface,0.0213324958087413,0.0223666206655493,0.0201202868434127,4.668433297993311e-05,critical
1500,8.181818181818182,3.4430379746835444,anode-electrolyte interface,0.0214982402522998,0.0224622525414556,0.0203816037805693,-9.747368942789693e-05,critical
1500,8.282828282828282,3.4430379746835444,anode-electrolyte interface,0.0216700620498137,0.022633201632747,0.020557553484674,2.640301166139798e-06,critical
1500,8.383838383838384,3.4430379746835444,anode-electrolyte interface,0.0216670750380234,0.0227848465377411,0.0203422351955241,-1.9003241464604084e-05,critical
1500,8.484848484848484,3.4430379746835444,anode-electrolyte interface,0.0217824818374978,0.0227516538130097,0.0206619548693543,-7.309591467825396e-05,critical
1500,8.585858585858587,3.4430379746835444,anode-electrolyte interface,0.0218630206744334,0.0228530628729597,0.020715953544262,-2.1968974816923875e-05,critical
1500,8.686868686868687,3.4430379746835444,anode-electrolyte interface,0.0221959709326538,0.0233469417678726,0.0208304907255328,-1.0736689352959717e-05,critical
1500,8.787878787878787,3.4430379746835444,anode-electrolyte interface,0.0222437592399504,0.0232420608845899,0.0210888136946697,1.6929153256335773e-05,critical
1500,8.88888888888889,3.4430379746835444,anode-electrolyte interface,0.0223855629000468,0.023517675596468,0.0210483843237359,-4.814078990011712e-05,critical
1500,8.98989898989899,3.4430379746835444,anode-electrolyte interface,0.0226745469153935,0.0237571056464291,0.0214092830893998,-8.30441459256553e-06,critical
1500,9.09090909090909,3.4430379746835444,anode-electrolyte interface,0.0226927049368196,0.0238178958721896,0.0213668048764146,0.0001135438419766,critical
1500,9.191919191919192,3.4430379746835444,anode-electrolyte interface,0.0228437199651138,0.0239645881397264,0.0215271904589247,3.82153397807706e-05,critical
1500,9.292929292929292,3.4430379746835444,anode-electrolyte interface,0.023077676623367,0.0240977139562161,0.0219003087473647,3.262378478795017e-05,critical
1500,9.393939393939394,3.4430379746835444,anode-electrolyte interface,0.0232606824854335,0.0243759047280869,0.0219562147541534,-2.4840031794822345e-05,critical
1500,9.494949494949497,3.4430379746835444,anode-electrolyte interface,0.0235334991651472,0.0246298502837702,0.0222572961097606,-2.999301266522539e-05,critical
1500,9.595959595959595,3.4430379746835444,anode-electrolyte interface,0.0237550592479848,0.0248944691798065,0.0224220025517765,4.433649287911259e-05,critical
1500,9.696969696969695,3.4430379746835444,anode-electrolyte interface,0.0241713264675383,0.0253189880290358,0.0228311033321597,-3.173315162351053e-05,critical
1500,9.797979797979798,3.4430379746835444,anode-electrolyte interface,0.0241540240846662,0.025268631868407,0.0228587255071138,1.3051081831676302e-05,critical
1500,9.8989898989899,3.4430379746835444,anode-electrolyte interface,0.024702586945372,0.0258660238435497,0.0233459411435539,1.024222587678518e-05,critical
1500,10.0,3.4430379746835444,anode-electrolyte interface,0.0248976432696908,0.0261467239759464,0.0234248904885315,6.247163640618382e-06,critical
1500,0.0,3.5443037974683542,electrolyte,0.0147717991243449,0.0154272250705299,0.0140147679831086,-2.604073422709365e-05,high
1500,0.101010101010101,3.5443037974683542,electrolyte,0.0145769698665502,0.0152271567897489,0.0138255259892059,3.143824414688368e-06,high
1500,0.202020202020202,3.5443037974683542,electrolyte,0.0145270394667357,0.0152302277486131,0.0137030143046185,2.867090706510609e-05,high
1500,0.303030303030303,3.5443037974683542,electrolyte,0.0145249239564843,0.0152252132775714,0.0137036292068352,-7.642099735658294e-05,high
1500,0.404040404040404,3.5443037974683542,electrolyte,0.0143746842347189,0.0152179129714977,0.013348518722816,-1.0259445282990455e-05,high
1500,0.5050505050505051,3.5443037974683542,electrolyte,0.0141602742296862,0.0148850038748618,0.0133025512894842,-1.5084047060804418e-05,high
1500,0.6060606060606061,3.5443037974683542,electrolyte,0.0140695302194616,0.0146364405027679,0.0134241521490304,-8.818812205663193e-06,high
1500,0.7070707070707071,3.5443037974683542,electrolyte,0.0139720981166846,0.0146292721794371,0.0132059304473099,1.255918568490578e-05,high
1500,0.8080808080808081,3.5443037974683542,electrolyte,0.0136386942061771,0.014177899768254,0.0130260891972963,3.968646551747828e-05,high
1500,0.9090909090909092,3.5443037974683542,electrolyte,0.0136991968517,0.014405068364677,0.012861429027081,-7.166490194010107e-05,high
1500,1.0101010101010102,3.5443037974683542,electrolyte,0.0136086074762657,0.014212704339885,0.0129100525145591,5.926286985743232e-05,high
1500,1.1111111111111112,3.5443037974683542,electrolyte,0.0134632324755404,0.0140215685029656,0.0128249899635549,-1.084997137276939e-05,high
1500,1.2121212121212122,3.5443037974683542,electrolyte,0.0133743955673251,0.0139455762899896,0.0127180600176591,-4.8250580373659295e-05,high
1500,1.3131313131313131,3.5443037974683542,electrolyte,0.013296578146095,0.0139497762664375,0.0125285956379965,5.2057448522670095e-05,high
1500,1.414141414141414,3.5443037974683542,electrolyte,0.0130839184478653,0.0137046463913874,0.0123588387539849,3.745584939898164e-05,high
1500,1.5151515151515151,3.5443037974683542,electrolyte,0.0130064627728576,0.0135577936181036,0.0123741336209144,-1.891240854014643e-05,high
1500,1.616161616161616,3.5443037974683542,electrolyte,0.012993997963125,0.0136075451601523,0.012277922067436,3.514963986391919e-05,high
1500,1.7171717171717171,3.5443037974683542,electrolyte,0.0129132503075317,0.0134633999970069,0.0122782858478804,-0.0001155628413532,high
1500,1.818181818181818,3.5443037974683542,electrolyte,0.0128837279211598,0.0135758352839403,0.0120567819431568,2.605366030086469e-05,high
1500,1.9191919191919191,3.5443037974683542,electrolyte,0.0128404279004862,0.0134454865352929,0.01213394591221,-5.669649899995552e-05,high
1500,2.0202020202020203,3.5443037974683542,electrolyte,0.0128388312497478,0.013399856668939,0.0121918995948519,-4.733030584140586e-05,high
1500,2.121212121212121,3.5443037974683542,electrolyte,0.0128531900903983,0.0134728792547558,0.0121271389804706,4.471921494991173e-05,high
1500,2.2222222222222223,3.5443037974683542,electrolyte,0.0126949072944879,0.0131623950792612,0.0121689199323141,-2.2704706016638545e-05,high
1500,2.323232323232323,3.5443037974683542,electrolyte,0.012626845620765,0.0132899580936131,0.0118315109537084,0.0001526188190951,high
1500,2.4242424242424243,3.5443037974683542,electrolyte,0.0125316604192535,0.0131608123468045,0.011789151370809,-4.564395223392938e-05,high
1500,2.525252525252525,3.5443037974683542,electrolyte,0.0126743189120803,0.0132845311461509,0.0119600691512527,9.113346471592138e-06,high
1500,2.6262626262626263,3.5443037974683542,electrolyte,0.0123592175419498,0.0128767651888302,0.0117667483117726,-1.2459736835366688e-05,high
1500,2.727272727272727,3.5443037974683542,electrolyte,0.0123887215414147,0.0130373139298,0.0116176259420849,-2.7513162306972467e-05,high
1500,2.8282828282828283,3.5443037974683542,electrolyte,0.0124993950083412,0.0131704449806964,0.0116975901376665,3.218110747923502e-05,high
1500,2.929292929292929,3.5443037974683542,electrolyte,0.0123567914834031,0.0129772279828139,0.0116250757391703,-1.5512249147697228e-05,high
1500,3.0303030303030303,3.5443037974683542,electrolyte,0.0122690059142664,0.0128310346065002,0.0116165980230878,-1.5040668552984273e-05,high
1500,3.131313131313131,3.5443037974683542,electrolyte,0.0124607277524163,0.013067708567595,0.0117483940889897,3.896722643400233e-05,high
1500,3.2323232323232323,3.5443037974683542,electrolyte,0.0123148489619874,0.0128202039978474,0.0117370894390097,-5.91237682376844e-05,high
1500,3.333333333333333,3.5443037974683542,electrolyte,0.0122724086204049,0.0128908927234138,0.0115416588662563,5.566282344319348e-05,high
1500,3.4343434343434343,3.5443037974683542,electrolyte,0.012216070636808,0.0127006287915011,0.0116656421733286,8.034213522877422e-06,high
1500,3.5353535353535355,3.5443037974683542,electrolyte,0.0122578920407795,0.0128305412436505,0.0115909543408986,-1.935518673265885e-05,high
1500,3.636363636363636,3.5443037974683542,electrolyte,0.0121536534489627,0.01273375267488,0.0114756520301356,-1.0957348314721143e-05,high
1500,3.7373737373737375,3.5443037974683542,electrolyte,0.0120886224343107,0.0126110229635451,0.0114878174956766,-4.885259376840041e-06,high
1500,3.8383838383838382,3.5443037974683542,electrolyte,0.0120945037176515,0.0128193436599568,0.0112081423318263,-2.7150890105899472e-06,high
1500,3.939393939393939,3.5443037974683542,electrolyte,0.0121504151703817,0.0128297140274646,0.0113320247521082,-3.09770098899731e-05,high
1500,4.040404040404041,3.5443037974683542,electrolyte,0.0120153975220479,0.0126067416303151,0.0113204718966517,-1.847025325298134e-05,high
1500,4.141414141414141,3.5443037974683542,electrolyte,0.0120171035839168,0.0126761867644952,0.0112262855249902,2.628659951737125e-05,high
1500,4.242424242424242,3.5443037974683542,electrolyte,0.0120647369213018,0.0126599973298462,0.0113648057082066,-2.5467124822692613e-05,high
1500,4.343434343434343,3.5443037974683542,electrolyte,0.0120076797268765,0.0126752081686483,0.0112023351223655,8.772639631927686e-05,high
1500,4.444444444444445,3.5443037974683542,electrolyte,0.0120768598223468,0.0126849302490103,0.011359397942514,-1.0594047176981255e-05,high
1500,4.545454545454545,3.5443037974683542,electrolyte,0.0120344939237947,0.0126225821633851,0.0113439763257319,-3.623020251552068e-05,high
1500,4.646464646464646,3.5443037974683542,electrolyte,0.0119497917778267,0.0125774575482826,0.0112027647881537,-4.2602043246161965e-05,high
1500,4.747474747474747,3.5443037974683542,electrolyte,0.0119833756457289,0.0126029822104939,0.011248433804598,2.988504344950941e-05,high
1500,4.848484848484849,3.5443037974683542,electrolyte,0.0119676965081388,0.0125904009758482,0.0112284659647253,1.1397133288638994e-06,high
1500,4.94949494949495,3.5443037974683542,electrolyte,0.0118911422464044,0.0123828156465339,0.01132867547476,-4.8827926134679626e-05,high
1500,5.05050505050505,3.5443037974683542,electrolyte,0.012085723307917,0.0126477111136711,0.0114317563334712,1.426207573679612e-05,high
1500,5.151515151515151,3.5443037974683542,electrolyte,0.012036969737666,0.0125596357723015,0.0114354252061833,-2.2787026841746488e-06,high
1500,5.252525252525253,3.5443037974683542,electrolyte,0.012000450923139,0.0124752413546098,0.0114597438036201,-7.420078716290272e-05,high
1500,5.353535353535354,3.5443037974683542,electrolyte,0.011931939385911,0.0124880859956462,0.0112845413421737,-1.0568406728365204e-05,high
1500,5.454545454545454,3.5443037974683542,electrolyte,0.0120240844883334,0.0125498099026659,0.0114182147541313,-2.363338197140164e-05,high
1500,5.555555555555555,3.5443037974683542,electrolyte,0.0121136165307483,0.0126776711526844,0.0114536398193118,0.00010950436584,high
1500,5.656565656565657,3.5443037974683542,electrolyte,0.0119757434202557,0.0124924546007389,0.0113816279329607,2.8487971978325877e-06,high
1500,5.757575757575758,3.5443037974683542,electrolyte,0.0121485660708718,0.0128441423908468,0.0113040857649941,9.054649556593922e-05,high
1500,5.858585858585858,3.5443037974683542,electrolyte,0.0119721137967694,0.0124676390124932,0.0114058071460041,-1.3362978847759114e-05,high
1500,5.959595959595959,3.5443037974683542,electrolyte,0.0121059641896812,0.0127374086130621,0.0113545905030203,6.861526899963412e-05,high
1500,6.0606060606060606,3.5443037974683542,electrolyte,0.0122006430421501,0.0127757124045019,0.0115282592896226,7.708471400120359e-05,high
1500,6.161616161616162,3.5443037974683542,electrolyte,0.0121273664704409,0.0126935065725752,0.0114680486088295,-2.2508492296493e-05,high
1500,6.262626262626262,3.5443037974683542,electrolyte,0.0122280882250851,0.0128441687285054,0.0115007568163409,3.523738605619865e-05,high
1500,6.363636363636363,3.5443037974683542,electrolyte,0.0122153242097242,0.012796571127457,0.0115342755662969,-8.480915269422919e-05,high
1500,6.4646464646464645,3.5443037974683542,electrolyte,0.0121254873299195,0.0127546731338558,0.0113789075250588,1.2461610275211472e-05,high
1500,6.565656565656566,3.5443037974683542,electrolyte,0.0122821308956262,0.0128489169659506,0.0116223517459467,-6.230186094668608e-05,high
1500,6.666666666666667,3.5443037974683542,electrolyte,0.0122143093824997,0.0128313151929097,0.0114839158406131,-8.190416573956161e-05,high
1500,6.767676767676767,3.5443037974683542,electrolyte,0.0121783062432648,0.0127300882676668,0.0115375429820864,-7.080052406371662e-05,high
1500,6.8686868686868685,3.5443037974683542,electrolyte,0.0121572415934322,0.0126908272994396,0.0115420968861182,7.817575561792655e-06,high
1500,6.96969696969697,3.5443037974683542,electrolyte,0.0123343511295331,0.0129762016375812,0.0115715288535322,5.360503037301727e-05,high
1500,7.070707070707071,3.5443037974683542,electrolyte,0.0123668231965629,0.0130187471696754,0.0115909500217018,4.6003770139119804e-06,high
1500,7.171717171717171,3.5443037974683542,electrolyte,0.0123063884992621,0.0129346685749327,0.011557774203754,-0.0001358688042725,high
1500,7.272727272727272,3.5443037974683542,electrolyte,0.012417253862472,0.0129112064900904,0.0118551649919053,5.3187262273573415e-05,high
1500,7.373737373737374,3.5443037974683542,electrolyte,0.0124078286027753,0.0130272037874053,0.0116782093713708,-1.9449526796071727e-06,high
1500,7.474747474747475,3.5443037974683542,electrolyte,0.0125187184786651,0.0130602198936351,0.0118957724026482,-1.7990790086607286e-05,high
1500,7.575757575757575,3.5443037974683542,electrolyte,0.012571431422679,0.0130643853115878,0.0120120290790419,-3.4919489974889616e-05,high
1500,7.6767676767676765,3.5443037974683542,electrolyte,0.0126646733560181,0.0132408361006284,0.0119965431868282,2.178874633223309e-05,high
1500,7.777777777777778,3.5443037974683542,electrolyte,0.0125064294827977,0.013023311523975,0.0119155915156125,-3.303781171434231e-05,high
1500,7.878787878787879,3.5443037974683542,electrolyte,0.0127067795846298,0.0133456923134116,0.0119530831558167,1.546126769515213e-05,high
1500,7.979797979797979,3.5443037974683542,electrolyte,0.0126489505481449,0.0132767664174769,0.0119089332195222,6.546672197871868e-05,high
1500,8.080808080808081,3.5443037974683542,electrolyte,0.0128552559437082,0.013470941914613,0.0121352728684794,3.542512246533745e-06,high
1500,8.181818181818182,3.5443037974683542,electrolyte,0.0128430045148408,0.0134775468285677,0.0120948005363975,-8.667381039760036e-05,high
1500,8.282828282828282,3.5443037974683542,electrolyte,0.0129504573571966,0.0134385971560119,0.0123986092973129,6.546086096351211e-05,high
1500,8.383838383838384,3.5443037974683542,electrolyte,0.0129525023749657,0.0135483452923585,0.0122602331834614,-2.7156546404926143e-05,high
1500,8.484848484848484,3.5443037974683542,electrolyte,0.0129265898713468,0.0135202402619836,0.012235575493012,-7.840434555839036e-05,high
1500,8.585858585858587,3.5443037974683542,electrolyte,0.0132557753499711,0.0138596762919248,0.0125546771645478,-5.414781064576033e-05,high
1500,8.686868686868687,3.5443037974683542,electrolyte,0.0132317178075657,0.0138375931775922,0.0125259836699002,9.75883619082134e-05,high
1500,8.787878787878787,3.5443037974683542,electrolyte,0.0134601978470168,0.0140316883168378,0.0128046874587224,1.962965789050888e-06,high
1500,8.88888888888889,3.5443037974683542,electrolyte,0.0135085342697241,0.0141355438675147,0.012779186322887,-3.8065351799362265e-06,high
1500,8.98989898989899,3.5443037974683542,electrolyte,0.0135739110343792,0.0141896396301066,0.0128567941036842,0.0001173434306927,high
1500,9.09090909090909,3.5443037974683542,electrolyte,0.0136495480035389,0.0142563178040347,0.0129455662967328,0.0001095200249501,high
1500,9.191919191919192,3.5443037974683542,electrolyte,0.0136799883855054,0.0143752464536882,0.0128567343417936,7.632920086478109e-05,high
1500,9.292929292929292,3.5443037974683542,electrolyte,0.0138942299367833,0.0145241940236818,0.013163476507459,5.533701815792252e-05,high
1500,9.393939393939394,3.5443037974683542,electrolyte,0.0140394871997247,0.0147143129399963,0.0132497602599923,1.9726743880557616e-05,high
1500,9.494949494949497,3.5443037974683542,electrolyte,0.014109385873862,0.0147979294961772,0.0132974730622981,-0.0001269269794854,high
1500,9.595959595959595,3.5443037974683542,electrolyte,0.0143043607049302,0.0149716927133678,0.0135269472753901,-4.5268970704691325e-05,high
1500,9.696969696969695,3.5443037974683542,electrolyte,0.0144620690273612,0.0152708170860305,0.0134874104501644,4.872841276467724e-05,high
1500,9.797979797979798,3.5443037974683542,electrolyte,0.0146073034398694,0.0152689780596004,0.013840641126959,1.5510135724693216e-05,high
1500,9.8989898989899,3.5443037974683542,electrolyte,0.0148411744408156,0.015583137866398,0.0139635991371652,0.0001167084996502,high
1500,10.0,3.5443037974683542,electrolyte,0.0148593016195707,0.01563382676988,0.0139395210438107,-6.2041371527256986e-06,high
1500,0.0,3.645569620253165,electrolyte,0.0148389195912887,0.015524346707849,0.0140408347442662,-7.73310050710189e-05,high
1500,0.101010101010101,3.645569620253165,electrolyte,0.0147369667555055,0.0154731488394702,0.0138650153814725,0.0001374157621678,high
1500,0.202020202020202,3.645569620253165,electrolyte,0.0144310434373307,0.0151799184502236,0.0135419310637883,4.691412419606169e-05,high
1500,0.303030303030303,3.645569620253165,electrolyte,0.0144916036798376,0.0151931473997899,0.0136695867571223,2.076604939836764e-05,high
1500,0.404040404040404,3.645569620253165,electrolyte,0.0142137876269779,0.0148636535019954,0.0134595047402681,3.005656866433524e-05,high
1500,0.5050505050505051,3.645569620253165,electrolyte,0.0141921571354116,0.0148099539356704,0.0134808129013281,1.2782579058109295e-05,high
1500,0.6060606060606061,3.645569620253165,electrolyte,0.0139760277397522,0.0145746722039182,0.0132883742556014,1.906193504841905e-05,high
1500,0.7070707070707071,3.645569620253165,electrolyte,0.0138291084147452,0.0145667263201144,0.0129490076585655,2.9298461079264395e-05,high
1500,0.8080808080808081,3.645569620253165,electrolyte,0.0137594621009806,0.0143980989031658,0.0130164252913388,2.5798115812290025e-05,high
1500,0.9090909090909092,3.645569620253165,electrolyte,0.0135966253458605,0.0142989224483492,0.0127617789772901,9.259741866595758e-05,high
1500,1.0101010101010102,3.645569620253165,electrolyte,0.0135328846070378,0.0142368255906399,0.0126969002698134,3.670200082630347e-05,high
1500,1.1111111111111112,3.645569620253165,electrolyte,0.0134575851949175,0.0141152027591295,0.0126849996405142,-5.708587864757273e-05,high
1500,1.2121212121212122,3.645569620253165,electrolyte,0.0133724777218778,0.0140313067456658,0.012597930733129,-3.247127766279792e-05,high
1500,1.3131313131313131,3.645569620253165,electrolyte,0.01328064066951,0.0139371511822282,0.0125085811005477,-1.4355496919726767e-05,high
1500,1.414141414141414,3.645569620253165,electrolyte,0.0132107638400353,0.013786025598149,0.0125479946292125,3.909558107613004e-05,high
1500,1.5151515151515151,3.645569620253165,electrolyte,0.0129929645303091,0.0136587277301453,0.0122043998712478,-4.275049126857383e-05,high
1500,1.616161616161616,3.645569620253165,electrolyte,0.0129167549582307,0.0134904894425524,0.0122540602692546,1.3302375943483755e-05,high
1500,1.7171717171717171,3.645569620253165,electrolyte,0.0129187846018299,0.0135305070372262,0.012204433342587,-3.809163351448078e-05,high
1500,1.818181818181818,3.645569620253165,electrolyte,0.0129917350123392,0.013492130626486,0.0124249162419299,-5.046163219652122e-05,high
1500,1.9191919191919191,3.645569620253165,electrolyte,0.0128964326253412,0.0135624910051172,0.012106529769216,3.391283602774964e-05,high
1500,2.0202020202020203,3.645569620253165,electrolyte,0.0127380043023688,0.0133839815337758,0.0119748271853621,7.565502163794518e-06,high
1500,2.121212121212121,3.645569620253165,electrolyte,0.0127250260687373,0.0133321328305655,0.0120105312413041,-0.0001337408122482,high
1500,2.2222222222222223,3.645569620253165,electrolyte,0.0126238779183974,0.0130660739256181,0.0121234358490605,-0.000150574587179,high
1500,2.323232323232323,3.645569620253165,electrolyte,0.0126399962031463,0.0132679874265514,0.0118986184718751,-8.871753556634253e-05,high
1500,2.4242424242424243,3.645569620253165,electrolyte,0.0126172826208973,0.0132738172025502,0.0118377114169307,2.451845038126949e-05,high
1500,2.525252525252525,3.645569620253165,electrolyte,0.01251843251362,0.0131566332088369,0.0117637059589279,6.874985979050744e-06,high
1500,2.6262626262626263,3.645569620253165,electrolyte,0.0124489578319105,0.013090197295444,0.0116891441850783,1.151354351860906e-05,high
1500,2.727272727272727,3.645569620253165,electrolyte,0.0123176430908304,0.0128876625312008,0.0116542030283721,4.991081447929923e-05,high
1500,2.8282828282828283,3.645569620253165,electrolyte,0.0123776274287934,0.0130617704687734,0.0115545362495321,6.11157640771493e-05,high
1500,2.929292929292929,3.645569620253165,electrolyte,0.0122077043618201,0.0127385436504457,0.0115926426160429,0.000117718048001,high
1500,3.0303030303030303,3.645569620253165,electrolyte,0.0122865722312044,0.0128627305316429,0.0116152314555255,-1.91246815873838e-06,high
1500,3.131313131313131,3.645569620253165,electrolyte,0.0123440662162205,0.0129631854524921,0.0116139128295824,2.663519318876264e-05,high
1500,3.2323232323232323,3.645569620253165,electrolyte,0.0122452540203741,0.0129477366040548,0.01138828246286,-0.0001436049016219,high
1500,3.333333333333333,3.645569620253165,electrolyte,0.0123891528486091,0.0129512794694725,0.0117376934367699,-7.510455571008075e-06,high
1500,3.4343434343434343,3.645569620253165,electrolyte,0.0120972936946117,0.012720521685855,0.0113588161416529,8.280278671741777e-06,high
1500,3.5353535353535355,3.645569620253165,electrolyte,0.0121584034991326,0.01278221431783,0.011419742966917,-1.6786979037706674e-05,high
1500,3.636363636363636,3.645569620253165,electrolyte,0.0122069977687165,0.0128933730696952,0.0113788131250223,-4.328197540993873e-05,high
1500,3.7373737373737375,3.645569620253165,electrolyte,0.0121626728143996,0.0127331232242837,0.011497465131056,-4.130692490145999e-05,high
1500,3.8383838383838382,3.645569620253165,electrolyte,0.0120306302807678,0.0126823054079531,0.011250833941545,-1.2141561518507696e-05,high
1500,3.939393939393939,3.645569620253165,electrolyte,0.0122321007862523,0.0128326544751666,0.0115252587117478,7.151498226701118e-05,high
1500,4.040404040404041,3.645569620253165,electrolyte,0.0120190725296516,0.0124839687359878,0.0114927737262184,-8.347409585261495e-06,high
1500,4.141414141414141,3.645569620253165,electrolyte,0.0120264646142634,0.0127146905093729,0.011193274580029,2.65996025543517e-05,high
1500,4.242424242424242,3.645569620253165,electrolyte,0.0119775805575871,0.0126028744016483,0.011233452103732,6.666489128967573e-05,high
1500,4.343434343434343,3.645569620253165,electrolyte,0.0121464864974488,0.0126889813164892,0.0115188923441852,-4.0891268758295646e-05,high
1500,4.444444444444445,3.645569620253165,electrolyte,0.0120474112690591,0.0126033509654031,0.011401011641095,-3.4386827459068874e-05,high
1500,4.545454545454545,3.645569620253165,electrolyte,0.0119269484569319,0.012576857302825,0.0111468819553172,6.958514298060723e-05,high
1500,4.646464646464646,3.645569620253165,electrolyte,0.0120375973882655,0.0127054379236312,0.0112345824683809,3.8713394916128985e-06,high
1500,4.747474747474747,3.645569620253165,electrolyte,0.0120507543080948,0.0125609970615109,0.0114656086835832,-2.102944478751052e-05,high
1500,4.848484848484849,3.645569620253165,electrolyte,0.012056774641787,0.0126343926351601,0.0113790996588191,-8.571538611314657e-05,high
1500,4.94949494949495,3.645569620253165,electrolyte,0.0119146793452956,0.0125222979036462,0.0111959301304907,-2.280372145246279e-05,high
1500,5.05050505050505,3.645569620253165,electrolyte,0.0120626490856139,0.0125938805553621,0.0114498416163318,-1.5707479606650934e-05,high
1500,5.151515151515151,3.645569620253165,electrolyte,0.0119510907946405,0.0125863337754946,0.011193749669641,-1.8358907291343745e-05,high
1500,5.252525252525253,3.645569620253165,electrolyte,0.0120063240971291,0.0125662586446965,0.011354257069504,-2.7925217228477564e-05,high
1500,5.353535353535354,3.645569620253165,electrolyte,0.011961658773998,0.0125143376820628,0.0113172105507427,-8.32121906600833e-05,high
1500,5.454545454545454,3.645569620253165,electrolyte,0.011986554062633,0.0126290067213428,0.0112175800051836,-7.84424176724392e-05,high
1500,5.555555555555555,3.645569620253165,electrolyte,0.0120218788378676,0.0125982075598767,0.0113468407034153,-5.714733133402047e-05,high
1500,5.656565656565657,3.645569620253165,electrolyte,0.011939406653837,0.0124774175626798,0.0113165895693833,-5.661949148850736e-06,high
1500,5.757575757575758,3.645569620253165,electrolyte,0.0120514802656169,0.0126042988855652,0.0114096286040635,1.3789031149554144e-05,high
1500,5.858585858585858,3.645569620253165,electrolyte,0.0120491574711161,0.0126205118797269,0.0113818435873441,-3.268240060628573e-05,high
1500,5.959595959595959,3.645569620253165,electrolyte,0.0121354635858646,0.0128197043844522,0.0113085866219237,-6.648822598522843e-05,high
1500,6.0606060606060606,3.645569620253165,electrolyte,0.0120596426048487,0.0126312618133669,0.011391845613446,-4.259404952267992e-05,high
1500,6.161616161616162,3.645569620253165,electrolyte,0.0120553627058578,0.0126880346308065,0.0113019551512665,-6.042982457433126e-05,high
1500,6.262626262626262,3.645569620253165,electrolyte,0.0120269751511453,0.0125927707197399,0.0113672771521355,1.6144322498177892e-05,high
1500,6.363636363636363,3.645569620253165,electrolyte,0.0120705476802578,0.0125418295273317,0.0115338041431883,-9.486966638568938e-05,high
1500,6.4646464646464645,3.645569620253165,electrolyte,0.0121168670951356,0.0126922522972956,0.011444856424857,2.2109485089954653e-05,high
1500,6.565656565656566,3.645569620253165,electrolyte,0.0122489185624487,0.0128461977905153,0.0115482697776858,3.2207985491653885e-06,high
1500,6.666666666666667,3.645569620253165,electrolyte,0.0122193586699958,0.0127840372071476,0.0115620766294968,5.633480064090087e-05,high
1500,6.767676767676767,3.645569620253165,electrolyte,0.012254866783636,0.0129671527420609,0.0113886726680329,-6.192071501214333e-05,high
1500,6.8686868686868685,3.645569620253165,electrolyte,0.0123452963789236,0.0129276605013919,0.0116655346706158,4.2068522732540885e-05,high
1500,6.96969696969697,3.645569620253165,electrolyte,0.0123426291784056,0.0128435910266407,0.0117717526347338,5.195830515093484e-06,high
1500,7.070707070707071,3.645569620253165,electrolyte,0.0122640053580444,0.0128983543887706,0.0115105329441241,6.543684739165397e-05,high
1500,7.171717171717171,3.645569620253165,electrolyte,0.0124757644175971,0.0130363008348994,0.0118267831541716,-3.769030152415326e-05,high
1500,7.272727272727272,3.645569620253165,electrolyte,0.0124957693086225,0.0131116106814423,0.0117719307335719,1.3360440190683775e-05,high
1500,7.373737373737374,3.645569620253165,electrolyte,0.0123854083407492,0.0128760678494002,0.0118271494938928,-6.036196986222887e-05,high
1500,7.474747474747475,3.645569620253165,electrolyte,0.0125459411752188,0.0132067851738569,0.0117595549310281,9.10827526246718e-06,high
1500,7.575757575757575,3.645569620253165,electrolyte,0.0125772943274514,0.0130926491435657,0.0119889311191855,-3.30170265444479e-05,high
1500,7.6767676767676765,3.645569620253165,electrolyte,0.0127223853390609,0.0133941799919061,0.011922154974878,3.9755250728641294e-05,high
1500,7.777777777777778,3.645569620253165,electrolyte,0.0125638164761656,0.0131333022823155,0.0119024719563608,7.25236646655863e-05,high
1500,7.878787878787879,3.645569620253165,electrolyte,0.0127743878148982,0.0133713987060253,0.012077479133739,-7.738932947317097e-05,high
1500,7.979797979797979,3.645569620253165,electrolyte,0.0127910354888064,0.0135227012279504,0.0119052650370611,-3.238779896370868e-05,high
1500,8.080808080808081,3.645569620253165,electrolyte,0.0128022547121251,0.0133554163468779,0.0121657190705536,3.6980888929337015e-05,high
1500,8.181818181818182,3.645569620253165,electrolyte,0.0128661163995766,0.0135166486650886,0.0120943862690234,0.0001133591136328,high
1500,8.282828282828282,3.645569620253165,electrolyte,0.013071284407935,0.0137303003353354,0.0122920052290569,7.496608547375503e-05,high
1500,8.383838383838384,3.645569620253165,electrolyte,0.0130013836384966,0.0135963141035704,0.0123094573089848,-7.467281555590878e-05,high
1500,8.484848484848484,3.645569620253165,electrolyte,0.0129913996714229,0.0135571300461656,0.0123398421367953,-2.4704727349412917e-05,high
1500,8.585858585858587,3.645569620253165,electrolyte,0.0131737102448149,0.0137669563498775,0.0124860475034905,-6.067173569669777e-05,high
1500,8.686868686868687,3.645569620253165,electrolyte,0.0132704486419028,0.0138001736887721,0.0126679349868321,3.235007909957153e-05,high
1500,8.787878787878787,3.645569620253165,electrolyte,0.0132880963275322,0.0139511726304126,0.0125067493347016,-3.329834260910545e-05,high
1500,8.88888888888889,3.645569620253165,electrolyte,0.0134975122394411,0.014243776860515,0.0125977634890061,0.0001060574619878,high
1500,8.98989898989899,3.645569620253165,electrolyte,0.0134661850508239,0.0140917163295576,0.0127384651248985,-2.1591734567580626e-06,high
1500,9.09090909090909,3.645569620253165,electrolyte,0.0135485804338971,0.0142105846208514,0.0127712771510721,-4.127593956227544e-05,high
1500,9.191919191919192,3.645569620253165,electrolyte,0.0137463794699384,0.0144020042387104,0.0129748304480515,-0.0001444072867676,high
1500,9.292929292929292,3.645569620253165,electrolyte,0.0137774801273637,0.0144519623297967,0.0129856675032864,-1.366939268709002e-05,high
1500,9.393939393939394,3.645569620253165,electrolyte,0.0140232494476109,0.014539334900395,0.0134427752602003,-4.848594893730151e-06,high
1500,9.494949494949497,3.645569620253165,electrolyte,0.014195220898166,0.0149111756537996,0.0133468128310721,0.000116038447786,high
1500,9.595959595959595,3.645569620253165,electrolyte,0.0142392022459812,0.0147852798170855,0.0136216121297516,2.1688839127235704e-05,high
1500,9.696969696969695,3.645569620253165,electrolyte,0.0142865734248604,0.0149664931671336,0.0134915735172751,-5.5525940516920775e-05,high
1500,9.797979797979798,3.645569620253165,electrolyte,0.0145340922447812,0.0153186644939384,0.0135945273795866,-7.568511341589155e-05,high
1500,9.8989898989899,3.645569620253165,electrolyte,0.014809558782646,0.0154652438968527,0.0140521681518599,4.487214229664928e-05,high
1500,10.0,3.645569620253165,electrolyte,0.014868946609855,0.0155442476742276,0.0140858071408926,-4.1831439558957e-05,high
1500,0.0,3.746835443037975,electrolyte,0.0148792116510664,0.0156255573455061,0.0139989632337008,3.4293667286283085e-05,high
1500,0.101010101010101,3.746835443037975,electrolyte,0.0147352405665347,0.0154455145323654,0.0139036617667915,-1.627606494966468e-05,high
1500,0.202020202020202,3.746835443037975,electrolyte,0.014643380427227,0.015309225508734,0.0138706407380663,-5.8586643548340856e-05,high
1500,0.303030303030303,3.746835443037975,electrolyte,0.0143664795753102,0.014960392670783,0.0136876340326693,-3.386726150368933e-05,high
1500,0.404040404040404,3.746835443037975,electrolyte,0.0142709832154357,0.0148982917042719,0.0135467692864429,-5.952201121331036e-05,high
1500,0.5050505050505051,3.746835443037975,electrolyte,0.0139890868464363,0.0146805901891606,0.0131754155832017,-4.517910228324239e-05,high
1500,0.6060606060606061,3.746835443037975,electrolyte,0.0139462674311285,0.0145677220177428,0.0132271944161105,6.129078581947288e-05,high
1500,0.7070707070707071,3.746835443037975,electrolyte,0.0138823371911681,0.0146278037576427,0.0129918008765485,2.0548980654829623e-05,high
1500,0.8080808080808081,3.746835443037975,electrolyte,0.0138406903477579,0.0145218132774823,0.0130383958676973,8.762013137936551e-05,high
1500,0.9090909090909092,3.746835443037975,electrolyte,0.0135843000743425,0.0142106193204954,0.0128543658815828,9.180589973802548e-05,high
1500,1.0101010101010102,3.746835443037975,electrolyte,0.0135715976205778,0.014203728775083,0.012835844399162,-1.0031020519368905e-05,high
1500,1.1111111111111112,3.746835443037975,electrolyte,0.0134073808621073,0.0140113573299134,0.0127078528721031,3.8601481269268624e-05,high
1500,1.2121212121212122,3.746835443037975,electrolyte,0.0133956894920973,0.014064160989297,0.0126082153000093,1.5804550843279786e-05,high
1500,1.3131313131313131,3.746835443037975,electrolyte,0.0132687572708094,0.0139857466071154,0.0124112304397065,1.283663990315586e-05,high
1500,1.414141414141414,3.746835443037975,electrolyte,0.0131978571471968,0.0138877358210754,0.0123779643473461,-2.661150310899779e-05,high
1500,1.5151515151515151,3.746835443037975,electrolyte,0.0130666763454396,0.0136984726770351,0.0123266188432905,-8.090123028096796e-06,high
1500,1.616161616161616,3.746835443037975,electrolyte,0.0130955552153782,0.0136537097650717,0.0124524086148795,-9.809662230403974e-05,high
1500,1.7171717171717171,3.746835443037975,electrolyte,0.0129933761806838,0.013707551501989,0.0121356844232831,4.668767004637341e-05,high
1500,1.818181818181818,3.746835443037975,electrolyte,0.0128785809338276,0.0135224728580462,0.0121185100344286,6.955151214717777e-05,high
1500,1.9191919191919191,3.746835443037975,electrolyte,0.0128889429224462,0.0135944942557901,0.0120381289361347,0.0001294887087825,high
1500,2.0202020202020203,3.746835443037975,electrolyte,0.0127431177456311,0.0133369172911625,0.0120517696783101,2.575577887104312e-05,high
1500,2.121212121212121,3.746835443037975,electrolyte,0.0126451935324127,0.0133886932779265,0.011737406665597,-9.243785686602504e-05,high
1500,2.2222222222222223,3.746835443037975,electrolyte,0.0126002721116722,0.0131557727517808,0.0119587196615392,5.073761873074517e-05,high
1500,2.323232323232323,3.746835443037975,electrolyte,0.012518557865021,0.0130838213216369,0.0118638517017222,-2.1979495237966115e-05,high
1500,2.4242424242424243,3.746835443037975,electrolyte,0.0126953186823401,0.0133243679257259,0.0119552584474357,-1.1452537625243362e-05,high
1500,2.525252525252525,3.746835443037975,electrolyte,0.0124749643790468,0.0131277654746214,0.0116981575106472,-5.856347801517038e-05,high
1500,2.6262626262626263,3.746835443037975,electrolyte,0.0124924879934839,0.0131428449625339,0.0117174437821123,-9.99012123451916e-05,high
1500,2.727272727272727,3.746835443037975,electrolyte,0.0125488202752882,0.0131418405055638,0.0118566257819091,3.280475362021724e-05,high
1500,2.8282828282828283,3.746835443037975,electrolyte,0.0123964906633999,0.01306835519934,0.0115917429580931,5.027491406173841e-05,high
1500,2.929292929292929,3.746835443037975,electrolyte,0.0122300486792748,0.0127674833800783,0.0116101862587046,2.5126166089164845e-05,high
1500,3.0303030303030303,3.746835443037975,electrolyte,0.0123000954969516,0.0129065824440156,0.0115837805089161,-0.0001088211421237,high
1500,3.131313131313131,3.746835443037975,electrolyte,0.0122792387247579,0.0129112811776337,0.0115302925701425,2.3977017359106717e-05,high
1500,3.2323232323232323,3.746835443037975,electrolyte,0.0121544246066976,0.012685700289624,0.011542349271442,-9.080098236172496e-07,high
1500,3.333333333333333,3.746835443037975,electrolyte,0.0122585006973761,0.0129216217274183,0.0114643742551717,5.465554353869767e-05,high
1500,3.4343434343434343,3.746835443037975,electrolyte,0.0121767223064255,0.0127946687118126,0.0114457380795517,5.330849559231914e-05,high
1500,3.5353535353535355,3.746835443037975,electrolyte,0.0122431040861771,0.0128727673467532,0.0114969246232062,-3.375691206631408e-05,high
1500,3.636363636363636,3.746835443037975,electrolyte,0.0121035523579472,0.012706754879807,0.0113931487491245,1.251866203178228e-05,high
1500,3.7373737373737375,3.746835443037975,electrolyte,0.0121460309676733,0.0126238804887664,0.0116035375236434,3.315396312195752e-05,high
1500,3.8383838383838382,3.746835443037975,electrolyte,0.0122052721379553,0.0126975704266566,0.0116447231337682,-1.275995647350962e-05,high
1500,3.939393939393939,3.746835443037975,electrolyte,0.0119843149842732,0.0124484446398098,0.0114588113631494,4.192366588424465e-06,high
1500,4.040404040404041,3.746835443037975,electrolyte,0.0120589357662083,0.0126146749547008,0.0114129247339275,-3.3627466189386806e-05,high
1500,4.141414141414141,3.746835443037975,electrolyte,0.0120584644987141,0.0126660971336266,0.0113386573901694,9.649512153491624e-05,high
1500,4.242424242424242,3.746835443037975,electrolyte,0.0120398282417695,0.0126608215687119,0.0113037543737001,1.83987098244157e-05,high
1500,4.343434343434343,3.746835443037975,electrolyte,0.0119769840676236,0.0125405902717269,0.0113185884591251,-6.602677720253045e-05,high
1500,4.444444444444445,3.746835443037975,electrolyte,0.0120630956773989,0.0125891991574877,0.0114571885330591,5.889809612890852e-07,high
1500,4.545454545454545,3.746835443037975,electrolyte,0.0119667099814226,0.0124918403418907,0.01135932961381,-8.29363282606877e-05,high
1500,4.646464646464646,3.746835443037975,electrolyte,0.0119632240681541,0.0125081134720599,0.0113313178234242,1.2556311133151664e-05,high
1500,4.747474747474747,3.746835443037975,electrolyte,0.0120558809300738,0.012636119901188,0.0113762550342859,-4.1963784120281846e-05,high
1500,4.848484848484849,3.746835443037975,electrolyte,0.0120177128383271,0.0126693635889479,0.0112376185010513,-2.616106566744393e-05,high
1500,4.94949494949495,3.746835443037975,electrolyte,0.0119150632810229,0.0124405113398306,0.011308848764476,8.396654691793165e-06,high
1500,5.05050505050505,3.746835443037975,electrolyte,0.0119562091990487,0.0124839078994969,0.0113473401171693,1.026415116011839e-06,high
1500,5.151515151515151,3.746835443037975,electrolyte,0.012035033924276,0.0126490094488091,0.0113072531221987,-7.343917144524752e-05,high
1500,5.252525252525253,3.746835443037975,electrolyte,0.0120129228422947,0.0125676546120031,0.0113680205564945,2.47478727384902e-05,high
1500,5.353535353535354,3.746835443037975,electrolyte,0.0120597903536134,0.0126961411545098,0.0113013381482188,-5.681426498254345e-05,high
1500,5.454545454545454,3.746835443037975,electrolyte,0.0119809631092209,0.0124846534633756,0.0114028846888188,-6.374302621219401e-05,high
1500,5.555555555555555,3.746835443037975,electrolyte,0.0119505964600382,0.0125303099964597,0.0112675171709193,0.000110494326233,high
1500,5.656565656565657,3.746835443037975,electrolyte,0.0120680380693165,0.0126556867935093,0.0113772424097021,-7.372536642411587e-05,high
1500,5.757575757575758,3.746835443037975,electrolyte,0.01190129398912,0.0124581449402107,0.0112526683248356,9.161337763014304e-06,high
1500,5.858585858585858,3.746835443037975,electrolyte,0.0120668906547889,0.0126194257924349,0.0114241736655863,-7.002526958151325e-05,high
1500,5.959595959595959,3.746835443037975,electrolyte,0.0121966317807491,0.0128247009984875,0.011445996719463,-0.0001477788318144,high
1500,6.0606060606060606,3.746835443037975,electrolyte,0.0120872754265609,0.0126273168278662,0.0114627120437448,2.9587448805095023e-05,high
1500,6.161616161616162,3.746835443037975,electrolyte,0.0121798855039482,0.0127591024905513,0.0115033649338429,-6.374450167641059e-06,high
1500,6.262626262626262,3.746835443037975,electrolyte,0.0121582965695129,0.012823776774025,0.0113600861384871,-2.930541481438398e-05,high
1500,6.363636363636363,3.746835443037975,electrolyte,0.0120663894719306,0.0126276246024776,0.0114133058875996,8.99490892483904e-06,high
1500,6.4646464646464645,3.746835443037975,electrolyte,0.0121256559063245,0.0126768938203603,0.0114851527122967,7.12339935827659e-05,high
1500,6.565656565656566,3.746835443037975,electrolyte,0.0121100150117274,0.0126988469676627,0.0114191761781081,3.888218122438415e-05,high
1500,6.666666666666667,3.746835443037975,electrolyte,0.0123546524954276,0.0130068980359311,0.0115769745764157,6.384695946139624e-05,high
1500,6.767676767676767,3.746835443037975,electrolyte,0.0123045729598878,0.0128313304427378,0.0116996219717457,-3.468299430298235e-06,high
1500,6.8686868686868685,3.746835443037975,electrolyte,0.0123297014420061,0.0129303517326969,0.0116252146605116,-3.6671194536555897e-06,high
1500,6.96969696969697,3.746835443037975,electrolyte,0.0121917234763778,0.0128829473665294,0.0113545691559455,-8.537088537870108e-05,high
1500,7.070707070707071,3.746835443037975,electrolyte,0.0123715272860448,0.0129874817175653,0.0116461202598872,2.354338799051169e-05,high
1500,7.171717171717171,3.746835443037975,electrolyte,0.0123915002704685,0.0129999975920671,0.0116761469345297,4.766674609243272e-05,high
1500,7.272727272727272,3.746835443037975,electrolyte,0.0123835062464537,0.0130977805588009,0.0115168143336962,-4.853133637046069e-05,high
1500,7.373737373737374,3.746835443037975,electrolyte,0.0124167856209737,0.0130248174144065,0.0117029485615609,-1.237832209721689e-05,high
1500,7.474747474747475,3.746835443037975,electrolyte,0.0125007785532747,0.0130735909385424,0.0118347627394584,-6.304025376387744e-05,high
1500,7.575757575757575,3.746835443037975,electrolyte,0.0124792151166617,0.0131342407255885,0.01169991429046,3.663716581214499e-05,high
1500,7.6767676767676765,3.746835443037975,electrolyte,0.0126219173581261,0.0132702953718523,0.0118528777914543,-6.464234700202215e-05,high
1500,7.777777777777778,3.746835443037975,electrolyte,0.0125910898219501,0.0131991800065569,0.0118785868246319,-3.638145332755661e-05,high
1500,7.878787878787879,3.746835443037975,electrolyte,0.0125916807362299,0.0132324703708587,0.0118340903242664,1.535606845590014e-05,high
1500,7.979797979797979,3.746835443037975,electrolyte,0.0128109161459633,0.0134167109843277,0.0121040455881017,-4.689582512451669e-07,high
1500,8.080808080808081,3.746835443037975,electrolyte,0.012836939136029,0.0134182009088136,0.0121634031832704,-2.237112767692317e-05,high
1500,8.181818181818182,3.746835443037975,electrolyte,0.0129858532543533,0.0136329359637728,0.0122236655059821,-2.5115962812595912e-05,high
1500,8.282828282828282,3.746835443037975,electrolyte,0.0130686210074481,0.0137057857211109,0.0123206201767604,-4.615682392374626e-05,high
1500,8.383838383838384,3.746835443037975,electrolyte,0.0130388304241595,0.0136024419133425,0.0123906085704353,2.911396893398547e-06,high
1500,8.484848484848484,3.746835443037975,electrolyte,0.013230663613042,0.0138553703023484,0.012500755805992,-6.551960643582828e-05,high
1500,8.585858585858587,3.746835443037975,electrolyte,0.0133703023026015,0.0140212082721362,0.0126069207067341,-1.3082378410527154e-05,high
1500,8.686868686868687,3.746835443037975,electrolyte,0.0133649793458349,0.0140627467936807,0.012536097886317,-3.901801627170646e-06,high
1500,8.787878787878787,3.746835443037975,electrolyte,0.013406223751407,0.0141078687798914,0.0125676208027733,0.0001318158827234,high
1500,8.88888888888889,3.746835443037975,electrolyte,0.0134422079321221,0.0140733694254306,0.0127060598908045,4.598529470901861e-05,high
1500,8.98989898989899,3.746835443037975,electrolyte,0.013639669859635,0.0142495802328309,0.0129335667838582,-6.001360594216945e-05,high
1500,9.09090909090909,3.746835443037975,electrolyte,0.0136429056971799,0.0142912960489692,0.012883676500132,8.765083255334633e-05,high
1500,9.191919191919192,3.746835443037975,electrolyte,0.0137732380714599,0.0144079297700067,0.0130356034148069,3.0270104828708614e-05,high
1500,9.292929292929292,3.746835443037975,electrolyte,0.0139585065747666,0.0146249355971857,0.0131791021460316,-4.453955127552427e-05,high
1500,9.393939393939394,3.746835443037975,electrolyte,0.0140809504930539,0.0147731636554389,0.013267739082141,-1.1296663424515082e-05,high
1500,9.494949494949497,3.746835443037975,electrolyte,0.014157036117836,0.0149340505942087,0.0132247717663729,-1.4455385968514598e-05,high
1500,9.595959595959595,3.746835443037975,electrolyte,0.0142723400626031,0.0150301113855172,0.0133678083396544,7.481337013014999e-05,high
1500,9.696969696969695,3.746835443037975,electrolyte,0.0143759993285548,0.0150378247603216,0.0136070412056284,2.5258381531782826e-05,high
1500,9.797979797979798,3.746835443037975,electrolyte,0.0145566520547463,0.0151448825351499,0.0138821420164328,-0.0001392781990549,high
1500,9.8989898989899,3.746835443037975,electrolyte,0.014746941705374,0.0154053706965795,0.0139849290260317,6.223426413496688e-05,high
1500,10.0,3.746835443037975,electrolyte,0.0148852407498432,0.0156376148059331,0.0139968490934784,-1.775234291432272e-05,high
1500,0.0,3.848101265822785,electrolyte,0.0147839994942068,0.0154707579106081,0.0139849034652366,2.4642091197785837e-05,high
1500,0.101010101010101,3.848101265822785,electrolyte,0.0147573166092464,0.0155140439113953,0.0138594658794991,9.019016737035632e-05,high
1500,0.202020202020202,3.848101265822785,electrolyte,0.0146528965561966,0.0154172201349542,0.0137451089590415,4.1272069316397215e-06,high
1500,0.303030303030303,3.848101265822785,electrolyte,0.0144850088499942,0.0152071242539127,0.0136343709962916,-2.8016129291565092e-05,high
1500,0.404040404040404,3.848101265822785,electrolyte,0.0143807962589498,0.0151339012649312,0.0134853332523339,3.5695862272919736e-05,high
1500,0.5050505050505051,3.848101265822785,electrolyte,0.0140116939222802,0.0146653417576504,0.0132498867835014,5.754956587674228e-05,high
1500,0.6060606060606061,3.848101265822785,electrolyte,0.0142023485581121,0.0149164858129488,0.0133598315171353,2.445867739021064e-05,high
1500,0.7070707070707071,3.848101265822785,electrolyte,0.0138885044697965,0.0145174086591109,0.0131598761366323,1.098603959187673e-05,high
1500,0.8080808080808081,3.848101265822785,electrolyte,0.0137887249448479,0.014398908172041,0.0130843381155538,1.4811633520906112e-05,high
1500,0.9090909090909092,3.848101265822785,electrolyte,0.0135987095346436,0.0141360954687212,0.0129886009282282,-4.264605902060786e-06,high
1500,1.0101010101010102,3.848101265822785,electrolyte,0.0135045610839739,0.0142036831743727,0.0126753863524798,1.0116514274396591e-05,high
1500,1.1111111111111112,3.848101265822785,electrolyte,0.0132542692073759,0.0138887396729218,0.0125122693945055,-2.1051179512841948e-05,high
1500,1.2121212121212122,3.848101265822785,electrolyte,0.0134319602243739,0.0142330598760299,0.0124533342264988,1.89770000625078e-05,high
1500,1.3131313131313131,3.848101265822785,electrolyte,0.0132687827954973,0.0139308361043169,0.0124864758196397,-9.551976796609578e-05,high
1500,1.414141414141414,3.848101265822785,electrolyte,0.0130713302787731,0.0137462546986001,0.0122712388454325,1.1956211811835853e-05,high
1500,1.5151515151515151,3.848101265822785,electrolyte,0.0130860923405637,0.0137571065192166,0.0122910631013566,4.852876443377783e-05,high
1500,1.616161616161616,3.848101265822785,electrolyte,0.0129876977942013,0.0135406737584941,0.0123529123983077,-3.0332556811387363e-05,high
1500,1.7171717171717171,3.848101265822785,electrolyte,0.0129488666826851,0.0135959629702849,0.0121836572156969,-9.998078857450256e-05,high
1500,1.818181818181818,3.848101265822785,electrolyte,0.0128910821317574,0.0135869813988509,0.0120585345194919,-3.98516037117458e-05,high
1500,1.9191919191919191,3.848101265822785,electrolyte,0.012789453166029,0.0135376475194496,0.011879076642129,-3.874056136916742e-05,high
1500,2.0202020202020203,3.848101265822785,electrolyte,0.0126470503060361,0.0132967912034002,0.0118754496111088,-8.620826723004962e-05,high
1500,2.121212121212121,3.848101265822785,electrolyte,0.0127419922402133,0.0132805258154163,0.0121217924512734,0.0001031595240754,high
1500,2.2222222222222223,3.848101265822785,electrolyte,0.0126581934204879,0.0133181898356026,0.0118742777377728,1.909146314136743e-05,high
1500,2.323232323232323,3.848101265822785,electrolyte,0.0125491727372189,0.0131487557423747,0.0118481825102852,2.1508430230425296e-05,high
1500,2.4242424242424243,3.848101265822785,electrolyte,0.0125574168073817,0.0131380270887737,0.0118824769642334,-1.4743644446642644e-06,high
1500,2.525252525252525,3.848101265822785,electrolyte,0.0123504223372696,0.0129686947918654,0.0116203736449752,-6.802652584860429e-05,high
1500,2.6262626262626263,3.848101265822785,electrolyte,0.0124353968195659,0.0131051976735581,0.0116348628684856,3.2570343583439744e-06,high
1500,2.727272727272727,3.848101265822785,electrolyte,0.0123887240896622,0.0128829165354829,0.0118244531016857,-9.433511601841572e-05,high
1500,2.8282828282828283,3.848101265822785,electrolyte,0.0123314483811495,0.0129550495042339,0.0115949306757694,-2.446117097915773e-05,high
1500,2.929292929292929,3.848101265822785,electrolyte,0.0123094489122336,0.0127633083314538,0.0117987396521791,1.9897089733718312e-05,high
1500,3.0303030303030303,3.848101265822785,electrolyte,0.0122638184594322,0.0127560154314791,0.0117038124257059,-5.777286268929446e-06,high
1500,3.131313131313131,3.848101265822785,electrolyte,0.0124005973899602,0.0129707456572091,0.011736620957804,7.963779559096143e-05,high
1500,3.2323232323232323,3.848101265822785,electrolyte,0.0122200143014213,0.0127565347376712,0.0116013379630166,2.159637378821322e-05,high
1500,3.333333333333333,3.848101265822785,electrolyte,0.0121104697634125,0.0126971244349397,0.011423079108499,-3.1371925753495104e-06,high
1500,3.4343434343434343,3.848101265822785,electrolyte,0.0121505464310251,0.0126371123020284,0.011595913968222,-6.53644681599246e-05,high
1500,3.5353535353535355,3.848101265822785,electrolyte,0.0123297087261232,0.012910287009771,0.0116524468894597,3.225829989671814e-05,high
1500,3.636363636363636,3.848101265822785,electrolyte,0.0121845771898319,0.0127340248134695,0.011548287901376,2.425270472858715e-05,high
1500,3.7373737373737375,3.848101265822785,electrolyte,0.0121889496137107,0.0127422114739007,0.0115473892099281,-3.472347308375195e-05,high
1500,3.8383838383838382,3.848101265822785,electrolyte,0.0121293338834498,0.0127351585029163,0.0114154633561152,-2.1679109406130545e-05,high
1500,3.939393939393939,3.848101265822785,electrolyte,0.0120566422286763,0.0125553922024421,0.0114860830942627,-4.803381849029922e-05,high
1500,4.040404040404041,3.848101265822785,electrolyte,0.0119776427663467,0.0125695240553799,0.0112774120844911,0.000119262196387,high
1500,4.141414141414141,3.848101265822785,electrolyte,0.0120458216575074,0.0124974215654063,0.0115359180267037,5.1960324130951744e-05,high
1500,4.242424242424242,3.848101265822785,electrolyte,0.0122001021442224,0.0127867883420721,0.0115134120594755,2.192466501485251e-05,high
1500,4.343434343434343,3.848101265822785,electrolyte,0.011986853277606,0.0125620526431682,0.0113139698701085,-9.233614729910794e-06,high
1500,4.444444444444445,3.848101265822785,electrolyte,0.0117656087396103,0.0124317611388746,0.0109598725825512,6.474316587222986e-05,high
1500,4.545454545454545,3.848101265822785,electrolyte,0.0119433780496387,0.0124781851408354,0.0113248329858222,1.522450864608474e-05,high
1500,4.646464646464646,3.848101265822785,electrolyte,0.0119294436217788,0.0124833289153227,0.0112844970703531,4.596650763905015e-05,high
1500,4.747474747474747,3.848101265822785,electrolyte,0.0119696118125469,0.0125661436481011,0.0112671095723517,-9.667536838358982e-08,high
1500,4.848484848484849,3.848101265822785,electrolyte,0.0119169952462746,0.012403505123966,0.0113611692409945,5.770820820548858e-05,high
1500,4.94949494949495,3.848101265822785,electrolyte,0.0121163299870988,0.0128022770624969,0.0112878479694625,2.4493087713583783e-05,high
1500,5.05050505050505,3.848101265822785,electrolyte,0.0120398823309818,0.0126212011308935,0.0113589501749695,-2.5128165256057523e-05,high
1500,5.151515151515151,3.848101265822785,electrolyte,0.0120061439562528,0.0125682143551502,0.0113512106840002,2.5466943841197333e-05,high
1500,5.252525252525253,3.848101265822785,electrolyte,0.0119818120639911,0.0125799780747464,0.0112769435122451,2.719761957471468e-05,high
1500,5.353535353535354,3.848101265822785,electrolyte,0.0120346210980748,0.0127078183289753,0.0112237189538421,1.3815185518762628e-05,high
1500,5.454545454545454,3.848101265822785,electrolyte,0.0120090856442877,0.0125283185027341,0.0114101986225495,-7.603381400100412e-05,high
1500,5.555555555555555,3.848101265822785,electrolyte,0.011944889881818,0.012503057537706,0.0112946994175289,-2.5743955283244704e-05,high
1500,5.656565656565657,3.848101265822785,electrolyte,0.0121778917445388,0.012770989995226,0.0114807689979834,-7.209047379300777e-05,high
1500,5.757575757575758,3.848101265822785,electrolyte,0.0120677886559254,0.0127370856112819,0.0112627638973144,3.220014521706905e-05,high
1500,5.858585858585858,3.848101265822785,electrolyte,0.0121228322445174,0.0127180192718905,0.0114237944023168,1.4432496448792165e-06,high
1500,5.959595959595959,3.848101265822785,electrolyte,0.0120988086342742,0.0127202464337127,0.011362875899655,6.682383617450467e-06,high
1500,6.0606060606060606,3.848101265822785,electrolyte,0.0120134599507802,0.0124402330594682,0.0115354989546075,1.12655216041709e-05,high
1500,6.161616161616162,3.848101265822785,electrolyte,0.0120850048875147,0.0126862151539279,0.0113759526403457,6.524952218739516e-05,high
1500,6.262626262626262,3.848101265822785,electrolyte,0.0121767048697113,0.0127799409329279,0.0114669701153283,-1.8693694455069305e-05,high
1500,6.363636363636363,3.848101265822785,electrolyte,0.0122917827194666,0.0129295682162947,0.0115342362334872,5.252579239832588e-05,high
1500,6.4646464646464645,3.848101265822785,electrolyte,0.0122425059900376,0.0128644907864598,0.0115065801531669,5.396685408923877e-05,high
1500,6.565656565656566,3.848101265822785,electrolyte,0.0120808716857115,0.0125649700642709,0.0115290180238899,-6.454382500626055e-05,high
1500,6.666666666666667,3.848101265822785,electrolyte,0.012167041512476,0.0127123323876599,0.0115348327236823,-7.249388052333067e-05,high
1500,6.767676767676767,3.848101265822785,electrolyte,0.0123001335285001,0.0129163181345393,0.0115729820714575,-5.296174812480212e-05,high
1500,6.8686868686868685,3.848101265822785,electrolyte,0.0122018804210274,0.0127430435693105,0.0115769427140947,-1.4250139149806668e-05,high
1500,6.96969696969697,3.848101265822785,electrolyte,0.0124398635667985,0.0130828799189121,0.0116770407978378,-3.872707866803019e-05,high
1500,7.070707070707071,3.848101265822785,electrolyte,0.0124566960693243,0.0129769566241739,0.0118560970870101,-0.0001377113301363,high
1500,7.171717171717171,3.848101265822785,electrolyte,0.0124836907149197,0.0131096564690258,0.0117450660371442,-4.706685318265262e-05,high
1500,7.272727272727272,3.848101265822785,electrolyte,0.0124378096661713,0.0130347166795781,0.0117395379301977,4.845264734806006e-06,high
1500,7.373737373737374,3.848101265822785,electrolyte,0.0125285992296313,0.0131735150861439,0.011762196574018,9.037827916185363e-05,high
1500,7.474747474747475,3.848101265822785,electrolyte,0.0125511744786076,0.0131858778953381,0.0118007445684653,5.833668193790591e-05,high
1500,7.575757575757575,3.848101265822785,electrolyte,0.0126497042701731,0.0133378802323829,0.0118224893221073,-0.0001027324761957,high
1500,7.6767676767676765,3.848101265822785,electrolyte,0.0125960566887439,0.0132575885676901,0.0118079303270482,-6.940936400252052e-05,high
1500,7.777777777777778,3.848101265822785,electrolyte,0.0127326873196318,0.0132685925592345,0.0121159575097386,-0.0001017434035,high
1500,7.878787878787879,3.848101265822785,electrolyte,0.0127047838082247,0.0132751590803423,0.0120443507631638,4.4609788356403554e-05,high
1500,7.979797979797979,3.848101265822785,electrolyte,0.0128306419316528,0.013411875114196,0.0121522790382607,-0.000134091125433,high
1500,8.080808080808081,3.848101265822785,electrolyte,0.0128322445572112,0.0134564750445962,0.0121002175274588,1.6235053139612983e-05,high
1500,8.181818181818182,3.848101265822785,electrolyte,0.0128918961407687,0.0134954207720017,0.0121872305393809,7.707192594674199e-05,high
1500,8.282828282828282,3.848101265822785,electrolyte,0.0129427994881359,0.0136274907299511,0.0121273070278119,-1.5741126067202037e-05,high
1500,8.383838383838384,3.848101265822785,electrolyte,0.0128864633651806,0.0135362746807774,0.012119533226863,1.2260414291188632e-05,high
1500,8.484848484848484,3.848101265822785,electrolyte,0.013042819917983,0.0136938973242768,0.012274073389357,8.031326638135315e-05,high
1500,8.585858585858587,3.848101265822785,electrolyte,0.0132169310722539,0.0137565681540553,0.0126013349672453,2.294881125686022e-05,high
1500,8.686868686868687,3.848101265822785,electrolyte,0.0133370670819709,0.0140452818256006,0.0124928257188944,-2.569283789520501e-05,high
1500,8.787878787878787,3.848101265822785,electrolyte,0.0133383720888589,0.0139744659007602,0.0125939400673702,-6.5146953141561e-05,high
1500,8.88888888888889,3.848101265822785,electrolyte,0.0134759313941367,0.0141411929909448,0.0126935170877414,-3.409079619564599e-05,high
1500,8.98989898989899,3.848101265822785,electrolyte,0.0134898505753382,0.0141554462966961,0.0127069425038913,4.267355990312032e-05,high
1500,9.09090909090909,3.848101265822785,electrolyte,0.0137082475012978,0.0144214310166779,0.0128615088465733,2.1053731286867385e-05,high
1500,9.191919191919192,3.848101265822785,electrolyte,0.0138695592818912,0.0144892301926586,0.0131531889195103,5.365570083057332e-06,high
1500,9.292929292929292,3.848101265822785,electrolyte,0.0139064198743567,0.0146169059341263,0.0130653717846378,4.4516418074989415e-05,high
1500,9.393939393939394,3.848101265822785,electrolyte,0.014017986868332,0.0146312701948487,0.0133088924685702,-9.877801363513628e-05,high
1500,9.494949494949497,3.848101265822785,electrolyte,0.014103184882199,0.0148165555082524,0.0132607790130053,-1.0246779380888649e-05,high
1500,9.595959595959595,3.848101265822785,electrolyte,0.0142898292751534,0.0149895198291842,0.0134681175582731,3.62428916105476e-05,high
1500,9.696969696969695,3.848101265822785,electrolyte,0.0145501346618543,0.0152364018243449,0.0137496109569273,2.0608465075434212e-05,high
1500,9.797979797979798,3.848101265822785,electrolyte,0.0145717591878673,0.0153861847378805,0.0135903506637662,4.999947386945177e-05,high
1500,9.8989898989899,3.848101265822785,electrolyte,0.0147851882833963,0.0154617255750146,0.0140000755613069,-3.892493318865068e-06,high
1500,10.0,3.848101265822785,electrolyte,0.0149338637301737,0.0154441647738899,0.0143642251089344,-5.932059739225615e-05,high
1500,0.0,3.9493670886075942,electrolyte,0.0148450523480205,0.0156538838701579,0.0138749870703366,-6.750084460061104e-05,high
1500,0.101010101010101,3.9493670886075942,electrolyte,0.014733620671684,0.015286458872343,0.0141101749422768,2.1018057832061705e-05,high
1500,0.202020202020202,3.9493670886075942,electrolyte,0.0145780229040803,0.0152615493472522,0.0137812879318874,-3.5459332958356694e-05,high
1500,0.303030303030303,3.9493670886075942,electrolyte,0.0144512766512594,0.0151171161718886,0.0136775602482467,2.4551803677190992e-05,high
1500,0.404040404040404,3.9493670886075942,electrolyte,0.0143006121036048,0.0149973183209923,0.0134827788708535,5.212233687206212e-05,high
1500,0.5050505050505051,3.9493670886075942,electrolyte,0.0140535625155885,0.0147363079834933,0.0132502252412733,0.0001076684057192,high
1500,0.6060606060606061,3.9493670886075942,electrolyte,0.0139599922573073,0.0145807423653609,0.0132425692630189,3.7353682196404015e-05,high
1500,0.7070707070707071,3.9493670886075942,electrolyte,0.0138241894463701,0.0145048078463367,0.0130238577611554,4.635533320806716e-05,high
1500,0.8080808080808081,3.9493670886075942,electrolyte,0.0136844186665761,0.0145245482435065,0.0126507403040887,-4.423492400019213e-05,high
1500,0.9090909090909092,3.9493670886075942,electrolyte,0.0136848285398287,0.0142981606047474,0.0129752836336774,-2.4761512153749087e-05,high
1500,1.0101010101010102,3.9493670886075942,electrolyte,0.0135730943256349,0.0141257750049648,0.0129422394142393,5.468409926527096e-05,high
1500,1.1111111111111112,3.9493670886075942,electrolyte,0.0135539222217528,0.0142739316698003,0.0126953388389104,3.852772170188256e-05,high
1500,1.2121212121212122,3.9493670886075942,electrolyte,0.0134445064819386,0.0140971538074934,0.0126794331370747,1.7354330737826022e-05,high
1500,1.3131313131313131,3.9493670886075942,electrolyte,0.0133479029968585,0.0139724906357045,0.0126202978128531,1.9113463672917988e-05,high
1500,1.414141414141414,3.9493670886075942,electrolyte,0.0132057676926214,0.0137560235630289,0.0125763567056317,-3.0153671486810583e-06,high
1500,1.5151515151515151,3.9493670886075942,electrolyte,0.0130673824159708,0.0137663615391354,0.0122324406706269,4.956207052247369e-05,high
1500,1.616161616161616,3.9493670886075942,electrolyte,0.0130086647371916,0.0136097041598297,0.0123099352705879,2.146174779827651e-05,high
1500,1.7171717171717171,3.9493670886075942,electrolyte,0.0129093645857195,0.0135205199607784,0.0121957015670533,-3.796383206218832e-05,high
1500,1.818181818181818,3.9493670886075942,electrolyte,0.0129142806369192,0.0135629636542083,0.012149230040229,-1.2057854545952472e-05,high
1500,1.9191919191919191,3.9493670886075942,electrolyte,0.0127681182386608,0.0134009939084406,0.0120232314738296,3.347780178127724e-05,high
1500,2.0202020202020203,3.9493670886075942,electrolyte,0.0128027042313581,0.0134530431829458,0.0120341381465406,7.393203026844679e-06,high
1500,2.121212121212121,3.9493670886075942,electrolyte,0.0128290964631863,0.0135009628826523,0.0120305080229335,3.4780354180201703e-06,high
1500,2.2222222222222223,3.9493670886075942,electrolyte,0.0126917822216557,0.0133035914282455,0.0119755261744747,4.874429592276565e-06,high
1500,2.323232323232323,3.9493670886075942,electrolyte,0.0125548813179047,0.0132455490745717,0.0117258568636514,7.482464891411704e-06,high
1500,2.4242424242424243,3.9493670886075942,electrolyte,0.0126922216964668,0.013368913578182,0.0118849897854811,-1.8801152845979405e-05,high
1500,2.525252525252525,3.9493670886075942,electrolyte,0.0125694714036964,0.0132169251376571,0.0118022869593297,-1.2476620164347189e-05,high
1500,2.6262626262626263,3.9493670886075942,electrolyte,0.0124929092502276,0.013117144466449,0.0117558056206041,7.513861914339368e-05,high
1500,2.727272727272727,3.9493670886075942,electrolyte,0.0124209006886833,0.0131237863448494,0.0115721177632654,-1.9126321528135184e-05,high
1500,2.8282828282828283,3.9493670886075942,electrolyte,0.012376806403344,0.013067135496684,0.0115451691218962,-4.713757144229454e-05,high
1500,2.929292929292929,3.9493670886075942,electrolyte,0.0122967508453412,0.0129160721693183,0.0115633672737089,-9.484125374411853e-05,high
1500,3.0303030303030303,3.9493670886075942,electrolyte,0.0123175259978294,0.0128615187798462,0.0116892433234003,-4.394858857287375e-05,high
1500,3.131313131313131,3.9493670886075942,electrolyte,0.0123799238574184,0.0129949067515438,0.0116556312000708,4.088658052488131e-05,high
1500,3.2323232323232323,3.9493670886075942,electrolyte,0.0122710322820355,0.0128308075366639,0.01162092590423,-5.340420473049336e-05,high
1500,3.333333333333333,3.9493670886075942,electrolyte,0.0122915541996216,0.0127580264242766,0.0117640277228735,5.3212403008382686e-05,high
1500,3.4343434343434343,3.9493670886075942,electrolyte,0.0121971131188186,0.0127499226031818,0.0115565509808282,1.0033924683143247e-05,high
1500,3.5353535353535355,3.9493670886075942,electrolyte,0.0121751323464048,0.0128304510214861,0.0113910883891873,-5.5621357790981096e-05,high
1500,3.636363636363636,3.9493670886075942,electrolyte,0.0121373148911257,0.0127367218904411,0.0114323710756203,-2.6775484556362845e-05,high
1500,3.7373737373737375,3.9493670886075942,electrolyte,0.0121309185068572,0.0126487927205201,0.011536043701396,3.627600966138323e-05,high
1500,3.8383838383838382,3.9493670886075942,electrolyte,0.0121345694592237,0.0127182299095365,0.0114514271235429,-1.918082899825264e-05,high
1500,3.939393939393939,3.9493670886075942,electrolyte,0.0120955487032037,0.0126287620821876,0.0114803995040053,1.0454282321940684e-05,high
1500,4.040404040404041,3.9493670886075942,electrolyte,0.0120548892431527,0.0125953401110591,0.0114297301703885,-1.109440117206534e-05,high
1500,4.141414141414141,3.9493670886075942,electrolyte,0.0121423563866128,0.0127591618858261,0.0114131448390858,3.10596261146617e-05,high
1500,4.242424242424242,3.9493670886075942,electrolyte,0.0120308216632238,0.0125736833871177,0.0114022563053437,4.754023655372493e-06,high
1500,4.343434343434343,3.9493670886075942,electrolyte,0.0120575052489199,0.0127399368830392,0.0112329887865037,-4.071082629528901e-05,high
1500,4.444444444444445,3.9493670886075942,electrolyte,0.0119797455128336,0.0125985557702719,0.0112461517712445,-3.448898643022997e-06,high
1500,4.545454545454545,3.9493670886075942,electrolyte,0.0120391419227713,0.0126817876179764,0.0112723184355029,1.988717373940381e-05,high
1500,4.646464646464646,3.9493670886075942,electrolyte,0.0120270973239314,0.0125480319553005,0.0114276790177668,1.823773398607879e-05,high
1500,4.747474747474747,3.9493670886075942,electrolyte,0.0119711836032546,0.0124398092229877,0.0114388029043926,-5.9714160698251456e-05,high
1500,4.848484848484849,3.9493670886075942,electrolyte,0.0121286542272015,0.0127006525692317,0.0114566556320387,0.0001287403011385,high
1500,4.94949494949495,3.9493670886075942,electrolyte,0.0121300835696479,0.0127425526714149,0.0114067957783425,-3.154315376735723e-05,high
1500,5.05050505050505,3.9493670886075942,electrolyte,0.0117935333935974,0.0122918727705723,0.0112222951987075,-1.167543496105314e-05,high
1500,5.151515151515151,3.9493670886075942,electrolyte,0.0119440173389714,0.0124825193608646,0.0113203508969412,2.837494353503766e-05,high
1500,5.252525252525253,3.9493670886075942,electrolyte,0.0118997624896246,0.0124613054021301,0.0112447476903724,5.759161188245012e-06,high
1500,5.353535353535354,3.9493670886075942,electrolyte,0.0121015011094114,0.012733433297031,0.0113492147823561,7.256904736490515e-05,high
1500,5.454545454545454,3.9493670886075942,electrolyte,0.0120674345833197,0.0126547209023809,0.011378106315396,-4.6449973244812576e-05,high
1500,5.555555555555555,3.9493670886075942,electrolyte,0.0120614780239019,0.0125705513671694,0.0114777078823979,3.572452851632638e-05,high
1500,5.656565656565657,3.9493670886075942,electrolyte,0.0120647784512635,0.0126683569910628,0.0113534805980441,-3.358671670397611e-06,high
1500,5.757575757575758,3.9493670886075942,electrolyte,0.0121134707245701,0.0126055087189051,0.0115525999276369,1.963804502337343e-05,high
1500,5.858585858585858,3.9493670886075942,electrolyte,0.0120336409661869,0.0125921479462774,0.0113836782077765,-3.243264344719728e-05,high
1500,5.959595959595959,3.9493670886075942,electrolyte,0.0120499572876743,0.012699949422696,0.0112707716043748,8.305032224666938e-05,high
1500,6.0606060606060606,3.9493670886075942,electrolyte,0.0118779256193137,0.0124656203080287,0.0111867320487292,1.594893930867275e-06,high
1500,6.161616161616162,3.9493670886075942,electrolyte,0.0120638533709058,0.0126980041699231,0.011309553469326,1.3775891336293514e-06,high
1500,6.262626262626262,3.9493670886075942,electrolyte,0.0121921259212041,0.0127994517046082,0.0114729930334851,0.0001160770331858,high
1500,6.363636363636363,3.9493670886075942,electrolyte,0.012372663669221,0.0129616949153856,0.0116844150944805,2.2648115368894767e-05,high
1500,6.4646464646464645,3.9493670886075942,electrolyte,0.0121792522805799,0.0127444388814093,0.01152140926948,-3.867996795964997e-05,high
1500,6.565656565656566,3.9493670886075942,electrolyte,0.0121593533137197,0.0127467664202972,0.0114698685571623,-7.227144509335752e-05,high
1500,6.666666666666667,3.9493670886075942,electrolyte,0.0122977300180972,0.0127905347954786,0.0117371605925301,1.3450768098802223e-06,high
1500,6.767676767676767,3.9493670886075942,electrolyte,0.0123170572836459,0.0128795038977724,0.0116629391642361,-7.527716003468608e-05,high
1500,6.8686868686868685,3.9493670886075942,electrolyte,0.0122042084998017,0.0126974442915766,0.0116370276020205,-0.0001386985399443,high
1500,6.96969696969697,3.9493670886075942,electrolyte,0.0123945620833587,0.0130452180684606,0.0116206334315195,2.6016934285751648e-05,high
1500,7.070707070707071,3.9493670886075942,electrolyte,0.0121835316484843,0.0127446465843211,0.0115316024760213,1.6013672937443942e-05,high
1500,7.171717171717171,3.9493670886075942,electrolyte,0.0124136196263441,0.0129360391010523,0.0118150959957832,1.7272310861708445e-05,high
1500,7.272727272727272,3.9493670886075942,electrolyte,0.0123882692964351,0.013027393893433,0.0116306018363173,-2.419897233520361e-05,high
1500,7.373737373737374,3.9493670886075942,electrolyte,0.0124662386409062,0.0131823821064437,0.0115976295021611,-6.132266788523989e-05,high
1500,7.474747474747475,3.9493670886075942,electrolyte,0.0125236436200099,0.0131391688708511,0.0117979645691689,-9.551917003866483e-05,high
1500,7.575757575757575,3.9493670886075942,electrolyte,0.0126327819803668,0.0132907373708613,0.0118480761304609,0.0001099104317168,high
1500,7.6767676767676765,3.9493670886075942,electrolyte,0.0125313803184779,0.0131319601464455,0.0118285593654944,-3.8595824534856325e-05,high
1500,7.777777777777778,3.9493670886075942,electrolyte,0.0126661761848527,0.013242857044158,0.0119974633112121,-1.036135057624303e-05,high
1500,7.878787878787879,3.9493670886075942,electrolyte,0.0128038736537503,0.0133103529651584,0.0122287791052742,-2.025064850470125e-06,high
1500,7.979797979797979,3.9493670886075942,electrolyte,0.0127657574644149,0.0134181403317701,0.0119939255166045,1.7313849155722084e-07,high
1500,8.080808080808081,3.9493670886075942,electrolyte,0.0128013743922518,0.0132391666213843,0.0123124694227155,-5.652263425588764e-05,high
1500,8.181818181818182,3.9493670886075942,electrolyte,0.0128175258532289,0.0133979492561415,0.0121447623277278,3.455491208314901e-05,high
1500,8.282828282828282,3.9493670886075942,electrolyte,0.0130174650550165,0.0135817925013547,0.0123680518421689,1.747669379503695e-05,high
1500,8.383838383838384,3.9493670886075942,electrolyte,0.01292189163844,0.0135360237557233,0.0122040886323236,-4.618332510715968e-05,high
1500,8.484848484848484,3.9493670886075942,electrolyte,0.0131995157687312,0.0138996302391109,0.0123620679430572,-0.0001079279319383,high
1500,8.585858585858587,3.9493670886075942,electrolyte,0.0131967317823266,0.013896795602638,0.0123612688094084,6.797344660306702e-05,high
1500,8.686868686868687,3.9493670886075942,electrolyte,0.0132725823830542,0.0140093060020437,0.0123860203781907,-4.7739825200922986e-05,high
1500,8.787878787878787,3.9493670886075942,electrolyte,0.0132074609040147,0.0137806554220608,0.0125477976766439,-8.351109286948757e-06,high
1500,8.88888888888889,3.9493670886075942,electrolyte,0.0133984928905512,0.013926371209378,0.0127991220096533,-3.462522837072754e-05,high
1500,8.98989898989899,3.9493670886075942,electrolyte,0.0135327707395141,0.0141995928988925,0.0127486888588664,-3.902804263241522e-05,high
1500,9.09090909090909,3.9493670886075942,electrolyte,0.0136147820610646,0.0142594655122238,0.012858808039377,-0.0001165038600824,high
1500,9.191919191919192,3.9493670886075942,electrolyte,0.0138398559319432,0.0144366688012534,0.0131533884541638,3.507630122574489e-05,high
1500,9.292929292929292,3.9493670886075942,electrolyte,0.0138294112425259,0.0144371135925586,0.0131279208173859,5.5813730752486194e-05,high
1500,9.393939393939394,3.9493670886075942,electrolyte,0.0139911303089366,0.0146586082940056,0.0132104156906919,5.214241560109587e-05,high
1500,9.494949494949497,3.9493670886075942,electrolyte,0.0141033368747763,0.0148016339090927,0.013281415146822,-4.6192063993480126e-05,high
1500,9.595959595959595,3.9493670886075942,electrolyte,0.0143308392772301,0.0149482335411529,0.0136196080294444,7.879736954481939e-05,high
1500,9.696969696969695,3.9493670886075942,electrolyte,0.0144118690075286,0.0151211908443428,0.0135767502490049,8.173121895519316e-05,high
1500,9.797979797979798,3.9493670886075942,electrolyte,0.0145164702348399,0.0152181220256399,0.0136918506003585,0.0001066933647976,high
1500,9.8989898989899,3.9493670886075942,electrolyte,0.0147976912897765,0.0155802593941225,0.0138657607895041,-2.020310504952368e-06,high
1500,10.0,3.9493670886075942,electrolyte,0.0147961578643016,0.0155149464523883,0.0139532027867879,-3.674321688667148e-05,high
1500,0.0,4.050632911392405,electrolyte,0.0149469102300809,0.015659853816831,0.0141116452718462,-9.464610442558302e-05,high
1500,0.101010101010101,4.050632911392405,electrolyte,0.0146924180782531,0.0153714137391514,0.0139021912750056,-6.37713835941562e-05,high
1500,0.202020202020202,4.050632911392405,electrolyte,0.0145373566806339,0.0151700908151243,0.0138088467423843,9.911278039544098e-06,high
1500,0.303030303030303,4.050632911392405,electrolyte,0.0143536895065797,0.0150791434936165,0.0134971352495358,1.1735792233839588e-05,high
1500,0.404040404040404,4.050632911392405,electrolyte,0.0142099830441667,0.0149156339960736,0.0133789982546536,4.519407473908859e-05,high
1500,0.5050505050505051,4.050632911392405,electrolyte,0.0142041394337441,0.0149158823276154,0.0133650098201957,2.2043392886522644e-05,high
1500,0.6060606060606061,4.050632911392405,electrolyte,0.0138991534338085,0.0145320206111221,0.0131612628464403,-0.0001261564825254,high
1500,0.7070707070707071,4.050632911392405,electrolyte,0.0139003503903297,0.0146413756721191,0.0130164495708924,1.446898826175887e-05,high
1500,0.8080808080808081,4.050632911392405,electrolyte,0.0137467523388154,0.0143471652849086,0.0130550929244761,-7.591285237512893e-06,high
1500,0.9090909090909092,4.050632911392405,electrolyte,0.0136336268361016,0.0143425051282061,0.0127920141080403,2.726632723484837e-05,high
1500,1.0101010101010102,4.050632911392405,electrolyte,0.0136648060964775,0.0142980473806724,0.0129262017322437,-9.223222767679572e-05,high
1500,1.1111111111111112,4.050632911392405,electrolyte,0.013365746045951,0.0140423644372478,0.0125665979257048,-1.3326154179576054e-05,high
1500,1.2121212121212122,4.050632911392405,electrolyte,0.013292121652187,0.0140784752988478,0.0123319355740592,7.128964370766951e-05,high
1500,1.3131313131313131,4.050632911392405,electrolyte,0.0131947184033807,0.0138414789522111,0.0124347049412514,4.786754403106744e-05,high
1500,1.414141414141414,4.050632911392405,electrolyte,0.013178736040313,0.0137910350406828,0.0124658197910322,-4.593696179949424e-05,high
1500,1.5151515151515151,4.050632911392405,electrolyte,0.0131147381619148,0.013720042013051,0.0124112872443287,-6.722665577475859e-06,high
1500,1.616161616161616,4.050632911392405,electrolyte,0.013143426564632,0.0137384395931375,0.0124534475205029,5.006910692173883e-05,high
1500,1.7171717171717171,4.050632911392405,electrolyte,0.0130657689547344,0.0137501735915785,0.01225222105106,9.835825481661184e-06,high
1500,1.818181818181818,4.050632911392405,electrolyte,0.0129243638320611,0.0135278388437331,0.0122215327269348,2.462816355860265e-05,high
1500,1.9191919191919191,4.050632911392405,electrolyte,0.0128534062715165,0.0135818029298697,0.011971094357316,9.420944577513444e-05,high
1500,2.0202020202020203,4.050632911392405,electrolyte,0.0128738839196518,0.0135147469412458,0.0121191150542949,-2.7843025209996885e-05,high
1500,2.121212121212121,4.050632911392405,electrolyte,0.0126458900012964,0.0132938783572722,0.0118788687330962,3.904211160314867e-06,high
1500,2.2222222222222223,4.050632911392405,electrolyte,0.0125964008312792,0.0131305774004026,0.0119824523360632,-6.97731886756793e-05,high
1500,2.323232323232323,4.050632911392405,electrolyte,0.0126269229705489,0.0133209389426117,0.0117928290600165,6.457043119613144e-05,high
1500,2.4242424242424243,4.050632911392405,electrolyte,0.0125004920444995,0.013149269157971,0.0117290715537978,-7.443405516907712e-05,high
1500,2.525252525252525,4.050632911392405,electrolyte,0.0125112010655447,0.013177735971318,0.0117162864576802,-7.9145001131314e-06,high
1500,2.6262626262626263,4.050632911392405,electrolyte,0.0124308499711964,0.0129984738673925,0.0117704905725225,8.098131593336194e-05,high
1500,2.727272727272727,4.050632911392405,electrolyte,0.0124103990508995,0.0130575958771458,0.0116417270739252,1.0842682479322832e-05,high
1500,2.8282828282828283,4.050632911392405,electrolyte,0.0123709649844866,0.0128974412599327,0.0117666416552711,2.885207071598996e-05,high
1500,2.929292929292929,4.050632911392405,electrolyte,0.0123215558890964,0.0129029375133486,0.0116432862569879,2.178085190791649e-05,high
1500,3.0303030303030303,4.050632911392405,electrolyte,0.0123275535865361,0.0129464341569128,0.0115974959658431,-3.0140110278179e-05,high
1500,3.131313131313131,4.050632911392405,electrolyte,0.0123662755642219,0.0131415547702465,0.011406494904636,7.132336505067888e-05,high
1500,3.2323232323232323,4.050632911392405,electrolyte,0.0122128174985857,0.012799176183934,0.0115258084175247,5.9422742737065375e-05,high
1500,3.333333333333333,4.050632911392405,electrolyte,0.0121977929224091,0.0128187047775899,0.0114629680693546,5.074971238192978e-05,high
1500,3.4343434343434343,4.050632911392405,electrolyte,0.012180883245615,0.0127734235248848,0.0114858547390029,2.8261507020294075e-05,high
1500,3.5353535353535355,4.050632911392405,electrolyte,0.0121703918826597,0.0126880294597447,0.0115764929804646,3.708372318730525e-06,high
1500,3.636363636363636,4.050632911392405,electrolyte,0.0121196510023561,0.0126288759217268,0.0115363874107754,1.6371486344147703e-05,high
1500,3.7373737373737375,4.050632911392405,electrolyte,0.0122093386025415,0.0128349692835746,0.0114687248420464,1.4073237838917967e-05,high
1500,3.8383838383838382,4.050632911392405,electrolyte,0.0119463236245073,0.0125169748667355,0.011278712267598,-4.470605615901213e-05,high
1500,3.939393939393939,4.050632911392405,electrolyte,0.0121408181799865,0.0127436560970107,0.0114308926885031,-3.98037211754529e-05,high
1500,4.040404040404041,4.050632911392405,electrolyte,0.0120349326050927,0.0126236475417047,0.0113438047402333,-2.1697849509144893e-05,high
1500,4.141414141414141,4.050632911392405,electrolyte,0.0121309458883218,0.0125275908167205,0.0116856854070158,-0.0001385138193901,high
1500,4.242424242424242,4.050632911392405,electrolyte,0.011992901194425,0.0125273665169738,0.0113752621887752,-9.237797806330627e-06,high
1500,4.343434343434343,4.050632911392405,electrolyte,0.0120464152525719,0.0126120264442305,0.0113864270122304,5.198681283959093e-05,high
1500,4.444444444444445,4.050632911392405,electrolyte,0.0120659509425931,0.0125881434020156,0.0114650844336956,2.438397808134868e-05,high
1500,4.545454545454545,4.050632911392405,electrolyte,0.0120936339007632,0.0126599137634605,0.0114334767412793,-4.083950369497822e-05,high
1500,4.646464646464646,4.050632911392405,electrolyte,0.0120921530707041,0.0126662382553866,0.0114202913059733,7.222985810832225e-05,high
1500,4.747474747474747,4.050632911392405,electrolyte,0.0120386076029517,0.0126805015743222,0.0112729711144192,-1.0097211107194772e-06,high
1500,4.848484848484849,4.050632911392405,electrolyte,0.0120532697378623,0.0126110086924375,0.0114046945856032,2.17186224441042e-05,high
1500,4.94949494949495,4.050632911392405,electrolyte,0.0120527526236795,0.0125540343336358,0.0114792356632071,-3.1278245157509576e-05,high
1500,5.05050505050505,4.050632911392405,electrolyte,0.0120322338181743,0.012664855867955,0.0112795467702718,2.4050348191326312e-05,high
1500,5.151515151515151,4.050632911392405,electrolyte,0.0120062044541522,0.012593241727194,0.0113171723546147,-1.5332115401991916e-05,high
1500,5.252525252525253,4.050632911392405,electrolyte,0.0118796776168156,0.0124820609115389,0.0111645655828424,0.0001067062672663,high
1500,5.353535353535354,4.050632911392405,electrolyte,0.0120355287767374,0.0125467669371284,0.0114490828149876,4.788184861147392e-06,high
1500,5.454545454545454,4.050632911392405,electrolyte,0.0119072499761929,0.0125593960474983,0.0111236101308659,7.140421471404872e-05,high
1500,5.555555555555555,4.050632911392405,electrolyte,0.0120610794631883,0.0125656046722697,0.0114816126054796,8.40516029462656e-05,high
1500,5.656565656565657,4.050632911392405,electrolyte,0.0119529668458574,0.0124631997950768,0.0113646459175887,9.44159683019934e-05,high
1500,5.757575757575758,4.050632911392405,electrolyte,0.0121174499642087,0.0126261237701115,0.0115349408566725,-1.036898031654536e-05,high
1500,5.858585858585858,4.050632911392405,electrolyte,0.0120896922318877,0.0126733993392302,0.011405485775804,4.753091194784531e-05,high
1500,5.959595959595959,4.050632911392405,electrolyte,0.0119601480048202,0.0125725869906378,0.0112349952420889,-3.179932312871184e-05,high
1500,6.0606060606060606,4.050632911392405,electrolyte,0.012054104856737,0.0126327230098595,0.0113736026319245,0.0001102846283731,high
1500,6.161616161616162,4.050632911392405,electrolyte,0.0120971566089202,0.0126857657446737,0.0114066494678928,3.149862389039436e-05,high
1500,6.262626262626262,4.050632911392405,electrolyte,0.0121346689754856,0.0127069798752839,0.0114668017698029,3.526135062714302e-05,high
1500,6.363636363636363,4.050632911392405,electrolyte,0.0121371071419356,0.012638578639785,0.011563656578797,-4.370088875294965e-05,high
1500,6.4646464646464645,4.050632911392405,electrolyte,0.0121846973189066,0.0127391107549981,0.0115416488885107,-2.938449499480711e-05,high
1500,6.565656565656566,4.050632911392405,electrolyte,0.0120302594587402,0.0126294186303623,0.0113215038994672,-0.000104066372513,high
1500,6.666666666666667,4.050632911392405,electrolyte,0.0123923608375672,0.0130771120350041,0.0115695076160508,2.574722957102448e-05,high
1500,6.767676767676767,4.050632911392405,electrolyte,0.0122666470284677,0.0127846337728606,0.011671618211568,6.942936407582319e-05,high
1500,6.8686868686868685,4.050632911392405,electrolyte,0.012314804135233,0.0128459845029882,0.0117040791015177,3.37556909090577e-06,high
1500,6.96969696969697,4.050632911392405,electrolyte,0.0123875677100708,0.0130709856095179,0.0115666723961798,-1.885989828314568e-05,high
1500,7.070707070707071,4.050632911392405,electrolyte,0.0122626888870709,0.0129349593428814,0.0114552919318273,5.88435630414812e-05,high
1500,7.171717171717171,4.050632911392405,electrolyte,0.0124183920517498,0.0129415968222252,0.0118188349817341,-2.057310935453013e-05,high
1500,7.272727272727272,4.050632911392405,electrolyte,0.0124924870837276,0.0130643318870913,0.0118279898692566,-5.448774454326066e-05,high
1500,7.373737373737374,4.050632911392405,electrolyte,0.0125017100292083,0.0131001573431222,0.0117993717012885,9.501672053576036e-05,high
1500,7.474747474747475,4.050632911392405,electrolyte,0.0125120482021434,0.0131395183285913,0.0117684592980309,-0.0001149792759894,high
1500,7.575757575757575,4.050632911392405,electrolyte,0.0126603137872241,0.0132932370914859,0.0119141171381075,-3.825132926930696e-05,high
1500,7.6767676767676765,4.050632911392405,electrolyte,0.0126543073839596,0.0132408771547537,0.0119718858732151,-3.10179364333323e-05,high
1500,7.777777777777778,4.050632911392405,electrolyte,0.012525158281204,0.0131047483420557,0.0118507847092061,-4.325855089690775e-05,high
1500,7.878787878787879,4.050632911392405,electrolyte,0.0125566590837424,0.0132035510955227,0.0117901070809819,1.3929556834149775e-05,high
1500,7.979797979797979,4.050632911392405,electrolyte,0.0128782585588795,0.013487686847054,0.0121670589277563,-1.2570992446222414e-06,high
1500,8.080808080808081,4.050632911392405,electrolyte,0.0127422399877804,0.0133145654170169,0.0120800446211372,-5.596490461703015e-06,high
1500,8.181818181818182,4.050632911392405,electrolyte,0.0130842743168972,0.0136697791318896,0.0124063263358011,-5.825399363906762e-05,high
1500,8.282828282828282,4.050632911392405,electrolyte,0.0130212243172311,0.0136496570913555,0.0122851877273168,2.520775969980087e-05,high
1500,8.383838383838384,4.050632911392405,electrolyte,0.0130889411385486,0.0136925531792508,0.0123875374339799,-9.982622489534772e-06,high
1500,8.484848484848484,4.050632911392405,electrolyte,0.0130531727606922,0.0136598878491087,0.012347116944229,2.393709659633298e-05,high
1500,8.585858585858587,4.050632911392405,electrolyte,0.0131449771198395,0.0137608637474055,0.012426693670796,5.283702367774879e-05,high
1500,8.686868686868687,4.050632911392405,electrolyte,0.013235553206393,0.0138701230615551,0.0124930280081581,3.4842543734565656e-05,high
1500,8.787878787878787,4.050632911392405,electrolyte,0.0134326310377545,0.0140521943912754,0.012711149998511,-7.665032581924019e-05,high
1500,8.88888888888889,4.050632911392405,electrolyte,0.0132744186038164,0.0138734180407084,0.0125800139974553,5.6279379244810605e-05,high
1500,8.98989898989899,4.050632911392405,electrolyte,0.0135053217398821,0.0141467404004402,0.0127553336371077,-6.139715389317408e-05,high
1500,9.09090909090909,4.050632911392405,electrolyte,0.0136992506616595,0.0143959030034569,0.0128757931444852,4.672866697311773e-06,high
1500,9.191919191919192,4.050632911392405,electrolyte,0.0138328734650241,0.0144600723399241,0.0131059504420001,2.415719457175544e-05,high
1500,9.292929292929292,4.050632911392405,electrolyte,0.0140445629079261,0.0146973669888227,0.0132849988233511,1.2386645854575697e-05,high
1500,9.393939393939394,4.050632911392405,electrolyte,0.0139824503152955,0.0146957633696056,0.0131364874530742,-9.462966000986126e-05,high
1500,9.494949494949497,4.050632911392405,electrolyte,0.0141377825406201,0.0147276076900677,0.0134625313233771,-4.319377408100695e-05,high
1500,9.595959595959595,4.050632911392405,electrolyte,0.0143774885992107,0.0151227580501511,0.0134930644714834,-3.618426338009279e-05,high
1500,9.696969696969695,4.050632911392405,electrolyte,0.0144299472512406,0.0151655258414268,0.0135600261863188,-1.654279292167941e-05,high
1500,9.797979797979798,4.050632911392405,electrolyte,0.0147144125905375,0.0153598923607346,0.0139703174823305,-1.2203387392677847e-05,high
1500,9.8989898989899,4.050632911392405,electrolyte,0.0146625737917931,0.0152915505572168,0.0139399766716147,1.238535582122712e-05,high
1500,10.0,4.050632911392405,electrolyte,0.0150067499493057,0.0156841577927158,0.0142223527632763,-3.880463891729476e-06,critical
1500,0.0,4.151898734177215,electrolyte,0.0148746551824341,0.0156007431793007,0.014022257778271,4.5122951629430834e-05,high
1500,0.101010101010101,4.151898734177215,electrolyte,0.0147064628189446,0.0153729533904055,0.0139329594208534,-7.241142972302395e-05,high
1500,0.202020202020202,4.151898734177215,electrolyte,0.0144716121229635,0.0151321873958953,0.013704380238371,6.238121190078518e-05,high
1500,0.303030303030303,4.151898734177215,electrolyte,0.0143962561022124,0.0150845593885799,0.0135905914645161,6.36802688819794e-05,high
1500,0.404040404040404,4.151898734177215,electrolyte,0.0143242456327419,0.0150600564575954,0.0134496077346767,0.0001134548974011,high
1500,0.5050505050505051,4.151898734177215,electrolyte,0.0141616032106018,0.0148093570146972,0.0134099365813941,5.464036002604492e-06,high
1500,0.6060606060606061,4.151898734177215,electrolyte,0.0140263199885341,0.0147277034951019,0.0131998350113357,2.166860103276383e-06,high
1500,0.7070707070707071,4.151898734177215,electrolyte,0.0138172453900693,0.0144335702781909,0.0131045623988028,-3.823557618000504e-05,high
1500,0.8080808080808081,4.151898734177215,electrolyte,0.0137429821428684,0.0144192460905684,0.0129472498921283,-6.633998365683505e-05,high
1500,0.9090909090909092,4.151898734177215,electrolyte,0.0136698946450829,0.0143104334547602,0.0129234334058334,-2.778915100032078e-05,high
1500,1.0101010101010102,4.151898734177215,electrolyte,0.0135834475374582,0.0141823645876149,0.0128922062938994,3.44895211641368e-05,high
1500,1.1111111111111112,4.151898734177215,electrolyte,0.0136563121430259,0.0143024277653052,0.0129022779276108,-1.3462444250702114e-05,high
1500,1.2121212121212122,4.151898734177215,electrolyte,0.0133692577064449,0.0140008322603259,0.0126323507553975,1.718538219857789e-05,high
1500,1.3131313131313131,4.151898734177215,electrolyte,0.0134165244625234,0.0139971646559899,0.0127425919024869,0.0001516782301065,high
1500,1.414141414141414,4.151898734177215,electrolyte,0.0131839406331399,0.0138244414476506,0.0124329072764165,2.5328518563224725e-05,high
1500,1.5151515151515151,4.151898734177215,electrolyte,0.013133384497158,0.0137392621543381,0.0124276415945666,7.919181243330765e-05,high
1500,1.616161616161616,4.151898734177215,electrolyte,0.0130981830064791,0.0137342424694431,0.0123518165418716,-5.308264579559054e-05,high
1500,1.7171717171717171,4.151898734177215,electrolyte,0.0129087563823858,0.0135617912393008,0.0121367199872115,5.627453492693775e-05,high
1500,1.818181818181818,4.151898734177215,electrolyte,0.0129460075870839,0.0134593206526169,0.01235946732404,-0.0001146026332704,high
1500,1.9191919191919191,4.151898734177215,electrolyte,0.0129055085937047,0.0135974740391256,0.0120780405579431,6.48871541266706e-05,high
1500,2.0202020202020203,4.151898734177215,electrolyte,0.0128077875775887,0.0134213967667117,0.0120900727211754,-2.11028364664124e-05,high
1500,2.121212121212121,4.151898734177215,electrolyte,0.0127697987407559,0.0134850923159052,0.0119077965526007,2.6846251349335175e-05,high
1500,2.2222222222222223,4.151898734177215,electrolyte,0.0126173047949632,0.0131567554933664,0.0119973492959616,-4.459560121471048e-05,high
1500,2.323232323232323,4.151898734177215,electrolyte,0.0126222622768445,0.013274843586883,0.0118484487758571,1.4125412451877523e-05,high
1500,2.4242424242424243,4.151898734177215,electrolyte,0.0126080681662185,0.0132247750437019,0.0118840435718372,-2.594325388426434e-05,high
1500,2.525252525252525,4.151898734177215,electrolyte,0.012535449550995,0.0130544634547282,0.0119422488231483,1.6565323012549987e-05,high
1500,2.6262626262626263,4.151898734177215,electrolyte,0.0124506252448002,0.0129923577257283,0.0118267795155822,-2.4126145773021914e-05,high
1500,2.727272727272727,4.151898734177215,electrolyte,0.0123555719275584,0.0129214638026102,0.0116981285778436,4.7129636915595774e-05,high
1500,2.8282828282828283,4.151898734177215,electrolyte,0.0124226487189302,0.0130572750072094,0.0116716389372906,-2.8369506053817437e-05,high
1500,2.929292929292929,4.151898734177215,electrolyte,0.0122944593518586,0.0128554280317392,0.0116437442159683,-8.893757043906153e-06,high
1500,3.0303030303030303,4.151898734177215,electrolyte,0.0122310859815829,0.0128385043145292,0.0115160149304562,-2.6323291612989387e-05,high
1500,3.131313131313131,4.151898734177215,electrolyte,0.0123154397071503,0.0129089152540553,0.0116205880652533,-1.898857908718688e-05,high
1500,3.2323232323232323,4.151898734177215,electrolyte,0.0122310410491313,0.0128302109919914,0.0115262314058833,-6.836545070178462e-05,high
1500,3.333333333333333,4.151898734177215,electrolyte,0.012238264712525,0.0128368006851227,0.0115350566857768,4.953842647835455e-05,high
1500,3.4343434343434343,4.151898734177215,electrolyte,0.0121991738165414,0.0127337121984143,0.0115825323465786,-4.469647547538244e-05,high
1500,3.5353535353535355,4.151898734177215,electrolyte,0.0122741786954968,0.01281437494156,0.0116510791929524,1.7401129825313055e-05,high
1500,3.636363636363636,4.151898734177215,electrolyte,0.0121621872496102,0.0127848429675722,0.0114252672281913,5.919698567687553e-06,high
1500,3.7373737373737375,4.151898734177215,electrolyte,0.0121401488474462,0.0128006603612367,0.0113490778379685,1.199165288703902e-05,high
1500,3.8383838383838382,4.151898734177215,electrolyte,0.0122165285248514,0.0128172711567268,0.0115103004500974,-3.981124726906762e-05,high
1500,3.939393939393939,4.151898734177215,electrolyte,0.0120236907723048,0.0126397058191925,0.0112942942685477,2.858063193254749e-05,high
1500,4.040404040404041,4.151898734177215,electrolyte,0.012140704735952,0.0127750647784554,0.0113867966387027,-2.803794565238313e-05,high
1500,4.141414141414141,4.151898734177215,electrolyte,0.0120930591755802,0.0126439341239336,0.011454178793208,-1.5059570776525378e-05,high
1500,4.242424242424242,4.151898734177215,electrolyte,0.01209688526807,0.012558812223951,0.0115739322683771,5.716237306175773e-05,high
1500,4.343434343434343,4.151898734177215,electrolyte,0.0121050054968918,0.0126518936528498,0.0114714848721493,2.440319321716145e-05,high
1500,4.444444444444445,4.151898734177215,electrolyte,0.0120810019584863,0.0126147732600684,0.0114650244604795,-8.223355181939847e-07,high
1500,4.545454545454545,4.151898734177215,electrolyte,0.0119752827722663,0.0125879034916794,0.0112492327406488,6.083310871091978e-05,high
1500,4.646464646464646,4.151898734177215,electrolyte,0.011902648637532,0.0124281929442484,0.01129489486217,6.719973624003713e-05,high
1500,4.747474747474747,4.151898734177215,electrolyte,0.0119783499652047,0.0125131577717301,0.0113601555786634,-3.404139049914918e-06,high
1500,4.848484848484849,4.151898734177215,electrolyte,0.0121209918377873,0.0127624363991578,0.0113567988038711,-2.710258281400997e-05,high
1500,4.94949494949495,4.151898734177215,electrolyte,0.0120341035080306,0.0126475130834937,0.0113067758269056,-8.05722199291633e-05,high
1500,5.05050505050505,4.151898734177215,electrolyte,0.0119229834138608,0.0125112145133214,0.0112313634625291,2.248865050910736e-05,high
1500,5.151515151515151,4.151898734177215,electrolyte,0.0120689616054455,0.0127251586745649,0.0112828573266146,3.391789974607162e-05,high
1500,5.252525252525253,4.151898734177215,electrolyte,0.0121257499708077,0.0126959821749999,0.0114609778026425,-8.299887194368101e-06,high
1500,5.353535353535354,4.151898734177215,electrolyte,0.0120528013966028,0.0124774444534855,0.0115777335259246,-2.220044853882504e-06,high
1500,5.454545454545454,4.151898734177215,electrolyte,0.012070270312202,0.0126011897617941,0.0114580033271047,-5.0321980844932604e-06,high
1500,5.555555555555555,4.151898734177215,electrolyte,0.0121274068826568,0.0126579957467682,0.0115099707519246,0.0001447704912822,high
1500,5.656565656565657,4.151898734177215,electrolyte,0.0120023184384354,0.0125539852907781,0.0113616350946886,-7.048630703221168e-06,high
1500,5.757575757575758,4.151898734177215,electrolyte,0.0119723340122124,0.012553945497613,0.0112891953125517,6.644798387678573e-05,high
1500,5.858585858585858,4.151898734177215,electrolyte,0.0119822262178013,0.0125106849648466,0.011372224827794,-3.332407022949192e-05,high
1500,5.959595959595959,4.151898734177215,electrolyte,0.0119557271330253,0.0125698764235892,0.0112280295414187,-3.6122052931381145e-05,high
1500,6.0606060606060606,4.151898734177215,electrolyte,0.0120585574552354,0.0125272184904496,0.0115271700427966,-4.216357385662758e-05,high
1500,6.161616161616162,4.151898734177215,electrolyte,0.0122449691446712,0.0129019416739718,0.0114603592554849,-8.61795854479358e-06,high
1500,6.262626262626262,4.151898734177215,electrolyte,0.0121655157996006,0.0126677651282213,0.011591260273453,4.3008851052800144e-05,high
1500,6.363636363636363,4.151898734177215,electrolyte,0.0121007952715617,0.0126487887938381,0.0114658722220908,-1.3644463778649008e-05,high
1500,6.4646464646464645,4.151898734177215,electrolyte,0.0120321751804109,0.0125911487062918,0.0113818621317869,-6.997546638703228e-06,high
1500,6.565656565656566,4.151898734177215,electrolyte,0.012101958794998,0.0125687518674891,0.0115710562287696,-9.70833046771414e-05,high
1500,6.666666666666667,4.151898734177215,electrolyte,0.012247112896679,0.0129273127523601,0.0114265628942505,-9.086977659693011e-05,high
1500,6.767676767676767,4.151898734177215,electrolyte,0.0121582963835126,0.0127718700918588,0.0114329917280033,-6.025104364044204e-05,high
1500,6.8686868686868685,4.151898734177215,electrolyte,0.0122616028643813,0.0128041296129336,0.0116348224310801,4.416290771435303e-05,high
1500,6.96969696969697,4.151898734177215,electrolyte,0.0123252338391456,0.0128565450846721,0.0117130537560227,6.931348457105515e-05,high
1500,7.070707070707071,4.151898734177215,electrolyte,0.0122632498230618,0.0128226332973605,0.0116137198299484,-4.951044813322242e-05,high
1500,7.171717171717171,4.151898734177215,electrolyte,0.0122593565672009,0.0128496819145335,0.0115680588296843,3.361239900429228e-05,high
1500,7.272727272727272,4.151898734177215,electrolyte,0.0124907362398719,0.0131274130111949,0.0117362653725329,-7.393083991116944e-05,high
1500,7.373737373737374,4.151898734177215,electrolyte,0.012467385600795,0.0130212936206719,0.0118275942122998,-8.334203583326356e-06,high
1500,7.474747474747475,4.151898734177215,electrolyte,0.0125411907951381,0.0132230567199155,0.0117211928066448,-0.000109352699622,high
1500,7.575757575757575,4.151898734177215,electrolyte,0.0125116431631454,0.0130848685998076,0.0118438154729897,-9.351041628540874e-05,high
1500,7.6767676767676765,4.151898734177215,electrolyte,0.0127193480145575,0.0133098645329581,0.0120324014322784,-9.466995876303222e-06,high
1500,7.777777777777778,4.151898734177215,electrolyte,0.012642132491656,0.0132345201121189,0.0119512235460179,-5.149587626137834e-05,high
1500,7.878787878787879,4.151898734177215,electrolyte,0.0127590665006594,0.013284699120778,0.0121587071246397,1.9614147819741784e-05,high
1500,7.979797979797979,4.151898734177215,electrolyte,0.0127992058640217,0.0133223547863278,0.012202352512617,-1.996877202318713e-05,high
1500,8.080808080808081,4.151898734177215,electrolyte,0.0127265734041908,0.0133033815234166,0.0120578804906414,3.565229701897418e-05,high
1500,8.181818181818182,4.151898734177215,electrolyte,0.0130059831495956,0.0136679395486617,0.0122226874698418,5.128565832258813e-05,high
1500,8.282828282828282,4.151898734177215,electrolyte,0.0129894624869833,0.0136465914346124,0.0122134434201307,1.0802855412002956e-05,high
1500,8.383838383838384,4.151898734177215,electrolyte,0.0130869879154818,0.0138045724156785,0.0122260850696983,2.4177769765128903e-05,high
1500,8.484848484848484,4.151898734177215,electrolyte,0.0131572559515517,0.0136832536439934,0.0125591184993484,-5.784452268504906e-06,high
1500,8.585858585858587,4.151898734177215,electrolyte,0.0131678071953699,0.0137933388790577,0.0124372993862615,-1.1804708269860812e-05,high
1500,8.686868686868687,4.151898734177215,electrolyte,0.0133772704810093,0.0139549769280787,0.0127118271070348,6.503858374258942e-05,high
1500,8.787878787878787,4.151898734177215,electrolyte,0.0133699941087113,0.0140046886302208,0.0126286943757836,-2.8575861962029757e-05,high
1500,8.88888888888889,4.151898734177215,electrolyte,0.0134790079816223,0.0141473657732929,0.0126926335684888,-5.185272626737694e-06,high
1500,8.98989898989899,4.151898734177215,electrolyte,0.0134043207580112,0.0140515312448943,0.0126458865741402,4.437614716123107e-05,high
1500,9.09090909090909,4.151898734177215,electrolyte,0.0135910448488368,0.0142543498615865,0.0128127989514778,1.0199609863693488e-05,high
1500,9.191919191919192,4.151898734177215,electrolyte,0.0138977262006721,0.0145499477285316,0.0131372100193369,4.181958780220932e-05,high
1500,9.292929292929292,4.151898734177215,electrolyte,0.0138183046451183,0.0144495931238104,0.0130854801550411,-4.031130401277648e-05,high
1500,9.393939393939394,4.151898734177215,electrolyte,0.0140620505714404,0.0147131059369467,0.0133042570107967,5.617877657911753e-05,high
1500,9.494949494949497,4.151898734177215,electrolyte,0.0141611247503257,0.0147304813415911,0.0135131474066883,1.1351135441227788e-05,high
1500,9.595959595959595,4.151898734177215,electrolyte,0.0143787126055526,0.0151288727397905,0.0134876959692731,-9.64587774833892e-06,high
1500,9.696969696969695,4.151898734177215,electrolyte,0.0144609703556298,0.0150794586110294,0.0137499770802255,5.753897748963488e-05,high
1500,9.797979797979798,4.151898734177215,electrolyte,0.0144840453151095,0.015160513354979,0.0136962611398624,1.986803554028529e-05,high
1500,9.8989898989899,4.151898734177215,electrolyte,0.014667508336367,0.0154406193300947,0.0137473265821152,2.1007190053407854e-05,high
1500,10.0,4.151898734177215,electrolyte,0.0148559514719488,0.0156532848550569,0.0139032237905207,4.26536855352648e-05,high
1500,0.0,4.253164556962025,electrolyte,0.015047126847671,0.0157715665234818,0.0141987519354387,-4.366517053722115e-05,critical
1500,0.101010101010101,4.253164556962025,electrolyte,0.0146976188395891,0.0153498881250593,0.0139442791813473,1.9473340111956287e-05,high
1500,0.202020202020202,4.253164556962025,electrolyte,0.014681349760088,0.0153919008046031,0.0138487987426078,2.258535787299126e-05,high
1500,0.303030303030303,4.253164556962025,electrolyte,0.0144734902622062,0.0150864783073253,0.0137670169864438,0.0001226635918709,high
1500,0.404040404040404,4.253164556962025,electrolyte,0.0142708067216779,0.0149255255327458,0.0135106652503493,-1.0258497538294178e-05,high
1500,0.5050505050505051,4.253164556962025,electrolyte,0.0142636301771589,0.0149570211422518,0.0134505640998192,-2.13025339311251e-05,high
1500,0.6060606060606061,4.253164556962025,electrolyte,0.014013179294325,0.0147255405272689,0.0131708266316351,-3.880419155290194e-05,high
1500,0.7070707070707071,4.253164556962025,electrolyte,0.0138139400811584,0.014450403106985,0.0130711104686249,-0.0001150029797245,high
1500,0.8080808080808081,4.253164556962025,electrolyte,0.0137270788495975,0.0143919401785021,0.0129479685572759,2.041886970456858e-05,high
1500,0.9090909090909092,4.253164556962025,electrolyte,0.0136095692619735,0.0141429132818486,0.0130047262892792,7.952000738462703e-06,high
1500,1.0101010101010102,4.253164556962025,electrolyte,0.0135532612978173,0.0143200067958872,0.0126264029052593,-6.43486794447312e-05,high
1500,1.1111111111111112,4.253164556962025,electrolyte,0.0135025570093527,0.0141508718906428,0.0127437707619398,3.4855647523288844e-05,high
1500,1.2121212121212122,4.253164556962025,electrolyte,0.0133651157820649,0.0140831592266074,0.012507158882263,-2.7281075489057827e-05,high
1500,1.3131313131313131,4.253164556962025,electrolyte,0.0134097815528678,0.0139850642651991,0.0127487723800102,-2.177638943963111e-05,high
1500,1.414141414141414,4.253164556962025,electrolyte,0.013136230392087,0.013801343818564,0.0123498054465386,5.6786760410135366e-05,high
1500,1.5151515151515151,4.253164556962025,electrolyte,0.0130892737133649,0.0137773634404695,0.0122707491712849,-1.4477196349649248e-05,high
1500,1.616161616161616,4.253164556962025,electrolyte,0.0130777275792088,0.0137233130689985,0.0123178111904455,-5.871914533345395e-05,high
1500,1.7171717171717171,4.253164556962025,electrolyte,0.0129996979325272,0.0136963808387399,0.0121678683377372,3.5176666640186262e-06,high
1500,1.818181818181818,4.253164556962025,electrolyte,0.0129843046753064,0.0136234858810308,0.012232611365695,-4.7706586164887e-05,high
1500,1.9191919191919191,4.253164556962025,electrolyte,0.0127734129557229,0.0133726389223773,0.0120744519568026,5.0009785468088285e-05,high
1500,2.0202020202020203,4.253164556962025,electrolyte,0.0127520130300364,0.0133393564973008,0.012068906262991,-5.275523928559047e-05,high
1500,2.121212121212121,4.253164556962025,electrolyte,0.0127471861705973,0.0133061120119652,0.0121027697922738,2.5247172462547224e-05,high
1500,2.2222222222222223,4.253164556962025,electrolyte,0.0127251357451297,0.013283939719542,0.0120793450040804,7.470032955193629e-05,high
1500,2.323232323232323,4.253164556962025,electrolyte,0.0126896610483455,0.0134383397167889,0.0117771213370217,-3.1056957783886594e-05,high
1500,2.4242424242424243,4.253164556962025,electrolyte,0.0126241729462871,0.0132308913472706,0.0119135107838258,-5.126494413231278e-05,high
1500,2.525252525252525,4.253164556962025,electrolyte,0.012467371620331,0.0131430240579805,0.0116584846771064,3.537115238342686e-05,high
1500,2.6262626262626263,4.253164556962025,electrolyte,0.0124825455109726,0.0131083723533039,0.0117444822550294,2.999854238583196e-05,high
1500,2.727272727272727,4.253164556962025,electrolyte,0.0123595467339567,0.0129025168036482,0.0117321517321844,-6.917658779523085e-05,high
1500,2.8282828282828283,4.253164556962025,electrolyte,0.0124397891214073,0.0130027875115497,0.0117873415060528,-3.026253751218052e-05,high
1500,2.929292929292929,4.253164556962025,electrolyte,0.0123982437688795,0.0130108307540025,0.0116779478566987,4.782505002003863e-06,high
1500,3.0303030303030303,4.253164556962025,electrolyte,0.0123595331748669,0.0129291209556942,0.0116975024694921,-3.02869470588458e-05,high
1500,3.131313131313131,4.253164556962025,electrolyte,0.0122269722851234,0.0128288923499255,0.0115196061980453,-1.6665387416557338e-05,high
1500,3.2323232323232323,4.253164556962025,electrolyte,0.0122612203222786,0.0127696550925157,0.0116798960657608,2.383819672063868e-05,high
1500,3.333333333333333,4.253164556962025,electrolyte,0.012421522348582,0.0130446720018284,0.0116841846342833,9.47547994277328e-05,high
1500,3.4343434343434343,4.253164556962025,electrolyte,0.0121898178825541,0.0127295671427619,0.0115664439256979,3.1516326990220993e-05,high
1500,3.5353535353535355,4.253164556962025,electrolyte,0.0121200131396301,0.0128041523166558,0.011294327228491,1.693674707542626e-05,high
1500,3.636363636363636,4.253164556962025,electrolyte,0.0121716994825043,0.0127266981023293,0.0115246220016516,0.0001078523405601,high
1500,3.7373737373737375,4.253164556962025,electrolyte,0.0121172125950502,0.01270148813571,0.011431969381167,6.361274195197832e-05,high
1500,3.8383838383838382,4.253164556962025,electrolyte,0.0121831767748675,0.0128724643929629,0.0113509290572381,-9.940380030965537e-06,high
1500,3.939393939393939,4.253164556962025,electrolyte,0.0121523849675639,0.0127646321797608,0.0114287453280075,-6.360380232576219e-05,high
1500,4.040404040404041,4.253164556962025,electrolyte,0.0119311753372601,0.0125280620035743,0.0112277658487064,3.0618007673708755e-06,high
1500,4.141414141414141,4.253164556962025,electrolyte,0.0119688160384196,0.0125897161919892,0.0112317845989902,3.4634854428814404e-05,high
1500,4.242424242424242,4.253164556962025,electrolyte,0.0120297722121132,0.0125804436317953,0.0113897066357244,5.774243991277384e-05,high
1500,4.343434343434343,4.253164556962025,electrolyte,0.0120989887938205,0.0127520049469557,0.0113181978094042,-2.0387213789895317e-06,high
1500,4.444444444444445,4.253164556962025,electrolyte,0.0120127314400748,0.0126716832879259,0.0112213219683718,5.51683455419964e-05,high
1500,4.545454545454545,4.253164556962025,electrolyte,0.0119205826640121,0.0124912234001655,0.011251102787899,-8.63201303408814e-05,high
1500,4.646464646464646,4.253164556962025,electrolyte,0.0119155805413528,0.0123506113805815,0.0114258128017406,5.783195329869783e-05,high
1500,4.747474747474747,4.253164556962025,electrolyte,0.0119905148887467,0.0126147283856634,0.0112494137791322,4.618829511849677e-06,high
1500,4.848484848484849,4.253164556962025,electrolyte,0.0119491855039114,0.0125701982362159,0.0112113920075651,4.91928207732068e-05,high
1500,4.94949494949495,4.253164556962025,electrolyte,0.0120182330910718,0.0125773323843987,0.0113671366294809,4.121981019881893e-05,high
1500,5.05050505050505,4.253164556962025,electrolyte,0.0121088971197068,0.012767703967906,0.0113198949442135,-7.547428791932791e-06,high
1500,5.151515151515151,4.253164556962025,electrolyte,0.0119627562641886,0.0124669270624167,0.011385096939972,-1.6200185521482423e-06,high
1500,5.252525252525253,4.253164556962025,electrolyte,0.0120251139650135,0.0125866809632134,0.0113711689320225,1.4385726969262456e-05,high
1500,5.353535353535354,4.253164556962025,electrolyte,0.0120194842662753,0.0124907995190922,0.0114848250416897,-2.137186982616913e-05,high
1500,5.454545454545454,4.253164556962025,electrolyte,0.0120189506031755,0.0126083535547974,0.0113268335185097,-7.264995191639309e-06,high
1500,5.555555555555555,4.253164556962025,electrolyte,0.0120427527213915,0.0126062323408229,0.0113826874939787,0.0001125876018449,high
1500,5.656565656565657,4.253164556962025,electrolyte,0.0119948213480452,0.012651901219389,0.0112067838948957,9.169963833174656e-06,high
1500,5.757575757575758,4.253164556962025,electrolyte,0.0119693899813008,0.0125389612587076,0.011303966756426,-1.9007676107438965e-05,high
1500,5.858585858585858,4.253164556962025,electrolyte,0.0119542404966538,0.0126205438085082,0.0111518319491671,-3.901993713988695e-05,high
1500,5.959595959595959,4.253164556962025,electrolyte,0.0120833701257369,0.0126511528335999,0.0114194078476843,8.556466357622507e-05,high
1500,6.0606060606060606,4.253164556962025,electrolyte,0.0120165644051449,0.0125834164775116,0.0113553491897296,-1.3937213178284946e-05,high
1500,6.161616161616162,4.253164556962025,electrolyte,0.0121402238144793,0.0126756506471823,0.0115225088379185,7.359466734127201e-07,high
1500,6.262626262626262,4.253164556962025,electrolyte,0.0121345191419622,0.0127354455889336,0.0114272772480402,-3.55095126070609e-05,high
1500,6.363636363636363,4.253164556962025,electrolyte,0.0121285517929211,0.0127736406280035,0.0113545565240093,-0.0001277293640377,high
1500,6.4646464646464645,4.253164556962025,electrolyte,0.0122263562273098,0.0128953597294105,0.0114236031493269,4.563313656915674e-05,high
1500,6.565656565656566,4.253164556962025,electrolyte,0.0122324362470892,0.012795327454757,0.0115782981480405,3.276193273936764e-05,high
1500,6.666666666666667,4.253164556962025,electrolyte,0.0123804296893041,0.0129868917604134,0.0116683983460419,1.137351641882114e-05,high
1500,6.767676767676767,4.253164556962025,electrolyte,0.0122487854083698,0.0128853781616432,0.0114922635455091,5.719536535893375e-05,high
1500,6.8686868686868685,4.253164556962025,electrolyte,0.0122273459426721,0.0127698893272147,0.0116007858231304,-1.2037835105135878e-05,high
1500,6.96969696969697,4.253164556962025,electrolyte,0.0122146814704262,0.0126611772837385,0.011710443095729,9.40776657255351e-05,high
1500,7.070707070707071,4.253164556962025,electrolyte,0.0124094969236468,0.0130298046976684,0.011678361533566,-2.8549962466927128e-05,high
1500,7.171717171717171,4.253164556962025,electrolyte,0.0123900842171332,0.0130112025805785,0.0116575478570233,-3.2088609251358146e-05,high
1500,7.272727272727272,4.253164556962025,electrolyte,0.0123034841372796,0.0128410603587076,0.0116841799488059,5.467139989999814e-06,high
1500,7.373737373737374,4.253164556962025,electrolyte,0.012377094435748,0.0129279877365425,0.011740255221703,-3.597505877487177e-05,high
1500,7.474747474747475,4.253164556962025,electrolyte,0.0125321132550413,0.0130997527710343,0.011874225380735,-2.9031119154343294e-05,high
1500,7.575757575757575,4.253164556962025,electrolyte,0.0125959407586936,0.0131338305079858,0.0119778077128648,4.774423409723536e-05,high
1500,7.6767676767676765,4.253164556962025,electrolyte,0.0125539033297092,0.0131359812286909,0.0118769292717566,7.2344808321287455e-06,high
1500,7.777777777777778,4.253164556962025,electrolyte,0.012579210464047,0.013181310120628,0.0118749123789671,-3.140125752018607e-05,high
1500,7.878787878787879,4.253164556962025,electrolyte,0.0126762253798379,0.0132238355752866,0.0120440512102859,9.353407114412584e-05,high
1500,7.979797979797979,4.253164556962025,electrolyte,0.0127251757688673,0.0133485274312582,0.0119928814102165,4.088899647433133e-05,high
1500,8.080808080808081,4.253164556962025,electrolyte,0.0128542559460177,0.0134395555264527,0.0121755539506743,-7.361085796222469e-06,high
1500,8.181818181818182,4.253164556962025,electrolyte,0.0128963008743329,0.0134998375615131,0.0121928874014472,3.854951390817024e-05,high
1500,8.282828282828282,4.253164556962025,electrolyte,0.0129695499866081,0.0136550232289004,0.012152549169294,-5.309538044595518e-05,high
1500,8.383838383838384,4.253164556962025,electrolyte,0.0132100121706704,0.0138523303589976,0.0124559517677592,5.941255886098549e-05,high
1500,8.484848484848484,4.253164556962025,electrolyte,0.0131941561452329,0.0138750126491355,0.0123870962724135,1.5745632979815507e-05,high
1500,8.585858585858587,4.253164556962025,electrolyte,0.0132618936125158,0.0137986950399786,0.0126498712574887,-4.586330921480139e-05,high
1500,8.686868686868687,4.253164556962025,electrolyte,0.0131316852407452,0.0136876121686085,0.0124936348147642,-5.015781692103675e-05,high
1500,8.787878787878787,4.253164556962025,electrolyte,0.0133297489575337,0.0140132247374148,0.0125195192746191,6.380716169410733e-05,high
1500,8.88888888888889,4.253164556962025,electrolyte,0.0135253934226659,0.0141079150168535,0.0128556898081491,2.0165714977327947e-05,high
1500,8.98989898989899,4.253164556962025,electrolyte,0.0134540266226491,0.0142280838719088,0.0125160696515198,7.092805261305631e-06,high
1500,9.09090909090909,4.253164556962025,electrolyte,0.0136439751803421,0.0143060381286334,0.0128677125204164,-3.3127134739338505e-05,high
1500,9.191919191919192,4.253164556962025,electrolyte,0.0136715770843873,0.0142983618230078,0.0129439135047605,-1.5610154381242563e-05,high
1500,9.292929292929292,4.253164556962025,electrolyte,0.0138639322437904,0.0145733527587258,0.0130235151597671,-5.870858927482388e-05,high
1500,9.393939393939394,4.253164556962025,electrolyte,0.0140092316448678,0.0145965361610911,0.0133364154945815,4.1617942472873065e-05,high
1500,9.494949494949497,4.253164556962025,electrolyte,0.0142503968013887,0.015002576693015,0.0133546746543365,3.510534622927349e-05,high
1500,9.595959595959595,4.253164556962025,electrolyte,0.0142292575420441,0.0148817014778012,0.0134699808559724,8.67584259978111e-05,high
1500,9.696969696969695,4.253164556962025,electrolyte,0.0143226111609524,0.0150177667698193,0.013507604328608,-2.9145857087387306e-05,high
1500,9.797979797979798,4.253164556962025,electrolyte,0.0145947338106228,0.015423367611243,0.0135922904754587,6.956733895025878e-05,high
1500,9.8989898989899,4.253164556962025,electrolyte,0.0147953419941703,0.0154745078943455,0.0140067526099764,-8.856493698866439e-06,high
1500,10.0,4.253164556962025,electrolyte,0.0148953905493713,0.0156189875464305,0.014047100188812,1.0752375591892424e-05,high
1500,0.0,4.354430379746836,electrolyte,0.0148943645696239,0.0156257793416549,0.0140344128700408,6.058049452565745e-05,high
1500,0.101010101010101,4.354430379746836,electrolyte,0.0149288831224288,0.0156395832743197,0.0140982936914778,-3.889940564635561e-05,high
1500,0.202020202020202,4.354430379746836,electrolyte,0.0145106529374679,0.0152167423701204,0.0136814060154755,-7.155499340841736e-05,high
1500,0.303030303030303,4.354430379746836,electrolyte,0.0143487683252427,0.0149727775539803,0.0136295350977012,-6.0152509202196775e-05,high
1500,0.404040404040404,4.354430379746836,electrolyte,0.0142643413077131,0.015042558244291,0.0133313184476482,-4.456111674517205e-05,high
1500,0.5050505050505051,4.354430379746836,electrolyte,0.0140573986835607,0.0146857072798102,0.0133300540499978,6.16178187353302e-05,high
1500,0.6060606060606061,4.354430379746836,electrolyte,0.0140219030295625,0.0146859693928354,0.0132459562733756,-5.893040134046501e-05,high
1500,0.7070707070707071,4.354430379746836,electrolyte,0.0138554639747881,0.0144244578798591,0.0132059333780853,-1.4722078789160105e-05,high
1500,0.8080808080808081,4.354430379746836,electrolyte,0.0137792279150477,0.0144420645297358,0.0130034141753896,2.0497682083405718e-05,high
1500,0.9090909090909092,4.354430379746836,electrolyte,0.0138540259062801,0.0145499080684569,0.0130333402136812,-7.160534340718199e-06,high
1500,1.0101010101010102,4.354430379746836,electrolyte,0.0136657105870884,0.0142839292549616,0.012947970147308,7.951841135912303e-05,high
1500,1.1111111111111112,4.354430379746836,electrolyte,0.013454543180939,0.0140875935602408,0.0127106515274309,0.0001486273211028,high
1500,1.2121212121212122,4.354430379746836,electrolyte,0.0133365296536078,0.013990128275031,0.0125631155985723,0.0001495094921349,high
1500,1.3131313131313131,4.354430379746836,electrolyte,0.0133860114221695,0.0141954336372317,0.0123941176983584,1.5137191805684934e-05,high
1500,1.414141414141414,4.354430379746836,electrolyte,0.0131665068236415,0.0137499413819413,0.012492540197954,3.7187659662641394e-05,high
1500,1.5151515151515151,4.354430379746836,electrolyte,0.0130322488995312,0.0136633597382551,0.012292696499885,-2.048768080781712e-05,high
1500,1.616161616161616,4.354430379746836,electrolyte,0.0130715459441673,0.0137628049545605,0.0122471351091092,6.614764103861674e-05,high
1500,1.7171717171717171,4.354430379746836,electrolyte,0.0129512386736527,0.0135828528103466,0.0122102152297832,-1.7253072617560937e-05,high
1500,1.818181818181818,4.354430379746836,electrolyte,0.0129053595930563,0.0134739065412226,0.0122490489963974,4.2773919856908144e-05,high
1500,1.9191919191919191,4.354430379746836,electrolyte,0.0129222546994068,0.0134949676385375,0.0122609038293752,-2.043391476065816e-05,high
1500,2.0202020202020203,4.354430379746836,electrolyte,0.0127359097788885,0.0133914978674763,0.0119591194581315,1.9725347218869032e-05,high
1500,2.121212121212121,4.354430379746836,electrolyte,0.0127098865691292,0.01331737675545,0.0119995476194723,-2.611784206463609e-05,high
1500,2.2222222222222223,4.354430379746836,electrolyte,0.0127228115862902,0.0132975044051237,0.0120567977107348,4.187635990878653e-05,high
1500,2.323232323232323,4.354430379746836,electrolyte,0.0125937945367001,0.0131166083128046,0.0119941284788245,-8.448775992173584e-05,high
1500,2.4242424242424243,4.354430379746836,electrolyte,0.0125662960989384,0.0131845064320381,0.0118396791185243,-3.1153659876850554e-05,high
1500,2.525252525252525,4.354430379746836,electrolyte,0.0124693481254402,0.013076407116975,0.0117572521854205,-2.4878280161892557e-05,high
1500,2.6262626262626263,4.354430379746836,electrolyte,0.0124308846242678,0.0129551353010876,0.0118263604589033,-0.0001164188315014,high
1500,2.727272727272727,4.354430379746836,electrolyte,0.0125530333926782,0.0131793735348541,0.0118152697899684,2.187373714873926e-06,high
1500,2.8282828282828283,4.354430379746836,electrolyte,0.0123952154180908,0.0129517882661463,0.0117490465665537,-8.872092169835702e-05,high
1500,2.929292929292929,4.354430379746836,electrolyte,0.0123655035866272,0.012937265958199,0.0117008125948132,-1.0607621800810094e-05,high
1500,3.0303030303030303,4.354430379746836,electrolyte,0.0121721148534598,0.0128013361712717,0.0114228780181489,0.0001034916617442,high
1500,3.131313131313131,4.354430379746836,electrolyte,0.0123576494311802,0.0129176534801531,0.0117086795246132,-2.013810365763701e-05,high
1500,3.2323232323232323,4.354430379746836,electrolyte,0.012236673624067,0.0128354502841664,0.0115338012396172,1.093538897498149e-05,high
1500,3.333333333333333,4.354430379746836,electrolyte,0.0122105727082492,0.0128532983668335,0.0114458382105905,1.1078399485091687e-05,high
1500,3.4343434343434343,4.354430379746836,electrolyte,0.0122183834141232,0.0127586155229796,0.0115935144592143,6.889417129374462e-05,high
1500,3.5353535353535355,4.354430379746836,electrolyte,0.0121045495929337,0.0125680494846647,0.0115793506936901,6.517420228798428e-05,high
1500,3.636363636363636,4.354430379746836,electrolyte,0.0120559752224374,0.0126591735001445,0.0113448799582389,2.809104289096902e-05,high
1500,3.7373737373737375,4.354430379746836,electrolyte,0.0121166743164089,0.0127850443979473,0.0113133703812213,-4.483103121149935e-05,high
1500,3.8383838383838382,4.354430379746836,electrolyte,0.0119792839579785,0.0125813591832692,0.0112691501038181,-6.489257222627132e-06,high
1500,3.939393939393939,4.354430379746836,electrolyte,0.0121296689549048,0.0127065575452755,0.0114557408960588,2.0782573528196667e-05,high
1500,4.040404040404041,4.354430379746836,electrolyte,0.0121331793691215,0.0127414870685889,0.0114135775991908,-9.082337792439506e-05,high
1500,4.141414141414141,4.354430379746836,electrolyte,0.0121934616969414,0.0127804016332073,0.0115032097216824,-0.0001059066598411,high
1500,4.242424242424242,4.354430379746836,electrolyte,0.0119903297420341,0.0126213391684143,0.0112394696532892,-2.0699425224317627e-05,high
1500,4.343434343434343,4.354430379746836,electrolyte,0.0120601985161852,0.0126576170368292,0.0113573365070475,-1.6760360576255915e-05,high
1500,4.444444444444445,4.354430379746836,electrolyte,0.0120664148914568,0.0126664020899493,0.0113600854719993,1.2843440647066938e-05,high
1500,4.545454545454545,4.354430379746836,electrolyte,0.012041213497975,0.0127112443195044,0.0112343490128792,4.8468834637337634e-05,high
1500,4.646464646464646,4.354430379746836,electrolyte,0.0120096952135487,0.0126090381487146,0.0113035983154487,-1.91797359878378e-05,high
1500,4.747474747474747,4.354430379746836,electrolyte,0.0120960423695758,0.0127748788329212,0.0112778127405484,-1.069050604396189e-05,high
1500,4.848484848484849,4.354430379746836,electrolyte,0.0120140264401085,0.0125877785268715,0.0113433751576514,-1.150835300821134e-05,high
1500,4.94949494949495,4.354430379746836,electrolyte,0.0119808250523948,0.0126299351924342,0.0112034180353359,-4.751847554866191e-05,high
1500,5.05050505050505,4.354430379746836,electrolyte,0.0120517831455073,0.0126470858914268,0.0113512345486526,-4.548982751295067e-05,high
1500,5.151515151515151,4.354430379746836,electrolyte,0.0120511222789545,0.0126535195637715,0.0113413034882091,-8.786099375876187e-06,high
1500,5.252525252525253,4.354430379746836,electrolyte,0.0120797472666387,0.0126792357308699,0.0113742276051047,1.5649876059867955e-05,high
1500,5.353535353535354,4.354430379746836,electrolyte,0.0120885362268748,0.0126731093419449,0.011403733125448,-1.4552483119263405e-05,high
1500,5.454545454545454,4.354430379746836,electrolyte,0.0120504616492683,0.0127154400194127,0.0112496189078776,8.39443567587742e-05,high
1500,5.555555555555555,4.354430379746836,electrolyte,0.0121675258682147,0.0128014465239171,0.0114139153770708,5.420867740476869e-05,high
1500,5.656565656565657,4.354430379746836,electrolyte,0.0120395809974375,0.012622652344358,0.0113559349191787,4.049291566336454e-05,high
1500,5.757575757575758,4.354430379746836,electrolyte,0.012000673759361,0.0125953577590368,0.0113004640838279,4.484443318167028e-05,high
1500,5.858585858585858,4.354430379746836,electrolyte,0.0120906937383564,0.0125562061246107,0.011563848677223,2.603962573007146e-05,high
1500,5.959595959595959,4.354430379746836,electrolyte,0.0120516314611227,0.012595278687973,0.011422186396569,4.260665458859092e-06,high
1500,6.0606060606060606,4.354430379746836,electrolyte,0.0121701785322634,0.0126465269668751,0.0116296581942112,-3.845966594940331e-05,high
1500,6.161616161616162,4.354430379746836,electrolyte,0.012110659610426,0.0126753955763844,0.0114532377604934,-5.392217347438689e-06,high
1500,6.262626262626262,4.354430379746836,electrolyte,0.0120597569340165,0.012695207148901,0.011303294278382,-2.974076550178286e-05,high
1500,6.363636363636363,4.354430379746836,electrolyte,0.0121632767557019,0.0127596605591091,0.0114629862758563,6.412625464903327e-06,high
1500,6.4646464646464645,4.354430379746836,electrolyte,0.0121493747333617,0.0126127113920182,0.0116258131334244,1.020603443192128e-05,high
1500,6.565656565656566,4.354430379746836,electrolyte,0.0122396147787731,0.0128035372428322,0.0115843605693373,-1.81308913099944e-05,high
1500,6.666666666666667,4.354430379746836,electrolyte,0.012184855752366,0.0129079165967335,0.0113023250440131,-3.324883209560875e-05,high
1500,6.767676767676767,4.354430379746836,electrolyte,0.012207243552313,0.0126714625360106,0.0116819509104921,-5.847671512484875e-05,high
1500,6.8686868686868685,4.354430379746836,electrolyte,0.0123241307853316,0.0129674374183164,0.0115565775354683,-0.0001072039237806,high
1500,6.96969696969697,4.354430379746836,electrolyte,0.0123165472877573,0.0129922294538496,0.0115058523570722,-2.1184369535944924e-05,high
1500,7.070707070707071,4.354430379746836,electrolyte,0.0123031375132071,0.0128795872163671,0.0116306273674645,-5.6605077478229776e-05,high
1500,7.171717171717171,4.354430379746836,electrolyte,0.0123681620022695,0.0129908108162036,0.011630555487219,0.0001013093160104,high
1500,7.272727272727272,4.354430379746836,electrolyte,0.0124648560444761,0.0130468127315125,0.011786958022963,-3.249781049135022e-05,high
1500,7.373737373737374,4.354430379746836,electrolyte,0.012334284614069,0.0130081697360703,0.0115260473740166,-4.126991464857518e-05,high
1500,7.474747474747475,4.354430379746836,electrolyte,0.0125282459031718,0.0131937633270781,0.0117348861260464,-2.091654354899092e-05,high
1500,7.575757575757575,4.354430379746836,electrolyte,0.0126359488309632,0.0132516397783432,0.0119099377664911,-0.0001166669134577,high
1500,7.6767676767676765,4.354430379746836,electrolyte,0.0125859541147998,0.0132146260422367,0.0118446619256432,4.7121668758483336e-05,high
1500,7.777777777777778,4.354430379746836,electrolyte,0.0127202144613624,0.0133710161635418,0.0119496084027447,-4.1023649700392014e-05,high
1500,7.878787878787879,4.354430379746836,electrolyte,0.0128653747888878,0.0135211977223284,0.0120886657825999,6.449923650524984e-05,high
1500,7.979797979797979,4.354430379746836,electrolyte,0.0128415281160538,0.013488349331991,0.0120781512727316,-2.4914104619285825e-05,high
1500,8.080808080808081,4.354430379746836,electrolyte,0.0128122600369206,0.013345510933404,0.0122015171618901,5.71688035287842e-05,high
1500,8.181818181818182,4.354430379746836,electrolyte,0.0131268743943349,0.013886047115594,0.0122055247351548,-3.7346800749916974e-05,high
1500,8.282828282828282,4.354430379746836,electrolyte,0.0129787315809504,0.013633025899726,0.0122060052455302,-4.582524177946548e-05,high
1500,8.383838383838384,4.354430379746836,electrolyte,0.0130606068628747,0.0137082876871002,0.0122983543247468,-2.6835168282901817e-05,high
1500,8.484848484848484,4.354430379746836,electrolyte,0.013094249716364,0.0136742787275482,0.0124246038081516,8.0141189662245e-06,high
1500,8.585858585858587,4.354430379746836,electrolyte,0.0130102608898259,0.0136641911132697,0.0122388279154312,2.269020867036749e-05,high
1500,8.686868686868687,4.354430379746836,electrolyte,0.0132774150071,0.0139864943718823,0.0124308845143047,4.215426008257779e-05,high
1500,8.787878787878787,4.354430379746836,electrolyte,0.0132899002074851,0.0139558466756899,0.0125048754012471,1.4244583798711397e-06,high
1500,8.88888888888889,4.354430379746836,electrolyte,0.0134398584452179,0.0141477785009351,0.0125968010387086,5.0043391713026255e-05,high
1500,8.98989898989899,4.354430379746836,electrolyte,0.0136861183315628,0.0143379004700468,0.0129239432313262,5.275156023155897e-05,high
1500,9.09090909090909,4.354430379746836,electrolyte,0.0136114549919828,0.0142392759859805,0.0128818671595199,1.512809172230038e-05,high
1500,9.191919191919192,4.354430379746836,electrolyte,0.0138319673717772,0.0145493591738884,0.0129800023575399,-5.693323319041333e-05,high
1500,9.292929292929292,4.354430379746836,electrolyte,0.0138472771932354,0.0145251378696017,0.0130507755348101,-5.485563995330032e-05,high
1500,9.393939393939394,4.354430379746836,electrolyte,0.0138866534570531,0.0145041368805109,0.0131733503666514,4.986581105337844e-06,high
1500,9.494949494949497,4.354430379746836,electrolyte,0.014088587898362,0.0147327825021009,0.0133404907672811,4.927389229774708e-05,high
1500,9.595959595959595,4.354430379746836,electrolyte,0.0142142409048998,0.0149333125904953,0.0133643817544343,-5.3573054494093655e-05,high
1500,9.696969696969695,4.354430379746836,electrolyte,0.0143437212200353,0.0149366012733204,0.0136648990952058,-7.737954730779065e-05,high
1500,9.797979797979798,4.354430379746836,electrolyte,0.0146493828775584,0.015412540015654,0.0137431618323665,1.3705126870326978e-05,high
1500,9.8989898989899,4.354430379746836,electrolyte,0.0147519620323421,0.0154222072220916,0.0139746009908858,-4.331156716208967e-05,high
1500,10.0,4.354430379746836,electrolyte,0.0148803787432301,0.0156282790703535,0.0139977923138727,-4.389316143881292e-05,high
1500,0.0,4.455696202531645,electrolyte,0.0149830097439924,0.0157108186123524,0.0141296654666802,-2.5327970505109423e-05,high
1500,0.101010101010101,4.455696202531645,electrolyte,0.0148180773716453,0.0155235965331062,0.0139937201309038,2.601202731167329e-05,high
1500,0.202020202020202,4.455696202531645,electrolyte,0.0144803653553287,0.01519780714506,0.0136362119284359,2.504745950728056e-05,high
1500,0.303030303030303,4.455696202531645,electrolyte,0.0144212951322914,0.0151132913352975,0.0136113168432204,4.48293399822067e-05,high
1500,0.404040404040404,4.455696202531645,electrolyte,0.0143558152249088,0.0151033400470363,0.0134665057179436,8.364418163798535e-05,high
1500,0.5050505050505051,4.455696202531645,electrolyte,0.0141759081894394,0.0148292760952489,0.0134147358269242,-9.060445613932072e-05,high
1500,0.6060606060606061,4.455696202531645,electrolyte,0.0140588653502554,0.0146102206332825,0.0134315178250742,9.113316691085348e-05,high
1500,0.7070707070707071,4.455696202531645,electrolyte,0.0139433436673247,0.0146008362084257,0.0131761076305733,3.996551006331472e-05,high
1500,0.8080808080808081,4.455696202531645,electrolyte,0.0139474742163786,0.0145541493288986,0.0132490425703973,7.944200435714572e-06,high
1500,0.9090909090909092,4.455696202531645,electrolyte,0.0136148727231959,0.0143099037731701,0.012792735847336,6.874655877215376e-06,high
1500,1.0101010101010102,4.455696202531645,electrolyte,0.0136008591455469,0.0142828978826908,0.0127967521828611,-3.454368232055321e-06,high
1500,1.1111111111111112,4.455696202531645,electrolyte,0.0136235623851831,0.0141577586748148,0.013017230654431,-4.411227289112775e-05,high
1500,1.2121212121212122,4.455696202531645,electrolyte,0.0134385278072378,0.0140407333375121,0.012741647093523,3.801506605116812e-05,high
1500,1.3131313131313131,4.455696202531645,electrolyte,0.0132768492476341,0.0138443912148631,0.0126252034234342,4.15180205532956e-06,high
1500,1.414141414141414,4.455696202531645,electrolyte,0.0131904399761726,0.0138171430596258,0.012457542036942,6.205193631019988e-05,high
1500,1.5151515151515151,4.455696202531645,electrolyte,0.0130401207748917,0.0136679301238651,0.0123025580300589,0.0001000089488974,high
1500,1.616161616161616,4.455696202531645,electrolyte,0.0129852612547318,0.0136317063215888,0.0122241011464007,-1.0010848955375294e-05,high
1500,1.7171717171717171,4.455696202531645,electrolyte,0.0129131039015366,0.0136285759853793,0.0120520802021453,-5.837408244396013e-05,high
1500,1.818181818181818,4.455696202531645,electrolyte,0.0130143251343276,0.013665997472586,0.0122461969930773,1.0458556198356823e-05,high
1500,1.9191919191919191,4.455696202531645,electrolyte,0.0127958971494637,0.0134002298478876,0.012090881462104,-5.335905937197392e-08,high
1500,2.0202020202020203,4.455696202531645,electrolyte,0.0126604698245233,0.0132571772080225,0.0119645087501894,1.724072303239424e-05,high
1500,2.121212121212121,4.455696202531645,electrolyte,0.0126672023576815,0.0132906251553647,0.0119334465125382,-6.612435801082859e-05,high
1500,2.2222222222222223,4.455696202531645,electrolyte,0.0125726632704458,0.0132032669305806,0.0118261746092625,-0.0001022061916508,high
1500,2.323232323232323,4.455696202531645,electrolyte,0.0126627375423512,0.013156681630328,0.0121028825173843,1.48032152116378e-05,high
1500,2.4242424242424243,4.455696202531645,electrolyte,0.0124868975745016,0.0130952295820909,0.0117728909601816,-4.211744136068431e-05,high
1500,2.525252525252525,4.455696202531645,electrolyte,0.0124712532978727,0.013138395114909,0.01167489413172,1.781071433661797e-05,high
1500,2.6262626262626263,4.455696202531645,electrolyte,0.0124493734829252,0.0129835155619119,0.0118349288544934,-5.374550049066528e-05,high
1500,2.727272727272727,4.455696202531645,electrolyte,0.0124269946074059,0.0129169648311444,0.0118708366759407,1.4502827319888049e-05,high
1500,2.8282828282828283,4.455696202531645,electrolyte,0.0124463167702138,0.0131625389651931,0.0115783587485325,-1.3856467850991742e-05,high
1500,2.929292929292929,4.455696202531645,electrolyte,0.0123702554704556,0.0129475817182735,0.0116978501316692,-2.8987686334689052e-05,high
1500,3.0303030303030303,4.455696202531645,electrolyte,0.012369243653797,0.0129206478180296,0.0117318191277325,2.6905376601580217e-05,high
1500,3.131313131313131,4.455696202531645,electrolyte,0.012296465065079,0.0129075588754323,0.0115768043735053,-3.5877160463692696e-05,high
1500,3.2323232323232323,4.455696202531645,electrolyte,0.0122648730576751,0.0128289232326002,0.0116082416743846,7.25863811072349e-05,high
1500,3.333333333333333,4.455696202531645,electrolyte,0.0122272501491269,0.0127428704513736,0.0116332434089931,-0.0001056098891308,high
1500,3.4343434343434343,4.455696202531645,electrolyte,0.0121538612883755,0.0127574829773146,0.0114434331302009,8.443060197111844e-06,high
1500,3.5353535353535355,4.455696202531645,electrolyte,0.0120090184537997,0.012591622627729,0.0113248442711634,6.740781050156952e-05,high
1500,3.636363636363636,4.455696202531645,electrolyte,0.0119987872876469,0.0126097881674013,0.0112754062866396,-5.7261373196858446e-05,high
1500,3.7373737373737375,4.455696202531645,electrolyte,0.012185926622875,0.012775270128203,0.0114955787939318,4.945522033941843e-06,high
1500,3.8383838383838382,4.455696202531645,electrolyte,0.0121454580185372,0.0126744107027494,0.01153620735351,-2.59079483662577e-05,high
1500,3.939393939393939,4.455696202531645,electrolyte,0.0121917356926386,0.0127611936189358,0.0115283619298461,-3.101897053834145e-05,high
1500,4.040404040404041,4.455696202531645,electrolyte,0.0121865956060397,0.0128004107175328,0.0114610287436275,-6.656633093189177e-05,high
1500,4.141414141414141,4.455696202531645,electrolyte,0.0120376170783871,0.0127389177477949,0.0111833917523216,-8.21708161717925e-05,high
1500,4.242424242424242,4.455696202531645,electrolyte,0.0120692869918154,0.0125888595929925,0.0114715965652669,-4.120416678663665e-05,high
1500,4.343434343434343,4.455696202531645,electrolyte,0.0120360769747904,0.0125196205821452,0.0114854622335118,-3.667914441841539e-05,high
1500,4.444444444444445,4.455696202531645,electrolyte,0.0121701203775851,0.0127118754287771,0.011544020070365,-2.4486628719163844e-05,high
1500,4.545454545454545,4.455696202531645,electrolyte,0.0119566162218266,0.0124551583502171,0.0113860799554198,-2.7773061517003897e-05,high
1500,4.646464646464646,4.455696202531645,electrolyte,0.0120741542076889,0.0126907351639573,0.0113446662303438,1.952437988336572e-05,high
1500,4.747474747474747,4.455696202531645,electrolyte,0.0119779112296561,0.0124412618566593,0.0114532764068259,-1.854078765657301e-05,high
1500,4.848484848484849,4.455696202531645,electrolyte,0.0120058748461094,0.012625087729946,0.0112698279468555,-8.511797760171847e-05,high
1500,4.94949494949495,4.455696202531645,electrolyte,0.0120150939130341,0.0126191848879511,0.0113019236249498,4.5609543164357706e-05,high
1500,5.05050505050505,4.455696202531645,electrolyte,0.0119700820410797,0.0125985424869977,0.0112226526987867,1.5540467503040058e-05,high
1500,5.151515151515151,4.455696202531645,electrolyte,0.0119917029480435,0.0126676117817357,0.0111747430610347,-7.06534241621988e-05,high
1500,5.252525252525253,4.455696202531645,electrolyte,0.0119609193269372,0.0125069551017636,0.0113271712970897,3.305791404612296e-05,high
1500,5.353535353535354,4.455696202531645,electrolyte,0.0119182449758086,0.0125384410771761,0.0111813826363372,-4.41525554593934e-05,high
1500,5.454545454545454,4.455696202531645,electrolyte,0.0120496422793507,0.0126437324971227,0.0113505009420066,-5.395549430157185e-05,high
1500,5.555555555555555,4.455696202531645,electrolyte,0.0120050788921796,0.0125335305931203,0.011395208355695,-3.628199808830251e-05,high
1500,5.656565656565657,4.455696202531645,electrolyte,0.0120205222012907,0.0124952158673859,0.0114814879495239,2.3375857770187103e-05,high
1500,5.757575757575758,4.455696202531645,electrolyte,0.0120655342903609,0.0126489345235344,0.011381378214463,5.199645143559879e-05,high
1500,5.858585858585858,4.455696202531645,electrolyte,0.0120035656538816,0.0125127618138521,0.0114195701204559,-7.289140064006126e-06,high
1500,5.959595959595959,4.455696202531645,electrolyte,0.0120694122075222,0.0126777593201753,0.0113514973705417,-7.930714753125662e-06,high
1500,6.0606060606060606,4.455696202531645,electrolyte,0.0120638853720085,0.0125613121451066,0.011493290923942,9.28189455276391e-05,high
1500,6.161616161616162,4.455696202531645,electrolyte,0.0120139088116792,0.0126977828303586,0.0111871491149618,5.035294880271503e-07,high
1500,6.262626262626262,4.455696202531645,electrolyte,0.0121402499850369,0.0126666651569039,0.0115336686528484,-5.437451816968254e-05,high
1500,6.363636363636363,4.455696202531645,electrolyte,0.0122196703216072,0.0129420408149226,0.0113381765153724,-5.421822771332016e-05,high
1500,6.4646464646464645,4.455696202531645,electrolyte,0.0120874122664381,0.0126722007805231,0.0114011992056366,-6.272910782864681e-05,high
1500,6.565656565656566,4.455696202531645,electrolyte,0.0121437161286912,0.0127647423654134,0.011408354293032,4.222735063706763e-05,high
1500,6.666666666666667,4.455696202531645,electrolyte,0.0122115046410637,0.0128219372590083,0.0114915199276851,4.9287590779573805e-05,high
1500,6.767676767676767,4.455696202531645,electrolyte,0.0121594099883424,0.0126654846758803,0.011580631310193,3.4661836754294344e-06,high
1500,6.8686868686868685,4.455696202531645,electrolyte,0.0121854791197883,0.0127519114158466,0.0115262375170587,2.62367241748519e-05,high
1500,6.96969696969697,4.455696202531645,electrolyte,0.0123027110534457,0.0128460195657085,0.0116757441829395,-1.0272533165635693e-05,high
1500,7.070707070707071,4.455696202531645,electrolyte,0.012414284815617,0.0130767159255494,0.0116239973812849,1.1024820704229431e-05,high
1500,7.171717171717171,4.455696202531645,electrolyte,0.0124463901512384,0.0128999286357304,0.0119367580988932,-2.3113460114517678e-05,high
1500,7.272727272727272,4.455696202531645,electrolyte,0.0123995285279936,0.0131391024530687,0.0114959909107414,-2.228452541052377e-05,high
1500,7.373737373737374,4.455696202531645,electrolyte,0.0124407340790344,0.0130035396219918,0.0117887433701424,-1.5737265771406658e-05,high
1500,7.474747474747475,4.455696202531645,electrolyte,0.0124808712149211,0.0131107216527021,0.0117374128069093,-8.502220567453292e-06,high
1500,7.575757575757575,4.455696202531645,electrolyte,0.0125260314270692,0.0131386388169456,0.0118066439642231,-3.661665399116644e-05,high
1500,7.6767676767676765,4.455696202531645,electrolyte,0.0124750311601243,0.0130503933446826,0.0118064141664807,-1.377664045009552e-05,high
1500,7.777777777777778,4.455696202531645,electrolyte,0.0126281387395992,0.0133236095264978,0.011793142650207,1.0510399598495702e-05,high
1500,7.878787878787879,4.455696202531645,electrolyte,0.0127271044864228,0.0133381724536575,0.0120120200201948,-2.6544210912340983e-05,high
1500,7.979797979797979,4.455696202531645,electrolyte,0.0128788695579496,0.0135411052465151,0.0120943945830555,1.672727191534695e-05,high
1500,8.080808080808081,4.455696202531645,electrolyte,0.0127334954277829,0.0132786467502776,0.0121074100916932,5.441526042625933e-06,high
1500,8.181818181818182,4.455696202531645,electrolyte,0.0128994096072938,0.0136184457635327,0.0120336123186087,-3.639811460921702e-05,high
1500,8.282828282828282,4.455696202531645,electrolyte,0.0129918795592005,0.0135027143880687,0.0124119416965756,-3.761952525853832e-05,high
1500,8.383838383838384,4.455696202531645,electrolyte,0.0131032305016316,0.0137403834856407,0.0123561670583231,6.342114040751096e-06,high
1500,8.484848484848484,4.455696202531645,electrolyte,0.0129815766783565,0.0135639119704818,0.0123068748468029,6.277916844482425e-05,high
1500,8.585858585858587,4.455696202531645,electrolyte,0.013163155389513,0.013792526209436,0.0124270694776072,-3.4186964331047104e-05,high
1500,8.686868686868687,4.455696202531645,electrolyte,0.013278849959261,0.0138719207710904,0.0125922497181405,6.220347519069787e-05,high
1500,8.787878787878787,4.455696202531645,electrolyte,0.0134457448545912,0.0141090273381399,0.0126660153257969,1.4312349380966649e-05,high
1500,8.88888888888889,4.455696202531645,electrolyte,0.0134723389177546,0.014170275674416,0.0126443853273276,1.956818620425989e-05,high
1500,8.98989898989899,4.455696202531645,electrolyte,0.0135101910357548,0.0142189150522316,0.0126670983235995,3.971415281155489e-05,high
1500,9.09090909090909,4.455696202531645,electrolyte,0.0136209699884275,0.0142186459347017,0.0129304730890268,7.662794148568109e-05,high
1500,9.191919191919192,4.455696202531645,electrolyte,0.0137794308013408,0.0144999553594913,0.012921950888307,-7.048418231696426e-05,high
1500,9.292929292929292,4.455696202531645,electrolyte,0.0138434289923651,0.0145344047403796,0.0130288689875721,4.841896639676037e-05,high
1500,9.393939393939394,4.455696202531645,electrolyte,0.0140528914885827,0.0146424975493142,0.0133768325941082,6.221718473182893e-05,high
1500,9.494949494949497,4.455696202531645,electrolyte,0.0140765829816644,0.0147037274660255,0.0133518300222342,1.7242597673298248e-05,high
1500,9.595959595959595,4.455696202531645,electrolyte,0.0142713136283677,0.0150318942484979,0.0133641848412588,-6.448799896568642e-06,high
1500,9.696969696969695,4.455696202531645,electrolyte,0.0144162961414853,0.0150776445538525,0.0136472834253861,7.017327962484282e-05,high
1500,9.797979797979798,4.455696202531645,electrolyte,0.0146349590087315,0.0154741739194216,0.0136177380289076,6.435402920145693e-05,high
1500,9.8989898989899,4.455696202531645,electrolyte,0.0147437247057538,0.0155677787528727,0.0137513455182967,-5.28898958225086e-06,high
1500,10.0,4.455696202531645,electrolyte,0.0148991020506682,0.0156916446798225,0.0139537483556828,-4.35780286153182e-05,high
1500,0.0,4.556962025316456,electrolyte,0.0247657907588515,0.0259434086798073,0.0233903918466499,-8.371295110077877e-07,critical
1500,0.101010101010101,4.556962025316456,electrolyte,0.0244826073156932,0.025690872227222,0.0230618553215273,4.882859805700115e-05,critical
1500,0.202020202020202,4.556962025316456,electrolyte,0.0243327152145771,0.0254753496828375,0.0230007949102393,3.792567093050397e-05,critical
1500,0.303030303030303,4.556962025316456,electrolyte,0.0240274148487961,0.0251802689650676,0.0226788478682725,-4.749445811327403e-06,critical
1500,0.404040404040404,4.556962025316456,electrolyte,0.0239225774562116,0.0250189163599903,0.022649876462135,2.580271655903468e-05,critical
1500,0.5050505050505051,4.556962025316456,electrolyte,0.02351487287357,0.0247106777210703,0.02210108738433,4.632096414138148e-05,critical
1500,0.6060606060606061,4.556962025316456,electrolyte,0.0232763585544588,0.0242517103556029,0.0221593658864696,-5.303783469454167e-05,critical
1500,0.7070707070707071,4.556962025316456,electrolyte,0.0231073303502578,0.0242742988579947,0.0217289819404292,-6.898358054328379e-05,critical
1500,0.8080808080808081,4.556962025316456,electrolyte,0.0229531559772699,0.0239910531374902,0.021751006885059,2.0855313188308177e-07,critical
1500,0.9090909090909092,4.556962025316456,electrolyte,0.0227613538361889,0.0239262521600676,0.0213825521765378,-3.865940306482451e-05,critical
1500,1.0101010101010102,4.556962025316456,electrolyte,0.0225017607290065,0.0235529883235599,0.0212776393241643,-3.280317521169534e-06,critical
1500,1.1111111111111112,4.556962025316456,electrolyte,0.0224150904338573,0.0234068211787691,0.0212703353361564,-1.603928977542176e-05,critical
1500,1.2121212121212122,4.556962025316456,electrolyte,0.0223736595498902,0.0234901560683567,0.0210573939607195,8.334596944351282e-05,critical
1500,1.3131313131313131,4.556962025316456,electrolyte,0.0219792294906116,0.02297660730451,0.0208233183815991,1.4906202907167682e-05,critical
1500,1.414141414141414,4.556962025316456,electrolyte,0.0220173479691004,0.0231342590584938,0.0206963920261778,9.077667735557986e-05,critical
1500,1.5151515151515151,4.556962025316456,electrolyte,0.0218299631736705,0.0229453442200886,0.0205102339727889,-3.2412482738406094e-05,critical
1500,1.616161616161616,4.556962025316456,electrolyte,0.021781657523357,0.0227724356771244,0.0206329841846838,3.941381736425198e-06,critical
1500,1.7171717171717171,4.556962025316456,electrolyte,0.0215711240275469,0.0226754532877194,0.0202641530321254,-7.469806423563485e-06,critical
1500,1.818181818181818,4.556962025316456,electrolyte,0.0215427606000353,0.022589915939753,0.0203137387599891,-8.925750481511015e-05,critical
1500,1.9191919191919191,4.556962025316456,electrolyte,0.0212892582442478,0.0223202296522178,0.0200810486772257,-4.068995971711564e-05,critical
1500,2.0202020202020203,4.556962025316456,electrolyte,0.0212526718776589,0.0223081278549288,0.0200099238964972,5.882135221577585e-05,critical
1500,2.121212121212121,4.556962025316456,electrolyte,0.0210724642611471,0.0220929441683577,0.019875888818599,7.419264931723507e-05,critical
1500,2.2222222222222223,4.556962025316456,electrolyte,0.0210383756163215,0.0220355486908736,0.0198742446741509,-2.6628988854545485e-05,critical
1500,2.323232323232323,4.556962025316456,electrolyte,0.0210992677652679,0.0221845184214498,0.0198127625123049,7.589291549886755e-05,critical
1500,2.4242424242424243,4.556962025316456,electrolyte,0.0209790262956809,0.0220455042151201,0.019717454200946,-7.854456905282854e-05,critical
1500,2.525252525252525,4.556962025316456,electrolyte,0.0208747800764754,0.0218610462494915,0.0197241249594832,-9.436653597544894e-07,critical
1500,2.6262626262626263,4.556962025316456,electrolyte,0.0207532000633839,0.0217397205575238,0.019600835985718,-3.5537004011322065e-05,critical
1500,2.727272727272727,4.556962025316456,electrolyte,0.0205959043890242,0.0215011696089614,0.0195518445910306,-3.59761795720073e-05,critical
1500,2.8282828282828283,4.556962025316456,electrolyte,0.0205476332928034,0.0214671661241645,0.0194826288148221,-0.0001000271631976,critical
1500,2.929292929292929,4.556962025316456,electrolyte,0.0205365186256583,0.0215288457990304,0.019374290922187,1.1087761461214192e-05,critical
1500,3.0303030303030303,4.556962025316456,electrolyte,0.0205498094625536,0.0215041108580571,0.0194396034887027,1.90596554893148e-05,critical
1500,3.131313131313131,4.556962025316456,electrolyte,0.0204743571319567,0.021472537502321,0.0193030911341099,-4.638295113805846e-05,critical
1500,3.2323232323232323,4.556962025316456,electrolyte,0.0204639045085643,0.0214632624809595,0.0192910251557202,3.8454711281804426e-05,critical
1500,3.333333333333333,4.556962025316456,electrolyte,0.0203168389884527,0.0212449258205205,0.0192399729523813,2.7762787399838365e-05,critical
1500,3.4343434343434343,4.556962025316456,electrolyte,0.0201886452933464,0.0211193811921887,0.0191061102267887,-7.940155520972725e-05,critical
1500,3.5353535353535355,4.556962025316456,electrolyte,0.0201939410887036,0.0211699952481277,0.0190499580690643,-6.627532043311026e-05,critical
1500,3.636363636363636,4.556962025316456,electrolyte,0.0203168134584757,0.0213473791683889,0.0190974261063765,-0.0001010347995027,critical
1500,3.7373737373737375,4.556962025316456,electrolyte,0.0202864441819943,0.021191835433781,0.0192399224411265,1.394139175920959e-05,critical
1500,3.8383838383838382,4.556962025316456,electrolyte,0.0201125057779302,0.0210233881966171,0.0190571307912527,2.0509712441303973e-05,critical
1500,3.939393939393939,4.556962025316456,electrolyte,0.0201519381601595,0.0211835214634359,0.0189310640422589,-1.2188954084316511e-05,critical
1500,4.040404040404041,4.556962025316456,electrolyte,0.0201828941252401,0.0211660273402518,0.0190287955585675,-7.626387809788481e-05,critical
1500,4.141414141414141,4.556962025316456,electrolyte,0.0201746163829068,0.0210970432961029,0.019103418179879,-7.062730573311828e-05,critical
1500,4.242424242424242,4.556962025316456,electrolyte,0.0200723362893541,0.0210316016726242,0.0189507696343449,-3.5514326636219245e-05,critical
1500,4.343434343434343,4.556962025316456,electrolyte,0.020080937858926,0.0209509014495499,0.0190798415024119,-3.327150032191956e-05,critical
1500,4.444444444444445,4.556962025316456,electrolyte,0.0200968651171372,0.0209882619511866,0.0190675044841791,-1.731492577494942e-05,critical
1500,4.545454545454545,4.556962025316456,electrolyte,0.0200455758561688,0.021095246497383,0.018797924046729,1.3899140352205774e-05,critical
1500,4.646464646464646,4.556962025316456,electrolyte,0.0200245881291899,0.021012176746772,0.0188635170103064,3.576587892457329e-05,critical
1500,4.747474747474747,4.556962025316456,electrolyte,0.0199708271932326,0.0210102016322481,0.0187365658653639,-4.278806030070426e-05,critical
1500,4.848484848484849,4.556962025316456,electrolyte,0.0200264819735841,0.0210907158000168,0.0187579064550181,1.0111908641069052e-05,critical
1500,4.94949494949495,4.556962025316456,electrolyte,0.0199462564065798,0.0208679212614771,0.0188748035491421,-3.006732699163512e-05,critical
1500,5.05050505050505,4.556962025316456,electrolyte,0.0200875846651136,0.0210238232402199,0.0189977799580399,-8.916322386851812e-06,critical
1500,5.151515151515151,4.556962025316456,electrolyte,0.0200337015441846,0.021042343441392,0.0188430616542675,5.8259093324688376e-05,critical
1500,5.252525252525253,4.556962025316456,electrolyte,0.0200166778053238,0.0210564988212459,0.0187824415541095,3.461918399331072e-05,critical
1500,5.353535353535354,4.556962025316456,electrolyte,0.0201423965466516,0.0211630518208911,0.0189367671596568,-1.8734770569530583e-06,critical
1500,5.454545454545454,4.556962025316456,electrolyte,0.020046543050584,0.0210381017166975,0.0188798249198185,-5.7886355307658215e-05,critical
1500,5.555555555555555,4.556962025316456,electrolyte,0.0200091736995971,0.0208960454513555,0.0189851380630662,-1.964033213784163e-05,critical
1500,5.656565656565657,4.556962025316456,electrolyte,0.0201036705062843,0.0212481538086575,0.0187173542728749,0.0001202761458087,critical
1500,5.757575757575758,4.556962025316456,electrolyte,0.0200879461270135,0.0209710983943153,0.0190693685349343,3.36614525677598e-05,critical
1500,5.858585858585858,4.556962025316456,electrolyte,0.0200908135234028,0.0210524059115421,0.0189663322032588,-2.683480075961752e-05,critical
1500,5.959595959595959,4.556962025316456,electrolyte,0.0200237946648598,0.0208232650537223,0.0191148478040727,6.350742707070152e-06,critical
1500,6.0606060606060606,4.556962025316456,electrolyte,0.0200624686710679,0.0209271748774547,0.0190676590954097,-6.484299133908812e-05,critical
1500,6.161616161616162,4.556962025316456,electrolyte,0.0201815707112566,0.0211584698254386,0.0190360967380255,-7.44992743402123e-05,critical
1500,6.262626262626262,4.556962025316456,electrolyte,0.0201301217736908,0.0210637887219618,0.0190441594796455,-1.579747451329209e-05,critical
1500,6.363636363636363,4.556962025316456,electrolyte,0.0203504082230642,0.0214119315185689,0.0190895836955053,-1.785709870774577e-05,critical
1500,6.4646464646464645,4.556962025316456,electrolyte,0.0203194466393327,0.0214093846524459,0.0190176726126998,3.139579614750411e-05,critical
1500,6.565656565656566,4.556962025316456,electrolyte,0.0203449034993812,0.0212649928858486,0.0192791555148099,1.215822519115199e-05,critical
1500,6.666666666666667,4.556962025316456,electrolyte,0.0203300361215285,0.0214000164860163,0.0190570260361201,-5.5709645121354166e-06,critical
1500,6.767676767676767,4.556962025316456,electrolyte,0.0203338931934336,0.0214273707761034,0.0190272391080064,-3.09470781452748e-05,critical
1500,6.8686868686868685,4.556962025316456,electrolyte,0.0204800830554868,0.0215457381036641,0.0192148519762502,2.9458669964838596e-05,critical
1500,6.96969696969697,4.556962025316456,electrolyte,0.0204829256879803,0.0214704765479292,0.0193263823966097,4.642200225324564e-05,critical
1500,7.070707070707071,4.556962025316456,electrolyte,0.0207013541960005,0.0216981765543783,0.0195343544994345,3.681873736206588e-05,critical
1500,7.171717171717171,4.556962025316456,electrolyte,0.0204744616782583,0.0214898040592063,0.0192790201590966,-6.745341357417219e-05,critical
1500,7.272727272727272,4.556962025316456,electrolyte,0.0206412249892457,0.0215852630872004,0.0195457619386891,7.967339353367035e-06,critical
1500,7.373737373737374,4.556962025316456,electrolyte,0.0208050500178941,0.0218584968323739,0.0195597742610816,-7.898746631291345e-05,critical
1500,7.474747474747475,4.556962025316456,electrolyte,0.0208115743093543,0.0218185389679474,0.0196319294665709,1.0739954930900378e-05,critical
1500,7.575757575757575,4.556962025316456,electrolyte,0.0207675212601208,0.0217745596201693,0.0195872409863491,-2.601173985927356e-05,critical
1500,7.6767676767676765,4.556962025316456,electrolyte,0.0209562950211003,0.0218809336350348,0.0198894673052498,-9.105426180150335e-06,critical
1500,7.777777777777778,4.556962025316456,electrolyte,0.0209820423670329,0.0219041342395594,0.019918799661766,-1.273870701745909e-05,critical
1500,7.878787878787879,4.556962025316456,electrolyte,0.0212295441593923,0.0222178929817895,0.020078855905409,-5.226183537331788e-05,critical
1500,7.979797979797979,4.556962025316456,electrolyte,0.0213401439807975,0.0224288981124696,0.0200523852732252,1.8490005563461737e-05,critical
1500,8.080808080808081,4.556962025316456,electrolyte,0.0213897330315356,0.0225258490284057,0.0200352531321509,4.663311127100416e-05,critical
1500,8.181818181818182,4.556962025316456,electrolyte,0.0214852097919141,0.0225051722846376,0.0202938844682409,4.857884767566494e-05,critical
1500,8.282828282828282,4.556962025316456,electrolyte,0.0215743311358407,0.0225398867046331,0.0204577938961369,-9.94736239344381e-06,critical
1500,8.383838383838384,4.556962025316456,electrolyte,0.0217299464046207,0.0227544709202341,0.0205342260582529,7.218907697959424e-05,critical
1500,8.484848484848484,4.556962025316456,electrolyte,0.0218337832743873,0.0229367090957758,0.0205313621394629,4.660958337629157e-05,critical
1500,8.585858585858587,4.556962025316456,electrolyte,0.0220331730251233,0.0230323335408248,0.0208753213128346,1.4703222148012238e-05,critical
1500,8.686868686868687,4.556962025316456,electrolyte,0.0220285721660308,0.0230632500515167,0.0208214764141309,8.470665438566076e-05,critical
1500,8.787878787878787,4.556962025316456,electrolyte,0.0224017229472905,0.0235395167835806,0.0210568569296806,4.224512328035526e-05,critical
1500,8.88888888888889,4.556962025316456,electrolyte,0.0224632008715088,0.0235314175583215,0.0212155357644838,1.2303294314805632e-05,critical
1500,8.98989898989899,4.556962025316456,electrolyte,0.0225063823763597,0.023563792483628,0.021273884431632,7.543576830573519e-06,critical
1500,9.09090909090909,4.556962025316456,electrolyte,0.0227070415476937,0.0237594330397513,0.0214820276024132,8.63403054661721e-05,critical
1500,9.191919191919192,4.556962025316456,electrolyte,0.0229714695896876,0.024076847538409,0.0216768207032033,7.911829072615972e-05,critical
1500,9.292929292929292,4.556962025316456,electrolyte,0.0231931766581082,0.0243930103416165,0.0217702336327101,3.136711296476707e-05,critical
1500,9.393939393939394,4.556962025316456,electrolyte,0.0233722822901884,0.0244562048752024,0.0221116296087101,-9.012589863219258e-07,critical
1500,9.494949494949497,4.556962025316456,electrolyte,0.0236680994471813,0.0248999249076885,0.0222056519543366,1.5900788786081533e-05,critical
1500,9.595959595959595,4.556962025316456,electrolyte,0.0238341628906138,0.0250223624061811,0.0224341252481717,6.717361784414756e-05,critical
1500,9.696969696969695,4.556962025316456,electrolyte,0.0239649399482994,0.0250282843393802,0.0227370080793503,-5.674182900301342e-06,critical
1500,9.797979797979798,4.556962025316456,electrolyte,0.0243150512898707,0.0254513378448162,0.022991749666736,-2.1266654254962516e-05,critical
1500,9.8989898989899,4.556962025316456,electrolyte,0.0245872672235904,0.0258636162131335,0.023072120813108,-6.52814996827129e-05,critical
1500,10.0,4.556962025316456,electrolyte,0.0248194170754209,0.0259446663801889,0.0235155190515057,-1.1700013602187324e-05,critical
1500,0.0,4.658227848101266,electrolyte,0.0248915226046196,0.0260564508881882,0.0235345327609988,2.1828670910179268e-05,critical
1500,0.101010101010101,4.658227848101266,electrolyte,0.0244702041806402,0.0255339699324368,0.0232456137772176,2.247591732905268e-05,critical
1500,0.202020202020202,4.658227848101266,electrolyte,0.02443539150532,0.025732346517831,0.0228897499695642,-1.848385517651748e-05,critical
1500,0.303030303030303,4.658227848101266,electrolyte,0.0240613862733565,0.0252190143297377,0.0227065993772829,-2.9113019784941185e-06,critical
1500,0.404040404040404,4.658227848101266,electrolyte,0.0239260861126167,0.0250559626162644,0.022607703072492,-4.419219656458625e-05,critical
1500,0.5050505050505051,4.658227848101266,electrolyte,0.023692237600592,0.0248839459573246,0.0222864615022007,-5.5805476568974e-06,critical
1500,0.6060606060606061,4.658227848101266,electrolyte,0.0233768016684669,0.0245049098075921,0.0220556669708333,3.622111200959348e-05,critical
1500,0.7070707070707071,4.658227848101266,electrolyte,0.0231105825666091,0.0242017493956532,0.0218376447051944,1.6643659272018454e-05,critical
1500,0.8080808080808081,4.658227848101266,electrolyte,0.0230033960819666,0.0240633568459683,0.0217718858692043,1.5633149924223844e-05,critical
1500,0.9090909090909092,4.658227848101266,electrolyte,0.0227557576733747,0.023820771105955,0.021514669769188,-5.882154332134886e-05,critical
1500,1.0101010101010102,4.658227848101266,electrolyte,0.0226889392173131,0.0237892213745187,0.0213993087035892,-3.3606650687187565e-05,critical
1500,1.1111111111111112,4.658227848101266,electrolyte,0.0225062521103886,0.0236078478097745,0.0212127983535492,-4.692905489236345e-05,critical
1500,1.2121212121212122,4.658227848101266,electrolyte,0.0223728989795137,0.0235108165575636,0.0210277344496513,2.383782692114496e-05,critical
1500,1.3131313131313131,4.658227848101266,electrolyte,0.0221120340450984,0.0230441956337731,0.0210436250797753,-4.602132821380376e-05,critical
1500,1.414141414141414,4.658227848101266,electrolyte,0.022069717752169,0.0230527999366665,0.0209336318565299,-3.0227868596875012e-05,critical
1500,1.5151515151515151,4.658227848101266,electrolyte,0.0218570172325449,0.02280130000164,0.0207692891543749,0.0001054219943106,critical
1500,1.616161616161616,4.658227848101266,electrolyte,0.0217493614185014,0.0227576280898621,0.0205758420164054,-7.56557932475503e-05,critical
1500,1.7171717171717171,4.658227848101266,electrolyte,0.0214569900365077,0.0225719932062001,0.0201327597104314,7.313451988028606e-05,critical
1500,1.818181818181818,4.658227848101266,electrolyte,0.0214108897031437,0.0224913243243185,0.0201352474678184,4.7323628106770365e-05,critical
1500,1.9191919191919191,4.658227848101266,electrolyte,0.0214115275143945,0.0225172477611891,0.0201006584422233,-2.64591291933898e-05,critical
1500,2.0202020202020203,4.658227848101266,electrolyte,0.021203683056014,0.0222583391765101,0.0199616044936623,-5.483797108101048e-05,critical
1500,2.121212121212121,4.658227848101266,electrolyte,0.0210719643855602,0.0220176594244489,0.0199775309437531,4.8601740806402e-05,critical
1500,2.2222222222222223,4.658227848101266,electrolyte,0.0211108604287481,0.022178164861707,0.0198504091391704,-3.801261818856559e-05,critical
1500,2.323232323232323,4.658227848101266,electrolyte,0.0209855945154227,0.0219787886970379,0.0198257202662381,-6.869497750586362e-05,critical
1500,2.4242424242424243,4.658227848101266,electrolyte,0.0208824396666773,0.0219455495321544,0.0196246764386226,7.193904790757716e-05,critical
1500,2.525252525252525,4.658227848101266,electrolyte,0.0207808449070354,0.0218052758558023,0.0195766446406572,2.933278368860136e-05,critical
1500,2.6262626262626263,4.658227848101266,electrolyte,0.020743901200011,0.0217632741287138,0.0195464717249575,-7.525764771490294e-07,critical
1500,2.727272727272727,4.658227848101266,electrolyte,0.0207581686740924,0.0217754595567514,0.019563692083299,-2.0539432254429303e-05,critical
1500,2.8282828282828283,4.658227848101266,electrolyte,0.020597469657363,0.0215765538219162,0.019453261845186,-6.591978220908615e-05,critical
1500,2.929292929292929,4.658227848101266,electrolyte,0.0206146233779933,0.0214965641687553,0.0196016124442996,-3.888126596604271e-05,critical
1500,3.0303030303030303,4.658227848101266,electrolyte,0.0204580127443338,0.0214647626226513,0.0192744312807408,6.229481589719933e-05,critical
1500,3.131313131313131,4.658227848101266,electrolyte,0.0203864284746157,0.021454549335347,0.0191143190856223,-0.0001164567084775,critical
1500,3.2323232323232323,4.658227848101266,electrolyte,0.0204540568714962,0.0215041676135437,0.0192088159052118,-0.0001003430018852,critical
1500,3.333333333333333,4.658227848101266,electrolyte,0.0203635526412985,0.0212527487527681,0.0193392761000312,-6.391864207762878e-06,critical
1500,3.4343434343434343,4.658227848101266,electrolyte,0.020248615778718,0.0212739954675185,0.0190373436835253,3.3992716852564846e-05,critical
1500,3.5353535353535355,4.658227848101266,electrolyte,0.0202272970816526,0.0211580393210632,0.0191461993391128,-1.6980963188997833e-06,critical
1500,3.636363636363636,4.658227848101266,electrolyte,0.0200671140007571,0.0209742111266424,0.0190164896420144,1.319430163879981e-05,critical
1500,3.7373737373737375,4.658227848101266,electrolyte,0.0203310462282518,0.0213186607833057,0.0191732848007595,-3.994150791558654e-06,critical
1500,3.8383838383838382,4.658227848101266,electrolyte,0.020192901246341,0.0211963142934866,0.0190117655061948,2.3454900346537653e-05,critical
1500,3.939393939393939,4.658227848101266,electrolyte,0.0201097315108832,0.0211001906880576,0.0189454135180607,4.618402423897381e-05,critical
1500,4.040404040404041,4.658227848101266,electrolyte,0.0201835375957337,0.0211212013784408,0.0190910804817664,9.52953931643126e-05,critical
1500,4.141414141414141,4.658227848101266,electrolyte,0.0201357909133131,0.0210601913317845,0.0190622961485336,3.1018436178297806e-05,critical
1500,4.242424242424242,4.658227848101266,electrolyte,0.0199987868093882,0.020980007551546,0.0188450506228579,8.968162796102542e-05,critical
1500,4.343434343434343,4.658227848101266,electrolyte,0.0200632195312391,0.021044917838527,0.018910907232807,-9.793313004313094e-06,critical
1500,4.444444444444445,4.658227848101266,electrolyte,0.0201063634576072,0.0212128792806299,0.0187780564037114,-1.678720391700353e-05,critical
1500,4.545454545454545,4.658227848101266,electrolyte,0.0199981244855262,0.02098446175624,0.0188387380277577,-4.998010380529118e-06,critical
1500,4.646464646464646,4.658227848101266,electrolyte,0.0199898934424605,0.0209325264118735,0.0188903522585924,-2.9251700905975283e-05,critical
1500,4.747474747474747,4.658227848101266,electrolyte,0.0200634340944581,0.0209728157174965,0.0190097281738787,7.050491635429519e-06,critical
1500,4.848484848484849,4.658227848101266,electrolyte,0.020007110105066,0.0209182213908187,0.0189499397299433,6.133907419927993e-05,critical
1500,4.94949494949495,4.658227848101266,electrolyte,0.0200428631053758,0.0210129157225395,0.0189061608835773,3.821093194704861e-05,critical
1500,5.05050505050505,4.658227848101266,electrolyte,0.0199751063536407,0.020918669907604,0.0188735502600298,-6.529827008137476e-05,critical
1500,5.151515151515151,4.658227848101266,electrolyte,0.0200830585607376,0.0210927736644696,0.0188912765731873,6.640963774582569e-05,critical
1500,5.252525252525253,4.658227848101266,electrolyte,0.0200445686138869,0.0209423381242952,0.0190061270441565,3.2034241738831865e-05,critical
1500,5.353535353535354,4.658227848101266,electrolyte,0.0201022183986068,0.0211444951373015,0.0188656307015425,2.3977752380831693e-05,critical
1500,5.454545454545454,4.658227848101266,electrolyte,0.0199784250239303,0.0209789552504085,0.0187987986590468,-4.174463783925878e-05,critical
1500,5.555555555555555,4.658227848101266,electrolyte,0.0201277702862733,0.0212182493899326,0.0188229218869562,5.537924234047319e-06,critical
1500,5.656565656565657,4.658227848101266,electrolyte,0.0199709127254978,0.0209890731376858,0.0187663930301982,-5.1161143599414085e-05,critical
1500,5.757575757575758,4.658227848101266,electrolyte,0.0200359942201749,0.0208924106025566,0.0190510411430923,-9.703768503435232e-05,critical
1500,5.858585858585858,4.658227848101266,electrolyte,0.0201690123338502,0.021063737799157,0.019135816355252,-1.0941500273676806e-05,critical
1500,5.959595959595959,4.658227848101266,electrolyte,0.0202063936128738,0.0212071570444413,0.0190291702280697,-6.186383387242743e-06,critical
1500,6.0606060606060606,4.658227848101266,electrolyte,0.0203014814358085,0.021284405600736,0.0191495241583532,4.54256460894212e-05,critical
1500,6.161616161616162,4.658227848101266,electrolyte,0.0201109138213982,0.0211005830589279,0.0189477973464939,-3.998630856196114e-05,critical
1500,6.262626262626262,4.658227848101266,electrolyte,0.0202525118525377,0.0212402217434127,0.0190937882691936,-1.5946979721461906e-05,critical
1500,6.363636363636363,4.658227848101266,electrolyte,0.0202308455392811,0.0211634250704107,0.0191471868738722,2.476593577256147e-05,critical
1500,6.4646464646464645,4.658227848101266,electrolyte,0.020304097154615,0.0213206004106264,0.0191059813557398,1.6630966811024534e-05,critical
1500,6.565656565656566,4.658227848101266,electrolyte,0.0202220525597135,0.0213202829425408,0.0189072743445611,-1.0962597133467906e-05,critical
1500,6.666666666666667,4.658227848101266,electrolyte,0.0203738113835672,0.0212371317146043,0.0193835849384632,4.003416236154542e-05,critical
1500,6.767676767676767,4.658227848101266,electrolyte,0.0203787002962504,0.0214167197980011,0.0191513522006032,-1.1424825415861806e-05,critical
1500,6.8686868686868685,4.658227848101266,electrolyte,0.0205769280288184,0.0216313752116279,0.0193287754967288,1.4725329388080069e-06,critical
1500,6.96969696969697,4.658227848101266,electrolyte,0.0205983563268062,0.0214903103652278,0.0195712401987358,-7.62167061843096e-05,critical
1500,7.070707070707071,4.658227848101266,electrolyte,0.0205542584246576,0.0215712167342036,0.0193581360536871,2.053375145017532e-05,critical
1500,7.171717171717171,4.658227848101266,electrolyte,0.0205295427213017,0.0215034228082872,0.0193919615972155,5.8613402617798655e-05,critical
1500,7.272727272727272,4.658227848101266,electrolyte,0.0206281984857768,0.0215519483129015,0.0195593597817693,5.7308126443407415e-05,critical
1500,7.373737373737374,4.658227848101266,electrolyte,0.0207561306803025,0.0217557069837972,0.0195861163540089,3.107440133940501e-06,critical
1500,7.474747474747475,4.658227848101266,electrolyte,0.0209589909252275,0.0221231599138657,0.019558087017102,6.586589762191341e-05,critical
1500,7.575757575757575,4.658227848101266,electrolyte,0.0209979318735996,0.0219667156875743,0.0198717831100858,4.687102769436564e-05,critical
1500,7.6767676767676765,4.658227848101266,electrolyte,0.021022682677664,0.0221067278674187,0.019737166802121,-6.87797335508102e-05,critical
1500,7.777777777777778,4.658227848101266,electrolyte,0.0210201809998789,0.0221494694674921,0.0196711438440994,1.3056372371198416e-05,critical
1500,7.878787878787879,4.658227848101266,electrolyte,0.0211593260419202,0.0221632653028839,0.0199856147443324,9.7356344179262e-05,critical
1500,7.979797979797979,4.658227848101266,electrolyte,0.0212654036467488,0.0223716534339377,0.0199520113466835,3.286979743198135e-05,critical
1500,8.080808080808081,4.658227848101266,electrolyte,0.0213255653085121,0.0223738144249246,0.0200940203511489,-2.823898917289652e-05,critical
1500,8.181818181818182,4.658227848101266,electrolyte,0.0214148200404403,0.0224377351574135,0.020218829974428,-4.555214730675491e-05,critical
1500,8.282828282828282,4.658227848101266,electrolyte,0.0216029700214525,0.0226748485185649,0.0203416680016157,-1.0675072658094868e-05,critical
1500,8.383838383838384,4.658227848101266,electrolyte,0.0216941842222691,0.0227944667278462,0.0203942794828217,-1.3100885772150125e-06,critical
1500,8.484848484848484,4.658227848101266,electrolyte,0.0217816123051032,0.0228389664148148,0.0205422467570226,-3.144034462909509e-06,critical
1500,8.585858585858587,4.658227848101266,electrolyte,0.0219756892241711,0.0230718258122382,0.0206846317456378,-4.966859517234369e-07,critical
1500,8.686868686868687,4.658227848101266,electrolyte,0.0222643067712044,0.0233126005110796,0.0210412909558779,-6.65798141931976e-05,critical
1500,8.787878787878787,4.658227848101266,electrolyte,0.0223086951954291,0.0234249844080832,0.0209922117280285,7.586389015969685e-05,critical
1500,8.88888888888889,4.658227848101266,electrolyte,0.0223649944687739,0.0234878514731544,0.0210406409859891,3.9530751405674846e-05,critical
1500,8.98989898989899,4.658227848101266,electrolyte,0.0224561716987709,0.0235224752003197,0.0212109684407969,2.648736775435349e-05,critical
1500,9.09090909090909,4.658227848101266,electrolyte,0.0226857105090909,0.0238485292511805,0.0213091663496995,-1.65363012941065e-05,critical
1500,9.191919191919192,4.658227848101266,electrolyte,0.0227822784294166,0.0237769925521932,0.0216363254901551,3.164874258960861e-05,critical
1500,9.292929292929292,4.658227848101266,electrolyte,0.0229419605199948,0.0238880516945846,0.0218613609047037,-1.5890643763651462e-05,critical
1500,9.393939393939394,4.658227848101266,electrolyte,0.0233418489610406,0.0245224105126996,0.0219478064745467,-8.301498626633671e-06,critical
1500,9.494949494949497,4.658227848101266,electrolyte,0.0236897038572409,0.0247756616703658,0.0224286972724321,-5.167729924281834e-05,critical
1500,9.595959595959595,4.658227848101266,electrolyte,0.0237032794406888,0.0248255462127939,0.0223934672236283,-1.1439827654957914e-05,critical
1500,9.696969696969695,4.658227848101266,electrolyte,0.0239018297500807,0.0251411208020617,0.0224315289614777,2.448171989365328e-05,critical
1500,9.797979797979798,4.658227848101266,electrolyte,0.0242829388422113,0.0254231373775991,0.0229535028697213,-6.315973937305083e-05,critical
1500,9.8989898989899,4.658227848101266,electrolyte,0.0246088209351258,0.0257621738148558,0.023265051849268,-6.8350467086178125e-06,critical
1500,10.0,4.658227848101266,electrolyte,0.0249481915079847,0.0260761562116257,0.0236408395301996,-8.014074449759752e-05,critical
1500,0.0,4.759493670886076,electrolyte,0.024944300269229,0.0261560879372965,0.0235233174601014,5.377568381799685e-05,critical
1500,0.101010101010101,4.759493670886076,electrolyte,0.0245853248743321,0.0259230358032318,0.0229832305743192,1.4552668747916145e-05,critical
1500,0.202020202020202,4.759493670886076,electrolyte,0.0243161641580581,0.0254332793217345,0.0230189146711154,8.08665191731911e-06,critical
1500,0.303030303030303,4.759493670886076,electrolyte,0.0240107023438022,0.0251597771359419,0.0226668917670002,4.244352226041781e-05,critical
1500,0.404040404040404,4.759493670886076,electrolyte,0.0237694880416965,0.0249024698544769,0.0224453261948884,-4.812434722012618e-05,critical
1500,0.5050505050505051,4.759493670886076,electrolyte,0.0236952788820697,0.0248227193911548,0.0223781151930008,3.8633640899615606e-05,critical
1500,0.6060606060606061,4.759493670886076,electrolyte,0.023314682272254,0.0244612714082124,0.0219665493221346,8.375818123901557e-05,critical
1500,0.7070707070707071,4.759493670886076,electrolyte,0.0230907808014157,0.0241762557216544,0.0218244751669375,-7.998669619622692e-05,critical
1500,0.8080808080808081,4.759493670886076,electrolyte,0.0230134184655022,0.0241289578519884,0.0217059168710568,4.142685342508982e-05,critical
1500,0.9090909090909092,4.759493670886076,electrolyte,0.0228890919863408,0.0239692762909346,0.0216289838413791,-2.8714825131147965e-05,critical
1500,1.0101010101010102,4.759493670886076,electrolyte,0.0226791158779324,0.0237784022655646,0.0213909303979075,-6.512800036394706e-06,critical
1500,1.1111111111111112,4.759493670886076,electrolyte,0.0224077235500456,0.0234871130072188,0.0211442319447859,2.441620459557807e-06,critical
1500,1.2121212121212122,4.759493670886076,electrolyte,0.0223448702012465,0.0234231552494106,0.0210822773438783,-4.4611341230846175e-06,critical
1500,1.3131313131313131,4.759493670886076,electrolyte,0.0220975114150172,0.0230588334711008,0.0209904665821654,-4.544502433970806e-05,critical
1500,1.414141414141414,4.759493670886076,electrolyte,0.0220319941150929,0.0231136191619589,0.0207616393503876,-1.0496517673489385e-05,critical
1500,1.5151515151515151,4.759493670886076,electrolyte,0.0218200678110893,0.0229835465177858,0.0204311104991155,8.376770397097574e-05,critical
1500,1.616161616161616,4.759493670886076,electrolyte,0.0215924622611772,0.0225769865645893,0.0204505760810326,-1.1881865681149544e-05,critical
1500,1.7171717171717171,4.759493670886076,electrolyte,0.0215214686780179,0.0226305823026167,0.0202072070150527,-1.2668028176411934e-06,critical
1500,1.818181818181818,4.759493670886076,electrolyte,0.0216048965703549,0.0226047674091217,0.0204422462862034,-3.0744045793277084e-05,critical
1500,1.9191919191919191,4.759493670886076,electrolyte,0.0214056567588608,0.0224454668460248,0.0201865724200304,2.884014390883876e-05,critical
1500,2.0202020202020203,4.759493670886076,electrolyte,0.0212048768313797,0.0221808135165673,0.0200712420792681,3.275097501885045e-06,critical
1500,2.121212121212121,4.759493670886076,electrolyte,0.0211855193175345,0.0222289224149788,0.0199592541964951,2.6595343579798708e-05,critical
1500,2.2222222222222223,4.759493670886076,electrolyte,0.0210413884235134,0.0220211475427638,0.0199011165486949,-4.884970164595644e-06,critical
1500,2.323232323232323,4.759493670886076,electrolyte,0.0210342286474618,0.0220150702620736,0.0198921749325933,3.856339919126987e-05,critical
1500,2.4242424242424243,4.759493670886076,electrolyte,0.020953608059329,0.0219236133112386,0.0198252614409315,-5.5511281626971104e-05,critical
1500,2.525252525252525,4.759493670886076,electrolyte,0.0208346750437438,0.0219081144117691,0.0195627469400233,-3.532249547659904e-06,critical
1500,2.6262626262626263,4.759493670886076,electrolyte,0.020659676625846,0.0216585702881388,0.0194896425381928,-8.1219024001514e-06,critical
1500,2.727272727272727,4.759493670886076,electrolyte,0.0206567137232936,0.0217004178931129,0.0194241294593993,-4.692665823286514e-05,critical
1500,2.8282828282828283,4.759493670886076,electrolyte,0.0205853572193832,0.02155031567685,0.0194609328934006,-2.6858983977008223e-05,critical
1500,2.929292929292929,4.759493670886076,electrolyte,0.0205844581272526,0.0215758201780284,0.019424014546518,-1.418832541787718e-05,critical
1500,3.0303030303030303,4.759493670886076,electrolyte,0.020446096652784,0.0213979888542945,0.0193380897971686,3.3932611038400494e-05,critical
1500,3.131313131313131,4.759493670886076,electrolyte,0.0204597326517186,0.0214653545090031,0.0192784109683292,-2.026841988894034e-06,critical
1500,3.2323232323232323,4.759493670886076,electrolyte,0.0204939179270921,0.0215113893635984,0.0192960188536158,-5.363698482162508e-05,critical
1500,3.333333333333333,4.759493670886076,electrolyte,0.0202717857703875,0.0212639459433185,0.0191060799277258,-7.802095306467746e-05,critical
1500,3.4343434343434343,4.759493670886076,electrolyte,0.0203408514320784,0.0213849748954781,0.019104490032516,-1.3976592582784849e-05,critical
1500,3.5353535353535355,4.759493670886076,electrolyte,0.0202071317904569,0.0212074992973991,0.0190302944612654,-3.1611610874874386e-05,critical
1500,3.636363636363636,4.759493670886076,electrolyte,0.020350809498627,0.0213305811734224,0.0192036471254027,-4.70636824684137e-05,critical
1500,3.7373737373737375,4.759493670886076,electrolyte,0.0199879792275249,0.0210044068347905,0.018786355951748,-3.316889355495094e-05,critical
1500,3.8383838383838382,4.759493670886076,electrolyte,0.0201389486396817,0.021000308834161,0.019149831667865,-1.4229328814520332e-05,critical
1500,3.939393939393939,4.759493670886076,electrolyte,0.0202427544156912,0.0213425841862759,0.0189259628611372,5.538794028808806e-06,critical
1500,4.040404040404041,4.759493670886076,electrolyte,0.0201165345727387,0.0211565491373398,0.0188833530312545,-1.7854933976316685e-05,critical
1500,4.141414141414141,4.759493670886076,electrolyte,0.0201317043079918,0.0210676294460025,0.0190422591422457,-5.207063627967867e-05,critical
1500,4.242424242424242,4.759493670886076,electrolyte,0.0202101932362081,0.0213376671519939,0.0188503897387589,0.0001183494592076,critical
1500,4.343434343434343,4.759493670886076,electrolyte,0.0200390036823471,0.020972758153377,0.0189513339365376,-6.774801794999218e-05,critical
1500,4.444444444444445,4.759493670886076,electrolyte,0.0200585796435528,0.021061882306137,0.0188759590118962,4.1350310042523e-05,critical
1500,4.545454545454545,4.759493670886076,electrolyte,0.0202553238391541,0.0212941449270768,0.0190252557734514,3.527096532424175e-05,critical
1500,4.646464646464646,4.759493670886076,electrolyte,0.0201352122457831,0.0211591792898904,0.0189246418883478,-3.523289806887396e-05,critical
1500,4.747474747474747,4.759493670886076,electrolyte,0.0199467500674459,0.0208784944298345,0.0188616083415131,-3.174935110567427e-05,critical
1500,4.848484848484849,4.759493670886076,electrolyte,0.0199662249431025,0.0209192554256081,0.018852403588108,-2.3031940479345195e-06,critical
1500,4.94949494949495,4.759493670886076,electrolyte,0.019848859506363,0.0206838160377584,0.0188922776571503,-3.275331735781357e-05,critical
1500,5.05050505050505,4.759493670886076,electrolyte,0.020063941364194,0.0209966903089434,0.0189782113681386,5.118305990814426e-05,critical
1500,5.151515151515151,4.759493670886076,electrolyte,0.0199609312299235,0.0208679633565279,0.0189065724547969,0.0001291770259506,critical
1500,5.252525252525253,4.759493670886076,electrolyte,0.0200272835048328,0.0208827845442327,0.0190450904680891,-1.2168195311025897e-05,critical
1500,5.353535353535354,4.759493670886076,electrolyte,0.0200444812531762,0.0209572990322752,0.018985728765016,3.892007229227283e-05,critical
1500,5.454545454545454,4.759493670886076,electrolyte,0.0200639433966859,0.0210005822831071,0.0189732678687158,-2.675714373019862e-05,critical
1500,5.555555555555555,4.759493670886076,electrolyte,0.0201516818119273,0.0212072929277949,0.0188968649649448,-1.6849817732166856e-05,critical
1500,5.656565656565657,4.759493670886076,electrolyte,0.0199488042128515,0.0208709804645771,0.0188768265326413,-9.342063669018806e-06,critical
1500,5.757575757575758,4.759493670886076,electrolyte,0.02008151407976,0.0211442337835413,0.0188155094404948,3.9666541108448064e-05,critical
1500,5.858585858585858,4.759493670886076,electrolyte,0.0200555310609263,0.0209532085013558,0.0190174797127553,-4.568044649431047e-06,critical
1500,5.959595959595959,4.759493670886076,electrolyte,0.0201729246384911,0.021108327916499,0.0190849187191799,2.569764106226013e-05,critical
1500,6.0606060606060606,4.759493670886076,electrolyte,0.0200886152150443,0.0211014579974889,0.0188931640826854,-2.9387715684807053e-05,critical
1500,6.161616161616162,4.759493670886076,electrolyte,0.0201336670957903,0.021099738354201,0.0190032058459182,4.629948137080003e-05,critical
1500,6.262626262626262,4.759493670886076,electrolyte,0.0202289325498426,0.0212577605502503,0.0190127508564878,-1.9480521988873613e-05,critical
1500,6.363636363636363,4.759493670886076,electrolyte,0.0202238585064771,0.0212089429667545,0.0190684799409688,-1.3752509375710163e-05,critical
1500,6.4646464646464645,4.759493670886076,electrolyte,0.0202209868977796,0.0212017144006815,0.0190709870666645,5.969651506610755e-05,critical
1500,6.565656565656566,4.759493670886076,electrolyte,0.0202806345689125,0.0212060574032145,0.0192067275807336,5.115718838187457e-05,critical
1500,6.666666666666667,4.759493670886076,electrolyte,0.020443527980176,0.0214103227848406,0.0193153955651241,9.353326373245876e-06,critical
1500,6.767676767676767,4.759493670886076,electrolyte,0.0202980345699122,0.0213377373869136,0.0190673802635447,1.7637212392767694e-05,critical
1500,6.8686868686868685,4.759493670886076,electrolyte,0.0204552348836048,0.0213955429470957,0.0193631975399309,-5.219537958104003e-06,critical
1500,6.96969696969697,4.759493670886076,electrolyte,0.0204417767725573,0.0213529972417932,0.019388595206402,-3.023407496381354e-05,critical
1500,7.070707070707071,4.759493670886076,electrolyte,0.0205978942966667,0.0215517847179253,0.0194880696695624,6.230989615535845e-05,critical
1500,7.171717171717171,4.759493670886076,electrolyte,0.0206253464234681,0.0216297133003568,0.0194473953888927,1.650172658599757e-05,critical
1500,7.272727272727272,4.759493670886076,electrolyte,0.0206843312629355,0.0216350250182148,0.0195802514043045,-8.873093560245874e-06,critical
1500,7.373737373737374,4.759493670886076,electrolyte,0.0208536006620656,0.0218802314201204,0.0196461463886519,8.019797961785891e-05,critical
1500,7.474747474747475,4.759493670886076,electrolyte,0.0208797592750724,0.0218832741320693,0.0197055439745189,2.4515248375876426e-06,critical
1500,7.575757575757575,4.759493670886076,electrolyte,0.0209001794634996,0.0219299857055685,0.019689567002381,-4.510258621012929e-05,critical
1500,7.6767676767676765,4.759493670886076,electrolyte,0.0209338051688656,0.022046708036859,0.0196070026340927,-2.691866744041681e-05,critical
1500,7.777777777777778,4.759493670886076,electrolyte,0.0209887160427789,0.0219741481832769,0.01984020679813,-1.684359615537263e-05,critical
1500,7.878787878787879,4.759493670886076,electrolyte,0.0211765182984529,0.0221869915149462,0.0199951651866874,-5.2485726573073966e-05,critical
1500,7.979797979797979,4.759493670886076,electrolyte,0.0212323299700414,0.0222118723323667,0.0200936606404473,4.895695189719783e-05,critical
1500,8.080808080808081,4.759493670886076,electrolyte,0.0212546946158335,0.0223168473870327,0.0200025767394439,-6.256234348987936e-05,critical
1500,8.181818181818182,4.759493670886076,electrolyte,0.0215189696864018,0.0224568007111606,0.0204388696675552,2.821218331989666e-05,critical
1500,8.282828282828282,4.759493670886076,electrolyte,0.0216101319456014,0.0226951716994693,0.020330582154544,1.2466525691694852e-05,critical
1500,8.383838383838384,4.759493670886076,electrolyte,0.0216485009576043,0.0227298579171389,0.0203743102469945,-3.564552884920473e-05,critical
1500,8.484848484848484,4.759493670886076,electrolyte,0.0219190079580625,0.0229791207616402,0.0206772094498454,2.6593553070904907e-06,critical
1500,8.585858585858587,4.759493670886076,electrolyte,0.0221405778048882,0.0232818927436301,0.0207880703185533,1.1715273399448768e-05,critical
1500,8.686868686868687,4.759493670886076,electrolyte,0.0222599582191757,0.0232023166769979,0.0211790093197339,-5.740533057515226e-05,critical
1500,8.787878787878787,4.759493670886076,electrolyte,0.0222477479058357,0.0233002886139971,0.021019448461649,-1.672739863659206e-05,critical
1500,8.88888888888889,4.759493670886076,electrolyte,0.0224419424866925,0.0235240822913509,0.0211743925916406,-6.214793095100926e-05,critical
1500,8.98989898989899,4.759493670886076,electrolyte,0.0225369696123049,0.0236239353395475,0.0212625307535588,0.0001066395955392,critical
1500,9.09090909090909,4.759493670886076,electrolyte,0.0227657252241433,0.0238450484418122,0.021505109891034,6.466699719048305e-05,critical
1500,9.191919191919192,4.759493670886076,electrolyte,0.0231116155293065,0.0242512145642348,0.0217718034849095,4.6958532441936095e-05,critical
1500,9.292929292929292,4.759493670886076,electrolyte,0.023096757160002,0.0241184237323725,0.0219164982695015,8.230749341586835e-05,critical
1500,9.393939393939394,4.759493670886076,electrolyte,0.0233361848571285,0.0244600890327141,0.0220205595676792,2.1386130089273465e-05,critical
1500,9.494949494949497,4.759493670886076,electrolyte,0.0236045311804543,0.0247712780883496,0.0222323768872082,-3.407101335344791e-05,critical
1500,9.595959595959595,4.759493670886076,electrolyte,0.0237938967618391,0.0249475029180269,0.0224419728760902,-1.4815638945869942e-05,critical
1500,9.696969696969695,4.759493670886076,electrolyte,0.0239930318762004,0.0251595584828344,0.0226248117442417,5.8774544357861816e-05,critical
1500,9.797979797979798,4.759493670886076,electrolyte,0.0242605217049431,0.0254429317326571,0.0228735158836708,-2.3891957562481075e-05,critical
1500,9.8989898989899,4.759493670886076,electrolyte,0.0245705915982957,0.0257445392737689,0.023198325477251,1.372901914331075e-05,critical
1500,10.0,4.759493670886076,electrolyte,0.0246419642661781,0.0257712964156798,0.023331044427477,1.018989313851639e-05,critical
1500,0.0,4.860759493670886,electrolyte,0.0247600274546673,0.0259133188617103,0.0234176163524602,-2.750162843077104e-05,critical
1500,0.101010101010101,4.860759493670886,electrolyte,0.0244608311022824,0.0256509322404043,0.0230647630709426,-6.140729486354516e-05,critical
1500,0.202020202020202,4.860759493670886,electrolyte,0.0242547704746674,0.025325429316843,0.0230187683454896,-6.586665203247873e-05,critical
1500,0.303030303030303,4.860759493670886,electrolyte,0.0240803691211957,0.025180541659954,0.0228037171964716,-4.054468836261765e-05,critical
1500,0.404040404040404,4.860759493670886,electrolyte,0.0239002074893168,0.0251703938709798,0.0223858171526499,4.55180410939119e-05,critical
1500,0.5050505050505051,4.860759493670886,electrolyte,0.0236168064855192,0.024823600935317,0.0221889007381964,-3.408972183410393e-05,critical
1500,0.6060606060606061,4.860759493670886,electrolyte,0.0233361796083043,0.0245110449434437,0.0219500107298345,-1.5088182077763943e-05,critical
1500,0.7070707070707071,4.860759493670886,electrolyte,0.0230787056745878,0.0242067113717459,0.0217549210274438,9.755261480354691e-06,critical
1500,0.8080808080808081,4.860759493670886,electrolyte,0.0231044330979633,0.0242240128674125,0.021792441595551,2.519461025318384e-05,critical
1500,0.9090909090909092,4.860759493670886,electrolyte,0.022762899894672,0.0239775807812275,0.0213133150277912,5.647068652732809e-05,critical
1500,1.0101010101010102,4.860759493670886,electrolyte,0.0226526788090884,0.0238363330768014,0.0212462875295471,-2.539744800780224e-05,critical
1500,1.1111111111111112,4.860759493670886,electrolyte,0.0223737268819987,0.0235015591984682,0.0210426283671358,3.020758946365624e-05,critical
1500,1.2121212121212122,4.860759493670886,electrolyte,0.0222084712381895,0.0233382548791088,0.0208728870767498,2.158453566383596e-05,critical
1500,1.3131313131313131,4.860759493670886,electrolyte,0.022173805077073,0.0232332680301134,0.0209353635991455,1.0847662433453724e-05,critical
1500,1.414141414141414,4.860759493670886,electrolyte,0.021981927338237,0.0230295508422378,0.0207573503670976,5.709312593816263e-05,critical
1500,1.5151515151515151,4.860759493670886,electrolyte,0.0217749972903093,0.0228354966304809,0.0205312233212176,-7.083734363689462e-06,critical
1500,1.616161616161616,4.860759493670886,electrolyte,0.0216893815436044,0.0226890518783865,0.0205274183499043,-5.462710640724551e-05,critical
1500,1.7171717171717171,4.860759493670886,electrolyte,0.0215500236350556,0.0226155559399404,0.0202969833331706,-7.697515451672855e-06,critical
1500,1.818181818181818,4.860759493670886,electrolyte,0.0214662250645222,0.0224935086020994,0.0202647652927931,-4.4156347140627e-05,critical
1500,1.9191919191919191,4.860759493670886,electrolyte,0.0213869723545365,0.0224306407300588,0.0201625179473169,1.755609007956772e-06,critical
1500,2.0202020202020203,4.860759493670886,electrolyte,0.02122714066576,0.0221650783477949,0.0201446617362174,-2.1693981802565826e-05,critical
1500,2.121212121212121,4.860759493670886,electrolyte,0.0211893012471098,0.0221231162991178,0.0201120958557849,4.019980483114895e-06,critical
1500,2.2222222222222223,4.860759493670886,electrolyte,0.021106844349948,0.0221365371966615,0.0198988430844494,6.412582922623961e-06,critical
1500,2.323232323232323,4.860759493670886,electrolyte,0.020966895161827,0.0219408525058168,0.019833828461627,3.535629225102021e-06,critical
1500,2.4242424242424243,4.860759493670886,electrolyte,0.0209975305167487,0.0220246679368088,0.019791908860603,-1.6874231328374934e-05,critical
1500,2.525252525252525,4.860759493670886,electrolyte,0.0207686786285272,0.0218032079311724,0.0195504760839886,6.217907203960139e-06,critical
1500,2.6262626262626263,4.860759493670886,electrolyte,0.0207714176932017,0.0217243609829584,0.019663906738186,-8.26901345799062e-05,critical
1500,2.727272727272727,4.860759493670886,electrolyte,0.0208599143143792,0.0218032481536816,0.0197672488424236,1.2912279196140892e-05,critical
1500,2.8282828282828283,4.860759493670886,electrolyte,0.0206046888304307,0.0216688755395209,0.0193429840818029,3.0089279764239914e-05,critical
1500,2.929292929292929,4.860759493670886,electrolyte,0.0206121089948926,0.0216193001763288,0.0194299992143404,-3.1691610409740696e-05,critical
1500,3.0303030303030303,4.860759493670886,electrolyte,0.0204456723376708,0.0213424894523735,0.0194109451226256,7.474913907445791e-05,critical
1500,3.131313131313131,4.860759493670886,electrolyte,0.0204368948695065,0.021377598408242,0.0193439358914971,-3.649452947329538e-05,critical
1500,3.2323232323232323,4.860759493670886,electrolyte,0.0204194212982552,0.0213750169993787,0.0193062963563346,1.579287798448292e-05,critical
1500,3.333333333333333,4.860759493670886,electrolyte,0.0203988168570427,0.0213299608666203,0.0193170782671971,9.575891838971475e-05,critical
1500,3.4343434343434343,4.860759493670886,electrolyte,0.0202123349232926,0.0212376500747391,0.019000806701071,-2.9045469675823184e-05,critical
1500,3.5353535353535355,4.860759493670886,electrolyte,0.0204382004396708,0.0214646867069965,0.0192276615846199,-2.8161438513396894e-06,critical
1500,3.636363636363636,4.860759493670886,electrolyte,0.0202546050011564,0.0213026772537765,0.0190112632194318,5.0467566911218825e-05,critical
1500,3.7373737373737375,4.860759493670886,electrolyte,0.0202403570188233,0.0212694556438525,0.0190238730213427,-2.573929020549177e-05,critical
1500,3.8383838383838382,4.860759493670886,electrolyte,0.0201642674716503,0.021060551948866,0.0191288286107716,2.8512776125040346e-05,critical
1500,3.939393939393939,4.860759493670886,electrolyte,0.0202209409519609,0.0211924771043231,0.0190840932756095,2.556568915856179e-05,critical
1500,4.040404040404041,4.860759493670886,electrolyte,0.020145498237818,0.0210704895943429,0.0190714149369875,1.580912245075127e-05,critical
1500,4.141414141414141,4.860759493670886,electrolyte,0.0201270140010182,0.0211868642414875,0.018865927065853,5.991380068596293e-06,critical
1500,4.242424242424242,4.860759493670886,electrolyte,0.0201235880014909,0.0211107675966301,0.018964042505657,4.029643489318967e-05,critical
1500,4.343434343434343,4.860759493670886,electrolyte,0.0201598964346264,0.021170379814721,0.0189686583286652,-6.960823480025757e-06,critical
1500,4.444444444444445,4.860759493670886,electrolyte,0.02015821761152,0.0211692178695386,0.0189661850929044,-1.896903425211057e-05,critical
1500,4.545454545454545,4.860759493670886,electrolyte,0.0200060611079654,0.0209052192626613,0.0189655879606829,1.3375408604548398e-05,critical
1500,4.646464646464646,4.860759493670886,electrolyte,0.0202025896860733,0.0213021213854985,0.0188856004886228,2.3823882462127127e-05,critical
1500,4.747474747474747,4.860759493670886,electrolyte,0.019979151962223,0.020872358912159,0.0189464013718072,1.92453992668204e-05,critical
1500,4.848484848484849,4.860759493670886,electrolyte,0.0199875133830412,0.0209678874936805,0.0188356159976734,-6.064209534027927e-05,critical
1500,4.94949494949495,4.860759493670886,electrolyte,0.0199716950147028,0.0207963073307304,0.0190296266156748,-2.219251178010836e-05,critical
1500,5.05050505050505,4.860759493670886,electrolyte,0.0201028238312258,0.0211187455156284,0.0189033583661775,1.1121170796355932e-05,critical
1500,5.151515151515151,4.860759493670886,electrolyte,0.0200063644444553,0.0209795654685844,0.0188643804013368,-6.857298187827253e-05,critical
1500,5.252525252525253,4.860759493670886,electrolyte,0.0199956122701235,0.0208722596616256,0.0189851668316588,4.4301443101186e-06,critical
1500,5.353535353535354,4.860759493670886,electrolyte,0.0200819338165424,0.0209723984526495,0.019053319645525,-4.963497553810812e-05,critical
1500,5.454545454545454,4.860759493670886,electrolyte,0.0199504070336878,0.0209675102255861,0.0187473534565371,3.794481978756902e-05,critical
1500,5.555555555555555,4.860759493670886,electrolyte,0.0201693647020886,0.021106329197759,0.0190793140511774,-8.141453810881735e-06,critical
1500,5.656565656565657,4.860759493670886,electrolyte,0.0201660199168544,0.0212037137439208,0.0189367360408065,-3.702571309338639e-06,critical
1500,5.757575757575758,4.860759493670886,electrolyte,0.0201374941047334,0.0211421461923368,0.0189541424001905,4.421482806705729e-06,critical
1500,5.858585858585858,4.860759493670886,electrolyte,0.0200203678683493,0.0210530819009316,0.0187964216092684,-1.8554149880678088e-06,critical
1500,5.959595959595959,4.860759493670886,electrolyte,0.020021001764425,0.0209471720240094,0.0189439884657579,3.992522167012572e-05,critical
1500,6.0606060606060606,4.860759493670886,electrolyte,0.0202244316544763,0.0212402274724835,0.0190264148826222,2.073218765175989e-05,critical
1500,6.161616161616162,4.860759493670886,electrolyte,0.0201441653291406,0.0211110921216555,0.0190103874760499,0.000121649118955,critical
1500,6.262626262626262,4.860759493670886,electrolyte,0.0202449485385623,0.0211659011197853,0.0191748135978751,-0.0001173359936097,critical
1500,6.363636363636363,4.860759493670886,electrolyte,0.0202950000822656,0.0212654440481684,0.0191604766478841,-5.671304561464999e-06,critical
1500,6.4646464646464645,4.860759493670886,electrolyte,0.0202607530775757,0.0212102333479273,0.0191540465354568,-5.296064141643757e-05,critical
1500,6.565656565656566,4.860759493670886,electrolyte,0.020371991882669,0.0214023604589142,0.019154918291206,4.68726675752801e-05,critical
1500,6.666666666666667,4.860759493670886,electrolyte,0.0204590264623918,0.0214924617155269,0.0192388837928064,-2.6938007282453e-05,critical
1500,6.767676767676767,4.860759493670886,electrolyte,0.0203702040142057,0.021292233936314,0.0193011725662513,-7.258253972173465e-05,critical
1500,6.8686868686868685,4.860759493670886,electrolyte,0.0205245120421139,0.0215831055831388,0.0192691753438399,-6.500120107718989e-05,critical
1500,6.96969696969697,4.860759493670886,electrolyte,0.0205189467416392,0.0215562977760549,0.0192940126981181,2.4211545115511624e-05,critical
1500,7.070707070707071,4.860759493670886,electrolyte,0.0204782686211807,0.0214627018617085,0.0193263382585992,-2.263482611365886e-07,critical
1500,7.171717171717171,4.860759493670886,electrolyte,0.0205778988651741,0.0215232383162335,0.0194801347936694,-4.694142457077657e-06,critical
1500,7.272727272727272,4.860759493670886,electrolyte,0.0207462646166821,0.0217721676031435,0.0195387658155141,7.773439064438385e-05,critical
1500,7.373737373737374,4.860759493670886,electrolyte,0.0208469577776923,0.0218721389468772,0.0196424633391349,2.2419163107032424e-05,critical
1500,7.474747474747475,4.860759493670886,electrolyte,0.0209003376900053,0.0218955680043511,0.0197365492461326,8.123498424835209e-05,critical
1500,7.575757575757575,4.860759493670886,electrolyte,0.020924642561534,0.0219199201354589,0.0197617319983212,4.9339474165177645e-05,critical
1500,7.6767676767676765,4.860759493670886,electrolyte,0.0210070263365807,0.0220699746516985,0.0197517106676659,1.87424924110854e-05,critical
1500,7.777777777777778,4.860759493670886,electrolyte,0.0211072670881085,0.0221483110743739,0.0198835186778486,1.8994729743764444e-05,critical
1500,7.878787878787879,4.860759493670886,electrolyte,0.0211594205840674,0.0221703209590601,0.0199777043414734,-2.1560349904284106e-05,critical
1500,7.979797979797979,4.860759493670886,electrolyte,0.021197937755433,0.0222647428941809,0.0199393830620277,3.129940725753532e-06,critical
1500,8.080808080808081,4.860759493670886,electrolyte,0.0212883479109142,0.0223335607673488,0.0200600401593868,-6.515347566794805e-05,critical
1500,8.181818181818182,4.860759493670886,electrolyte,0.0215075419470929,0.0225794400085366,0.0202449381520303,-4.121167967953877e-05,critical
1500,8.282828282828282,4.860759493670886,electrolyte,0.0216140254071597,0.022605328785345,0.0204628901068011,4.35585713035768e-05,critical
1500,8.383838383838384,4.860759493670886,electrolyte,0.0217292973254256,0.0227447439895055,0.0205465249713572,-3.977041402944279e-05,critical
1500,8.484848484848484,4.860759493670886,electrolyte,0.0218564985261744,0.0228770703332252,0.0206680479832907,2.8051844493038825e-05,critical
1500,8.585858585858587,4.860759493670886,electrolyte,0.0219231623707649,0.0229520379971828,0.0207225435829675,-9.965821149867042e-05,critical
1500,8.686868686868687,4.860759493670886,electrolyte,0.0221854726292466,0.023141884917372,0.0210858867548872,1.734624426400429e-05,critical
1500,8.787878787878787,4.860759493670886,electrolyte,0.0223103893822609,0.0234684304130638,0.0209362645450907,1.0689858416467412e-05,critical
1500,8.88888888888889,4.860759493670886,electrolyte,0.0226624194033663,0.0237762445251678,0.0213534774146046,-5.759707677571287e-05,critical
1500,8.98989898989899,4.860759493670886,electrolyte,0.0225923759666501,0.023669488118081,0.0213332940292016,5.627152577645427e-05,critical
1500,9.09090909090909,4.860759493670886,electrolyte,0.0227826578191688,0.0239136142832673,0.0214504769509621,-8.947958820544873e-05,critical
1500,9.191919191919192,4.860759493670886,electrolyte,0.0228288595928903,0.0239311687982928,0.0215380017654464,-2.946069176482879e-06,critical
1500,9.292929292929292,4.860759493670886,electrolyte,0.0232141932979792,0.0243743252067016,0.0218463389249983,7.8073259892096e-05,critical
1500,9.393939393939394,4.860759493670886,electrolyte,0.0233072907001396,0.0244315460504134,0.0219909106286094,1.9602765562980203e-05,critical
1500,9.494949494949497,4.860759493670886,electrolyte,0.0235484058816068,0.024790730500576,0.0220692265880725,5.3501769660114296e-05,critical
1500,9.595959595959595,4.860759493670886,electrolyte,0.0238574233501131,0.0251009651498168,0.0223806787663214,-4.209339433932694e-06,critical
1500,9.696969696969695,4.860759493670886,electrolyte,0.0239653232669564,0.0250668573401748,0.0226860210388697,-1.901577029527565e-05,critical
1500,9.797979797979798,4.860759493670886,electrolyte,0.0242541526535894,0.0254795141720439,0.022806915093311,-6.329499020325191e-05,critical
1500,9.8989898989899,4.860759493670886,electrolyte,0.0244994782222506,0.0256483171627205,0.0231607239103011,-3.0113139116825577e-05,critical
1500,10.0,4.860759493670886,electrolyte,0.0248317664360809,0.0260321891601123,0.0234256380907953,-2.499255355327988e-05,critical
1500,0.0,4.962025316455696,electrolyte,0.0248769046910584,0.0260518985665669,0.023505746089267,-5.222298754076239e-05,critical
1500,0.101010101010101,4.962025316455696,electrolyte,0.0245126649542059,0.0257099871924831,0.0231077081363011,1.4876125446333883e-06,critical
1500,0.202020202020202,4.962025316455696,electrolyte,0.0243249015475572,0.0255810506288951,0.0228350820991872,7.094795727079724e-05,critical
1500,0.303030303030303,4.962025316455696,electrolyte,0.0240496881333651,0.0251147942230542,0.0228193654639372,7.032826954149784e-05,critical
1500,0.404040404040404,4.962025316455696,electrolyte,0.0238929785645118,0.0250366424591171,0.0225556033072206,-2.7652356239039456e-05,critical
1500,0.5050505050505051,4.962025316455696,electrolyte,0.0234613974178856,0.0245689603663025,0.0221692811137472,2.897845034220769e-05,critical
1500,0.6060606060606061,4.962025316455696,electrolyte,0.0232437387553549,0.0243426431341787,0.0219610249792875,5.742345601391319e-05,critical
1500,0.7070707070707071,4.962025316455696,electrolyte,0.0232420599615422,0.024315562381241,0.021993801273969,6.090905479962955e-05,critical
1500,0.8080808080808081,4.962025316455696,electrolyte,0.0230567978626693,0.0242672759379963,0.0216167653256084,5.97554186197728e-05,critical
1500,0.9090909090909092,4.962025316455696,electrolyte,0.0227432415337479,0.0238013555951059,0.0215105248426885,-9.570633554142775e-05,critical
1500,1.0101010101010102,4.962025316455696,electrolyte,0.0225841140752676,0.0236785472644462,0.021301476430378,-3.5243700760941944e-05,critical
1500,1.1111111111111112,4.962025316455696,electrolyte,0.0224781732833941,0.023477897832371,0.0213227722229325,5.727132182068116e-05,critical
1500,1.2121212121212122,4.962025316455696,electrolyte,0.0223837956318999,0.0234522579749612,0.0211349080275711,-3.098802088445169e-05,critical
1500,1.3131313131313131,4.962025316455696,electrolyte,0.0220231443571551,0.023098112190747,0.0207617150472011,3.517731823149686e-05,critical
1500,1.414141414141414,4.962025316455696,electrolyte,0.0219189459546733,0.0229926762806249,0.0206583570137241,8.75629160418896e-06,critical
1500,1.5151515151515151,4.962025316455696,electrolyte,0.0218269248798735,0.0227739258279307,0.0207370638198585,-2.2282647867455007e-05,critical
1500,1.616161616161616,4.962025316455696,electrolyte,0.0216856030035045,0.0227038693210033,0.0204986689393388,-3.350646233998072e-05,critical
1500,1.7171717171717171,4.962025316455696,electrolyte,0.0215433035270086,0.0224356131343964,0.0205232455490661,4.155187252246772e-05,critical
1500,1.818181818181818,4.962025316455696,electrolyte,0.0213957971760208,0.0223372592584839,0.0203099331968664,2.4782362088578506e-05,critical
1500,1.9191919191919191,4.962025316455696,electrolyte,0.0214983636850591,0.0225184158067993,0.0203074160442706,9.70804844731794e-06,critical
1500,2.0202020202020203,4.962025316455696,electrolyte,0.0211954737587975,0.0221864969103866,0.0200410463006235,3.889177823759547e-05,critical
1500,2.121212121212121,4.962025316455696,electrolyte,0.0211844704532676,0.0221001467986211,0.0201284568373738,-0.000132131432564,critical
1500,2.2222222222222223,4.962025316455696,electrolyte,0.0210935750389457,0.0221458810839619,0.019850602829423,-0.00014319677896,critical
1500,2.323232323232323,4.962025316455696,electrolyte,0.0209859611663595,0.0219496504881263,0.01986685720075,-2.5601718905958795e-05,critical
1500,2.4242424242424243,4.962025316455696,electrolyte,0.0209947310168604,0.0219992697650522,0.0198200485620847,-3.230245150204395e-05,critical
1500,2.525252525252525,4.962025316455696,electrolyte,0.0207894319897716,0.0218104395910584,0.019589767650454,5.051285793943404e-05,critical
1500,2.6262626262626263,4.962025316455696,electrolyte,0.0206865496806599,0.0216599705922186,0.0195509921645241,6.226917280084516e-05,critical
1500,2.727272727272727,4.962025316455696,electrolyte,0.0207335977185705,0.0218392508836729,0.0194146556032629,2.501694066810901e-05,critical
1500,2.8282828282828283,4.962025316455696,electrolyte,0.0205502429194121,0.0214954377034923,0.0194521375488137,-4.162388917360746e-05,critical
1500,2.929292929292929,4.962025316455696,electrolyte,0.020611823149159,0.0215717124169871,0.0194946053441535,1.692703412032015e-05,critical
1500,3.0303030303030303,4.962025316455696,electrolyte,0.0206228860280207,0.0216419973345697,0.0194237766062304,-6.733841345271903e-05,critical
1500,3.131313131313131,4.962025316455696,electrolyte,0.0205421592461633,0.0215450947196365,0.0193652029676806,-3.289498857929368e-05,critical
1500,3.2323232323232323,4.962025316455696,electrolyte,0.02039529481127,0.0213704924227911,0.0192551565127847,2.0232567254776302e-05,critical
1500,3.333333333333333,4.962025316455696,electrolyte,0.0203777820658638,0.0213315953114149,0.0192662588592644,-5.275766126413991e-05,critical
1500,3.4343434343434343,4.962025316455696,electrolyte,0.0202976834892227,0.0212929819774919,0.0191288217669821,3.004705701259112e-05,critical
1500,3.5353535353535355,4.962025316455696,electrolyte,0.0202265915203824,0.0211397960788386,0.0191691256962334,4.264095474100809e-06,critical
1500,3.636363636363636,4.962025316455696,electrolyte,0.0201656991030939,0.0211553856388467,0.0190033921129937,9.230106724104295e-06,critical
1500,3.7373737373737375,4.962025316455696,electrolyte,0.0201026476245229,0.0210965496617626,0.0189337914806214,-2.0382257471817537e-05,critical
1500,3.8383838383838382,4.962025316455696,electrolyte,0.0201990994792836,0.0212229907441541,0.0189894713596818,-2.3352589261659117e-05,critical
1500,3.939393939393939,4.962025316455696,electrolyte,0.0201686330508577,0.021100946944196,0.0190836745323273,8.320126104406399e-05,critical
1500,4.040404040404041,4.962025316455696,electrolyte,0.0200267615666402,0.0210045024267681,0.0188778823919408,-9.684964423374723e-05,critical
1500,4.141414141414141,4.962025316455696,electrolyte,0.0202815010275645,0.0212362267366301,0.0191666070700098,9.92385274871515e-05,critical
1500,4.242424242424242,4.962025316455696,electrolyte,0.0202096315702465,0.0211667606382571,0.0190923826689342,2.7509259969222863e-05,critical
1500,4.343434343434343,4.962025316455696,electrolyte,0.0199953621017306,0.0209927779738637,0.018820102533595,-5.083659269124342e-05,critical
1500,4.444444444444445,4.962025316455696,electrolyte,0.0200896596905105,0.0210711940867751,0.0189377876626175,2.0034110383707815e-05,critical
1500,4.545454545454545,4.962025316455696,electrolyte,0.0199861008923152,0.0208571606435359,0.018982994240992,-1.1087435684791366e-05,critical
1500,4.646464646464646,4.962025316455696,electrolyte,0.0199229370550075,0.0207331423306221,0.0189986827258594,-6.500699363270236e-05,critical
1500,4.747474747474747,4.962025316455696,electrolyte,0.0199741941002223,0.0208350856486695,0.0189833710074187,8.046117219661356e-05,critical
1500,4.848484848484849,4.962025316455696,electrolyte,0.0201557806854594,0.0211858984128364,0.0189368469820081,-3.2384572334402616e-05,critical
1500,4.94949494949495,4.962025316455696,electrolyte,0.0199823734720241,0.0209791031516475,0.0188083190536389,2.065946030373316e-05,critical
1500,5.05050505050505,4.962025316455696,electrolyte,0.0199109807617363,0.0208353689301564,0.0188352787308451,-4.765441345724005e-05,critical
1500,5.151515151515151,4.962025316455696,electrolyte,0.0200860991735282,0.0210573879697419,0.0189483044027423,-2.1208008776278465e-05,critical
1500,5.252525252525253,4.962025316455696,electrolyte,0.0201484723582145,0.0211402146304689,0.018982829477081,-4.296599659796739e-05,critical
1500,5.353535353535354,4.962025316455696,electrolyte,0.0199400390209553,0.0208665943071586,0.0188616941655745,-4.550267667331766e-05,critical
1500,5.454545454545454,4.962025316455696,electrolyte,0.0198743331446065,0.0206673097585509,0.0189726525399795,-3.4486080455364005e-05,critical
1500,5.555555555555555,4.962025316455696,electrolyte,0.020121180775942,0.0211832886707358,0.0188567487990519,-1.978923728396733e-05,critical
1500,5.656565656565657,4.962025316455696,electrolyte,0.020133451826763,0.0210528877107346,0.0190658136520637,7.524452417683158e-05,critical
1500,5.757575757575758,4.962025316455696,electrolyte,0.0202535544329533,0.0212670024324939,0.0190591742135043,1.2347254926347424e-05,critical
1500,5.858585858585858,4.962025316455696,electrolyte,0.0201383119878904,0.0211954336547684,0.0188812245861182,1.005107516184085e-05,critical
1500,5.959595959595959,4.962025316455696,electrolyte,0.0202012595650504,0.0211736250228225,0.0190631179746588,-2.11049199454322e-05,critical
1500,6.0606060606060606,4.962025316455696,electrolyte,0.0200642497858338,0.0210674673494384,0.0188818824552842,-3.603709266049214e-05,critical
1500,6.161616161616162,4.962025316455696,electrolyte,0.0202356103774678,0.0212962242460867,0.018973984487735,-6.557784391888951e-05,critical
1500,6.262626262626262,4.962025316455696,electrolyte,0.020253056427095,0.0211338895017666,0.0192390295497938,-9.587751551461643e-06,critical
1500,6.363636363636363,4.962025316455696,electrolyte,0.0202052593582024,0.0210398036069683,0.0192495621364313,-0.0001162387467645,critical
1500,6.4646464646464645,4.962025316455696,electrolyte,0.0204045552233026,0.0213752035321035,0.0192695142678971,-8.594017751958578e-05,critical
1500,6.565656565656566,4.962025316455696,electrolyte,0.0203218115244751,0.0213150755998699,0.0191558990270691,3.891965358745514e-05,critical
1500,6.666666666666667,4.962025316455696,electrolyte,0.020340783048058,0.0213320909925093,0.0191762297291301,0.000101060619035,critical
1500,6.767676767676767,4.962025316455696,electrolyte,0.0203496321057987,0.0213485007736004,0.019176182244214,4.403624619083038e-05,critical
1500,6.8686868686868685,4.962025316455696,electrolyte,0.0203807911429176,0.0214478999375945,0.0191120373984996,4.942362153338828e-05,critical
1500,6.96969696969697,4.962025316455696,electrolyte,0.0203826395616134,0.021426020754111,0.0191475349580169,4.089244065680188e-05,critical
1500,7.070707070707071,4.962025316455696,electrolyte,0.0205628027534413,0.0214984003898086,0.0194764568333193,-9.649551593034504e-05,critical
1500,7.171717171717171,4.962025316455696,electrolyte,0.0206563255857541,0.0215102719434315,0.0196802333282118,-5.024795672103031e-05,critical
1500,7.272727272727272,4.962025316455696,electrolyte,0.0206397239331577,0.0215909014687815,0.0195343683569971,-3.765256205947262e-05,critical
1500,7.373737373737374,4.962025316455696,electrolyte,0.020760594160527,0.0217694764294459,0.0195761278978442,9.905766854103828e-05,critical
1500,7.474747474747475,4.962025316455696,electrolyte,0.0207772928713335,0.0218761850733248,0.0194677906256898,-6.962889591265169e-05,critical
1500,7.575757575757575,4.962025316455696,electrolyte,0.0208379449035429,0.0218070448467613,0.0197102479196507,1.940897510735242e-05,critical
1500,7.6767676767676765,4.962025316455696,electrolyte,0.0209689852645152,0.0220387581060801,0.0197037284851121,9.553732078259895e-06,critical
1500,7.777777777777778,4.962025316455696,electrolyte,0.0210566908475675,0.0221415626410249,0.0197701070391229,8.03416698321117e-05,critical
1500,7.878787878787879,4.962025316455696,electrolyte,0.0211544184476083,0.022121241515703,0.020032623242379,1.4102329530154344e-05,critical
1500,7.979797979797979,4.962025316455696,electrolyte,0.0212752717363582,0.0223128400011201,0.0200578341660765,-4.037995845920102e-05,critical
1500,8.080808080808081,4.962025316455696,electrolyte,0.0214015198940131,0.0224880710909795,0.0201175350902968,1.87399522984126e-05,critical
1500,8.181818181818182,4.962025316455696,electrolyte,0.0214495676188975,0.0225500885710879,0.0201464686003143,2.523715531024761e-05,critical
1500,8.282828282828282,4.962025316455696,electrolyte,0.0216166735406381,0.022579035440323,0.0205047637401233,-7.846285265952166e-06,critical
1500,8.383838383838384,4.962025316455696,electrolyte,0.0216667313449739,0.0226139029378606,0.0205750271447974,5.3434943131802606e-05,critical
1500,8.484848484848484,4.962025316455696,electrolyte,0.0218756227136969,0.0229647270131211,0.0205931778470322,-2.527235040426796e-05,critical
1500,8.585858585858587,4.962025316455696,electrolyte,0.0219241465918455,0.0230423875185233,0.0206015331862575,-2.531637102704334e-05,critical
1500,8.686868686868687,4.962025316455696,electrolyte,0.0220509771166397,0.0230051222864644,0.0209519865364953,-9.524175264294756e-05,critical
1500,8.787878787878787,4.962025316455696,electrolyte,0.0222882726412248,0.023395228092814,0.0209847323280838,-6.833304622084766e-05,critical
1500,8.88888888888889,4.962025316455696,electrolyte,0.0223545642615161,0.023356099307534,0.021196011559768,-3.835505452427685e-05,critical
1500,8.98989898989899,4.962025316455696,electrolyte,0.0227277016135859,0.0238839632647768,0.0213607770611668,-2.541247799917208e-05,critical
1500,9.09090909090909,4.962025316455696,electrolyte,0.0227234404774081,0.0237031247592209,0.021597128592036,-5.592141624141347e-06,critical
1500,9.191919191919192,4.962025316455696,electrolyte,0.0230603950424973,0.0241723236863297,0.0217582377227154,4.776120716013067e-05,critical
1500,9.292929292929292,4.962025316455696,electrolyte,0.0231153249365762,0.0242268983638539,0.0218142235451852,-4.57180754533247e-05,critical
1500,9.393939393939394,4.962025316455696,electrolyte,0.0234948217903635,0.0246870797405853,0.0220858576054281,4.068791832491756e-05,critical
1500,9.494949494949497,4.962025316455696,electrolyte,0.0236524273066184,0.0247923610621223,0.0223172373737686,6.849170912789847e-05,critical
1500,9.595959595959595,4.962025316455696,electrolyte,0.0238182192415301,0.024951857353086,0.0224922702079753,0.0001065850782779,critical
1500,9.696969696969695,4.962025316455696,electrolyte,0.023995777201441,0.0251027132322741,0.0227090426718271,-5.501144999942802e-05,critical
1500,9.797979797979798,4.962025316455696,electrolyte,0.0243617482017643,0.0255795967036123,0.0229267520848727,-6.2933893384153145e-06,critical
1500,9.8989898989899,4.962025316455696,electrolyte,0.0247480009805329,0.0259822758704675,0.023294256670366,-1.0038350010158715e-05,critical
1500,10.0,4.962025316455696,electrolyte,0.0249026293234045,0.0261906286904738,0.0233743260645841,-8.384885351730539e-05,critical
1500,0.0,5.063291139240507,electrolyte-cathode interface,0.0304134738838947,0.0318204980619801,0.0287776053990141,2.8642045174195288e-05,critical
1500,0.101010101010101,5.063291139240507,electrolyte-cathode interface,0.0301890008675482,0.031621174894587,0.0285166494631909,5.077776236007033e-05,critical
1500,0.202020202020202,5.063291139240507,electrolyte-cathode interface,0.0297204681663325,0.0311651832338542,0.0280251211213311,-0.0001128465894273,critical
1500,0.303030303030303,5.063291139240507,electrolyte-cathode interface,0.0294523528751977,0.030781987456522,0.0279126920033287,5.726058218438197e-06,critical
1500,0.404040404040404,5.063291139240507,electrolyte-cathode interface,0.0291609188146705,0.0305289147810188,0.0275663783417148,6.041177054823455e-05,critical
1500,0.5050505050505051,5.063291139240507,electrolyte-cathode interface,0.0289529903836501,0.0303924612485229,0.0272584959004157,1.9433700943318377e-05,critical
1500,0.6060606060606061,5.063291139240507,electrolyte-cathode interface,0.028549171082133,0.0299791042904807,0.0268628150378486,-8.322102152847792e-05,critical
1500,0.7070707070707071,5.063291139240507,electrolyte-cathode interface,0.0284054454651261,0.0298282835178047,0.0267278146984956,-6.215715209600939e-05,critical
1500,0.8080808080808081,5.063291139240507,electrolyte-cathode interface,0.0282783317836893,0.0295817990316133,0.026763759926137,-2.907807356760789e-05,critical
1500,0.9090909090909092,5.063291139240507,electrolyte-cathode interface,0.0278125964819126,0.0291211751205973,0.0262869414158995,1.842114327485637e-05,critical
1500,1.0101010101010102,5.063291139240507,electrolyte-cathode interface,0.0277613518438019,0.0291618299954045,0.0261083922920797,-1.5021232987966336e-05,critical
1500,1.1111111111111112,5.063291139240507,electrolyte-cathode interface,0.0275354091590241,0.0287663154797651,0.0261123072023444,-6.601289469702878e-06,critical
1500,1.2121212121212122,5.063291139240507,electrolyte-cathode interface,0.0273751809359038,0.0287128282556498,0.0258053775436984,-2.508749108583561e-05,critical
1500,1.3131313131313131,5.063291139240507,electrolyte-cathode interface,0.027177704163421,0.0284745310037628,0.0256621463777175,1.3085032119370478e-05,critical
1500,1.414141414141414,5.063291139240507,electrolyte-cathode interface,0.0268114813749893,0.0280793470914371,0.0253320074803004,2.1817578862024952e-05,critical
1500,1.5151515151515151,5.063291139240507,electrolyte-cathode interface,0.0266082675515409,0.0279142018084703,0.025074531387629,-1.4658197747952335e-05,critical
1500,1.616161616161616,5.063291139240507,electrolyte-cathode interface,0.0265987069667786,0.0279278273793239,0.0250327214442936,-4.10684686815406e-06,critical
1500,1.7171717171717171,5.063291139240507,electrolyte-cathode interface,0.0264193298469472,0.0275916341970412,0.0250655643752051,5.087040920568988e-06,critical
1500,1.818181818181818,5.063291139240507,electrolyte-cathode interface,0.0262815624046763,0.027471928982297,0.0249021275419176,-4.886596721370322e-05,critical
1500,1.9191919191919191,5.063291139240507,electrolyte-cathode interface,0.0261947322496344,0.0274137263516839,0.0247759729179238,-3.87848081596812e-05,critical
1500,2.0202020202020203,5.063291139240507,electrolyte-cathode interface,0.02598961446325,0.0272531408516826,0.0245072025947446,8.49290726901497e-05,critical
1500,2.121212121212121,5.063291139240507,electrolyte-cathode interface,0.0260587483125788,0.0272912670474719,0.024620274947362,4.346051402590339e-05,critical
1500,2.2222222222222223,5.063291139240507,electrolyte-cathode interface,0.0258607237581221,0.0270367776733935,0.0244972855000204,-1.0818650288911127e-05,critical
1500,2.323232323232323,5.063291139240507,electrolyte-cathode interface,0.0257745113524487,0.0270175437363175,0.0243191637877133,6.051040266365237e-06,critical
1500,2.4242424242424243,5.063291139240507,electrolyte-cathode interface,0.0256613012614229,0.0269214993863609,0.0241803156873453,-7.733136249490314e-05,critical
1500,2.525252525252525,5.063291139240507,electrolyte-cathode interface,0.0254855208141642,0.0267046278710766,0.0240585795359039,-0.0001076812644093,critical
1500,2.6262626262626263,5.063291139240507,electrolyte-cathode interface,0.0253964363577735,0.0266886143930942,0.0238684915266365,-5.452887090488741e-05,critical
1500,2.727272727272727,5.063291139240507,electrolyte-cathode interface,0.0252702787533805,0.0265221378386439,0.0237976292614056,3.5488104057341423e-06,critical
1500,2.8282828282828283,5.063291139240507,electrolyte-cathode interface,0.025240040924901,0.0264334496651227,0.0238473322788514,3.832020627127172e-05,critical
1500,2.929292929292929,5.063291139240507,electrolyte-cathode interface,0.0253191648863961,0.026561684668488,0.0238596466398409,-4.7225301329635454e-05,critical
1500,3.0303030303030303,5.063291139240507,electrolyte-cathode interface,0.025125659081552,0.0263567275083301,0.0236795583499053,7.266964863236809e-05,critical
1500,3.131313131313131,5.063291139240507,electrolyte-cathode interface,0.0251702134078274,0.0264200524505076,0.0236976981728869,0.0001064604757973,critical
1500,3.2323232323232323,5.063291139240507,electrolyte-cathode interface,0.0250993681745735,0.0263067760699541,0.0236844551347923,0.000115553892117,critical
1500,3.333333333333333,5.063291139240507,electrolyte-cathode interface,0.0249818184622095,0.0261512833207626,0.0236192581385928,4.542667014035537e-05,critical
1500,3.4343434343434343,5.063291139240507,electrolyte-cathode interface,0.0248726459131694,0.0260893529796755,0.0234436502752077,-7.980133564910855e-05,critical
1500,3.5353535353535355,5.063291139240507,electrolyte-cathode interface,0.0248163144200008,0.0261409557859472,0.0232356234817668,-4.864668143025164e-05,critical
1500,3.636363636363636,5.063291139240507,electrolyte-cathode interface,0.0247393521321381,0.025850719792129,0.023453429011532,-1.3156614156413904e-05,critical
1500,3.7373737373737375,5.063291139240507,electrolyte-cathode interface,0.0248623808782845,0.0260499485026288,0.0234740274905591,4.245231877939909e-05,critical
1500,3.8383838383838382,5.063291139240507,electrolyte-cathode interface,0.0246928966014088,0.0258787567892239,0.0233054608029957,-1.7685715636379353e-05,critical
1500,3.939393939393939,5.063291139240507,electrolyte-cathode interface,0.0247084993599837,0.0258491211169537,0.0233824602332396,-5.620831997971908e-05,critical
1500,4.040404040404041,5.063291139240507,electrolyte-cathode interface,0.0246112508630857,0.0257686820439513,0.023261920147344,-1.6225810313759076e-05,critical
1500,4.141414141414141,5.063291139240507,electrolyte-cathode interface,0.0245222968090697,0.0255924629217017,0.0232896089656048,-2.1988904980530578e-05,critical
1500,4.242424242424242,5.063291139240507,electrolyte-cathode interface,0.024625549278922,0.0257665784161991,0.0232979104730443,-7.28439834440487e-05,critical
1500,4.343434343434343,5.063291139240507,electrolyte-cathode interface,0.0246693251003646,0.0257888586347611,0.0233699018155602,-0.0001171246979268,critical
1500,4.444444444444445,5.063291139240507,electrolyte-cathode interface,0.0245258686008276,0.0257240163822895,0.0231195637570664,-4.837461410730624e-05,critical
1500,4.545454545454545,5.063291139240507,electrolyte-cathode interface,0.0245931086258647,0.0258178578694099,0.0231503450829746,-6.595058189563273e-05,critical
1500,4.646464646464646,5.063291139240507,electrolyte-cathode interface,0.0244413879543205,0.0256103478686959,0.0230747352650059,-6.238128649942248e-06,critical
1500,4.747474747474747,5.063291139240507,electrolyte-cathode interface,0.0245178702076857,0.0257225012607545,0.023102167792774,-6.897309067099043e-05,critical
1500,4.848484848484849,5.063291139240507,electrolyte-cathode interface,0.0245011589599352,0.0256763860221679,0.0231264331284245,-2.0867026808501432e-05,critical
1500,4.94949494949495,5.063291139240507,electrolyte-cathode interface,0.0245872425007391,0.0258544071258114,0.0230856835900624,-6.970418394252317e-07,critical
1500,5.05050505050505,5.063291139240507,electrolyte-cathode interface,0.0244424701616545,0.0256575481800687,0.0230106875529487,-0.0001010806240665,critical
1500,5.151515151515151,5.063291139240507,electrolyte-cathode interface,0.024523376049756,0.025779668126515,0.0230359311980527,5.5435470313882966e-05,critical
1500,5.252525252525253,5.063291139240507,electrolyte-cathode interface,0.0245757145373558,0.0257796983706561,0.023162195023367,-2.57835991481359e-06,critical
1500,5.353535353535354,5.063291139240507,electrolyte-cathode interface,0.0245534031393284,0.0257946642852006,0.0230877608387862,-2.032667117256744e-05,critical
1500,5.454545454545454,5.063291139240507,electrolyte-cathode interface,0.0244878136219136,0.0255770053744887,0.0232295436677276,9.59653549064955e-06,critical
1500,5.555555555555555,5.063291139240507,electrolyte-cathode interface,0.0245060340137281,0.025724231545692,0.02307089773304,-9.01988708949872e-05,critical
1500,5.656565656565657,5.063291139240507,electrolyte-cathode interface,0.0246611781166645,0.0258436029495585,0.0232776093746058,-6.347908557705631e-05,critical
1500,5.757575757575758,5.063291139240507,electrolyte-cathode interface,0.0245488517706191,0.0256954119654171,0.0232136608652762,-2.860987023379931e-05,critical
1500,5.858585858585858,5.063291139240507,electrolyte-cathode interface,0.0247280513152907,0.0259410169729439,0.0233029978882391,-6.810144661916529e-05,critical
1500,5.959595959595959,5.063291139240507,electrolyte-cathode interface,0.0246073319661119,0.0257545979583983,0.0232718311560289,3.246703242834428e-07,critical
1500,6.0606060606060606,5.063291139240507,electrolyte-cathode interface,0.0246233432326482,0.0258137041057753,0.0232290868545044,1.9068037320649616e-06,critical
1500,6.161616161616162,5.063291139240507,electrolyte-cathode interface,0.0247075616369606,0.0258586468856111,0.0233677805692279,5.157537429144721e-07,critical
1500,6.262626262626262,5.063291139240507,electrolyte-cathode interface,0.0247747300925308,0.0260008908295898,0.0233320029692312,6.171630777723531e-05,critical
1500,6.363636363636363,5.063291139240507,electrolyte-cathode interface,0.0248111418819507,0.0261188706426959,0.0232546876647281,3.18245381127789e-05,critical
1500,6.4646464646464645,5.063291139240507,electrolyte-cathode interface,0.0247945462945243,0.0259558886267191,0.0234412616827947,4.966479572289114e-05,critical
1500,6.565656565656566,5.063291139240507,electrolyte-cathode interface,0.0248397409154074,0.0259347188280709,0.023575517973149,-8.654519233484139e-05,critical
1500,6.666666666666667,5.063291139240507,electrolyte-cathode interface,0.0249350667032311,0.0261511166166643,0.0235081639020061,5.038782143268661e-05,critical
1500,6.767676767676767,5.063291139240507,electrolyte-cathode interface,0.0249887843514728,0.026181062429423,0.0235946738222292,-7.3731484309479e-05,critical
1500,6.8686868686868685,5.063291139240507,electrolyte-cathode interface,0.025054974657552,0.0263612228164123,0.0235036630294685,-1.6421864707473205e-05,critical
1500,6.96969696969697,5.063291139240507,electrolyte-cathode interface,0.0250782059736781,0.0262563441657788,0.0237049423272251,-2.337621931434398e-05,critical
1500,7.070707070707071,5.063291139240507,electrolyte-cathode interface,0.0252422992273879,0.0264650930315843,0.0238093943353304,3.213829236631754e-05,critical
1500,7.171717171717171,5.063291139240507,electrolyte-cathode interface,0.0253155668009318,0.0265560709642449,0.0238590498122658,-2.144298045926002e-05,critical
1500,7.272727272727272,5.063291139240507,electrolyte-cathode interface,0.0253277458411012,0.0265463670896036,0.0239008376528184,-7.181761572653144e-05,critical
1500,7.373737373737374,5.063291139240507,electrolyte-cathode interface,0.0253996363916345,0.0265927022040239,0.0240085585789478,6.13240420520783e-05,critical
1500,7.474747474747475,5.063291139240507,electrolyte-cathode interface,0.0255512634138379,0.0267926390832589,0.0240959811002009,7.589269378214021e-06,critical
1500,7.575757575757575,5.063291139240507,electrolyte-cathode interface,0.0255387566717365,0.0266861139858755,0.0242111409294325,-2.1088204571046564e-05,critical
1500,7.6767676767676765,5.063291139240507,electrolyte-cathode interface,0.0257206558647031,0.0270146977732459,0.0241940876568459,-1.0499724436685062e-05,critical
1500,7.777777777777778,5.063291139240507,electrolyte-cathode interface,0.0259251245142872,0.0271583356550642,0.0244839480806078,-7.405414365757423e-05,critical
1500,7.878787878787879,5.063291139240507,electrolyte-cathode interface,0.0259655227932929,0.0271759046092202,0.0245565640982639,1.3973213110558671e-05,critical
1500,7.979797979797979,5.063291139240507,electrolyte-cathode interface,0.0260924485773973,0.027346693441291,0.024624665056452,-3.300425724761043e-05,critical
1500,8.080808080808081,5.063291139240507,electrolyte-cathode interface,0.0262658186593364,0.0275433637716737,0.024767809194922,-1.5791912202537494e-05,critical
1500,8.181818181818182,5.063291139240507,electrolyte-cathode interface,0.0263261427612346,0.0276139787020189,0.0248145400072086,1.5878911071474447e-05,critical
1500,8.282828282828282,5.063291139240507,electrolyte-cathode interface,0.0264345221609287,0.027791347446669,0.0248274029883719,6.327842299275874e-05,critical
1500,8.383838383838384,5.063291139240507,electrolyte-cathode interface,0.026656915430793,0.0278212965785465,0.0253151897607395,5.5276958657843617e-05,critical
1500,8.484848484848484,5.063291139240507,electrolyte-cathode interface,0.0267705149450916,0.02811923803779,0.0251789854588357,-2.235717836060976e-05,critical
1500,8.585858585858587,5.063291139240507,electrolyte-cathode interface,0.0268904219959948,0.0281716131642828,0.0253930097292866,-6.353713710686598e-05,critical
1500,8.686868686868687,5.063291139240507,electrolyte-cathode interface,0.026983067316542,0.0282884228541822,0.025453928728769,4.67911678776188e-06,critical
1500,8.787878787878787,5.063291139240507,electrolyte-cathode interface,0.0273558591174459,0.0286545096257948,0.0258395233959469,1.7033502740398566e-06,critical
1500,8.88888888888889,5.063291139240507,electrolyte-cathode interface,0.0275258566625115,0.028850223481383,0.0259759034458304,1.2244662958574063e-05,critical
1500,8.98989898989899,5.063291139240507,electrolyte-cathode interface,0.0277622223536909,0.0290570318779806,0.0262528670849712,-0.0001255043864134,critical
1500,9.09090909090909,5.063291139240507,electrolyte-cathode interface,0.0280361919587564,0.0294122894482747,0.0264193310387783,7.582428134160035e-05,critical
1500,9.191919191919192,5.063291139240507,electrolyte-cathode interface,0.0281656622350338,0.0294565475073345,0.0266668319075419,5.542278613462005e-05,critical
1500,9.292929292929292,5.063291139240507,electrolyte-cathode interface,0.0284871719060243,0.0297305749002594,0.0270547864522942,3.985120098375062e-05,critical
1500,9.393939393939394,5.063291139240507,electrolyte-cathode interface,0.0286244626568556,0.0299874919841668,0.0270319155218778,-4.115069988328763e-05,critical
1500,9.494949494949497,5.063291139240507,electrolyte-cathode interface,0.0288312239452443,0.0302761208610511,0.027127827692148,-2.789503078141076e-05,critical
1500,9.595959595959595,5.063291139240507,electrolyte-cathode interface,0.0291083713372974,0.0304695066318469,0.0275230793175019,-2.0001648317734493e-05,critical
1500,9.696969696969695,5.063291139240507,electrolyte-cathode interface,0.0295379569692324,0.0309483801615,0.0278890747871613,5.7340146491655256e-05,critical
1500,9.797979797979798,5.063291139240507,electrolyte-cathode interface,0.0297865789244495,0.0311853586860721,0.0281557902790243,-6.728137008517878e-05,critical
1500,9.8989898989899,5.063291139240507,electrolyte-cathode interface,0.0300443359435381,0.0315032594180083,0.0283316390188747,0.0001460280600869,critical
1500,10.0,5.063291139240507,electrolyte-cathode interface,0.0305020259797656,0.031903396939894,0.0288744974101714,4.001746494600712e-05,critical
1500,0.0,5.1645569620253164,electrolyte-cathode interface,0.0304472604895692,0.0319089647299049,0.0287367528663228,-6.508852624212794e-05,critical
1500,0.101010101010101,5.1645569620253164,electrolyte-cathode interface,0.0300024525544563,0.0315010808738087,0.0282368546185554,-1.3481788040489157e-05,critical
1500,0.202020202020202,5.1645569620253164,electrolyte-cathode interface,0.0296857363829326,0.0310639618707226,0.0280822005405456,5.045502727870943e-05,critical
1500,0.303030303030303,5.1645569620253164,electrolyte-cathode interface,0.0294403239040404,0.0308262850651912,0.0278243365238831,-3.962117340828592e-06,critical
1500,0.404040404040404,5.1645569620253164,electrolyte-cathode interface,0.0291654432548411,0.0305262069368292,0.027581224160262,3.696146323757454e-07,critical
1500,0.5050505050505051,5.1645569620253164,electrolyte-cathode interface,0.0289810914613994,0.0303749347910325,0.0273498945262192,2.258992938271935e-05,critical
1500,0.6060606060606061,5.1645569620253164,electrolyte-cathode interface,0.0286369566939024,0.0300419085783108,0.0269858743261152,-9.79352284401226e-05,critical
1500,0.7070707070707071,5.1645569620253164,electrolyte-cathode interface,0.0283894124880293,0.0297578171029037,0.026787396258978,-1.7348273435297995e-05,critical
1500,0.8080808080808081,5.1645569620253164,electrolyte-cathode interface,0.0281805136553497,0.0293862643862391,0.0267957647464109,-3.283405704160444e-05,critical
1500,0.9090909090909092,5.1645569620253164,electrolyte-cathode interface,0.0279160913844156,0.0292631204452738,0.026338799049692,-1.8740183092100028e-05,critical
1500,1.0101010101010102,5.1645569620253164,electrolyte-cathode interface,0.0276916208565726,0.0289652003637322,0.0262120788499968,5.1870848171087126e-05,critical
1500,1.1111111111111112,5.1645569620253164,electrolyte-cathode interface,0.0273616302183586,0.0286919895202947,0.0258016307310103,-3.8797485912006806e-05,critical
1500,1.2121212121212122,5.1645569620253164,electrolyte-cathode interface,0.0272752353666548,0.0286576660676378,0.0256415307128349,-7.0633317033597e-05,critical
1500,1.3131313131313131,5.1645569620253164,electrolyte-cathode interface,0.0271197761420367,0.0283595559837653,0.0256805726395324,7.226979436635692e-05,critical
1500,1.414141414141414,5.1645569620253164,electrolyte-cathode interface,0.0269973468795371,0.0282936634743716,0.0254805086175068,4.458066017962973e-05,critical
1500,1.5151515151515151,5.1645569620253164,electrolyte-cathode interface,0.0267997216716267,0.0281857636361425,0.0251559053074415,4.70430155338902e-05,critical
1500,1.616161616161616,5.1645569620253164,electrolyte-cathode interface,0.0265617665720715,0.0277451668256001,0.0251937046623299,6.817978040971699e-05,critical
1500,1.7171717171717171,5.1645569620253164,electrolyte-cathode interface,0.0265061309573022,0.0279244842176479,0.0248131504252727,7.139501054558623e-06,critical
1500,1.818181818181818,5.1645569620253164,electrolyte-cathode interface,0.02627200941305,0.0275268636171412,0.0248048357782189,-5.6896194668019096e-05,critical
1500,1.9191919191919191,5.1645569620253164,electrolyte-cathode interface,0.0260976218419149,0.0272998936808478,0.0247001801968773,7.085744450442113e-05,critical
1500,2.0202020202020203,5.1645569620253164,electrolyte-cathode interface,0.0261017341963615,0.0273584817548957,0.024630514711892,4.177922451932472e-05,critical
1500,2.121212121212121,5.1645569620253164,electrolyte-cathode interface,0.0257454400545458,0.0269531663530807,0.0243377429031708,5.16741463373472e-05,critical
1500,2.2222222222222223,5.1645569620253164,electrolyte-cathode interface,0.0257413302138395,0.0269810520483903,0.0242901648277872,-1.83090270630068e-05,critical
1500,2.323232323232323,5.1645569620253164,electrolyte-cathode interface,0.025713734029345,0.0269542498216593,0.0242604237234066,-7.723743534967195e-05,critical
1500,2.4242424242424243,5.1645569620253164,electrolyte-cathode interface,0.0255047132382831,0.0266637075606129,0.0241607328115014,-6.00017677193815e-05,critical
1500,2.525252525252525,5.1645569620253164,electrolyte-cathode interface,0.0255612332380676,0.0267128391821461,0.0242281359360616,1.4088844316267508e-05,critical
1500,2.6262626262626263,5.1645569620253164,electrolyte-cathode interface,0.0255450233906074,0.0267792945424594,0.0240992183751281,4.2208424810509e-05,critical
1500,2.727272727272727,5.1645569620253164,electrolyte-cathode interface,0.025446854287458,0.0266808197981198,0.0240006043161803,3.182918736459962e-05,critical
1500,2.8282828282828283,5.1645569620253164,electrolyte-cathode interface,0.025216475469408,0.0264881217460318,0.0237156612775261,1.60711238436591e-05,critical
1500,2.929292929292929,5.1645569620253164,electrolyte-cathode interface,0.0252281175072222,0.0264919702936492,0.0237381043911821,4.073978686751085e-05,critical
1500,3.0303030303030303,5.1645569620253164,electrolyte-cathode interface,0.0251982496048633,0.0263884592770212,0.0238097202859416,4.250570371842486e-06,critical
1500,3.131313131313131,5.1645569620253164,electrolyte-cathode interface,0.0249970445786772,0.0262328993151304,0.023543489775789,-4.209981393553914e-05,critical
1500,3.2323232323232323,5.1645569620253164,electrolyte-cathode interface,0.0250540780326426,0.0262808860822051,0.0236132333950381,-6.772079661003821e-05,critical
1500,3.333333333333333,5.1645569620253164,electrolyte-cathode interface,0.024922085895176,0.0262252722902931,0.0233734957589414,2.194939264775139e-05,critical
1500,3.4343434343434343,5.1645569620253164,electrolyte-cathode interface,0.0249048622952373,0.0261924469357091,0.0233774274056717,-7.258138832152945e-05,critical
1500,3.5353535353535355,5.1645569620253164,electrolyte-cathode interface,0.0248107976636442,0.025966908992719,0.0234650648338214,2.0440668537255185e-05,critical
1500,3.636363636363636,5.1645569620253164,electrolyte-cathode interface,0.0248512129867438,0.0260126130235389,0.023498597240698,-2.941053016521802e-05,critical
1500,3.7373737373737375,5.1645569620253164,electrolyte-cathode interface,0.0248339873410765,0.0261180240992372,0.023311477018471,-1.293809554900488e-05,critical
1500,3.8383838383838382,5.1645569620253164,electrolyte-cathode interface,0.0247207114433232,0.0257774770137468,0.0235072528375995,2.573439029576161e-05,critical
1500,3.939393939393939,5.1645569620253164,electrolyte-cathode interface,0.0246673289627392,0.0258863151794975,0.0232325994665332,9.75001556474082e-05,critical
1500,4.040404040404041,5.1645569620253164,electrolyte-cathode interface,0.0246708233710296,0.0258744666171433,0.0232578366465504,-7.885747353326953e-05,critical
1500,4.141414141414141,5.1645569620253164,electrolyte-cathode interface,0.0247371386764627,0.0259602384270471,0.0232981108435767,-6.974770928681889e-05,critical
1500,4.242424242424242,5.1645569620253164,electrolyte-cathode interface,0.0246766226206888,0.0258902419218766,0.0232507825436531,1.3823005886385873e-05,critical
1500,4.343434343434343,5.1645569620253164,electrolyte-cathode interface,0.0246501714940883,0.0258285632147516,0.0232719886012778,-6.545281410327539e-05,critical
1500,4.444444444444445,5.1645569620253164,electrolyte-cathode interface,0.0244671751019354,0.0255885700303013,0.0231649642335113,-5.911252518541696e-05,critical
1500,4.545454545454545,5.1645569620253164,electrolyte-cathode interface,0.0243652410029116,0.0255401746305203,0.0229896242949695,1.4639355813095037e-05,critical
1500,4.646464646464646,5.1645569620253164,electrolyte-cathode interface,0.0245290658910551,0.0256951010976112,0.0231671940884754,2.1333772360559356e-05,critical
1500,4.747474747474747,5.1645569620253164,electrolyte-cathode interface,0.0245140600910968,0.0256254167144589,0.0232248702749538,-9.923038302175252e-05,critical
1500,4.848484848484849,5.1645569620253164,electrolyte-cathode interface,0.0246375794407495,0.0257872152882726,0.0232991328130641,2.034310961734972e-06,critical
1500,4.94949494949495,5.1645569620253164,electrolyte-cathode interface,0.0244402204967969,0.0255915896949752,0.0230970988251063,5.892638282454878e-05,critical
1500,5.05050505050505,5.1645569620253164,electrolyte-cathode interface,0.0245438453010832,0.0257976911094667,0.0230605158817504,-7.033110607691447e-06,critical
1500,5.151515151515151,5.1645569620253164,electrolyte-cathode interface,0.0246390900352557,0.0258473781202396,0.0232195946050009,-6.799511831049319e-05,critical
1500,5.252525252525253,5.1645569620253164,electrolyte-cathode interface,0.0246204760263903,0.0259813758979714,0.0229846314606661,7.074057683479071e-05,critical
1500,5.353535353535354,5.1645569620253164,electrolyte-cathode interface,0.024536963668559,0.0257806596491551,0.0230646898318873,-0.0001451155340389,critical
1500,5.454545454545454,5.1645569620253164,electrolyte-cathode interface,0.0245336619627006,0.0257752566447082,0.0230673956461949,2.2514509154443745e-06,critical
1500,5.555555555555555,5.1645569620253164,electrolyte-cathode interface,0.0245468454101311,0.0256827321713561,0.0232261542358644,2.412347001253056e-05,critical
1500,5.656565656565657,5.1645569620253164,electrolyte-cathode interface,0.024542117096034,0.0258575881248623,0.0229712721811326,-3.1607301812278725e-05,critical
1500,5.757575757575758,5.1645569620253164,electrolyte-cathode interface,0.0246322247326033,0.025871919626851,0.0231696304261673,-2.0913980195212423e-05,critical
1500,5.858585858585858,5.1645569620253164,electrolyte-cathode interface,0.0246565910341406,0.0258467232264521,0.0232629348950055,1.712324890202848e-05,critical
1500,5.959595959595959,5.1645569620253164,electrolyte-cathode interface,0.0246471536152506,0.02588460365209,0.0231874466939663,-5.674004971008453e-05,critical
1500,6.0606060606060606,5.1645569620253164,electrolyte-cathode interface,0.0246086270549484,0.0257487507751269,0.0232824766148595,4.942844052027143e-05,critical
1500,6.161616161616162,5.1645569620253164,electrolyte-cathode interface,0.0246689478463042,0.0258966625008153,0.0232232895233627,3.818298862087294e-05,critical
1500,6.262626262626262,5.1645569620253164,electrolyte-cathode interface,0.0248252857137055,0.0260581041237166,0.0233743981938362,-3.229284616143764e-06,critical
1500,6.363636363636363,5.1645569620253164,electrolyte-cathode interface,0.0247843607667389,0.0259423523843292,0.0234358722352787,-1.2109453076230676e-05,critical
1500,6.4646464646464645,5.1645569620253164,electrolyte-cathode interface,0.024844232107851,0.0260508584664559,0.023426701229661,-0.0001460476583224,critical
1500,6.565656565656566,5.1645569620253164,electrolyte-cathode interface,0.0248594638602984,0.0261332767616024,0.0233501805704861,0.0001009747997798,critical
1500,6.666666666666667,5.1645569620253164,electrolyte-cathode interface,0.024917587158286,0.0261446108022639,0.0234756498122142,1.887991696240757e-05,critical
1500,6.767676767676767,5.1645569620253164,electrolyte-cathode interface,0.0250439735803451,0.0263042834902262,0.0235570396249974,2.717444611237487e-05,critical
1500,6.8686868686868685,5.1645569620253164,electrolyte-cathode interface,0.0250517084434507,0.0261371646696137,0.0238023919762874,5.742761020297359e-05,critical
1500,6.96969696969697,5.1645569620253164,electrolyte-cathode interface,0.0250583630854673,0.0263368724695887,0.0235462208314169,1.7107191613432018e-06,critical
1500,7.070707070707071,5.1645569620253164,electrolyte-cathode interface,0.0252278708460871,0.0264697859661061,0.0237685670581151,-6.023887834869296e-07,critical
1500,7.171717171717171,5.1645569620253164,electrolyte-cathode interface,0.0252480038687144,0.0264575713226903,0.0238327681750391,-7.057852000443227e-05,critical
1500,7.272727272727272,5.1645569620253164,electrolyte-cathode interface,0.0253270140129403,0.0265961399617276,0.0238308480726737,2.7257002214963862e-05,critical
1500,7.373737373737374,5.1645569620253164,electrolyte-cathode interface,0.0254870529687051,0.0266320466568089,0.0241622159581815,1.344890964284483e-05,critical
1500,7.474747474747475,5.1645569620253164,electrolyte-cathode interface,0.0255865387137815,0.0268835330783433,0.024053584887316,7.530298144170647e-05,critical
1500,7.575757575757575,5.1645569620253164,electrolyte-cathode interface,0.0257438864722645,0.0269909423327596,0.0242826943865862,-9.658959884579515e-06,critical
1500,7.6767676767676765,5.1645569620253164,electrolyte-cathode interface,0.0257151677208001,0.0269191256502206,0.0243126510050147,1.666872148018824e-05,critical
1500,7.777777777777778,5.1645569620253164,electrolyte-cathode interface,0.0258315652333968,0.0271532220669957,0.0242675617717399,-8.817691047302512e-06,critical
1500,7.878787878787879,5.1645569620253164,electrolyte-cathode interface,0.0259679996476877,0.0271771820553982,0.0245606854938041,1.5603151185164353e-05,critical
1500,7.979797979797979,5.1645569620253164,electrolyte-cathode interface,0.0259689561993583,0.0271983416636162,0.0245324296326782,0.0001128363701485,critical
1500,8.080808080808081,5.1645569620253164,electrolyte-cathode interface,0.0262334210699274,0.0274965436933923,0.0247546076768053,-5.169240753671012e-05,critical
1500,8.181818181818182,5.1645569620253164,electrolyte-cathode interface,0.0262286927871429,0.0274885622525455,0.0247540678424171,6.61582780915931e-05,critical
1500,8.282828282828282,5.1645569620253164,electrolyte-cathode interface,0.0264184200824679,0.0277008651095812,0.024914174004762,8.774758784408379e-05,critical
1500,8.383838383838384,5.1645569620253164,electrolyte-cathode interface,0.0265895460408331,0.0279515695063396,0.0249771839434499,4.280230867814092e-05,critical
1500,8.484848484848484,5.1645569620253164,electrolyte-cathode interface,0.0268251723527011,0.0283357578936863,0.0250029237287111,4.201098995585634e-05,critical
1500,8.585858585858587,5.1645569620253164,electrolyte-cathode interface,0.0268887656173971,0.0281964732785029,0.0253554482946642,-4.938405826525565e-06,critical
1500,8.686868686868687,5.1645569620253164,electrolyte-cathode interface,0.0271373759612887,0.0284857186354092,0.0255503732501074,-7.70499988809952e-06,critical
1500,8.787878787878787,5.1645569620253164,electrolyte-cathode interface,0.0272461632686552,0.0285030976042021,0.0257855444257339,1.194487663202296e-05,critical
1500,8.88888888888889,5.1645569620253164,electrolyte-cathode interface,0.0274390900267637,0.0286958174019091,0.0259803210986333,-3.261407872209879e-05,critical
1500,8.98989898989899,5.1645569620253164,electrolyte-cathode interface,0.0276905400985783,0.0290768374534458,0.0260550812813338,0.0001089913354566,critical
1500,9.09090909090909,5.1645569620253164,electrolyte-cathode interface,0.0278485280126447,0.0290773817624524,0.0264305985552028,2.8558274480069875e-05,critical
1500,9.191919191919192,5.1645569620253164,electrolyte-cathode interface,0.0280705527458656,0.0294795490344784,0.026409088182352,-7.99138014956672e-06,critical
1500,9.292929292929292,5.1645569620253164,electrolyte-cathode interface,0.0282734970210708,0.0296697373333668,0.0266319019464841,1.4770720366711927e-05,critical
1500,9.393939393939394,5.1645569620253164,electrolyte-cathode interface,0.028621311191735,0.0300854226649817,0.0268882591102653,-6.57253899478605e-05,critical
1500,9.494949494949497,5.1645569620253164,electrolyte-cathode interface,0.028983386551016,0.0304874134075239,0.0271988117686754,1.1204783897211736e-05,critical
1500,9.595959595959595,5.1645569620253164,electrolyte-cathode interface,0.0292459956697692,0.0306800289111218,0.0275621271389374,5.591080846932738e-06,critical
1500,9.696969696969695,5.1645569620253164,electrolyte-cathode interface,0.029555700008622,0.0310757756912016,0.0277550532421458,-2.826402727908282e-05,critical
1500,9.797979797979798,5.1645569620253164,electrolyte-cathode interface,0.0296993231032125,0.031057194556875,0.0281236977009277,-2.0312793245963264e-05,critical
1500,9.8989898989899,5.1645569620253164,electrolyte-cathode interface,0.0299948630875656,0.0315330928821426,0.0281736502049048,3.477451126456652e-05,critical
1500,10.0,5.1645569620253164,electrolyte-cathode interface,0.0302746539893778,0.031689685192198,0.0286267081500782,-2.218446219847106e-05,critical
1500,0.0,5.265822784810126,electrolyte-cathode interface,0.0304346980678354,0.031804371464479,0.0288491808636089,-5.04326636135023e-05,critical
1500,0.101010101010101,5.265822784810126,electrolyte-cathode interface,0.0300909053080445,0.0316230010959028,0.028279255811624,-4.834669675841664e-05,critical
1500,0.202020202020202,5.265822784810126,electrolyte-cathode interface,0.0296780720303836,0.0310700678161277,0.0280555963990758,6.22863688215358e-05,critical
1500,0.303030303030303,5.265822784810126,electrolyte-cathode interface,0.0293662554061775,0.0307189016527517,0.0277948126520731,1.3463299046665514e-05,critical
1500,0.404040404040404,5.265822784810126,electrolyte-cathode interface,0.0291201003495214,0.0305340083732737,0.0274627195970082,1.3159167500133217e-05,critical
1500,0.5050505050505051,5.265822784810126,electrolyte-cathode interface,0.0289381229732169,0.0302318814245197,0.027440567178572,-0.0001204890440914,critical
1500,0.6060606060606061,5.265822784810126,electrolyte-cathode interface,0.0287685119556695,0.0301774342682043,0.0271144785003504,-7.946628338741435e-06,critical
1500,0.7070707070707071,5.265822784810126,electrolyte-cathode interface,0.0283429482238874,0.0297174414967192,0.02673212613962,8.398483014797006e-06,critical
1500,0.8080808080808081,5.265822784810126,electrolyte-cathode interface,0.0280067568379495,0.029294470013562,0.0265110075032562,-4.0210696328283496e-05,critical
1500,0.9090909090909092,5.265822784810126,electrolyte-cathode interface,0.0279145556579205,0.0292560780637224,0.0263441249950247,7.565167973509408e-05,critical
1500,1.0101010101010102,5.265822784810126,electrolyte-cathode interface,0.0276661054212182,0.0290047864003286,0.0260971103178267,7.680829562833998e-05,critical
1500,1.1111111111111112,5.265822784810126,electrolyte-cathode interface,0.0275168392322972,0.0287744636520295,0.0260576365044103,-1.6094844917773216e-05,critical
1500,1.2121212121212122,5.265822784810126,electrolyte-cathode interface,0.0274032363603039,0.0287318783082277,0.0258454832743426,7.484755907078741e-05,critical
1500,1.3131313131313131,5.265822784810126,electrolyte-cathode interface,0.0270834933783268,0.0284753153952532,0.0254338967136544,-9.514081754464198e-05,critical
1500,1.414141414141414,5.265822784810126,electrolyte-cathode interface,0.0269563487419846,0.0282058678907834,0.025502956627082,4.465703451941882e-05,critical
1500,1.5151515151515151,5.265822784810126,electrolyte-cathode interface,0.0266756675500735,0.0279824224706435,0.025141404373392,2.861661286287019e-05,critical
1500,1.616161616161616,5.265822784810126,electrolyte-cathode interface,0.0267032841170133,0.0280240900042247,0.0251499275592284,-1.5698770229241357e-05,critical
1500,1.7171717171717171,5.265822784810126,electrolyte-cathode interface,0.0264833651305162,0.027764465801056,0.0249821895910949,-5.893270250980805e-05,critical
1500,1.818181818181818,5.265822784810126,electrolyte-cathode interface,0.0263978205832793,0.0277703923808585,0.0247681658696968,-5.739560673402313e-05,critical
1500,1.9191919191919191,5.265822784810126,electrolyte-cathode interface,0.0260496738219381,0.0273087386236223,0.024574886856188,-2.827768459538313e-05,critical
1500,2.0202020202020203,5.265822784810126,electrolyte-cathode interface,0.0259217754762898,0.0272147003087766,0.024398743642996,3.801642110328103e-05,critical
1500,2.121212121212121,5.265822784810126,electrolyte-cathode interface,0.0259381652063121,0.0272142705064866,0.0244388348754732,1.0135145975756245e-05,critical
1500,2.2222222222222223,5.265822784810126,electrolyte-cathode interface,0.025804389958443,0.0270686579162729,0.0243199227517724,-3.3299674301029897e-05,critical
1500,2.323232323232323,5.265822784810126,electrolyte-cathode interface,0.0257544448126511,0.0269905955638474,0.0243074361654667,8.145451618717988e-05,critical
1500,2.4242424242424243,5.265822784810126,electrolyte-cathode interface,0.0256214305918294,0.0269366400705946,0.0240638719268569,-4.103642947179421e-05,critical
1500,2.525252525252525,5.265822784810126,electrolyte-cathode interface,0.0255330115940211,0.0267702645166275,0.0240832031603798,1.4869623700083871e-05,critical
1500,2.6262626262626263,5.265822784810126,electrolyte-cathode interface,0.0254259825240397,0.0267059238461859,0.0239154358660846,5.760543285409806e-05,critical
1500,2.727272727272727,5.265822784810126,electrolyte-cathode interface,0.0253676209467429,0.026512192901969,0.0240420762467746,4.673681285402876e-05,critical
1500,2.8282828282828283,5.265822784810126,electrolyte-cathode interface,0.0251888614651785,0.0264248737502845,0.0237371801765086,-3.1915583659829555e-05,critical
1500,2.929292929292929,5.265822784810126,electrolyte-cathode interface,0.025207114699155,0.026488367886597,0.0236926497293253,-3.1460042421021184e-05,critical
1500,3.0303030303030303,5.265822784810126,electrolyte-cathode interface,0.0251364303627273,0.026363586381137,0.0236963102913557,-4.4893803354980126e-05,critical
1500,3.131313131313131,5.265822784810126,electrolyte-cathode interface,0.0249769186161472,0.0261319125542866,0.0236339693300749,4.443482886596897e-05,critical
1500,3.2323232323232323,5.265822784810126,electrolyte-cathode interface,0.0250877397617301,0.0263221422153057,0.0236373924098887,-2.723523315495028e-07,critical
1500,3.333333333333333,5.265822784810126,electrolyte-cathode interface,0.0249834338504901,0.0262435853803262,0.0234944753204431,-0.000108153906464,critical
1500,3.4343434343434343,5.265822784810126,electrolyte-cathode interface,0.0248929214995222,0.0261049574190856,0.0234711410007743,4.9717379395394135e-05,critical
1500,3.5353535353535355,5.265822784810126,electrolyte-cathode interface,0.0248691145042522,0.026029963915946,0.0235174001437928,3.05634677390527e-05,critical
1500,3.636363636363636,5.265822784810126,electrolyte-cathode interface,0.0248465663786474,0.026007161163766,0.0234949594507612,-3.4187666457868164e-05,critical
1500,3.7373737373737375,5.265822784810126,electrolyte-cathode interface,0.0247885430681907,0.0260783540037704,0.0232557954925125,0.0001035429074368,critical
1500,3.8383838383838382,5.265822784810126,electrolyte-cathode interface,0.0246851747729276,0.0258648797434207,0.0233061390786564,8.470095953720383e-06,critical
1500,3.939393939393939,5.265822784810126,electrolyte-cathode interface,0.0246562909947172,0.0258672510384748,0.0232337958773776,-3.250125050154903e-05,critical
1500,4.040404040404041,5.265822784810126,electrolyte-cathode interface,0.0246512575202301,0.0257959356490855,0.023319338192899,-4.766188353163372e-05,critical
1500,4.141414141414141,5.265822784810126,electrolyte-cathode interface,0.0246554631109276,0.025865063927945,0.0232349262952712,-2.1472922647763004e-05,critical
1500,4.242424242424242,5.265822784810126,electrolyte-cathode interface,0.0244956973877282,0.0256761542299713,0.0231126225935525,-8.987711807479435e-05,critical
1500,4.343434343434343,5.265822784810126,electrolyte-cathode interface,0.0245083058399012,0.0256940545453144,0.0231166848898941,0.0001327382558171,critical
1500,4.444444444444445,5.265822784810126,electrolyte-cathode interface,0.0246795980538935,0.0258599920932092,0.0232993840658206,3.632681769280964e-05,critical
1500,4.545454545454545,5.265822784810126,electrolyte-cathode interface,0.0244692394176504,0.0255412181116514,0.0232337611669413,1.5901863014191024e-05,critical
1500,4.646464646464646,5.265822784810126,electrolyte-cathode interface,0.0245842122181884,0.0258493687630722,0.0230847152308871,7.039044013972266e-05,critical
1500,4.747474747474747,5.265822784810126,electrolyte-cathode interface,0.0246053861321322,0.025821018367925,0.023176039828391,-7.419166264538638e-06,critical
1500,4.848484848484849,5.265822784810126,electrolyte-cathode interface,0.0244673202671768,0.0255660894525003,0.0231945143150026,0.0001038663229789,critical
1500,4.94949494949495,5.265822784810126,electrolyte-cathode interface,0.0244282827433988,0.0257037567141795,0.0229129230930904,-3.671827580035943e-05,critical
1500,5.05050505050505,5.265822784810126,electrolyte-cathode interface,0.0244289560904705,0.0256249847079794,0.0230248065370373,-2.9741854513121597e-05,critical
1500,5.151515151515151,5.265822784810126,electrolyte-cathode interface,0.0245994146433344,0.0256945387595202,0.0233339411883922,-3.616455156274503e-05,critical
1500,5.252525252525253,5.265822784810126,electrolyte-cathode interface,0.0245183312932936,0.02568431556511,0.0231562019720031,-4.4767286055803936e-05,critical
1500,5.353535353535354,5.265822784810126,electrolyte-cathode interface,0.0244822228878465,0.0256488438740521,0.023119163135558,-7.003066431985502e-06,critical
1500,5.454545454545454,5.265822784810126,electrolyte-cathode interface,0.0245252150345446,0.025739376598618,0.0230970614028749,1.127130571361662e-05,critical
1500,5.555555555555555,5.265822784810126,electrolyte-cathode interface,0.0246117797051166,0.0257772229953162,0.0232515283289723,-1.5662989905052992e-05,critical
1500,5.656565656565657,5.265822784810126,electrolyte-cathode interface,0.0246524671224297,0.0258716470620236,0.0232186841498019,-1.0351176708260368e-05,critical
1500,5.757575757575758,5.265822784810126,electrolyte-cathode interface,0.024643811102058,0.0259480818551762,0.0230903056455987,-2.1601055973885475e-05,critical
1500,5.858585858585858,5.265822784810126,electrolyte-cathode interface,0.0245862009926969,0.0257356471828024,0.0232470160523902,6.052870607775952e-05,critical
1500,5.959595959595959,5.265822784810126,electrolyte-cathode interface,0.0246256935085656,0.025810878592451,0.0232384475823129,2.9609974519175823e-05,critical
1500,6.0606060606060606,5.265822784810126,electrolyte-cathode interface,0.0245672441083778,0.0257279302089288,0.0232129878491554,-2.838241157619364e-05,critical
1500,6.161616161616162,5.265822784810126,electrolyte-cathode interface,0.0246272330363785,0.0258117481034325,0.0232407161957443,4.7922749735160375e-05,critical
1500,6.262626262626262,5.265822784810126,electrolyte-cathode interface,0.0248453648167125,0.0260271236856158,0.0234649862972188,-2.2392257013195104e-05,critical
1500,6.363636363636363,5.265822784810126,electrolyte-cathode interface,0.0246983234517799,0.0257591256506471,0.0234794504484438,-7.02356964529259e-06,critical
1500,6.4646464646464645,5.265822784810126,electrolyte-cathode interface,0.0250161541102274,0.0262521644186755,0.0235627993168924,-1.632977492722507e-05,critical
1500,6.565656565656566,5.265822784810126,electrolyte-cathode interface,0.0249170944878328,0.0261860088717802,0.0234167977629016,1.4066295749565207e-05,critical
1500,6.666666666666667,5.265822784810126,electrolyte-cathode interface,0.0250668880581387,0.0262733637721384,0.0236544165086291,-5.4474462904032265e-05,critical
1500,6.767676767676767,5.265822784810126,electrolyte-cathode interface,0.0249335645130402,0.0261075856187639,0.023564599569365,1.8801147271679134e-05,critical
1500,6.8686868686868685,5.265822784810126,electrolyte-cathode interface,0.0250179218619004,0.0261314321368136,0.0237314241952526,9.579499305094296e-06,critical
1500,6.96969696969697,5.265822784810126,electrolyte-cathode interface,0.025145119809962,0.0262883592368201,0.0238197908216873,-8.506325654851335e-07,critical
1500,7.070707070707071,5.265822784810126,electrolyte-cathode interface,0.0251639248283365,0.0263260588970891,0.0238126519759818,6.485881980257302e-05,critical
1500,7.171717171717171,5.265822784810126,electrolyte-cathode interface,0.0252440941233866,0.0264414072987719,0.0238462921089822,6.9051439023930965e-06,critical
1500,7.272727272727272,5.265822784810126,electrolyte-cathode interface,0.0253260874055268,0.0265873913563786,0.0238407188019007,3.638748572890463e-05,critical
1500,7.373737373737374,5.265822784810126,electrolyte-cathode interface,0.0254460600864224,0.0266362395525164,0.0240596315794612,4.064061675686728e-05,critical
1500,7.474747474747475,5.265822784810126,electrolyte-cathode interface,0.0254795016399725,0.026732957284501,0.0240068088219121,-6.418928428606492e-06,critical
1500,7.575757575757575,5.265822784810126,electrolyte-cathode interface,0.0256113839568671,0.0268838477072912,0.0241137098702715,2.629308960071817e-06,critical
1500,7.6767676767676765,5.265822784810126,electrolyte-cathode interface,0.0256994893806102,0.0269924092318031,0.0241741009872778,-3.4959039846373354e-05,critical
1500,7.777777777777778,5.265822784810126,electrolyte-cathode interface,0.0259743436882892,0.0273015570510514,0.024404132069984,1.4770763835052372e-05,critical
1500,7.878787878787879,5.265822784810126,electrolyte-cathode interface,0.0259618974954352,0.0272273586444753,0.0244773741307743,3.3973540168417105e-05,critical
1500,7.979797979797979,5.265822784810126,electrolyte-cathode interface,0.0261287505438223,0.0273849593645061,0.0246581688521041,-6.649928512990695e-05,critical
1500,8.080808080808081,5.265822784810126,electrolyte-cathode interface,0.0261743675961794,0.0274205833023317,0.0247184283009048,2.6802241910034558e-05,critical
1500,8.181818181818182,5.265822784810126,electrolyte-cathode interface,0.0262538609427173,0.027491593364439,0.0248097180323618,6.850661927756274e-05,critical
1500,8.282828282828282,5.265822784810126,electrolyte-cathode interface,0.0263736321849348,0.0275838917478412,0.0249684898971176,2.9072496650953483e-06,critical
1500,8.383838383838384,5.265822784810126,electrolyte-cathode interface,0.0266533020749141,0.0279180681929757,0.025176483288468,3.389395831426666e-05,critical
1500,8.484848484848484,5.265822784810126,electrolyte-cathode interface,0.0267660905116823,0.0281007676974025,0.0251941086360719,-1.9495772005078343e-05,critical
1500,8.585858585858587,5.265822784810126,electrolyte-cathode interface,0.0269031156257993,0.0282408975311466,0.0253265978960481,-0.0001134783637875,critical
1500,8.686868686868687,5.265822784810126,electrolyte-cathode interface,0.0270984019437453,0.0284629827782779,0.0254883349781137,1.652110495791879e-05,critical
1500,8.787878787878787,5.265822784810126,electrolyte-cathode interface,0.0274161189379026,0.0287161133645056,0.0258985071720313,8.267160763648459e-06,critical
1500,8.88888888888889,5.265822784810126,electrolyte-cathode interface,0.0274955806616891,0.0287850764642521,0.0259920139369751,-8.878627228320424e-05,critical
1500,8.98989898989899,5.265822784810126,electrolyte-cathode interface,0.0277367767331144,0.0291409349897748,0.0260783249038692,-2.847418987366376e-05,critical
1500,9.09090909090909,5.265822784810126,electrolyte-cathode interface,0.0278934501026308,0.0292667411030376,0.026279734251675,-7.529884184976645e-06,critical
1500,9.191919191919192,5.265822784810126,electrolyte-cathode interface,0.0280539357678467,0.0294476475103993,0.026413547572081,-1.539728287303593e-05,critical
1500,9.292929292929292,5.265822784810126,electrolyte-cathode interface,0.0284166630481433,0.0297652357870832,0.0268410296024381,9.34203702712894e-05,critical
1500,9.393939393939394,5.265822784810126,electrolyte-cathode interface,0.028627810514693,0.0299648934256634,0.027070780855683,-2.9348523053364117e-05,critical
1500,9.494949494949497,5.265822784810126,electrolyte-cathode interface,0.0288466087424331,0.0302202058824611,0.0272419103076489,1.2291994433555426e-05,critical
1500,9.595959595959595,5.265822784810126,electrolyte-cathode interface,0.0291406841958011,0.0305969487972386,0.027424566272401,4.971415756505858e-05,critical
1500,9.696969696969695,5.265822784810126,electrolyte-cathode interface,0.0294716727923375,0.0308705796974474,0.0278376940763673,-7.152717524222704e-05,critical
1500,9.797979797979798,5.265822784810126,electrolyte-cathode interface,0.0296604083369916,0.0310871588251385,0.0279901967212422,6.572017444218466e-05,critical
1500,9.8989898989899,5.265822784810126,electrolyte-cathode interface,0.0301242300017731,0.0315694722959708,0.0284336512405181,1.2837407298299187e-05,critical
1500,10.0,5.265822784810126,electrolyte-cathode interface,0.0304825296239105,0.0319700834071499,0.0287372925973891,3.396993939471397e-06,critical
1500,0.0,5.367088607594937,electrolyte-cathode interface,0.0304415392558558,0.0319244179860379,0.0287021126769079,-4.404005977503327e-05,critical
1500,0.101010101010101,5.367088607594937,electrolyte-cathode interface,0.0300981399102774,0.0315706969041835,0.0283694720949707,4.539066534436042e-05,critical
1500,0.202020202020202,5.367088607594937,electrolyte-cathode interface,0.0296832968286404,0.0310607532847166,0.0280810843796509,4.080429258855232e-06,critical
1500,0.303030303030303,5.367088607594937,electrolyte-cathode interface,0.0294842484402103,0.0309546271108345,0.0277523283596313,-3.2725944137282165e-05,critical
1500,0.404040404040404,5.367088607594937,electrolyte-cathode interface,0.029237018512526,0.0306787719917484,0.0275423468164122,-1.538963870709616e-05,critical
1500,0.5050505050505051,5.367088607594937,electrolyte-cathode interface,0.028926124258856,0.0302705890650602,0.0273618735821284,-1.5940926409608038e-06,critical
1500,0.6060606060606061,5.367088607594937,electrolyte-cathode interface,0.0285555058619787,0.0299470213703647,0.0269229979356236,5.354987467317654e-05,critical
1500,0.7070707070707071,5.367088607594937,electrolyte-cathode interface,0.0284644498149191,0.0298744311504672,0.0268058013938592,-1.0747231656962614e-05,critical
1500,0.8080808080808081,5.367088607594937,electrolyte-cathode interface,0.0281225290406279,0.0294761477235681,0.0265381842678986,2.2880692435798317e-05,critical
1500,0.9090909090909092,5.367088607594937,electrolyte-cathode interface,0.0279722138558301,0.0293350765134618,0.0263737087293586,9.752334364394314e-06,critical
1500,1.0101010101010102,5.367088607594937,electrolyte-cathode interface,0.0276853114979036,0.0290688421960634,0.0260551535990643,-1.830674626628079e-05,critical
1500,1.1111111111111112,5.367088607594937,electrolyte-cathode interface,0.027541451243638,0.0288185109184581,0.0260550832691971,9.363503314201228e-05,critical
1500,1.2121212121212122,5.367088607594937,electrolyte-cathode interface,0.0272727143165255,0.0285302803027137,0.0258114934672405,-4.76807566895781e-07,critical
1500,1.3131313131313131,5.367088607594937,electrolyte-cathode interface,0.0271134241338775,0.0284331867542335,0.0255650423324309,-7.278466258296083e-05,critical
1500,1.414141414141414,5.367088607594937,electrolyte-cathode interface,0.0268836086248033,0.0281142289175042,0.0254553243509537,-2.4652420734349345e-05,critical
1500,1.5151515151515151,5.367088607594937,electrolyte-cathode interface,0.0267797463726694,0.0280582160347634,0.0252855270867957,8.760291928545386e-06,critical
1500,1.616161616161616,5.367088607594937,electrolyte-cathode interface,0.0266557504952575,0.0279540206282535,0.0251330853844299,1.3802506586984253e-05,critical
1500,1.7171717171717171,5.367088607594937,electrolyte-cathode interface,0.026478173469593,0.0276620297534197,0.0251083094327995,9.19786600965858e-05,critical
1500,1.818181818181818,5.367088607594937,electrolyte-cathode interface,0.0263702331229171,0.0276587770139372,0.0248572469660799,8.077403208810513e-05,critical
1500,1.9191919191919191,5.367088607594937,electrolyte-cathode interface,0.0260700100770825,0.0273423535452166,0.0245770442327798,3.767101733279479e-05,critical
1500,2.0202020202020203,5.367088607594937,electrolyte-cathode interface,0.0260308835566261,0.0273001526004758,0.0245416009210547,-5.112457275720969e-05,critical
1500,2.121212121212121,5.367088607594937,electrolyte-cathode interface,0.0259804235911756,0.0273383373246414,0.0243667232733323,-4.553227582983446e-05,critical
1500,2.2222222222222223,5.367088607594937,electrolyte-cathode interface,0.0257585508419159,0.0269356222539986,0.0243928551434874,1.3479067571451134e-05,critical
1500,2.323232323232323,5.367088607594937,electrolyte-cathode interface,0.025864766226509,0.0271518593339201,0.0243473725413089,0.000121862476947,critical
1500,2.4242424242424243,5.367088607594937,electrolyte-cathode interface,0.0255042843418022,0.0268733753191963,0.0238690482161319,1.468810382617449e-05,critical
1500,2.525252525252525,5.367088607594937,electrolyte-cathode interface,0.0254164746852517,0.0266324202740685,0.0239944355183301,-5.269690481142309e-05,critical
1500,2.6262626262626263,5.367088607594937,electrolyte-cathode interface,0.0255961554962812,0.0269046710213735,0.0240465907714699,-9.821673809390484e-05,critical
1500,2.727272727272727,5.367088607594937,electrolyte-cathode interface,0.0253652322736408,0.0265750765060055,0.023951448433681,1.777558496293302e-06,critical
1500,2.8282828282828283,5.367088607594937,electrolyte-cathode interface,0.025368712429747,0.026604247309889,0.0239191859785703,-5.795620514972858e-05,critical
1500,2.929292929292929,5.367088607594937,electrolyte-cathode interface,0.0251451016305214,0.0263756490860709,0.0237004353051412,4.083478926996179e-05,critical
1500,3.0303030303030303,5.367088607594937,electrolyte-cathode interface,0.0251868031163734,0.0263991439804432,0.023767652663124,3.924257406275448e-05,critical
1500,3.131313131313131,5.367088607594937,electrolyte-cathode interface,0.0249920498270757,0.026152769847457,0.0236407167100214,8.547991501288157e-05,critical
1500,3.2323232323232323,5.367088607594937,electrolyte-cathode interface,0.0249633852704556,0.0261428284725263,0.0235872112591337,3.1658211360893435e-05,critical
1500,3.333333333333333,5.367088607594937,electrolyte-cathode interface,0.0249695008985851,0.0261459449448,0.023597531492082,-2.4527354037037928e-05,critical
1500,3.4343434343434343,5.367088607594937,electrolyte-cathode interface,0.0249153369912826,0.0262075425775145,0.023382176520522,2.5412048508013947e-05,critical
1500,3.5353535353535355,5.367088607594937,electrolyte-cathode interface,0.0247565003244099,0.0259204423137124,0.0233996787937012,3.4281752334721225e-06,critical
1500,3.636363636363636,5.367088607594937,electrolyte-cathode interface,0.0248291086334263,0.0258604547295429,0.0236499381158725,-5.710492062435951e-06,critical
1500,3.7373737373737375,5.367088607594937,electrolyte-cathode interface,0.0246767008728242,0.0258990156039442,0.0232380000048374,-7.5800656137243e-05,critical
1500,3.8383838383838382,5.367088607594937,electrolyte-cathode interface,0.0247569727230747,0.0261100735698294,0.0231350018118048,3.962377636529247e-06,critical
1500,3.939393939393939,5.367088607594937,electrolyte-cathode interface,0.0246998169379592,0.0259579921712013,0.0232114057694626,7.241238428427942e-05,critical
1500,4.040404040404041,5.367088607594937,electrolyte-cathode interface,0.0247436468283868,0.0260660733766196,0.0231654189430423,3.0288916742310308e-05,critical
1500,4.141414141414141,5.367088607594937,electrolyte-cathode interface,0.0246236443256261,0.025853084279986,0.0231752767899773,1.656158312869361e-05,critical
1500,4.242424242424242,5.367088607594937,electrolyte-cathode interface,0.0247078383027979,0.0258448022222808,0.0233871951298658,1.664456974429004e-06,critical
1500,4.343434343434343,5.367088607594937,electrolyte-cathode interface,0.0246425277696523,0.0257861071026564,0.0233095548912979,0.0001392660286919,critical
1500,4.444444444444445,5.367088607594937,electrolyte-cathode interface,0.024408509641839,0.0255797835050737,0.0230372131367406,8.898363100271816e-05,critical
1500,4.545454545454545,5.367088607594937,electrolyte-cathode interface,0.0246858675708015,0.0258847395763784,0.0232803140735586,3.723113862769888e-05,critical
1500,4.646464646464646,5.367088607594937,electrolyte-cathode interface,0.0245225237851386,0.025727175850062,0.0231075129080754,1.2790874811138546e-05,critical
1500,4.747474747474747,5.367088607594937,electrolyte-cathode interface,0.0245604027986838,0.0257130160772387,0.0232167608376183,5.522901765748808e-05,critical
1500,4.848484848484849,5.367088607594937,electrolyte-cathode interface,0.0245596831059723,0.0257592240215336,0.0231515043664916,6.594203140585358e-05,critical
1500,4.94949494949495,5.367088607594937,electrolyte-cathode interface,0.0245728767393599,0.0256914963622623,0.0232758219932651,5.553440668895889e-06,critical
1500,5.05050505050505,5.367088607594937,electrolyte-cathode interface,0.0245690545607641,0.0258146763056875,0.0230975368260773,7.267146704037661e-06,critical
1500,5.151515151515151,5.367088607594937,electrolyte-cathode interface,0.0245907461449402,0.0257994560265542,0.0231703871011907,5.600421166201123e-05,critical
1500,5.252525252525253,5.367088607594937,electrolyte-cathode interface,0.0246367753902311,0.0258578335558572,0.0231995831024485,-6.695204069106337e-05,critical
1500,5.353535353535354,5.367088607594937,electrolyte-cathode interface,0.0244956591882749,0.0257574370387723,0.0230005743424617,-1.984658031939136e-05,critical
1500,5.454545454545454,5.367088607594937,electrolyte-cathode interface,0.0244888125725409,0.0256710653857474,0.0231034746613013,7.876212404257736e-05,critical
1500,5.555555555555555,5.367088607594937,electrolyte-cathode interface,0.0245853064930015,0.0257811749350745,0.0231830681441203,1.156290477620154e-05,critical
1500,5.656565656565657,5.367088607594937,electrolyte-cathode interface,0.0246755952545179,0.0259445045992391,0.0231724325126725,3.3344720098300715e-05,critical
1500,5.757575757575758,5.367088607594937,electrolyte-cathode interface,0.0245871739742092,0.0257647447727899,0.0232100123624932,2.8411598996930344e-05,critical
1500,5.858585858585858,5.367088607594937,electrolyte-cathode interface,0.0245932670444416,0.0257827721526393,0.0231998820959851,7.933590578451133e-06,critical
1500,5.959595959595959,5.367088607594937,electrolyte-cathode interface,0.0247743493647241,0.0259970661212572,0.0233368940895819,1.908311347981895e-05,critical
1500,6.0606060606060606,5.367088607594937,electrolyte-cathode interface,0.0247001635866125,0.0259138484329699,0.0232743692223375,3.0300172847310183e-05,critical
1500,6.161616161616162,5.367088607594937,electrolyte-cathode interface,0.0247746428698335,0.025798486655443,0.023604699234,-3.961432071413181e-05,critical
1500,6.262626262626262,5.367088607594937,electrolyte-cathode interface,0.0248242332106699,0.0260399065134629,0.0233964328881218,6.751921862683831e-05,critical
1500,6.363636363636363,5.367088607594937,electrolyte-cathode interface,0.0247953573499569,0.0260110045290448,0.0233678907727769,-2.14713651410177e-05,critical
1500,6.4646464646464645,5.367088607594937,electrolyte-cathode interface,0.024834793512104,0.0260491745532312,0.0234093445288999,-3.725775730125999e-05,critical
1500,6.565656565656566,5.367088607594937,electrolyte-cathode interface,0.0249376258520285,0.0261445606997082,0.0235231708869901,5.9243792968628086e-05,critical
1500,6.666666666666667,5.367088607594937,electrolyte-cathode interface,0.0249642601846382,0.0261715275561286,0.0235501125000785,4.140229137825804e-06,critical
1500,6.767676767676767,5.367088607594937,electrolyte-cathode interface,0.0248743897633122,0.026065054088167,0.0234820412851869,2.9635327143889747e-05,critical
1500,6.8686868686868685,5.367088607594937,electrolyte-cathode interface,0.0250968911048073,0.02631787443342,0.0236649667151153,-3.830267721857792e-05,critical
1500,6.96969696969697,5.367088607594937,electrolyte-cathode interface,0.0251785930260361,0.0264193737078261,0.0237189593500023,9.875565530607188e-05,critical
1500,7.070707070707071,5.367088607594937,electrolyte-cathode interface,0.0252462451431628,0.0264458336341374,0.0238446074512253,-7.301700164762149e-05,critical
1500,7.171717171717171,5.367088607594937,electrolyte-cathode interface,0.0253265529787938,0.0265674361366869,0.0238686998995359,-8.356287706532083e-05,critical
1500,7.272727272727272,5.367088607594937,electrolyte-cathode interface,0.0253921139425402,0.0266489893144393,0.0239128972184686,7.896847694803225e-05,critical
1500,7.373737373737374,5.367088607594937,electrolyte-cathode interface,0.025454622748449,0.0266537744107727,0.0240561921023422,2.6254769384329907e-05,critical
1500,7.474747474747475,5.367088607594937,electrolyte-cathode interface,0.025596077150615,0.0268580922695444,0.0241127357628326,-5.806949536090995e-06,critical
1500,7.575757575757575,5.367088607594937,electrolyte-cathode interface,0.0256209940230396,0.0267695551090588,0.0242916994021815,7.655060447662029e-05,critical
1500,7.6767676767676765,5.367088607594937,electrolyte-cathode interface,0.0258195120475818,0.0269995441066231,0.0244499752535711,5.39004456841336e-05,critical
1500,7.777777777777778,5.367088607594937,electrolyte-cathode interface,0.0257826517144053,0.0269988714379829,0.0243639336113398,-3.42577482099684e-05,critical
1500,7.878787878787879,5.367088607594937,electrolyte-cathode interface,0.0258646903992359,0.0271055076530342,0.0244132609314695,7.874538790731146e-06,critical
1500,7.979797979797979,5.367088607594937,electrolyte-cathode interface,0.026034849777758,0.0272644369171899,0.0246003077918837,2.756216521550046e-05,critical
1500,8.080808080808081,5.367088607594937,electrolyte-cathode interface,0.0262697904649466,0.0275443408218246,0.0247758407059404,3.213320655411501e-05,critical
1500,8.181818181818182,5.367088607594937,electrolyte-cathode interface,0.0262979702579928,0.0275353448200297,0.024855349873852,-8.895312195704857e-06,critical
1500,8.282828282828282,5.367088607594937,electrolyte-cathode interface,0.0265644946699235,0.0279492581220907,0.0249191526204659,-7.960097202686153e-05,critical
1500,8.383838383838384,5.367088607594937,electrolyte-cathode interface,0.0265812739733371,0.0278980691133207,0.0250322050627844,1.5941445760954528e-05,critical
1500,8.484848484848484,5.367088607594937,electrolyte-cathode interface,0.02676061109514,0.0279644063179047,0.025366808863646,-7.081336816436029e-05,critical
1500,8.585858585858587,5.367088607594937,electrolyte-cathode interface,0.0267835586621985,0.0280347334076116,0.0253264852682791,-3.2372721160311936e-05,critical
1500,8.686868686868687,5.367088607594937,electrolyte-cathode interface,0.0270502338226268,0.0283250602392451,0.0255632107922135,5.115953069726519e-05,critical
1500,8.787878787878787,5.367088607594937,electrolyte-cathode interface,0.0271831202042102,0.0285478904617613,0.0255737378991784,-7.579082720824646e-06,critical
1500,8.88888888888889,5.367088607594937,electrolyte-cathode interface,0.0274675689066922,0.0288367587544882,0.0258549708595073,-3.014030135057988e-05,critical
1500,8.98989898989899,5.367088607594937,electrolyte-cathode interface,0.0276117331069272,0.0290022542676,0.0259707279498131,-5.163279835561349e-05,critical
1500,9.09090909090909,5.367088607594937,electrolyte-cathode interface,0.0277653043669684,0.0291149559351181,0.0261814089477271,0.0001093325672482,critical
1500,9.191919191919192,5.367088607594937,electrolyte-cathode interface,0.0280037564590066,0.0294618546251743,0.0262723954928156,3.7548164390082175e-05,critical
1500,9.292929292929292,5.367088607594937,electrolyte-cathode interface,0.028456443265736,0.0299285725067172,0.0267104472908562,4.924428850124648e-05,critical
1500,9.393939393939394,5.367088607594937,electrolyte-cathode interface,0.0287350364412203,0.0302530617337316,0.0269270163195378,-7.083822132380397e-05,critical
1500,9.494949494949497,5.367088607594937,electrolyte-cathode interface,0.0289271133413185,0.0302830655131244,0.0273472285502244,-1.6671331960048202e-05,critical
1500,9.595959595959595,5.367088607594937,electrolyte-cathode interface,0.0292108813534936,0.0307207885029215,0.0274206452254971,1.6342278630433362e-05,critical
1500,9.696969696969695,5.367088607594937,electrolyte-cathode interface,0.0295098977987705,0.030938022981564,0.0278368327666362,6.20420754191443e-06,critical
1500,9.797979797979798,5.367088607594937,electrolyte-cathode interface,0.0297208150901929,0.0310908385087626,0.028128956794782,2.0438617816519786e-05,critical
1500,9.8989898989899,5.367088607594937,electrolyte-cathode interface,0.0301646696286004,0.0316266962069758,0.0284510092960396,-6.021809978233034e-05,critical
1500,10.0,5.367088607594937,electrolyte-cathode interface,0.0304243307371644,0.0319382700461513,0.0286416568953094,-4.922752096762104e-05,critical
1500,0.0,5.468354430379747,electrolyte-cathode interface,0.0304026598734382,0.0318869359733518,0.0286611376376793,5.528756225371206e-06,critical
1500,0.101010101010101,5.468354430379747,electrolyte-cathode interface,0.0301678238605211,0.0316674349812068,0.0284026298609872,8.358395459800347e-06,critical
1500,0.202020202020202,5.468354430379747,electrolyte-cathode interface,0.0298093766292278,0.0312859971730931,0.0280713773104619,8.967158968187436e-05,critical
1500,0.303030303030303,5.468354430379747,electrolyte-cathode interface,0.0295453018748988,0.0308662147532722,0.0280180924119981,-1.4196739930819684e-05,critical
1500,0.404040404040404,5.468354430379747,electrolyte-cathode interface,0.0292261859370051,0.0306513880302568,0.0275543141707783,5.841723543429002e-06,critical
1500,0.5050505050505051,5.468354430379747,electrolyte-cathode interface,0.0289229318394401,0.0302701643977873,0.0273548389293104,-2.154171559685635e-05,critical
1500,0.6060606060606061,5.468354430379747,electrolyte-cathode interface,0.0286006823292625,0.029995897324107,0.0269632269099296,7.246594950299926e-05,critical
1500,0.7070707070707071,5.468354430379747,electrolyte-cathode interface,0.0283881165639319,0.0297172616378732,0.0268397573603439,-1.8613667152728132e-05,critical
1500,0.8080808080808081,5.468354430379747,electrolyte-cathode interface,0.0281233790097865,0.0293765426448316,0.0266751262950717,3.56439331138918e-05,critical
1500,0.9090909090909092,5.468354430379747,electrolyte-cathode interface,0.0279889316012642,0.0293337766786654,0.0264152411903115,3.4913196075769684e-05,critical
1500,1.0101010101010102,5.468354430379747,electrolyte-cathode interface,0.0276924463364129,0.0289719007545598,0.0262047873938501,6.368692991062473e-05,critical
1500,1.1111111111111112,5.468354430379747,electrolyte-cathode interface,0.0274744349796052,0.0287994658662024,0.0259229843612695,2.7858797839254468e-05,critical
1500,1.2121212121212122,5.468354430379747,electrolyte-cathode interface,0.0273064818855391,0.028566942356766,0.0258416414125648,-1.5375149246191934e-06,critical
1500,1.3131313131313131,5.468354430379747,electrolyte-cathode interface,0.0270993753241117,0.0284716387568183,0.025478587935565,1.458313218320944e-05,critical
1500,1.414141414141414,5.468354430379747,electrolyte-cathode interface,0.0269434341463679,0.0281917896620645,0.0254917651190993,-3.1997212259006737e-06,critical
1500,1.5151515151515151,5.468354430379747,electrolyte-cathode interface,0.0267981754387038,0.0280651341267473,0.0253196662428865,3.993240601180648e-05,critical
1500,1.616161616161616,5.468354430379747,electrolyte-cathode interface,0.026565296503875,0.0278240852004609,0.0250957493379292,-4.0389817475833576e-05,critical
1500,1.7171717171717171,5.468354430379747,electrolyte-cathode interface,0.026453097035124,0.0277430718704502,0.0249393144731408,-6.349115060414845e-05,critical
1500,1.818181818181818,5.468354430379747,electrolyte-cathode interface,0.0262978706776326,0.0275871560444131,0.0247839879523354,1.301001042114562e-05,critical
1500,1.9191919191919191,5.468354430379747,electrolyte-cathode interface,0.0261253173663719,0.0274595921928849,0.0245465663984028,5.094172691449844e-05,critical
1500,2.0202020202020203,5.468354430379747,electrolyte-cathode interface,0.0260586872840446,0.02734623494959,0.0245446390382358,3.042709665773799e-05,critical
1500,2.121212121212121,5.468354430379747,electrolyte-cathode interface,0.026047646794285,0.0273146249330365,0.0245615802471718,-5.85840230763934e-05,critical
1500,2.2222222222222223,5.468354430379747,electrolyte-cathode interface,0.0257455057870586,0.0269556559350603,0.0243348772097729,1.80886457155582e-06,critical
1500,2.323232323232323,5.468354430379747,electrolyte-cathode interface,0.0257444930019236,0.0270097691953484,0.0242580475487099,2.990253653137585e-05,critical
1500,2.4242424242424243,5.468354430379747,electrolyte-cathode interface,0.0255486126473918,0.0267964459461732,0.0240844029844181,-3.080165070348345e-06,critical
1500,2.525252525252525,5.468354430379747,electrolyte-cathode interface,0.0256487296695592,0.0269124943408545,0.0241634767546875,-1.6376377017138412e-05,critical
1500,2.6262626262626263,5.468354430379747,electrolyte-cathode interface,0.0254043525066509,0.0266031716884307,0.024005650186181,5.024915306237289e-05,critical
1500,2.727272727272727,5.468354430379747,electrolyte-cathode interface,0.0252187163585737,0.0264089596188074,0.023830313161931,1.237238405410813e-05,critical
1500,2.8282828282828283,5.468354430379747,electrolyte-cathode interface,0.0252675121205185,0.0264969351752795,0.023825147007262,-7.15097962152262e-05,critical
1500,2.929292929292929,5.468354430379747,electrolyte-cathode interface,0.0253526795169693,0.0265849339496984,0.0239071307108747,7.796928645024804e-05,critical
1500,3.0303030303030303,5.468354430379747,electrolyte-cathode interface,0.0250128636006984,0.0263185191327595,0.0234619283674738,-2.832903931704796e-06,critical
1500,3.131313131313131,5.468354430379747,electrolyte-cathode interface,0.0250884392020335,0.0264029807615696,0.0235258043417327,9.62649201950676e-06,critical
1500,3.2323232323232323,5.468354430379747,electrolyte-cathode interface,0.0250457496055117,0.0262228931718761,0.0236732890742243,4.817269940218249e-05,critical
1500,3.333333333333333,5.468354430379747,electrolyte-cathode interface,0.024922653414369,0.0261122123967114,0.0235322789827795,-3.0165186513452164e-05,critical
1500,3.4343434343434343,5.468354430379747,electrolyte-cathode interface,0.0248446701158495,0.0259708439047749,0.0235395970284352,-3.401854826606432e-05,critical
1500,3.5353535353535355,5.468354430379747,electrolyte-cathode interface,0.0247720947797032,0.0260171584887545,0.0233035357539355,1.9565012767800597e-05,critical
1500,3.636363636363636,5.468354430379747,electrolyte-cathode interface,0.0248592585372918,0.0261517556946558,0.0233251179580598,4.751903450387009e-06,critical
1500,3.7373737373737375,5.468354430379747,electrolyte-cathode interface,0.0247874234067132,0.0259776576497675,0.0233947603462191,-3.617361174317712e-05,critical
1500,3.8383838383838382,5.468354430379747,electrolyte-cathode interface,0.0245859917540072,0.0257046959342127,0.0232888144536066,-2.9512717698709105e-05,critical
1500,3.939393939393939,5.468354430379747,electrolyte-cathode interface,0.0247776714601651,0.0260336342773619,0.0232939836172231,9.432119463353808e-06,critical
1500,4.040404040404041,5.468354430379747,electrolyte-cathode interface,0.0246102116445023,0.0256380493439378,0.0234335882283236,-6.158212311099347e-05,critical
1500,4.141414141414141,5.468354430379747,electrolyte-cathode interface,0.024642111848441,0.0258012064653037,0.0232879471165982,-0.0001415062881944,critical
1500,4.242424242424242,5.468354430379747,electrolyte-cathode interface,0.0245777303943775,0.0257243370715053,0.023242755501635,-2.650318309910827e-05,critical
1500,4.343434343434343,5.468354430379747,electrolyte-cathode interface,0.0244935704871579,0.0257548916607213,0.0229989395928137,-3.884106235965729e-05,critical
1500,4.444444444444445,5.468354430379747,electrolyte-cathode interface,0.0245296442597498,0.0257517298560942,0.023090522092043,1.3336615818932702e-05,critical
1500,4.545454545454545,5.468354430379747,electrolyte-cathode interface,0.0246417924018823,0.0259018286116418,0.0231504540044842,-5.409449358264303e-05,critical
1500,4.646464646464646,5.468354430379747,electrolyte-cathode interface,0.0245858701009624,0.0257528129150447,0.0232223743720734,-8.251616914144931e-05,critical
1500,4.747474747474747,5.468354430379747,electrolyte-cathode interface,0.0244697850248809,0.0255492484743574,0.0232237879469372,6.398887198228584e-05,critical
1500,4.848484848484849,5.468354430379747,electrolyte-cathode interface,0.0244508938838112,0.0255736622659143,0.0231471498772337,1.68914781539272e-05,critical
1500,4.94949494949495,5.468354430379747,electrolyte-cathode interface,0.0245095701685612,0.0257251920603093,0.0230791756160239,2.161410319752454e-05,critical
1500,5.05050505050505,5.468354430379747,electrolyte-cathode interface,0.024707696977406,0.025874399976371,0.0233466302532643,1.43861143524628e-05,critical
1500,5.151515151515151,5.468354430379747,electrolyte-cathode interface,0.0244720257053906,0.025626184078542,0.023125706808734,3.667842900963616e-05,critical
1500,5.252525252525253,5.468354430379747,electrolyte-cathode interface,0.0244714327264963,0.0256351750639731,0.0231118525840278,4.9920955336113626e-05,critical
1500,5.353535353535354,5.468354430379747,electrolyte-cathode interface,0.0245015227815416,0.0256974664734843,0.023098230309585,2.9388213640337765e-05,critical
1500,5.454545454545454,5.468354430379747,electrolyte-cathode interface,0.0246228611348516,0.0258616436347509,0.0231609781676891,5.981331007483526e-05,critical
1500,5.555555555555555,5.468354430379747,electrolyte-cathode interface,0.0245699745192262,0.0258580781909722,0.0230385949170087,-1.115301327368876e-05,critical
1500,5.656565656565657,5.468354430379747,electrolyte-cathode interface,0.024569891610543,0.0257883732766627,0.0231362284786457,1.354339983229877e-06,critical
1500,5.757575757575758,5.468354430379747,electrolyte-cathode interface,0.024439813997624,0.0256182359611996,0.023059261452511,7.864841790877988e-05,critical
1500,5.858585858585858,5.468354430379747,electrolyte-cathode interface,0.0246284917518634,0.0258977351886615,0.0231241596088657,4.662783152526082e-05,critical
1500,5.959595959595959,5.468354430379747,electrolyte-cathode interface,0.0246711395199057,0.0258125311443954,0.0233441367087884,1.7304010058576885e-05,critical
1500,6.0606060606060606,5.468354430379747,electrolyte-cathode interface,0.0247051089822836,0.0259353647003943,0.0232561904421248,-4.709728232537316e-05,critical
1500,6.161616161616162,5.468354430379747,electrolyte-cathode interface,0.0246748685555777,0.0258927308137813,0.0232429077546453,-4.172197553427335e-05,critical
1500,6.262626262626262,5.468354430379747,electrolyte-cathode interface,0.0247250982714544,0.025945280585112,0.0232906666531506,1.4469220333626022e-05,critical
1500,6.363636363636363,5.468354430379747,electrolyte-cathode interface,0.0249375866932403,0.0260389771926461,0.0236663688086338,4.442933800368679e-05,critical
1500,6.4646464646464645,5.468354430379747,electrolyte-cathode interface,0.0249038217172361,0.0260886789855551,0.023519020988815,-7.528893664068746e-05,critical
1500,6.565656565656566,5.468354430379747,electrolyte-cathode interface,0.0249009268329989,0.026211286466841,0.0233419309957037,-1.7476698736186807e-05,critical
1500,6.666666666666667,5.468354430379747,electrolyte-cathode interface,0.0250351828514275,0.0263192330444707,0.0235147978055804,-3.687798169724116e-05,critical
1500,6.767676767676767,5.468354430379747,electrolyte-cathode interface,0.0249918137035216,0.026200659353756,0.0235753097954074,5.6659154216753775e-05,critical
1500,6.8686868686868685,5.468354430379747,electrolyte-cathode interface,0.0252073309228123,0.026514640042854,0.0236551636733389,9.087939072834675e-05,critical
1500,6.96969696969697,5.468354430379747,electrolyte-cathode interface,0.0250447167142191,0.0262591947028063,0.0236205534478591,-7.894227384654104e-05,critical
1500,7.070707070707071,5.468354430379747,electrolyte-cathode interface,0.0252583259575231,0.0265032782717337,0.0237939067507857,9.274400287075212e-05,critical
1500,7.171717171717171,5.468354430379747,electrolyte-cathode interface,0.0253865308135346,0.0266364282434483,0.0239177935590376,-1.1259401186249267e-05,critical
1500,7.272727272727272,5.468354430379747,electrolyte-cathode interface,0.0253328578457218,0.0265815669970788,0.0238652254004494,-5.387625808809499e-06,critical
1500,7.373737373737374,5.468354430379747,electrolyte-cathode interface,0.0253605959738553,0.0266061005040571,0.0238976619099579,1.4070569792751965e-05,critical
1500,7.474747474747475,5.468354430379747,electrolyte-cathode interface,0.0254951272195408,0.0266197351565899,0.0241967593545675,-8.036279623488922e-05,critical
1500,7.575757575757575,5.468354430379747,electrolyte-cathode interface,0.0256517284923115,0.0269000432753792,0.0241876832290568,-3.895308967664088e-05,critical
1500,7.6767676767676765,5.468354430379747,electrolyte-cathode interface,0.025745223724066,0.0269932102766891,0.0242821411937052,-6.759146780948922e-05,critical
1500,7.777777777777778,5.468354430379747,electrolyte-cathode interface,0.025935098903603,0.0271387577878316,0.0245345314759883,-5.959108321530512e-05,critical
1500,7.878787878787879,5.468354430379747,electrolyte-cathode interface,0.0260475500533621,0.0272807462764558,0.0246083028034192,-3.855366598014479e-06,critical
1500,7.979797979797979,5.468354430379747,electrolyte-cathode interface,0.0259726255200381,0.0271643290572304,0.0245890386628917,-1.1808883825496587e-05,critical
1500,8.080808080808081,5.468354430379747,electrolyte-cathode interface,0.0262219891225438,0.0275681145041574,0.0246278002819675,-4.182367268947085e-05,critical
1500,8.181818181818182,5.468354430379747,electrolyte-cathode interface,0.0263285093200792,0.027596367117653,0.0248444851256819,2.319653364190708e-06,critical
1500,8.282828282828282,5.468354430379747,electrolyte-cathode interface,0.0264961793423535,0.0277960249735862,0.0249697300252428,1.0602543331856282e-05,critical
1500,8.383838383838384,5.468354430379747,electrolyte-cathode interface,0.0264191761563935,0.0275303145346058,0.0251448469472527,0.0001108569496379,critical
1500,8.484848484848484,5.468354430379747,electrolyte-cathode interface,0.0268285450069282,0.028199081567259,0.0252071734327498,7.598097840746148e-06,critical
1500,8.585858585858587,5.468354430379747,electrolyte-cathode interface,0.027004195278794,0.0283237748805496,0.0254550499736479,6.80074432757279e-05,critical
1500,8.686868686868687,5.468354430379747,electrolyte-cathode interface,0.0271315762062174,0.0284509924097219,0.0255839341544867,-6.852725672990994e-05,critical
1500,8.787878787878787,5.468354430379747,electrolyte-cathode interface,0.0272695566722894,0.0285726162771277,0.0257463622178557,-5.193358611411557e-06,critical
1500,8.88888888888889,5.468354430379747,electrolyte-cathode interface,0.0274489180578344,0.0287852871648197,0.0258816491766171,2.069727140853793e-05,critical
1500,8.98989898989899,5.468354430379747,electrolyte-cathode interface,0.0277247207778031,0.0291645023025847,0.0260145861821164,-0.0001091055025203,critical
1500,9.09090909090909,5.468354430379747,electrolyte-cathode interface,0.027688852369238,0.0288818099270652,0.0263168766001425,6.984438548775224e-05,critical
1500,9.191919191919192,5.468354430379747,electrolyte-cathode interface,0.0281208496735434,0.0293425737573524,0.026714047014082,-6.865045243579459e-05,critical
1500,9.292929292929292,5.468354430379747,electrolyte-cathode interface,0.0284547955597295,0.029811208155692,0.0268683847289905,0.0001098038586225,critical
1500,9.393939393939394,5.468354430379747,electrolyte-cathode interface,0.0285639972116636,0.030052592756823,0.026796092980786,4.1134296602948266e-05,critical
1500,9.494949494949497,5.468354430379747,electrolyte-cathode interface,0.0289393271079576,0.0303402781287173,0.0272980050011016,-7.384348748698734e-06,critical
1500,9.595959595959595,5.468354430379747,electrolyte-cathode interface,0.0291438284492374,0.0305789549838551,0.0274573977565729,5.390835815367271e-06,critical
1500,9.696969696969695,5.468354430379747,electrolyte-cathode interface,0.029309076893055,0.0307145653396381,0.0276650177117441,-3.293153809642537e-05,critical
1500,9.797979797979798,5.468354430379747,electrolyte-cathode interface,0.0298970409971908,0.0312830070465784,0.028284619484944,7.019439828771248e-05,critical
1500,9.8989898989899,5.468354430379747,electrolyte-cathode interface,0.0299901711334696,0.0314030208782306,0.0283425437860481,2.7990043390277663e-05,critical
1500,10.0,5.468354430379747,electrolyte-cathode interface,0.0305080245791314,0.032002454573021,0.0287535481243911,4.20098939724843e-06,critical
1500,0.0,5.5696202531645564,cathode,0.0204825292837395,0.0213939090512325,0.0194295997302954,-1.1622092979683562e-05,critical
1500,0.101010101010101,5.5696202531645564,cathode,0.0202700848325077,0.0212860332495639,0.0190714212606437,7.51127709637381e-05,critical
1500,0.202020202020202,5.5696202531645564,cathode,0.0200461402571719,0.0210368984524089,0.0188811259149912,4.298693956780824e-06,critical
1500,0.303030303030303,5.5696202531645564,cathode,0.0198317202119453,0.0207125749766832,0.0188142733286024,2.258662792976966e-05,critical
1500,0.404040404040404,5.5696202531645564,cathode,0.0195917908505819,0.0204654723982461,0.0185820609219801,-1.118097644766221e-05,critical
1500,0.5050505050505051,5.5696202531645564,cathode,0.0195710878060513,0.0205059220982535,0.018478393811255,-5.858416936384906e-06,critical
1500,0.6060606060606061,5.5696202531645564,cathode,0.0191253191363384,0.0200021410747894,0.0181066911719187,6.457686411867404e-05,critical
1500,0.7070707070707071,5.5696202531645564,cathode,0.0189874794351109,0.0198236459759994,0.0180230289848689,1.6061124309280726e-06,critical
1500,0.8080808080808081,5.5696202531645564,cathode,0.0188060092463169,0.0197265110364506,0.0177242241374132,8.109230809146264e-05,critical
1500,0.9090909090909092,5.5696202531645564,cathode,0.0186748030240796,0.0196455390169878,0.0175221678460733,-4.875372280327784e-05,critical
1500,1.0101010101010102,5.5696202531645564,cathode,0.018585255876192,0.0193819940763619,0.0176687902667579,-8.222003710517799e-05,critical
1500,1.1111111111111112,5.5696202531645564,cathode,0.0185797855360468,0.0194162190422945,0.0176113397671551,-4.167661339266249e-05,critical
1500,1.2121212121212122,5.5696202531645564,cathode,0.0183402465415324,0.0192029404741445,0.0173341982790703,4.028271976309163e-05,critical
1500,1.3131313131313131,5.5696202531645564,cathode,0.0180541371064399,0.0189383467095399,0.0170157730245701,-4.069403661315472e-05,critical
1500,1.414141414141414,5.5696202531645564,cathode,0.0181615680659548,0.0189251495412677,0.0172868474529457,-2.797461724131355e-05,critical
1500,1.5151515151515151,5.5696202531645564,cathode,0.0179710370082646,0.0188469697404518,0.0169435890823609,-9.11576887017078e-07,critical
1500,1.616161616161616,5.5696202531645564,cathode,0.0179987072874918,0.0188451560895209,0.0170118478571024,2.2484865136835902e-05,critical
1500,1.7171717171717171,5.5696202531645564,cathode,0.0177322406577578,0.0184854048787726,0.0168679668859127,-4.105165879321961e-05,critical
1500,1.818181818181818,5.5696202531645564,cathode,0.0178216476429852,0.0185954859439923,0.0169310162561122,-7.969960477883567e-06,critical
1500,1.9191919191919191,5.5696202531645564,cathode,0.0176998995571941,0.0184850466039451,0.0167914171399966,-9.64973134100562e-05,critical
1500,2.0202020202020203,5.5696202531645564,cathode,0.0174902518336499,0.0182602560020036,0.0166017302091261,4.603514605634568e-05,critical
1500,2.121212121212121,5.5696202531645564,cathode,0.0174441720475389,0.0181802326484696,0.0166005864572236,2.107479744877944e-05,critical
1500,2.2222222222222223,5.5696202531645564,cathode,0.017456212617149,0.0183344574516978,0.0164201330782183,1.2778294180950516e-05,critical
1500,2.323232323232323,5.5696202531645564,cathode,0.0172848167168155,0.0180359095913779,0.0164198856985556,4.390046249888596e-05,critical
1500,2.4242424242424243,5.5696202531645564,cathode,0.0171999396076684,0.0180754646454292,0.0161646194404784,3.457314454872289e-05,critical
1500,2.525252525252525,5.5696202531645564,cathode,0.017160076157624,0.0179389118671365,0.0162569963891798,-4.672119651992136e-05,critical
1500,2.6262626262626263,5.5696202531645564,cathode,0.0171075381981335,0.017999205786291,0.0160484390859028,-3.273543102614564e-05,critical
1500,2.727272727272727,5.5696202531645564,cathode,0.0169591688799256,0.0177693087491864,0.0160119379856352,3.645708744352181e-05,critical
1500,2.8282828282828283,5.5696202531645564,cathode,0.0170225012241276,0.0179504138284395,0.0159108027308789,-3.702890361163617e-06,critical
1500,2.929292929292929,5.5696202531645564,cathode,0.017044456327325,0.0178240835152294,0.0161393173491514,4.6598103188381366e-05,critical
1500,3.0303030303030303,5.5696202531645564,cathode,0.0168904981551039,0.0175582138466042,0.0161322904693224,2.2094899811286268e-05,critical
1500,3.131313131313131,5.5696202531645564,cathode,0.0167765549978519,0.0176861840242243,0.0156865554122315,7.953465310405861e-05,critical
1500,3.2323232323232323,5.5696202531645564,cathode,0.0168502238473993,0.0176769575216071,0.0158785779193143,-6.03521064958274e-05,critical
1500,3.333333333333333,5.5696202531645564,cathode,0.0168260811226271,0.0177037324726354,0.015783700126633,-5.0749488986708895e-06,critical
1500,3.4343434343434343,5.5696202531645564,cathode,0.0166674968278732,0.0174973726773218,0.0156902909141851,1.86052627787972e-05,critical
1500,3.5353535353535355,5.5696202531645564,cathode,0.0167051574254161,0.0175333473973283,0.0157298113057514,-6.657340848715547e-05,critical
1500,3.636363636363636,5.5696202531645564,cathode,0.0167374562980841,0.0174368223037672,0.015937089913727,1.862993757072493e-05,critical
1500,3.7373737373737375,5.5696202531645564,cathode,0.0166293593087109,0.0173803999796818,0.015758157056262,8.335933290135946e-05,critical
1500,3.8383838383838382,5.5696202531645564,cathode,0.016798380821588,0.0176611145921659,0.0157752308334827,8.34290273665544e-05,critical
1500,3.939393939393939,5.5696202531645564,cathode,0.0166903456425161,0.0175087288516838,0.0157293498002796,1.3256340570298234e-05,critical
1500,4.040404040404041,5.5696202531645564,cathode,0.0165610550070164,0.0172936935837225,0.0157154100497849,5.101907855439851e-06,critical
1500,4.141414141414141,5.5696202531645564,cathode,0.0165834592886477,0.0173782085719213,0.015653316357521,-5.55947349695172e-05,critical
1500,4.242424242424242,5.5696202531645564,cathode,0.0164287350808286,0.0172860074493743,0.0154100832308415,-4.254863321932193e-05,critical
1500,4.343434343434343,5.5696202531645564,cathode,0.0165322668249075,0.0174214411160081,0.0154666491495326,0.0001201628300826,critical
1500,4.444444444444445,5.5696202531645564,cathode,0.01656749147553,0.0173913931695974,0.0155967716792708,6.19651718776808e-05,critical
1500,4.545454545454545,5.5696202531645564,cathode,0.0165492539581471,0.0173717783472306,0.0155810894577449,1.5709875732380237e-06,critical
1500,4.646464646464646,5.5696202531645564,cathode,0.0164335375476644,0.0172889415407692,0.0154170312527619,-6.571692561372098e-05,critical
1500,4.747474747474747,5.5696202531645564,cathode,0.0165375003074932,0.0172804672528261,0.0156752191545789,0.0001110310494686,critical
1500,4.848484848484849,5.5696202531645564,cathode,0.0164848181420856,0.0172330788419069,0.0156169904389562,-5.372753373581376e-05,critical
1500,4.94949494949495,5.5696202531645564,cathode,0.0165210215147877,0.01731921990568,0.0155860847090484,2.284540587066605e-05,critical
1500,5.05050505050505,5.5696202531645564,cathode,0.0164923362970042,0.0172013014694839,0.0156775981931654,1.1431260429503476e-05,critical
1500,5.151515151515151,5.5696202531645564,cathode,0.0165860989513822,0.0173003406871989,0.0157639738664512,-7.334153767099135e-05,critical
1500,5.252525252525253,5.5696202531645564,cathode,0.0165475886907508,0.0173128568515639,0.0156579580039117,-2.292944420336601e-06,critical
1500,5.353535353535354,5.5696202531645564,cathode,0.0164593702172039,0.0171486598891226,0.0156695522685164,-6.133548735377642e-05,critical
1500,5.454545454545454,5.5696202531645564,cathode,0.0165164308645719,0.0172786740824364,0.0156302845108863,-3.961668516747967e-05,critical
1500,5.555555555555555,5.5696202531645564,cathode,0.0165221746502872,0.017349920299083,0.0155464555151972,-1.3935525071582989e-06,critical
1500,5.656565656565657,5.5696202531645564,cathode,0.0165892257377543,0.0174494132471922,0.0155687316107462,-8.476437364230024e-06,critical
1500,5.757575757575758,5.5696202531645564,cathode,0.0165182220190758,0.0172499896499569,0.0156733857659252,-8.881110033244852e-06,critical
1500,5.858585858585858,5.5696202531645564,cathode,0.0165297394851955,0.0174425652083311,0.0154313415857775,-9.144237996251778e-05,critical
1500,5.959595959595959,5.5696202531645564,cathode,0.0166002598185828,0.0174406590756005,0.0156076836036687,1.3394928441657408e-05,critical
1500,6.0606060606060606,5.5696202531645564,cathode,0.0166691949999556,0.0175424192440896,0.0156311759016734,-1.378268659161081e-05,critical
1500,6.161616161616162,5.5696202531645564,cathode,0.0165753081185715,0.0172788717366289,0.0157683184843859,-1.0255140192331982e-05,critical
1500,6.262626262626262,5.5696202531645564,cathode,0.0166546454441206,0.0173632402497575,0.0158380034866737,-0.0001314129246448,critical
1500,6.363636363636363,5.5696202531645564,cathode,0.0166038982844187,0.0175004112006423,0.0155312580394706,-5.314104864336642e-05,critical
1500,6.4646464646464645,5.5696202531645564,cathode,0.0167775476709568,0.0176048865035657,0.0158039621097884,-7.261296864833674e-05,critical
1500,6.565656565656566,5.5696202531645564,cathode,0.0168189518152935,0.0176534194838359,0.0158368912689283,2.633451042558167e-05,critical
1500,6.666666666666667,5.5696202531645564,cathode,0.016797796798283,0.0175497680634072,0.0159281052901369,2.333520061111729e-05,critical
1500,6.767676767676767,5.5696202531645564,cathode,0.0169124416170021,0.017726665208052,0.0159581011925664,7.946817978456766e-05,critical
1500,6.8686868686868685,5.5696202531645564,cathode,0.0168218437032692,0.0176109298702323,0.0159009796406063,-8.053668048321993e-05,critical
1500,6.96969696969697,5.5696202531645564,cathode,0.0169803882804891,0.0178694760195948,0.0159229911120196,5.5602231072071166e-05,critical
1500,7.070707070707071,5.5696202531645564,cathode,0.0169105682869875,0.0177399367854174,0.0159366665534817,-5.132590066120287e-06,critical
1500,7.171717171717171,5.5696202531645564,cathode,0.0171015765093589,0.0179550520980891,0.0160958395204491,-4.324559498073207e-05,critical
1500,7.272727272727272,5.5696202531645564,cathode,0.0171140665595994,0.017962982680091,0.016113978789991,-7.601953440146783e-05,critical
1500,7.373737373737374,5.5696202531645564,cathode,0.0171716002308955,0.0180290539787185,0.0161613055765568,-2.7807610498917814e-05,critical
1500,7.474747474747475,5.5696202531645564,cathode,0.0171106194383757,0.0179321854140111,0.0161485226462928,-6.71874003486976e-05,critical
1500,7.575757575757575,5.5696202531645564,cathode,0.017328773374814,0.0181279964993457,0.0163974406517987,-0.0001137488463624,critical
1500,7.6767676767676765,5.5696202531645564,cathode,0.0174475276120409,0.0183495064734571,0.0163780727226415,6.252791688115003e-06,critical
1500,7.777777777777778,5.5696202531645564,cathode,0.0174581273635509,0.0183348273864611,0.0164236755982553,-5.308087903455794e-05,critical
1500,7.878787878787879,5.5696202531645564,cathode,0.0175877481143644,0.0183835567841288,0.016665900189033,-2.3855076503652794e-06,critical
1500,7.979797979797979,5.5696202531645564,cathode,0.0175957415444304,0.0185165857311045,0.0165012374188438,2.5260927211672847e-05,critical
1500,8.080808080808081,5.5696202531645564,cathode,0.01760440819403,0.018462218006055,0.0165978480043124,-4.55487711238913e-05,critical
1500,8.181818181818182,5.5696202531645564,cathode,0.0176710642484932,0.0185113227610225,0.0166896568994421,-1.1825492611523797e-05,critical
1500,8.282828282828282,5.5696202531645564,cathode,0.0177614624377836,0.0184525631959378,0.0169784756804383,-8.53349217106454e-06,critical
1500,8.383838383838384,5.5696202531645564,cathode,0.0179300074070069,0.0187347174452276,0.0169983813758864,5.8964865743804255e-05,critical
1500,8.484848484848484,5.5696202531645564,cathode,0.0180058143562533,0.01890588152665,0.0169451311656538,2.687242895378424e-05,critical
1500,8.585858585858587,5.5696202531645564,cathode,0.0180570007816594,0.0189844292482603,0.0169586914824367,1.396592962890089e-05,critical
1500,8.686868686868687,5.5696202531645564,cathode,0.0181905333886968,0.0190102418785146,0.0172396281171008,-0.0001015405854133,critical
1500,8.787878787878787,5.5696202531645564,cathode,0.018280532694115,0.0191760064505685,0.0172288168216619,4.6280384013385656e-05,critical
1500,8.88888888888889,5.5696202531645564,cathode,0.0184079851217253,0.019228725957648,0.0174593518416892,2.6705289340604423e-05,critical
1500,8.98989898989899,5.5696202531645564,cathode,0.0186655103284996,0.0195406866111075,0.0176457230439059,1.678168584608243e-05,critical
1500,9.09090909090909,5.5696202531645564,cathode,0.0188064377876639,0.0196647026271171,0.0178104934977713,4.454394851420449e-05,critical
1500,9.191919191919192,5.5696202531645564,cathode,0.01885960542174,0.0197424172738973,0.0178312263506139,-1.359901163664039e-05,critical
1500,9.292929292929292,5.5696202531645564,cathode,0.0192052806108323,0.0201904401720153,0.018038768298191,-2.851541531753375e-05,critical
1500,9.393939393939394,5.5696202531645564,cathode,0.019259560276225,0.0201098032168338,0.0182783992093757,-2.3167331427641923e-05,critical
1500,9.494949494949497,5.5696202531645564,cathode,0.0194349155673635,0.0202807307517306,0.0184609939371203,2.6163511680672293e-05,critical
1500,9.595959595959595,5.5696202531645564,cathode,0.0197461217947585,0.0207540331241382,0.0185534261653433,-5.23887537300193e-05,critical
1500,9.696969696969695,5.5696202531645564,cathode,0.0198028650119701,0.02077737368538,0.0186578473350393,1.2230614841890578e-06,critical
1500,9.797979797979798,5.5696202531645564,cathode,0.0202068336934269,0.0212486648837321,0.0189717538532674,-4.954522657460926e-05,critical
1500,9.8989898989899,5.5696202531645564,cathode,0.0202704216822525,0.0213045882914392,0.0190469144184447,-4.558491083853893e-05,critical
1500,10.0,5.5696202531645564,cathode,0.0204395011817297,0.0213883078884958,0.0193355967820869,3.600226137023711e-05,critical
1500,0.0,5.670886075949367,cathode,0.0204794734046875,0.0214798553957237,0.0193046989219197,7.160993169079263e-05,critical
1500,0.101010101010101,5.670886075949367,cathode,0.0202765454086805,0.0212598295893671,0.0191239010790726,4.173361632462576e-05,critical
1500,0.202020202020202,5.670886075949367,cathode,0.0200273246085422,0.0209330338004007,0.0189781887626612,-2.037167293373446e-05,critical
1500,0.303030303030303,5.670886075949367,cathode,0.0198404943634481,0.0207606959267356,0.0187701018639685,-2.8133915401902652e-05,critical
1500,0.404040404040404,5.670886075949367,cathode,0.0196283354145301,0.0206516367678188,0.0184130082890613,-2.109258055668383e-05,critical
1500,0.5050505050505051,5.670886075949367,cathode,0.0194733422970647,0.0203125806517526,0.0185077252197999,6.805850605132592e-05,critical
1500,0.6060606060606061,5.670886075949367,cathode,0.0192430611789801,0.0200858352628871,0.018271425869313,4.644732287472702e-05,critical
1500,0.7070707070707071,5.670886075949367,cathode,0.0191354357427768,0.0201126133397737,0.0179785695646879,7.009558989166407e-05,critical
1500,0.8080808080808081,5.670886075949367,cathode,0.0189565417593703,0.0199270996349896,0.0178078668499828,-7.976454209285812e-06,critical
1500,0.9090909090909092,5.670886075949367,cathode,0.01866921379074,0.019559433961793,0.0176282384759702,-6.234641507253278e-05,critical
1500,1.0101010101010102,5.670886075949367,cathode,0.018670786721331,0.0195486546338198,0.0176474198008848,-9.452300167333118e-06,critical
1500,1.1111111111111112,5.670886075949367,cathode,0.0184458249293023,0.0191691782084841,0.0176252188001538,-3.505483430724659e-05,critical
1500,1.2121212121212122,5.670886075949367,cathode,0.0185074411993076,0.0194319900946796,0.0174181645409826,9.75631818378712e-06,critical
1500,1.3131313131313131,5.670886075949367,cathode,0.0182106857635587,0.0190022245259607,0.0172994079046901,-2.743697201825508e-05,critical
1500,1.414141414141414,5.670886075949367,cathode,0.0181308810667142,0.0189187730243439,0.0172237953771594,3.06793777399532e-05,critical
1500,1.5151515151515151,5.670886075949367,cathode,0.0179742587919727,0.0187665294368931,0.0170601033681779,-3.2440393902752824e-05,critical
1500,1.616161616161616,5.670886075949367,cathode,0.0178801976310979,0.0187613976315772,0.0168426534095803,-9.690226983627031e-05,critical
1500,1.7171717171717171,5.670886075949367,cathode,0.0177047762731881,0.018529003919933,0.0167455484702751,4.3318808873295015e-06,critical
1500,1.818181818181818,5.670886075949367,cathode,0.017850834683556,0.0186713900630655,0.0168974121637233,-4.874336544300966e-05,critical
1500,1.9191919191919191,5.670886075949367,cathode,0.0175790598904357,0.01842997663098,0.0165818430734142,3.986913310059597e-05,critical
1500,2.0202020202020203,5.670886075949367,cathode,0.0175259965330635,0.0183569754261293,0.0165559290983935,9.977232959299413e-07,critical
1500,2.121212121212121,5.670886075949367,cathode,0.0173455026148822,0.0181567002697922,0.016399518946207,-7.664786118197209e-05,critical
1500,2.2222222222222223,5.670886075949367,cathode,0.0174349264161619,0.0183188243626945,0.0163907377108568,-5.648002826270549e-06,critical
1500,2.323232323232323,5.670886075949367,cathode,0.0173119687170935,0.0181538759082691,0.0163222330045292,-0.0001118818196834,critical
1500,2.4242424242424243,5.670886075949367,cathode,0.0171851630431298,0.018076707072215,0.0161265962646446,6.09368779777811e-05,critical
1500,2.525252525252525,5.670886075949367,cathode,0.0171460767358819,0.0180016885039001,0.0161380256736733,3.160718575272561e-05,critical
1500,2.6262626262626263,5.670886075949367,cathode,0.017111016389813,0.0179669574430211,0.0161022970528459,-1.45789619464191e-05,critical
1500,2.727272727272727,5.670886075949367,cathode,0.0170143668568023,0.0177867660515706,0.0161171462516928,9.855533792444648e-05,critical
1500,2.8282828282828283,5.670886075949367,cathode,0.0170574612339199,0.0177950902307355,0.0162084377345814,-5.4484300474946745e-05,critical
1500,2.929292929292929,5.670886075949367,cathode,0.0168577756329135,0.0177088784032304,0.0158527482211871,4.0781658171552186e-05,critical
1500,3.0303030303030303,5.670886075949367,cathode,0.0170056559441401,0.0178794743247555,0.0159697133759226,-7.086825868868201e-05,critical
1500,3.131313131313131,5.670886075949367,cathode,0.0167199594201491,0.0174838071585836,0.015829570437345,0.0001406970170049,critical
1500,3.2323232323232323,5.670886075949367,cathode,0.0168674845621719,0.0176991319175129,0.0158899670364905,-1.056952548525137e-05,critical
1500,3.333333333333333,5.670886075949367,cathode,0.0169129065263316,0.0177344334331144,0.0159495767647306,3.645280644255197e-05,critical
1500,3.4343434343434343,5.670886075949367,cathode,0.0167658262003854,0.0175325020036761,0.0158759268185759,-3.636885454603458e-05,critical
1500,3.5353535353535355,5.670886075949367,cathode,0.0167692557705419,0.0174199453175764,0.0160323395160406,-1.962579014392175e-06,critical
1500,3.636363636363636,5.670886075949367,cathode,0.0167693264089985,0.0176771551505462,0.015683141727487,-1.7215452365227888e-05,critical
1500,3.7373737373737375,5.670886075949367,cathode,0.0166395906737959,0.0174582328198683,0.0156754865288161,0.0001024696189709,critical
1500,3.8383838383838382,5.670886075949367,cathode,0.0166810309014673,0.0174742942934886,0.0157541960362167,3.914088602131552e-05,critical
1500,3.939393939393939,5.670886075949367,cathode,0.0166876516939953,0.0174379365306945,0.015819304208751,2.398412331965395e-05,critical
1500,4.040404040404041,5.670886075949367,cathode,0.0165311956190204,0.0173769387676557,0.0155296356498142,5.879913351502926e-05,critical
1500,4.141414141414141,5.670886075949367,cathode,0.0166300139979304,0.0174516633427658,0.0156639078689845,-4.048691556980453e-06,critical
1500,4.242424242424242,5.670886075949367,cathode,0.0166810220746408,0.0174332640526918,0.0158094909370118,5.424721155552265e-05,critical
1500,4.343434343434343,5.670886075949367,cathode,0.0164758576359818,0.0171882802203644,0.0156560571596192,4.27384591896141e-05,critical
1500,4.444444444444445,5.670886075949367,cathode,0.016498782549785,0.0172745432443653,0.0155938001089341,5.523830802425085e-05,critical
1500,4.545454545454545,5.670886075949367,cathode,0.0166102132596572,0.0174519479049538,0.015615528568849,-4.22589690751726e-05,critical
1500,4.646464646464646,5.670886075949367,cathode,0.0164676530720646,0.0172509669706711,0.015550145429036,-0.000109176615258,critical
1500,4.747474747474747,5.670886075949367,cathode,0.0164644050470367,0.0171601475044013,0.0156653088872902,-8.771137092972205e-05,critical
1500,4.848484848484849,5.670886075949367,cathode,0.0165505098312847,0.0173014988950289,0.0156788433624634,-7.931705805175433e-05,critical
1500,4.94949494949495,5.670886075949367,cathode,0.0165173485572477,0.0172931914369443,0.0156126705591482,-4.378782026099392e-05,critical
1500,5.05050505050505,5.670886075949367,cathode,0.0165880644851996,0.0173902132516536,0.015648282370222,2.9398011282957165e-05,critical
1500,5.151515151515151,5.670886075949367,cathode,0.0164205157827269,0.0172340218007985,0.015463137343329,4.187571054572286e-05,critical
1500,5.252525252525253,5.670886075949367,cathode,0.0166440004895871,0.0174654202180743,0.0156783544961274,-5.738757678934349e-06,critical
1500,5.353535353535354,5.670886075949367,cathode,0.0164831788740762,0.0172821460635897,0.0155466055678659,3.819583580598292e-05,critical
1500,5.454545454545454,5.670886075949367,cathode,0.0165559775814772,0.0173457470596293,0.0156330576583299,-2.874199053575164e-06,critical
1500,5.555555555555555,5.670886075949367,cathode,0.0165223572025243,0.0173230238843563,0.0155840324774284,-2.33066039356364e-05,critical
1500,5.656565656565657,5.670886075949367,cathode,0.0165251350632969,0.0171678758421726,0.015796483978159,-4.9320501548032186e-05,critical
1500,5.757575757575758,5.670886075949367,cathode,0.0165819063215825,0.0174818194648545,0.0155045642982932,2.6364875976886876e-05,critical
1500,5.858585858585858,5.670886075949367,cathode,0.0167626757037291,0.0176213513121404,0.0157462946996354,-1.249908691320315e-05,critical
1500,5.959595959595959,5.670886075949367,cathode,0.0166160049771406,0.0173178145802387,0.0158103586743388,-7.818380663913052e-05,critical
1500,6.0606060606060606,5.670886075949367,cathode,0.016685190065342,0.0175430175405365,0.0156689303450918,-3.185809717952702e-05,critical
1500,6.161616161616162,5.670886075949367,cathode,0.0166554598912732,0.0174734381093037,0.0156936515604989,6.989224837417325e-05,critical
1500,6.262626262626262,5.670886075949367,cathode,0.0166701789152795,0.0174506827243406,0.015760859537907,-2.3118586388044293e-05,critical
1500,6.363636363636363,5.670886075949367,cathode,0.0165877782710134,0.0174285356623328,0.0155939998579248,-5.254746550650739e-05,critical
1500,6.4646464646464645,5.670886075949367,cathode,0.0168132360218413,0.0176089791197514,0.0158845714352377,8.88696481113802e-06,critical
1500,6.565656565656566,5.670886075949367,cathode,0.0168979088684731,0.0177203192139717,0.0159328505036364,-5.50237035842565e-05,critical
1500,6.666666666666667,5.670886075949367,cathode,0.0167431761890223,0.0175015291310119,0.0158638970852018,-5.672510069115924e-05,critical
1500,6.767676767676767,5.670886075949367,cathode,0.0168807078383913,0.017669769524768,0.0159616812280569,2.238279236268627e-05,critical
1500,6.8686868686868685,5.670886075949367,cathode,0.0168706898503089,0.0176940195595255,0.015904651329372,-1.9370535109021125e-05,critical
1500,6.96969696969697,5.670886075949367,cathode,0.0169445692117852,0.017810935058571,0.0159187582172655,-5.80911737306692e-05,critical
1500,7.070707070707071,5.670886075949367,cathode,0.0168978701661293,0.0175956890211527,0.0161000646608358,5.595513581394005e-05,critical
1500,7.171717171717171,5.670886075949367,cathode,0.0171838880636975,0.0181155167507009,0.0160689666739623,1.5078093790979435e-06,critical
1500,7.272727272727272,5.670886075949367,cathode,0.0170026488619434,0.0178458955725218,0.0160104077730777,-1.8144501454082e-05,critical
1500,7.373737373737374,5.670886075949367,cathode,0.0170575271804334,0.0178798948586881,0.0160941924354298,-5.174226452465058e-05,critical
1500,7.474747474747475,5.670886075949367,cathode,0.0171917607257135,0.018016134567288,0.016227021944844,5.000629877751397e-05,critical
1500,7.575757575757575,5.670886075949367,cathode,0.0171367661652302,0.0180569307159725,0.0160369951407544,5.687625385304004e-05,critical
1500,7.6767676767676765,5.670886075949367,cathode,0.017435780359997,0.0183271523326198,0.0163811258144041,-3.1290076015205483e-06,critical
1500,7.777777777777778,5.670886075949367,cathode,0.0174400696147877,0.0182927095613924,0.0164381736753701,7.743395643216195e-05,critical
1500,7.878787878787879,5.670886075949367,cathode,0.0174694597109287,0.0184185921205794,0.0163330914576024,7.301844195592519e-06,critical
1500,7.979797979797979,5.670886075949367,cathode,0.0176035901116303,0.0184793539462079,0.016572577140918,-4.769529650167682e-06,critical
1500,8.080808080808081,5.670886075949367,cathode,0.0177062750547915,0.0185784337044664,0.0166813398551717,-3.857543334352507e-06,critical
1500,8.181818181818182,5.670886075949367,cathode,0.0176904530172901,0.0184412936188512,0.0168292288216716,1.443337988054903e-05,critical
1500,8.282828282828282,5.670886075949367,cathode,0.0178032236835855,0.0186269844672207,0.0168452278079204,3.794737536636619e-05,critical
1500,8.383838383838384,5.670886075949367,cathode,0.0180502969179002,0.0189719988239385,0.0169599784485375,1.0027522991321188e-05,critical
1500,8.484848484848484,5.670886075949367,cathode,0.0180552425358967,0.0189234596488777,0.0170391249270207,2.498451115506053e-05,critical
1500,8.585858585858587,5.670886075949367,cathode,0.0180993315525756,0.0189289349107158,0.0171363229286731,1.096363093088158e-06,critical
1500,8.686868686868687,5.670886075949367,cathode,0.0182563173258381,0.0191769566626893,0.0171686259600692,-7.688540485890377e-05,critical
1500,8.787878787878787,5.670886075949367,cathode,0.0184094196772855,0.0192801527176613,0.0173933081261,1.7449022664495645e-05,critical
1500,8.88888888888889,5.670886075949367,cathode,0.018440800771821,0.0193433570698838,0.017381316615717,1.3124019806580834e-05,critical
1500,8.98989898989899,5.670886075949367,cathode,0.0185794058573442,0.0194593195129266,0.0175522798310335,-2.645909561096045e-05,critical
1500,9.09090909090909,5.670886075949367,cathode,0.018912717937896,0.0197168932694929,0.0179889330803896,7.995791641933615e-05,critical
1500,9.191919191919192,5.670886075949367,cathode,0.0189265853874981,0.0197991379571356,0.0179123239289904,-4.828612799127025e-05,critical
1500,9.292929292929292,5.670886075949367,cathode,0.0192634024694388,0.0200850203109864,0.0183194370665551,7.100455142265875e-05,critical
1500,9.393939393939394,5.670886075949367,cathode,0.019266561717975,0.0200607658074013,0.0183589661575007,-5.585049242803192e-05,critical
1500,9.494949494949497,5.670886075949367,cathode,0.0194909576686414,0.0204325735898074,0.0183879297424176,3.712479829751681e-05,critical
1500,9.595959595959595,5.670886075949367,cathode,0.0196078701405955,0.0205175532942002,0.0185495150580343,3.972055159722596e-05,critical
1500,9.696969696969695,5.670886075949367,cathode,0.019846581293174,0.0208146710656596,0.0187106575703576,3.5277419430062135e-05,critical
1500,9.797979797979798,5.670886075949367,cathode,0.0200079244169173,0.0209707138689828,0.0188811200391231,-4.872813072972661e-06,critical
1500,9.8989898989899,5.670886075949367,cathode,0.0202477762336367,0.021225963927451,0.0191021615148437,6.177086998044544e-06,critical
1500,10.0,5.670886075949367,cathode,0.0204760720410185,0.0214632175219794,0.019320298070241,-2.35399042746163e-05,critical
1500,0.0,5.772151898734177,cathode,0.0204987458940833,0.0214145153873791,0.0194396254586878,5.2391124544656144e-05,critical
1500,0.101010101010101,5.772151898734177,cathode,0.0203147044244411,0.0212738343368234,0.0191958115671265,-1.3190667163634933e-05,critical
1500,0.202020202020202,5.772151898734177,cathode,0.020046229185584,0.0208924107434415,0.0190764356752917,1.642623697499899e-05,critical
1500,0.303030303030303,5.772151898734177,cathode,0.0198522001554356,0.0207929650645052,0.0187516856197235,-0.0001153043050591,critical
1500,0.404040404040404,5.772151898734177,cathode,0.0196937854716348,0.0205439459995104,0.0187160024353416,-3.29907594363765e-05,critical
1500,0.5050505050505051,5.772151898734177,cathode,0.019522356926797,0.0205002666478277,0.0183696399316397,-1.0534867949020137e-05,critical
1500,0.6060606060606061,5.772151898734177,cathode,0.0193684862916001,0.0203318482034247,0.0182343914591124,-4.3667357407360425e-06,critical
1500,0.7070707070707071,5.772151898734177,cathode,0.0190380721333376,0.019963562561218,0.0179529847417051,-8.81918791663194e-06,critical
1500,0.8080808080808081,5.772151898734177,cathode,0.0189662049312806,0.0200072598161572,0.0177170093674298,3.0945101800584804e-05,critical
1500,0.9090909090909092,5.772151898734177,cathode,0.0188826789660347,0.0198412061543208,0.0177500018357221,-1.8108654171879823e-05,critical
1500,1.0101010101010102,5.772151898734177,cathode,0.0186052500073026,0.0195115175884265,0.0175423391772649,1.2675304109867058e-06,critical
1500,1.1111111111111112,5.772151898734177,cathode,0.0184421308621269,0.0193059221427457,0.0174358408499251,-5.006979970830885e-07,critical
1500,1.2121212121212122,5.772151898734177,cathode,0.0183014378284153,0.0192365961899554,0.0171950595564389,1.0608360093559933e-05,critical
1500,1.3131313131313131,5.772151898734177,cathode,0.0182112628635232,0.0191824778470616,0.0170526968863409,1.9560920227866123e-05,critical
1500,1.414141414141414,5.772151898734177,cathode,0.0180880759285385,0.019004833557334,0.0170048031898189,4.047644525729517e-05,critical
1500,1.5151515151515151,5.772151898734177,cathode,0.0179050738029295,0.0187646105694146,0.0168994845695658,1.5557648759392572e-05,critical
1500,1.616161616161616,5.772151898734177,cathode,0.0178793679897557,0.0186343155516412,0.017013881305232,-3.6329814670256e-05,critical
1500,1.7171717171717171,5.772151898734177,cathode,0.0177301664876762,0.0186098353733464,0.0166949628423718,2.278018260197516e-05,critical
1500,1.818181818181818,5.772151898734177,cathode,0.0177411597059326,0.0185715592730441,0.0167716285011693,0.0001059938880676,critical
1500,1.9191919191919191,5.772151898734177,cathode,0.0176082133499502,0.0184670015874208,0.0166006878645132,-1.933320811310444e-05,critical
1500,2.0202020202020203,5.772151898734177,cathode,0.0175837102430841,0.0183861725058645,0.0166513193293186,8.778900744268484e-05,critical
1500,2.121212121212121,5.772151898734177,cathode,0.0173436724655518,0.0181158969226351,0.0164514257506395,-7.685071393521139e-06,critical
1500,2.2222222222222223,5.772151898734177,cathode,0.0173236889236689,0.0181461771485829,0.0163631893073753,2.4633275079673523e-05,critical
1500,2.323232323232323,5.772151898734177,cathode,0.0174737722771029,0.0183626851008818,0.0164226079292262,-4.335981413210653e-05,critical
1500,2.4242424242424243,5.772151898734177,cathode,0.0173387235464325,0.0182007572472215,0.0163236323418972,4.189933037641434e-05,critical
1500,2.525252525252525,5.772151898734177,cathode,0.0172275703010978,0.0180038622224164,0.0163288059357456,-2.444444050120002e-05,critical
1500,2.6262626262626263,5.772151898734177,cathode,0.017102286658528,0.0179555537782259,0.0160963803691816,-6.392660360935938e-05,critical
1500,2.727272727272727,5.772151898734177,cathode,0.0170645844538327,0.017882795998433,0.0161072572880778,-3.961772772938669e-05,critical
1500,2.8282828282828283,5.772151898734177,cathode,0.016977329055291,0.0178244158831267,0.0159794182125985,2.509751387212714e-05,critical
1500,2.929292929292929,5.772151898734177,cathode,0.0170282371739447,0.0179437506739766,0.0159342969440592,-2.520205101770039e-05,critical
1500,3.0303030303030303,5.772151898734177,cathode,0.0168332428374169,0.0175802302783731,0.0159705803170236,1.4280205945103557e-05,critical
1500,3.131313131313131,5.772151898734177,cathode,0.0169298758731735,0.0178055184454683,0.015891269249025,3.6784777474720304e-05,critical
1500,3.2323232323232323,5.772151898734177,cathode,0.0168088966999092,0.0176491729558509,0.0158186644964657,2.5175514798756672e-05,critical
1500,3.333333333333333,5.772151898734177,cathode,0.0169177374894791,0.0177058857992046,0.0160003069192315,-2.0292716111849285e-05,critical
1500,3.4343434343434343,5.772151898734177,cathode,0.0168378741330353,0.0176159835988674,0.0159323641815703,-7.109820418634732e-05,critical
1500,3.5353535353535355,5.772151898734177,cathode,0.0167595760621102,0.0176580714826114,0.0156867152478101,1.317063220980611e-06,critical
1500,3.636363636363636,5.772151898734177,cathode,0.016763656317388,0.0176474649072971,0.0157114346392797,-4.069598195630426e-05,critical
1500,3.7373737373737375,5.772151898734177,cathode,0.0167208191223785,0.0174966245538966,0.0158184449479181,6.138761323547853e-06,critical
1500,3.8383838383838382,5.772151898734177,cathode,0.0167393844294831,0.0175480105665893,0.0157923437593257,-1.169016735620808e-05,critical
1500,3.939393939393939,5.772151898734177,cathode,0.0166194454536313,0.0174453939026699,0.0156471992770312,1.7401275542179207e-05,critical
1500,4.040404040404041,5.772151898734177,cathode,0.0167654396444451,0.0176158228073376,0.0157606415572898,2.3093995070988407e-05,critical
1500,4.141414141414141,5.772151898734177,cathode,0.0165681773463778,0.0173099753685867,0.0157101098018832,3.3251772442372256e-05,critical
1500,4.242424242424242,5.772151898734177,cathode,0.0165827765545311,0.0173496624152411,0.0156908664175054,4.335415796814231e-05,critical
1500,4.343434343434343,5.772151898734177,cathode,0.0167342663695098,0.0176183737242749,0.0156809923086012,-5.366971676780143e-05,critical
1500,4.444444444444445,5.772151898734177,cathode,0.0164411971525883,0.0172626444005926,0.0154720741529601,7.7260935409569e-05,critical
1500,4.545454545454545,5.772151898734177,cathode,0.0165568086285287,0.0172772572301589,0.0157273463548583,9.656080263336568e-06,critical
1500,4.646464646464646,5.772151898734177,cathode,0.0165320591542529,0.0172437511878447,0.015713106105678,-6.636625056400143e-05,critical
1500,4.747474747474747,5.772151898734177,cathode,0.0164228563492456,0.0172569528861314,0.0154355184437982,-8.674230532630985e-05,critical
1500,4.848484848484849,5.772151898734177,cathode,0.016422506237035,0.0172547049939137,0.0154394471444657,1.216961504959002e-05,critical
1500,4.94949494949495,5.772151898734177,cathode,0.0163669740244482,0.0171455694551816,0.0154575236206328,-9.918581105212492e-06,critical
1500,5.05050505050505,5.772151898734177,cathode,0.016469851291101,0.0172851478728663,0.0155108262017824,1.69275944940886e-05,critical
1500,5.151515151515151,5.772151898734177,cathode,0.0164948241886645,0.0172638316083524,0.0155974410493424,0.000101278037671,critical
1500,5.252525252525253,5.772151898734177,cathode,0.0165540455473867,0.0173707569026991,0.0155939975774124,1.7537055769142195e-06,critical
1500,5.353535353535354,5.772151898734177,cathode,0.0165913140137484,0.0174142654310443,0.0156227472656136,-3.413561297442438e-05,critical
1500,5.454545454545454,5.772151898734177,cathode,0.0166255047071165,0.0174213492269705,0.0156945503353771,4.215052974851075e-05,critical
1500,5.555555555555555,5.772151898734177,cathode,0.0165229072212782,0.0173145973726142,0.0155970312940636,-6.130361694997744e-06,critical
1500,5.656565656565657,5.772151898734177,cathode,0.0165731470977303,0.0173810765439369,0.0156252552855509,-2.9087768857050103e-05,critical
1500,5.757575757575758,5.772151898734177,cathode,0.016476924301364,0.0172649321085956,0.0155556361802759,-1.0634908408597077e-05,critical
1500,5.858585858585858,5.772151898734177,cathode,0.0166438328767971,0.0173911654380164,0.0157777354479261,-8.32848239331749e-05,critical
1500,5.959595959595959,5.772151898734177,cathode,0.0166208770467391,0.0174559035929741,0.0156359947425575,1.887478617975499e-05,critical
1500,6.0606060606060606,5.772151898734177,cathode,0.016779627590149,0.0176923192126038,0.0156861648918911,-4.694115713165328e-05,critical
1500,6.161616161616162,5.772151898734177,cathode,0.0167572258152913,0.0174919585033441,0.0159097064120142,5.529009798356856e-05,critical
1500,6.262626262626262,5.772151898734177,cathode,0.0167576468040549,0.0175932195182864,0.0157727852755212,5.964285422194429e-05,critical
1500,6.363636363636363,5.772151898734177,cathode,0.0167328680394022,0.0175428824921741,0.0157835394197239,4.003093244025427e-05,critical
1500,6.4646464646464645,5.772151898734177,cathode,0.0167632566393756,0.0176536488674724,0.0157013072774823,5.706731873411847e-05,critical
1500,6.565656565656566,5.772151898734177,cathode,0.0167472993397619,0.0175855916505933,0.015759275038476,-1.1934150835342835e-05,critical
1500,6.666666666666667,5.772151898734177,cathode,0.0168184781906875,0.0175852874675157,0.0159275669948178,8.626939017659695e-05,critical
1500,6.767676767676767,5.772151898734177,cathode,0.0170687312467204,0.0179610356121625,0.0160084962468769,1.3181367418778828e-06,critical
1500,6.8686868686868685,5.772151898734177,cathode,0.01700969414915,0.0177740583404181,0.0161252263327408,1.055884310549959e-05,critical
1500,6.96969696969697,5.772151898734177,cathode,0.0170277941590903,0.0178857830671717,0.0160139206701635,-8.244984248192852e-05,critical
1500,7.070707070707071,5.772151898734177,cathode,0.0170159074852208,0.0178058019903505,0.0160969427160221,-2.538289864913324e-05,critical
1500,7.171717171717171,5.772151898734177,cathode,0.0170278668323636,0.0178423841629104,0.016073926899378,-8.874875121019836e-05,critical
1500,7.272727272727272,5.772151898734177,cathode,0.0170374032647035,0.0178549978727179,0.0160809820944324,5.064096358750757e-06,critical
1500,7.373737373737374,5.772151898734177,cathode,0.0172209316607454,0.0180586045581872,0.016238684568016,1.1479467186737648e-05,critical
1500,7.474747474747475,5.772151898734177,cathode,0.0172071587706666,0.0179145971012763,0.0163995154026113,6.565346980128001e-06,critical
1500,7.575757575757575,5.772151898734177,cathode,0.017329009121963,0.0181408831187954,0.0163826272418223,-5.088368262582166e-05,critical
1500,7.6767676767676765,5.772151898734177,cathode,0.0173935932896904,0.01821257207651,0.0164375728223004,-7.299631426914569e-05,critical
1500,7.777777777777778,5.772151898734177,cathode,0.0174177862970308,0.0182565932016324,0.0164347604394709,-7.630894671500393e-05,critical
1500,7.878787878787879,5.772151898734177,cathode,0.0175347863609364,0.0183140943374572,0.016634616700694,7.025366943169028e-06,critical
1500,7.979797979797979,5.772151898734177,cathode,0.0174019899891536,0.0181874561155017,0.0164924832135774,-1.6084937159603714e-06,critical
1500,8.080808080808081,5.772151898734177,cathode,0.0175163479331082,0.0183399601378086,0.0165560414165831,-3.1301169963903687e-05,critical
1500,8.181818181818182,5.772151898734177,cathode,0.0178067649498643,0.0185279376641249,0.0169851679301946,-1.4223249136196817e-05,critical
1500,8.282828282828282,5.772151898734177,cathode,0.0178588140615194,0.0186773124879895,0.0169085552356341,-2.8092761796329043e-05,critical
1500,8.383838383838384,5.772151898734177,cathode,0.017902456947843,0.018768788444398,0.0168875359577082,9.382844366831096e-06,critical
1500,8.484848484848484,5.772151898734177,cathode,0.0180160604114119,0.0188316351120224,0.0170695308711801,-9.353162136110991e-05,critical
1500,8.585858585858587,5.772151898734177,cathode,0.0182096105072801,0.0192006499351717,0.0170225948103967,-1.9207269380145886e-05,critical
1500,8.686868686868687,5.772151898734177,cathode,0.0183523099311291,0.0192912512038029,0.0172412130614405,-4.131042719694743e-06,critical
1500,8.787878787878787,5.772151898734177,cathode,0.0183860177183189,0.0191770588739672,0.0174761527222038,-6.152548817443934e-05,critical
1500,8.88888888888889,5.772151898734177,cathode,0.0185987450726254,0.0195114921186362,0.0175267667883312,1.6447735935112093e-05,critical
1500,8.98989898989899,5.772151898734177,cathode,0.0186932600290368,0.0196246053842216,0.0175965101753674,-8.794050651153892e-06,critical
1500,9.09090909090909,5.772151898734177,cathode,0.0188002664800487,0.0197007932698699,0.0177471254085029,1.5840885194917963e-05,critical
1500,9.191919191919192,5.772151898734177,cathode,0.0190223439699465,0.0199154523410695,0.0179809813746171,-5.168681027185779e-05,critical
1500,9.292929292929292,5.772151898734177,cathode,0.0192129184058506,0.0201513811829981,0.0181114734775973,3.561081527925927e-05,critical
1500,9.393939393939394,5.772151898734177,cathode,0.0193101456926424,0.0203336925496531,0.0180872983700871,-0.0001340096388258,critical
1500,9.494949494949497,5.772151898734177,cathode,0.0194278672403109,0.02050497938304,0.0181304323200457,0.0001146164976952,critical
1500,9.595959595959595,5.772151898734177,cathode,0.0197390748600515,0.0206537338012588,0.0186745340729234,7.068512662252824e-05,critical
1500,9.696969696969695,5.772151898734177,cathode,0.0198713430969621,0.0208376721870638,0.0187380596174311,-3.812175642072057e-05,critical
1500,9.797979797979798,5.772151898734177,cathode,0.0200846774436095,0.0209699217115689,0.019063482510608,2.695030225811731e-06,critical
1500,9.8989898989899,5.772151898734177,cathode,0.020266183185355,0.0212486433549135,0.0191143138192172,5.651258555426622e-05,critical
1500,10.0,5.772151898734177,cathode,0.0206624074763938,0.0215714720346913,0.0196135941796674,5.065793410196587e-05,critical
1500,0.0,5.873417721518988,cathode,0.0205176162781703,0.0214170926507689,0.0194803389692175,5.579230269584513e-05,critical
1500,0.101010101010101,5.873417721518988,cathode,0.0201617869340046,0.0210853808247433,0.0190896491105756,2.6993765057513937e-05,critical
1500,0.202020202020202,5.873417721518988,cathode,0.0200428555915864,0.0209666193715757,0.0189695529660183,-1.1392241937788365e-05,critical
1500,0.303030303030303,5.873417721518988,cathode,0.0199056134373978,0.0209693617308903,0.0186361722688864,-1.8580169001918717e-05,critical
1500,0.404040404040404,5.873417721518988,cathode,0.0195667229388727,0.0205159071046026,0.0184530449797614,-8.223912018115158e-05,critical
1500,0.5050505050505051,5.873417721518988,cathode,0.0195237481860085,0.0205522225368155,0.0182995694731477,-4.2713250754083183e-05,critical
1500,0.6060606060606061,5.873417721518988,cathode,0.0193759795406492,0.0204049770442547,0.0181493614724738,3.4045745150798185e-05,critical
1500,0.7070707070707071,5.873417721518988,cathode,0.0191851603884874,0.0201330661130246,0.0180705373386764,1.8540491904267785e-05,critical
1500,0.8080808080808081,5.873417721518988,cathode,0.0189840197115464,0.0199120535495797,0.0178913988145991,-0.0001359749697558,critical
1500,0.9090909090909092,5.873417721518988,cathode,0.01878590925375,0.0195447907885679,0.0179217052257918,-4.217233910957737e-07,critical
1500,1.0101010101010102,5.873417721518988,cathode,0.0187073532899322,0.0195768031117684,0.017695682890061,-2.275931170903348e-05,critical
1500,1.1111111111111112,5.873417721518988,cathode,0.018456129478888,0.0193710780865039,0.0173786507919933,-7.245064476552579e-05,critical
1500,1.2121212121212122,5.873417721518988,cathode,0.0183919580217569,0.0192152463217339,0.0174397675706324,-2.807973745066647e-05,critical
1500,1.3131313131313131,5.873417721518988,cathode,0.0181828096355824,0.0189840859088326,0.01725833568247,2.9581303539254228e-05,critical
1500,1.414141414141414,5.873417721518988,cathode,0.0181732794679463,0.0190308347673827,0.0171729166278565,-2.0720264816047124e-05,critical
1500,1.5151515151515151,5.873417721518988,cathode,0.0180227196092069,0.0188786420205841,0.0170222223722592,7.230869183566452e-05,critical
1500,1.616161616161616,5.873417721518988,cathode,0.0179423880525659,0.0187844236022713,0.0169611170334938,-3.4185896367954773e-06,critical
1500,1.7171717171717171,5.873417721518988,cathode,0.0177953385755751,0.0186101596386163,0.0168496421973991,-6.382563681002529e-06,critical
1500,1.818181818181818,5.873417721518988,cathode,0.0176358436369423,0.0184873489149988,0.0166385936504774,-2.308309139163276e-05,critical
1500,1.9191919191919191,5.873417721518988,cathode,0.0174720926912312,0.0183945461710896,0.0163730807263108,-6.406008491988119e-05,critical
1500,2.0202020202020203,5.873417721518988,cathode,0.0175328231880227,0.0183071162168349,0.0166383383379652,7.088893969304141e-05,critical
1500,2.121212121212121,5.873417721518988,cathode,0.0173999397190575,0.0183007670183287,0.0163315230520465,1.3928365915491247e-05,critical
1500,2.2222222222222223,5.873417721518988,cathode,0.0174169826596877,0.0182159677311851,0.0164876609239922,9.226988296975134e-05,critical
1500,2.323232323232323,5.873417721518988,cathode,0.0173879095803584,0.0182261494614753,0.0164061390372676,-4.553186251798638e-05,critical
1500,2.4242424242424243,5.873417721518988,cathode,0.017296561335968,0.0180768649146907,0.0163927762163078,4.032396281124821e-05,critical
1500,2.525252525252525,5.873417721518988,cathode,0.017215692552472,0.0180608980913558,0.0162215977873038,8.250239854771229e-05,critical
1500,2.6262626262626263,5.873417721518988,cathode,0.0172710073003316,0.0180912373438481,0.016313160549596,1.7095328891877272e-05,critical
1500,2.727272727272727,5.873417721518988,cathode,0.017091443252773,0.0178635965553494,0.0161971565513533,1.7703094184632644e-05,critical
1500,2.8282828282828283,5.873417721518988,cathode,0.0170427658894107,0.0178015778360452,0.0161658630675246,2.8499555067337047e-05,critical
1500,2.929292929292929,5.873417721518988,cathode,0.0169768279368709,0.0178297240684802,0.0159709435859432,5.906641134599244e-06,critical
1500,3.0303030303030303,5.873417721518988,cathode,0.0169499502632889,0.0178210384855169,0.0159176822566336,5.298080860708199e-05,critical
1500,3.131313131313131,5.873417721518988,cathode,0.0169272080073763,0.0177906555477207,0.0159059460399649,1.8563752412524624e-05,critical
1500,3.2323232323232323,5.873417721518988,cathode,0.0168283731283505,0.0175982476817132,0.0159349529341869,1.07113270008525e-05,critical
1500,3.333333333333333,5.873417721518988,cathode,0.0168290236245928,0.0176343286489291,0.015887106042224,4.000037814336285e-05,critical
1500,3.4343434343434343,5.873417721518988,cathode,0.0168442349496423,0.0177711312252792,0.0157309620631085,5.467999356979728e-05,critical
1500,3.5353535353535355,5.873417721518988,cathode,0.016707837922399,0.0174588748284872,0.0158376350263358,-7.335312084567663e-05,critical
1500,3.636363636363636,5.873417721518988,cathode,0.0168033815718178,0.0177264698026899,0.0156956691972498,-1.5001010977365792e-05,critical
1500,3.7373737373737375,5.873417721518988,cathode,0.0166912854018629,0.0175530478426518,0.0156697521097124,-9.95128900486865e-06,critical
1500,3.8383838383838382,5.873417721518988,cathode,0.0166085281297336,0.0173005753624843,0.0158142432026764,-0.0001133093381205,critical
1500,3.939393939393939,5.873417721518988,cathode,0.0167212459703901,0.0175279158278892,0.0157762347512611,4.887196519829925e-05,critical
1500,4.040404040404041,5.873417721518988,cathode,0.0166365574342705,0.0173408928188931,0.0158289670384201,-1.5306328621407622e-05,critical
1500,4.141414141414141,5.873417721518988,cathode,0.0166112108957004,0.0174572073017287,0.0156109124203525,1.4004061478368596e-05,critical
1500,4.242424242424242,5.873417721518988,cathode,0.0165580752236272,0.0172674012666148,0.0157432584126555,2.368837049158076e-05,critical
1500,4.343434343434343,5.873417721518988,cathode,0.0165375461837935,0.0172910953048066,0.0156628216705063,-6.276014136091351e-05,critical
1500,4.444444444444445,5.873417721518988,cathode,0.0165177738021023,0.0172597909169155,0.0156591640238857,1.7775833541470823e-05,critical
1500,4.545454545454545,5.873417721518988,cathode,0.0165557126068141,0.0174319495323814,0.0155113230360478,-5.8347911001837466e-05,critical
1500,4.646464646464646,5.873417721518988,cathode,0.0164777507989552,0.0171914811287959,0.0156559280857901,-5.702632123014784e-05,critical
1500,4.747474747474747,5.873417721518988,cathode,0.0165454623596201,0.0173164021399585,0.0156472793322268,6.26429916679609e-05,critical
1500,4.848484848484849,5.873417721518988,cathode,0.0164735997553887,0.0172502954002472,0.0155670285353871,5.848311124636807e-05,critical
1500,4.94949494949495,5.873417721518988,cathode,0.016509963573458,0.0173516157289828,0.0155124178784726,-0.0001012166141336,critical
1500,5.05050505050505,5.873417721518988,cathode,0.0165395935816743,0.0173329155685262,0.0156084427318196,-0.0001218322010198,critical
1500,5.151515151515151,5.873417721518988,cathode,0.0166909630507871,0.0174633565062579,0.0157929551624614,-4.560605288963772e-07,critical
1500,5.252525252525253,5.873417721518988,cathode,0.0164251181042699,0.0172442750988658,0.0154597041324678,-5.297860497954922e-05,critical
1500,5.353535353535354,5.873417721518988,cathode,0.0165949117251965,0.0174132374651256,0.0156324680501308,5.188813212750399e-05,critical
1500,5.454545454545454,5.873417721518988,cathode,0.0164712574459454,0.0171962896564576,0.015634806856016,-3.379297617209404e-05,critical
1500,5.555555555555555,5.873417721518988,cathode,0.0165135402785977,0.0172796102256214,0.0156216875208517,-6.227201380076364e-05,critical
1500,5.656565656565657,5.873417721518988,cathode,0.0164197712302765,0.0171601673188534,0.0155622859820942,-3.755516684279018e-05,critical
1500,5.757575757575758,5.873417721518988,cathode,0.016686919110512,0.017441665082481,0.0158126946740716,2.901770834671339e-07,critical
1500,5.858585858585858,5.873417721518988,cathode,0.0164735938004062,0.0171722054431487,0.0156724115190467,3.6738430192011777e-06,critical
1500,5.959595959595959,5.873417721518988,cathode,0.0165250502280395,0.0174784303795451,0.0153689572588443,-2.682497191396901e-05,critical
1500,6.0606060606060606,5.873417721518988,cathode,0.0165637536421509,0.017361707817125,0.0156294983031591,2.945080584757741e-05,critical
1500,6.161616161616162,5.873417721518988,cathode,0.0166773622650713,0.0174511224455242,0.0157773169914139,-1.7289141107813e-05,critical
1500,6.262626262626262,5.873417721518988,cathode,0.0165131434286581,0.0173115802533952,0.0155779123030793,-2.727536940356511e-06,critical
1500,6.363636363636363,5.873417721518988,cathode,0.0167840733461595,0.0175904879400194,0.0158397991294766,5.891015338250483e-05,critical
1500,6.4646464646464645,5.873417721518988,cathode,0.0167937011571799,0.0175773310934366,0.0158812770126966,2.1094020626335253e-05,critical
1500,6.565656565656566,5.873417721518988,cathode,0.0169408631333239,0.0177721186362191,0.0159646338090022,1.2599788507836731e-05,critical
1500,6.666666666666667,5.873417721518988,cathode,0.0168289091852486,0.0176409502413704,0.0158765181873622,8.582257407654966e-05,critical
1500,6.767676767676767,5.873417721518988,cathode,0.0168164781447537,0.0175759644699014,0.0159366755488494,3.753137075905692e-05,critical
1500,6.8686868686868685,5.873417721518988,cathode,0.0167458929731724,0.0175952189450396,0.0157412187664,-7.62105635129623e-05,critical
1500,6.96969696969697,5.873417721518988,cathode,0.0168867642388951,0.0178302484034067,0.0157506438890894,7.267920233590572e-06,critical
1500,7.070707070707071,5.873417721518988,cathode,0.0169643953262033,0.0176863322076055,0.0161349625650881,-7.223326232436205e-05,critical
1500,7.171717171717171,5.873417721518988,cathode,0.01692863733564,0.0177172676424157,0.0160106954598779,-1.4104651076513292e-05,critical
1500,7.272727272727272,5.873417721518988,cathode,0.0170612635947351,0.0179914747646905,0.0159455106731735,7.636207338020146e-05,critical
1500,7.373737373737374,5.873417721518988,cathode,0.0170462003219841,0.0179486895062592,0.0159697573115281,8.277944780806984e-05,critical
1500,7.474747474747475,5.873417721518988,cathode,0.0170185812353502,0.0177190655014734,0.0162183750828604,4.314746431621483e-05,critical
1500,7.575757575757575,5.873417721518988,cathode,0.0172272216635517,0.0180770722357323,0.0162281852677392,-1.5339328105587428e-05,critical
1500,7.6767676767676765,5.873417721518988,cathode,0.0173495350553871,0.01815135763097,0.0164174228003112,2.1008044855074664e-05,critical
1500,7.777777777777778,5.873417721518988,cathode,0.017421144653896,0.0182564734113753,0.0164432077681054,6.674164809440287e-05,critical
1500,7.878787878787879,5.873417721518988,cathode,0.0173940817720894,0.0182604375274455,0.0163733629890761,-5.246714704752884e-05,critical
1500,7.979797979797979,5.873417721518988,cathode,0.01763321277234,0.0183306519456632,0.0168412969014748,-4.56115669441888e-06,critical
1500,8.080808080808081,5.873417721518988,cathode,0.0176262876935696,0.0183808175684927,0.0167597625994059,4.465152296007932e-06,critical
1500,8.181818181818182,5.873417721518988,cathode,0.0177501236224808,0.0187084693130554,0.0166040141973816,-2.867748371174216e-05,critical
1500,8.282828282828282,5.873417721518988,cathode,0.0178187465822132,0.018691607464629,0.0167932003842988,-6.290378980408024e-05,critical
1500,8.383838383838384,5.873417721518988,cathode,0.0179149087713546,0.0188410039299046,0.0168168007589501,1.9567156604756148e-05,critical
1500,8.484848484848484,5.873417721518988,cathode,0.0180774109326109,0.0188906015764473,0.0171355189676806,-6.379508543419507e-05,critical
1500,8.585858585858587,5.873417721518988,cathode,0.0180227159218993,0.0188811594723066,0.0170184294365737,8.33583735385327e-05,critical
1500,8.686868686868687,5.873417721518988,cathode,0.0180780657211384,0.0189786841442737,0.0170172055716322,4.038343177008943e-05,critical
1500,8.787878787878787,5.873417721518988,cathode,0.0181875652274504,0.0190721459050622,0.0171496582673163,5.995967885685996e-05,critical
1500,8.88888888888889,5.873417721518988,cathode,0.0185639861737038,0.0194780087108151,0.0174898929352822,1.5180863960099263e-05,critical
1500,8.98989898989899,5.873417721518988,cathode,0.0186233310173944,0.0194591350462099,0.0176563480325838,1.963311842424994e-05,critical
1500,9.09090909090909,5.873417721518988,cathode,0.0188565114553507,0.0197805328808736,0.0177712169453998,4.66641032842703e-05,critical
1500,9.191919191919192,5.873417721518988,cathode,0.018923212277481,0.0198445396646887,0.0178426632148652,1.8400064983652316e-05,critical
1500,9.292929292929292,5.873417721518988,cathode,0.0191788860919599,0.0200845885243858,0.0181223094977445,-1.0608504583742843e-06,critical
1500,9.393939393939394,5.873417721518988,cathode,0.0191986241555286,0.020086571081432,0.0181662033174709,-2.9568565855929115e-05,critical
1500,9.494949494949497,5.873417721518988,cathode,0.0193946667414058,0.0202739721203454,0.0183755187136096,3.749922682357429e-05,critical
1500,9.595959595959595,5.873417721518988,cathode,0.0197251518016998,0.0207896003452616,0.018452461151392,5.80989590583471e-06,critical
1500,9.696969696969695,5.873417721518988,cathode,0.0199412133411768,0.0209995881208339,0.0186792315982118,6.262361146275772e-05,critical
1500,9.797979797979798,5.873417721518988,cathode,0.0201394199449634,0.0211808451354255,0.0189045232284672,1.648670447804393e-05,critical
1500,9.8989898989899,5.873417721518988,cathode,0.0201244168910414,0.0211439691884394,0.0189198046152264,-4.2744668490300085e-05,critical
1500,10.0,5.873417721518988,cathode,0.0205070711559242,0.0214827013891372,0.0193666715689414,6.822261873289838e-05,critical
1500,0.0,5.974683544303797,cathode,0.0205935587490617,0.0215242402588413,0.0195156851645747,4.9019090859787214e-06,critical
1500,0.101010101010101,5.974683544303797,cathode,0.0201837975602925,0.0212435696661543,0.0189233923734771,-2.618574346121685e-05,critical
1500,0.202020202020202,5.974683544303797,cathode,0.0200006685216644,0.0209911513354145,0.018835483388576,-2.1250342644128905e-05,critical
1500,0.303030303030303,5.974683544303797,cathode,0.0197785652377011,0.0207077480565729,0.0186952659593206,-3.95867570472118e-05,critical
1500,0.404040404040404,5.974683544303797,cathode,0.019758809148654,0.0206023484951321,0.0187903934493052,-1.935356645068033e-05,critical
1500,0.5050505050505051,5.974683544303797,cathode,0.0194883645937307,0.0205101324770917,0.0182734456257315,-3.0527967743297926e-05,critical
1500,0.6060606060606061,5.974683544303797,cathode,0.0192666080694053,0.0201788294691799,0.0182016085162159,-4.331854776236687e-05,critical
1500,0.7070707070707071,5.974683544303797,cathode,0.0190923849157574,0.0200302935662752,0.0179907135874543,-4.683116250712618e-07,critical
1500,0.8080808080808081,5.974683544303797,cathode,0.0189269837069917,0.0198739439747074,0.0178099755401085,7.368959827954279e-05,critical
1500,0.9090909090909092,5.974683544303797,cathode,0.0187274637204579,0.0196929218057468,0.0175821853854447,-7.764705483228285e-05,critical
1500,1.0101010101010102,5.974683544303797,cathode,0.0186635371454891,0.0196063108660989,0.0175501532973734,4.499458348625904e-05,critical
1500,1.1111111111111112,5.974683544303797,cathode,0.0184036652893469,0.0192908864187866,0.0173645537461953,-4.6563526673497946e-05,critical
1500,1.2121212121212122,5.974683544303797,cathode,0.0183083032090951,0.019207668198766,0.01725148633159,-4.652420863611947e-05,critical
1500,1.3131313131313131,5.974683544303797,cathode,0.0182119631663699,0.0190994368259408,0.0171709564519313,1.7961306852865796e-05,critical
1500,1.414141414141414,5.974683544303797,cathode,0.0180255956396162,0.0188594546893884,0.0170558562701307,4.075287209498118e-05,critical
1500,1.5151515151515151,5.974683544303797,cathode,0.018166325387625,0.0191352433406169,0.0170105474156583,5.201275759199078e-06,critical
1500,1.616161616161616,5.974683544303797,cathode,0.0179645706407789,0.0189014735137201,0.016851477516351,4.304561901135554e-05,critical
1500,1.7171717171717171,5.974683544303797,cathode,0.0178247943125431,0.0187733291178405,0.0166938131596787,-1.2342147793947516e-05,critical
1500,1.818181818181818,5.974683544303797,cathode,0.0178347534490825,0.0187519170074293,0.0167483089617599,-1.902387257053437e-05,critical
1500,1.9191919191919191,5.974683544303797,cathode,0.0176703889082757,0.0185226908616811,0.0166711954179842,-8.002035092297275e-05,critical
1500,2.0202020202020203,5.974683544303797,cathode,0.0174111884124478,0.0181252663714126,0.0165961930227015,-1.823312163724616e-05,critical
1500,2.121212121212121,5.974683544303797,cathode,0.0175041647574222,0.018344349486162,0.016520990219887,-3.797538676372958e-05,critical
1500,2.2222222222222223,5.974683544303797,cathode,0.0173768544204668,0.018227335368845,0.0163780068842362,5.042999731067271e-05,critical
1500,2.323232323232323,5.974683544303797,cathode,0.0172811996324235,0.0181423023634668,0.0162669440425032,3.201330441122675e-05,critical
1500,2.4242424242424243,5.974683544303797,cathode,0.017179566792181,0.0179112685599949,0.0163395594128,-4.086044941384857e-05,critical
1500,2.525252525252525,5.974683544303797,cathode,0.0171493007822652,0.0179958646282356,0.0161537389779777,-3.911743738782837e-05,critical
1500,2.6262626262626263,5.974683544303797,cathode,0.0171257456649301,0.0179444963141014,0.0161677326343245,-6.443793417645538e-05,critical
1500,2.727272727272727,5.974683544303797,cathode,0.0171154649865735,0.0179692455532388,0.0161097824009665,1.734665916981964e-05,critical
1500,2.8282828282828283,5.974683544303797,cathode,0.0170342553068483,0.0177580678662155,0.0162024033478392,-8.637808060953587e-05,critical
1500,2.929292929292929,5.974683544303797,cathode,0.0171025946188735,0.0179571780381522,0.016095145489285,-5.223148293019757e-05,critical
1500,3.0303030303030303,5.974683544303797,cathode,0.0169571445202554,0.0177508744543762,0.0160325108145789,-1.72242487158535e-05,critical
1500,3.131313131313131,5.974683544303797,cathode,0.0170208925933661,0.0178321056488251,0.0160723978238533,-5.63235319046186e-05,critical
1500,3.2323232323232323,5.974683544303797,cathode,0.0168782129847703,0.0177787660503852,0.015803563546749,3.995651324195374e-05,critical
1500,3.333333333333333,5.974683544303797,cathode,0.0168875597926335,0.0176214116865195,0.0160427228907696,2.577340324645126e-05,critical
1500,3.4343434343434343,5.974683544303797,cathode,0.0167742880685088,0.0175536077939494,0.0158667996070533,6.282541559528252e-05,critical
1500,3.5353535353535355,5.974683544303797,cathode,0.0167060716205288,0.0175584830813132,0.015696110351431,9.03857606820646e-05,critical
1500,3.636363636363636,5.974683544303797,cathode,0.0167518228611855,0.0175827792219704,0.0157740090823152,1.8263029371947773e-05,critical
1500,3.7373737373737375,5.974683544303797,cathode,0.0167009456431094,0.0175627855404614,0.0156794364100516,-8.873261814467088e-07,critical
1500,3.8383838383838382,5.974683544303797,cathode,0.016669418592713,0.01737274175222,0.0158633971638369,-1.5197503834848717e-05,critical
1500,3.939393939393939,5.974683544303797,cathode,0.016617440376902,0.0173900107381977,0.0157165468552974,9.647924045068329e-05,critical
1500,4.040404040404041,5.974683544303797,cathode,0.0166191903089871,0.0175016900407164,0.0155674140329775,-1.6032826929568163e-06,critical
1500,4.141414141414141,5.974683544303797,cathode,0.016664946097423,0.0175150545855729,0.0156590282294133,4.7820497883753193e-05,critical
1500,4.242424242424242,5.974683544303797,cathode,0.0165550426750878,0.0173187502745411,0.0156672566825653,3.958500203559411e-05,critical
1500,4.343434343434343,5.974683544303797,cathode,0.0165705910896502,0.0174376212291445,0.01554014809044,-1.7014722863806644e-05,critical
1500,4.444444444444445,5.974683544303797,cathode,0.0165791171797287,0.0173802196051511,0.0156388554046183,9.667104841802891e-05,critical
1500,4.545454545454545,5.974683544303797,cathode,0.0165801539829657,0.017442479003538,0.0155513887588116,0.0001533100167697,critical
1500,4.646464646464646,5.974683544303797,cathode,0.0163920232531494,0.0171064108280073,0.0155672439353523,9.95345675365074e-05,critical
1500,4.747474747474747,5.974683544303797,cathode,0.0164545544202617,0.0171334579974458,0.0156790722803983,-1.150362664955245e-05,critical
1500,4.848484848484849,5.974683544303797,cathode,0.0165738161798338,0.0173549686422164,0.0156623504922353,-4.76966285638717e-05,critical
1500,4.94949494949495,5.974683544303797,cathode,0.0165526061693229,0.017293061239739,0.0156957624664934,-5.664535352829328e-05,critical
1500,5.05050505050505,5.974683544303797,cathode,0.0164414123886769,0.0172347845092147,0.0155077261924226,-0.0001471866735692,critical
1500,5.151515151515151,5.974683544303797,cathode,0.0165378869389234,0.0172808486230889,0.0156781821698843,-1.704778973212445e-05,critical
1500,5.252525252525253,5.974683544303797,cathode,0.0165831704454554,0.0173064305677431,0.0157480660871627,0.0001003823606309,critical
1500,5.353535353535354,5.974683544303797,cathode,0.0165430725777166,0.0173503684265768,0.0155958825533223,1.5506927336782627e-05,critical
1500,5.454545454545454,5.974683544303797,cathode,0.0165368542745274,0.017371711722725,0.0155493872278891,-9.523715060427892e-05,critical
1500,5.555555555555555,5.974683544303797,cathode,0.0165253888371427,0.0173723641880874,0.0155223308399257,-4.571079479324237e-05,critical
1500,5.656565656565657,5.974683544303797,cathode,0.0165459940421246,0.0172845330162156,0.0156921141384132,-3.294460004134919e-05,critical
1500,5.757575757575758,5.974683544303797,cathode,0.0165472508121536,0.0173505034181763,0.015604189356414,8.437193782568543e-05,critical
1500,5.858585858585858,5.974683544303797,cathode,0.0165594294529386,0.0174094724843294,0.0155513450695128,8.436475401936716e-05,critical
1500,5.959595959595959,5.974683544303797,cathode,0.0166242410199388,0.0174422051554264,0.0156627670293995,4.3945482219924975e-05,critical
1500,6.0606060606060606,5.974683544303797,cathode,0.0166875068163696,0.0174697816333323,0.0157760286253901,-1.0154928245348057e-05,critical
1500,6.161616161616162,5.974683544303797,cathode,0.0167334807438474,0.0176166996431606,0.0156820366312851,1.557464606033294e-05,critical
1500,6.262626262626262,5.974683544303797,cathode,0.0166361171134623,0.0174350446076411,0.0157000894168524,7.866335871733805e-05,critical
1500,6.363636363636363,5.974683544303797,cathode,0.0166490156286399,0.0175045668065514,0.0156357446814517,-9.796611375657146e-06,critical
1500,6.4646464646464645,5.974683544303797,cathode,0.0167204687325786,0.0175210255628512,0.0157830597200503,7.779578263119205e-05,critical
1500,6.565656565656566,5.974683544303797,cathode,0.0166826625002205,0.0175147543928067,0.015702362336204,3.387931499917057e-05,critical
1500,6.666666666666667,5.974683544303797,cathode,0.0167503718929803,0.0174691570879812,0.0159245960534563,-2.5653653069311384e-06,critical
1500,6.767676767676767,5.974683544303797,cathode,0.0167713910098695,0.0175292594836732,0.0158934023391436,-3.630485437969489e-05,critical
1500,6.8686868686868685,5.974683544303797,cathode,0.0168771523629698,0.0175890596619838,0.0160611923810986,2.9565865204366823e-05,critical
1500,6.96969696969697,5.974683544303797,cathode,0.0169289751559602,0.0177738150574992,0.0159337571253627,1.5645235617471728e-05,critical
1500,7.070707070707071,5.974683544303797,cathode,0.0171085382811436,0.0179722636044278,0.0160887302896668,3.4071215158696326e-05,critical
1500,7.171717171717171,5.974683544303797,cathode,0.0171481315590111,0.0180320421276173,0.0161006868510366,2.528458672385469e-06,critical
1500,7.272727272727272,5.974683544303797,cathode,0.0171822685930775,0.0180683210340388,0.0161319736681636,3.2831561474457746e-05,critical
1500,7.373737373737374,5.974683544303797,cathode,0.0169463214853764,0.017815832058241,0.0159168195459375,7.733737656736248e-06,critical
1500,7.474747474747475,5.974683544303797,cathode,0.0170832805120183,0.0179463487359356,0.0160642105641952,2.6482712816818373e-05,critical
1500,7.575757575757575,5.974683544303797,cathode,0.0172164769017442,0.0181379944640323,0.0161164692398868,5.254319545931398e-06,critical
1500,7.6767676767676765,5.974683544303797,cathode,0.0173446029153925,0.0181903030165844,0.016352385911372,-2.8613720632540723e-05,critical
1500,7.777777777777778,5.974683544303797,cathode,0.0172799518682073,0.0180628539972501,0.0163727963774083,-1.8360440650418688e-05,critical
1500,7.878787878787879,5.974683544303797,cathode,0.0175612124721796,0.0184309020804043,0.0165381880912674,-5.536271388523703e-06,critical
1500,7.979797979797979,5.974683544303797,cathode,0.0176635041834043,0.0184565192796024,0.0167453389853033,5.935826765213261e-05,critical
1500,8.080808080808081,5.974683544303797,cathode,0.0176627288789378,0.018525560395699,0.0166502430026237,-5.591002452210226e-06,critical
1500,8.181818181818182,5.974683544303797,cathode,0.0177830996592715,0.0186494113604553,0.016766284199375,-6.092226286273621e-05,critical
1500,8.282828282828282,5.974683544303797,cathode,0.0178742693200381,0.0188372310810177,0.016723262373452,-1.5080577865052988e-05,critical
1500,8.383838383838384,5.974683544303797,cathode,0.0180221451208469,0.0189777789824643,0.0168834165838222,2.3184070463143777e-05,critical
1500,8.484848484848484,5.974683544303797,cathode,0.0179669890700102,0.0188784916979026,0.0168900569303866,-2.821335027541659e-06,critical
1500,8.585858585858587,5.974683544303797,cathode,0.0181564538447252,0.0190857604574797,0.0170564431081659,3.4155977158221045e-05,critical
1500,8.686868686868687,5.974683544303797,cathode,0.0181026422439388,0.0189757013205195,0.0170801636803365,3.876752523732661e-05,critical
1500,8.787878787878787,5.974683544303797,cathode,0.0183517013523337,0.0192949803683869,0.0172345006152858,-2.2121948215228585e-06,critical
1500,8.88888888888889,5.974683544303797,cathode,0.018529824659841,0.0193241826533096,0.0176173297690913,1.3623932088382946e-05,critical
1500,8.98989898989899,5.974683544303797,cathode,0.0186485329663535,0.019599738655173,0.0175235171911193,1.5588072438715996e-05,critical
1500,9.09090909090909,5.974683544303797,cathode,0.0188580217202472,0.0197631066650671,0.0177991014805528,-2.661912844187937e-05,critical
1500,9.191919191919192,5.974683544303797,cathode,0.0188621215481496,0.0197057646824086,0.0178866510098984,-1.0311582968622017e-05,critical
1500,9.292929292929292,5.974683544303797,cathode,0.0190613748598594,0.0199666773614552,0.0180029741659002,-8.226905190420573e-05,critical
1500,9.393939393939394,5.974683544303797,cathode,0.0192204077227637,0.0201377534112451,0.0181483026632962,6.188286162897822e-06,critical
1500,9.494949494949497,5.974683544303797,cathode,0.019492878396674,0.0203937196569362,0.0184455164978046,-3.705965753127999e-05,critical
1500,9.595959595959595,5.974683544303797,cathode,0.0195739952487948,0.0205742019807998,0.0183906734770302,-4.567775088110382e-06,critical
1500,9.696969696969695,5.974683544303797,cathode,0.0197328860022363,0.0206974452102562,0.0186003581721256,5.514155433757661e-05,critical
1500,9.797979797979798,5.974683544303797,cathode,0.0200421022249052,0.0211227368827602,0.0187502377481359,-1.603128903988861e-05,critical
1500,9.8989898989899,5.974683544303797,cathode,0.0204160499720415,0.0214329296010466,0.019217886950077,-6.599099284244146e-05,critical
1500,10.0,5.974683544303797,cathode,0.0205287239561791,0.0215513951286941,0.0193241879074269,-4.019174230422385e-05,critical
1500,0.0,6.075949367088607,cathode,0.0205561897186204,0.0215668076634556,0.0193686195970014,-4.324895855185837e-05,critical
1500,0.101010101010101,6.075949367088607,cathode,0.020376020890724,0.0213516143732183,0.0192351498450355,2.0843367405635087e-05,critical
1500,0.202020202020202,6.075949367088607,cathode,0.0201053005728,0.0211744699587851,0.018830050240287,5.908798743749354e-05,critical
1500,0.303030303030303,6.075949367088607,cathode,0.019762861376545,0.020737943710502,0.0186162501135527,-4.604024947681108e-05,critical
1500,0.404040404040404,6.075949367088607,cathode,0.0198165698834088,0.0207788025380242,0.0186885106999564,2.737645937289308e-05,critical
1500,0.5050505050505051,6.075949367088607,cathode,0.0195808093619238,0.0205829399133675,0.0183947898720437,-2.0330677671746084e-05,critical
1500,0.6060606060606061,6.075949367088607,cathode,0.0192275593215167,0.0201816138334478,0.0181030794537356,9.895043082829422e-05,critical
1500,0.7070707070707071,6.075949367088607,cathode,0.0191408652725104,0.0200965921189558,0.0180148892032672,-2.1260016982139375e-05,critical
1500,0.8080808080808081,6.075949367088607,cathode,0.0189839454638737,0.0198794208069142,0.0179394996372187,3.1025227597602426e-06,critical
1500,0.9090909090909092,6.075949367088607,cathode,0.0188226052053789,0.0198006465258687,0.0176617814603936,-1.854036006993381e-05,critical
1500,1.0101010101010102,6.075949367088607,cathode,0.01859901111872,0.019477100017399,0.0175711771696449,-0.0001355206454967,critical
1500,1.1111111111111112,6.075949367088607,cathode,0.0184574950135311,0.0192729682919561,0.0175163575825688,-2.03036185651125e-05,critical
1500,1.2121212121212122,6.075949367088607,cathode,0.0182649933285584,0.0191051339731027,0.0172854933051768,-0.0001381107591018,critical
1500,1.3131313131313131,6.075949367088607,cathode,0.0181415706135813,0.019047649384167,0.0170721780704826,9.871728276889583e-05,critical
1500,1.414141414141414,6.075949367088607,cathode,0.0180679289985829,0.018758936977243,0.0172866670245594,3.152894945359184e-05,critical
1500,1.5151515151515151,6.075949367088607,cathode,0.01810185345578,0.0190233420999697,0.0170111048421659,-8.151245685474212e-05,critical
1500,1.616161616161616,6.075949367088607,cathode,0.0178212491113941,0.0187853230196268,0.0166677411833665,3.589298923913883e-05,critical
1500,1.7171717171717171,6.075949367088607,cathode,0.0178211602097196,0.018720616144043,0.016759025695362,4.700050039599617e-05,critical
1500,1.818181818181818,6.075949367088607,cathode,0.017673712706632,0.0185047967179893,0.0167048152053444,1.805366285063024e-05,critical
1500,1.9191919191919191,6.075949367088607,cathode,0.0176212178898476,0.0184041575707892,0.0167167398486465,2.844355874626098e-05,critical
1500,2.0202020202020203,6.075949367088607,cathode,0.0175249310385141,0.018301027147044,0.0166283041926942,5.8193306784445934e-05,critical
1500,2.121212121212121,6.075949367088607,cathode,0.017545959153614,0.0183977909106121,0.0165474528207763,-1.087004652792191e-05,critical
1500,2.2222222222222223,6.075949367088607,cathode,0.0173382263323592,0.0181379855422236,0.0164087377926932,-2.79626110495953e-05,critical
1500,2.323232323232323,6.075949367088607,cathode,0.0171746073190514,0.018021630264922,0.0161780616156652,-6.669922149798793e-05,critical
1500,2.4242424242424243,6.075949367088607,cathode,0.0172768920591337,0.0181232662345141,0.0162822013588187,7.025960574944661e-05,critical
1500,2.525252525252525,6.075949367088607,cathode,0.0172016901273171,0.0180697581816089,0.0161768331127044,3.42317052796997e-05,critical
1500,2.6262626262626263,6.075949367088607,cathode,0.0171137502951022,0.0180587732837717,0.015978488493745,1.791860855373895e-05,critical
1500,2.727272727272727,6.075949367088607,cathode,0.0170651624186194,0.0178852053906351,0.0161056537498377,3.608568363156647e-06,critical
1500,2.8282828282828283,6.075949367088607,cathode,0.0169960393592194,0.0178241078799497,0.0160242672137713,-5.0530390546512765e-05,critical
1500,2.929292929292929,6.075949367088607,cathode,0.0171036064854087,0.0178337881135364,0.0162651975762451,3.0503193673647892e-05,critical
1500,3.0303030303030303,6.075949367088607,cathode,0.0168923551478115,0.0177689780208183,0.0158520314012003,2.9328848601144125e-05,critical
1500,3.131313131313131,6.075949367088607,cathode,0.0169323693727434,0.0177578094713551,0.0159633320677568,6.103014499262596e-05,critical
1500,3.2323232323232323,6.075949367088607,cathode,0.0168665754290842,0.017702164615331,0.0158835883997762,-9.141812451372455e-06,critical
1500,3.333333333333333,6.075949367088607,cathode,0.0166774771389333,0.0173419637030701,0.0159208270577141,-8.207597524218337e-05,critical
1500,3.4343434343434343,6.075949367088607,cathode,0.0167152434804976,0.0175204549383631,0.015772315683794,4.174345218560283e-05,critical
1500,3.5353535353535355,6.075949367088607,cathode,0.0166901079568922,0.0174227220701223,0.015845156355207,-4.177197400080699e-05,critical
1500,3.636363636363636,6.075949367088607,cathode,0.0167361134261577,0.0175112571871614,0.0158343066302106,-4.730630953264748e-05,critical
1500,3.7373737373737375,6.075949367088607,cathode,0.0167255796104944,0.0176172486329525,0.0156619936906018,-1.5858565870129637e-05,critical
1500,3.8383838383838382,6.075949367088607,cathode,0.0165300436306403,0.0173745474199821,0.0155308434224886,-2.3961664886277576e-05,critical
1500,3.939393939393939,6.075949367088607,cathode,0.0165493726628805,0.0174206272261369,0.0155127104368547,1.2155555978126364e-05,critical
1500,4.040404040404041,6.075949367088607,cathode,0.0166265823969495,0.0173662919038079,0.0157720140825183,-6.323583236669318e-06,critical
1500,4.141414141414141,6.075949367088607,cathode,0.0165489905724151,0.0173617881623007,0.0155943093787405,-1.978591769134594e-06,critical
1500,4.242424242424242,6.075949367088607,cathode,0.0166287274687785,0.0173981715772514,0.0157315782078008,-0.0001100710854315,critical
1500,4.343434343434343,6.075949367088607,cathode,0.0165662576404155,0.017428261476284,0.0155427682033958,-2.8160329454433405e-05,critical
1500,4.444444444444445,6.075949367088607,cathode,0.01656222142607,0.0174424064958182,0.0155127637140608,3.52454571797749e-05,critical
1500,4.545454545454545,6.075949367088607,cathode,0.0165333958975795,0.0172946962378047,0.0156467788271027,-0.0001020803584558,critical
1500,4.646464646464646,6.075949367088607,cathode,0.0166289157676627,0.0175311068302457,0.0155488839775594,2.8786968223632554e-05,critical
1500,4.747474747474747,6.075949367088607,cathode,0.0166207929449505,0.0174586277096811,0.0156319643718407,-2.1701229905307487e-05,critical
1500,4.848484848484849,6.075949367088607,cathode,0.0165850661086036,0.0173953805914805,0.0156324686910346,8.910105324259886e-05,critical
1500,4.94949494949495,6.075949367088607,cathode,0.016499454683925,0.0172586604223751,0.0156175890191829,8.64133918386769e-06,critical
1500,5.05050505050505,6.075949367088607,cathode,0.0164299915489031,0.0172075895050781,0.0155207540455398,-9.026628115539476e-05,critical
1500,5.151515151515151,6.075949367088607,cathode,0.0164751283478088,0.0171997418364126,0.0156390646136846,-4.570472215576212e-05,critical
1500,5.252525252525253,6.075949367088607,cathode,0.016437174566245,0.0171369429165787,0.0156342018816924,-4.159745558897705e-06,critical
1500,5.353535353535354,6.075949367088607,cathode,0.0165180667610072,0.0173082001436514,0.0155940828606035,3.0682530514149045e-05,critical
1500,5.454545454545454,6.075949367088607,cathode,0.0164868946786827,0.0172872849613663,0.0155486705030437,-1.435449732058758e-05,critical
1500,5.555555555555555,6.075949367088607,cathode,0.0165644197511072,0.0173608223804685,0.0156320482508053,-4.519798790655095e-05,critical
1500,5.656565656565657,6.075949367088607,cathode,0.0165389055255489,0.0173984840538616,0.0155186807467631,8.485283888140632e-06,critical
1500,5.757575757575758,6.075949367088607,cathode,0.0167008439996262,0.0175425852111682,0.0157070871268331,4.554390021269225e-05,critical
1500,5.858585858585858,6.075949367088607,cathode,0.0166464052920413,0.0175541235237074,0.0155567344674814,-9.730987837154336e-05,critical
1500,5.959595959595959,6.075949367088607,cathode,0.016665427760772,0.0174758573334494,0.0157142183942568,-6.750785814405018e-05,critical
1500,6.0606060606060606,6.075949367088607,cathode,0.0165608906144516,0.0173780454410168,0.0155996963219651,-5.272825120921829e-05,critical
1500,6.161616161616162,6.075949367088607,cathode,0.0167853408931215,0.0175952467574469,0.0158369822729628,-1.371027356828814e-05,critical
1500,6.262626262626262,6.075949367088607,cathode,0.0165523236713647,0.017224942123885,0.0157851376668688,5.259695113550824e-05,critical
1500,6.363636363636363,6.075949367088607,cathode,0.0168157714734819,0.0177275923731037,0.0157235473644278,6.667212262352126e-05,critical
1500,6.4646464646464645,6.075949367088607,cathode,0.0167736743493903,0.0174692343225988,0.0159786169270513,1.603099528701306e-06,critical
1500,6.565656565656566,6.075949367088607,cathode,0.0168413181567861,0.0176641165665884,0.0158752962040172,-4.842964541640584e-05,critical
1500,6.666666666666667,6.075949367088607,cathode,0.0169381636672467,0.0178028898885471,0.0159141493815341,-7.348153115474312e-05,critical
1500,6.767676767676767,6.075949367088607,cathode,0.0168246618923258,0.0176333111173074,0.015878285720644,-2.817520501877201e-05,critical
1500,6.8686868686868685,6.075949367088607,cathode,0.0168218037586215,0.0176070503829419,0.0159064714569558,7.087230916041471e-05,critical
1500,6.96969696969697,6.075949367088607,cathode,0.016979168623684,0.0178272157261485,0.0159800701560217,4.5608431316780205e-06,critical
1500,7.070707070707071,6.075949367088607,cathode,0.0170958328698197,0.0179645660025378,0.0160689150100186,3.122253842742574e-05,critical
1500,7.171717171717171,6.075949367088607,cathode,0.0170506186869806,0.0179167169242342,0.0160263512810163,-5.920617491681304e-05,critical
1500,7.272727272727272,6.075949367088607,cathode,0.0169986112375324,0.0177816327937766,0.0160889064099082,1.204933876563817e-05,critical
1500,7.373737373737374,6.075949367088607,cathode,0.0171722904671226,0.0180684722208632,0.0161061741600171,8.753249487412851e-05,critical
1500,7.474747474747475,6.075949367088607,cathode,0.0172543935775153,0.018055781387383,0.0163220468053214,-1.7825218545640223e-05,critical
1500,7.575757575757575,6.075949367088607,cathode,0.0171444302098053,0.0180488260670228,0.0160676334566843,3.84772281247821e-05,critical
1500,7.6767676767676765,6.075949367088607,cathode,0.0173381368066406,0.0181406152730739,0.0164044408366609,-5.783961838161277e-05,critical
1500,7.777777777777778,6.075949367088607,cathode,0.0173642861029118,0.0181800398520419,0.0164132798046111,-3.1144009770917384e-05,critical
1500,7.878787878787879,6.075949367088607,cathode,0.0175198266663263,0.0183640801422707,0.0165314627341181,-1.563473853276425e-05,critical
1500,7.979797979797979,6.075949367088607,cathode,0.0174228816992595,0.0183056996575127,0.0163796247531477,4.672948849363045e-05,critical
1500,8.080808080808081,6.075949367088607,cathode,0.0176024576841446,0.0183887001972858,0.0166935402147864,-1.2150648705783012e-05,critical
1500,8.181818181818182,6.075949367088607,cathode,0.017654006362382,0.0184600911967794,0.0167188849655676,-3.3195000035300453e-07,critical
1500,8.282828282828282,6.075949367088607,cathode,0.0177295765482664,0.0185311389042662,0.0168002802073427,-6.754405787144557e-05,critical
1500,8.383838383838384,6.075949367088607,cathode,0.017894865054388,0.0187569439951604,0.0168852011503362,5.164530869974905e-05,critical
1500,8.484848484848484,6.075949367088607,cathode,0.0181400153142602,0.0191197670958276,0.0169682990311089,2.1720043994444903e-05,critical
1500,8.585858585858587,6.075949367088607,cathode,0.0181574554908869,0.0191504275458375,0.0169665761610376,-4.759397637935596e-05,critical
1500,8.686868686868687,6.075949367088607,cathode,0.0182810210142595,0.0191306246692126,0.0172912036286155,-8.313214628551357e-05,critical
1500,8.787878787878787,6.075949367088607,cathode,0.0183552093947267,0.019183465277729,0.0173961997010291,-5.011564926121775e-07,critical
1500,8.88888888888889,6.075949367088607,cathode,0.0184259491761323,0.0193544093601354,0.0173290949091956,8.022406749292304e-05,critical
1500,8.98989898989899,6.075949367088607,cathode,0.0187286057022079,0.0196365438107078,0.0176646263763195,-1.07119047439762e-06,critical
1500,9.09090909090909,6.075949367088607,cathode,0.0187500960685617,0.0195609077647455,0.0178172006645029,4.069932249053071e-05,critical
1500,9.191919191919192,6.075949367088607,cathode,0.0189630119587744,0.0199429865354461,0.0177997518007837,-8.593975301718415e-05,critical
1500,9.292929292929292,6.075949367088607,cathode,0.0191516364481689,0.020040905016828,0.0181170991400819,-1.9031067510667173e-05,critical
1500,9.393939393939394,6.075949367088607,cathode,0.0191449813614755,0.0199991146293413,0.0181576009038114,3.264281837895897e-05,critical
1500,9.494949494949497,6.075949367088607,cathode,0.0193566755759828,0.0201911152713051,0.0183967271011779,-5.950611769768439e-05,critical
1500,9.595959595959595,6.075949367088607,cathode,0.0195827558753061,0.020512312215393,0.01849732966226,1.9763595121754215e-05,critical
1500,9.696969696969695,6.075949367088607,cathode,0.019768575129088,0.0207217723985652,0.018652529934033,2.096272021828404e-05,critical
1500,9.797979797979798,6.075949367088607,cathode,0.0200870846173764,0.0210307202095274,0.0189870656109597,3.0440342535893824e-05,critical
1500,9.8989898989899,6.075949367088607,cathode,0.0202407517632356,0.0212466022451519,0.0190552711544293,9.368938054829168e-05,critical
1500,10.0,6.075949367088607,cathode,0.020418436015616,0.0214567652751594,0.019190801187843,-4.25031332105702e-05,critical
1500,0.0,6.177215189873418,cathode,0.020428637425227,0.0213772178757123,0.0193236562716753,-9.327649727411953e-05,critical
1500,0.101010101010101,6.177215189873418,cathode,0.0203130816688883,0.0212993356088536,0.0191567403779211,-3.970760753901866e-05,critical
1500,0.202020202020202,6.177215189873418,cathode,0.0198994991235403,0.0208627085484325,0.0187708642845811,3.256875893254708e-05,critical
1500,0.303030303030303,6.177215189873418,cathode,0.0198517968864531,0.020779042534416,0.0187716592038587,-4.880828701960367e-05,critical
1500,0.404040404040404,6.177215189873418,cathode,0.0195247809629581,0.0204183516315633,0.018487543654424,3.598641873628662e-05,critical
1500,0.5050505050505051,6.177215189873418,cathode,0.01938108611756,0.0204107025274116,0.0181538593160813,-6.722864858274368e-06,critical
1500,0.6060606060606061,6.177215189873418,cathode,0.0192269452116297,0.020164531820019,0.0181260532922067,7.449626522205906e-05,critical
1500,0.7070707070707071,6.177215189873418,cathode,0.0190815483896069,0.0199372780062382,0.0180901894579647,9.058408760808112e-05,critical
1500,0.8080808080808081,6.177215189873418,cathode,0.0190571733452671,0.0200357178280234,0.0178978398830814,-5.557030240103296e-05,critical
1500,0.9090909090909092,6.177215189873418,cathode,0.0188738709049199,0.019708150682116,0.0179109361321047,2.3055350317272568e-05,critical
1500,1.0101010101010102,6.177215189873418,cathode,0.0185696903160018,0.019463909436021,0.0175230001178514,-7.791226011308598e-06,critical
1500,1.1111111111111112,6.177215189873418,cathode,0.0184698035488688,0.0194327509891071,0.0173262227041509,-1.855344310045672e-06,critical
1500,1.2121212121212122,6.177215189873418,cathode,0.018274963023785,0.0191377497564725,0.0172684863794389,7.232916309419035e-06,critical
1500,1.3131313131313131,6.177215189873418,cathode,0.0182076946514778,0.0190850339294208,0.0171789158899707,9.427956720976362e-05,critical
1500,1.414141414141414,6.177215189873418,cathode,0.0181495591478661,0.0189604131759186,0.017211772609017,4.630792861288796e-05,critical
1500,1.5151515151515151,6.177215189873418,cathode,0.0181203937807493,0.0189757722763047,0.0171221989998341,4.467582399031522e-05,critical
1500,1.616161616161616,6.177215189873418,cathode,0.0178715917801878,0.018782588924876,0.0167942437616849,1.7314635432167015e-05,critical
1500,1.7171717171717171,6.177215189873418,cathode,0.0177742290486203,0.0186053139588191,0.0168061619888115,-2.798938504246946e-05,critical
1500,1.818181818181818,6.177215189873418,cathode,0.0176710878239321,0.0185498079964341,0.0166362804372054,-4.4531921890882986e-05,critical
1500,1.9191919191919191,6.177215189873418,cathode,0.0175675724209816,0.0183703168275212,0.0166360640307443,-2.708625482861451e-05,critical
1500,2.0202020202020203,6.177215189873418,cathode,0.0174639475428964,0.0183611389341886,0.0164006793893495,-6.030276708859597e-05,critical
1500,2.121212121212121,6.177215189873418,cathode,0.0175216989576368,0.0183430010984656,0.0165647183895863,1.823324251759924e-05,critical
1500,2.2222222222222223,6.177215189873418,cathode,0.0174986070918364,0.0183552876718568,0.0164925861889826,4.2541699129930094e-05,critical
1500,2.323232323232323,6.177215189873418,cathode,0.0172777535158787,0.0181194576242205,0.0162905174187978,-1.1607955816094312e-05,critical
1500,2.4242424242424243,6.177215189873418,cathode,0.0172204088047271,0.0180027479432137,0.0163131493020524,4.553675748871731e-05,critical
1500,2.525252525252525,6.177215189873418,cathode,0.0171282933377635,0.0179029908028478,0.0162303800569305,-5.3107033946140513e-05,critical
1500,2.6262626262626263,6.177215189873418,cathode,0.0172275632262527,0.0181358696573341,0.0161460169379333,4.953853099776184e-05,critical
1500,2.727272727272727,6.177215189873418,cathode,0.0170872270022682,0.0179310804671153,0.0160947909901468,3.818916990809687e-05,critical
1500,2.8282828282828283,6.177215189873418,cathode,0.0170506169429767,0.0178329870252743,0.0161421471737493,2.515036832493641e-05,critical
1500,2.929292929292929,6.177215189873418,cathode,0.0169092076978414,0.017756394579865,0.0159096731860216,-6.452476155548168e-05,critical
1500,3.0303030303030303,6.177215189873418,cathode,0.0168501874343986,0.0176191888846004,0.0159580762523497,1.9678010860054576e-05,critical
1500,3.131313131313131,6.177215189873418,cathode,0.0168288862707664,0.017703939520319,0.0157888060483044,8.084866836848315e-05,critical
1500,3.2323232323232323,6.177215189873418,cathode,0.0168351076382279,0.0175848218955087,0.0159688564019638,1.7330998170461934e-06,critical
1500,3.333333333333333,6.177215189873418,cathode,0.0168919584195667,0.0175869359115133,0.0160982177146156,3.4900535162404044e-05,critical
1500,3.4343434343434343,6.177215189873418,cathode,0.0168383502498901,0.017694382838323,0.0158262526544121,-3.810245286105645e-05,critical
1500,3.5353535353535355,6.177215189873418,cathode,0.016748202285706,0.017520949017562,0.0158501692020478,-1.6001064432277125e-05,critical
1500,3.636363636363636,6.177215189873418,cathode,0.0166471567234523,0.0174128031393867,0.0157574597929801,-4.5166465158131984e-05,critical
1500,3.7373737373737375,6.177215189873418,cathode,0.01657872961152,0.0174150408974382,0.0155916716237297,5.879080801116208e-07,critical
1500,3.8383838383838382,6.177215189873418,cathode,0.0167001940186459,0.0175440570839687,0.0157034830442383,-4.4588935226436727e-05,critical
1500,3.939393939393939,6.177215189873418,cathode,0.0167029240604734,0.0174639427379018,0.0158202443281061,2.637335722798223e-05,critical
1500,4.040404040404041,6.177215189873418,cathode,0.0166927981034298,0.017502164735383,0.0157434771987016,6.216974282803837e-05,critical
1500,4.141414141414141,6.177215189873418,cathode,0.0167152864950928,0.0174439263815193,0.0158761588478132,-1.0975893725368017e-05,critical
1500,4.242424242424242,6.177215189873418,cathode,0.0166202719252232,0.0173876061194264,0.0157279603903543,4.978149895591562e-05,critical
1500,4.343434343434343,6.177215189873418,cathode,0.0166090993665315,0.0174921143428833,0.015556333849962,2.425689550790328e-05,critical
1500,4.444444444444445,6.177215189873418,cathode,0.0166179836391282,0.0174160055122498,0.0156831877601945,-7.35717049236661e-05,critical
1500,4.545454545454545,6.177215189873418,cathode,0.0165171108083836,0.0173241608833902,0.0155698882289611,2.725371790126389e-05,critical
1500,4.646464646464646,6.177215189873418,cathode,0.0165000837953697,0.0173694049992478,0.0154653483818642,3.383367630282182e-05,critical
1500,4.747474747474747,6.177215189873418,cathode,0.0165256134235959,0.017297239668178,0.0156266024342197,5.093379564273619e-05,critical
1500,4.848484848484849,6.177215189873418,cathode,0.0165805701040489,0.017392623995161,0.0156269985277583,3.347694681547095e-05,critical
1500,4.94949494949495,6.177215189873418,cathode,0.0165908127920351,0.0173319202365541,0.0157340014180407,2.0550510832211294e-05,critical
1500,5.05050505050505,6.177215189873418,cathode,0.0165277792675184,0.0172708329183794,0.0156648044072695,-0.0001210238547668,critical
1500,5.151515151515151,6.177215189873418,cathode,0.0166035651327324,0.017347085556973,0.0157433374692853,-4.221040998999148e-05,critical
1500,5.252525252525253,6.177215189873418,cathode,0.0165872530774924,0.0174929448947654,0.0154996889087348,-9.77944518342306e-05,critical
1500,5.353535353535354,6.177215189873418,cathode,0.0164339658333042,0.0172818752857561,0.0154281687183838,6.142012041905204e-05,critical
1500,5.454545454545454,6.177215189873418,cathode,0.0164390335116877,0.0171849081901563,0.0155742947587349,4.050357032102835e-05,critical
1500,5.555555555555555,6.177215189873418,cathode,0.0166022978348454,0.0172698440247261,0.0158424617205972,-2.6014562370779744e-05,critical
1500,5.656565656565657,6.177215189873418,cathode,0.0165828625217189,0.0173422048848139,0.0157015530494188,3.695783508013231e-06,critical
1500,5.757575757575758,6.177215189873418,cathode,0.0166539996449656,0.0175583883963831,0.0155712571353588,1.6662566757568208e-05,critical
1500,5.858585858585858,6.177215189873418,cathode,0.0165816782080909,0.0173639441349523,0.0156692555737802,-1.219002273194053e-06,critical
1500,5.959595959595959,6.177215189873418,cathode,0.0165764647318022,0.0173208153617561,0.0157152782658012,3.819398953939503e-07,critical
1500,6.0606060606060606,6.177215189873418,cathode,0.01669561094317,0.0175198380685736,0.0157266152875762,-2.805846236032897e-06,critical
1500,6.161616161616162,6.177215189873418,cathode,0.0166212479765426,0.017422450510376,0.0156821015778275,-7.400732465901557e-05,critical
1500,6.262626262626262,6.177215189873418,cathode,0.0166865965813515,0.0175016360667202,0.0157292563960575,-6.696946533898916e-05,critical
1500,6.363636363636363,6.177215189873418,cathode,0.0167755313838617,0.0175395069731206,0.015889151301972,-4.795592327779276e-05,critical
1500,6.4646464646464645,6.177215189873418,cathode,0.0168813235529628,0.017669154703027,0.0159635123458325,5.196090506366464e-05,critical
1500,6.565656565656566,6.177215189873418,cathode,0.0168106795095892,0.0176482442385304,0.0158243290865506,-1.4770039192040732e-05,critical
1500,6.666666666666667,6.177215189873418,cathode,0.0167389987005668,0.0175088856832992,0.0158437361382293,-7.115628226590879e-05,critical
1500,6.767676767676767,6.177215189873418,cathode,0.0167621950240871,0.017542479033144,0.0158539002798973,3.250931127770237e-05,critical
1500,6.8686868686868685,6.177215189873418,cathode,0.0168613029441256,0.0178430975476159,0.0156679500991311,5.002852837634787e-05,critical
1500,6.96969696969697,6.177215189873418,cathode,0.0170049728126733,0.0178828787924412,0.0159641247101697,-3.149556657917484e-05,critical
1500,7.070707070707071,6.177215189873418,cathode,0.0168863870598905,0.0177780749038063,0.0158245554928087,3.510449496221805e-05,critical
1500,7.171717171717171,6.177215189873418,cathode,0.0170927064850105,0.0178645513751,0.0161987071845344,3.131244247805751e-05,critical
1500,7.272727272727272,6.177215189873418,cathode,0.0169633732376991,0.0177758908227431,0.0160125709489595,5.48380770184486e-05,critical
1500,7.373737373737374,6.177215189873418,cathode,0.0170828510685772,0.0178095825927464,0.0162487205538629,-3.9070859918036514e-05,critical
1500,7.474747474747475,6.177215189873418,cathode,0.0172199763675992,0.0180561941117922,0.0162386916850389,7.141858491334783e-05,critical
1500,7.575757575757575,6.177215189873418,cathode,0.0171974218495413,0.0180921536224376,0.0161350135826874,-3.548097044860689e-05,critical
1500,7.6767676767676765,6.177215189873418,cathode,0.0171364872074673,0.0179183739167829,0.0162293224787276,-3.281494274418236e-05,critical
1500,7.777777777777778,6.177215189873418,cathode,0.0172030602659326,0.0179987559858006,0.0162772209584916,-6.290602569694355e-05,critical
1500,7.878787878787879,6.177215189873418,cathode,0.017426119713999,0.0182376827657586,0.0164814134884159,2.8141186087751576e-05,critical
1500,7.979797979797979,6.177215189873418,cathode,0.0175756550475612,0.0184537660908651,0.0165410419234317,-1.4353350097880697e-05,critical
1500,8.080808080808081,6.177215189873418,cathode,0.0175616820236847,0.0183990830344347,0.0165831545175057,8.984838479880331e-06,critical
1500,8.181818181818182,6.177215189873418,cathode,0.0175230661849264,0.0182961435755737,0.0166308545913945,-3.722782042182646e-05,critical
1500,8.282828282828282,6.177215189873418,cathode,0.0179525222466225,0.018875364437232,0.0168588726812027,5.612532032918922e-05,critical
1500,8.383838383838384,6.177215189873418,cathode,0.0178019159261229,0.018622816033562,0.0168464379830817,9.051018870374908e-05,critical
1500,8.484848484848484,6.177215189873418,cathode,0.0179972900838608,0.0188681967166931,0.0169769064280641,-2.4908373197792063e-05,critical
1500,8.585858585858587,6.177215189873418,cathode,0.0183026125591521,0.0191582872676502,0.0173060679163765,9.82089259155118e-06,critical
1500,8.686868686868687,6.177215189873418,cathode,0.0183079058758934,0.0192043029542758,0.0172553252965499,3.83365827671072e-05,critical
1500,8.787878787878787,6.177215189873418,cathode,0.0183371026020157,0.0192482227217621,0.0172642486866167,-4.856274577838571e-05,critical
1500,8.88888888888889,6.177215189873418,cathode,0.0184070341394685,0.0191744423104061,0.0175275581427697,9.224225192303956e-05,critical
1500,8.98989898989899,6.177215189873418,cathode,0.0186594210528179,0.019570576600442,0.0175903029962937,6.788841559635018e-06,critical
1500,9.09090909090909,6.177215189873418,cathode,0.018795471598615,0.0197792981822535,0.0176259503067127,-3.6141754219251566e-05,critical
1500,9.191919191919192,6.177215189873418,cathode,0.0188940647216073,0.0198883365316589,0.0177109223074868,-3.543004043543156e-05,critical
1500,9.292929292929292,6.177215189873418,cathode,0.0189867596454566,0.0198702043071563,0.0179579814088087,-6.241229641156372e-05,critical
1500,9.393939393939394,6.177215189873418,cathode,0.0193756392012778,0.0202941051353558,0.0183034371521814,-1.589060634887321e-05,critical
1500,9.494949494949497,6.177215189873418,cathode,0.0194972565766356,0.0202861895492301,0.0185986194331321,8.049642301525477e-07,critical
1500,9.595959595959595,6.177215189873418,cathode,0.0195335361977817,0.0204325530782488,0.0184876665673215,-9.34958464328621e-05,critical
1500,9.696969696969695,6.177215189873418,cathode,0.0198478645491452,0.0208377780965063,0.0186786502345594,-0.0001345675876976,critical
1500,9.797979797979798,6.177215189873418,cathode,0.0199157215903273,0.0208666863007587,0.0188042381765028,-6.709305672424868e-06,critical
1500,9.8989898989899,6.177215189873418,cathode,0.0202376878224464,0.021216312641744,0.0190913358506717,1.561921692031788e-05,critical
1500,10.0,6.177215189873418,cathode,0.0204715669804987,0.0214140841699192,0.0193766677904281,-1.1462065505321978e-05,critical
1500,0.0,6.278481012658228,cathode,0.0205180378665743,0.0215252168026848,0.0193349619027106,3.373692249650164e-05,critical
1500,0.101010101010101,6.278481012658228,cathode,0.0201381992599926,0.0210078082801681,0.0191381681714306,-1.3509502063806193e-05,critical
1500,0.202020202020202,6.278481012658228,cathode,0.0200158738258651,0.0209323482752471,0.0189522016504659,6.802623306687543e-06,critical
1500,0.303030303030303,6.278481012658228,cathode,0.0198274620527457,0.0207814531104697,0.0187108830307389,-2.347082736466812e-05,critical
1500,0.404040404040404,6.278481012658228,cathode,0.0196373100642393,0.0205374947636148,0.0185889068733742,-0.0001382922266276,critical
1500,0.5050505050505051,6.278481012658228,cathode,0.0192624053653213,0.020192278434362,0.018172501293582,-7.428501582743683e-05,critical
1500,0.6060606060606061,6.278481012658228,cathode,0.0192252809293871,0.0201557576180925,0.0181349806573723,3.4702305806210894e-05,critical
1500,0.7070707070707071,6.278481012658228,cathode,0.0191974970068964,0.0202010646105959,0.0180050417939306,1.0992767455434483e-05,critical
1500,0.8080808080808081,6.278481012658228,cathode,0.0188707696593319,0.0197894861980635,0.0177930722092123,3.882359817581532e-05,critical
1500,0.9090909090909092,6.278481012658228,cathode,0.0187509495876627,0.0196578767189208,0.0176885624353354,-1.0519866596345169e-05,critical
1500,1.0101010101010102,6.278481012658228,cathode,0.0186006333601981,0.0194953779420275,0.0175530046366619,5.25608638719642e-05,critical
1500,1.1111111111111112,6.278481012658228,cathode,0.01854203881471,0.0194597590335897,0.0174615321440859,-7.546483306075361e-05,critical
1500,1.2121212121212122,6.278481012658228,cathode,0.018312615748098,0.0191501592846187,0.0173405184871844,-3.368785286776456e-05,critical
1500,1.3131313131313131,6.278481012658228,cathode,0.0182811797569974,0.0192571822904295,0.0171167100669506,1.0099446667968152e-05,critical
1500,1.414141414141414,6.278481012658228,cathode,0.01811747542634,0.0190035472767523,0.0170754550298957,-0.0001019136545717,critical
1500,1.5151515151515151,6.278481012658228,cathode,0.0180138194404134,0.0189252991314575,0.0169374254261868,-8.291690000474914e-06,critical
1500,1.616161616161616,6.278481012658228,cathode,0.0179494331035949,0.0187580502721807,0.0170131886475418,-3.345997912381653e-05,critical
1500,1.7171717171717171,6.278481012658228,cathode,0.0178749060344312,0.0187240507546989,0.0168811574195043,-0.0001038614044154,critical
1500,1.818181818181818,6.278481012658228,cathode,0.0177382413630716,0.0186011995391985,0.0167256290467782,5.966200581229862e-05,critical
1500,1.9191919191919191,6.278481012658228,cathode,0.0177191840934822,0.0185472445733658,0.0167548240653428,-1.7262073095398968e-05,critical
1500,2.0202020202020203,6.278481012658228,cathode,0.0176322744232057,0.0185142704734733,0.0165926074804732,3.781500104460357e-05,critical
1500,2.121212121212121,6.278481012658228,cathode,0.0174378462902941,0.018299204870139,0.0164248721426418,-3.2963447014145564e-05,critical
1500,2.2222222222222223,6.278481012658228,cathode,0.0173069715701828,0.0181209498798497,0.0163579818536824,1.8613290584542464e-05,critical
1500,2.323232323232323,6.278481012658228,cathode,0.0172928591746844,0.0181336266499914,0.0163062586329563,6.350448161119891e-05,critical
1500,2.4242424242424243,6.278481012658228,cathode,0.0173388359734218,0.0182221002907409,0.0162941354198709,-4.0060779300380994e-05,critical
1500,2.525252525252525,6.278481012658228,cathode,0.0171523433483623,0.0181170517288601,0.0159889468229197,-2.217482499043538e-05,critical
1500,2.6262626262626263,6.278481012658228,cathode,0.0172451003170957,0.0180915737627543,0.0162509727027682,-6.623277737659021e-07,critical
1500,2.727272727272727,6.278481012658228,cathode,0.0169776725602088,0.0178061194759872,0.0160054674142993,-3.536790623859499e-05,critical
1500,2.8282828282828283,6.278481012658228,cathode,0.0170354407189971,0.0179909016528486,0.0158839109559179,-1.7802836748178294e-05,critical
1500,2.929292929292929,6.278481012658228,cathode,0.0169934730298743,0.0177754658379043,0.0160850594777501,2.0221335334722648e-05,critical
1500,3.0303030303030303,6.278481012658228,cathode,0.016910734296245,0.0175714848764825,0.0161605330617447,-7.656614643807899e-05,critical
1500,3.131313131313131,6.278481012658228,cathode,0.0168935142231396,0.017599214285396,0.0160849170253687,-7.262947844259674e-05,critical
1500,3.2323232323232323,6.278481012658228,cathode,0.0168682420290321,0.0177222195679665,0.0158589550743836,-5.759233228296185e-05,critical
1500,3.333333333333333,6.278481012658228,cathode,0.0168382659901633,0.0176765444670557,0.0158509045814435,4.091000939946116e-05,critical
1500,3.4343434343434343,6.278481012658228,cathode,0.0167531162650373,0.0175407464771027,0.0158346289684523,4.022993051215746e-05,critical
1500,3.5353535353535355,6.278481012658228,cathode,0.0167146414683359,0.0176512818080844,0.0155860709215473,2.1049243154256965e-06,critical
1500,3.636363636363636,6.278481012658228,cathode,0.0166643479686573,0.0175028997259782,0.0156748707425296,3.220989495765194e-05,critical
1500,3.7373737373737375,6.278481012658228,cathode,0.0165991563523937,0.0173662520140024,0.0157074118382958,2.135736487855328e-05,critical
1500,3.8383838383838382,6.278481012658228,cathode,0.0165852641915882,0.0173576414027365,0.0156857640186964,5.1469580126608696e-05,critical
1500,3.939393939393939,6.278481012658228,cathode,0.0167115005227088,0.0174554703296839,0.0158518707800037,-1.6912859279234345e-05,critical
1500,4.040404040404041,6.278481012658228,cathode,0.0166221677602792,0.0175198285885066,0.015548620557145,-2.3330945482060213e-05,critical
1500,4.141414141414141,6.278481012658228,cathode,0.0166555803115305,0.0174878268028305,0.0156750203079371,3.993739261422572e-06,critical
1500,4.242424242424242,6.278481012658228,cathode,0.0165069554555922,0.0172755962968365,0.015612373389353,8.327924769557133e-06,critical
1500,4.343434343434343,6.278481012658228,cathode,0.0164537944075861,0.0173209330352528,0.0154185087467342,0.0001227120313621,critical
1500,4.444444444444445,6.278481012658228,cathode,0.0166461673667149,0.0174986712825716,0.0156371501440474,-9.607021909516288e-06,critical
1500,4.545454545454545,6.278481012658228,cathode,0.0165431706304169,0.0173433016063789,0.0156055305012145,-4.172881911417472e-05,critical
1500,4.646464646464646,6.278481012658228,cathode,0.0164744380649516,0.017253065077725,0.0155659545574592,1.0656321764120186e-05,critical
1500,4.747474747474747,6.278481012658228,cathode,0.0165811661292267,0.0173372683649821,0.0157035838040505,-5.446178348204869e-05,critical
1500,4.848484848484849,6.278481012658228,cathode,0.0165417698948125,0.0171740200980412,0.015826803249304,4.211462182455545e-05,critical
1500,4.94949494949495,6.278481012658228,cathode,0.0164843822965698,0.0172647213686115,0.0155736484784485,-1.1979239057736404e-05,critical
1500,5.05050505050505,6.278481012658228,cathode,0.0165276794514152,0.0172673882867594,0.0156721028581082,3.1449053411069204e-05,critical
1500,5.151515151515151,6.278481012658228,cathode,0.0164662915218159,0.0172016748294994,0.0156158833306391,3.947393450606722e-05,critical
1500,5.252525252525253,6.278481012658228,cathode,0.0165399451005159,0.0172799062872874,0.0156840155043085,3.91510496727941e-05,critical
1500,5.353535353535354,6.278481012658228,cathode,0.0165446968933373,0.0173936038306787,0.0155395827621956,9.217923687501742e-06,critical
1500,5.454545454545454,6.278481012658228,cathode,0.0164670541764653,0.0172132571234702,0.0156015553533,6.508157001849799e-05,critical
1500,5.555555555555555,6.278481012658228,cathode,0.0165191739569559,0.0173431576586455,0.0155486393373285,-1.0145769597173904e-05,critical
1500,5.656565656565657,6.278481012658228,cathode,0.0165362086723796,0.0173172405553057,0.0156233383024053,-8.904072930491956e-05,critical
1500,5.757575757575758,6.278481012658228,cathode,0.0165491914497518,0.0172653556543433,0.0157253740638972,2.4718990838353106e-06,critical
1500,5.858585858585858,6.278481012658228,cathode,0.0164933613758691,0.0172466455717361,0.015619054922876,-4.32578872690517e-05,critical
1500,5.959595959595959,6.278481012658228,cathode,0.0165927802326434,0.0174670252623407,0.0155524067500702,1.0168703585439955e-05,critical
1500,6.0606060606060606,6.278481012658228,cathode,0.0167493283649084,0.0175121978810314,0.015863067885761,8.791495614626715e-05,critical
1500,6.161616161616162,6.278481012658228,cathode,0.016576705543135,0.017425929997095,0.0155715241790956,-4.298564886648613e-06,critical
1500,6.262626262626262,6.278481012658228,cathode,0.0166258837173779,0.0174518159986764,0.015653685418719,-2.234705458338517e-05,critical
1500,6.363636363636363,6.278481012658228,cathode,0.0167372882315399,0.0174871300333713,0.0158700588323408,-6.20854370266451e-06,critical
1500,6.4646464646464645,6.278481012658228,cathode,0.0167398058815656,0.0174304216023987,0.0159501189936602,6.456642866840476e-05,critical
1500,6.565656565656566,6.278481012658228,cathode,0.0167600593068554,0.0175449691669318,0.0158456513687588,-1.2142148363907682e-05,critical
1500,6.666666666666667,6.278481012658228,cathode,0.0167239399350618,0.0175678217243348,0.0157277868810787,-2.223122455448609e-05,critical
1500,6.767676767676767,6.278481012658228,cathode,0.0169171256376918,0.0177655019842066,0.0159168082599264,-2.146804833874135e-05,critical
1500,6.8686868686868685,6.278481012658228,cathode,0.0168482015852778,0.0176277399823341,0.0159412370768424,-5.663456130915242e-05,critical
1500,6.96969696969697,6.278481012658228,cathode,0.0169379813854811,0.0177429606319469,0.0159975503089388,-4.0211441783436045e-05,critical
1500,7.070707070707071,6.278481012658228,cathode,0.017053812264646,0.0180113647450353,0.0158992154837475,-3.987069994315207e-05,critical
1500,7.171717171717171,6.278481012658228,cathode,0.0170159442482139,0.0177302200623707,0.0161978531550946,3.005185526176704e-05,critical
1500,7.272727272727272,6.278481012658228,cathode,0.0171470068399352,0.0179486446537445,0.0162133332421956,-1.983983217191572e-05,critical
1500,7.373737373737374,6.278481012658228,cathode,0.0170769780069075,0.0179066536216169,0.0161036686386185,-5.658813317794826e-05,critical
1500,7.474747474747475,6.278481012658228,cathode,0.0173025502048142,0.0180599768183216,0.0164290135563001,-5.943751166787274e-05,critical
1500,7.575757575757575,6.278481012658228,cathode,0.0172399766204635,0.0180582055692072,0.0162817757501814,0.0001175265128886,critical
1500,7.6767676767676765,6.278481012658228,cathode,0.0172977846809652,0.0181131154471744,0.0163468716400136,-1.7930114287524973e-05,critical
1500,7.777777777777778,6.278481012658228,cathode,0.0173518888223359,0.0179917895060968,0.0166301791175626,9.5534846467074e-05,critical
1500,7.878787878787879,6.278481012658228,cathode,0.0176082059330078,0.0184421852249971,0.01663477465445,-1.3998276462096656e-05,critical
1500,7.979797979797979,6.278481012658228,cathode,0.0176347553803932,0.0185085773926375,0.0166047719039133,9.902207959148474e-05,critical
1500,8.080808080808081,6.278481012658228,cathode,0.017670171919403,0.0184962456416988,0.0167079218744992,3.186749584857348e-05,critical
1500,8.181818181818182,6.278481012658228,cathode,0.017655296828576,0.018495479684548,0.0166721866271344,-9.132263822327876e-05,critical
1500,8.282828282828282,6.278481012658228,cathode,0.0176880446328482,0.0185349684856284,0.0166952683688519,-0.0001097775602219,critical
1500,8.383838383838384,6.278481012658228,cathode,0.0179524030157811,0.0187933765744645,0.0169725763471389,2.1922914697489085e-05,critical
1500,8.484848484848484,6.278481012658228,cathode,0.0179971071126481,0.0188293865644577,0.0170294742209214,-2.328722481569113e-05,critical
1500,8.585858585858587,6.278481012658228,cathode,0.0181692366165549,0.0189763048022398,0.0172352464338549,-9.761372118719157e-05,critical
1500,8.686868686868687,6.278481012658228,cathode,0.0182851206968843,0.0190921569367068,0.0173538099869414,-2.661491682201056e-05,critical
1500,8.787878787878787,6.278481012658228,cathode,0.0183960793860868,0.0192726471728638,0.0173718042674559,-2.502415793610291e-05,critical
1500,8.88888888888889,6.278481012658228,cathode,0.018480771798801,0.0193666369020177,0.0174446509751136,1.5000652037218743e-05,critical
1500,8.98989898989899,6.278481012658228,cathode,0.0186029255088128,0.0195640013853371,0.0174635390254819,-8.034796244696359e-06,critical
1500,9.09090909090909,6.278481012658228,cathode,0.0187231387786363,0.0195930038347821,0.0177105257556647,-5.716338854603192e-05,critical
1500,9.191919191919192,6.278481012658228,cathode,0.0189581253350991,0.01988162771522,0.0178749726680165,-9.995626095023487e-06,critical
1500,9.292929292929292,6.278481012658228,cathode,0.0191499972011684,0.0201102068004624,0.0180179574466167,-3.419195562088221e-06,critical
1500,9.393939393939394,6.278481012658228,cathode,0.0193508535184557,0.0201904758657246,0.0183832888530627,8.613375952505793e-05,critical
1500,9.494949494949497,6.278481012658228,cathode,0.0195984473157322,0.0205223373600302,0.0185206461024136,4.2512183556280834e-05,critical
1500,9.595959595959595,6.278481012658228,cathode,0.0196398980748525,0.020640977301785,0.018450553959957,0.0001733748168368,critical
1500,9.696969696969695,6.278481012658228,cathode,0.0198234304717741,0.020775473858792,0.0187092698585884,4.18323424063777e-05,critical
1500,9.797979797979798,6.278481012658228,cathode,0.0201013557420678,0.0211167223761296,0.0189004501856656,0.0001111768746488,critical
1500,9.8989898989899,6.278481012658228,cathode,0.0202121606245544,0.0211037041231964,0.0191827051232974,-7.086783610763404e-05,critical
1500,10.0,6.278481012658228,cathode,0.0205815223512527,0.0214849978096672,0.0195393062404186,-6.163017296802863e-05,critical
1500,0.0,6.379746835443038,cathode,0.0205105748364684,0.0215599419372834,0.0192687342046529,2.046615937821945e-05,critical
1500,0.101010101010101,6.379746835443038,cathode,0.0202282665009347,0.0211909156018902,0.0191037815604218,2.1910375156529045e-06,critical
1500,0.202020202020202,6.379746835443038,cathode,0.020049262919979,0.0211712672524821,0.0186970266823111,-6.14505692093179e-05,critical
1500,0.303030303030303,6.379746835443038,cathode,0.0197572507731566,0.0207051233741015,0.0186481797476106,-4.114468023518814e-05,critical
1500,0.404040404040404,6.379746835443038,cathode,0.0196837275244185,0.0206233956658932,0.0185854990368476,-1.4491250335479554e-06,critical
1500,0.5050505050505051,6.379746835443038,cathode,0.0195155464993899,0.0205167317558738,0.0183298207313508,4.457301982117548e-05,critical
1500,0.6060606060606061,6.379746835443038,cathode,0.019142612328526,0.0200762988967528,0.0180469824267505,-4.02825062198054e-05,critical
1500,0.7070707070707071,6.379746835443038,cathode,0.0191775314831516,0.0201692697721372,0.0180007046658419,-6.824141727818123e-05,critical
1500,0.8080808080808081,6.379746835443038,cathode,0.0188599935162279,0.0197426044758293,0.0178318573043113,-1.910366674696665e-05,critical
1500,0.9090909090909092,6.379746835443038,cathode,0.0187945726938182,0.0196672806981697,0.0177793154988992,-1.5933313000469742e-05,critical
1500,1.0101010101010102,6.379746835443038,cathode,0.0185760311576861,0.0194256273599538,0.0175899782723457,-3.142615798325502e-05,critical
1500,1.1111111111111112,6.379746835443038,cathode,0.0184837020378474,0.0194110266189197,0.0173893870106498,6.918614451544774e-05,critical
1500,1.2121212121212122,6.379746835443038,cathode,0.018480480885664,0.0193507880527251,0.0174648654209217,-6.47056479180717e-05,critical
1500,1.3131313131313131,6.379746835443038,cathode,0.0181955006615155,0.019013524768393,0.0172478492760983,7.354129569422555e-05,critical
1500,1.414141414141414,6.379746835443038,cathode,0.018036067238591,0.0188705399423204,0.0170655591353023,-4.2624017167594925e-05,critical
1500,1.5151515151515151,6.379746835443038,cathode,0.0179349859519239,0.0187506712941266,0.016989070224162,3.65668333807725e-05,critical
1500,1.616161616161616,6.379746835443038,cathode,0.0178562649028803,0.0186430359735004,0.0169479674549827,6.156854826957986e-05,critical
1500,1.7171717171717171,6.379746835443038,cathode,0.0177851243833331,0.0186642961178071,0.0167512367857799,-1.642775570590498e-05,critical
1500,1.818181818181818,6.379746835443038,cathode,0.0176293855460401,0.0185316135092093,0.0165610867282748,5.354249298180981e-05,critical
1500,1.9191919191919191,6.379746835443038,cathode,0.0176644535584694,0.0186059432944541,0.0165412376452913,-3.9074515378753806e-05,critical
1500,2.0202020202020203,6.379746835443038,cathode,0.0175793080616467,0.0185052456415185,0.01647750758647,-2.878586090396388e-06,critical
1500,2.121212121212121,6.379746835443038,cathode,0.0175906969545385,0.018345448743239,0.0167232486655415,4.314719070123433e-05,critical
1500,2.2222222222222223,6.379746835443038,cathode,0.0173828024139259,0.0182390668145047,0.0163763484155961,3.047949194947584e-05,critical
1500,2.323232323232323,6.379746835443038,cathode,0.0173657063896283,0.0181359391009553,0.0164726415077591,0.0001346307427201,critical
1500,2.4242424242424243,6.379746835443038,cathode,0.0173000173469085,0.0181292093535221,0.0163289038967012,-8.038077845900543e-05,critical
1500,2.525252525252525,6.379746835443038,cathode,0.0170646843521551,0.0178716910561224,0.01612296599972,-1.5763464456395366e-05,critical
1500,2.6262626262626263,6.379746835443038,cathode,0.0172567966956382,0.0180243076251638,0.0163698704893391,3.7808615662070615e-05,critical
1500,2.727272727272727,6.379746835443038,cathode,0.0171606398512425,0.0180252686667215,0.0161382263685068,0.000101267586288,critical
1500,2.8282828282828283,6.379746835443038,cathode,0.0169354795523827,0.0176282737293765,0.0161450218962029,-2.2849620848449556e-05,critical
1500,2.929292929292929,6.379746835443038,cathode,0.016952580490531,0.0177825853089354,0.0159781575527284,-1.893849308659992e-05,critical
1500,3.0303030303030303,6.379746835443038,cathode,0.0169961714223172,0.0177996777719991,0.0160585838719057,1.649902327112496e-05,critical
1500,3.131313131313131,6.379746835443038,cathode,0.0168285213543879,0.0176538390215818,0.0158589400381668,4.58043946606564e-05,critical
1500,3.2323232323232323,6.379746835443038,cathode,0.016884992771166,0.0176162418966324,0.01604320703295,5.008762244952486e-05,critical
1500,3.333333333333333,6.379746835443038,cathode,0.0167994842067698,0.0175987923319431,0.0158657038455523,2.4810843469843074e-05,critical
1500,3.4343434343434343,6.379746835443038,cathode,0.016745721774115,0.017532670005292,0.0158278963848071,5.053199049599074e-05,critical
1500,3.5353535353535355,6.379746835443038,cathode,0.016781043337531,0.0176653712086725,0.0157281942450064,-4.608371871358647e-05,critical
1500,3.636363636363636,6.379746835443038,cathode,0.0169041218771649,0.0177033390700221,0.0159680056345789,0.0001303025772377,critical
1500,3.7373737373737375,6.379746835443038,cathode,0.0166419314909939,0.0174670942858324,0.0156707874486741,3.671329678553553e-05,critical
1500,3.8383838383838382,6.379746835443038,cathode,0.0167661113023713,0.0175453461198116,0.0158594764966641,1.0446758069873398e-05,critical
1500,3.939393939393939,6.379746835443038,cathode,0.0165943445804023,0.0174734664594573,0.0155470267047945,1.4745103912624172e-05,critical
1500,4.040404040404041,6.379746835443038,cathode,0.0166216886495884,0.0173891163792925,0.0157297846408208,5.657004970534453e-06,critical
1500,4.141414141414141,6.379746835443038,cathode,0.0166635055865036,0.0174411106274395,0.0157581794679154,-1.8034023901548867e-06,critical
1500,4.242424242424242,6.379746835443038,cathode,0.0166419239988051,0.0174638782953461,0.0156751608227367,4.0919909319047264e-05,critical
1500,4.343434343434343,6.379746835443038,cathode,0.0166204889985914,0.017355078083505,0.0157726651033821,-1.6219930805003897e-05,critical
1500,4.444444444444445,6.379746835443038,cathode,0.016511105828108,0.0172642274750699,0.0156374735191464,2.150398369794044e-05,critical
1500,4.545454545454545,6.379746835443038,cathode,0.0164438070831014,0.017210105768342,0.0155518314439849,-9.194364676885368e-06,critical
1500,4.646464646464646,6.379746835443038,cathode,0.0165219458195759,0.0172678952007954,0.0156566180884644,8.493013167934194e-05,critical
1500,4.747474747474747,6.379746835443038,cathode,0.0165621571458728,0.017396920968465,0.0155726581819144,-0.0001423738628944,critical
1500,4.848484848484849,6.379746835443038,cathode,0.0164520700829405,0.0171218353449936,0.0156883521198614,-2.801206110789837e-05,critical
1500,4.94949494949495,6.379746835443038,cathode,0.0166175956730763,0.0174681178987815,0.01561091212302,-2.5943450639777737e-05,critical
1500,5.05050505050505,6.379746835443038,cathode,0.0164152290733831,0.0172652689004694,0.0154068770783051,-2.7384262741648165e-05,critical
1500,5.151515151515151,6.379746835443038,cathode,0.0164616159541178,0.0172707781254023,0.0155106384193543,4.439711721017226e-05,critical
1500,5.252525252525253,6.379746835443038,cathode,0.0165103668132082,0.017231978247105,0.0156777584598057,-7.707229661573134e-05,critical
1500,5.353535353535354,6.379746835443038,cathode,0.0164825746470795,0.0172270877110803,0.0156202427936889,-2.5972631449659167e-05,critical
1500,5.454545454545454,6.379746835443038,cathode,0.0165927255525135,0.0174804568479352,0.0155328856418225,-3.449865873698377e-05,critical
1500,5.555555555555555,6.379746835443038,cathode,0.0165073269923756,0.0173020630017492,0.0155771082922537,-9.427367231682114e-06,critical
1500,5.656565656565657,6.379746835443038,cathode,0.0165771670638374,0.0174144248329823,0.0155887161647747,1.5597297215645595e-05,critical
1500,5.757575757575758,6.379746835443038,cathode,0.0164992699432361,0.0172364902321698,0.0156469042823635,-2.1697475276184496e-05,critical
1500,5.858585858585858,6.379746835443038,cathode,0.0166703868189083,0.0174581085869712,0.015749762679865,-8.618559352785382e-05,critical
1500,5.959595959595959,6.379746835443038,cathode,0.0165595463581203,0.0173213015346835,0.0156745301586231,-3.394274455213021e-05,critical
1500,6.0606060606060606,6.379746835443038,cathode,0.0167193080281405,0.0175896462279711,0.0156856430834089,4.131291144938327e-05,critical
1500,6.161616161616162,6.379746835443038,cathode,0.0165672030613981,0.0173303805818963,0.0156805418758568,1.2794304596646508e-05,critical
1500,6.262626262626262,6.379746835443038,cathode,0.0166321481640695,0.0174555211034801,0.0156627923832321,-6.396171308606582e-05,critical
1500,6.363636363636363,6.379746835443038,cathode,0.0167093080334701,0.0176361452226479,0.0155947310909381,2.978294992577441e-05,critical
1500,6.4646464646464645,6.379746835443038,cathode,0.0166934944607693,0.0174149642914366,0.0158637394718786,9.017582689806884e-07,critical
1500,6.565656565656566,6.379746835443038,cathode,0.0167165137179678,0.0175325638058642,0.0157575862737707,-8.245983320083065e-05,critical
1500,6.666666666666667,6.379746835443038,cathode,0.0168521598798991,0.0176559243539109,0.015912907209022,-5.713055477689965e-06,critical
1500,6.767676767676767,6.379746835443038,cathode,0.0168645163946168,0.0176687968814643,0.0159237699689733,6.566868871226682e-05,critical
1500,6.8686868686868685,6.379746835443038,cathode,0.0169474965935604,0.017737051201167,0.0160283032523285,-3.154775057630922e-05,critical
1500,6.96969696969697,6.379746835443038,cathode,0.0168567094701642,0.0177813768737418,0.0157474593904046,1.0386012555667906e-05,critical
1500,7.070707070707071,6.379746835443038,cathode,0.0170411642213821,0.0178784211008046,0.0160574305724524,3.543042256269536e-05,critical
1500,7.171717171717171,6.379746835443038,cathode,0.0169922760035884,0.0178690859058361,0.0159513898470588,8.78068214887376e-05,critical
1500,7.272727272727272,6.379746835443038,cathode,0.0170820468052169,0.0178552684200098,0.0161846919715414,8.84645661515878e-05,critical
1500,7.373737373737374,6.379746835443038,cathode,0.0171629418452693,0.0179517189718655,0.0162469093988831,-9.044590553868575e-06,critical
1500,7.474747474747475,6.379746835443038,cathode,0.0172510010782231,0.01811903510939,0.0162267820500415,3.0456981256350044e-05,critical
1500,7.575757575757575,6.379746835443038,cathode,0.0173754449185441,0.0182375938418596,0.0163588574870139,-0.0001003946567554,critical
1500,7.6767676767676765,6.379746835443038,cathode,0.0172825244252,0.0181260558655374,0.0162926425888274,3.107250713171695e-05,critical
1500,7.777777777777778,6.379746835443038,cathode,0.0173259898901292,0.0180692267785509,0.0164712104458286,6.887817820511157e-05,critical
1500,7.878787878787879,6.379746835443038,cathode,0.0174568720852867,0.0181845032559826,0.0166245315476106,2.7817518485608027e-06,critical
1500,7.979797979797979,6.379746835443038,cathode,0.0173138573806491,0.0181159017183153,0.0163801056313775,-7.367855493591857e-05,critical
1500,8.080808080808081,6.379746835443038,cathode,0.0177301684615383,0.0186153311678721,0.0166873945932846,-1.3632754009614365e-05,critical
1500,8.181818181818182,6.379746835443038,cathode,0.0178546985293862,0.0187428403597669,0.016809089846237,1.6134287403098704e-05,critical
1500,8.282828282828282,6.379746835443038,cathode,0.0178595446368378,0.0186896848676659,0.0168936888122943,2.0534602872833685e-06,critical
1500,8.383838383838384,6.379746835443038,cathode,0.0178936926639294,0.0187044593650026,0.0169542937417698,9.293136615499912e-06,critical
1500,8.484848484848484,6.379746835443038,cathode,0.0180672436559395,0.0188922397270032,0.0171065671319234,-0.0001357688524644,critical
1500,8.585858585858587,6.379746835443038,cathode,0.0181377774240577,0.0190129441032978,0.0171127448629083,3.894953576310827e-05,critical
1500,8.686868686868687,6.379746835443038,cathode,0.0182503084574867,0.0191566275213347,0.0171831434049164,-5.177316548613683e-05,critical
1500,8.787878787878787,6.379746835443038,cathode,0.0184738037877845,0.0193139626391191,0.0174996822288181,-2.312443520614472e-05,critical
1500,8.88888888888889,6.379746835443038,cathode,0.0184564207330013,0.0193377743802005,0.0174262831266278,6.734806424735569e-06,critical
1500,8.98989898989899,6.379746835443038,cathode,0.0187235983647543,0.0195950333248055,0.0177088316847548,5.84011745276926e-05,critical
1500,9.09090909090909,6.379746835443038,cathode,0.0188445401992176,0.0196218228758061,0.0179567519511435,3.050991623534995e-06,critical
1500,9.191919191919192,6.379746835443038,cathode,0.0191749027515209,0.0200460455979839,0.0181650644937054,1.9100475523804385e-05,critical
1500,9.292929292929292,6.379746835443038,cathode,0.0192253482942848,0.0201702431014401,0.0181150723398573,-4.032072336241614e-05,critical
1500,9.393939393939394,6.379746835443038,cathode,0.0192412386692459,0.0201532733917562,0.0181758277494363,6.467483461121868e-05,critical
1500,9.494949494949497,6.379746835443038,cathode,0.0193784090194477,0.0203589937775948,0.0182203249746549,-2.1206065066446744e-05,critical
1500,9.595959595959595,6.379746835443038,cathode,0.0196388156928712,0.0206813002572974,0.0183956840172177,6.422778007743823e-05,critical
1500,9.696969696969695,6.379746835443038,cathode,0.0197772637453948,0.020751390961928,0.0186306427937286,0.0001013837220589,critical
1500,9.797979797979798,6.379746835443038,cathode,0.0200837726692285,0.0209956074427855,0.01902686894819,2.0992598903312944e-05,critical
1500,9.8989898989899,6.379746835443038,cathode,0.0202477424493437,0.0212010747101333,0.0191345261378099,-9.649370010560217e-05,critical
1500,10.0,6.379746835443038,cathode,0.0205419575500037,0.0215810212105691,0.0193146028202903,4.659945620753885e-05,critical
1500,0.0,6.481012658227848,cathode,0.0205242231394057,0.0215653555527279,0.019294041281696,2.586290481513139e-05,critical
1500,0.101010101010101,6.481012658227848,cathode,0.0202450212832315,0.0210825281874602,0.0192879949768393,1.672857502941812e-05,critical
1500,0.202020202020202,6.481012658227848,cathode,0.0201206309459785,0.0210951328190433,0.0189780965766726,6.44961890782146e-05,critical
1500,0.303030303030303,6.481012658227848,cathode,0.0198640241797034,0.0207720525063904,0.0188104381367951,6.245828476919154e-06,critical
1500,0.404040404040404,6.481012658227848,cathode,0.0195370009822426,0.0204533379810108,0.0184690685269825,-3.1524261215855205e-05,critical
1500,0.5050505050505051,6.481012658227848,cathode,0.0193940274566565,0.0202949768762925,0.018345613449526,-3.865436757630307e-05,critical
1500,0.6060606060606061,6.481012658227848,cathode,0.0191647628983591,0.0199920697048995,0.0182129462024165,-5.280941499872396e-05,critical
1500,0.7070707070707071,6.481012658227848,cathode,0.0190647438279347,0.0200255453873269,0.017930351306434,5.6436071374978525e-05,critical
1500,0.8080808080808081,6.481012658227848,cathode,0.0189318981786707,0.019805120416659,0.0179171664031127,1.591803301688769e-05,critical
1500,0.9090909090909092,6.481012658227848,cathode,0.0187299433838911,0.0196665950259962,0.0176253940246038,-6.529721837769032e-05,critical
1500,1.0101010101010102,6.481012658227848,cathode,0.018622286640332,0.0195674623418241,0.017504851378671,-5.679077976106762e-05,critical
1500,1.1111111111111112,6.481012658227848,cathode,0.0185838705308715,0.0194687528228519,0.017550094769614,-1.3392730577888762e-05,critical
1500,1.2121212121212122,6.481012658227848,cathode,0.0183435540229673,0.0191691490532663,0.0173880188664188,2.8319388379252023e-06,critical
1500,1.3131313131313131,6.481012658227848,cathode,0.0182119607198854,0.019008454611449,0.0172942523586786,-2.0736729717963787e-06,critical
1500,1.414141414141414,6.481012658227848,cathode,0.0181520452413153,0.0190277296041664,0.0171267396242712,2.079062260294964e-06,critical
1500,1.5151515151515151,6.481012658227848,cathode,0.0179782899498771,0.0188858430750203,0.0169069756053735,-1.297308939707067e-05,critical
1500,1.616161616161616,6.481012658227848,cathode,0.0177484622772057,0.0185495228466078,0.0168208503881393,-1.6893416493641413e-05,critical
1500,1.7171717171717171,6.481012658227848,cathode,0.0177581908200626,0.0185511760457333,0.0168414858370447,-1.762533526654821e-05,critical
1500,1.818181818181818,6.481012658227848,cathode,0.0177276186807783,0.0185609035132446,0.0167556682152882,5.552346707625479e-05,critical
1500,1.9191919191919191,6.481012658227848,cathode,0.0177172857493765,0.0186101670962889,0.0166626454042801,-7.013877755480689e-05,critical
1500,2.0202020202020203,6.481012658227848,cathode,0.0174762020517215,0.0183041145905592,0.0165094685317112,4.3511846601090255e-05,critical
1500,2.121212121212121,6.481012658227848,cathode,0.0174058595567822,0.0182542748286689,0.0164095814247974,-7.313003137392058e-05,critical
1500,2.2222222222222223,6.481012658227848,cathode,0.0172599579315171,0.0182026557270506,0.0161300926557541,-5.962525149800919e-06,critical
1500,2.323232323232323,6.481012658227848,cathode,0.0172942243385445,0.0180946916996492,0.0163627401190127,6.271995754080916e-05,critical
1500,2.4242424242424243,6.481012658227848,cathode,0.0171057070386454,0.0178834847384073,0.0162026919102825,8.073673726743321e-05,critical
1500,2.525252525252525,6.481012658227848,cathode,0.0172060715976884,0.0180182735522155,0.0162574998155023,-7.415461789809251e-05,critical
1500,2.6262626262626263,6.481012658227848,cathode,0.0171210661403296,0.0177391397094362,0.0164275004449894,1.6152925534302096e-05,critical
1500,2.727272727272727,6.481012658227848,cathode,0.0170442342729917,0.0177807770752668,0.0161967223858269,-4.612519599927927e-05,critical
1500,2.8282828282828283,6.481012658227848,cathode,0.0170226587491393,0.017901928638644,0.0159797958688122,4.882349575136778e-05,critical
1500,2.929292929292929,6.481012658227848,cathode,0.0169491152101988,0.0177609383402028,0.0159964397333746,0.0001255272983032,critical
1500,3.0303030303030303,6.481012658227848,cathode,0.0168457057751998,0.0176309677445259,0.0159311322450925,-4.8592154592401216e-05,critical
1500,3.131313131313131,6.481012658227848,cathode,0.0167789614804931,0.0176284709926624,0.0157748738081422,-6.005692206790581e-05,critical
1500,3.2323232323232323,6.481012658227848,cathode,0.0167843952020067,0.017567979946424,0.0158715460571628,4.8413171523213776e-05,critical
1500,3.333333333333333,6.481012658227848,cathode,0.0169418755490607,0.0177698602779376,0.0159701981436555,-7.609173336001562e-06,critical
1500,3.4343434343434343,6.481012658227848,cathode,0.016814012847972,0.0177217653923653,0.0157266898917159,9.308264965932066e-05,critical
1500,3.5353535353535355,6.481012658227848,cathode,0.0166208303013335,0.0174604858302749,0.015628380263732,-7.365902010258567e-05,critical
1500,3.636363636363636,6.481012658227848,cathode,0.0166989571678784,0.0174820661115461,0.015784916907056,-8.542860161049331e-05,critical
1500,3.7373737373737375,6.481012658227848,cathode,0.0167053266656527,0.0174808301201429,0.0158032311298342,-7.966377971733715e-07,critical
1500,3.8383838383838382,6.481012658227848,cathode,0.0167744347983734,0.0176201001595168,0.0157761259046821,3.874352738009212e-05,critical
1500,3.939393939393939,6.481012658227848,cathode,0.01663952658833,0.0173477155001325,0.0158267678836874,-2.7670073648672384e-05,critical
1500,4.040404040404041,6.481012658227848,cathode,0.0165871529696804,0.0175029957573619,0.015486954753699,-1.931288582533126e-05,critical
1500,4.141414141414141,6.481012658227848,cathode,0.0167487852588415,0.0175319711145903,0.0158349690308325,-8.901671288539688e-05,critical
1500,4.242424242424242,6.481012658227848,cathode,0.0165560798454119,0.0174169598559642,0.0155341395932288,2.0672152578945112e-05,critical
1500,4.343434343434343,6.481012658227848,cathode,0.016772345496026,0.0175701414497756,0.0158397684648416,-5.890758897172896e-05,critical
1500,4.444444444444445,6.481012658227848,cathode,0.0165240021482975,0.0174644337554283,0.0153870889163469,-1.278473122997576e-05,critical
1500,4.545454545454545,6.481012658227848,cathode,0.0166786720406558,0.0174690710705968,0.0157553033887652,5.940464434365769e-05,critical
1500,4.646464646464646,6.481012658227848,cathode,0.0164698554172081,0.0172757915740383,0.01552373123559,-2.3641465942580796e-05,critical
1500,4.747474747474747,6.481012658227848,cathode,0.016493773308497,0.01731554305181,0.0155260597426626,-7.107257375186685e-06,critical
1500,4.848484848484849,6.481012658227848,cathode,0.0165287896439367,0.0173005772700835,0.0156299157465076,3.272139871916286e-05,critical
1500,4.94949494949495,6.481012658227848,cathode,0.0164453604873253,0.0173206620587195,0.0154013748291235,-3.745857033255537e-05,critical
1500,5.05050505050505,6.481012658227848,cathode,0.0164784572136464,0.0172769059696993,0.0155427344060536,-2.4767481494950568e-05,critical
1500,5.151515151515151,6.481012658227848,cathode,0.0165749969428451,0.0173492784596737,0.0156729575769878,4.459694975608861e-05,critical
1500,5.252525252525253,6.481012658227848,cathode,0.0164919144099149,0.0172709822380348,0.0155825333287323,4.734568094673796e-05,critical
1500,5.353535353535354,6.481012658227848,cathode,0.0166253150353205,0.0175260825071148,0.0155449956571757,-0.0001057015550963,critical
1500,5.454545454545454,6.481012658227848,cathode,0.0165959818332683,0.0174373749239463,0.0156011190550603,-6.381012966562526e-05,critical
1500,5.555555555555555,6.481012658227848,cathode,0.0165310420894039,0.0173951910975267,0.0155041484356082,2.3702113992367037e-05,critical
1500,5.656565656565657,6.481012658227848,cathode,0.0165823563122175,0.0173538206244984,0.0156843416917116,-3.709729108320518e-05,critical
1500,5.757575757575758,6.481012658227848,cathode,0.0165336162563456,0.0172548192833045,0.0157022338514686,-5.982624192429208e-05,critical
1500,5.858585858585858,6.481012658227848,cathode,0.0167351136075124,0.0174253878967329,0.015946278032518,4.539177660897791e-05,critical
1500,5.959595959595959,6.481012658227848,cathode,0.0165653038464076,0.017362094156421,0.0156327026968098,2.6080400564112984e-05,critical
1500,6.0606060606060606,6.481012658227848,cathode,0.0167301906352456,0.0175441211572167,0.0157757802428495,4.048541269770337e-06,critical
1500,6.161616161616162,6.481012658227848,cathode,0.0165146129180239,0.0172482471415356,0.0156668479767066,-4.45371849862667e-05,critical
1500,6.262626262626262,6.481012658227848,cathode,0.016700361345782,0.0175652268660844,0.0156744769319337,2.1528659792579907e-05,critical
1500,6.363636363636363,6.481012658227848,cathode,0.0165676056557085,0.0173151169174222,0.0157019869983327,-2.3297462155327453e-05,critical
1500,6.4646464646464645,6.481012658227848,cathode,0.0167950499981017,0.0175117449281079,0.0159722648734422,-2.219017894100251e-05,critical
1500,6.565656565656566,6.481012658227848,cathode,0.0168623790081778,0.0177739915958406,0.0157717673982864,3.494228321270932e-05,critical
1500,6.666666666666667,6.481012658227848,cathode,0.01676297334561,0.0174846189492131,0.0159333363619186,2.876828229320418e-05,critical
1500,6.767676767676767,6.481012658227848,cathode,0.0169490715508343,0.0177868521941962,0.0159638278644993,2.13076605572195e-05,critical
1500,6.8686868686868685,6.481012658227848,cathode,0.0169196397907051,0.0177827913462952,0.015898747309095,1.2683953007373934e-05,critical
1500,6.96969696969697,6.481012658227848,cathode,0.0169649716687221,0.0176838349412577,0.0161404999919437,2.853785710710632e-05,critical
1500,7.070707070707071,6.481012658227848,cathode,0.0169488046211806,0.0177732918860181,0.0159817206334016,-3.857838559921329e-05,critical
1500,7.171717171717171,6.481012658227848,cathode,0.0171000352280169,0.017920371012168,0.0161404490522681,9.079215154326247e-06,critical
1500,7.272727272727272,6.481012658227848,cathode,0.0171668144029405,0.0179172004822283,0.0163019661306205,-4.057633780612959e-05,critical
1500,7.373737373737374,6.481012658227848,cathode,0.0170668859463858,0.0179072991375493,0.0160792954654194,-9.030712697603727e-06,critical
1500,7.474747474747475,6.481012658227848,cathode,0.0172430998952312,0.0180636974655307,0.016284162623617,4.306054194503758e-05,critical
1500,7.575757575757575,6.481012658227848,cathode,0.017155465716803,0.0179544352895176,0.0162254180559456,-2.759731610146672e-05,critical
1500,7.6767676767676765,6.481012658227848,cathode,0.0173602650089748,0.0183419392348983,0.0161749589189717,3.1004695693266446e-05,critical
1500,7.777777777777778,6.481012658227848,cathode,0.0172911253129351,0.0181777320878136,0.016241505170455,1.016891915196727e-05,critical
1500,7.878787878787879,6.481012658227848,cathode,0.0173396751770662,0.0182052038409423,0.0163198022075924,-3.77275056494707e-05,critical
1500,7.979797979797979,6.481012658227848,cathode,0.0174875434908627,0.0184211535818624,0.0163730869273056,5.307675645638823e-05,critical
1500,8.080808080808081,6.481012658227848,cathode,0.0175179226132719,0.0183488339521091,0.016547759053974,2.3514073891546584e-05,critical
1500,8.181818181818182,6.481012658227848,cathode,0.0176657759280406,0.0185989235106533,0.0165542985208182,-4.835917514556985e-05,critical
1500,8.282828282828282,6.481012658227848,cathode,0.0178550865375844,0.0187415983030806,0.0168115310346171,-3.6487866782995e-05,critical
1500,8.383838383838384,6.481012658227848,cathode,0.017929058301179,0.0187783029106701,0.0169372548843786,-5.407105779640087e-05,critical
1500,8.484848484848484,6.481012658227848,cathode,0.0180695204450615,0.0189502406546098,0.0170364592687406,-1.5139908386626945e-06,critical
1500,8.585858585858587,6.481012658227848,cathode,0.0182208588487156,0.0191168219288903,0.0171678050101499,-4.884992778908743e-05,critical
1500,8.686868686868687,6.481012658227848,cathode,0.0182134698660848,0.0190973658667657,0.0171772071373497,-3.681369963418382e-05,critical
1500,8.787878787878787,6.481012658227848,cathode,0.0184365590186794,0.0192452870588148,0.0175039154309017,-4.639030727748336e-05,critical
1500,8.88888888888889,6.481012658227848,cathode,0.0185644323169697,0.0194312118914014,0.0175548163515039,4.446267533017238e-05,critical
1500,8.98989898989899,6.481012658227848,cathode,0.018647565114379,0.0195696074044292,0.0175628667372854,4.571522303362126e-05,critical
1500,9.09090909090909,6.481012658227848,cathode,0.0188535398763045,0.0196510325686162,0.0179392252721931,-2.145978957458896e-05,critical
1500,9.191919191919192,6.481012658227848,cathode,0.0190265027331604,0.0199318296031952,0.017968934771402,-1.918436659152573e-05,critical
1500,9.292929292929292,6.481012658227848,cathode,0.0191692338452046,0.0201339182107816,0.0180297782036732,8.571528711228643e-05,critical
1500,9.393939393939394,6.481012658227848,cathode,0.0192538089993667,0.0201399361699906,0.0182236353068779,6.855683875315398e-05,critical
1500,9.494949494949497,6.481012658227848,cathode,0.0193632584849855,0.0202419184662052,0.0183432031533198,-9.838136415621116e-05,critical
1500,9.595959595959595,6.481012658227848,cathode,0.0196977918240933,0.0206722237926631,0.0185517889143634,2.970984069790644e-06,critical
1500,9.696969696969695,6.481012658227848,cathode,0.0198753781813186,0.0208613520071686,0.0187149354885858,3.956833899548654e-05,critical
1500,9.797979797979798,6.481012658227848,cathode,0.0200855889786181,0.0210628544126635,0.0189394241469613,3.4617228621122404e-05,critical
1500,9.8989898989899,6.481012658227848,cathode,0.0202630832840997,0.0212034340036677,0.0191689071988337,-4.685490322305984e-05,critical
1500,10.0,6.481012658227848,cathode,0.0206023000736154,0.0216315250864987,0.019389310780421,4.78914477903253e-05,critical
1500,0.0,6.582278481012658,cathode,0.0205137673445993,0.0214616474390687,0.0194119787369058,-1.245168732019693e-05,critical
1500,0.101010101010101,6.582278481012658,cathode,0.0203362690413487,0.0213151131545986,0.0191906238150848,4.670565479739803e-06,critical
1500,0.202020202020202,6.582278481012658,cathode,0.0199804614800738,0.0209929707844979,0.0187841493138135,4.021156891431231e-05,critical
1500,0.303030303030303,6.582278481012658,cathode,0.0198660188244015,0.0208706784398222,0.0186795700416802,-2.8566793215137895e-05,critical
1500,0.404040404040404,6.582278481012658,cathode,0.0196658900953788,0.020654494719283,0.0184995595403681,-3.84394875084645e-05,critical
1500,0.5050505050505051,6.582278481012658,cathode,0.0194914536671618,0.0203853360091037,0.0184534448960297,4.036522965413676e-05,critical
1500,0.6060606060606061,6.582278481012658,cathode,0.0191277833434152,0.020017625176108,0.0180922329198966,2.1779983307196876e-05,critical
1500,0.7070707070707071,6.582278481012658,cathode,0.0192492794486564,0.0201230883090162,0.0182365030141964,-1.6274883734246982e-05,critical
1500,0.8080808080808081,6.582278481012658,cathode,0.0189766557934256,0.0198660306809593,0.0179402376995471,3.402906597430447e-05,critical
1500,0.9090909090909092,6.582278481012658,cathode,0.0187034787399952,0.0196192577477237,0.0176283623404391,-1.886820399674666e-05,critical
1500,1.0101010101010102,6.582278481012658,cathode,0.018640629144834,0.0195804383581454,0.0175313490383957,3.048876015064424e-05,critical
1500,1.1111111111111112,6.582278481012658,cathode,0.0185231508488949,0.01938832098141,0.0175153776961229,4.256735037113352e-05,critical
1500,1.2121212121212122,6.582278481012658,cathode,0.0184741556784084,0.0193155769802842,0.0174984156659736,1.0923349896864771e-05,critical
1500,1.3131313131313131,6.582278481012658,cathode,0.0183008985818128,0.0191870100220498,0.0172618838379192,-6.542140158921893e-05,critical
1500,1.414141414141414,6.582278481012658,cathode,0.0181749967213787,0.0190187323657313,0.0171935260992088,-4.3436814401967234e-06,critical
1500,1.5151515151515151,6.582278481012658,cathode,0.0179476272626935,0.0187573311984128,0.0170101095456556,9.70201988373895e-06,critical
1500,1.616161616161616,6.582278481012658,cathode,0.0179410508459939,0.018856945738122,0.0168576593827547,-7.984890614673839e-06,critical
1500,1.7171717171717171,6.582278481012658,cathode,0.0178785221409993,0.0186903179828595,0.016937013780257,5.5692866880794105e-05,critical
1500,1.818181818181818,6.582278481012658,cathode,0.0176966967301901,0.0186041080952115,0.0166224645944474,-3.467577156055604e-06,critical
1500,1.9191919191919191,6.582278481012658,cathode,0.0174810130771591,0.0183355623411967,0.0164776837400571,-4.657557619540862e-05,critical
1500,2.0202020202020203,6.582278481012658,cathode,0.0175477007257968,0.0184130012965372,0.016530577925147,-1.5601759878270433e-05,critical
1500,2.121212121212121,6.582278481012658,cathode,0.0174720691757397,0.0182051155506409,0.0166326688770486,1.7831791124426446e-05,critical
1500,2.2222222222222223,6.582278481012658,cathode,0.0173818529442679,0.0181885084109711,0.0164431616953937,4.4690860188368e-05,critical
1500,2.323232323232323,6.582278481012658,cathode,0.0172074794487657,0.0181433318755211,0.0160864509931128,3.987876597972233e-05,critical
1500,2.4242424242424243,6.582278481012658,cathode,0.0173393136389754,0.0181964228848825,0.0163311610574927,-3.597676461830637e-05,critical
1500,2.525252525252525,6.582278481012658,cathode,0.0171939330617242,0.0180268541497254,0.0162179752665819,8.49671787251032e-06,critical
1500,2.6262626262626263,6.582278481012658,cathode,0.017179786900752,0.0179683963077535,0.0162639634947058,2.9693620786261072e-05,critical
1500,2.727272727272727,6.582278481012658,cathode,0.0169593898805089,0.0178310635241034,0.0159269807577645,-1.107999953688743e-05,critical
1500,2.8282828282828283,6.582278481012658,cathode,0.0168815567834817,0.0176364779933699,0.0160087135805141,2.427979837282476e-06,critical
1500,2.929292929292929,6.582278481012658,cathode,0.0168492528803945,0.0175429964612273,0.0160566811199486,-4.430676189072398e-05,critical
1500,3.0303030303030303,6.582278481012658,cathode,0.0169089672982114,0.0177740039153985,0.0158845375579329,-6.1262351122771e-05,critical
1500,3.131313131313131,6.582278481012658,cathode,0.0168770264231985,0.0176595252827559,0.0159666530821828,-3.954245005034224e-05,critical
1500,3.2323232323232323,6.582278481012658,cathode,0.0168105684548713,0.0176219313910393,0.0158604826240187,7.60236470671797e-06,critical
1500,3.333333333333333,6.582278481012658,cathode,0.0167679929230962,0.0175474314592037,0.015861032678517,-2.051034727256732e-05,critical
1500,3.4343434343434343,6.582278481012658,cathode,0.0167866526652349,0.0175981978213832,0.0158356961799627,4.313410453532126e-05,critical
1500,3.5353535353535355,6.582278481012658,cathode,0.016839384491967,0.0176765640003737,0.0158539055997272,-8.355305519772583e-06,critical
1500,3.636363636363636,6.582278481012658,cathode,0.0168108355266651,0.0175708305026955,0.0159305973765285,-1.7004226918046548e-07,critical
1500,3.7373737373737375,6.582278481012658,cathode,0.016619015046606,0.0174147317504888,0.0156868302545076,8.95854188298826e-05,critical
1500,3.8383838383838382,6.582278481012658,cathode,0.016669440209583,0.0175046681715487,0.0156848766045748,-3.429230366861818e-06,critical
1500,3.939393939393939,6.582278481012658,cathode,0.0165261661548149,0.0173717068980574,0.0155250562892479,-4.940267494438964e-05,critical
1500,4.040404040404041,6.582278481012658,cathode,0.0167584271150009,0.0175031419796913,0.0158977904766427,4.633948782799228e-05,critical
1500,4.141414141414141,6.582278481012658,cathode,0.0165717656987237,0.0174037631297576,0.015590615025389,1.34334893680073e-05,critical
1500,4.242424242424242,6.582278481012658,cathode,0.016537459058995,0.0173876651606043,0.0155294949193041,6.60749879963305e-05,critical
1500,4.343434343434343,6.582278481012658,cathode,0.0164864513516115,0.0172196121783449,0.0156394253676651,2.03984398351548e-05,critical
1500,4.444444444444445,6.582278481012658,cathode,0.0163910733647049,0.0172328056803483,0.0153941758670265,2.5067449872146072e-05,critical
1500,4.545454545454545,6.582278481012658,cathode,0.0165719859081727,0.0173430329353503,0.0156747374881975,2.4987267137740413e-06,critical
1500,4.646464646464646,6.582278481012658,cathode,0.0164149481709277,0.0171551163164012,0.0155567229853883,-7.803823261377221e-05,critical
1500,4.747474747474747,6.582278481012658,cathode,0.0165343130082235,0.0173768371967205,0.0155373489374343,5.717412999864557e-05,critical
1500,4.848484848484849,6.582278481012658,cathode,0.0164620064132821,0.0173298596503626,0.0154275345262195,-8.525683254791175e-05,critical
1500,4.94949494949495,6.582278481012658,cathode,0.0165849508797839,0.0174245270864995,0.0155933638873694,-1.218739629214991e-05,critical
1500,5.05050505050505,6.582278481012658,cathode,0.0164088009297164,0.0172876558910394,0.0153593188037558,3.4860812600773415e-05,critical
1500,5.151515151515151,6.582278481012658,cathode,0.0165974564069524,0.0173680517813889,0.0157007549750663,3.721615446748248e-05,critical
1500,5.252525252525253,6.582278481012658,cathode,0.0165523774476267,0.0173610053207899,0.0156028479751396,-5.46357659508044e-05,critical
1500,5.353535353535354,6.582278481012658,cathode,0.0164945443922265,0.0173861460222582,0.0154268311711913,7.733179264808235e-05,critical
1500,5.454545454545454,6.582278481012658,cathode,0.0165627007751765,0.017330420230185,0.0156698424556136,-1.3949026913326209e-05,critical
1500,5.555555555555555,6.582278481012658,cathode,0.0164911382476725,0.0171962541167686,0.0156813225764394,-2.9525246200398e-05,critical
1500,5.656565656565657,6.582278481012658,cathode,0.0165408616356054,0.0173345632776052,0.0156119712327447,4.500767734383748e-05,critical
1500,5.757575757575758,6.582278481012658,cathode,0.0166402666008144,0.0174307417518819,0.0157169371557051,-3.402773696855e-05,critical
1500,5.858585858585858,6.582278481012658,cathode,0.016643317769948,0.0175183524841759,0.0156017932884863,-5.511511568396973e-05,critical
1500,5.959595959595959,6.582278481012658,cathode,0.016602738336027,0.0173671193771783,0.0157145932826833,3.087748602320597e-05,critical
1500,6.0606060606060606,6.582278481012658,cathode,0.0166438603694991,0.0174626361473659,0.0156818305474047,-1.5475147309991327e-05,critical
1500,6.161616161616162,6.582278481012658,cathode,0.0168339649682843,0.0176496102849055,0.0158782236193213,-5.970393931913769e-06,critical
1500,6.262626262626262,6.582278481012658,cathode,0.0166469982276272,0.0174246460769483,0.0157410782064912,4.255427325180926e-05,critical
1500,6.363636363636363,6.582278481012658,cathode,0.0166187405447689,0.0174771394856457,0.015601071745368,-1.6331042759263063e-05,critical
1500,6.4646464646464645,6.582278481012658,cathode,0.0167660971739022,0.0175856349679231,0.015804263985161,-1.54325064837876e-05,critical
1500,6.565656565656566,6.582278481012658,cathode,0.0169088823491031,0.0178469363335139,0.0157792517616346,-8.884673440603861e-05,critical
1500,6.666666666666667,6.582278481012658,cathode,0.0167224094514023,0.0175654475821432,0.0157254909412766,9.70405200923116e-05,critical
1500,6.767676767676767,6.582278481012658,cathode,0.0168520634844144,0.0176370688949056,0.0159374286673414,6.767413595940048e-05,critical
1500,6.8686868686868685,6.582278481012658,cathode,0.0168329760466041,0.0176805265804707,0.0158316267603919,7.990471754832119e-05,critical
1500,6.96969696969697,6.582278481012658,cathode,0.0169857199775748,0.017739052948279,0.0161153586830404,4.864541997312021e-05,critical
1500,7.070707070707071,6.582278481012658,cathode,0.0169023716609728,0.017711210257488,0.0159559190487505,5.9114054472923165e-05,critical
1500,7.171717171717171,6.582278481012658,cathode,0.0170150749573535,0.0178449928331787,0.0160414343198632,-1.4966869410981136e-05,critical
1500,7.272727272727272,6.582278481012658,cathode,0.0169662157079823,0.0178456110539794,0.0159208227651015,-0.0001014146068421,critical
1500,7.373737373737374,6.582278481012658,cathode,0.0171540385155396,0.0179662210466552,0.0162060773741685,-1.791871752865966e-05,critical
1500,7.474747474747475,6.582278481012658,cathode,0.0172172494562632,0.0180267839162773,0.0162735554506084,6.133759890424111e-07,critical
1500,7.575757575757575,6.582278481012658,cathode,0.0172566428806802,0.0180579036645225,0.0163229386734251,-8.863013855090561e-05,critical
1500,7.6767676767676765,6.582278481012658,cathode,0.0173731849992505,0.0182615426432361,0.0163213541736204,5.808179182136969e-05,critical
1500,7.777777777777778,6.582278481012658,cathode,0.0174203063704814,0.018295328206148,0.0163883577043899,-7.178330594677972e-06,critical
1500,7.878787878787879,6.582278481012658,cathode,0.0174260414024687,0.0182666899860416,0.0164412062704062,-5.199431516428581e-05,critical
1500,7.979797979797979,6.582278481012658,cathode,0.0174719270537909,0.0182711924040223,0.0165440838205768,-4.160240357016472e-05,critical
1500,8.080808080808081,6.582278481012658,cathode,0.0176469039754356,0.0185139930268387,0.0166275743293905,-6.284697973308322e-05,critical
1500,8.181818181818182,6.582278481012658,cathode,0.0176323693270512,0.0185318064796602,0.0165680997407995,-4.99526345217137e-05,critical
1500,8.282828282828282,6.582278481012658,cathode,0.0179189764410978,0.0187658912462173,0.0169304894340375,-4.200563489313009e-05,critical
1500,8.383838383838384,6.582278481012658,cathode,0.0180430663916815,0.0190029467038662,0.0168986465004537,5.374413095823707e-06,critical
1500,8.484848484848484,6.582278481012658,cathode,0.0179414223181507,0.0188438280632631,0.0168754699469799,8.514097455802638e-05,critical
1500,8.585858585858587,6.582278481012658,cathode,0.0180803024253257,0.0189300269908826,0.0170896299409713,3.224098392633206e-05,critical
1500,8.686868686868687,6.582278481012658,cathode,0.0183187103268561,0.0191891257250231,0.0172988461663337,0.0001319813694591,critical
1500,8.787878787878787,6.582278481012658,cathode,0.0182258216450554,0.0190865414839667,0.0172214446757688,3.728411423536859e-05,critical
1500,8.88888888888889,6.582278481012658,cathode,0.0185999785153173,0.0195051867739094,0.0175363744148766,-0.000104435571541,critical
1500,8.98989898989899,6.582278481012658,cathode,0.0186692923035321,0.0195313924186181,0.0176673101574011,1.2971410897634389e-05,critical
1500,9.09090909090909,6.582278481012658,cathode,0.0187317133114689,0.0196022673988189,0.0177186087357046,-3.654792108359194e-05,critical
1500,9.191919191919192,6.582278481012658,cathode,0.0189421145701956,0.0198698887547901,0.0178517804670373,7.757012817812342e-05,critical
1500,9.292929292929292,6.582278481012658,cathode,0.0190993497505774,0.0199826819238917,0.0180723188444577,-2.753605918488536e-05,critical
1500,9.393939393939394,6.582278481012658,cathode,0.019210578188284,0.0201486812158132,0.0181093893082329,4.9297258913224064e-05,critical
1500,9.494949494949497,6.582278481012658,cathode,0.0194072238993637,0.0203090288878262,0.0183579868393117,1.7217849735001477e-05,critical
1500,9.595959595959595,6.582278481012658,cathode,0.0197156777192093,0.0206599009944064,0.0186112411846928,3.890438286665438e-05,critical
1500,9.696969696969695,6.582278481012658,cathode,0.0198176370006251,0.0207209924274157,0.018769811575336,-2.890244779371473e-05,critical
1500,9.797979797979798,6.582278481012658,cathode,0.0200235131135743,0.0210111609273266,0.0188620030849353,-5.661492342756096e-05,critical
1500,9.8989898989899,6.582278481012658,cathode,0.020249043449599,0.0212400522230939,0.0190855928542098,-3.2023530161326754e-05,critical
1500,10.0,6.582278481012658,cathode,0.0203962272415212,0.0213872689997721,0.0192343747406488,1.1333962648579544e-05,critical
1500,0.0,6.6835443037974684,cathode,0.0204116797561673,0.0213642021175037,0.019300538087544,0.0001116013155714,critical
1500,0.101010101010101,6.6835443037974684,cathode,0.0201510774673027,0.0210676557046634,0.019088300524642,-2.788502736597217e-05,critical
1500,0.202020202020202,6.6835443037974684,cathode,0.020172728905832,0.0210777553803143,0.0191219832427229,-0.0001477178362375,critical
1500,0.303030303030303,6.6835443037974684,cathode,0.0198037014900313,0.0209120398350497,0.0184685063352967,-2.306920214474513e-05,critical
1500,0.404040404040404,6.6835443037974684,cathode,0.0197234567668661,0.0206707935499556,0.0186126615928415,0.0001159805741305,critical
1500,0.5050505050505051,6.6835443037974684,cathode,0.0194193083786719,0.0202189149968826,0.0185056527617199,5.787995761889736e-05,critical
1500,0.6060606060606061,6.6835443037974684,cathode,0.0192422910832979,0.0201156887037503,0.0182300158461697,-1.5057473952466009e-05,critical
1500,0.7070707070707071,6.6835443037974684,cathode,0.0190895866974663,0.0199684239527072,0.0180686604550983,-1.3499485374227791e-05,critical
1500,0.8080808080808081,6.6835443037974684,cathode,0.0189718861495367,0.0199101195777625,0.0178685171010528,-1.935529235778686e-06,critical
1500,0.9090909090909092,6.6835443037974684,cathode,0.018871604348514,0.0197565763347979,0.0178403350218768,-2.257741813200121e-05,critical
1500,1.0101010101010102,6.6835443037974684,cathode,0.0186958735218757,0.0195740235161543,0.0176720241026843,4.2698997421831946e-05,critical
1500,1.1111111111111112,6.6835443037974684,cathode,0.0184473754564811,0.0193029347816694,0.0174523115879423,-2.74807785735336e-06,critical
1500,1.2121212121212122,6.6835443037974684,cathode,0.0183792990268424,0.0192856916200075,0.0173139084260268,1.3054532655150655e-06,critical
1500,1.3131313131313131,6.6835443037974684,cathode,0.0182258177622447,0.0191799558109546,0.0170916232893051,3.011619288131976e-05,critical
1500,1.414141414141414,6.6835443037974684,cathode,0.0181404741003553,0.0191191200358703,0.0169704264027193,9.946574333217582e-06,critical
1500,1.5151515151515151,6.6835443037974684,cathode,0.017908665047486,0.0185953431140439,0.0171304045481385,9.744832161163036e-05,critical
1500,1.616161616161616,6.6835443037974684,cathode,0.0178905731370951,0.0186870206747323,0.0169695461336353,-6.488177548050279e-05,critical
1500,1.7171717171717171,6.6835443037974684,cathode,0.0179038206963691,0.0188066974179726,0.0168376557989255,5.468940126032879e-05,critical
1500,1.818181818181818,6.6835443037974684,cathode,0.0175782436642954,0.018499761467066,0.0164826939090996,7.813128645311266e-06,critical
1500,1.9191919191919191,6.6835443037974684,cathode,0.0176811022481449,0.0185018806044609,0.0167257678813398,-5.366546265661592e-05,critical
1500,2.0202020202020203,6.6835443037974684,cathode,0.0174852824338333,0.0183335230609597,0.0164904047372747,6.000305667305083e-05,critical
1500,2.121212121212121,6.6835443037974684,cathode,0.0173565465634629,0.0183102650105854,0.0162120558304494,-7.920945124924279e-06,critical
1500,2.2222222222222223,6.6835443037974684,cathode,0.0173044457431041,0.0181561766943361,0.0163030401980795,-5.431117466118096e-05,critical
1500,2.323232323232323,6.6835443037974684,cathode,0.0173611466315903,0.0181068784628365,0.0165034823848502,-6.320238558314042e-05,critical
1500,2.4242424242424243,6.6835443037974684,cathode,0.0171897527079864,0.0179769907792346,0.0162760482640301,2.7782998991549824e-06,critical
1500,2.525252525252525,6.6835443037974684,cathode,0.0171787280173894,0.0181587768826736,0.0159933314364253,-8.269422876233154e-06,critical
1500,2.6262626262626263,6.6835443037974684,cathode,0.0171296340602764,0.0180179376373737,0.0160757562355999,1.0345931984396528e-05,critical
1500,2.727272727272727,6.6835443037974684,cathode,0.0170493732664478,0.0178485357553184,0.0161160590752584,-0.0001026266569332,critical
1500,2.8282828282828283,6.6835443037974684,cathode,0.0170145895380693,0.0178267775385437,0.0160653401528036,1.0808947350823902e-05,critical
1500,2.929292929292929,6.6835443037974684,cathode,0.0170821707612217,0.017870373793765,0.0161648674378609,8.079303657129349e-05,critical
1500,3.0303030303030303,6.6835443037974684,cathode,0.0167550162958918,0.0175271916306159,0.0158578670771739,4.143123408935752e-06,critical
1500,3.131313131313131,6.6835443037974684,cathode,0.0169347955852635,0.0177753212778379,0.0159454402071834,3.422563699686323e-05,critical
1500,3.2323232323232323,6.6835443037974684,cathode,0.016765306007568,0.0176724039155748,0.015680126779169,-1.6160138762689796e-05,critical
1500,3.333333333333333,6.6835443037974684,cathode,0.0167496030285505,0.0176173708871604,0.015718469823313,9.176729229530232e-05,critical
1500,3.4343434343434343,6.6835443037974684,cathode,0.0167204592979661,0.0175270630048647,0.0157760421665204,2.149561119834352e-07,critical
1500,3.5353535353535355,6.6835443037974684,cathode,0.0165561443524704,0.0173354687011922,0.0156474933567961,-2.8117431225618523e-06,critical
1500,3.636363636363636,6.6835443037974684,cathode,0.0166707396895242,0.017390707858753,0.0158425296684156,-3.605957939819441e-05,critical
1500,3.7373737373737375,6.6835443037974684,cathode,0.0166327001429013,0.0174171736463541,0.0157169983295258,5.8959960738144086e-05,critical
1500,3.8383838383838382,6.6835443037974684,cathode,0.0165262252513902,0.0173520182788222,0.015552822064471,4.531847298664413e-05,critical
1500,3.939393939393939,6.6835443037974684,cathode,0.0165566187399759,0.0173643074116608,0.0156069838089436,9.827381636026414e-05,critical
1500,4.040404040404041,6.6835443037974684,cathode,0.0166502227508699,0.0174121505881117,0.0157648568656275,-7.36643312983038e-05,critical
1500,4.141414141414141,6.6835443037974684,cathode,0.0166832148126524,0.0175365332272354,0.0156729711509249,4.903575275605027e-05,critical
1500,4.242424242424242,6.6835443037974684,cathode,0.0163933755047152,0.0172407163607772,0.0153886992989494,1.4064930579675986e-05,critical
1500,4.343434343434343,6.6835443037974684,cathode,0.0164610539324172,0.0173404957943385,0.0154115973093259,-1.7405689314994563e-05,critical
1500,4.444444444444445,6.6835443037974684,cathode,0.0164748956520317,0.0172097139704486,0.0156256168021781,-1.193216227052539e-05,critical
1500,4.545454545454545,6.6835443037974684,cathode,0.0164236483994158,0.0171833125839259,0.01553974227275,5.959427697250472e-05,critical
1500,4.646464646464646,6.6835443037974684,cathode,0.0165277994515164,0.0173537766766407,0.0155542462091756,4.053689139726266e-05,critical
1500,4.747474747474747,6.6835443037974684,cathode,0.0165007393666442,0.017236662379557,0.0156498872965215,3.966893629412613e-05,critical
1500,4.848484848484849,6.6835443037974684,cathode,0.0165115541711466,0.0172320186898785,0.0156813447978846,-4.322417464721741e-05,critical
1500,4.94949494949495,6.6835443037974684,cathode,0.0165729130925008,0.017366103036876,0.0156454705952943,-2.4463760504493634e-06,critical
1500,5.05050505050505,6.6835443037974684,cathode,0.0165314966295889,0.0174113605179797,0.0154820305051154,4.021542260064341e-05,critical
1500,5.151515151515151,6.6835443037974684,cathode,0.0164255202722524,0.0173083907892035,0.0153706674116084,-2.1802714683000693e-05,critical
1500,5.252525252525253,6.6835443037974684,cathode,0.0164930756039409,0.0172733819657948,0.0155824668720869,-1.2203445972958778e-05,critical
1500,5.353535353535354,6.6835443037974684,cathode,0.0164527752496888,0.0172672405024257,0.0154947669831189,-9.712767659584776e-06,critical
1500,5.454545454545454,6.6835443037974684,cathode,0.0164204656833099,0.0171872902515382,0.0155269349678395,-5.469789648071944e-05,critical
1500,5.555555555555555,6.6835443037974684,cathode,0.0164958544684543,0.0172411276569026,0.0156327506309793,-5.438433243246741e-06,critical
1500,5.656565656565657,6.6835443037974684,cathode,0.0164526960089665,0.0172160751906685,0.0155636988195103,-7.082647784551538e-05,critical
1500,5.757575757575758,6.6835443037974684,cathode,0.0165287020274549,0.017346637385509,0.0155647387852683,-9.477760395351235e-05,critical
1500,5.858585858585858,6.6835443037974684,cathode,0.0166910048970704,0.0174206779020899,0.0158501036665371,-3.361723352129078e-05,critical
1500,5.959595959595959,6.6835443037974684,cathode,0.0165585395551891,0.0173865375836938,0.0155822316283922,5.371646414529618e-05,critical
1500,6.0606060606060606,6.6835443037974684,cathode,0.0165834516349034,0.0174727827512444,0.0155213504442668,2.3063389877538575e-05,critical
1500,6.161616161616162,6.6835443037974684,cathode,0.0166077226013124,0.0175511108825193,0.0154671832478182,4.982433397631124e-05,critical
1500,6.262626262626262,6.6835443037974684,cathode,0.0166837076762502,0.0175152585437011,0.0157038492178331,5.137735909869415e-05,critical
1500,6.363636363636363,6.6835443037974684,cathode,0.0167434631612491,0.0175837339433986,0.0157526113419714,-1.6551935041898595e-05,critical
1500,6.4646464646464645,6.6835443037974684,cathode,0.0167036752577214,0.0175386476225416,0.0157198308681826,-5.728480556878989e-06,critical
1500,6.565656565656566,6.6835443037974684,cathode,0.0168680998000143,0.0176973585374926,0.0158920889348426,9.273031752206832e-05,critical
1500,6.666666666666667,6.6835443037974684,cathode,0.016745289612633,0.0174257999671745,0.0159682126332678,8.423022884802538e-05,critical
1500,6.767676767676767,6.6835443037974684,cathode,0.0168651123809702,0.0177050123661601,0.0158761270339618,-7.496697128593162e-06,critical
1500,6.8686868686868685,6.6835443037974684,cathode,0.016796956472936,0.0176397839565715,0.0158028962861654,-3.6120464894593206e-05,critical
1500,6.96969696969697,6.6835443037974684,cathode,0.0168491377852306,0.0176906849552213,0.0158567119448303,-6.804817204714129e-05,critical
1500,7.070707070707071,6.6835443037974684,cathode,0.0169471818451542,0.0177748887525978,0.0159758868109274,1.7829921119864057e-05,critical
1500,7.171717171717171,6.6835443037974684,cathode,0.0169186402278328,0.0176854573021017,0.0160296651547954,4.7542477989680605e-05,critical
1500,7.272727272727272,6.6835443037974684,cathode,0.016934232947978,0.0177892203818878,0.0159246060086213,-4.1364208726257767e-05,critical
1500,7.373737373737374,6.6835443037974684,cathode,0.0171304577910783,0.0179449160487409,0.0161786608052684,5.2334231069848325e-05,critical
1500,7.474747474747475,6.6835443037974684,cathode,0.0173614420110117,0.0182161189896235,0.0163557903293036,8.128790272013082e-05,critical
1500,7.575757575757575,6.6835443037974684,cathode,0.0172667707097398,0.0180548233712081,0.0163526211930289,-7.983126348296427e-06,critical
1500,7.6767676767676765,6.6835443037974684,cathode,0.0173261347443845,0.0181173018341019,0.0164073647678187,-6.802109755506298e-05,critical
1500,7.777777777777778,6.6835443037974684,cathode,0.0174674759309265,0.0181935524666535,0.0166370555499769,-3.1036036799106194e-05,critical
1500,7.878787878787879,6.6835443037974684,cathode,0.0174615957266824,0.0183382809101543,0.0164276937423641,-2.097175014951873e-05,critical
1500,7.979797979797979,6.6835443037974684,cathode,0.0176666901123475,0.0185376631431946,0.0166428886445312,-2.240314646217455e-05,critical
1500,8.080808080808081,6.6835443037974684,cathode,0.0175475228026067,0.018350511629379,0.01661564359197,-8.726143032750456e-06,critical
1500,8.181818181818182,6.6835443037974684,cathode,0.0176045288130453,0.0184345946223715,0.0166363407789153,-2.2506183640635285e-05,critical
1500,8.282828282828282,6.6835443037974684,cathode,0.0178162842602651,0.0187064792956003,0.0167668994686507,-5.27799701090192e-05,critical
1500,8.383838383838384,6.6835443037974684,cathode,0.0179996222575242,0.0188628931101526,0.0169898148078647,-1.7496714142504193e-05,critical
1500,8.484848484848484,6.6835443037974684,cathode,0.0179091983723385,0.0188081894122225,0.016848775098288,4.134599368268803e-05,critical
1500,8.585858585858587,6.6835443037974684,cathode,0.0180470392339866,0.0189585449243651,0.0169701689844228,6.396657789841025e-05,critical
1500,8.686868686868687,6.6835443037974684,cathode,0.0182547060394233,0.0191697357595768,0.0171754056346078,5.462709773128015e-05,critical
1500,8.787878787878787,6.6835443037974684,cathode,0.0183343414785066,0.0192625518696552,0.0172377610163834,-4.0962406292721206e-05,critical
1500,8.88888888888889,6.6835443037974684,cathode,0.0185769501016915,0.01955286857205,0.0174155706478739,-5.963410355444728e-05,critical
1500,8.98989898989899,6.6835443037974684,cathode,0.0186117236321476,0.0195073245770238,0.0175634104065511,-2.7729510195292824e-05,critical
1500,9.09090909090909,6.6835443037974684,cathode,0.018739645451302,0.0196659729598388,0.0176500349467765,-4.161555990491598e-05,critical
1500,9.191919191919192,6.6835443037974684,cathode,0.0188770060405678,0.019747679105104,0.017865247614037,-1.4511166321140842e-05,critical
1500,9.292929292929292,6.6835443037974684,cathode,0.0191404997597185,0.0200762833173919,0.0180413290126089,-7.037838164995652e-05,critical
1500,9.393939393939394,6.6835443037974684,cathode,0.0192977877423162,0.0201921071513913,0.018257678989561,2.30140629874702e-05,critical
1500,9.494949494949497,6.6835443037974684,cathode,0.0194293572957358,0.0203331536074805,0.0183776571512642,8.807815082843834e-06,critical
1500,9.595959595959595,6.6835443037974684,cathode,0.0196968592723601,0.0205859093554142,0.0186674067919317,-4.795474335057122e-06,critical
1500,9.696969696969695,6.6835443037974684,cathode,0.019712031826391,0.0206374213755125,0.018633074083509,-5.224708978473349e-05,critical
1500,9.797979797979798,6.6835443037974684,cathode,0.0200227895643045,0.0209580855876377,0.0189335484449285,2.8416589740778283e-05,critical
1500,9.8989898989899,6.6835443037974684,cathode,0.0202029930531781,0.021133974453856,0.019121243858245,-2.5590559169966637e-05,critical
1500,10.0,6.6835443037974684,cathode,0.0204926859722701,0.0214816049351136,0.0193333053181172,9.048053191410587e-05,critical
1500,0.0,6.784810126582278,cathode,0.0204578849525273,0.0214664810240849,0.0192723464144451,-2.1381069090499605e-05,critical
1500,0.101010101010101,6.784810126582278,cathode,0.0202790405131381,0.021291822139896,0.0190858859394873,-3.688148563796173e-06,critical
1500,0.202020202020202,6.784810126582278,cathode,0.0200915164526265,0.0210818326078858,0.018927561310576,1.250758024746108e-05,critical
1500,0.303030303030303,6.784810126582278,cathode,0.019859566763458,0.0207346039035182,0.0188498933591127,4.15763205623245e-05,critical
1500,0.404040404040404,6.784810126582278,cathode,0.0196604445031033,0.0206247410470287,0.0185276745376069,-4.7960306136742165e-05,critical
1500,0.5050505050505051,6.784810126582278,cathode,0.0194421282388245,0.0203631107027406,0.0183671610409111,-7.812818186352066e-07,critical
1500,0.6060606060606061,6.784810126582278,cathode,0.0192381577730058,0.0201184488021413,0.0182157079788671,-6.953054704052318e-05,critical
1500,0.7070707070707071,6.784810126582278,cathode,0.019133410371051,0.0201235374684599,0.0179592001249296,-1.154228242124226e-05,critical
1500,0.8080808080808081,6.784810126582278,cathode,0.0189248514344713,0.0198378217114642,0.0178558788097594,7.389670128933572e-06,critical
1500,0.9090909090909092,6.784810126582278,cathode,0.0187489493493238,0.019744915072486,0.0175615656274355,-3.857914248776094e-05,critical
1500,1.0101010101010102,6.784810126582278,cathode,0.0187081191470944,0.0197047489485713,0.0175194027263762,2.916309800786481e-05,critical
1500,1.1111111111111112,6.784810126582278,cathode,0.0185338018977605,0.019440704377075,0.0174690632867541,-3.439522345073022e-05,critical
1500,1.2121212121212122,6.784810126582278,cathode,0.018444264733888,0.0194112454707405,0.0172942994557623,-4.300838336174685e-05,critical
1500,1.3131313131313131,6.784810126582278,cathode,0.0183141827526229,0.0191830552485184,0.0172997620314318,8.280897071959815e-06,critical
1500,1.414141414141414,6.784810126582278,cathode,0.0180110595930985,0.0189073391670804,0.0169553918772074,-4.769524987394429e-05,critical
1500,1.5151515151515151,6.784810126582278,cathode,0.0180008593021362,0.0189203360107276,0.0169130488432454,-1.972107598057238e-05,critical
1500,1.616161616161616,6.784810126582278,cathode,0.0178658845675032,0.0188316148041324,0.016710365427399,4.819230916163735e-05,critical
1500,1.7171717171717171,6.784810126582278,cathode,0.0178261382136755,0.0186452005374676,0.0168744826752752,5.049230649412189e-05,critical
1500,1.818181818181818,6.784810126582278,cathode,0.0176886798304391,0.0185393311675654,0.0166928304844721,4.441056728295062e-05,critical
1500,1.9191919191919191,6.784810126582278,cathode,0.0177653103190431,0.0186219197662944,0.0167623625013655,1.7587082204059446e-05,critical
1500,2.0202020202020203,6.784810126582278,cathode,0.0174487853963988,0.0182310375638083,0.0165439224946123,-1.7147408571969592e-05,critical
1500,2.121212121212121,6.784810126582278,cathode,0.0175240685621319,0.0183920124077234,0.0165030707078174,8.103516531516502e-06,critical
1500,2.2222222222222223,6.784810126582278,cathode,0.0175842383286638,0.0184453273661397,0.0165731682141505,3.132892575372139e-05,critical
1500,2.323232323232323,6.784810126582278,cathode,0.0174287832734433,0.0181915842552133,0.0165488378332478,6.902370700286406e-05,critical
1500,2.4242424242424243,6.784810126582278,cathode,0.0172311484397859,0.0179925157352875,0.0163523103637409,-3.162997087659579e-05,critical
1500,2.525252525252525,6.784810126582278,cathode,0.0171341194690466,0.0179159660715724,0.0162263986164269,-6.272883005550916e-05,critical
1500,2.6262626262626263,6.784810126582278,cathode,0.0171291295963426,0.0179746968812753,0.016134793322583,-3.566701350301502e-05,critical
1500,2.727272727272727,6.784810126582278,cathode,0.0171673457320821,0.018050214017552,0.0161208977880631,5.728042669637223e-05,critical
1500,2.8282828282828283,6.784810126582278,cathode,0.0170688262315559,0.0179037645733505,0.0160877012146384,-7.377381401771409e-05,critical
1500,2.929292929292929,6.784810126582278,cathode,0.0169748657851335,0.0178161222324464,0.0159848837143241,-3.64773317746634e-05,critical
1500,3.0303030303030303,6.784810126582278,cathode,0.016969482733149,0.0177883370061956,0.0160106727833161,-1.912745612163316e-06,critical
1500,3.131313131313131,6.784810126582278,cathode,0.0168102818027291,0.0176316380810959,0.015845847997859,5.2507394623645234e-05,critical
1500,3.2323232323232323,6.784810126582278,cathode,0.0169022379460514,0.0177552114057011,0.0158941620510981,-7.732087030249554e-05,critical
1500,3.333333333333333,6.784810126582278,cathode,0.0167419102136758,0.0175864439547964,0.0157450803787358,1.7927066484126638e-05,critical
1500,3.4343434343434343,6.784810126582278,cathode,0.0167187109789037,0.0174833906310909,0.0158312041012668,-2.8583234055770297e-05,critical
1500,3.5353535353535355,6.784810126582278,cathode,0.0167203246129388,0.01750357543388,0.0158060398842043,-9.204490851439075e-05,critical
1500,3.636363636363636,6.784810126582278,cathode,0.016816662426868,0.017532652381337,0.0159938486517,-7.665857403257204e-05,critical
1500,3.7373737373737375,6.784810126582278,cathode,0.0166524837071384,0.0174300388306766,0.015747019345161,-2.2363469557480462e-05,critical
1500,3.8383838383838382,6.784810126582278,cathode,0.01662383140896,0.0174101416483604,0.0157062830714122,2.8059907733529017e-06,critical
1500,3.939393939393939,6.784810126582278,cathode,0.0165788637364748,0.0173474152062793,0.0156848799323082,-2.9295102052045044e-05,critical
1500,4.040404040404041,6.784810126582278,cathode,0.0165967183012294,0.0174533203861191,0.0155813799159497,-5.212663927955539e-06,critical
1500,4.141414141414141,6.784810126582278,cathode,0.0164952173192346,0.0173322564885904,0.0155058261502225,-4.238995445555271e-05,critical
1500,4.242424242424242,6.784810126582278,cathode,0.0167167815824942,0.0175216976055867,0.0157744884365651,-2.7266146194354863e-05,critical
1500,4.343434343434343,6.784810126582278,cathode,0.0166057048994544,0.0175663973025724,0.0154386535573558,8.290467853764882e-05,critical
1500,4.444444444444445,6.784810126582278,cathode,0.0165081897303359,0.0173677556053315,0.0154872362848328,-4.258505606605435e-05,critical
1500,4.545454545454545,6.784810126582278,cathode,0.0164812884062052,0.0172696980758298,0.0155590638052247,4.5693405588128205e-05,critical
1500,4.646464646464646,6.784810126582278,cathode,0.0165181237765805,0.0173014885737624,0.015602337153103,7.668022279421713e-05,critical
1500,4.747474747474747,6.784810126582278,cathode,0.0165796521789192,0.017361358543887,0.015666170483555,-9.16534039926967e-05,critical
1500,4.848484848484849,6.784810126582278,cathode,0.0164334079601771,0.0172714237425831,0.0154422920196225,1.6383915491809547e-05,critical
1500,4.94949494949495,6.784810126582278,cathode,0.0166331688170493,0.0174895800418239,0.0156185260757853,7.040952729911025e-08,critical
1500,5.05050505050505,6.784810126582278,cathode,0.0165596211760478,0.0172729217196879,0.0157396676377355,-6.792492805760649e-06,critical
1500,5.151515151515151,6.784810126582278,cathode,0.0164976050882738,0.017261377500163,0.0156095402233887,-8.960279110008591e-06,critical
1500,5.252525252525253,6.784810126582278,cathode,0.0165707725301253,0.0173650288494786,0.015641418241339,4.468299099503285e-05,critical
1500,5.353535353535354,6.784810126582278,cathode,0.0164503052143209,0.0172612991856217,0.015495431411939,-8.751197713095694e-05,critical
1500,5.454545454545454,6.784810126582278,cathode,0.0164763249639749,0.017266056971206,0.0155521118619178,5.172700909608708e-05,critical
1500,5.555555555555555,6.784810126582278,cathode,0.0165297143715056,0.01726850268745,0.0156749538577826,5.5004582386273854e-05,critical
1500,5.656565656565657,6.784810126582278,cathode,0.0166836670623539,0.017426631487377,0.0158242324273068,6.830524255149013e-05,critical
1500,5.757575757575758,6.784810126582278,cathode,0.0167641549493382,0.0175890609378853,0.015794612565813,3.84850404499916e-05,critical
1500,5.858585858585858,6.784810126582278,cathode,0.0165382844878738,0.0172909519942636,0.0156640054739506,8.627887715116074e-05,critical
1500,5.959595959595959,6.784810126582278,cathode,0.0166607214795824,0.0174486222064721,0.0157413454744182,-4.327267095171446e-06,critical
1500,6.0606060606060606,6.784810126582278,cathode,0.0166416081410553,0.0173973626240751,0.0157653192386161,-3.9073562708982665e-05,critical
1500,6.161616161616162,6.784810126582278,cathode,0.0165500053113246,0.0174541470799064,0.0154662243709343,1.901023324567612e-05,critical
1500,6.262626262626262,6.784810126582278,cathode,0.0166622699337664,0.0175933597928923,0.0155402743551587,5.899582046749508e-05,critical
1500,6.363636363636363,6.784810126582278,cathode,0.0166142482844086,0.0174207992319364,0.0156683177431817,-4.978949484785363e-05,critical
1500,6.4646464646464645,6.784810126582278,cathode,0.016676675115129,0.0174105185880759,0.0158281017234987,0.0001032642102151,critical
1500,6.565656565656566,6.784810126582278,cathode,0.0166684303088582,0.0173704896077867,0.0158640948001923,-9.12471423707997e-06,critical
1500,6.666666666666667,6.784810126582278,cathode,0.0167349956821937,0.0176164970760357,0.0156853258679424,-5.819782011459322e-05,critical
1500,6.767676767676767,6.784810126582278,cathode,0.0167671992304254,0.0174637875573948,0.0159703298071311,4.511839125220934e-05,critical
1500,6.8686868686868685,6.784810126582278,cathode,0.0168435190476333,0.0176686650391137,0.0158747603249354,-8.50542847253068e-06,critical
1500,6.96969696969697,6.784810126582278,cathode,0.0168869777749701,0.0177114600998041,0.0159195922649985,-1.2686279295992032e-06,critical
1500,7.070707070707071,6.784810126582278,cathode,0.0168234064773638,0.0175972813440119,0.0159212705807098,0.0001250542029313,critical
1500,7.171717171717171,6.784810126582278,cathode,0.0170896649531737,0.0180080800274751,0.0159923570794467,-2.4920499552694443e-05,critical
1500,7.272727272727272,6.784810126582278,cathode,0.0170535430948308,0.0178902672406024,0.0160699882978491,-6.716014677967377e-05,critical
1500,7.373737373737374,6.784810126582278,cathode,0.0170371696880551,0.0178718907130332,0.0160571660750205,-1.6546885240389403e-06,critical
1500,7.474747474747475,6.784810126582278,cathode,0.0171270690009513,0.0179520199791649,0.0161613644753188,-1.739232019227599e-05,critical
1500,7.575757575757575,6.784810126582278,cathode,0.0172853032100867,0.0181735712495337,0.0162311550073319,0.0001011174542996,critical
1500,7.6767676767676765,6.784810126582278,cathode,0.0173937528813891,0.0181924794254702,0.0164632994669026,0.0001215718480853,critical
1500,7.777777777777778,6.784810126582278,cathode,0.017231222288888,0.0180790623228014,0.0162344948081422,5.211793464307676e-05,critical
1500,7.878787878787879,6.784810126582278,cathode,0.0175011903152138,0.018341679984355,0.016517435332313,4.575613352790052e-05,critical
1500,7.979797979797979,6.784810126582278,cathode,0.0174847922720409,0.0184017893626057,0.0163937533688692,-6.152475881409254e-05,critical
1500,8.080808080808081,6.784810126582278,cathode,0.017571443515913,0.018494950586489,0.0164728289653688,2.8830817657976628e-05,critical
1500,8.181818181818182,6.784810126582278,cathode,0.0177259367156371,0.018600508134089,0.0166961180353833,9.282864835076268e-05,critical
1500,8.282828282828282,6.784810126582278,cathode,0.0177099863491424,0.0185838365734286,0.0166824885750649,-3.582810271671013e-05,critical
1500,8.383838383838384,6.784810126582278,cathode,0.017850032802828,0.0186640020545909,0.0169055522730098,4.5691247325723446e-05,critical
1500,8.484848484848484,6.784810126582278,cathode,0.0179172730947927,0.0188285552350405,0.0168399581984942,2.6292479910633028e-05,critical
1500,8.585858585858587,6.784810126582278,cathode,0.0180112068051647,0.0189854706780679,0.0168457370980974,1.6961316647301836e-05,critical
1500,8.686868686868687,6.784810126582278,cathode,0.0182554686839578,0.0191760553244116,0.0171689632987156,-1.5581959544009335e-05,critical
1500,8.787878787878787,6.784810126582278,cathode,0.0183601708967473,0.019272075981541,0.0172846852720709,-0.0001070601782541,critical
1500,8.88888888888889,6.784810126582278,cathode,0.0183872447096834,0.0192511155571451,0.0173800745758582,3.7191434859864274e-05,critical
1500,8.98989898989899,6.784810126582278,cathode,0.0187285888937958,0.0196154590983832,0.0176931051669176,4.5521386646923015e-05,critical
1500,9.09090909090909,6.784810126582278,cathode,0.0187465741916561,0.0195646106493164,0.0178043223388223,-1.62742457141328e-05,critical
1500,9.191919191919192,6.784810126582278,cathode,0.0190148525031757,0.019943568155422,0.0179250621330671,1.3550082966659488e-05,critical
1500,9.292929292929292,6.784810126582278,cathode,0.0190484903367815,0.0200839082316516,0.0178082238000616,-5.003968134374014e-05,critical
1500,9.393939393939394,6.784810126582278,cathode,0.0192408537927367,0.020109780242015,0.0182342668342831,4.398946538259576e-05,critical
1500,9.494949494949497,6.784810126582278,cathode,0.0194367603364174,0.0203137562575633,0.0184212894552913,-1.4581184427365737e-05,critical
1500,9.595959595959595,6.784810126582278,cathode,0.0195902274683566,0.0204614456562564,0.0185831333799004,-6.105046722787945e-05,critical
1500,9.696969696969695,6.784810126582278,cathode,0.019774800300688,0.0206723543995655,0.0187331928602854,8.789693479248676e-05,critical
1500,9.797979797979798,6.784810126582278,cathode,0.0201000709204658,0.0210749310048262,0.01895753854978,-1.5091290246804167e-05,critical
1500,9.8989898989899,6.784810126582278,cathode,0.0203385474842084,0.0213743452514082,0.0191138879356698,-1.489674707482065e-06,critical
1500,10.0,6.784810126582278,cathode,0.0204818442050673,0.0214080303109611,0.0194089195403817,3.033339251735391e-05,critical
1500,0.0,6.886075949367089,cathode,0.0204789374159979,0.0215013623635343,0.0192744902617166,6.293936767282243e-06,critical
1500,0.101010101010101,6.886075949367089,cathode,0.020237695329007,0.021289318996185,0.0189895223438853,2.040280720829402e-05,critical
1500,0.202020202020202,6.886075949367089,cathode,0.0200854330208652,0.0210035599651571,0.0190194226886865,-6.385911390139576e-05,critical
1500,0.303030303030303,6.886075949367089,cathode,0.0197598226649073,0.0207384528932811,0.0186084727775539,-3.076980112877125e-05,critical
1500,0.404040404040404,6.886075949367089,cathode,0.0196500523823393,0.0205979166734669,0.0185400064894129,3.676732508282288e-05,critical
1500,0.5050505050505051,6.886075949367089,cathode,0.0193328528287383,0.0203069169595002,0.0181830710324617,-4.605594773062487e-05,critical
1500,0.6060606060606061,6.886075949367089,cathode,0.0192871898834994,0.0201954033395233,0.0182279588283261,-3.5940243229014964e-05,critical
1500,0.7070707070707071,6.886075949367089,cathode,0.0190333090979852,0.0199166952934804,0.0180045310587778,-8.108464566766144e-05,critical
1500,0.8080808080808081,6.886075949367089,cathode,0.018914585507006,0.0198346321501619,0.0178357744546428,5.397339160652704e-06,critical
1500,0.9090909090909092,6.886075949367089,cathode,0.0187606576394833,0.019691182687628,0.0176649932384931,6.382880027804549e-05,critical
1500,1.0101010101010102,6.886075949367089,cathode,0.0186527494722255,0.0195948577259753,0.0175385708352884,0.0001015658446252,critical
1500,1.1111111111111112,6.886075949367089,cathode,0.018610837384709,0.0195479177711656,0.017504867800499,4.281206279183526e-05,critical
1500,1.2121212121212122,6.886075949367089,cathode,0.0183093501299034,0.0192145372772899,0.017244881097975,-1.073957178873863e-05,critical
1500,1.3131313131313131,6.886075949367089,cathode,0.018403132538898,0.0192267747976739,0.0174505323919829,-3.0516445315997843e-05,critical
1500,1.414141414141414,6.886075949367089,cathode,0.018203184630641,0.0190913857503925,0.0171611244837217,-1.117602131013556e-05,critical
1500,1.5151515151515151,6.886075949367089,cathode,0.017907295968587,0.0187104616623908,0.016977956527282,-3.772777025804023e-05,critical
1500,1.616161616161616,6.886075949367089,cathode,0.0179108684374339,0.0187715170060737,0.0169026479127178,7.787544265749244e-05,critical
1500,1.7171717171717171,6.886075949367089,cathode,0.017915813987277,0.0187607892630264,0.0169302055964141,-2.10941714493783e-05,critical
1500,1.818181818181818,6.886075949367089,cathode,0.01763846599988,0.0184058569477062,0.0167546876640695,-3.974282885412107e-05,critical
1500,1.9191919191919191,6.886075949367089,cathode,0.0176591103035554,0.0185979276066541,0.016539214882299,5.988205024314986e-05,critical
1500,2.0202020202020203,6.886075949367089,cathode,0.0175477427131079,0.0183922652259417,0.0165593150186856,-9.20289023287225e-06,critical
1500,2.121212121212121,6.886075949367089,cathode,0.0173784565644592,0.0182117834927084,0.016402802771513,-6.843138837720008e-05,critical
1500,2.2222222222222223,6.886075949367089,cathode,0.017410846980191,0.0182424789092301,0.0164375693328622,-7.720560216134256e-05,critical
1500,2.323232323232323,6.886075949367089,cathode,0.0173293472359816,0.0182457224882019,0.0162377483055089,4.027361119477188e-05,critical
1500,2.4242424242424243,6.886075949367089,cathode,0.0172284053353379,0.0180747601887827,0.0162338970005447,-4.23395270303522e-05,critical
1500,2.525252525252525,6.886075949367089,cathode,0.017274910856046,0.0181156652759057,0.0162889322177648,-1.5786699979497743e-05,critical
1500,2.6262626262626263,6.886075949367089,cathode,0.0170980118258253,0.0179275465577573,0.0161244367138418,8.00278739488428e-05,critical
1500,2.727272727272727,6.886075949367089,cathode,0.017090173032241,0.0179121812856773,0.0161280460776988,-2.822944143305241e-05,critical
1500,2.8282828282828283,6.886075949367089,cathode,0.0169296968379969,0.0177535751833544,0.0159635608442504,8.287537442973033e-06,critical
1500,2.929292929292929,6.886075949367089,cathode,0.0169762369569645,0.0179328649866056,0.0158211094563937,7.13908953352335e-05,critical
1500,3.0303030303030303,6.886075949367089,cathode,0.016892104490071,0.0177689794861318,0.015849511422185,9.864604899882804e-05,critical
1500,3.131313131313131,6.886075949367089,cathode,0.0169175935107512,0.0177956032940077,0.0158757233003144,1.7861942772183252e-05,critical
1500,3.2323232323232323,6.886075949367089,cathode,0.0168099776157332,0.017600950242655,0.0158875308455393,3.606253853047926e-05,critical
1500,3.333333333333333,6.886075949367089,cathode,0.0166476173590355,0.0173901978730324,0.0157893677445008,9.613627473067574e-06,critical
1500,3.4343434343434343,6.886075949367089,cathode,0.016727916743482,0.0174613466663751,0.0158822922832246,-3.451771448864111e-05,critical
1500,3.5353535353535355,6.886075949367089,cathode,0.0166263419115106,0.0173628743776722,0.0157759119165082,2.3228615650516537e-05,critical
1500,3.636363636363636,6.886075949367089,cathode,0.0167520047234101,0.0176124255535076,0.0157324113443106,5.563346576993049e-05,critical
1500,3.7373737373737375,6.886075949367089,cathode,0.0165209704862777,0.0172906801321877,0.0156248877534997,-2.980666850538045e-05,critical
1500,3.8383838383838382,6.886075949367089,cathode,0.0166461923722738,0.0174736272920511,0.0156699543981576,0.0001025373911265,critical
1500,3.939393939393939,6.886075949367089,cathode,0.0165627484933861,0.0173301430770493,0.0156702274394466,2.603942966512736e-05,critical
1500,4.040404040404041,6.886075949367089,cathode,0.0165866768422591,0.0174169179515068,0.015608154211313,-9.68037172109958e-06,critical
1500,4.141414141414141,6.886075949367089,cathode,0.016487286569222,0.0173406791182024,0.0154751027546587,2.200043702489005e-05,critical
1500,4.242424242424242,6.886075949367089,cathode,0.0166027623143495,0.0173165718698188,0.0157815258321248,6.689255452481992e-05,critical
1500,4.343434343434343,6.886075949367089,cathode,0.0166970149767491,0.0174029041633194,0.0158873506088252,-4.955301136240367e-05,critical
1500,4.444444444444445,6.886075949367089,cathode,0.0166029617125086,0.0173553875124539,0.0157305520226046,5.2981508828388725e-05,critical
1500,4.545454545454545,6.886075949367089,cathode,0.0165549093382204,0.0173561564285383,0.0156162151338872,7.18336992864543e-06,critical
1500,4.646464646464646,6.886075949367089,cathode,0.0164523382974853,0.0172256693039187,0.015550891835346,-3.452003479771962e-06,critical
1500,4.747474747474747,6.886075949367089,cathode,0.0164824468276419,0.0172590465507188,0.0155768269094418,1.8038846697764272e-06,critical
1500,4.848484848484849,6.886075949367089,cathode,0.0166221595203053,0.0174142113281656,0.0156967418389397,-5.947691469317181e-06,critical
1500,4.94949494949495,6.886075949367089,cathode,0.016492546954977,0.017395474290455,0.015409546830599,-3.5690647989051514e-05,critical
1500,5.05050505050505,6.886075949367089,cathode,0.0164684753085913,0.017219139340054,0.0155978871022517,3.0955343416314163e-06,critical
1500,5.151515151515151,6.886075949367089,cathode,0.0164831804154028,0.0171688214828898,0.0156986288966405,-4.765610663168467e-05,critical
1500,5.252525252525253,6.886075949367089,cathode,0.0166428835893448,0.0174207059484983,0.0157370748533912,-1.5268306827291834e-06,critical
1500,5.353535353535354,6.886075949367089,cathode,0.016529889655722,0.0173162389547416,0.0156111928695197,-3.121847986044632e-05,critical
1500,5.454545454545454,6.886075949367089,cathode,0.0165771519976502,0.0173993223011803,0.0156061975110738,0.0001283373799187,critical
1500,5.555555555555555,6.886075949367089,cathode,0.0165303785251695,0.0174377319838508,0.015440861206768,6.408838053643717e-05,critical
1500,5.656565656565657,6.886075949367089,cathode,0.0166084806639848,0.017406237558561,0.0156739251157921,7.451963054770881e-05,critical
1500,5.757575757575758,6.886075949367089,cathode,0.0166296787472155,0.0173127818236448,0.0158462033262594,0.0001335437830259,critical
1500,5.858585858585858,6.886075949367089,cathode,0.0165866553130988,0.0173993717898004,0.015631002128786,8.243326925917395e-05,critical
1500,5.959595959595959,6.886075949367089,cathode,0.0166618177439908,0.0175267301747123,0.0156353153750545,-3.036892322025231e-05,critical
1500,6.0606060606060606,6.886075949367089,cathode,0.0166165481794541,0.017473526395169,0.0156007728986381,2.5499751375724092e-05,critical
1500,6.161616161616162,6.886075949367089,cathode,0.0165884143383794,0.0175126228399112,0.0154756223352763,-4.960522576769807e-05,critical
1500,6.262626262626262,6.886075949367089,cathode,0.0168423686906801,0.0177219336396033,0.0157966204259779,6.296354251648871e-05,critical
1500,6.363636363636363,6.886075949367089,cathode,0.0166977178044073,0.0174412928427745,0.0158379572242513,5.368050699062378e-05,critical
1500,6.4646464646464645,6.886075949367089,cathode,0.0167698445228642,0.0176797127945158,0.0156782555504154,0.000107701703343,critical
1500,6.565656565656566,6.886075949367089,cathode,0.0168195236082925,0.017581525044657,0.0159362867000119,-4.219582966543492e-05,critical
1500,6.666666666666667,6.886075949367089,cathode,0.0168712700716174,0.017606418888867,0.0160230695146681,8.922785065323345e-05,critical
1500,6.767676767676767,6.886075949367089,cathode,0.0168172416781636,0.0176341807130663,0.0158584785443238,-7.123431943317802e-05,critical
1500,6.8686868686868685,6.886075949367089,cathode,0.0167600678469964,0.0176193777906931,0.0157418362225322,6.67142457059801e-05,critical
1500,6.96969696969697,6.886075949367089,cathode,0.0169220957251264,0.0177067510089283,0.0160095030493716,1.1384524889772336e-05,critical
1500,7.070707070707071,6.886075949367089,cathode,0.0170129447867541,0.0178560370998072,0.0160203405037029,-5.976046220929609e-05,critical
1500,7.171717171717171,6.886075949367089,cathode,0.0169559341877963,0.0177555584414713,0.0160229885171443,3.998589342342656e-05,critical
1500,7.272727272727272,6.886075949367089,cathode,0.0170809210540577,0.0178787295460596,0.0161518786099633,1.613041780602682e-05,critical
1500,7.373737373737374,6.886075949367089,cathode,0.0170487068369201,0.0179226841042439,0.0160139466646381,-2.7195988501625653e-05,critical
1500,7.474747474747475,6.886075949367089,cathode,0.0172980825018627,0.0182007968838557,0.0162255290883495,-3.836711761372709e-05,critical
1500,7.575757575757575,6.886075949367089,cathode,0.0173224758711499,0.0181438322153784,0.0163600395885299,0.0001322130096201,critical
1500,7.6767676767676765,6.886075949367089,cathode,0.0173380486040148,0.0180943599876951,0.0164646257573474,0.000108058961515,critical
1500,7.777777777777778,6.886075949367089,cathode,0.0173670057237369,0.0181793635281493,0.016420844207171,6.645273727043995e-07,critical
1500,7.878787878787879,6.886075949367089,cathode,0.017432993001813,0.0182290352797229,0.0165090603150223,4.721653822928933e-05,critical
1500,7.979797979797979,6.886075949367089,cathode,0.0176439369042874,0.0184865044843015,0.0166590816098795,1.6815024361221703e-05,critical
1500,8.080808080808081,6.886075949367089,cathode,0.0176268462358502,0.0184624406440842,0.0166500075632946,8.370222833706374e-05,critical
1500,8.181818181818182,6.886075949367089,cathode,0.0175605031790894,0.0183695799421072,0.016619807119937,-5.969774288963852e-05,critical
1500,8.282828282828282,6.886075949367089,cathode,0.017849797123662,0.0186918051041075,0.0168675727742308,-2.614630154345608e-05,critical
1500,8.383838383838384,6.886075949367089,cathode,0.0178866151818595,0.0188223678541615,0.0167744444777534,2.737394628313211e-05,critical
1500,8.484848484848484,6.886075949367089,cathode,0.0179769564031703,0.0188436171822967,0.0169623339182644,1.6256173832911604e-06,critical
1500,8.585858585858587,6.886075949367089,cathode,0.0180562105630282,0.018990650362747,0.0169466219254844,8.42927983024961e-05,critical
1500,8.686868686868687,6.886075949367089,cathode,0.0182305498784252,0.0191022124362737,0.0172110278856988,-5.052704281856895e-05,critical
1500,8.787878787878787,6.886075949367089,cathode,0.0183895032237325,0.0192522864482316,0.0173840337635271,-1.882445757548408e-05,critical
1500,8.88888888888889,6.886075949367089,cathode,0.0184600188518998,0.0194202854685864,0.0173196116923133,5.053852782319781e-05,critical
1500,8.98989898989899,6.886075949367089,cathode,0.0187152274025009,0.0197350111552298,0.017493055153934,5.076551859515735e-05,critical
1500,9.09090909090909,6.886075949367089,cathode,0.0187970665750846,0.0197698584226231,0.0176427606632393,5.855610905868307e-05,critical
1500,9.191919191919192,6.886075949367089,cathode,0.0189092828050197,0.0197346755721572,0.0179583800773883,3.133627677713326e-05,critical
1500,9.292929292929292,6.886075949367089,cathode,0.0189883358087041,0.0198662711583736,0.0179677652765203,-5.003576054259244e-06,critical
1500,9.393939393939394,6.886075949367089,cathode,0.0193496412575117,0.0203755053237538,0.0181270379073389,-4.263678712709372e-05,critical
1500,9.494949494949497,6.886075949367089,cathode,0.0193523173662168,0.0202612178253942,0.018292841157747,2.8527148417052506e-05,critical
1500,9.595959595959595,6.886075949367089,cathode,0.0196036359771695,0.0205640717942075,0.0184745646343959,-8.986999133274398e-05,critical
1500,9.696969696969695,6.886075949367089,cathode,0.019791034228973,0.020833338310266,0.0185507889447755,-6.885676622601913e-06,critical
1500,9.797979797979798,6.886075949367089,cathode,0.0201292336415729,0.0211036639660379,0.0189857799663277,-0.0001018067094801,critical
1500,9.8989898989899,6.886075949367089,cathode,0.0201533627256785,0.0211128549198226,0.0190322843275187,3.365196126447965e-05,critical
1500,10.0,6.886075949367089,cathode,0.020518153995847,0.0215423337125524,0.0193114831887507,-3.4322011082088454e-05,critical
1500,0.0,6.987341772151899,cathode,0.0204811468594051,0.0214118382008745,0.0194020830678244,-3.650376016043823e-05,critical
1500,0.101010101010101,6.987341772151899,cathode,0.020280988658944,0.0211868441376035,0.019233798125046,1.448226006989708e-05,critical
1500,0.202020202020202,6.987341772151899,cathode,0.0201361786356523,0.0211729732586869,0.0189074820647075,4.331109075437658e-05,critical
1500,0.303030303030303,6.987341772151899,cathode,0.019855644556062,0.0207926152199928,0.0187623532476942,-4.569959746504857e-05,critical
1500,0.404040404040404,6.987341772151899,cathode,0.0197590514726083,0.0206543089985353,0.0187214641384224,-4.211343390544071e-05,critical
1500,0.5050505050505051,6.987341772151899,cathode,0.0195234373858737,0.0203262429389782,0.0186068550745329,1.6893355814500177e-05,critical
1500,0.6060606060606061,6.987341772151899,cathode,0.0191313636295649,0.0199351572973098,0.018210830406383,9.00737801325736e-07,critical
1500,0.7070707070707071,6.987341772151899,cathode,0.0190192951592661,0.0199224390896242,0.0179639436028133,6.406129079035658e-05,critical
1500,0.8080808080808081,6.987341772151899,cathode,0.0188623459045521,0.0198209712988126,0.0177292806485407,-2.129446889574466e-05,critical
1500,0.9090909090909092,6.987341772151899,cathode,0.01885342585236,0.0198072786499001,0.0177270293163926,-2.5674981605108207e-06,critical
1500,1.0101010101010102,6.987341772151899,cathode,0.0185426875865185,0.0194213139785785,0.0175170927959346,-9.045018090831912e-06,critical
1500,1.1111111111111112,6.987341772151899,cathode,0.018583887372799,0.0194883662479971,0.0175231363298204,-2.1929010145577164e-05,critical
1500,1.2121212121212122,6.987341772151899,cathode,0.0183424112443163,0.0192725957265562,0.0172434444825751,-1.4844063727835924e-05,critical
1500,1.3131313131313131,6.987341772151899,cathode,0.0181924111400614,0.0190005582383117,0.0172590056915447,5.001277523203022e-06,critical
1500,1.414141414141414,6.987341772151899,cathode,0.0181883193478826,0.0191507898197028,0.0170401974250956,9.508079045452358e-05,critical
1500,1.5151515151515151,6.987341772151899,cathode,0.0179487619649493,0.0189194398149422,0.0167874399678862,3.498860379317108e-05,critical
1500,1.616161616161616,6.987341772151899,cathode,0.0178572583907064,0.0186601866213686,0.0169280204898919,2.046341195133144e-05,critical
1500,1.7171717171717171,6.987341772151899,cathode,0.0177931046198191,0.0186009467900858,0.0168562030047222,5.509374296967489e-05,critical
1500,1.818181818181818,6.987341772151899,cathode,0.0176302303494597,0.0184424272719179,0.0166865285556801,-2.4169984229473304e-05,critical
1500,1.9191919191919191,6.987341772151899,cathode,0.0175986260811442,0.0184361157415244,0.0166203119145681,-1.2939458070497048e-05,critical
1500,2.0202020202020203,6.987341772151899,cathode,0.0174529258907765,0.0183100176346037,0.0164461392386265,-2.221105992329676e-05,critical
1500,2.121212121212121,6.987341772151899,cathode,0.0175459825912077,0.0183780394190595,0.016574630954519,-8.08800502106276e-07,critical
1500,2.2222222222222223,6.987341772151899,cathode,0.0175818275795041,0.0184094286417486,0.0166132296027363,-0.0001344930817319,critical
1500,2.323232323232323,6.987341772151899,cathode,0.0174105759107471,0.0183292462869118,0.0163164704843029,-5.2539104184571695e-05,critical
1500,2.4242424242424243,6.987341772151899,cathode,0.0172828098830094,0.0182575702676774,0.0161066457813363,-1.6574850127648742e-05,critical
1500,2.525252525252525,6.987341772151899,cathode,0.0173324610016039,0.0181709404499092,0.0163496415537877,5.388769762844628e-05,critical
1500,2.6262626262626263,6.987341772151899,cathode,0.0170520805915969,0.0178236488885577,0.0161579684707686,-4.084308486198051e-05,critical
1500,2.727272727272727,6.987341772151899,cathode,0.0170333598117093,0.0178202556139646,0.016118547120638,3.1117323098226566e-05,critical
1500,2.8282828282828283,6.987341772151899,cathode,0.017047183591138,0.0179025984279132,0.0160382261482766,-3.942150105339776e-05,critical
1500,2.929292929292929,6.987341772151899,cathode,0.0169631192288085,0.01780877503594,0.0159662968417204,6.454833682627146e-05,critical
1500,3.0303030303030303,6.987341772151899,cathode,0.016943156859961,0.0177241147308596,0.0160353415476499,-4.6101980620732e-05,critical
1500,3.131313131313131,6.987341772151899,cathode,0.0168757255962273,0.0176285966950763,0.0160050549594903,-5.022505545367053e-05,critical
1500,3.2323232323232323,6.987341772151899,cathode,0.0168867359190627,0.0177073906545335,0.0159246198962079,-6.134501067883721e-06,critical
1500,3.333333333333333,6.987341772151899,cathode,0.0167701119771527,0.0175618451091519,0.0158463371212383,-3.0386395277185105e-05,critical
1500,3.4343434343434343,6.987341772151899,cathode,0.0166201348648643,0.0173243979816957,0.0158125039077883,-1.7780606660033382e-05,critical
1500,3.5353535353535355,6.987341772151899,cathode,0.0167325257054224,0.0175093889328698,0.0158287653798317,-1.7431704605409554e-05,critical
1500,3.636363636363636,6.987341772151899,cathode,0.016727642364031,0.0174946217163997,0.0158370393971151,-3.379622007101295e-05,critical
1500,3.7373737373737375,6.987341772151899,cathode,0.0166927210891022,0.017453337477198,0.0158100583027558,5.2560508717644966e-05,critical
1500,3.8383838383838382,6.987341772151899,cathode,0.0165727668676704,0.0174734011698519,0.015493823626356,-5.189258518651636e-05,critical
1500,3.939393939393939,6.987341772151899,cathode,0.0165300491691293,0.0173993434083974,0.0154942670714811,8.781808134171374e-05,critical
1500,4.040404040404041,6.987341772151899,cathode,0.0165127395507745,0.0172873393799632,0.0156087836038538,7.890608336470238e-05,critical
1500,4.141414141414141,6.987341772151899,cathode,0.0166304377518429,0.0174296791066223,0.0156950123306438,-3.34788323064175e-05,critical
1500,4.242424242424242,6.987341772151899,cathode,0.0165521793916155,0.0173163795258559,0.0156639495863456,-2.018246926314404e-05,critical
1500,4.343434343434343,6.987341772151899,cathode,0.0165284482643809,0.0172605368296893,0.0156831862938084,2.1234281369085996e-05,critical
1500,4.444444444444445,6.987341772151899,cathode,0.0166312180377662,0.0173895154316842,0.0157516316301258,2.2425922749746665e-05,critical
1500,4.545454545454545,6.987341772151899,cathode,0.0165018441160881,0.0172531261210073,0.0156304925763171,3.193670118803985e-05,critical
1500,4.646464646464646,6.987341772151899,cathode,0.0165349480903969,0.0172644373449245,0.0156929458294238,4.099894083863328e-05,critical
1500,4.747474747474747,6.987341772151899,cathode,0.0165505220827849,0.0172361777289227,0.0157668822331061,-7.47346220310113e-06,critical
1500,4.848484848484849,6.987341772151899,cathode,0.0165353127576651,0.0173852098160211,0.0155279117949151,6.057363378943809e-05,critical
1500,4.94949494949495,6.987341772151899,cathode,0.0165817436937966,0.0173625543527431,0.0156709255229111,4.210969607820767e-05,critical
1500,5.05050505050505,6.987341772151899,cathode,0.0165238055289121,0.0174043529562252,0.015473198486481,-4.390805107156316e-05,critical
1500,5.151515151515151,6.987341772151899,cathode,0.0165212692553945,0.0173844641270706,0.0154957267248028,-5.872656840402621e-06,critical
1500,5.252525252525253,6.987341772151899,cathode,0.0165723149723717,0.0174267165823446,0.0155594255691129,-4.142558944615751e-05,critical
1500,5.353535353535354,6.987341772151899,cathode,0.01662461004821,0.0175261452318622,0.0155453179623735,-3.865358741923832e-05,critical
1500,5.454545454545454,6.987341772151899,cathode,0.0165105182754102,0.017298768392996,0.0155885426331554,5.701747606760176e-05,critical
1500,5.555555555555555,6.987341772151899,cathode,0.0164487940564059,0.0171715143277229,0.0156151435495928,4.031013005413336e-05,critical
1500,5.656565656565657,6.987341772151899,cathode,0.0167231236007039,0.0176251912648948,0.0156444365369177,-3.310325932655672e-05,critical
1500,5.757575757575758,6.987341772151899,cathode,0.0165340717227846,0.0173555629722877,0.0155671352280629,1.4812034614451155e-05,critical
1500,5.858585858585858,6.987341772151899,cathode,0.0165175494923496,0.0173726394727319,0.01550340514747,1.0583679091841878e-05,critical
1500,5.959595959595959,6.987341772151899,cathode,0.0165465742168142,0.0172875757687741,0.0156894299078797,-3.0766965548589585e-05,critical
1500,6.0606060606060606,6.987341772151899,cathode,0.016618280986724,0.0174439126650713,0.0156462978815661,-3.2610152334723125e-05,critical
1500,6.161616161616162,6.987341772151899,cathode,0.0165266617844823,0.0171905229643511,0.0157711894819843,1.8683676618292577e-05,critical
1500,6.262626262626262,6.987341772151899,cathode,0.0167192726809957,0.0175490223929181,0.0157426892680815,2.847884182615429e-05,critical
1500,6.363636363636363,6.987341772151899,cathode,0.01673215593871,0.017525561535699,0.015805458812581,4.742699438032171e-05,critical
1500,6.4646464646464645,6.987341772151899,cathode,0.0167967053226203,0.0176559952734952,0.0157797171524529,-2.75599143613208e-05,critical
1500,6.565656565656566,6.987341772151899,cathode,0.0166951490930575,0.0176144950525072,0.0155900799444912,-7.823183372591783e-05,critical
1500,6.666666666666667,6.987341772151899,cathode,0.0168453573484515,0.0175579957181627,0.016027364618539,7.031663661346203e-05,critical
1500,6.767676767676767,6.987341772151899,cathode,0.016784441663138,0.0176252731644937,0.0157922654557377,6.969490499800498e-05,critical
1500,6.8686868686868685,6.987341772151899,cathode,0.0169997008106255,0.0177705526170307,0.0161064550480564,-9.378713584901461e-08,critical
1500,6.96969696969697,6.987341772151899,cathode,0.0169572468202041,0.0177891988549257,0.0159802297285861,1.1045844758881933e-05,critical
1500,7.070707070707071,6.987341772151899,cathode,0.0169707666871081,0.0178339350920764,0.0159502010552938,3.472607687815386e-05,critical
1500,7.171717171717171,6.987341772151899,cathode,0.0170662191269837,0.0178744435206332,0.0161229045152953,2.920034928718588e-07,critical
1500,7.272727272727272,6.987341772151899,cathode,0.017099865153912,0.0179563565706299,0.0160901784329963,2.440090607724689e-05,critical
1500,7.373737373737374,6.987341772151899,cathode,0.017137382501637,0.0180070868513357,0.0161096063723914,-2.808173165413342e-05,critical
1500,7.474747474747475,6.987341772151899,cathode,0.0171841243606459,0.018093743364672,0.0161003758491681,3.893285102661139e-05,critical
1500,7.575757575757575,6.987341772151899,cathode,0.0173422891772582,0.0182276457495747,0.0162936465831935,-8.128805747416848e-05,critical
1500,7.6767676767676765,6.987341772151899,cathode,0.0172293202817696,0.0180338872289247,0.0162924173238873,-1.952123703035145e-05,critical
1500,7.777777777777778,6.987341772151899,cathode,0.0173248880688421,0.0180765136093606,0.0164597890649045,2.797204742558337e-05,critical
1500,7.878787878787879,6.987341772151899,cathode,0.017496625869691,0.018433212675061,0.0163783453134413,-3.6122577598321965e-05,critical
1500,7.979797979797979,6.987341772151899,cathode,0.0176021910567391,0.0184864892068346,0.016558940794765,4.085273567937257e-05,critical
1500,8.080808080808081,6.987341772151899,cathode,0.0175472888007145,0.0183988400452883,0.0165491688234448,-1.3546976666454597e-05,critical
1500,8.181818181818182,6.987341772151899,cathode,0.0176934574846805,0.0185662744198455,0.0166674214612534,-1.7073205015275245e-05,critical
1500,8.282828282828282,6.987341772151899,cathode,0.0178426883966463,0.0187358992240949,0.0167896201680924,-4.039626951320189e-05,critical
1500,8.383838383838384,6.987341772151899,cathode,0.0178415240225856,0.0186278940488067,0.0169334076295148,-7.064468717126321e-05,critical
1500,8.484848484848484,6.987341772151899,cathode,0.0180157113803013,0.0188840405477714,0.0169990641932688,2.3827025446278986e-05,critical
1500,8.585858585858587,6.987341772151899,cathode,0.0182483524751462,0.0191072482742149,0.0172467683948851,-2.9983477837974305e-05,critical
1500,8.686868686868687,6.987341772151899,cathode,0.0182991197607193,0.0191862916995016,0.0172594127201172,1.627273485030057e-05,critical
1500,8.787878787878787,6.987341772151899,cathode,0.0184612807285857,0.019242605903889,0.0175639925181456,8.973500862831808e-05,critical
1500,8.88888888888889,6.987341772151899,cathode,0.0185025885214717,0.0193514144510704,0.0175171151247413,7.598472270830222e-06,critical
1500,8.98989898989899,6.987341772151899,cathode,0.0185914068438141,0.0194689663145167,0.0175675239729427,-3.363031965838898e-05,critical
1500,9.09090909090909,6.987341772151899,cathode,0.0187831826535407,0.0195970869450733,0.0178447905091276,-0.0001024640959103,critical
1500,9.191919191919192,6.987341772151899,cathode,0.0189537828945274,0.0199067530472817,0.0178294482093025,3.771892142941177e-05,critical
1500,9.292929292929292,6.987341772151899,cathode,0.019136984185557,0.0201125283467402,0.0179797571777504,-0.0001379310866244,critical
1500,9.393939393939394,6.987341772151899,cathode,0.0192431999929188,0.0202166084676456,0.0180937435841989,-4.505492001603508e-06,critical
1500,9.494949494949497,6.987341772151899,cathode,0.0194082747043563,0.0203303461895634,0.0183310706772108,4.834436338615007e-05,critical
1500,9.595959595959595,6.987341772151899,cathode,0.0196473660128104,0.0205808675843097,0.0185571381897775,-2.2410945950389377e-05,critical
1500,9.696969696969695,6.987341772151899,cathode,0.0198654972993967,0.020786000793373,0.0187944783650936,-5.7093963862784526e-05,critical
1500,9.797979797979798,6.987341772151899,cathode,0.0200583310535443,0.021076330528953,0.0188548335533365,6.025446703738084e-05,critical
1500,9.8989898989899,6.987341772151899,cathode,0.0202289661229948,0.0211305490812734,0.0191862541312585,7.000701459254666e-05,critical
1500,10.0,6.987341772151899,cathode,0.0204891457286914,0.0214174871224723,0.0194134825977585,-1.866383889847296e-05,critical
1500,0.0,7.0886075949367084,cathode,0.020424444336838,0.0214094064149222,0.0192712028109004,-1.8245852355560107e-05,critical
1500,0.101010101010101,7.0886075949367084,cathode,0.0202372507169821,0.0212765836790158,0.0190062578932495,-3.512320126195424e-05,critical
1500,0.202020202020202,7.0886075949367084,cathode,0.0201330593630238,0.0210601188591512,0.0190556635187837,-5.066049722888736e-05,critical
1500,0.303030303030303,7.0886075949367084,cathode,0.0198498043509208,0.0208110262041414,0.0187235791678017,-1.156062098975678e-05,critical
1500,0.404040404040404,7.0886075949367084,cathode,0.0197384772223369,0.020686490795693,0.0186285208267139,-6.7126855773494e-05,critical
1500,0.5050505050505051,7.0886075949367084,cathode,0.0194059693000004,0.0202771440318538,0.0183980945722886,1.16147932504092e-06,critical
1500,0.6060606060606061,7.0886075949367084,cathode,0.0193166745905538,0.0201935363945088,0.0182996690071252,-6.364341679163827e-05,critical
1500,0.7070707070707071,7.0886075949367084,cathode,0.019100467828711,0.0200787163936431,0.0179426189296389,8.206754673662211e-06,critical
1500,0.8080808080808081,7.0886075949367084,cathode,0.0190859785775979,0.0200086348198175,0.0180014360317733,-0.0001432614134408,critical
1500,0.9090909090909092,7.0886075949367084,cathode,0.0187086682534878,0.0197063936084406,0.0175183916869934,-2.9402041200405244e-05,critical
1500,1.0101010101010102,7.0886075949367084,cathode,0.0186606071403772,0.0195855379051314,0.0175724050909657,-1.3529308823957388e-05,critical
1500,1.1111111111111112,7.0886075949367084,cathode,0.0185387970221092,0.0193953825955738,0.0175431455324679,-8.028220568872154e-06,critical
1500,1.2121212121212122,7.0886075949367084,cathode,0.0184815689437169,0.0193939332581977,0.0174089084529403,-1.6916554779661957e-05,critical
1500,1.3131313131313131,7.0886075949367084,cathode,0.018354548969897,0.0192048349244317,0.0173654804872044,4.105688086893466e-05,critical
1500,1.414141414141414,7.0886075949367084,cathode,0.0181910931143762,0.0190671924058109,0.0171655251387211,1.966159035856486e-05,critical
1500,1.5151515151515151,7.0886075949367084,cathode,0.0180073650448899,0.0189299271903488,0.0169151512221946,3.312908182328089e-05,critical
1500,1.616161616161616,7.0886075949367084,cathode,0.0180462577554293,0.0189021321988555,0.0170460078757463,-7.377249367253945e-05,critical
1500,1.7171717171717171,7.0886075949367084,cathode,0.0178285249278415,0.0186853340912028,0.0168259511389105,1.2618856170321178e-05,critical
1500,1.818181818181818,7.0886075949367084,cathode,0.0176917594816178,0.0184969312499051,0.0167576528089699,5.200045838832351e-05,critical
1500,1.9191919191919191,7.0886075949367084,cathode,0.017605117567537,0.018493184430018,0.0165565096128482,4.785196467472641e-05,critical
1500,2.0202020202020203,7.0886075949367084,cathode,0.0176205178775517,0.0184729409447344,0.0166218355821565,2.498070916139839e-05,critical
1500,2.121212121212121,7.0886075949367084,cathode,0.0175270253105486,0.0182807676056108,0.016660744831539,-1.7682819851569573e-05,critical
1500,2.2222222222222223,7.0886075949367084,cathode,0.0174091984190781,0.0183253075489344,0.0163192235772734,-1.8490358926124185e-05,critical
1500,2.323232323232323,7.0886075949367084,cathode,0.0172818765931321,0.0180282599153121,0.0164222890673763,-7.920543916343504e-05,critical
1500,2.4242424242424243,7.0886075949367084,cathode,0.0173834600441016,0.018213699902701,0.0164130059877382,-1.4363931625832104e-05,critical
1500,2.525252525252525,7.0886075949367084,cathode,0.0173012572140582,0.018206885867442,0.0162248918581915,-1.220192081650669e-05,critical
1500,2.6262626262626263,7.0886075949367084,cathode,0.0171002516204456,0.0179489709408354,0.0161015045701036,-3.457313499769853e-06,critical
1500,2.727272727272727,7.0886075949367084,cathode,0.017008707462165,0.0178545272126257,0.0160127027287811,3.905332043041501e-05,critical
1500,2.8282828282828283,7.0886075949367084,cathode,0.0169307041043716,0.0177608826636426,0.0159558739555979,9.659406911793372e-06,critical
1500,2.929292929292929,7.0886075949367084,cathode,0.0167845050560394,0.0176644548198225,0.0157383620343142,7.988839556378318e-06,critical
1500,3.0303030303030303,7.0886075949367084,cathode,0.0168824851873182,0.0177725918944232,0.0158230992946304,9.973882038256814e-06,critical
1500,3.131313131313131,7.0886075949367084,cathode,0.0167797662383744,0.0175522395950494,0.0158821039201704,3.961717507413993e-05,critical
1500,3.2323232323232323,7.0886075949367084,cathode,0.0168090948900229,0.0176394690943624,0.0158327542149902,4.956897330222007e-06,critical
1500,3.333333333333333,7.0886075949367084,cathode,0.0167971811928726,0.0176279908690361,0.0158200968955864,9.8621210014257e-06,critical
1500,3.4343434343434343,7.0886075949367084,cathode,0.0168220852571558,0.0177249678812576,0.0157437401742991,2.897595372918618e-07,critical
1500,3.5353535353535355,7.0886075949367084,cathode,0.0168355767541727,0.0176646829338779,0.0158608857228515,-4.259468860022051e-05,critical
1500,3.636363636363636,7.0886075949367084,cathode,0.0167255761776564,0.0174810794355058,0.0158492146943739,-8.273427041167406e-05,critical
1500,3.7373737373737375,7.0886075949367084,cathode,0.0167120505986445,0.0175572493072738,0.0157137954573973,-3.3109444767364754e-05,critical
1500,3.8383838383838382,7.0886075949367084,cathode,0.0166044769270294,0.0174234156464281,0.0156403263734383,8.433942255920039e-05,critical
1500,3.939393939393939,7.0886075949367084,cathode,0.0166060106472441,0.0173894996744423,0.0156921434640869,-3.9938081315477565e-06,critical
1500,4.040404040404041,7.0886075949367084,cathode,0.016702154621,0.017472441284423,0.0158063640967693,-5.884212650960038e-05,critical
1500,4.141414141414141,7.0886075949367084,cathode,0.0166209217338853,0.0174757510985958,0.0156073334202397,-6.8751965407249e-05,critical
1500,4.242424242424242,7.0886075949367084,cathode,0.0164915192149532,0.0172547503747508,0.0156038479670896,3.753087554488893e-05,critical
1500,4.343434343434343,7.0886075949367084,cathode,0.0165713763686091,0.0174661735871386,0.01550051914693,-6.313810454972514e-05,critical
1500,4.444444444444445,7.0886075949367084,cathode,0.0165905465576223,0.0174405327349062,0.0155841998360457,-3.423381061417017e-05,critical
1500,4.545454545454545,7.0886075949367084,cathode,0.0165561342145091,0.0173764077458134,0.0155911390296523,-1.1643868630283995e-05,critical
1500,4.646464646464646,7.0886075949367084,cathode,0.0165512059576191,0.017390191136418,0.0155598000832543,-3.737089678065844e-05,critical
1500,4.747474747474747,7.0886075949367084,cathode,0.0164734181362214,0.0173252824761543,0.0154619138715215,8.028509197039288e-05,critical
1500,4.848484848484849,7.0886075949367084,cathode,0.0165857685210416,0.0173410699957071,0.0157092815734403,5.547561395571671e-05,critical
1500,4.94949494949495,7.0886075949367084,cathode,0.0165449780150773,0.0173809384549015,0.0155570166186623,6.845500671427056e-05,critical
1500,5.05050505050505,7.0886075949367084,cathode,0.0164803638860186,0.0172913792449293,0.0155258011538388,-8.68177928420335e-05,critical
1500,5.151515151515151,7.0886075949367084,cathode,0.0166046332878446,0.0173898645626195,0.0156876762742141,-5.725947901679762e-05,critical
1500,5.252525252525253,7.0886075949367084,cathode,0.0164724117687869,0.0171999438503295,0.0156316190760644,7.689058209922832e-05,critical
1500,5.353535353535354,7.0886075949367084,cathode,0.0164566199543829,0.0172410494034873,0.0155400020966074,1.6678377680779834e-05,critical
1500,5.454545454545454,7.0886075949367084,cathode,0.0164333183876388,0.0172428335489534,0.0154818359858581,2.658242483882904e-05,critical
1500,5.555555555555555,7.0886075949367084,cathode,0.0165349412276169,0.0174025944669945,0.0155032140037627,-1.2767329740029775e-05,critical
1500,5.656565656565657,7.0886075949367084,cathode,0.0165050715516743,0.0172661556201319,0.015617356483929,0.000125354042284,critical
1500,5.757575757575758,7.0886075949367084,cathode,0.0164944095118858,0.0173344835928205,0.0155007884180032,-4.0598210073349815e-05,critical
1500,5.858585858585858,7.0886075949367084,cathode,0.0167138216094131,0.0175033160293779,0.0157926530128997,-2.358112414429547e-05,critical
1500,5.959595959595959,7.0886075949367084,cathode,0.0166247103941673,0.0175340921256178,0.0155337996406392,5.401143279102032e-05,critical
1500,6.0606060606060606,7.0886075949367084,cathode,0.0167333978512651,0.0175841630450821,0.015727643818927,2.8791113496638533e-05,critical
1500,6.161616161616162,7.0886075949367084,cathode,0.0166596791425656,0.0173951978726046,0.0158108749530691,2.259551744423418e-05,critical
1500,6.262626262626262,7.0886075949367084,cathode,0.016698020445096,0.0176281175883807,0.0155785305568782,3.115164153802011e-05,critical
1500,6.363636363636363,7.0886075949367084,cathode,0.0166463642810796,0.0175199873913077,0.0156075058798892,-1.35649237332409e-05,critical
1500,6.4646464646464645,7.0886075949367084,cathode,0.0167618166039916,0.0176432917451621,0.0157128075555789,-4.501414945304897e-05,critical
1500,6.565656565656566,7.0886075949367084,cathode,0.0168390551578225,0.0175858343637866,0.0159766617991659,-2.1711587470906136e-05,critical
1500,6.666666666666667,7.0886075949367084,cathode,0.0169170623490723,0.0177739183748367,0.0159028952452854,-9.917821972693586e-05,critical
1500,6.767676767676767,7.0886075949367084,cathode,0.0169373638052461,0.0176883511462468,0.0160697749092249,-4.7195341199285945e-05,critical
1500,6.8686868686868685,7.0886075949367084,cathode,0.0169054508520104,0.0176248895063718,0.0160799188065857,-1.3438862021321202e-05,critical
1500,6.96969696969697,7.0886075949367084,cathode,0.0169408707637218,0.0177630942399138,0.015976357345671,-6.091623260167925e-05,critical
1500,7.070707070707071,7.0886075949367084,cathode,0.0170511900311336,0.0178861482326321,0.0160700398942362,-6.761737553106359e-05,critical
1500,7.171717171717171,7.0886075949367084,cathode,0.0170162977167856,0.0177587971036659,0.0161610309305155,1.881454336591848e-05,critical
1500,7.272727272727272,7.0886075949367084,cathode,0.0171288280494355,0.0179417028720157,0.0161797119458577,-1.3589651494631909e-05,critical
1500,7.373737373737374,7.0886075949367084,cathode,0.0171505678051465,0.0180034974277962,0.0161461756971958,-3.957859168147882e-05,critical
1500,7.474747474747475,7.0886075949367084,cathode,0.0171778605648446,0.0180527484000886,0.0161410294250231,0.0001068971737226,critical
1500,7.575757575757575,7.0886075949367084,cathode,0.0172409071044561,0.0180464340397866,0.0163016117407226,7.855339588183383e-05,critical
1500,7.6767676767676765,7.0886075949367084,cathode,0.0173569471572498,0.0182000905323442,0.016368545058764,4.236567369863779e-06,critical
1500,7.777777777777778,7.0886075949367084,cathode,0.0174609227918026,0.0182403606203918,0.0165598440853884,2.683891405657516e-05,critical
1500,7.878787878787879,7.0886075949367084,cathode,0.0175179956314211,0.0183617380443545,0.0165299983318505,4.243161191839759e-05,critical
1500,7.979797979797979,7.0886075949367084,cathode,0.017615961959572,0.0183443869719171,0.0167826614531811,-7.186341068526332e-05,critical
1500,8.080808080808081,7.0886075949367084,cathode,0.0176167545428071,0.018616095350127,0.0164090668631006,4.587137408024627e-05,critical
1500,8.181818181818182,7.0886075949367084,cathode,0.0178070644472437,0.0187750261318637,0.0166459844099114,9.988875110741973e-05,critical
1500,8.282828282828282,7.0886075949367084,cathode,0.0177130411994076,0.0185242915381052,0.0167714597050863,-1.2445627868185373e-08,critical
1500,8.383838383838384,7.0886075949367084,cathode,0.0179708102894658,0.0188348459724443,0.0169593709433402,-4.272535476574122e-05,critical
1500,8.484848484848484,7.0886075949367084,cathode,0.0179249921850362,0.0188247810383406,0.0168638625888499,2.3259208150669957e-05,critical
1500,8.585858585858587,7.0886075949367084,cathode,0.0182823645155931,0.0191048222449679,0.0173300856647894,-4.81533526882566e-05,critical
1500,8.686868686868687,7.0886075949367084,cathode,0.0182054346830861,0.0190129405015131,0.0172723002399224,-6.001859136629652e-05,critical
1500,8.787878787878787,7.0886075949367084,cathode,0.0182771947470903,0.0191518095333063,0.0172545609822153,8.760636238083437e-06,critical
1500,8.88888888888889,7.0886075949367084,cathode,0.0184884418538311,0.0193368042909392,0.0175034466729589,1.3654000511497742e-05,critical
1500,8.98989898989899,7.0886075949367084,cathode,0.0186269224484036,0.019538255829573,0.0175572376867088,-1.3457273481306167e-06,critical
1500,9.09090909090909,7.0886075949367084,cathode,0.0187168772656759,0.0196028552586027,0.0176822616288959,5.773309828513491e-05,critical
1500,9.191919191919192,7.0886075949367084,cathode,0.0188764631753379,0.0198119990485447,0.0177758301511436,7.0282666265096334e-06,critical
1500,9.292929292929292,7.0886075949367084,cathode,0.0190804389313377,0.0199921741130537,0.0180145927663138,2.1959581282650755e-05,critical
1500,9.393939393939394,7.0886075949367084,cathode,0.0191311479927252,0.020049259287004,0.018057140074978,-6.376115341145343e-07,critical
1500,9.494949494949497,7.0886075949367084,cathode,0.0195045522242295,0.0204362327775616,0.0184154670803529,-2.074851856428083e-05,critical
1500,9.595959595959595,7.0886075949367084,cathode,0.0196486742757959,0.0206178285654278,0.0185090850785556,4.639917499676407e-05,critical
1500,9.696969696969695,7.0886075949367084,cathode,0.0197548384505176,0.0206893546035601,0.0186641396763315,3.2365468115066166e-05,critical
1500,9.797979797979798,7.0886075949367084,cathode,0.0199821398544042,0.0209668269385126,0.0188233082718097,-9.344149891336634e-05,critical
1500,9.8989898989899,7.0886075949367084,cathode,0.0202532704664647,0.0212334942761756,0.0191043460289324,5.677521060617923e-05,critical
1500,10.0,7.0886075949367084,cathode,0.0204624020998061,0.0214047768931221,0.0193675411495623,-2.3614575786642514e-05,critical
1500,0.0,7.189873417721519,cathode,0.0205294835754484,0.0215823403866072,0.0192801010188192,-0.0001286945889628,critical
1500,0.101010101010101,7.189873417721519,cathode,0.0203256309541439,0.0213472404251297,0.0191206751126743,-3.259466886279549e-06,critical
1500,0.202020202020202,7.189873417721519,cathode,0.0199292851222265,0.0207606601285072,0.0189781377738193,-1.08219497795858e-05,critical
1500,0.303030303030303,7.189873417721519,cathode,0.0197649400840074,0.0207323938993644,0.0186292868994052,5.272835677289513e-06,critical
1500,0.404040404040404,7.189873417721519,cathode,0.0195867401006565,0.0204821057899571,0.0185477231463086,2.6607724996917743e-05,critical
1500,0.5050505050505051,7.189873417721519,cathode,0.019371699550545,0.0202551462665395,0.0183470159501861,9.841186366984092e-06,critical
1500,0.6060606060606061,7.189873417721519,cathode,0.0193572732627991,0.0202529240475971,0.018314568054565,8.803113332226905e-05,critical
1500,0.7070707070707071,7.189873417721519,cathode,0.0191299490396597,0.0200046235496895,0.0181140873941237,7.147036415142289e-05,critical
1500,0.8080808080808081,7.189873417721519,cathode,0.0190803360224854,0.0200236391181443,0.0179704204908366,5.8598320828059e-05,critical
1500,0.9090909090909092,7.189873417721519,cathode,0.0187441520294448,0.0196927182876724,0.0176239212074394,1.1525067134623157e-05,critical
1500,1.0101010101010102,7.189873417721519,cathode,0.0185687257895934,0.0193283654542216,0.0177020513934049,-1.7901615942610687e-05,critical
1500,1.1111111111111112,7.189873417721519,cathode,0.0184607323516202,0.0194104709886014,0.0173340781399864,-9.057381155715912e-05,critical
1500,1.2121212121212122,7.189873417721519,cathode,0.0184806140947459,0.0194098877588631,0.0173825789405615,9.867468145289052e-05,critical
1500,1.3131313131313131,7.189873417721519,cathode,0.0183108376217725,0.0192321680083953,0.0172236983658376,-3.541848920739366e-05,critical
1500,1.414141414141414,7.189873417721519,cathode,0.0182631681519659,0.0191235287255965,0.0172588715577713,-7.266036755451788e-05,critical
1500,1.5151515151515151,7.189873417721519,cathode,0.0180743318886372,0.0189155803286382,0.0170953346502671,-1.0114180334796045e-06,critical
1500,1.616161616161616,7.189873417721519,cathode,0.0178306863153103,0.0186866882036175,0.0168291732805028,2.2352986337682216e-05,critical
1500,1.7171717171717171,7.189873417721519,cathode,0.0178205554608479,0.018607592250938,0.0169121283151786,3.469481857794639e-05,critical
1500,1.818181818181818,7.189873417721519,cathode,0.017713568020434,0.0186026858635576,0.0166638883672096,7.847658271561368e-05,critical
1500,1.9191919191919191,7.189873417721519,cathode,0.0175775077525677,0.0183754583432444,0.0166524507001763,-3.468572946396865e-05,critical
1500,2.0202020202020203,7.189873417721519,cathode,0.0175643152295449,0.0184097481981216,0.0165742272552979,5.379591929794765e-05,critical
1500,2.121212121212121,7.189873417721519,cathode,0.0174874050304387,0.0182847199207226,0.0165624477541863,3.363973883989945e-05,critical
1500,2.2222222222222223,7.189873417721519,cathode,0.0172341024482593,0.0180294172352249,0.0163094046176952,-4.75502614933702e-05,critical
1500,2.323232323232323,7.189873417721519,cathode,0.0173585817167759,0.0182164939454446,0.0163497276894429,1.6608221205811526e-05,critical
1500,2.4242424242424243,7.189873417721519,cathode,0.0173075139668114,0.0181710819693067,0.0162899541440863,-4.2054679140869824e-05,critical
1500,2.525252525252525,7.189873417721519,cathode,0.0171866331434272,0.0180141825067178,0.0162176307675344,4.242712285944722e-05,critical
1500,2.6262626262626263,7.189873417721519,cathode,0.0170294389035604,0.0178146423336089,0.0161153633033649,9.093371552398567e-05,critical
1500,2.727272727272727,7.189873417721519,cathode,0.0171381693961259,0.0180337354039466,0.0160741280888929,-8.49738885732628e-06,critical
1500,2.8282828282828283,7.189873417721519,cathode,0.0170162699280449,0.0177848465676708,0.0161259502271445,3.630724360066201e-05,critical
1500,2.929292929292929,7.189873417721519,cathode,0.0169077431729042,0.0177187351655126,0.0159551570118473,-0.0001370762314772,critical
1500,3.0303030303030303,7.189873417721519,cathode,0.0168549436031998,0.0176450135785612,0.0159342745731353,-2.5850305376664492e-05,critical
1500,3.131313131313131,7.189873417721519,cathode,0.0168839924093162,0.0176472471105931,0.0159989328594917,-7.103550808452192e-05,critical
1500,3.2323232323232323,7.189873417721519,cathode,0.0167618754628208,0.0175358808490975,0.0158622239387501,-2.059600231328511e-05,critical
1500,3.333333333333333,7.189873417721519,cathode,0.0169004583139691,0.0177268182945181,0.0159303366064334,3.634269220632002e-05,critical
1500,3.4343434343434343,7.189873417721519,cathode,0.0167883882231762,0.0175718587831656,0.0158762164909476,-6.883773859682381e-06,critical
1500,3.5353535353535355,7.189873417721519,cathode,0.0167394064939208,0.0176029852974977,0.0157158906565721,1.9510841616085714e-06,critical
1500,3.636363636363636,7.189873417721519,cathode,0.0167999391023322,0.0175882519094514,0.015880873210594,4.4770715030542086e-05,critical
1500,3.7373737373737375,7.189873417721519,cathode,0.0166408987376145,0.0175270282100482,0.0155839669954816,3.363905328911728e-05,critical
1500,3.8383838383838382,7.189873417721519,cathode,0.0166501451592583,0.0174981676531249,0.0156453601616471,-9.883171197225228e-05,critical
1500,3.939393939393939,7.189873417721519,cathode,0.0166693161359548,0.0174261977576842,0.0157920177321716,1.5621469640258403e-05,critical
1500,4.040404040404041,7.189873417721519,cathode,0.0166535317006056,0.0174512350517324,0.015720678898273,-3.2081264809976178e-06,critical
1500,4.141414141414141,7.189873417721519,cathode,0.0166193487974469,0.0174929233812199,0.0155802448734052,-1.1336457718811464e-05,critical
1500,4.242424242424242,7.189873417721519,cathode,0.0165848051049263,0.0173961313709563,0.0156323978824082,-2.4202922230880573e-05,critical
1500,4.343434343434343,7.189873417721519,cathode,0.0165921478175131,0.0173703688775594,0.0156852962302843,1.3138972314300532e-05,critical
1500,4.444444444444445,7.189873417721519,cathode,0.016540896709722,0.017301236779556,0.0156570515219856,-6.208367713425886e-05,critical
1500,4.545454545454545,7.189873417721519,cathode,0.0165267372123155,0.0173567259274419,0.0155478984608901,-1.3829290350585586e-05,critical
1500,4.646464646464646,7.189873417721519,cathode,0.016583480985157,0.0174309014262085,0.0155792678679147,8.681830211279502e-05,critical
1500,4.747474747474747,7.189873417721519,cathode,0.0164895645417178,0.0173087133471621,0.0155254606949927,-2.4147889631252227e-08,critical
1500,4.848484848484849,7.189873417721519,cathode,0.0166078462109775,0.0174282959373181,0.0156421889508994,-6.752643143189478e-05,critical
1500,4.94949494949495,7.189873417721519,cathode,0.0164916208558656,0.0173784151836661,0.0154320315799738,-1.7295439358936012e-05,critical
1500,5.05050505050505,7.189873417721519,cathode,0.0164376195717725,0.0172080668666944,0.0155397392430883,-3.23941382297208e-05,critical
1500,5.151515151515151,7.189873417721519,cathode,0.0163148704649962,0.0170897839913733,0.015407548210699,-0.0001055308964366,critical
1500,5.252525252525253,7.189873417721519,cathode,0.0165561863388402,0.0173753848981947,0.0155920848392915,5.376348921521407e-05,critical
1500,5.353535353535354,7.189873417721519,cathode,0.0166308315734631,0.0174463334965496,0.0156730891923616,-2.7218201347592705e-05,critical
1500,5.454545454545454,7.189873417721519,cathode,0.0164354051144925,0.0172448407046203,0.0154838715819539,-3.92857264501186e-05,critical
1500,5.555555555555555,7.189873417721519,cathode,0.0166024000449183,0.0173807196379575,0.0156954926706431,1.570172046281222e-05,critical
1500,5.656565656565657,7.189873417721519,cathode,0.0165434450190971,0.0173547981885953,0.0155904023791929,-3.738786684854775e-05,critical
1500,5.757575757575758,7.189873417721519,cathode,0.0166260868644483,0.0175222572362395,0.0155519065912522,0.0001154338975182,critical
1500,5.858585858585858,7.189873417721519,cathode,0.0165342422048143,0.017240833518172,0.015722971982726,6.30559572032075e-06,critical
1500,5.959595959595959,7.189873417721519,cathode,0.0166143456066452,0.0173569724961767,0.0157544521318711,7.919611484065404e-05,critical
1500,6.0606060606060606,7.189873417721519,cathode,0.0166276821621291,0.0174810564439082,0.0156172468264072,4.263160968325944e-06,critical
1500,6.161616161616162,7.189873417721519,cathode,0.01653295481296,0.0173242392156998,0.015607467926447,-3.55118695849537e-05,critical
1500,6.262626262626262,7.189873417721519,cathode,0.0165708443220606,0.0175369931252738,0.015396679985851,1.2518616418288228e-05,critical
1500,6.363636363636363,7.189873417721519,cathode,0.0167828921174106,0.0176544177620782,0.0157484320902043,-3.310198920568461e-05,critical
1500,6.4646464646464645,7.189873417721519,cathode,0.0167275521591778,0.0175421148751326,0.0157721395937341,-2.2391675105828228e-05,critical
1500,6.565656565656566,7.189873417721519,cathode,0.0168788995352915,0.0176922164149468,0.015926529813967,-3.646067185170859e-05,critical
1500,6.666666666666667,7.189873417721519,cathode,0.0168018511502968,0.0176356615709839,0.0158201338201805,5.01165388960147e-05,critical
1500,6.767676767676767,7.189873417721519,cathode,0.0168431263411995,0.0176447920020458,0.0159051078644358,-8.579823014008252e-05,critical
1500,6.8686868686868685,7.189873417721519,cathode,0.0168609103184969,0.0177163858827641,0.0158494954320148,5.549682457634802e-05,critical
1500,6.96969696969697,7.189873417721519,cathode,0.0169341327217537,0.0177260611049333,0.0160118008676869,-8.748950210846851e-07,critical
1500,7.070707070707071,7.189873417721519,cathode,0.0170313734262428,0.0178625587668476,0.0160556485545467,-5.095888332240966e-05,critical
1500,7.171717171717171,7.189873417721519,cathode,0.0170553748113048,0.0178798790345903,0.0160896398868075,3.599148012461513e-06,critical
1500,7.272727272727272,7.189873417721519,cathode,0.0171507679991716,0.0180227045255299,0.0161201696758525,7.050718023878393e-06,critical
1500,7.373737373737374,7.189873417721519,cathode,0.0171629150880315,0.0181450261036509,0.0159741553567429,2.2424594576758712e-05,critical
1500,7.474747474747475,7.189873417721519,cathode,0.0171595851477275,0.0179482044333764,0.0162426440181446,-7.332742980907812e-05,critical
1500,7.575757575757575,7.189873417721519,cathode,0.0172960972304315,0.0181133734711828,0.0163409042425276,9.024196413209578e-05,critical
1500,7.6767676767676765,7.189873417721519,cathode,0.0172698541713624,0.0181698480915505,0.0162007735740203,4.088128742106373e-05,critical
1500,7.777777777777778,7.189873417721519,cathode,0.0174550750864238,0.0182839901678239,0.0164865755965112,-5.341979605380741e-05,critical
1500,7.878787878787879,7.189873417721519,cathode,0.017430638248859,0.0182476436880268,0.0164786061559497,2.5313788040852333e-05,critical
1500,7.979797979797979,7.189873417721519,cathode,0.0175226638545823,0.0183652337367906,0.0165366897701927,9.417222738292186e-07,critical
1500,8.080808080808081,7.189873417721519,cathode,0.0176724952422828,0.0185487649376706,0.0166414445583274,-1.8015949954411685e-05,critical
1500,8.181818181818182,7.189873417721519,cathode,0.0176982596441591,0.0185747566831077,0.016667148828222,-1.99383941411375e-05,critical
1500,8.282828282828282,7.189873417721519,cathode,0.0178648723834668,0.0187546060581858,0.0168171848155895,-1.137222064540409e-05,critical
1500,8.383838383838384,7.189873417721519,cathode,0.0179092548846952,0.0188125654062217,0.0168429640178663,-3.01035724287135e-05,critical
1500,8.484848484848484,7.189873417721519,cathode,0.0181283479355498,0.0190742994849482,0.0170045428370289,3.348438753425927e-05,critical
1500,8.585858585858587,7.189873417721519,cathode,0.0180223504544435,0.0188590445843437,0.0170488755671129,-3.108911239820356e-05,critical
1500,8.686868686868687,7.189873417721519,cathode,0.0182228259998058,0.0191010252271308,0.0171934341515712,-8.218726071258161e-05,critical
1500,8.787878787878787,7.189873417721519,cathode,0.0183618081177027,0.0191661811157544,0.0174343414176653,4.8247164279684136e-05,critical
1500,8.88888888888889,7.189873417721519,cathode,0.018501138251804,0.0193700465588553,0.0174879176172053,-5.140945657693701e-05,critical
1500,8.98989898989899,7.189873417721519,cathode,0.01870167919482,0.0195653926078808,0.0176975256388165,4.016789912200183e-05,critical
1500,9.09090909090909,7.189873417721519,cathode,0.0187192264914107,0.0196179138612697,0.0176673969396998,-4.9842617347669175e-05,critical
1500,9.191919191919192,7.189873417721519,cathode,0.018962848862238,0.0200065395131243,0.0177098664330309,-2.4407448810377448e-05,critical
1500,9.292929292929292,7.189873417721519,cathode,0.0190691328698704,0.020021805604934,0.0179465900163592,-2.69078099724128e-05,critical
1500,9.393939393939394,7.189873417721519,cathode,0.0192321580422643,0.0201537685031313,0.0181542024544434,-2.6108451604104815e-05,critical
1500,9.494949494949497,7.189873417721519,cathode,0.0194433470921855,0.0203848977957843,0.0183397101369322,-5.111047382463155e-05,critical
1500,9.595959595959595,7.189873417721519,cathode,0.0195844517718864,0.0205296403995256,0.0184769645359566,6.28103136137594e-05,critical
1500,9.696969696969695,7.189873417721519,cathode,0.0197138430236128,0.020628901933799,0.0186487669758969,-6.079247786338946e-05,critical
1500,9.797979797979798,7.189873417721519,cathode,0.0199967547481201,0.020957625787811,0.0188721780734742,4.107887708095191e-05,critical
1500,9.8989898989899,7.189873417721519,cathode,0.0203188054696714,0.0213553316244741,0.0190928342843671,-1.961042723679745e-05,critical
1500,10.0,7.189873417721519,cathode,0.0204036682692758,0.0213947109248727,0.0192413318421186,-5.745954209217279e-05,critical
1500,0.0,7.291139240506329,cathode,0.0205624273047778,0.0215253868585212,0.0194406065708671,1.3299301417676586e-05,critical
1500,0.101010101010101,7.291139240506329,cathode,0.0202930762639712,0.0212542673432881,0.0191710132071285,-3.243718806390292e-05,critical
1500,0.202020202020202,7.291139240506329,cathode,0.0201818006813647,0.0212101001274498,0.0189657774915035,-2.617287646923512e-05,critical
1500,0.303030303030303,7.291139240506329,cathode,0.0197397610415751,0.0206197000505694,0.0187228091584414,-2.050992224339875e-05,critical
1500,0.404040404040404,7.291139240506329,cathode,0.0195992833006302,0.0205610548146875,0.0184697910917619,-6.7053708407246505e-06,critical
1500,0.5050505050505051,7.291139240506329,cathode,0.0195685927083348,0.0205010713973881,0.0184788717439826,3.587097198133995e-05,critical
1500,0.6060606060606061,7.291139240506329,cathode,0.019278486771965,0.0203650352062591,0.0179676377886124,1.7904378312758273e-05,critical
1500,0.7070707070707071,7.291139240506329,cathode,0.019064461502245,0.019931110095265,0.0180592879741898,-5.265441407334687e-05,critical
1500,0.8080808080808081,7.291139240506329,cathode,0.0188553270285513,0.0197348383110008,0.0178301265439736,8.319861409497806e-05,critical
1500,0.9090909090909092,7.291139240506329,cathode,0.0187884581048324,0.0196670400165403,0.0177649663131729,-3.6378612479537285e-05,critical
1500,1.0101010101010102,7.291139240506329,cathode,0.0186817956382043,0.0196122433509512,0.0175861858190772,-2.7836651385096696e-06,critical
1500,1.1111111111111112,7.291139240506329,cathode,0.0183939184279864,0.0192666813996087,0.017374899006423,-1.58219796594287e-05,critical
1500,1.2121212121212122,7.291139240506329,cathode,0.0183811403944661,0.0193186171993187,0.0172724117284986,9.220997310888395e-06,critical
1500,1.3131313131313131,7.291139240506329,cathode,0.0183205626200075,0.0192842437480201,0.0171736297952968,5.118738588221089e-05,critical
1500,1.414141414141414,7.291139240506329,cathode,0.0180829069340965,0.0188467020289274,0.0172074945227733,3.584495200767833e-08,critical
1500,1.5151515151515151,7.291139240506329,cathode,0.0180244767952395,0.0189200308870869,0.0169703091235226,-2.2920197435704867e-05,critical
1500,1.616161616161616,7.291139240506329,cathode,0.0179338126662625,0.0188001148559342,0.0169192090137097,1.5887437198935602e-05,critical
1500,1.7171717171717171,7.291139240506329,cathode,0.0178394087883044,0.0187024569619804,0.016828225295905,-2.945185301954292e-05,critical
1500,1.818181818181818,7.291139240506329,cathode,0.0177269763432168,0.0184999055845812,0.0168365357789823,3.90251209508586e-05,critical
1500,1.9191919191919191,7.291139240506329,cathode,0.017667495498581,0.0184862128845655,0.0167153064117324,2.2910687686174985e-05,critical
1500,2.0202020202020203,7.291139240506329,cathode,0.0174803380388912,0.0182730745792871,0.016561313508351,4.462854423524469e-05,critical
1500,2.121212121212121,7.291139240506329,cathode,0.0174377201867969,0.0182443053115134,0.0164997776456566,3.524957039279989e-05,critical
1500,2.2222222222222223,7.291139240506329,cathode,0.017444228816361,0.0183102870285162,0.0164246854622927,-4.049923183452055e-05,critical
1500,2.323232323232323,7.291139240506329,cathode,0.0173457933627767,0.0181950300669608,0.0163488473891367,1.1359265771107756e-05,critical
1500,2.4242424242424243,7.291139240506329,cathode,0.0172143084300392,0.0179712801400271,0.0163411634926153,-3.419308201906517e-05,critical
1500,2.525252525252525,7.291139240506329,cathode,0.0171815920088035,0.0179131933976132,0.0163418084778074,3.595210270668916e-05,critical
1500,2.6262626262626263,7.291139240506329,cathode,0.0171072245182479,0.0180170247615567,0.0160220347902062,-5.082055452747479e-05,critical
1500,2.727272727272727,7.291139240506329,cathode,0.0171664404985569,0.0179864754782328,0.0162076989191592,-3.293516533215167e-05,critical
1500,2.8282828282828283,7.291139240506329,cathode,0.0170145282431852,0.0178376781841394,0.0160502368840297,-9.391845448775649e-06,critical
1500,2.929292929292929,7.291139240506329,cathode,0.0169510678587569,0.0177066183291662,0.016077798062674,-2.715524791351384e-05,critical
1500,3.0303030303030303,7.291139240506329,cathode,0.017038284863429,0.0178760227621912,0.0160526918438845,8.232183586229413e-05,critical
1500,3.131313131313131,7.291139240506329,cathode,0.0168844116822568,0.0177349255761778,0.0158800616041643,6.090102977660733e-05,critical
1500,3.2323232323232323,7.291139240506329,cathode,0.0167997284474777,0.0175722514192562,0.0159024499346096,-1.6232454837266313e-05,critical
1500,3.333333333333333,7.291139240506329,cathode,0.0168204690310588,0.017659922963006,0.0158316412150545,-1.1416802630362945e-07,critical
1500,3.4343434343434343,7.291139240506329,cathode,0.016766290277449,0.0175478083163304,0.0158555469287271,-6.986369544318683e-05,critical
1500,3.5353535353535355,7.291139240506329,cathode,0.0167304713645002,0.0174409382898802,0.0159147894097243,5.9670435222882645e-05,critical
1500,3.636363636363636,7.291139240506329,cathode,0.01669539615114,0.0175080532011501,0.015741983566667,-4.3836487163858426e-05,critical
1500,3.7373737373737375,7.291139240506329,cathode,0.0166715352805744,0.0175609696646927,0.0156104624041669,-1.5846205370381115e-05,critical
1500,3.8383838383838382,7.291139240506329,cathode,0.0166527162947134,0.0174685331076584,0.01569404048718,-6.395333936141434e-05,critical
1500,3.939393939393939,7.291139240506329,cathode,0.0165580018400291,0.0173475206589923,0.0156348410266875,5.299591486258805e-05,critical
1500,4.040404040404041,7.291139240506329,cathode,0.0164934350075666,0.0173094752564009,0.0155336711025359,-8.60940420937607e-06,critical
1500,4.141414141414141,7.291139240506329,cathode,0.0165918488143561,0.017403616747209,0.0156377573511509,7.670711945057817e-05,critical
1500,4.242424242424242,7.291139240506329,cathode,0.0166182524858943,0.0174037483458545,0.0157014162072657,4.035108460124285e-05,critical
1500,4.343434343434343,7.291139240506329,cathode,0.0163798263396771,0.0171062532557304,0.0155403980040281,-5.423497317548794e-05,critical
1500,4.444444444444445,7.291139240506329,cathode,0.016525826926046,0.0172525777221138,0.0156859957550804,-9.113290097626155e-05,critical
1500,4.545454545454545,7.291139240506329,cathode,0.0164027822494375,0.0172517017593348,0.0153960248790273,5.754594555465249e-06,critical
1500,4.646464646464646,7.291139240506329,cathode,0.0165287683939471,0.0174613006649937,0.0154025074293665,-6.768016625630292e-05,critical
1500,4.747474747474747,7.291139240506329,cathode,0.0166077322783735,0.0174244774300236,0.0156471554028817,-6.926201551763178e-05,critical
1500,4.848484848484849,7.291139240506329,cathode,0.0166872105229761,0.0175285742380953,0.015694060139663,3.191031998073359e-05,critical
1500,4.94949494949495,7.291139240506329,cathode,0.0164015528517921,0.0171535053399139,0.015528553818904,-2.1115955950384305e-05,critical
1500,5.05050505050505,7.291139240506329,cathode,0.0164307471805996,0.0171988566826504,0.0155360684098959,2.5652024727201905e-05,critical
1500,5.151515151515151,7.291139240506329,cathode,0.0166428438221837,0.0174958294488606,0.015632570998928,-5.073589755615971e-05,critical
1500,5.252525252525253,7.291139240506329,cathode,0.0165804380789412,0.0174296031338273,0.0155753297385311,1.61353029824713e-05,critical
1500,5.353535353535354,7.291139240506329,cathode,0.0165452690041615,0.0173891733543202,0.0155469906496788,-3.1484162831882715e-05,critical
1500,5.454545454545454,7.291139240506329,cathode,0.0165062471502595,0.0172151356213663,0.0156915964178459,2.622233034502455e-05,critical
1500,5.555555555555555,7.291139240506329,cathode,0.0165071452763161,0.0173057144507067,0.0155715084460285,2.7664495944705637e-05,critical
1500,5.656565656565657,7.291139240506329,cathode,0.0165172376060545,0.0173489755815337,0.0155358804105215,-8.448983094226818e-06,critical
1500,5.757575757575758,7.291139240506329,cathode,0.0165769864780278,0.0173424166641265,0.0156873802555981,9.136337537175548e-06,critical
1500,5.858585858585858,7.291139240506329,cathode,0.0165486898487636,0.0172971649547447,0.0156817137176568,-9.3819644472009e-06,critical
1500,5.959595959595959,7.291139240506329,cathode,0.016575450695081,0.0174408283964945,0.0155474660263281,4.386144129286187e-06,critical
1500,6.0606060606060606,7.291139240506329,cathode,0.0167940589313903,0.0176224722820453,0.0158202841186743,2.224064951068255e-06,critical
1500,6.161616161616162,7.291139240506329,cathode,0.0166724181384201,0.017509680254712,0.0156850369635777,-8.591213610174026e-06,critical
1500,6.262626262626262,7.291139240506329,cathode,0.0166108034198896,0.0173944910720381,0.0156965353875753,2.882178983545113e-05,critical
1500,6.363636363636363,7.291139240506329,cathode,0.0166985299827237,0.0173680037209551,0.0159368253399036,-2.4428275116958268e-05,critical
1500,6.4646464646464645,7.291139240506329,cathode,0.0167440803171479,0.0176091362090526,0.0157179355992,-5.265304347846085e-05,critical
1500,6.565656565656566,7.291139240506329,cathode,0.0167348483885757,0.0175914279423358,0.0157199736552068,-7.308814042459009e-05,critical
1500,6.666666666666667,7.291139240506329,cathode,0.0168401193682432,0.0176068615501987,0.0159508022834283,-3.425698326623634e-05,critical
1500,6.767676767676767,7.291139240506329,cathode,0.0167307839120263,0.0175684230201395,0.0157435228511513,3.6872980100399997e-07,critical
1500,6.8686868686868685,7.291139240506329,cathode,0.0169130200820685,0.0177622017747639,0.0159104097702228,-7.57320066597903e-05,critical
1500,6.96969696969697,7.291139240506329,cathode,0.0168641738840569,0.0176041612506296,0.0160093340694624,-9.30744861242555e-05,critical
1500,7.070707070707071,7.291139240506329,cathode,0.0169335611686308,0.0176621220540753,0.0160962110847189,-7.569705991784141e-06,critical
1500,7.171717171717171,7.291139240506329,cathode,0.0169692945764336,0.0178470934787089,0.0159277414413492,-5.5244215379870936e-05,critical
1500,7.272727272727272,7.291139240506329,cathode,0.0170031373506132,0.017850231762793,0.0160049162249426,5.781110121848023e-05,critical
1500,7.373737373737374,7.291139240506329,cathode,0.0170947338823369,0.0178681588878024,0.0161985081252928,3.947957733456626e-05,critical
1500,7.474747474747475,7.291139240506329,cathode,0.0172492686089712,0.0180783166740544,0.0162791722697207,-1.0254646078616156e-05,critical
1500,7.575757575757575,7.291139240506329,cathode,0.0172350994100406,0.0181040966656103,0.016209416866635,-2.575711295676089e-05,critical
1500,7.6767676767676765,7.291139240506329,cathode,0.0173004538165655,0.0182188577495345,0.0162056862584994,-3.535595005992315e-05,critical
1500,7.777777777777778,7.291139240506329,cathode,0.0174636405165047,0.0182984797578792,0.0164869135029891,-6.195371793533551e-05,critical
1500,7.878787878787879,7.291139240506329,cathode,0.0173690666651653,0.0181916672083012,0.0164089560183442,-7.083097011582972e-06,critical
1500,7.979797979797979,7.291139240506329,cathode,0.0175296279333217,0.0182792487196329,0.016667900615489,-7.002804990254264e-05,critical
1500,8.080808080808081,7.291139240506329,cathode,0.0176096917031449,0.0184996788781475,0.0165582927751108,-5.526532621851208e-05,critical
1500,8.181818181818182,7.291139240506329,cathode,0.0175595666668207,0.0184173917798519,0.0165529500293057,4.922171165391953e-06,critical
1500,8.282828282828282,7.291139240506329,cathode,0.0177020274647343,0.0186123807369155,0.0166234121643021,-3.874717494071809e-05,critical
1500,8.383838383838384,7.291139240506329,cathode,0.0178881946411685,0.0187735447552638,0.0168459372262576,-6.802027378005665e-05,critical
1500,8.484848484848484,7.291139240506329,cathode,0.0180130628424306,0.0188276934643727,0.0170691692917825,4.057331884918563e-05,critical
1500,8.585858585858587,7.291139240506329,cathode,0.0180368089106377,0.0189055855008858,0.0170187262096121,7.583803313213677e-05,critical
1500,8.686868686868687,7.291139240506329,cathode,0.0183663245473899,0.0192873520300513,0.0172799906937842,-4.8697223365810994e-05,critical
1500,8.787878787878787,7.291139240506329,cathode,0.0184158557728595,0.019267464625585,0.0174252480898516,-5.6659565165669405e-05,critical
1500,8.88888888888889,7.291139240506329,cathode,0.018596947207365,0.0194766552651837,0.0175703509789727,1.6129643086099076e-05,critical
1500,8.98989898989899,7.291139240506329,cathode,0.0186735186999076,0.0194407248782297,0.0177976299252566,-2.389386150253522e-05,critical
1500,9.09090909090909,7.291139240506329,cathode,0.018706629275338,0.0195788464387771,0.0176908197900826,-4.996723141394194e-05,critical
1500,9.191919191919192,7.291139240506329,cathode,0.0190158624289544,0.0199485285449208,0.0179204702997417,3.157191938072784e-05,critical
1500,9.292929292929292,7.291139240506329,cathode,0.0191375748885935,0.0200064606520769,0.0181303425706035,-3.14553304354786e-05,critical
1500,9.393939393939394,7.291139240506329,cathode,0.0192298940861825,0.0201920730431185,0.0180959622319577,-7.184704274271935e-06,critical
1500,9.494949494949497,7.291139240506329,cathode,0.0194980846777602,0.0204108915603307,0.018434131535181,-5.962698109665052e-05,critical
1500,9.595959595959595,7.291139240506329,cathode,0.019573910753116,0.0205336814877624,0.0184461980008869,6.335206536822974e-05,critical
1500,9.696969696969695,7.291139240506329,cathode,0.0197720081002477,0.0207757486419067,0.0185856900122242,-3.7962632715873645e-05,critical
1500,9.797979797979798,7.291139240506329,cathode,0.0200734170697891,0.0209603236555519,0.0190496198093886,-4.1178270807895576e-05,critical
1500,9.8989898989899,7.291139240506329,cathode,0.0201747046373368,0.0210812126459285,0.019124805870393,-7.545499002702796e-05,critical
1500,10.0,7.291139240506329,cathode,0.0204871012755762,0.0215283526515753,0.0192549054847327,9.37391899772874e-05,critical
1500,0.0,7.3924050632911396,cathode,0.0204074553301529,0.0213662486113371,0.0192899110281592,-2.6188194944600185e-06,critical
1500,0.101010101010101,7.3924050632911396,cathode,0.0202764782677849,0.0212269960118349,0.0191689275159378,1.980806387720024e-05,critical
1500,0.202020202020202,7.3924050632911396,cathode,0.0201549452736092,0.0210798898198308,0.0190803073032819,6.509751659577214e-05,critical
1500,0.303030303030303,7.3924050632911396,cathode,0.0198517576551279,0.0207993679624579,0.0187442506126487,8.346724545391516e-06,critical
1500,0.404040404040404,7.3924050632911396,cathode,0.0194905390168707,0.0204469088123608,0.0183669204061094,-5.168071984491807e-05,critical
1500,0.5050505050505051,7.3924050632911396,cathode,0.0194527440398015,0.0204144542739321,0.0183209659000923,-6.840196129755494e-05,critical
1500,0.6060606060606061,7.3924050632911396,cathode,0.019252311612792,0.0201477710020076,0.0182100456358687,-4.038743152834052e-05,critical
1500,0.7070707070707071,7.3924050632911396,cathode,0.0192048376008134,0.020014151945544,0.0182774716520337,-2.333814883931078e-05,critical
1500,0.8080808080808081,7.3924050632911396,cathode,0.0189336835824136,0.0198011174563457,0.0179265344556663,4.040722148382282e-05,critical
1500,0.9090909090909092,7.3924050632911396,cathode,0.0187401750567154,0.0195230805766133,0.0178442249216535,2.132192531774005e-05,critical
1500,1.0101010101010102,7.3924050632911396,cathode,0.0185986442926779,0.019470080650942,0.0175833839679121,3.704955117491174e-06,critical
1500,1.1111111111111112,7.3924050632911396,cathode,0.0186071078776787,0.0195389906645683,0.0175048917296104,0.0001402248257128,critical
1500,1.2121212121212122,7.3924050632911396,cathode,0.0184091671712225,0.019245738742792,0.017439210410486,3.368422874689905e-05,critical
1500,1.3131313131313131,7.3924050632911396,cathode,0.0182569736175941,0.0191604253292636,0.0171934872997982,-6.760400467609554e-05,critical
1500,1.414141414141414,7.3924050632911396,cathode,0.0181236407586927,0.0189824957775012,0.0171209411916612,-3.04137936245926e-05,critical
1500,1.5151515151515151,7.3924050632911396,cathode,0.018007932034345,0.0188830206086136,0.0169817840190906,-3.434132950512784e-05,critical
1500,1.616161616161616,7.3924050632911396,cathode,0.0179254081263078,0.0187326481241918,0.0169822266863155,-0.0002115060318416,critical
1500,1.7171717171717171,7.3924050632911396,cathode,0.0178695280580275,0.0187082862562745,0.0168914983237844,-5.2689930252582176e-05,critical
1500,1.818181818181818,7.3924050632911396,cathode,0.0176567350463883,0.0184675536077333,0.0167149910251683,3.570285924433354e-05,critical
1500,1.9191919191919191,7.3924050632911396,cathode,0.0176978524110072,0.0185575111705569,0.0166894643121178,-5.615601401890972e-05,critical
1500,2.0202020202020203,7.3924050632911396,cathode,0.0175801374602354,0.0183187593062274,0.0167342275821605,8.26807040921134e-06,critical
1500,2.121212121212121,7.3924050632911396,cathode,0.0175000878305522,0.0184289824813667,0.0163926769202568,-4.537970440715628e-05,critical
1500,2.2222222222222223,7.3924050632911396,cathode,0.0174264546383171,0.0183406815466331,0.0163392493415139,2.956070530249548e-05,critical
1500,2.323232323232323,7.3924050632911396,cathode,0.0174147531439435,0.0182965178710467,0.0163732787913453,1.6232614492364565e-05,critical
1500,2.4242424242424243,7.3924050632911396,cathode,0.0173716353674646,0.0181026481498641,0.0165337604933054,4.985999336018028e-05,critical
1500,2.525252525252525,7.3924050632911396,cathode,0.0172114515234516,0.018046182223385,0.0162331421564482,-1.536062529476861e-05,critical
1500,2.6262626262626263,7.3924050632911396,cathode,0.0170536931640324,0.0178918729044998,0.0160683817405579,5.740680838320644e-05,critical
1500,2.727272727272727,7.3924050632911396,cathode,0.0170872646533969,0.017857401353366,0.0161947493972295,6.846411340583855e-05,critical
1500,2.8282828282828283,7.3924050632911396,cathode,0.0169616477415224,0.0177290357286,0.0160727335821239,5.458123251773272e-06,critical
1500,2.929292929292929,7.3924050632911396,cathode,0.0170562809155741,0.0179579113043564,0.0159820296948272,5.397163701100989e-05,critical
1500,3.0303030303030303,7.3924050632911396,cathode,0.0169211197397236,0.0176993952803649,0.016017131496602,-1.5707662286964444e-05,critical
1500,3.131313131313131,7.3924050632911396,cathode,0.016888568806096,0.0177966176625412,0.0158036330002031,-1.359252479037628e-05,critical
1500,3.2323232323232323,7.3924050632911396,cathode,0.0168068644713933,0.01757090850681,0.0159195460305992,-8.719433914270935e-05,critical
1500,3.333333333333333,7.3924050632911396,cathode,0.0168182580339477,0.0176799703806966,0.0157972668265123,-6.836430552179269e-05,critical
1500,3.4343434343434343,7.3924050632911396,cathode,0.0167791996030066,0.0175926306151593,0.0158258712655888,-2.155133153501656e-05,critical
1500,3.5353535353535355,7.3924050632911396,cathode,0.0168442981387886,0.0177585699633363,0.0157495940579668,-3.7092800252517576e-05,critical
1500,3.636363636363636,7.3924050632911396,cathode,0.016677453867066,0.0174504703723924,0.0157783887769546,-2.085465557435404e-05,critical
1500,3.7373737373737375,7.3924050632911396,cathode,0.0167151881386659,0.0175779300945196,0.0156925471294326,-1.0787953714026588e-05,critical
1500,3.8383838383838382,7.3924050632911396,cathode,0.016623616309385,0.0174155145603341,0.0156969524786065,-8.298419298307598e-05,critical
1500,3.939393939393939,7.3924050632911396,cathode,0.0166642262749713,0.0174406843409666,0.0157604236184964,-1.399806957425742e-05,critical
1500,4.040404040404041,7.3924050632911396,cathode,0.0166203410561813,0.0173817435459981,0.0157352030870695,-8.036715178125664e-05,critical
1500,4.141414141414141,7.3924050632911396,cathode,0.0164743720801125,0.0171388292607036,0.0157178349669629,1.184348559642742e-05,critical
1500,4.242424242424242,7.3924050632911396,cathode,0.0166382323152368,0.0174151136854761,0.0157324382109527,7.566996268323308e-05,critical
1500,4.343434343434343,7.3924050632911396,cathode,0.0165453279552679,0.0173448895223517,0.0156085253870005,-3.986766647408609e-05,critical
1500,4.444444444444445,7.3924050632911396,cathode,0.0165661475544563,0.0173191881337942,0.0156931316529016,-1.718150131434489e-05,critical
1500,4.545454545454545,7.3924050632911396,cathode,0.016591226836645,0.0173384851055537,0.0157262194401415,-1.3974257062824027e-05,critical
1500,4.646464646464646,7.3924050632911396,cathode,0.0163818702219386,0.0171363158339257,0.0155045869009626,-6.227532503996396e-05,critical
1500,4.747474747474747,7.3924050632911396,cathode,0.0164749131473403,0.0172335132411586,0.0155918990162668,9.067854835995346e-05,critical
1500,4.848484848484849,7.3924050632911396,cathode,0.0165711996023908,0.0174542192038104,0.01551807390119,6.686731124088663e-06,critical
1500,4.94949494949495,7.3924050632911396,cathode,0.0164957036957329,0.0174658760939051,0.0153143871732631,7.000463485884337e-06,critical
1500,5.05050505050505,7.3924050632911396,cathode,0.016544843936949,0.0172660649307063,0.0157142107406989,1.8497632676432937e-05,critical
1500,5.151515151515151,7.3924050632911396,cathode,0.0167309066583239,0.0175152688857141,0.0158169497625351,-1.6550153650557022e-05,critical
1500,5.252525252525253,7.3924050632911396,cathode,0.0164928942017016,0.0172778331406307,0.0155756563327482,-3.8996111765125066e-05,critical
1500,5.353535353535354,7.3924050632911396,cathode,0.0166175099684431,0.0174683061986333,0.0156100493163304,-4.9657752843813e-05,critical
1500,5.454545454545454,7.3924050632911396,cathode,0.0164442167516739,0.0171855974925736,0.0155849721981831,-6.634282695713193e-05,critical
1500,5.555555555555555,7.3924050632911396,cathode,0.0166166334426481,0.0174044489701797,0.0156961327280828,6.224009756583623e-05,critical
1500,5.656565656565657,7.3924050632911396,cathode,0.0165951312959394,0.0175044943853566,0.0155009306335556,-0.0001267040897269,critical
1500,5.757575757575758,7.3924050632911396,cathode,0.0165306507483227,0.017267031299782,0.0156790497069586,5.798443177420925e-05,critical
1500,5.858585858585858,7.3924050632911396,cathode,0.0165796507191046,0.0173847709597254,0.0156357706373475,-2.2542779617667684e-05,critical
1500,5.959595959595959,7.3924050632911396,cathode,0.0166681048356517,0.0174667936487444,0.0157340420835626,2.857235789281755e-06,critical
1500,6.0606060606060606,7.3924050632911396,cathode,0.016721830683442,0.017554330700615,0.0157415413858391,-1.994226250195782e-05,critical
1500,6.161616161616162,7.3924050632911396,cathode,0.0165910585526466,0.0173970570732179,0.0156461509142208,-1.3797208079341032e-05,critical
1500,6.262626262626262,7.3924050632911396,cathode,0.0166519620701766,0.0175258038956493,0.0156106852548168,0.000100586489337,critical
1500,6.363636363636363,7.3924050632911396,cathode,0.0166275808168659,0.0175093481633875,0.0155741540583041,0.0001128152471612,critical
1500,6.4646464646464645,7.3924050632911396,cathode,0.0166860295979077,0.0174761249529624,0.0157638202828994,1.917862645533046e-05,critical
1500,6.565656565656566,7.3924050632911396,cathode,0.0168412227829961,0.0177795708449918,0.0157100429795493,-9.312555664729176e-05,critical
1500,6.666666666666667,7.3924050632911396,cathode,0.0167976532567786,0.0176257494032757,0.0158228742501672,8.322608620795735e-05,critical
1500,6.767676767676767,7.3924050632911396,cathode,0.0168817781906266,0.017810802857065,0.015766219618437,4.116970029213522e-05,critical
1500,6.8686868686868685,7.3924050632911396,cathode,0.0169197668945864,0.0177743885652954,0.01590939298346,8.280604019133867e-05,critical
1500,6.96969696969697,7.3924050632911396,cathode,0.0170061099896396,0.0178843426859176,0.0159645204379036,-4.8666168764016086e-05,critical
1500,7.070707070707071,7.3924050632911396,cathode,0.0169528128463256,0.0177675721326886,0.0159987696642745,-5.746647140076456e-05,critical
1500,7.171717171717171,7.3924050632911396,cathode,0.0169010766864682,0.0176565168622341,0.0160265295670521,-7.493338302676057e-05,critical
1500,7.272727272727272,7.3924050632911396,cathode,0.0171957921023703,0.018014816157315,0.0162367875063494,0.0001018793927692,critical
1500,7.373737373737374,7.3924050632911396,cathode,0.017249219723048,0.0180810711364378,0.0162752702950231,1.0714570575741635e-05,critical
1500,7.474747474747475,7.3924050632911396,cathode,0.0170879908412202,0.0179295550598732,0.0160976412808751,8.160313802429636e-05,critical
1500,7.575757575757575,7.3924050632911396,cathode,0.0172469851915279,0.0181783890584883,0.0161324651380932,-5.906424744420823e-05,critical
1500,7.6767676767676765,7.3924050632911396,cathode,0.0172789690701699,0.018236797204471,0.0161264756149325,-6.843367652114047e-05,critical
1500,7.777777777777778,7.3924050632911396,cathode,0.0173543988111636,0.0181971239593893,0.0163656250566695,6.698765346410242e-05,critical
1500,7.878787878787879,7.3924050632911396,cathode,0.0173867736553959,0.0183104012127064,0.016285061806998,6.293641181895857e-05,critical
1500,7.979797979797979,7.3924050632911396,cathode,0.0175210322009961,0.0183707907863973,0.0165251128579957,1.4734733458259648e-05,critical
1500,8.080808080808081,7.3924050632911396,cathode,0.017719332259774,0.0185904251446629,0.0166957872889181,3.3162740138223325e-05,critical
1500,8.181818181818182,7.3924050632911396,cathode,0.017736807623285,0.0186321273352454,0.0166794041655553,-5.302389186867379e-05,critical
1500,8.282828282828282,7.3924050632911396,cathode,0.0178512058523453,0.0187521353245281,0.0167877537670899,1.322931440585473e-05,critical
1500,8.383838383838384,7.3924050632911396,cathode,0.0180653646067791,0.0190095495922902,0.0169435202658171,-8.802215579645515e-06,critical
1500,8.484848484848484,7.3924050632911396,cathode,0.0179446219215773,0.0187913129031074,0.0169563881889335,-5.689474744606233e-05,critical
1500,8.585858585858587,7.3924050632911396,cathode,0.0181124017308647,0.0189725310107691,0.0171070812496921,-6.967576240129636e-05,critical
1500,8.686868686868687,7.3924050632911396,cathode,0.0182826888077009,0.0191464627513818,0.0172746037291858,4.201981484527749e-05,critical
1500,8.787878787878787,7.3924050632911396,cathode,0.0184052873717391,0.0193415160309377,0.0172978188853527,6.288598709276461e-05,critical
1500,8.88888888888889,7.3924050632911396,cathode,0.0185025654450898,0.0193532366169278,0.0175145469835683,-1.804134798987212e-05,critical
1500,8.98989898989899,7.3924050632911396,cathode,0.0186639939243643,0.0196102973385994,0.0175459502018561,-2.476261342626532e-05,critical
1500,9.09090909090909,7.3924050632911396,cathode,0.0188625719088286,0.0197672895809813,0.0178040866110916,-3.61356169046336e-05,critical
1500,9.191919191919192,7.3924050632911396,cathode,0.0188344716173845,0.019741003417757,0.0177717776933831,-9.44227511991231e-05,critical
1500,9.292929292929292,7.3924050632911396,cathode,0.0191068484108297,0.0200422204574043,0.0180065559763563,0.0001100935334172,critical
1500,9.393939393939394,7.3924050632911396,cathode,0.0191798196585811,0.020139650609131,0.0180482066546608,4.7497981500954793e-05,critical
1500,9.494949494949497,7.3924050632911396,cathode,0.0193935462188833,0.0203237071700212,0.0183054936996577,1.7849159588339405e-05,critical
1500,9.595959595959595,7.3924050632911396,cathode,0.0196714099834617,0.0205619204653234,0.0186372992587055,0.0001176703057128,critical
1500,9.696969696969695,7.3924050632911396,cathode,0.0197564693749901,0.020783998024423,0.0185366286096975,-2.683576756638399e-05,critical
1500,9.797979797979798,7.3924050632911396,cathode,0.0200455535554,0.0209608213785733,0.0189837323000881,-1.54302445824102e-05,critical
1500,9.8989898989899,7.3924050632911396,cathode,0.0202269213478177,0.0211458242656206,0.0191614320154632,-4.568198659236404e-05,critical
1500,10.0,7.3924050632911396,cathode,0.0204804649596022,0.0214102154569155,0.0194028624651101,1.3077574628992035e-05,critical
1500,0.0,7.493670886075949,cathode,0.0205684718556747,0.0216413059647572,0.0192931837683931,7.887471614802877e-05,critical
1500,0.101010101010101,7.493670886075949,cathode,0.020146563250036,0.0210817860585702,0.0190556677575857,-0.0001308237357406,critical
1500,0.202020202020202,7.493670886075949,cathode,0.0200680040309498,0.0211573134887765,0.0187637784258726,-3.9299273685275686e-05,critical
1500,0.303030303030303,7.493670886075949,cathode,0.0198231934179475,0.0205936912733462,0.0189495491801515,6.98295009598837e-05,critical
1500,0.404040404040404,7.493670886075949,cathode,0.0196806339240455,0.02057813576888,0.0186358888301755,0.0001451182968909,critical
1500,0.5050505050505051,7.493670886075949,cathode,0.0195396017577189,0.0204566563358474,0.0184702851642202,5.7995371155679456e-05,critical
1500,0.6060606060606061,7.493670886075949,cathode,0.0193215888934449,0.0202490753048105,0.0182363262107771,3.603575374864856e-05,critical
1500,0.7070707070707071,7.493670886075949,cathode,0.0191624635335729,0.0199778445879967,0.0182263534504947,5.486599092746066e-05,critical
1500,0.8080808080808081,7.493670886075949,cathode,0.0188311545884596,0.0196254868795532,0.0179208688405177,1.7167563255622153e-05,critical
1500,0.9090909090909092,7.493670886075949,cathode,0.0187945886289988,0.0196702205600925,0.0177724472378648,0.0001252478733359,critical
1500,1.0101010101010102,7.493670886075949,cathode,0.0187061802544142,0.0196469626401302,0.0175964358387006,8.215542823329016e-07,critical
1500,1.1111111111111112,7.493670886075949,cathode,0.0186001744619451,0.0194356456084897,0.0176304873081268,0.0001264783244924,critical
1500,1.2121212121212122,7.493670886075949,cathode,0.0183291754306282,0.0192108962129991,0.017297308223193,-4.46960088229179e-06,critical
1500,1.3131313131313131,7.493670886075949,cathode,0.0182500836956386,0.0190937385785014,0.0172690221997918,-4.385447875928908e-05,critical
1500,1.414141414141414,7.493670886075949,cathode,0.018149813208947,0.0189705237143887,0.0171984340579844,6.355213604458455e-05,critical
1500,1.5151515151515151,7.493670886075949,cathode,0.0180735961240379,0.0189437728745,0.0170549043924825,-3.064585332417525e-05,critical
1500,1.616161616161616,7.493670886075949,cathode,0.0179880036414568,0.018839408157768,0.0169943732293163,-7.904963048444171e-06,critical
1500,1.7171717171717171,7.493670886075949,cathode,0.0179480045879675,0.0187143737773507,0.0170682086816047,7.576056062854155e-06,critical
1500,1.818181818181818,7.493670886075949,cathode,0.0177148211985273,0.0185814241113999,0.0166976554916907,5.401420862803999e-06,critical
1500,1.9191919191919191,7.493670886075949,cathode,0.0175511217071173,0.0183396572903833,0.01663857807756,-2.8183612320920253e-05,critical
1500,2.0202020202020203,7.493670886075949,cathode,0.0176330970913696,0.0184222428289983,0.0167202791940518,-3.825065365321608e-05,critical
1500,2.121212121212121,7.493670886075949,cathode,0.0174897358260645,0.0183609774874223,0.0164637541567543,-1.6160326623217413e-05,critical
1500,2.2222222222222223,7.493670886075949,cathode,0.0174747123515253,0.0182961076759025,0.0165167946155683,-4.677625704728444e-05,critical
1500,2.323232323232323,7.493670886075949,cathode,0.0173618630735003,0.0181811252027745,0.0164048946744031,8.13438778751236e-05,critical
1500,2.4242424242424243,7.493670886075949,cathode,0.017244603534285,0.0180214931342619,0.0163447621804852,5.13320775711762e-05,critical
1500,2.525252525252525,7.493670886075949,cathode,0.0171354982728631,0.01802119534408,0.0160853866927518,-4.088585365731141e-06,critical
1500,2.6262626262626263,7.493670886075949,cathode,0.0171186102001732,0.01795724784442,0.0161327702063031,7.733804976645956e-05,critical
1500,2.727272727272727,7.493670886075949,cathode,0.0169705413246795,0.0177043849903935,0.0161262861413835,-3.108355999516628e-05,critical
1500,2.8282828282828283,7.493670886075949,cathode,0.017065004406445,0.0179078826926026,0.0160721685823872,-9.312985274951883e-05,critical
1500,2.929292929292929,7.493670886075949,cathode,0.0170299691778023,0.0177979430414673,0.0161408345595503,7.906609737923053e-06,critical
1500,3.0303030303030303,7.493670886075949,cathode,0.016839100211339,0.0177023403636069,0.0158171043286643,-2.173037332775144e-05,critical
1500,3.131313131313131,7.493670886075949,cathode,0.0169925889895837,0.0177255179841668,0.0161478737910567,9.948547538167557e-05,critical
1500,3.2323232323232323,7.493670886075949,cathode,0.0167432140054669,0.0176191478200482,0.0157017676945977,-4.865744279541595e-05,critical
1500,3.333333333333333,7.493670886075949,cathode,0.0166740248206073,0.0174924050506832,0.0157125126589024,-4.262627671798927e-05,critical
1500,3.4343434343434343,7.493670886075949,cathode,0.0168580770710881,0.0176550085481768,0.0159282260686946,2.4085405682698826e-06,critical
1500,3.5353535353535355,7.493670886075949,cathode,0.0167100784324032,0.0174862657122475,0.0158070637476108,-1.2716889950988932e-05,critical
1500,3.636363636363636,7.493670886075949,cathode,0.0166990093605597,0.0174449527721223,0.0158365548968238,-2.5933572713882636e-05,critical
1500,3.7373737373737375,7.493670886075949,cathode,0.0165518049149521,0.0173589079337705,0.0156049730957021,-1.4913631192097684e-05,critical
1500,3.8383838383838382,7.493670886075949,cathode,0.0165657441122848,0.0174059571877945,0.0155729218770945,2.7374330126431e-05,critical
1500,3.939393939393939,7.493670886075949,cathode,0.0166811359400102,0.017496988166535,0.0157220828325693,8.348658537067714e-05,critical
1500,4.040404040404041,7.493670886075949,cathode,0.0165793522407846,0.0173710211195273,0.0156535803924378,-4.705486049909397e-05,critical
1500,4.141414141414141,7.493670886075949,cathode,0.0166674532061275,0.0174940373390117,0.0156929494904904,-9.492908668327416e-05,critical
1500,4.242424242424242,7.493670886075949,cathode,0.0165834833394178,0.0173791745492508,0.0156490216915573,0.0001309086897797,critical
1500,4.343434343434343,7.493670886075949,cathode,0.0165309579384726,0.017405266349385,0.0154893761708595,4.170270875389897e-05,critical
1500,4.444444444444445,7.493670886075949,cathode,0.0166299213225898,0.0175249558934359,0.0155603247755619,-1.2940723135412509e-05,critical
1500,4.545454545454545,7.493670886075949,cathode,0.0163352667078592,0.0171193310409175,0.0154169478759059,-7.070042002504693e-05,critical
1500,4.646464646464646,7.493670886075949,cathode,0.0164111482989252,0.0170916653000018,0.0156332720711449,-8.63897108036944e-06,critical
1500,4.747474747474747,7.493670886075949,cathode,0.0164951580547201,0.0173088636709926,0.0155384522397755,3.125773455869619e-05,critical
1500,4.848484848484849,7.493670886075949,cathode,0.0165208845881941,0.0172809460058679,0.0156378327066947,-3.2982870932659864e-05,critical
1500,4.94949494949495,7.493670886075949,cathode,0.0166731900219531,0.0175239074153747,0.0156660411103456,-6.669412178277772e-05,critical
1500,5.05050505050505,7.493670886075949,cathode,0.0166045928918701,0.017390433141694,0.0156869100413321,-5.276955474055239e-05,critical
1500,5.151515151515151,7.493670886075949,cathode,0.0164120596107245,0.0172272258066053,0.0154526104054685,-1.6654203861565348e-05,critical
1500,5.252525252525253,7.493670886075949,cathode,0.0164554487104812,0.0172233953318108,0.0155596146991631,-8.987230823948191e-05,critical
1500,5.353535353535354,7.493670886075949,cathode,0.0164149360595737,0.0171490420613288,0.0155659586591849,-2.996114417535775e-05,critical
1500,5.454545454545454,7.493670886075949,cathode,0.0166404547836781,0.0174204142551709,0.0157297975790424,-9.479923545392912e-05,critical
1500,5.555555555555555,7.493670886075949,cathode,0.0164607538699515,0.0171924383043907,0.0156145672610883,-6.893632765172524e-05,critical
1500,5.656565656565657,7.493670886075949,cathode,0.0166257956168961,0.0174527398672307,0.0156522955137002,3.563659529397246e-06,critical
1500,5.757575757575758,7.493670886075949,cathode,0.0165315170557359,0.0172684331099494,0.0156799212726839,-2.20909796294734e-06,critical
1500,5.858585858585858,7.493670886075949,cathode,0.016424323968111,0.0173053774060521,0.0153708520405987,7.666769144670263e-05,critical
1500,5.959595959595959,7.493670886075949,cathode,0.0166683092647749,0.0174750423701324,0.01572305613996,2.5857053821759824e-05,critical
1500,6.0606060606060606,7.493670886075949,cathode,0.0167895242019211,0.0176250504175419,0.0158058299252526,1.8622262105418848e-06,critical
1500,6.161616161616162,7.493670886075949,cathode,0.0166146843424271,0.0173603922207093,0.0157517736553804,3.22142852976235e-05,critical
1500,6.262626262626262,7.493670886075949,cathode,0.0166896400893566,0.0173821427436946,0.015897953391804,-1.6052944216078885e-05,critical
1500,6.363636363636363,7.493670886075949,cathode,0.016680725915686,0.0173988072488155,0.0158551475389483,3.202000770397567e-05,critical
1500,6.4646464646464645,7.493670886075949,cathode,0.016730703558991,0.0175938587116405,0.0157070530014829,-5.3958337670754186e-05,critical
1500,6.565656565656566,7.493670886075949,cathode,0.0167084305514386,0.0174767108154407,0.0158161264173352,9.006160802836492e-06,critical
1500,6.666666666666667,7.493670886075949,cathode,0.016890200935676,0.0176462170652168,0.0160158854701946,-1.927899612777449e-05,critical
1500,6.767676767676767,7.493670886075949,cathode,0.0168864735173434,0.0177372905149611,0.0158824718136592,1.4361785954171544e-05,critical
1500,6.8686868686868685,7.493670886075949,cathode,0.0168870063156318,0.0176868718288757,0.0159533488657773,1.865306280962078e-05,critical
1500,6.96969696969697,7.493670886075949,cathode,0.0169436094301189,0.0176633218235984,0.0161175965851242,-4.596557254813002e-05,critical
1500,7.070707070707071,7.493670886075949,cathode,0.0170585019326918,0.0178674497472969,0.016114071555058,1.6221059223314623e-05,critical
1500,7.171717171717171,7.493670886075949,cathode,0.0169741680444991,0.0177548512061059,0.0160645462048489,-0.000117788291599,critical
1500,7.272727272727272,7.493670886075949,cathode,0.0169654492357145,0.0177546600295153,0.0160469405851843,-2.700287195078397e-05,critical
1500,7.373737373737374,7.493670886075949,cathode,0.0170584090858075,0.0177946574259258,0.0162113170824534,-5.006658958242312e-05,critical
1500,7.474747474747475,7.493670886075949,cathode,0.0172442869432175,0.0181371550332698,0.0161850627702106,-3.547435700664994e-05,critical
1500,7.575757575757575,7.493670886075949,cathode,0.017245076649293,0.0180848544537647,0.0162596101536844,-5.3131223337526095e-05,critical
1500,7.6767676767676765,7.493670886075949,cathode,0.0172662036346207,0.0180923432397958,0.0163001910948356,2.1027596761191475e-05,critical
1500,7.777777777777778,7.493670886075949,cathode,0.017305650229843,0.0180535913633849,0.0164445903001716,-6.514608881451645e-05,critical
1500,7.878787878787879,7.493670886075949,cathode,0.0173937556903743,0.0183281320163894,0.0162765046033468,7.219611940074233e-05,critical
1500,7.979797979797979,7.493670886075949,cathode,0.0175187591433947,0.0184729270460259,0.016375682544026,-2.3793965878909644e-05,critical
1500,8.080808080808081,7.493670886075949,cathode,0.0177217769520739,0.0187070779296895,0.0165338030015214,-0.0001141828972312,critical
1500,8.181818181818182,7.493670886075949,cathode,0.0176825678708669,0.0184635233347775,0.0167783382269168,0.000123986946342,critical
1500,8.282828282828282,7.493670886075949,cathode,0.0178414933597721,0.0187073941089114,0.0168265122564114,-1.800467174684766e-05,critical
1500,8.383838383838384,7.493670886075949,cathode,0.0179111229012481,0.0187517694255553,0.0169296719073063,-9.483347070156136e-05,critical
1500,8.484848484848484,7.493670886075949,cathode,0.0180783058031229,0.0190622109626799,0.0168992208098742,-5.802909430714111e-05,critical
1500,8.585858585858587,7.493670886075949,cathode,0.0181019553826438,0.0190167369129842,0.0170218457254938,2.0296881357403272e-05,critical
1500,8.686868686868687,7.493670886075949,cathode,0.0182942975505424,0.0192105336581812,0.0172138671068574,4.855274405796403e-05,critical
1500,8.787878787878787,7.493670886075949,cathode,0.0182324509557845,0.0191686338074995,0.0171238219663373,-1.5702778887180084e-05,critical
1500,8.88888888888889,7.493670886075949,cathode,0.0184131362217259,0.0192452921125344,0.0174491681277918,-3.259044435511184e-05,critical
1500,8.98989898989899,7.493670886075949,cathode,0.0187560974295552,0.0196339085356269,0.0177335074804066,2.3113705356426683e-05,critical
1500,9.09090909090909,7.493670886075949,cathode,0.0187841753098127,0.0197254525528422,0.0176745842488738,1.6610421925969308e-06,critical
1500,9.191919191919192,7.493670886075949,cathode,0.0190891075298276,0.0200924775057851,0.017895192823886,4.901372731676066e-05,critical
1500,9.292929292929292,7.493670886075949,cathode,0.0192407942539361,0.0200408827706354,0.0183255738886758,4.163713967721606e-05,critical
1500,9.393939393939394,7.493670886075949,cathode,0.0192902760677789,0.0201902461974428,0.018241939685157,-5.656601773404858e-05,critical
1500,9.494949494949497,7.493670886075949,cathode,0.0194418009959286,0.0204852056704004,0.0181955087908475,2.6921533926270155e-05,critical
1500,9.595959595959595,7.493670886075949,cathode,0.019566464934782,0.0205310376762902,0.0184325168726328,3.679719098508081e-05,critical
1500,9.696969696969695,7.493670886075949,cathode,0.0198328650888786,0.0207731828977067,0.0187351002204867,1.9088805105932447e-05,critical
1500,9.797979797979798,7.493670886075949,cathode,0.0200654502238792,0.02112649786846,0.0188018525161012,-1.8435185752727465e-05,critical
1500,9.8989898989899,7.493670886075949,cathode,0.0201389239165212,0.0210986982895871,0.0190175221616255,-2.1304164505455505e-07,critical
1500,10.0,7.493670886075949,cathode,0.0205594054131157,0.0215631760424345,0.0193815494075051,2.512845292948654e-05,critical
1500,0.0,7.594936708860759,cathode,0.0203182430238994,0.0213301141757911,0.0191258457467988,-7.240346077522099e-05,critical
1500,0.101010101010101,7.594936708860759,cathode,0.0203932016790801,0.0212402716567774,0.0194242599186742,5.234082604524906e-05,critical
1500,0.202020202020202,7.594936708860759,cathode,0.0201033398159092,0.021111707692342,0.0189143005870815,-2.8801435815471643e-05,critical
1500,0.303030303030303,7.594936708860759,cathode,0.0199134039956688,0.0208652459252034,0.0188005962148973,-2.460829244709354e-05,critical
1500,0.404040404040404,7.594936708860759,cathode,0.0195204586995914,0.0204259300158352,0.0184672384004816,2.0943132630972637e-05,critical
1500,0.5050505050505051,7.594936708860759,cathode,0.0194557246916695,0.0203016480986152,0.0184808943864528,-7.629944571176973e-05,critical
1500,0.6060606060606061,7.594936708860759,cathode,0.0191839432792987,0.0201369499495789,0.0180622846707211,-6.35963032684935e-06,critical
1500,0.7070707070707071,7.594936708860759,cathode,0.019031970448579,0.0199941358510721,0.0178959141420908,2.959699041706723e-06,critical
1500,0.8080808080808081,7.594936708860759,cathode,0.018741884318705,0.0195494940356851,0.0178133602983419,2.5076907257056877e-05,critical
1500,0.9090909090909092,7.594936708860759,cathode,0.0187163274976977,0.0196094274676437,0.0176720924281975,5.174705716169127e-05,critical
1500,1.0101010101010102,7.594936708860759,cathode,0.0186691989992475,0.0195625211162249,0.0176247114703829,-5.619704858653194e-06,critical
1500,1.1111111111111112,7.594936708860759,cathode,0.0185030995216817,0.0194051973485203,0.0174448226584816,2.157611440874813e-05,critical
1500,1.2121212121212122,7.594936708860759,cathode,0.0182834621323082,0.0191267165497196,0.0173032533939067,4.299848723340375e-05,critical
1500,1.3131313131313131,7.594936708860759,cathode,0.0182283267078019,0.019024252362934,0.0173112745696114,-3.4377849549778974e-05,critical
1500,1.414141414141414,7.594936708860759,cathode,0.0181328175635786,0.0190383695098565,0.0170659756522182,-1.132476978183707e-05,critical
1500,1.5151515151515151,7.594936708860759,cathode,0.0180280295909576,0.0188447825840434,0.0170761846539955,0.0001682509284257,critical
1500,1.616161616161616,7.594936708860759,cathode,0.0178894731206446,0.0187483500664844,0.0168846846804256,-2.627561850508373e-06,critical
1500,1.7171717171717171,7.594936708860759,cathode,0.0179199952251955,0.0188503840693665,0.0168156755049698,3.763099113264549e-05,critical
1500,1.818181818181818,7.594936708860759,cathode,0.0177063671544423,0.0186961280059656,0.0165140838683852,-3.956128151001052e-05,critical
1500,1.9191919191919191,7.594936708860759,cathode,0.0175740330220402,0.018487925678192,0.0164890106193051,-3.352814979008499e-05,critical
1500,2.0202020202020203,7.594936708860759,cathode,0.017595497720265,0.0185090333862623,0.0165113010741537,2.81827421647056e-05,critical
1500,2.121212121212121,7.594936708860759,cathode,0.0173971976823739,0.0182611536804947,0.0163804143277675,3.798998000026576e-06,critical
1500,2.2222222222222223,7.594936708860759,cathode,0.0173741907679411,0.0181741996360525,0.0164448409550149,5.457586254738747e-07,critical
1500,2.323232323232323,7.594936708860759,cathode,0.0173457644350151,0.0181859474588573,0.0163611318342494,3.1133401807455474e-05,critical
1500,2.4242424242424243,7.594936708860759,cathode,0.0171760347216907,0.0180530347871051,0.0161364109409869,0.0001025243654848,critical
1500,2.525252525252525,7.594936708860759,cathode,0.0171663785683747,0.0178931106279403,0.0163307758199774,-0.0001084507778276,critical
1500,2.6262626262626263,7.594936708860759,cathode,0.0171793974029299,0.0180830836935861,0.0161043366368534,7.915793539075204e-06,critical
1500,2.727272727272727,7.594936708860759,cathode,0.0171746386377955,0.0179694414276659,0.0162505669579812,-4.891438704428561e-06,critical
1500,2.8282828282828283,7.594936708860759,cathode,0.0169792759549781,0.01781964306154,0.0159907757052455,1.9500459476026447e-05,critical
1500,2.929292929292929,7.594936708860759,cathode,0.0169052519588936,0.0177380800137603,0.0159264570588305,1.6293327833544496e-05,critical
1500,3.0303030303030303,7.594936708860759,cathode,0.0169798273126631,0.0178444210125188,0.0159566509595504,-6.748363491769877e-05,critical
1500,3.131313131313131,7.594936708860759,cathode,0.016934872704315,0.0178795727206018,0.0157976676392608,3.5294748726468885e-06,critical
1500,3.2323232323232323,7.594936708860759,cathode,0.0168515475160053,0.0176832425216906,0.0158737067378534,2.329497471059198e-05,critical
1500,3.333333333333333,7.594936708860759,cathode,0.0167087641521703,0.0175818180489901,0.015671498927104,-3.542791784158201e-06,critical
1500,3.4343434343434343,7.594936708860759,cathode,0.0168061458627773,0.0176996576927241,0.0157409867320897,4.827877864800853e-06,critical
1500,3.5353535353535355,7.594936708860759,cathode,0.0167112044095177,0.0175689959937017,0.0156939359283868,8.525474943804189e-05,critical
1500,3.636363636363636,7.594936708860759,cathode,0.0166243053529079,0.017448855432812,0.0156540653778722,1.5635548509501662e-05,critical
1500,3.7373737373737375,7.594936708860759,cathode,0.0166887497335197,0.0175427848747948,0.0156778764085817,3.093515439431278e-05,critical
1500,3.8383838383838382,7.594936708860759,cathode,0.0165815715058152,0.0173825517315332,0.0156435185155505,-1.5509587218928823e-06,critical
1500,3.939393939393939,7.594936708860759,cathode,0.0165692471135819,0.017467812775704,0.0154917377608166,-9.712993056094344e-05,critical
1500,4.040404040404041,7.594936708860759,cathode,0.0165956356853803,0.01741171999854,0.0156360060390361,6.378267453374786e-05,critical
1500,4.141414141414141,7.594936708860759,cathode,0.0167080074844282,0.0174726846833168,0.0158205840239499,-6.719704762331706e-07,critical
1500,4.242424242424242,7.594936708860759,cathode,0.0165631016825159,0.0173479104825137,0.0156469848130028,1.524636498409983e-05,critical
1500,4.343434343434343,7.594936708860759,cathode,0.0164666063458981,0.017250340335739,0.0155506938977735,4.306716919975373e-05,critical
1500,4.444444444444445,7.594936708860759,cathode,0.0165279113967515,0.0173444034414202,0.0155678862608545,6.875260462521605e-06,critical
1500,4.545454545454545,7.594936708860759,cathode,0.0165794440607737,0.0174093353739427,0.015600479102757,-6.332893081832236e-05,critical
1500,4.646464646464646,7.594936708860759,cathode,0.0164658600620449,0.0173231262461457,0.0154478213340798,-3.276111241724511e-05,critical
1500,4.747474747474747,7.594936708860759,cathode,0.0166187229884518,0.0174734306033273,0.0156063023546193,-6.945065104678044e-06,critical
1500,4.848484848484849,7.594936708860759,cathode,0.0165116274462771,0.017395931474708,0.0154556839790306,-3.297062435275252e-05,critical
1500,4.94949494949495,7.594936708860759,cathode,0.0165480652122218,0.0172931045261506,0.0156851041935949,-5.369939492886418e-05,critical
1500,5.05050505050505,7.594936708860759,cathode,0.0165825717137117,0.017441181454886,0.0155642125233088,-1.1796169543904688e-05,critical
1500,5.151515151515151,7.594936708860759,cathode,0.0165184170245578,0.017327950685099,0.0155673527242041,-5.188292828682315e-05,critical
1500,5.252525252525253,7.594936708860759,cathode,0.0165641822975058,0.0173836256240919,0.0156004502173476,3.391564663507342e-06,critical
1500,5.353535353535354,7.594936708860759,cathode,0.016495620066618,0.0172301826827509,0.0156467611085851,-2.384118561120501e-05,critical
1500,5.454545454545454,7.594936708860759,cathode,0.0164728486256115,0.0173933175482929,0.0153618298673154,0.0001074160746491,critical
1500,5.555555555555555,7.594936708860759,cathode,0.0165859372927001,0.017440816613524,0.0155708420095071,-9.714396831784542e-05,critical
1500,5.656565656565657,7.594936708860759,cathode,0.0165114206779256,0.0172889818254423,0.0156043678093453,-4.264960691763183e-05,critical
1500,5.757575757575758,7.594936708860759,cathode,0.0164870698460016,0.0172036562551182,0.0156620533231882,2.7993366699262875e-05,critical
1500,5.858585858585858,7.594936708860759,cathode,0.0166224973733109,0.017397557901892,0.015719589931816,-5.587600665699964e-05,critical
1500,5.959595959595959,7.594936708860759,cathode,0.0166383426193101,0.0174213555666754,0.0157254076518608,9.792068222334985e-06,critical
1500,6.0606060606060606,7.594936708860759,cathode,0.0166052239952104,0.017529376781661,0.0154931437392179,-2.6234778387324218e-05,critical
1500,6.161616161616162,7.594936708860759,cathode,0.0166193287366364,0.0172864320060662,0.0158602215609755,-2.1368261143266428e-05,critical
1500,6.262626262626262,7.594936708860759,cathode,0.0167661654213403,0.0176847211554244,0.0156643749108746,-2.8293786355399787e-05,critical
1500,6.363636363636363,7.594936708860759,cathode,0.016758574852962,0.0175550818529772,0.0158283308963402,1.3137158792191598e-05,critical
1500,6.4646464646464645,7.594936708860759,cathode,0.0168013559003277,0.0174378370208113,0.0160825650126562,-3.4882211737123056e-05,critical
1500,6.565656565656566,7.594936708860759,cathode,0.0168184671350629,0.0176409889281923,0.0158521930944845,-6.502146089976281e-05,critical
1500,6.666666666666667,7.594936708860759,cathode,0.0168376150661785,0.0175598819250581,0.0160078389071023,1.50831379423809e-05,critical
1500,6.767676767676767,7.594936708860759,cathode,0.0168446084699071,0.0175725323731978,0.0160073039429688,-2.5998206546878163e-05,critical
1500,6.8686868686868685,7.594936708860759,cathode,0.0168862631896375,0.0177222478502122,0.015902450403192,-4.849154720344677e-05,critical
1500,6.96969696969697,7.594936708860759,cathode,0.0169781160350194,0.0178526403206355,0.0159393629684203,0.0001096659424745,critical
1500,7.070707070707071,7.594936708860759,cathode,0.0169919135338947,0.0177560533211964,0.0161076179987623,-4.563172130365497e-06,critical
1500,7.171717171717171,7.594936708860759,cathode,0.0170687464832756,0.0179332460511189,0.0160474927855418,-2.8310804899347333e-05,critical
1500,7.272727272727272,7.594936708860759,cathode,0.0169878064639576,0.0178125282356576,0.0160197032675396,8.150728120082768e-05,critical
1500,7.373737373737374,7.594936708860759,cathode,0.0171701797953464,0.0180079248917978,0.0161871350667708,3.207346672684125e-05,critical
1500,7.474747474747475,7.594936708860759,cathode,0.0171941387137337,0.0180292412527868,0.016215161631353,1.2385873961383942e-05,critical
1500,7.575757575757575,7.594936708860759,cathode,0.0171741003539101,0.0179622474015817,0.0162573182129745,9.12279202871107e-05,critical
1500,7.6767676767676765,7.594936708860759,cathode,0.0172788782783111,0.0181316444316975,0.0162754654097769,-6.653877266856846e-05,critical
1500,7.777777777777778,7.594936708860759,cathode,0.0173565309379944,0.0181501242137142,0.0164354755772806,3.277710595593819e-05,critical
1500,7.878787878787879,7.594936708860759,cathode,0.0175632575068032,0.0184058011347192,0.0165766230035536,7.324644730106864e-05,critical
1500,7.979797979797979,7.594936708860759,cathode,0.0176344457070189,0.0184044003418911,0.0167475437648082,7.037758762590912e-07,critical
1500,8.080808080808081,7.594936708860759,cathode,0.0175289348641449,0.0183193856125084,0.0166128844967565,-6.726609157494141e-05,critical
1500,8.181818181818182,7.594936708860759,cathode,0.0177361080314562,0.0186080459535447,0.0167115975175163,3.075098850827447e-05,critical
1500,8.282828282828282,7.594936708860759,cathode,0.017898556346704,0.0187350362941541,0.0169243803438638,1.7928817200329177e-05,critical
1500,8.383838383838384,7.594936708860759,cathode,0.0180499701545839,0.0189208051306475,0.0170285260145598,9.535887397993929e-05,critical
1500,8.484848484848484,7.594936708860759,cathode,0.0180625889001006,0.0188543370780844,0.0171495697180436,4.870939017078465e-05,critical
1500,8.585858585858587,7.594936708860759,cathode,0.0180840262599192,0.0189103804385941,0.0171252545499087,9.177589590676606e-06,critical
1500,8.686868686868687,7.594936708860759,cathode,0.0182247113354079,0.0191625366411097,0.0171133885136346,-4.147595504272387e-05,critical
1500,8.787878787878787,7.594936708860759,cathode,0.0184357181030473,0.0193438724323198,0.0173677035436673,-6.276067638544227e-05,critical
1500,8.88888888888889,7.594936708860759,cathode,0.0185334141063201,0.0193885676327828,0.0175396164568431,-1.61044379284384e-05,critical
1500,8.98989898989899,7.594936708860759,cathode,0.0187227673217077,0.0196102479003402,0.0176862997500799,5.071869847504015e-05,critical
1500,9.09090909090909,7.594936708860759,cathode,0.0188335655406707,0.019747723328348,0.0177616868100876,4.4620445604396186e-05,critical
1500,9.191919191919192,7.594936708860759,cathode,0.0189885831704797,0.0199694957510769,0.0178257035631132,-6.691126083392162e-06,critical
1500,9.292929292929292,7.594936708860759,cathode,0.0191425320803689,0.0200330618104715,0.0181062605633434,-6.692783658185746e-06,critical
1500,9.393939393939394,7.594936708860759,cathode,0.019288001348749,0.0202209537734187,0.0181949426346778,3.25626023454588e-05,critical
1500,9.494949494949497,7.594936708860759,cathode,0.0194044192453248,0.0203270392345967,0.0183268560028957,3.279750361110384e-06,critical
1500,9.595959595959595,7.594936708860759,cathode,0.0195847240385804,0.0204498515817095,0.0185859180189042,5.132362804197296e-05,critical
1500,9.696969696969695,7.594936708860759,cathode,0.0198339268002101,0.020824039654409,0.0186671592778328,4.7799304297205375e-05,critical
1500,9.797979797979798,7.594936708860759,cathode,0.0199996096850414,0.020903314895767,0.0189528591259664,-2.902504015194218e-05,critical
1500,9.8989898989899,7.594936708860759,cathode,0.0202802456656613,0.0212976551546497,0.0190804902704781,3.0779721019620905e-05,critical
1500,10.0,7.594936708860759,cathode,0.0204428195606475,0.0214248027194072,0.0192938593860982,1.6543440583293546e-05,critical
1500,0.0,7.69620253164557,cathode,0.0204871633857657,0.0215257445818256,0.0192602540397812,5.976553056523018e-06,critical
1500,0.101010101010101,7.69620253164557,cathode,0.0202002193209376,0.0211230652788314,0.0191295229400737,-1.2750705602858788e-05,critical
1500,0.202020202020202,7.69620253164557,cathode,0.0200176313798787,0.0210469190954594,0.0187979526955042,5.393406476401479e-05,critical
1500,0.303030303030303,7.69620253164557,cathode,0.0199317699899968,0.0210036478918291,0.0186510804275871,7.191594679436662e-06,critical
1500,0.404040404040404,7.69620253164557,cathode,0.0196616266011613,0.020620958930626,0.0185357435419856,4.701438988772301e-05,critical
1500,0.5050505050505051,7.69620253164557,cathode,0.0194829910995186,0.0203041460085164,0.0185411558995521,-7.409792719498165e-05,critical
1500,0.6060606060606061,7.69620253164557,cathode,0.0193233711806826,0.0202113556943004,0.0182919075023365,-3.716435495998196e-05,critical
1500,0.7070707070707071,7.69620253164557,cathode,0.0191594031860238,0.019998820665585,0.0181918367541819,-2.7439412455991537e-05,critical
1500,0.8080808080808081,7.69620253164557,cathode,0.0190087375038501,0.0199321522558041,0.0179261106746547,-2.5372842204390856e-05,critical
1500,0.9090909090909092,7.69620253164557,cathode,0.0188309263386461,0.0197248528291203,0.0177851791253344,0.0001023261250362,critical
1500,1.0101010101010102,7.69620253164557,cathode,0.018721522069243,0.0196889242046912,0.0175746028519217,-1.8553830307729128e-06,critical
1500,1.1111111111111112,7.69620253164557,cathode,0.0185174731014162,0.0193439070762834,0.0175619286907776,-4.1013902307631805e-05,critical
1500,1.2121212121212122,7.69620253164557,cathode,0.0182680426624193,0.0191345068098027,0.0172561639885037,4.092111333045893e-05,critical
1500,1.3131313131313131,7.69620253164557,cathode,0.0182293382435443,0.0189676713335164,0.0173881671488862,-1.7318159669169328e-05,critical
1500,1.414141414141414,7.69620253164557,cathode,0.0183120949725014,0.0192521386324783,0.0171986140236558,4.380826772355184e-05,critical
1500,1.5151515151515151,7.69620253164557,cathode,0.0180258808338997,0.0189323172907877,0.0169566562847526,1.0746370217095627e-05,critical
1500,1.616161616161616,7.69620253164557,cathode,0.0178505342520582,0.0188112622163233,0.0167020348680696,4.6099992219988064e-05,critical
1500,1.7171717171717171,7.69620253164557,cathode,0.0178678753438939,0.0188214367363938,0.016730060911491,3.333377817076707e-05,critical
1500,1.818181818181818,7.69620253164557,cathode,0.0177167524085611,0.0184591225671392,0.0168668861775252,7.74400675874377e-06,critical
1500,1.9191919191919191,7.69620253164557,cathode,0.0176039357240769,0.0184399167934693,0.0166265554925589,7.740354212909906e-05,critical
1500,2.0202020202020203,7.69620253164557,cathode,0.0174497599948684,0.0183293598109564,0.0164114501593081,-3.817266511873976e-05,critical
1500,2.121212121212121,7.69620253164557,cathode,0.0175423092270468,0.0184633341293753,0.0164430757832161,0.0001380421818938,critical
1500,2.2222222222222223,7.69620253164557,cathode,0.017371391781401,0.0182612403036789,0.0163180699076554,1.9539353598355024e-05,critical
1500,2.323232323232323,7.69620253164557,cathode,0.0171748843867671,0.017914070349206,0.0163252149704921,-1.9517829812138003e-05,critical
1500,2.4242424242424243,7.69620253164557,cathode,0.0171947563979378,0.0179499867075672,0.0163230520647838,-6.871114110898706e-05,critical
1500,2.525252525252525,7.69620253164557,cathode,0.0171878556217231,0.0179778360861776,0.0162678070560289,0.0001128610567577,critical
1500,2.6262626262626263,7.69620253164557,cathode,0.0172451413859857,0.0180270931478877,0.0163379733045662,-7.213175079327876e-05,critical
1500,2.727272727272727,7.69620253164557,cathode,0.017126551812027,0.0179983271977815,0.0160958323153996,-2.0278554908095248e-05,critical
1500,2.8282828282828283,7.69620253164557,cathode,0.0170462399106219,0.0178603852206327,0.0160920411167123,-0.0001113566191204,critical
1500,2.929292929292929,7.69620253164557,cathode,0.0170233436601075,0.0179141606581289,0.0159639115466602,-5.96701888388315e-05,critical
1500,3.0303030303030303,7.69620253164557,cathode,0.0169184159761013,0.0177379461331153,0.0159575020491403,5.629161427495791e-05,critical
1500,3.131313131313131,7.69620253164557,cathode,0.0169329473121311,0.0177512760987503,0.0159734605042125,-7.016343888344215e-05,critical
1500,3.2323232323232323,7.69620253164557,cathode,0.0167756561252746,0.0175394890622478,0.0158899339424097,-9.725522125712107e-06,critical
1500,3.333333333333333,7.69620253164557,cathode,0.0168331201589023,0.0175584703954012,0.0159965670018604,-0.0001142277594252,critical
1500,3.4343434343434343,7.69620253164557,cathode,0.016694264367475,0.0175208848115239,0.0157215938823204,-3.991431462498312e-05,critical
1500,3.5353535353535355,7.69620253164557,cathode,0.0167152478617318,0.0175829544925316,0.0156855894380092,-1.3059504272513711e-05,critical
1500,3.636363636363636,7.69620253164557,cathode,0.016769932062783,0.0175396002258947,0.015875736157852,5.200081066180628e-05,critical
1500,3.7373737373737375,7.69620253164557,cathode,0.0166033700639593,0.0174577041300576,0.0155900155217238,-7.693803095353151e-05,critical
1500,3.8383838383838382,7.69620253164557,cathode,0.0167137179176967,0.0175430761302892,0.0157377896696444,4.659409764678512e-06,critical
1500,3.939393939393939,7.69620253164557,cathode,0.0165072779088478,0.0173755251752005,0.0154743814543206,-1.113526363813334e-05,critical
1500,4.040404040404041,7.69620253164557,cathode,0.0165936493738236,0.0173734255814696,0.0156836375469884,7.142868372257969e-05,critical
1500,4.141414141414141,7.69620253164557,cathode,0.0165859300439563,0.0173122177824874,0.0157487885828096,-2.7729675171883813e-05,critical
1500,4.242424242424242,7.69620253164557,cathode,0.0166321782919394,0.0174149538567058,0.0157158749732902,0.0001307009374944,critical
1500,4.343434343434343,7.69620253164557,cathode,0.0164061659394621,0.0170509862559073,0.0156745296960758,2.2043566441227716e-05,critical
1500,4.444444444444445,7.69620253164557,cathode,0.0165888379823835,0.0174634453395088,0.0155478088631346,-2.289298051965433e-05,critical
1500,4.545454545454545,7.69620253164557,cathode,0.0166045832371122,0.0173955415611553,0.0156804292005789,1.8404830540278084e-05,critical
1500,4.646464646464646,7.69620253164557,cathode,0.0166158786044666,0.0173558305381223,0.0157608331195479,-1.8764066838066903e-05,critical
1500,4.747474747474747,7.69620253164557,cathode,0.0164529045441665,0.0173041600563577,0.0154434180938035,1.0468616851984314e-05,critical
1500,4.848484848484849,7.69620253164557,cathode,0.0165959883850705,0.0174489051427496,0.0155855684369997,-3.512617902828405e-05,critical
1500,4.94949494949495,7.69620253164557,cathode,0.016517327062844,0.0173931740972752,0.0154737421488811,1.1301395348854278e-05,critical
1500,5.05050505050505,7.69620253164557,cathode,0.0165143916024248,0.0173161210201779,0.015574534289518,2.2249102028486737e-05,critical
1500,5.151515151515151,7.69620253164557,cathode,0.0165713887951233,0.0173367856209229,0.0156814179262543,4.204590751182909e-05,critical
1500,5.252525252525253,7.69620253164557,cathode,0.0164707159515923,0.0172932920450044,0.0155011528486525,4.746160882454596e-05,critical
1500,5.353535353535354,7.69620253164557,cathode,0.0165445188168506,0.0172464558387884,0.0157377273830703,9.09597218845804e-05,critical
1500,5.454545454545454,7.69620253164557,cathode,0.0165737946835934,0.0174253111601896,0.0155653420026856,9.259868223809808e-06,critical
1500,5.555555555555555,7.69620253164557,cathode,0.0163619555159431,0.0171713010760268,0.0154093932423537,-5.7556719835931424e-05,critical
1500,5.656565656565657,7.69620253164557,cathode,0.0166238633031105,0.0174802447209056,0.0156091147751894,-1.3634511797599344e-05,critical
1500,5.757575757575758,7.69620253164557,cathode,0.0165423271910333,0.0173943865368539,0.0155327347481636,1.2238312618885694e-05,critical
1500,5.858585858585858,7.69620253164557,cathode,0.0165650752471912,0.0173410373011979,0.0156609787814706,-2.239116378535754e-05,critical
1500,5.959595959595959,7.69620253164557,cathode,0.0166056006142031,0.0175002834129259,0.0155360431338955,2.929121622210114e-05,critical
1500,6.0606060606060606,7.69620253164557,cathode,0.0165344234059511,0.0173217207769892,0.0156145029503102,-2.8893383239141203e-05,critical
1500,6.161616161616162,7.69620253164557,cathode,0.0167505354036478,0.0176113458486091,0.015729469612362,8.534006837924386e-05,critical
1500,6.262626262626262,7.69620253164557,cathode,0.0166894066899797,0.0175207717675374,0.0157104211584164,8.618721706284532e-06,critical
1500,6.363636363636363,7.69620253164557,cathode,0.0167948801430361,0.0176649839304782,0.0157627534877234,-1.5613038179982973e-05,critical
1500,6.4646464646464645,7.69620253164557,cathode,0.0166704618292544,0.0174550643611468,0.0157556629512095,-8.59423516574764e-06,critical
1500,6.565656565656566,7.69620253164557,cathode,0.0168633496010692,0.0176700275511005,0.0159201209797911,-2.1682787390253005e-05,critical
1500,6.666666666666667,7.69620253164557,cathode,0.0167716269019338,0.0176218794815831,0.015767114742012,-1.93299636697196e-05,critical
1500,6.767676767676767,7.69620253164557,cathode,0.016970635951032,0.0178208005561147,0.0159684899246701,7.205951831267156e-06,critical
1500,6.8686868686868685,7.69620253164557,cathode,0.0168970299848578,0.0177560730955778,0.0158815046353356,2.862530507196396e-05,critical
1500,6.96969696969697,7.69620253164557,cathode,0.0167983876247494,0.0175671020241083,0.0159062387964774,-1.673691419670362e-05,critical
1500,7.070707070707071,7.69620253164557,cathode,0.0170157794179432,0.017747238944729,0.0161751371842824,-2.0171610987469478e-05,critical
1500,7.171717171717171,7.69620253164557,cathode,0.0168621422365771,0.0177367111362683,0.0158245039998212,-1.4700956075789982e-05,critical
1500,7.272727272727272,7.69620253164557,cathode,0.0169460638714209,0.0177966968291958,0.0159429058059341,2.219888673040408e-05,critical
1500,7.373737373737374,7.69620253164557,cathode,0.0171897519471034,0.0180021136616026,0.0162416719554521,3.6480157516225726e-05,critical
1500,7.474747474747475,7.69620253164557,cathode,0.017183267024011,0.0180449231047489,0.0161648419074929,-0.0001105005113985,critical
1500,7.575757575757575,7.69620253164557,cathode,0.0173535512185438,0.0181529474470173,0.0164244650973511,4.33470642250413e-05,critical
1500,7.6767676767676765,7.69620253164557,cathode,0.0172953149923812,0.0180894291073357,0.0163705895922068,-0.00011385887962,critical
1500,7.777777777777778,7.69620253164557,cathode,0.0173167645292389,0.0181207835617928,0.0163812379342568,3.390029464231641e-05,critical
1500,7.878787878787879,7.69620253164557,cathode,0.017405910906304,0.0181572310768176,0.0165418442932652,2.689949296574672e-05,critical
1500,7.979797979797979,7.69620253164557,cathode,0.0175901366014933,0.0185114565274402,0.0164950192503824,-4.26591693628895e-06,critical
1500,8.080808080808081,7.69620253164557,cathode,0.0176409612511724,0.0184505756198757,0.0167009562690598,-5.459734213872008e-06,critical
1500,8.181818181818182,7.69620253164557,cathode,0.017871013530213,0.0187649341975208,0.0168175280367766,-1.7577135506939103e-05,critical
1500,8.282828282828282,7.69620253164557,cathode,0.0177845066149508,0.0187344536019115,0.0166508581562036,-2.930299443661601e-05,critical
1500,8.383838383838384,7.69620253164557,cathode,0.0179511947214451,0.0188231232530581,0.0169290239431666,-1.5005502439722712e-05,critical
1500,8.484848484848484,7.69620253164557,cathode,0.0180344926843224,0.0188738443754169,0.0170576449825944,1.834242617519349e-05,critical
1500,8.585858585858587,7.69620253164557,cathode,0.0181021631592944,0.0190121459288575,0.0170273610490317,8.615292410705604e-05,critical
1500,8.686868686868687,7.69620253164557,cathode,0.0181239483824859,0.0189159461350059,0.0172115335182586,-3.7269584094413375e-06,critical
1500,8.787878787878787,7.69620253164557,cathode,0.0183384430317562,0.0192576069473481,0.0172548285242892,1.4896895032479822e-05,critical
1500,8.88888888888889,7.69620253164557,cathode,0.0184565515482296,0.0192896184909429,0.017491871373129,-1.7077007394614485e-05,critical
1500,8.98989898989899,7.69620253164557,cathode,0.0184813067319679,0.0195112035902168,0.0172416441438989,2.926499064197359e-05,critical
1500,9.09090909090909,7.69620253164557,cathode,0.0188807302293654,0.0197985001110508,0.0178035620049327,-7.825517037470778e-05,critical
1500,9.191919191919192,7.69620253164557,cathode,0.018961187433022,0.0198367968198948,0.0179422269234544,8.351407203005159e-05,critical
1500,9.292929292929292,7.69620253164557,cathode,0.0190850970688952,0.0199947412522178,0.0180190481290962,-0.0001308457869198,critical
1500,9.393939393939394,7.69620253164557,cathode,0.0193032373153751,0.0202319243124571,0.0182153089749291,7.63346259342846e-05,critical
1500,9.494949494949497,7.69620253164557,cathode,0.0195016708132819,0.020418466114259,0.0184329561006905,-8.659639253724387e-06,critical
1500,9.595959595959595,7.69620253164557,cathode,0.0195468876657747,0.0204840079846284,0.0184505469712524,3.959059484517474e-05,critical
1500,9.696969696969695,7.69620253164557,cathode,0.0199317092571515,0.0209473652299476,0.0187305802566002,-2.939778738775166e-05,critical
1500,9.797979797979798,7.69620253164557,cathode,0.0200314299875397,0.0210146272836702,0.018876362537541,-4.578217740762367e-05,critical
1500,9.8989898989899,7.69620253164557,cathode,0.0203139121719153,0.0212375177237958,0.0192431714977942,-1.176311573841218e-05,critical
1500,10.0,7.69620253164557,cathode,0.0206005707502298,0.0216481107094977,0.0193622557008548,-2.6627786100896723e-05,critical
1500,0.0,7.7974683544303796,cathode,0.0204661058447233,0.021490981512194,0.0192566349154528,9.164929165845242e-05,critical
1500,0.101010101010101,7.7974683544303796,cathode,0.0203180404653166,0.0213735161091914,0.0190654371799033,-6.0913320626979925e-06,critical
1500,0.202020202020202,7.7974683544303796,cathode,0.0200582148818895,0.021048928920622,0.0188929675069155,4.859519172667136e-05,critical
1500,0.303030303030303,7.7974683544303796,cathode,0.019833230271513,0.0208867660088817,0.018577108526673,4.7561887808660085e-05,critical
1500,0.404040404040404,7.7974683544303796,cathode,0.0196799905683112,0.0206120670517284,0.0185921090497838,-1.5492676893728357e-07,critical
1500,0.5050505050505051,7.7974683544303796,cathode,0.0194597532483903,0.0204233679893061,0.0183258386177847,-4.83777503533611e-05,critical
1500,0.6060606060606061,7.7974683544303796,cathode,0.0193298612875498,0.0203355546214555,0.0181357565048115,-3.53960304518952e-05,critical
1500,0.7070707070707071,7.7974683544303796,cathode,0.0190223990767741,0.0200274641414973,0.0178248357800824,6.791053886814842e-05,critical
1500,0.8080808080808081,7.7974683544303796,cathode,0.0189283234355857,0.0198735490904664,0.0178146586599287,2.5198341151725865e-05,critical
1500,0.9090909090909092,7.7974683544303796,cathode,0.0188143670318456,0.0197607530110865,0.0176979262334947,-1.6364454665244555e-05,critical
1500,1.0101010101010102,7.7974683544303796,cathode,0.0187328270511059,0.0196666016351512,0.0176325619113834,5.4530757267694455e-05,critical
1500,1.1111111111111112,7.7974683544303796,cathode,0.018489214819747,0.0194348248115017,0.0173682699242485,0.0001018696750391,critical
1500,1.2121212121212122,7.7974683544303796,cathode,0.0182193008651233,0.0191465405285824,0.0171223662045236,6.208553122608703e-05,critical
1500,1.3131313131313131,7.7974683544303796,cathode,0.0181940624319289,0.0191153055765144,0.0171057237475738,-3.808808828572901e-05,critical
1500,1.414141414141414,7.7974683544303796,cathode,0.0181541634328753,0.0190437203487878,0.0171093080171083,-4.768521612766861e-05,critical
1500,1.5151515151515151,7.7974683544303796,cathode,0.0182345885922985,0.0191103771279205,0.0172093447827794,-5.546238900664868e-05,critical
1500,1.616161616161616,7.7974683544303796,cathode,0.0178759505034733,0.0187417190811278,0.01686149432938,-1.7993297557867464e-05,critical
1500,1.7171717171717171,7.7974683544303796,cathode,0.0177636408101804,0.0185692063637163,0.0168301551753839,-1.933252232531896e-06,critical
1500,1.818181818181818,7.7974683544303796,cathode,0.0178126982652818,0.0186280657631874,0.0168664155067474,6.072205093089296e-06,critical
1500,1.9191919191919191,7.7974683544303796,cathode,0.0175900052335841,0.0184895289387192,0.0165254271504282,-3.2785973675111355e-05,critical
1500,2.0202020202020203,7.7974683544303796,cathode,0.0175640251882724,0.0183687908063739,0.0166298936614304,-7.740252232916647e-06,critical
1500,2.121212121212121,7.7974683544303796,cathode,0.0175754188557577,0.0184467712767368,0.0165494631033083,6.166855179832182e-05,critical
1500,2.2222222222222223,7.7974683544303796,cathode,0.0173939103163607,0.0181478434679664,0.0165257160887757,5.9749711646779625e-05,critical
1500,2.323232323232323,7.7974683544303796,cathode,0.01731775401781,0.0181237474486816,0.0163781672880586,-8.904404000791987e-05,critical
1500,2.4242424242424243,7.7974683544303796,cathode,0.0172767733068804,0.0180553353958802,0.0163753796623453,-2.36120885459921e-05,critical
1500,2.525252525252525,7.7974683544303796,cathode,0.0172277857254517,0.018179286593741,0.0160814052460992,-0.0001251932564285,critical
1500,2.6262626262626263,7.7974683544303796,cathode,0.0171033973086905,0.0180443331903788,0.015973965910278,8.476784031042966e-06,critical
1500,2.727272727272727,7.7974683544303796,cathode,0.0171490580236075,0.0180344455678088,0.0160993645347781,-2.9092461190188343e-05,critical
1500,2.8282828282828283,7.7974683544303796,cathode,0.0170478855496672,0.0179187994405644,0.016017546936371,1.1965884720673483e-05,critical
1500,2.929292929292929,7.7974683544303796,cathode,0.0170010424903127,0.0177755736903874,0.0161011546672549,9.03795778486456e-05,critical
1500,3.0303030303030303,7.7974683544303796,cathode,0.0170343618690555,0.0178572269603242,0.016070582032538,2.1240279410521457e-05,critical
1500,3.131313131313131,7.7974683544303796,cathode,0.0170023657712766,0.0178126826127243,0.0160539046603898,8.950516596432867e-05,critical
1500,3.2323232323232323,7.7974683544303796,cathode,0.0167379762734006,0.0175368104230441,0.0158034957452198,-6.470716409410721e-05,critical
1500,3.333333333333333,7.7974683544303796,cathode,0.016873983646428,0.0176259140262671,0.016004430891188,-5.595717160277861e-05,critical
1500,3.4343434343434343,7.7974683544303796,cathode,0.0167010745447221,0.0175648291914203,0.0156765089307271,4.056211460692991e-05,critical
1500,3.5353535353535355,7.7974683544303796,cathode,0.0167399277545471,0.0175536581417,0.0157858745495421,-9.61055544971075e-06,critical
1500,3.636363636363636,7.7974683544303796,cathode,0.0166495737412045,0.0175964227187684,0.0155050256525935,2.143538366910161e-05,critical
1500,3.7373737373737375,7.7974683544303796,cathode,0.0167364586666399,0.0175527721804281,0.0157787825959069,1.453115843631559e-05,critical
1500,3.8383838383838382,7.7974683544303796,cathode,0.0166800721028783,0.0175304339722321,0.0156744052527415,-1.6697429437669652e-05,critical
1500,3.939393939393939,7.7974683544303796,cathode,0.0165642158624755,0.0173929083347777,0.0155876203981908,6.579302266008332e-06,critical
1500,4.040404040404041,7.7974683544303796,cathode,0.0168060585534051,0.0176066199445578,0.0158707384772201,9.29200283031711e-06,critical
1500,4.141414141414141,7.7974683544303796,cathode,0.0167050081125506,0.0175496754807449,0.0157075820132043,1.844612248694938e-05,critical
1500,4.242424242424242,7.7974683544303796,cathode,0.016721707469715,0.017444611956997,0.0158868624546076,0.0001274970008969,critical
1500,4.343434343434343,7.7974683544303796,cathode,0.0163931957707072,0.0171257402606865,0.0155444467510146,-9.348949861643938e-05,critical
1500,4.444444444444445,7.7974683544303796,cathode,0.0165089696401969,0.0173253057423204,0.0155481395306577,6.188091834850793e-05,critical
1500,4.545454545454545,7.7974683544303796,cathode,0.0166209070021931,0.0174591067500386,0.0156316350060317,-1.306844111027192e-05,critical
1500,4.646464646464646,7.7974683544303796,cathode,0.0165583669304709,0.0172607974290638,0.0157518636249995,-6.559221933119182e-05,critical
1500,4.747474747474747,7.7974683544303796,cathode,0.0165011151467782,0.0171276705068051,0.0157901536025229,-0.000128194464441,critical
1500,4.848484848484849,7.7974683544303796,cathode,0.0165351242679736,0.0173660471785551,0.0155551033016407,7.280760112122959e-06,critical
1500,4.94949494949495,7.7974683544303796,cathode,0.0165956021409454,0.017408763856494,0.0156379398262034,-0.0001168917417391,critical
1500,5.05050505050505,7.7974683544303796,cathode,0.0164731803905774,0.0172865398230866,0.0155169126262896,1.1010890850772434e-05,critical
1500,5.151515151515151,7.7974683544303796,cathode,0.0165570852311225,0.0173984586552582,0.0155620281313791,-5.5651432620918486e-05,critical
1500,5.252525252525253,7.7974683544303796,cathode,0.0165886158625495,0.0173784166022175,0.0156659643424445,-3.091641560180804e-06,critical
1500,5.353535353535354,7.7974683544303796,cathode,0.0165245327019334,0.0174016161234197,0.0154788885992195,4.329150861070389e-05,critical
1500,5.454545454545454,7.7974683544303796,cathode,0.0165087226227367,0.017318448321955,0.0155578685790067,-6.797496719208554e-06,critical
1500,5.555555555555555,7.7974683544303796,cathode,0.0164834824566617,0.0172000159745377,0.0156576585715208,6.916161367006e-05,critical
1500,5.656565656565657,7.7974683544303796,cathode,0.016582353483012,0.0173929159249816,0.0156306029559736,4.808660523260381e-05,critical
1500,5.757575757575758,7.7974683544303796,cathode,0.01667178225997,0.0173940954531003,0.0158407113447522,-1.2601060195078572e-05,critical
1500,5.858585858585858,7.7974683544303796,cathode,0.0166266257192392,0.0174326772373424,0.01568203719059,4.06065748351115e-06,critical
1500,5.959595959595959,7.7974683544303796,cathode,0.0165983545519838,0.0173959803662602,0.015664320073675,-5.922277709242719e-05,critical
1500,6.0606060606060606,7.7974683544303796,cathode,0.0166209382665643,0.0174731199748382,0.0156120164978687,2.037476005094092e-05,critical
1500,6.161616161616162,7.7974683544303796,cathode,0.0165912405168625,0.0173689314044503,0.0156846917333948,4.569391476379043e-05,critical
1500,6.262626262626262,7.7974683544303796,cathode,0.0167186088478772,0.0175113408344251,0.0157931668051918,-8.813492401800764e-06,critical
1500,6.363636363636363,7.7974683544303796,cathode,0.0167367485262309,0.0176206539359404,0.0156842869791519,2.477328763275807e-05,critical
1500,6.4646464646464645,7.7974683544303796,cathode,0.0167200673640582,0.017465167049537,0.0158590547840245,-2.235953710738062e-06,critical
1500,6.565656565656566,7.7974683544303796,cathode,0.0167812930382849,0.0175586699897895,0.0158737938027555,-0.0001294622243554,critical
1500,6.666666666666667,7.7974683544303796,cathode,0.0167872836213366,0.0176836940942509,0.0157172453066076,4.834784525859676e-05,critical
1500,6.767676767676767,7.7974683544303796,cathode,0.0168087524464318,0.0175193821526693,0.0159939040373585,3.539482792376416e-05,critical
1500,6.8686868686868685,7.7974683544303796,cathode,0.0169517157653033,0.0178985091913089,0.0158116844459919,-9.137528918414696e-06,critical
1500,6.96969696969697,7.7974683544303796,cathode,0.0167330364271683,0.0174632232242621,0.0158918047066428,3.1722163355040776e-05,critical
1500,7.070707070707071,7.7974683544303796,cathode,0.016964600833903,0.0177229782690392,0.0160858364503254,-9.74991805829304e-05,critical
1500,7.171717171717171,7.7974683544303796,cathode,0.0169490388446331,0.0176918913755914,0.0160924744936268,4.27110011073136e-05,critical
1500,7.272727272727272,7.7974683544303796,cathode,0.0171409252722471,0.0179927582218731,0.0161382718619227,-7.655043725830694e-06,critical
1500,7.373737373737374,7.7974683544303796,cathode,0.0171709789122597,0.0179800870394511,0.0162271398673566,3.7884916498931806e-05,critical
1500,7.474747474747475,7.7974683544303796,cathode,0.0170749700948234,0.0177780898107078,0.0162719096223851,-2.9179450166057293e-05,critical
1500,7.575757575757575,7.7974683544303796,cathode,0.017296818873986,0.0180714525652526,0.0163990226532048,-9.791383095090784e-05,critical
1500,7.6767676767676765,7.7974683544303796,cathode,0.0173463787814429,0.0182837128419928,0.0162249788488387,4.327060259704903e-05,critical
1500,7.777777777777778,7.7974683544303796,cathode,0.0174612359998701,0.018229322074585,0.0165754553474592,-7.603295945195375e-06,critical
1500,7.878787878787879,7.7974683544303796,cathode,0.0174077234162608,0.0183258592434335,0.0163144661638567,4.6625693454302697e-05,critical
1500,7.979797979797979,7.7974683544303796,cathode,0.0176300533236079,0.0183832543020921,0.0167650422608534,3.7124638079850254e-05,critical
1500,8.080808080808081,7.7974683544303796,cathode,0.017595654237486,0.0183706850321854,0.016701663633742,-1.174006978361336e-05,critical
1500,8.181818181818182,7.7974683544303796,cathode,0.017772653409234,0.0185711713546472,0.0168479906294204,-6.0377789809674735e-05,critical
1500,8.282828282828282,7.7974683544303796,cathode,0.01781660998709,0.0186839069554958,0.0167995156933262,4.92922021705554e-06,critical
1500,8.383838383838384,7.7974683544303796,cathode,0.0179101412494303,0.0188171865128189,0.0168368468709705,-9.887132823961062e-05,critical
1500,8.484848484848484,7.7974683544303796,cathode,0.0180372710372961,0.0190106793304084,0.0168734158384252,7.153688629314503e-06,critical
1500,8.585858585858587,7.7974683544303796,cathode,0.0181611181282354,0.0190678169311433,0.0170929901786572,-9.370750951370606e-06,critical
1500,8.686868686868687,7.7974683544303796,cathode,0.0181704282046049,0.0189594991976326,0.01726225866599,4.33548478814452e-06,critical
1500,8.787878787878787,7.7974683544303796,cathode,0.0183358241348867,0.0190875834099476,0.0174775716098003,-4.359970750834277e-05,critical
1500,8.88888888888889,7.7974683544303796,cathode,0.0185835354662148,0.0195153737550096,0.0174847404085647,3.201329885214114e-05,critical
1500,8.98989898989899,7.7974683544303796,cathode,0.0186333524847224,0.0195902627301522,0.0175001837776537,-8.098601732509182e-06,critical
1500,9.09090909090909,7.7974683544303796,cathode,0.01890021649345,0.0197521858772828,0.0179131410049351,-6.430832324531185e-05,critical
1500,9.191919191919192,7.7974683544303796,cathode,0.0189493513847315,0.0199470058903785,0.0177620294961959,-3.86827833973916e-05,critical
1500,9.292929292929292,7.7974683544303796,cathode,0.01912729321914,0.0200157428088036,0.018093165165444,5.446879069557894e-05,critical
1500,9.393939393939394,7.7974683544303796,cathode,0.0193512183449337,0.0202611043325733,0.0182893182161052,-8.149927620292221e-05,critical
1500,9.494949494949497,7.7974683544303796,cathode,0.0194098538010962,0.0204001152774153,0.018238568204011,-2.0371324309561934e-05,critical
1500,9.595959595959595,7.7974683544303796,cathode,0.01964703162592,0.0206312586064945,0.0184868698874756,-4.291795253560242e-06,critical
1500,9.696969696969695,7.7974683544303796,cathode,0.0198732162834329,0.0208617017710161,0.0187095440280166,2.214586006924697e-06,critical
1500,9.797979797979798,7.7974683544303796,cathode,0.0200288603004591,0.0209679340365312,0.0189346799809274,-8.241692091384041e-07,critical
1500,9.8989898989899,7.7974683544303796,cathode,0.0202639363361833,0.0211895566122122,0.0191900672390406,6.878218088341018e-06,critical
1500,10.0,7.7974683544303796,cathode,0.0204798105011035,0.0214171468559909,0.0193918503175375,-3.003349434177404e-05,critical
1500,0.0,7.898734177215189,cathode,0.0205113003576662,0.0216151380432833,0.0191921074378484,2.776950909953156e-05,critical
1500,0.101010101010101,7.898734177215189,cathode,0.0201968606056775,0.0211645063884368,0.0190641393328885,-7.860843077359768e-05,critical
1500,0.202020202020202,7.898734177215189,cathode,0.0200668321668195,0.0210385867818755,0.0189282654545793,-1.0672555383581728e-05,critical
1500,0.303030303030303,7.898734177215189,cathode,0.0198529801420292,0.0209370583075659,0.0185525640855503,7.935534210837329e-05,critical
1500,0.404040404040404,7.898734177215189,cathode,0.0196288032761736,0.0205326940726374,0.0185781501491667,-5.831711465666742e-05,critical
1500,0.5050505050505051,7.898734177215189,cathode,0.019391501264855,0.0203849083791006,0.0182144648386678,-8.020646705447205e-05,critical
1500,0.6060606060606061,7.898734177215189,cathode,0.0191797445858505,0.0201550373061621,0.0180264317607189,-5.239648873149996e-05,critical
1500,0.7070707070707071,7.898734177215189,cathode,0.0191462910356513,0.020114734119538,0.0180023866618487,4.174294211836123e-05,critical
1500,0.8080808080808081,7.898734177215189,cathode,0.0188914762091531,0.019655483592717,0.0180212889893783,6.615866787028809e-06,critical
1500,0.9090909090909092,7.898734177215189,cathode,0.0187446338060293,0.0196215987164246,0.0177230367113118,-2.8544988219817754e-05,critical
1500,1.0101010101010102,7.898734177215189,cathode,0.0186585559058777,0.0196608091033333,0.017461120257754,3.3293429525433715e-05,critical
1500,1.1111111111111112,7.898734177215189,cathode,0.01867687246457,0.0195945973821564,0.017598379292157,-5.0071903890910656e-05,critical
1500,1.2121212121212122,7.898734177215189,cathode,0.0183897209891228,0.019261485612249,0.017372072079865,-3.565583487739944e-06,critical
1500,1.3131313131313131,7.898734177215189,cathode,0.0183054506682214,0.0192025879265293,0.0172517742778219,-4.1383636833020766e-05,critical
1500,1.414141414141414,7.898734177215189,cathode,0.0181829649619712,0.0190956256748716,0.0171064741610155,3.942870181405412e-05,critical
1500,1.5151515151515151,7.898734177215189,cathode,0.0179613183273815,0.0188420550464059,0.0169271025902549,1.309410133993769e-05,critical
1500,1.616161616161616,7.898734177215189,cathode,0.0178214756984665,0.0186924819649508,0.0167956730775432,-0.0001345313154362,critical
1500,1.7171717171717171,7.898734177215189,cathode,0.0177813593043579,0.0186356265269756,0.0167815590046795,-3.7886593199753617e-05,critical
1500,1.818181818181818,7.898734177215189,cathode,0.0177320695329841,0.0184381098726729,0.0169295545094958,2.283635497191369e-05,critical
1500,1.9191919191919191,7.898734177215189,cathode,0.0176185183287742,0.0184462856851808,0.0166531260597494,-5.305911673735949e-05,critical
1500,2.0202020202020203,7.898734177215189,cathode,0.017527227812235,0.0183512088892248,0.0165660203653091,5.864164937345037e-05,critical
1500,2.121212121212121,7.898734177215189,cathode,0.017543028522245,0.0183342914862445,0.0166241943934491,-0.0001163212964546,critical
1500,2.2222222222222223,7.898734177215189,cathode,0.0174664408451581,0.0182279090320602,0.0165892187803731,3.864028488385979e-05,critical
1500,2.323232323232323,7.898734177215189,cathode,0.0173161949832424,0.0181250455847499,0.0163741751702218,2.82259705975733e-05,critical
1500,2.4242424242424243,7.898734177215189,cathode,0.0172602203325071,0.0181232968362447,0.016243168703366,1.3615656984290276e-05,critical
1500,2.525252525252525,7.898734177215189,cathode,0.0172794403400525,0.018034393134074,0.0164095427973537,-3.0407733685872858e-05,critical
1500,2.6262626262626263,7.898734177215189,cathode,0.0172148958308269,0.0180559929262275,0.0162278907710827,4.588252099642553e-08,critical
1500,2.727272727272727,7.898734177215189,cathode,0.0170082107891947,0.0178091592585638,0.0160735631360103,5.857931166917459e-05,critical
1500,2.8282828282828283,7.898734177215189,cathode,0.0170894599224201,0.0179696659574097,0.0160463191264083,-3.358005424544805e-05,critical
1500,2.929292929292929,7.898734177215189,cathode,0.0168995102329174,0.0176931800812132,0.0159739024984708,5.290620875741006e-05,critical
1500,3.0303030303030303,7.898734177215189,cathode,0.0170394668662816,0.017838994345035,0.0161077314569639,-1.1965608693231406e-05,critical
1500,3.131313131313131,7.898734177215189,cathode,0.0169475764392553,0.0178712783809414,0.0158402966394883,-5.510429293964815e-05,critical
1500,3.2323232323232323,7.898734177215189,cathode,0.0167140126769274,0.0174345644929901,0.0158849260342277,-5.794538087504853e-05,critical
1500,3.333333333333333,7.898734177215189,cathode,0.0167212109721603,0.0174592895102071,0.0158694901092216,-2.16951903428709e-05,critical
1500,3.4343434343434343,7.898734177215189,cathode,0.0167430651631081,0.0175850907037566,0.0157497132508593,2.224550113344645e-05,critical
1500,3.5353535353535355,7.898734177215189,cathode,0.0166777872059095,0.0176261844837362,0.0155314366124379,-1.4724277063359868e-05,critical
1500,3.636363636363636,7.898734177215189,cathode,0.0166473015898259,0.017460528448828,0.0156930119185046,-9.210262535118152e-06,critical
1500,3.7373737373737375,7.898734177215189,cathode,0.0167389264489943,0.0175615190917949,0.0157726157668719,1.1411126918435435e-05,critical
1500,3.8383838383838382,7.898734177215189,cathode,0.0166805814176302,0.0174423863074004,0.0157965527828776,-3.392381441410391e-05,critical
1500,3.939393939393939,7.898734177215189,cathode,0.0166562764789862,0.0174911130049064,0.0156711215063354,6.787220498514505e-05,critical
1500,4.040404040404041,7.898734177215189,cathode,0.016580296502861,0.0173336109328226,0.015706958620138,2.5329278215906955e-05,critical
1500,4.141414141414141,7.898734177215189,cathode,0.016609134198404,0.0173456569358378,0.0157584566882885,3.3419761918023024e-05,critical
1500,4.242424242424242,7.898734177215189,cathode,0.0165625856393924,0.017254727820564,0.0157704892853971,-1.6112275682813997e-05,critical
1500,4.343434343434343,7.898734177215189,cathode,0.0165626700714455,0.0173580049089021,0.0156321863694557,2.7402296615029224e-06,critical
1500,4.444444444444445,7.898734177215189,cathode,0.0165050801938674,0.0172923336248269,0.0155838789474158,7.576475345180381e-05,critical
1500,4.545454545454545,7.898734177215189,cathode,0.016625549200739,0.0173996851088108,0.0157242064473103,-4.2492006771326425e-05,critical
1500,4.646464646464646,7.898734177215189,cathode,0.0165464997901627,0.0173706415492736,0.0155759846948969,1.8395369585838133e-05,critical
1500,4.747474747474747,7.898734177215189,cathode,0.0165973218990218,0.0173954376193114,0.0156633467738442,7.827488957997453e-06,critical
1500,4.848484848484849,7.898734177215189,cathode,0.0164946540248151,0.0172940600812346,0.0155577465234609,-2.7224511567073024e-05,critical
1500,4.94949494949495,7.898734177215189,cathode,0.0164986086123192,0.0172315549400767,0.0156519934040104,1.7197222176822064e-05,critical
1500,5.05050505050505,7.898734177215189,cathode,0.0164845556889637,0.0172088791231635,0.0156489203525746,4.7350259194988097e-05,critical
1500,5.151515151515151,7.898734177215189,cathode,0.0164599787768761,0.0173444114513818,0.0154030301834745,-4.261067000168127e-05,critical
1500,5.252525252525253,7.898734177215189,cathode,0.0166030693382261,0.0173287807973769,0.0157666692488342,-3.900274375828573e-05,critical
1500,5.353535353535354,7.898734177215189,cathode,0.0165048941351831,0.0173210099241892,0.0155447311513847,-4.442819262927938e-05,critical
1500,5.454545454545454,7.898734177215189,cathode,0.0164297233697085,0.0171166260519246,0.0156434972420314,2.4556590705720696e-05,critical
1500,5.555555555555555,7.898734177215189,cathode,0.0165618820405198,0.0174338057218037,0.0155244339380739,-9.502600225897617e-06,critical
1500,5.656565656565657,7.898734177215189,cathode,0.016628590324442,0.0174497966107464,0.0156630864922747,-1.7836249582915846e-06,critical
1500,5.757575757575758,7.898734177215189,cathode,0.0165050485629432,0.0173010899372867,0.0155724673782935,-5.109943356344806e-05,critical
1500,5.858585858585858,7.898734177215189,cathode,0.0165972502249666,0.0175391141429765,0.0154571436910046,9.917416725359088e-05,critical
1500,5.959595959595959,7.898734177215189,cathode,0.0166196028438843,0.017282079588181,0.0158663627587624,3.2662799768420225e-05,critical
1500,6.0606060606060606,7.898734177215189,cathode,0.0164838671789095,0.0173418518020529,0.0154652589141949,4.005613835588448e-06,critical
1500,6.161616161616162,7.898734177215189,cathode,0.0165652985824562,0.0173728496008935,0.0156180318789788,2.081131077177396e-06,critical
1500,6.262626262626262,7.898734177215189,cathode,0.0166965102278675,0.0174453285328326,0.0158301504677995,2.874005673532772e-05,critical
1500,6.363636363636363,7.898734177215189,cathode,0.0167496836570977,0.017463852719986,0.0159299981612833,4.126632775738216e-06,critical
1500,6.4646464646464645,7.898734177215189,cathode,0.0168173920462052,0.0176421466343042,0.0158489230187473,-3.687081709218193e-07,critical
1500,6.565656565656566,7.898734177215189,cathode,0.0168337551189779,0.017675614552059,0.0158409964982394,-5.813713361847344e-05,critical
1500,6.666666666666667,7.898734177215189,cathode,0.0168190763802329,0.0176876452107454,0.0157893967653567,1.565296956324953e-05,critical
1500,6.767676767676767,7.898734177215189,cathode,0.0168387148932033,0.0175962996440872,0.0159605530934517,8.160424607104608e-05,critical
1500,6.8686868686868685,7.898734177215189,cathode,0.0169055158999647,0.0177263212957193,0.0159433069539487,-1.9545835276584888e-05,critical
1500,6.96969696969697,7.898734177215189,cathode,0.0169144300759925,0.0178036774251263,0.0158566400049725,1.2732966122350958e-05,critical
1500,7.070707070707071,7.898734177215189,cathode,0.0170692251912488,0.0178348204987354,0.0161835928796731,1.1859539461905044e-05,critical
1500,7.171717171717171,7.898734177215189,cathode,0.0170593837884211,0.0178660801520833,0.0161161354355365,9.678377369154505e-05,critical
1500,7.272727272727272,7.898734177215189,cathode,0.0170629077074102,0.0178772608103435,0.0161106642557318,4.969680484789433e-05,critical
1500,7.373737373737374,7.898734177215189,cathode,0.0170353327479154,0.0178307348120725,0.0161090026720889,3.079792938065679e-05,critical
1500,7.474747474747475,7.898734177215189,cathode,0.0170701352514155,0.0178670443278127,0.0161421844669364,-2.041685148529917e-05,critical
1500,7.575757575757575,7.898734177215189,cathode,0.0173223359901657,0.0181109542996713,0.0164056262832051,0.0001058814428673,critical
1500,7.6767676767676765,7.898734177215189,cathode,0.0174188488200347,0.0183751581009206,0.0162714668315937,-7.514791007875889e-07,critical
1500,7.777777777777778,7.898734177215189,cathode,0.017514049949335,0.0183996252206159,0.0164643365065522,-0.0001402164925552,critical
1500,7.878787878787879,7.898734177215189,cathode,0.0174746058532163,0.0183529038599855,0.0164382178495763,-4.75933610029479e-05,critical
1500,7.979797979797979,7.898734177215189,cathode,0.0176069422666974,0.018481367195772,0.0165770145740541,-6.314988047429237e-05,critical
1500,8.080808080808081,7.898734177215189,cathode,0.0177961762439572,0.0186754687224584,0.016761868033161,-4.574977098200544e-05,critical
1500,8.181818181818182,7.898734177215189,cathode,0.0178105193896727,0.0186443426155253,0.0168391147355371,-2.257402435063837e-05,critical
1500,8.282828282828282,7.898734177215189,cathode,0.0178927855294047,0.0187254312830135,0.0169237713635181,1.7105737512388003e-05,critical
1500,8.383838383838384,7.898734177215189,cathode,0.0179229957064413,0.0187734124366205,0.0169285416576063,-8.89427027142235e-05,critical
1500,8.484848484848484,7.898734177215189,cathode,0.0180377999910594,0.0188498010010831,0.0170977695210114,-3.194357970279402e-05,critical
1500,8.585858585858587,7.898734177215189,cathode,0.0180613992548547,0.0189665987831747,0.0169933977273391,6.748821912201302e-05,critical
1500,8.686868686868687,7.898734177215189,cathode,0.0181936163552641,0.0191170387228899,0.0171019092598839,-5.497809657885807e-05,critical
1500,8.787878787878787,7.898734177215189,cathode,0.0183648305103956,0.0193058534618134,0.0172506090915182,-4.178917742182799e-05,critical
1500,8.88888888888889,7.898734177215189,cathode,0.0185927023960149,0.0195398974576141,0.0174725206323617,-3.3035167083157976e-05,critical
1500,8.98989898989899,7.898734177215189,cathode,0.01866663664007,0.0195749043837227,0.0176015843592042,4.829732872959826e-07,critical
1500,9.09090909090909,7.898734177215189,cathode,0.0189063669715675,0.019747352621609,0.0179328736429626,-0.0001026300041992,critical
1500,9.191919191919192,7.898734177215189,cathode,0.018935786930925,0.0198333635099325,0.0178877036977089,4.125042975220514e-05,critical
1500,9.292929292929292,7.898734177215189,cathode,0.0190738618587278,0.0199825740640117,0.0180117781605188,4.647076317812062e-05,critical
1500,9.393939393939394,7.898734177215189,cathode,0.0193396991451839,0.0203127099736302,0.0181901198195914,-9.651560023116412e-05,critical
1500,9.494949494949497,7.898734177215189,cathode,0.0193468891564829,0.0202842274048514,0.018248493040483,2.1000015564524664e-05,critical
1500,9.595959595959595,7.898734177215189,cathode,0.0196426207004741,0.0205443311303506,0.0185953315185838,4.203292199963413e-05,critical
1500,9.696969696969695,7.898734177215189,cathode,0.0197167213412565,0.0206872512561947,0.0185761626244933,-2.9786177073011906e-05,critical
1500,9.797979797979798,7.898734177215189,cathode,0.0201937363500498,0.021229152695361,0.0189678404117074,2.753258521859993e-05,critical
1500,9.8989898989899,7.898734177215189,cathode,0.0203340586647446,0.0212927777615249,0.0192155640396864,4.615291861104264e-05,critical
1500,10.0,7.898734177215189,cathode,0.0204087027649826,0.0213298194965139,0.0193420051515256,-2.747178300516148e-05,critical
1500,0.0,8.0,cathode,0.0203200299244585,0.0212938426912073,0.0191797342708601,-8.928847453420939e-05,critical
1500,0.101010101010101,8.0,cathode,0.0202086713657803,0.0212070133172774,0.0190343337457921,-5.320594340962555e-05,critical
1500,0.202020202020202,8.0,cathode,0.0200907591086471,0.0210435198637611,0.0189784364008256,1.7592317393408936e-05,critical
1500,0.303030303030303,8.0,cathode,0.0198003416511345,0.0207409992058121,0.0187017141147171,2.948569267395613e-05,critical
1500,0.404040404040404,8.0,cathode,0.0196544361630056,0.0205521646054751,0.0186129418436062,3.2354073297660373e-06,critical
1500,0.5050505050505051,8.0,cathode,0.0194653432943235,0.0204218205554885,0.0183418072000397,-3.59186307117777e-06,critical
1500,0.6060606060606061,8.0,cathode,0.0192709646114289,0.0201965882127999,0.0181880035014241,3.974122409616425e-06,critical
1500,0.7070707070707071,8.0,cathode,0.0191122966834658,0.0201867489801165,0.0178163978487797,4.534654631113568e-05,critical
1500,0.8080808080808081,8.0,cathode,0.0188998989431666,0.0198694497156362,0.0177519087214045,2.267526661940691e-05,critical
1500,0.9090909090909092,8.0,cathode,0.0188457794892811,0.0198588878892121,0.0176352366148325,-2.939804341454961e-05,critical
1500,1.0101010101010102,8.0,cathode,0.0186420996180826,0.0196392710427231,0.0174519208931086,-1.1148356741608133e-05,critical
1500,1.1111111111111112,8.0,cathode,0.0183604631392654,0.0192238471405555,0.0173530735996493,6.82611370732959e-05,critical
1500,1.2121212121212122,8.0,cathode,0.0182662042048931,0.019137176571385,0.0172480752390579,-4.491044671000769e-05,critical
1500,1.3131313131313131,8.0,cathode,0.0182172606382149,0.0191811586329514,0.0170688504425084,-4.622859636731795e-05,critical
1500,1.414141414141414,8.0,cathode,0.0181028584585891,0.019029223335874,0.0170066021912174,4.3510864054611775e-06,critical
1500,1.5151515151515151,8.0,cathode,0.0179436572160172,0.0188504896431979,0.0168727428021322,3.600127148848748e-05,critical
1500,1.616161616161616,8.0,cathode,0.0179670285043513,0.0189995624432516,0.0167148955139584,-7.897098304003811e-05,critical
1500,1.7171717171717171,8.0,cathode,0.0179677951485274,0.0188202041848048,0.0169725427666223,-1.905588310672786e-05,critical
1500,1.818181818181818,8.0,cathode,0.0177785566695851,0.018675438744901,0.0167195801089607,-4.546091546656634e-05,critical
1500,1.9191919191919191,8.0,cathode,0.0176740409196731,0.0185648989245564,0.0166220525018885,5.872419142682901e-05,critical
1500,2.0202020202020203,8.0,cathode,0.0176593741006468,0.0185246197298767,0.0166435237410768,-2.7832171510604645e-06,critical
1500,2.121212121212121,8.0,cathode,0.0175291300844726,0.0183876213066465,0.0165212452041096,1.4622298305634006e-05,critical
1500,2.2222222222222223,8.0,cathode,0.0174712557703369,0.0182903989798673,0.0165159138770134,6.664954258125601e-05,critical
1500,2.323232323232323,8.0,cathode,0.0172420554200663,0.0180640164768367,0.0162812305424262,4.37136101740825e-05,critical
1500,2.4242424242424243,8.0,cathode,0.0172672635847259,0.0180442013746459,0.0163676277443933,-4.733399648584048e-05,critical
1500,2.525252525252525,8.0,cathode,0.0170017416219027,0.0178182500957766,0.0160463578799033,2.3081903551338013e-05,critical
1500,2.6262626262626263,8.0,cathode,0.0169668876998465,0.0178750039506785,0.0158828611715209,1.209927871984597e-05,critical
1500,2.727272727272727,8.0,cathode,0.0170936703697933,0.0179278107369445,0.016113942564185,-7.24257005432959e-05,critical
1500,2.8282828282828283,8.0,cathode,0.0170378244408942,0.0179459405115289,0.0159541516813899,5.158148483430768e-05,critical
1500,2.929292929292929,8.0,cathode,0.0169082040092983,0.0175977887234939,0.0161217293790474,2.465875032394464e-05,critical
1500,3.0303030303030303,8.0,cathode,0.0169455814185987,0.017780790418944,0.0159639603221517,-2.90225376315884e-06,critical
1500,3.131313131313131,8.0,cathode,0.016960925948765,0.0177558417612154,0.0160337351318705,7.046028177677558e-05,critical
1500,3.2323232323232323,8.0,cathode,0.0168272787940089,0.0175846662230819,0.0159506719292055,-6.642035824790228e-06,critical
1500,3.333333333333333,8.0,cathode,0.0167568187665069,0.0175063308617553,0.0158900156601895,2.9601784835662422e-05,critical
1500,3.4343434343434343,8.0,cathode,0.0168186377031388,0.0177254961392205,0.0157335382189563,-6.808542905989435e-05,critical
1500,3.5353535353535355,8.0,cathode,0.0168013050729957,0.0175662989379614,0.0159141929318111,-1.758317119411731e-05,critical
1500,3.636363636363636,8.0,cathode,0.0165938533045593,0.0173766765854709,0.0156791650624671,-8.687481760066185e-05,critical
1500,3.7373737373737375,8.0,cathode,0.0165658546763416,0.0173769543072892,0.0156129896401907,-5.704452390491578e-05,critical
1500,3.8383838383838382,8.0,cathode,0.0168033471227905,0.0176600575780246,0.0157874763577603,-0.0001128016145821,critical
1500,3.939393939393939,8.0,cathode,0.0167475654607145,0.0176458835600538,0.0156740162778032,-6.006142856231994e-05,critical
1500,4.040404040404041,8.0,cathode,0.0164926464829223,0.0172168060073139,0.0156574503810186,3.878256589055254e-05,critical
1500,4.141414141414141,8.0,cathode,0.0165089534928219,0.0172540707818885,0.0156461682839899,5.772004522706688e-06,critical
1500,4.242424242424242,8.0,cathode,0.0164531091119352,0.017231965964078,0.0155440598795432,-1.8812328899390963e-05,critical
1500,4.343434343434343,8.0,cathode,0.0164694076016859,0.0173554261467059,0.0154107086862854,-3.841717457998439e-06,critical
1500,4.444444444444445,8.0,cathode,0.0165852307867148,0.0174732206636511,0.0155223063195541,-0.0001142073264358,critical
1500,4.545454545454545,8.0,cathode,0.0165695389394789,0.0173406898445056,0.0156717832252475,-4.0162767841660574e-05,critical
1500,4.646464646464646,8.0,cathode,0.016532061609815,0.0173137751504687,0.0156191306560248,6.089576877626113e-05,critical
1500,4.747474747474747,8.0,cathode,0.016471223605739,0.0172189419941258,0.015604540343646,-2.03253449701516e-05,critical
1500,4.848484848484849,8.0,cathode,0.0165545951488738,0.0174013651861494,0.015552615517157,-9.984476542298777e-07,critical
1500,4.94949494949495,8.0,cathode,0.0164728136352462,0.0172017685305332,0.015631378150436,-6.174102298709055e-06,critical
1500,5.05050505050505,8.0,cathode,0.016462489805137,0.0171792386157881,0.0156372127662545,1.0286986568680668e-05,critical
1500,5.151515151515151,8.0,cathode,0.0165581306095968,0.0173000735382207,0.0156999253098979,-2.12330407277056e-05,critical
1500,5.252525252525253,8.0,cathode,0.0164552565961616,0.0171923994713209,0.0156027313405537,-3.4072983331886624e-06,critical
1500,5.353535353535354,8.0,cathode,0.0164778869824307,0.0172020467879597,0.0156427830729613,-2.287471575805853e-05,critical
1500,5.454545454545454,8.0,cathode,0.0165318607016956,0.0173850465394923,0.0155160599926118,0.0001436227311844,critical
1500,5.555555555555555,8.0,cathode,0.016616879896861,0.0173950221043154,0.0157088316895825,-8.56055269043656e-05,critical
1500,5.656565656565657,8.0,cathode,0.0165160729748999,0.0173294690818072,0.0155596985364052,-4.9207113210044825e-05,critical
1500,5.757575757575758,8.0,cathode,0.0167317313176868,0.017565797820911,0.0157484897628152,6.692570742523485e-05,critical
1500,5.858585858585858,8.0,cathode,0.0166059526804041,0.0173900576897542,0.0156902317581523,-6.884956110597907e-05,critical
1500,5.959595959595959,8.0,cathode,0.0166024956934233,0.0173949201992646,0.0156738816944179,-0.0001079636171122,critical
1500,6.0606060606060606,8.0,cathode,0.0166410632776727,0.0173642490024925,0.0158086125562165,9.95738339507735e-06,critical
1500,6.161616161616162,8.0,cathode,0.0164305461322053,0.0171655248222155,0.0155807199133134,1.3144425417169811e-06,critical
1500,6.262626262626262,8.0,cathode,0.0166962331949361,0.0174594278977458,0.0158106343501523,-1.8728614418097283e-05,critical
1500,6.363636363636363,8.0,cathode,0.0166583447083381,0.0173639559906563,0.0158474592741831,9.327509511954384e-05,critical
1500,6.4646464646464645,8.0,cathode,0.0166386015041453,0.0173948470078015,0.0157619122912568,-1.3308749665468917e-05,critical
1500,6.565656565656566,8.0,cathode,0.0167137406473971,0.0174620760796541,0.0158481219386162,3.24933189385524e-05,critical
1500,6.666666666666667,8.0,cathode,0.0169238227237874,0.0177117345957134,0.0160039584698391,-0.0001174895619002,critical
1500,6.767676767676767,8.0,cathode,0.0167067025060294,0.0174421438947007,0.0158584812606789,-1.7498949735382848e-06,critical
1500,6.8686868686868685,8.0,cathode,0.0168336651552181,0.0176690909959672,0.0158505603936716,-8.851999057247686e-06,critical
1500,6.96969696969697,8.0,cathode,0.0169074822794984,0.0177168119080535,0.0159611437174971,1.3109685866964163e-06,critical
1500,7.070707070707071,8.0,cathode,0.0168768910903668,0.0176602538990268,0.0159651612847466,-4.936961811682471e-05,critical
1500,7.171717171717171,8.0,cathode,0.0170104370271855,0.0178241568173238,0.0160570951267158,-9.708976630434128e-05,critical
1500,7.272727272727272,8.0,cathode,0.0171165935615828,0.0179371637256759,0.0161568578961634,5.193902134915514e-06,critical
1500,7.373737373737374,8.0,cathode,0.0171980446676402,0.0179917590977851,0.0162750774149331,-5.3142081973230064e-05,critical
1500,7.474747474747475,8.0,cathode,0.0172837624585903,0.0181345740376997,0.0162825855567852,8.332684008031215e-05,critical
1500,7.575757575757575,8.0,cathode,0.0174106656373282,0.0182363546845644,0.0164467145274776,1.0747466705038816e-05,critical
1500,7.6767676767676765,8.0,cathode,0.0173704735806215,0.0181454174196276,0.0164743393895465,4.859937076864999e-05,critical
1500,7.777777777777778,8.0,cathode,0.0173596723009371,0.018194920902668,0.0163809739688357,-7.59237458110855e-05,critical
1500,7.878787878787879,8.0,cathode,0.0174494929634353,0.0182538922697311,0.016514722428262,-2.6638778102489875e-05,critical
1500,7.979797979797979,8.0,cathode,0.0176626896803957,0.0185632104878838,0.0165977417352685,7.4357946578526196e-06,critical
1500,8.080808080808081,8.0,cathode,0.0176089611317979,0.0183922639343925,0.0167039530842065,2.312820699688626e-05,critical
1500,8.181818181818182,8.0,cathode,0.0176821552669303,0.0186409517517632,0.0165338347305911,6.391989346903602e-05,critical
1500,8.282828282828282,8.0,cathode,0.0178431745734132,0.0187522909924574,0.0167680744318888,-2.5510573624504706e-05,critical
1500,8.383838383838384,8.0,cathode,0.0177784651336677,0.0186235082607473,0.0167915604475939,2.8874624597766608e-06,critical
1500,8.484848484848484,8.0,cathode,0.0178504426747822,0.0187187991454331,0.0168309973017064,-7.842188584261118e-05,critical
1500,8.585858585858587,8.0,cathode,0.0180959542786196,0.0189777809959233,0.017061445381028,3.0795832613716734e-05,critical
1500,8.686868686868687,8.0,cathode,0.0183255440592976,0.0191431341372,0.0173800859568788,-5.134651733339101e-05,critical
1500,8.787878787878787,8.0,cathode,0.0184371515912428,0.0193439822441849,0.0173715167169917,-3.4773622437227656e-05,critical
1500,8.88888888888889,8.0,cathode,0.0185168842269841,0.01942343687795,0.0174516305031829,7.379611570756557e-05,critical
1500,8.98989898989899,8.0,cathode,0.0186109780244786,0.0195670509172507,0.0174787230624825,1.041899715552502e-05,critical
1500,9.09090909090909,8.0,cathode,0.0187728992504938,0.0196947740348864,0.0176898320091139,-3.962157612703301e-05,critical
1500,9.191919191919192,8.0,cathode,0.0187563291921368,0.019677146426875,0.0176744175333679,-4.781885649117083e-05,critical
1500,9.292929292929292,8.0,cathode,0.0191143764994926,0.0200582917442167,0.0180044332397904,3.098168901060838e-05,critical
1500,9.393939393939394,8.0,cathode,0.0192590781024692,0.0202123728238532,0.0181370420833616,-6.4382098342205e-05,critical
1500,9.494949494949497,8.0,cathode,0.0195767839717484,0.0205810356315718,0.0183874963931955,4.138374259231882e-05,critical
1500,9.595959595959595,8.0,cathode,0.0197009371250654,0.0207265609848344,0.0184827841276327,-5.1109783656760734e-05,critical
1500,9.696969696969695,8.0,cathode,0.0198202708995985,0.0207862113060821,0.0186869726523959,-4.071602740063063e-05,critical
1500,9.797979797979798,8.0,cathode,0.0200239525258745,0.0210012193685686,0.0188770403781886,-4.348319075892029e-05,critical
1500,9.8989898989899,8.0,cathode,0.0202235157743337,0.021293487690629,0.0189492094133374,8.005066991299722e-06,critical
1500,10.0,8.0,cathode,0.0204974079236283,0.0214624240652412,0.0193712776745595,-7.362568262236003e-05,critical
