time_min,temperature_C,mean_exx,std_exx,max_exx,mean_eyy,std_eyy,max_eyy,mean_von_mises,max_von_mises,hotspot_count,timestamp
0.0,25.0,0.00013708461985707834,0.0012822770877864889,0.012131386114370353,9.595938419236906e-05,0.0008975939098722978,0.008491971013416984,0.00012184500463630024,0.010782611716612782,113,2025-10-03T05:48:25.506902
2.0,39.898989898989896,1.2679879627684771e-06,1.2463024838870386e-09,1.2718936568802293e-06,1.0145654929214911e-06,1.1631045502760075e-09,1.018998036486328e-06,1.1621888599880667e-06,1.1649154401818573e-06,0,2025-10-03T05:50:25.514889
4.0,54.7979797979798,2.5359276128411574e-06,2.496265979588855e-09,2.545507712755058e-06,2.0289968723193713e-06,2.6507602082847934e-09,2.0382777270716313e-06,2.3243026223980626e-06,2.3325946142037403e-06,0,2025-10-03T05:52:25.517825
6.0,69.6969696969697,3.804361981976525e-06,3.5228814811254095e-09,3.816899494857829e-06,3.0431058981129672e-06,3.742497122217914e-09,3.055644904962432e-06,3.4866341428962415e-06,3.4952364149606817e-06,0,2025-10-03T05:54:25.520690
8.0,84.5959595959596,5.907720247485171e-05,0.0007696042348209009,0.011026457419569135,4.186186658050383e-05,0.0005387229409382407,0.007719030186985965,5.26495177670997e-05,0.00980064296491662,0,2025-10-03T05:56:25.523912
10.0,99.4949494949495,6.338758727225725e-06,6.077230382881907e-09,6.359431634367885e-06,5.072244472574779e-06,6.05037179374858e-09,5.089192202963672e-06,5.809980723894774e-06,5.82281349116884e-06,0,2025-10-03T05:58:25.526805
12.0,114.3939393939394,4.859009782736763e-05,0.0007599195996620584,0.014139469319314698,3.477417863212055e-05,0.0005319429434902697,0.009898379746349394,4.339853399920333e-05,0.012567602101202153,29,2025-10-03T06:00:25.529889
14.0,129.2929292929293,8.877658587684071e-06,8.35480478759645e-09,8.905128149691512e-06,7.101237588705353e-06,8.848846561724528e-09,7.136051375968464e-06,8.136228510128989e-06,8.158137272516085e-06,0,2025-10-03T06:02:25.532680
16.0,144.1919191919192,1.014251759513419e-05,1.0425859696715165e-08,1.0179219697892288e-05,8.114771245898497e-06,9.421335373450012e-09,8.140284824821003e-06,9.296029903607568e-06,9.32444771042641e-06,0,2025-10-03T06:04:25.535475
18.0,159.0909090909091,1.1410190624709742e-05,1.1659834825471187e-08,1.1459285696087959e-05,9.128911058636977e-06,1.0950367977274616e-08,9.16311445717932e-06,1.0457873080213273e-05,1.049710724719981e-05,0,2025-10-03T06:06:25.538324
20.0,173.989898989899,1.2678626215753358e-05,1.1589970915378622e-08,1.271459135996121e-05,1.0141103174987373e-05,1.1539223802391029e-08,1.0180954899751065e-05,1.1619577123015334e-05,1.1644489457621652e-05,0,2025-10-03T06:08:25.541154
22.0,188.88888888888889,1.3948575139777039e-05,1.4709183111330513e-08,1.3992576606221492e-05,1.1156541897267244e-05,1.3709208709666053e-08,1.1199694550513242e-05,1.2783339155914683e-05,1.2817670730274721e-05,0,2025-10-03T06:10:25.543956
24.0,203.7878787878788,1.521811505687962e-05,1.3306141568574867e-08,1.527728968715917e-05,1.217530520909049e-05,1.5326415612175193e-08,1.224782008948511e-05,1.3947916192844744e-05,1.399023950735263e-05,0,2025-10-03T06:12:25.546819
26.0,218.6868686868687,1.6482748460323127e-05,1.637500813847458e-08,1.652705019299485e-05,1.3183761451332227e-05,1.6678444412322968e-08,1.326396279511014e-05,1.5105911611085368e-05,1.5145099180822278e-05,0,2025-10-03T06:14:25.549688
28.0,233.5858585858586,1.7753551250714046e-05,1.892135376796082e-08,1.782877846638742e-05,1.4200715672937914e-05,1.787496799601739e-08,1.4265482681629285e-05,1.6270725965899695e-05,1.631945292206746e-05,0,2025-10-03T06:16:25.552429
30.0,248.4848484848485,1.901697959991278e-05,1.94673867591873e-08,1.908002241880772e-05,1.5214968923453042e-05,1.9077084399681416e-08,1.5274372873948467e-05,1.7429828265791628e-05,1.7477557216004358e-05,0,2025-10-03T06:18:25.555222
32.0,263.3838383838384,2.0288914019225696e-05,1.9596840837886757e-08,2.0350368082771243e-05,1.6229596336496632e-05,2.072762269441273e-08,1.628726509613976e-05,1.8594618711470795e-05,1.863512454926572e-05,0,2025-10-03T06:20:25.558049
34.0,278.2828282828283,0.00023198449286864894,0.001710999022505773,0.01414424892277192,0.00016454413825816395,0.0011976991375138677,0.009903125121717505,0.00020678749879128076,0.012572164431428485,149,2025-10-03T06:22:25.561089
36.0,293.1818181818182,0.00011019640761741935,0.0009668412110988242,0.010809307239557517,7.942253015906891e-05,0.0006767877530614794,0.0075687950986146595,9.857676722673165e-05,0.00960803112246397,0,2025-10-03T06:24:25.564045
38.0,308.0808080808081,0.00011585445465955137,0.0010428084820124177,0.013668620961924812,8.351023533955927e-05,0.0007299663098807149,0.009570427068888252,0.00010364094010447283,0.012149471864763773,29,2025-10-03T06:26:25.567162
40.0,322.979797979798,2.5358292096534247e-05,2.721215518092186e-08,2.5495831024168654e-05,2.0286493041870767e-05,2.3957963888169403e-08,2.0364739072977057e-05,2.3241245069738198e-05,2.333229980003378e-05,0,2025-10-03T06:28:25.570088
42.0,337.8787878787879,0.00011932378388561715,0.001025772125865413,0.011470560522067684,8.61880158110691e-05,0.0007180381553940813,0.008032031291975612,0.00010679324393820638,0.010195849000197326,81,2025-10-03T06:30:25.573115
44.0,352.77777777777777,8.264172029451881e-05,0.0007801342240885911,0.011200113278513522,6.064091666296939e-05,0.0005460971066449653,0.007842923446414789,7.422615162601241e-05,0.009955514709896592,0,2025-10-03T06:32:25.576065
46.0,367.67676767676767,2.9164924580217733e-05,2.996564114614101e-08,2.9272920179988437e-05,2.3334097552557538e-05,2.9616844311765243e-08,2.3432807459828965e-05,2.6730839488318263e-05,2.6797620392407695e-05,0,2025-10-03T06:34:25.578846
48.0,382.5757575757576,3.0433038433049486e-05,3.077318982454754e-08,3.0532291778973987e-05,2.4345025563803456e-05,3.06032040748085e-08,2.445455434744961e-05,2.789191673963939e-05,2.7955721219274016e-05,0,2025-10-03T06:36:25.581676
50.0,397.4747474747475,3.1699732346999764e-05,3.312497668505653e-08,3.1818583817373046e-05,2.5358685647799404e-05,2.9825374448881965e-08,2.546272711934102e-05,2.9052960318760746e-05,2.913834280284594e-05,0,2025-10-03T06:38:25.584455
52.0,412.3737373737374,3.29678077244205e-05,3.206425030730971e-08,3.3075377223178276e-05,2.6369931417728753e-05,3.46694460298897e-08,2.6505588099836968e-05,3.0214125577633872e-05,3.0281819529022688e-05,0,2025-10-03T06:40:25.590536
54.0,427.2727272727273,9.78483959233807e-05,0.0009064862719212058,0.013015927643241205,7.191544587685682e-05,0.0006345404159342328,0.009114578928541207,8.791624310561279e-05,0.011569580651696559,49,2025-10-03T06:42:25.593524
56.0,442.1717171717172,3.550409072352949e-05,3.522479697898734e-08,3.562695331888174e-05,2.839935403182583e-05,3.4968663184226895e-08,2.854395432667506e-05,3.253879505712592e-05,3.2646204559818376e-05,0,2025-10-03T06:44:25.596334
58.0,457.0707070707071,3.6772028930013495e-05,3.601135664283827e-08,3.689683200382951e-05,2.9422915883139956e-05,3.8383486691335285e-08,2.9534481150835237e-05,3.370389714356542e-05,3.381229920170216e-05,0,2025-10-03T06:46:25.599232
60.0,471.969696969697,0.00020827013887929623,0.0014196436623159254,0.013043328490810987,0.00014958818489704218,0.0009937498263670355,0.0091341103017751,0.00018616371931438463,0.01159401099176532,142,2025-10-03T06:48:25.602457
62.0,486.8686868686869,0.00013342461836613397,0.001041563851648775,0.01165946357271998,9.73313311863832e-05,0.0007290907585606518,0.008165530793947945,0.00011967859552339943,0.010364033890296684,81,2025-10-03T06:50:25.605324
64.0,501.7676767676768,4.057587859808836e-05,4.0910869710438055e-08,4.071883565370619e-05,3.2453163790076746e-05,4.169501566523606e-08,3.258424690819325e-05,3.7185986580939865e-05,3.728411611252959e-05,0,2025-10-03T06:52:25.608090
66.0,516.6666666666667,4.184635418859743e-05,4.144547492614656e-08,4.1979433484174885e-05,3.347260912749048e-05,4.533010897685773e-08,3.3603981217707126e-05,3.835140440859067e-05,3.8455684926215e-05,0,2025-10-03T06:54:25.610965
68.0,531.5656565656566,4.31104862300632e-05,4.1190961263602906e-08,4.328082478197865e-05,3.44974277044315e-05,4.1158716297489016e-08,3.4636612311328775e-05,3.9514422170644256e-05,3.962814644270815e-05,0,2025-10-03T06:56:25.613826
70.0,546.4646464646465,4.4377746165912754e-05,4.485556959877948e-08,4.451263275822273e-05,3.550480952168117e-05,3.991093543337192e-08,3.5635842051664155e-05,4.06737789978395e-05,4.0775502654209185e-05,0,2025-10-03T06:58:25.617077
72.0,561.3636363636364,0.00021827840248069377,0.001403697454318628,0.0116319211958854,0.00015736265198383877,0.0009825864863877848,0.008146862985641443,0.00019527188116494945,0.010339686833971247,149,2025-10-03T07:00:25.620135
74.0,576.2626262626263,4.691500614068057e-05,4.543646581787799e-08,4.704260893372732e-05,3.7534406279966596e-05,4.5310420001853164e-08,3.7658155044736325e-05,4.2999155510460343e-05,4.311097032898126e-05,0,2025-10-03T07:02:25.622973
76.0,591.1616161616162,4.818036497844202e-05,4.444366293511212e-08,4.8343230741655845e-05,3.854928870655e-05,4.807545851838863e-08,3.869734378072954e-05,4.415972673852243e-05,4.4256835717374445e-05,0,2025-10-03T07:04:25.625708
78.0,606.0606060606061,4.945348231047981e-05,4.806919435900896e-08,4.9612930689109884e-05,3.956415178127163e-05,4.7916266952780116e-08,3.9720087296205034e-05,4.532537144293309e-05,4.5444354675695064e-05,0,2025-10-03T07:06:25.628439
80.0,620.959595959596,5.072074910729041e-05,4.747705935997103e-08,5.08914931628704e-05,4.057556709342631e-05,5.1452330013827855e-08,4.0756634502331604e-05,4.6486054192330326e-05,4.661145399484087e-05,0,2025-10-03T07:08:25.631301
82.0,635.8585858585859,5.198982674143211e-05,4.8429833409021464e-08,5.216406703663321e-05,4.158659920818455e-05,4.861526338774859e-08,4.1802353920655224e-05,4.7647801217825924e-05,4.777950854911677e-05,0,2025-10-03T07:10:25.634134
84.0,650.7575757575758,5.3252953712831586e-05,4.984052430966394e-08,5.3408986562081894e-05,4.2608744148539524e-05,5.288681338870666e-08,4.276142954790203e-05,4.880928711386686e-05,4.891065382901689e-05,0,2025-10-03T07:12:25.636931
86.0,665.6565656565657,0.00021705154712491366,0.0013214325011481544,0.010961734490208697,0.000157387736632691,0.0009250055605594529,0.007678754486082673,0.00019442525508269249,0.009744234257457466,0,2025-10-03T07:14:25.639965
88.0,680.5555555555555,0.00035056289827587096,0.0019498513287188907,0.014497257802909507,0.0002509711717901401,0.0013648981786500425,0.010153723642233525,0.00031312514687335157,0.012886712077534834,226,2025-10-03T07:16:25.643148
90.0,695.4545454545455,5.706043509676508e-05,5.510686014235279e-08,5.723573972664364e-05,4.566188120052796e-05,5.495401008343889e-08,4.5876108046773025e-05,5.230125052490036e-05,5.2429424636892295e-05,0,2025-10-03T07:18:25.645878
92.0,710.3535353535353,5.83344830670482e-05,5.849905706763507e-08,5.8503138924986693e-05,4.6664087435034127e-05,5.763327062824838e-08,4.682503961811623e-05,5.3463361324785175e-05,5.358721757880372e-05,0,2025-10-03T07:20:25.648683
94.0,725.2525252525253,0.00012174479992738607,0.0008856542852471895,0.012742951081944275,9.11860212255599e-05,0.0006199637198522472,0.00892614910301547,0.00010985986758803483,0.011327547403614371,49,2025-10-03T07:22:25.651710
96.0,740.1515151515152,0.00010211209510275698,0.0007648942484775755,0.014285245720398626,7.755728236059704e-05,0.000535426181848002,0.010005763237567274,9.244157747597683e-05,0.01269837085714222,29,2025-10-03T07:24:25.654689
98.0,755.0505050505051,0.0001245593830475938,0.000889526045960435,0.012800951243053367,9.339328827415474e-05,0.0006226681513409886,0.008966859115102394,0.0001124262992481861,0.011379129526523563,49,2025-10-03T07:26:25.657620
100.0,769.949494949495,6.339481375890558e-05,6.695970715390102e-08,6.366534952671984e-05,5.0728940765797945e-05,6.37597455901687e-08,5.092158337288056e-05,5.810668146704153e-05,5.829033594061515e-05,0,2025-10-03T07:28:25.660433
102.0,784.8484848484849,6.466385534525484e-05,5.892687284573598e-08,6.484198768653567e-05,5.1751171483669576e-05,6.664164849785788e-08,5.1995983793447226e-05,5.927205658755671e-05,5.941459482558913e-05,0,2025-10-03T07:30:25.668900
104.0,799.7474747474748,0.0002280653859174204,0.0015164980465674012,0.014413362646788939,0.0001662388829180176,0.0010615487758149813,0.010095908342492224,0.0002045311239809747,0.0128123473882726,113,2025-10-03T07:32:25.671947
106.0,814.6464646464647,6.720903456598546e-05,6.425935732304285e-08,6.75172425459195e-05,5.3757760861099325e-05,6.557138636886213e-08,5.394465754204494e-05,6.159508128141152e-05,6.184429831245587e-05,0,2025-10-03T07:34:25.674767
108.0,829.5454545454546,6.8478775816636e-05,6.27975691606831e-08,6.876783258975262e-05,5.478180698108644e-05,7.081152775192007e-08,5.5017512461220606e-05,6.27615156526923e-05,6.293423969832174e-05,0,2025-10-03T07:36:25.677610
110.0,844.4444444444445,6.974320988021533e-05,6.499647015235253e-08,7.002392951499658e-05,5.5790356940802523e-05,6.500222815733222e-08,5.6066784894857376e-05,6.391941506930889e-05,6.409236784646399e-05,0,2025-10-03T07:38:25.680394
112.0,859.3434343434344,7.101149551498048e-05,7.164184311221275e-08,7.126441966093591e-05,5.6812628220301054e-05,7.23019802612469e-08,5.7044951576430254e-05,6.50843189305936e-05,6.526718999881441e-05,0,2025-10-03T07:40:25.683114
114.0,874.2424242424242,7.227574888139455e-05,7.1743771817121e-08,7.256357006552292e-05,5.781747504627084e-05,6.775841038250697e-08,5.8080439299905236e-05,6.624087228596834e-05,6.642851971411478e-05,0,2025-10-03T07:42:25.685901
116.0,889.1414141414142,0.00041853795576173773,0.001971552937911895,0.012287255371815681,0.00030033279685332784,0.001380090969352016,0.008608478688601252,0.00037403082211692285,0.01092281104121955,149,2025-10-03T07:44:25.689115
118.0,904.040404040404,7.48055322704703e-05,6.933714373402808e-08,7.501787187621768e-05,5.984933226992314e-05,7.435289391438043e-08,6.0075664876384875e-05,6.856209263074914e-05,6.871689122839196e-05,0,2025-10-03T07:46:25.692172
120.0,918.939393939394,7.608935739837315e-05,7.468154125468296e-08,7.637194135814923e-05,6.0869677106862444e-05,7.687020322582446e-08,6.110646094572008e-05,6.973654697049667e-05,6.993077700107676e-05,0,2025-10-03T07:48:25.694954
122.0,933.8383838383838,7.733582642980922e-05,7.655044473540596e-08,7.756967121966924e-05,6.188051412367516e-05,7.526901519292877e-08,6.217851609178899e-05,7.088342497878267e-05,7.105768103725595e-05,0,2025-10-03T07:50:25.697803
124.0,948.7373737373738,7.861069635502594e-05,6.966817214344916e-08,7.884333173294285e-05,6.289178550957415e-05,8.182660468656555e-08,6.315652849480136e-05,7.204903482602527e-05,7.223778814114968e-05,0,2025-10-03T07:52:25.700579
126.0,963.6363636363636,7.98758842438664e-05,8.674697756593103e-08,8.023090661199954e-05,6.390789625675385e-05,7.715476041922384e-08,6.424099930348776e-05,7.320990950856507e-05,7.350579578433644e-05,0,2025-10-03T07:54:25.703392
128.0,978.5353535353536,8.11638344533928e-05,8.233389104282068e-08,8.141188184425392e-05,6.491096085184141e-05,8.175480976260186e-08,6.522544802276278e-05,7.438140075032334e-05,7.461105908905711e-05,0,2025-10-03T07:56:25.706124
130.0,993.4343434343435,8.240697262641777e-05,7.624703816013216e-08,8.265966612564082e-05,6.592988005795576e-05,7.807434601780099e-08,6.624639556520088e-05,7.552874230460964e-05,7.571438788986877e-05,0,2025-10-03T07:58:25.708960
132.0,1008.3333333333334,8.36704428199367e-05,8.578691369308437e-08,8.391772943227951e-05,6.695503578494635e-05,8.091420898590901e-08,6.720585091367713e-05,7.669144076737284e-05,7.685556165047839e-05,0,2025-10-03T08:00:25.711734
134.0,1023.2323232323233,8.495979754955882e-05,8.182105814676793e-08,8.524022247760922e-05,6.798098146666073e-05,8.441616232766307e-08,6.83010697011952e-05,7.787135380694872e-05,7.806747403044742e-05,0,2025-10-03T08:02:25.714422
136.0,1038.1313131313132,8.622807247927131e-05,8.309142670142934e-08,8.649306265421931e-05,6.898168012056079e-05,8.100859088375139e-08,6.928784491515711e-05,7.902917952847502e-05,7.922805284529461e-05,0,2025-10-03T08:04:25.716745
138.0,1053.030303030303,8.748112696029953e-05,8.544356847457121e-08,8.787887227307491e-05,6.999301629662325e-05,7.833941424479774e-08,7.023611506506247e-05,8.018051987710134e-05,8.047150758504361e-05,0,2025-10-03T08:06:25.720228
140.0,1067.929292929293,0.00014002896876019153,0.000730699087161286,0.010553132095374921,0.00010689688736401273,0.0005114864651077291,0.007395959885394623,0.00012691685370850935,0.009381795141456732,0,2025-10-03T08:08:25.723023
142.0,1082.828282828283,9.001337913715965e-05,8.68798872686817e-08,9.033682100770485e-05,7.20230092015207e-05,7.970365131534325e-08,7.232593114864923e-05,8.25027512296043e-05,8.273153230236837e-05,0,2025-10-03T08:10:25.725770
144.0,1097.7272727272727,9.130528426992504e-05,8.694015186641378e-08,9.165623691750294e-05,7.30420056638695e-05,8.633161034074886e-08,7.35226658720203e-05,8.368204774338938e-05,8.390131064980365e-05,0,2025-10-03T08:12:25.728557
146.0,1112.6262626262626,9.256380056176044e-05,8.611732010956386e-08,9.290908446765878e-05,7.405397057563415e-05,8.563473453719335e-08,7.43849585770621e-05,8.483718444663639e-05,8.50598091854868e-05,0,2025-10-03T08:14:25.731393
148.0,1127.5252525252527,9.383864539885942e-05,9.327854208694213e-08,9.421088693724822e-05,7.507532618065782e-05,1.0890789704629815e-07,7.543328891706599e-05,8.600610364419762e-05,8.631003021240446e-05,0,2025-10-03T08:16:25.734170
150.0,1142.4242424242425,0.00019245833170632897,0.0010775059254878334,0.012116295398938371,0.0001442479800172208,0.000754263896789499,0.00849098635597361,0.00017369627074311435,0.010771352385251521,81,2025-10-03T08:18:25.737131
152.0,1157.3232323232323,0.0002043105544514684,0.0011944548009050965,0.013422355965039018,0.00015266238318143975,0.0008361152760687806,0.009405226776312062,0.00018426293600512492,0.011932194794286496,81,2025-10-03T08:20:25.742946
154.0,1172.2222222222222,0.0005154106090394608,0.0023837728236938754,0.01412402056893416,0.0003705487938685456,0.0016686426160421569,0.009896634018832073,0.0004607954164502999,0.012555869750385628,298,2025-10-03T08:22:25.745990
156.0,1187.1212121212122,0.00013978724290710355,0.0007581032861492092,0.0141970237780048,0.0001077312250041575,0.0005306661637794994,0.009947718203740715,0.00012698016943478603,0.012620784340109152,29,2025-10-03T08:24:25.749003
158.0,1202.020202020202,0.00011132597090629356,0.00057974895740507,0.010861620832782278,8.595067993964893e-05,0.00040585317499260327,0.00761170423826474,0.00010117085944993924,0.009655951699110184,0,2025-10-03T08:26:25.752081
160.0,1216.919191919192,-6.0780087090183824e-05,1.7293608568297929e-07,-6.00437478465956e-05,-4.860520229126994e-05,1.8379849225808835e-07,-4.7902709312357375e-05,5.570031854143551e-05,5.607679153106094e-05,0,2025-10-03T08:28:25.754893
162.0,1231.818181818182,-0.00019143684151486855,5.678863954653934e-07,-0.00018897317375101742,-0.00015318530490924829,5.625952074936522e-07,-0.000150862342714463,0.00017546828133607715,0.00017688938962914962,0,2025-10-03T08:30:25.757661
164.0,1246.7171717171718,-0.00011594362643746829,0.0016002365928768686,0.012896547442481863,-0.00011254701077075597,0.001120215618053248,0.008997557961418172,0.00045308915135338176,0.011455718368661461,149,2025-10-03T08:32:25.760713
166.0,1261.6161616161617,-0.0004250544401570588,1.275466926907886e-06,-0.0004195346440368533,-0.00034017931776420186,1.2425848473740688e-06,-0.0003346733636173608,0.0003896176722406566,0.0003930648776218692,0,2025-10-03T08:34:25.763596
168.0,1276.5151515151515,-0.0005291191538620705,1.4116727837729451e-06,-0.0005245981660416545,-0.00042310911648712465,1.4526208605235455e-06,-0.00041760748108191884,0.00048488988529873494,0.0004886625831111849,0,2025-10-03T08:36:25.767254
170.0,1291.4141414141416,-0.0006257504081488022,1.871808003129704e-06,-0.0006194610250652055,-0.000500706920251069,1.823672963247039e-06,-0.0004947724756924313,0.0005735506862893637,0.0005779469986720479,0,2025-10-03T08:38:25.770972
172.0,1306.3131313131314,-0.0006245072029666955,0.0010088229376847338,0.010542457936202032,-0.0005088562087639631,0.0007059520228239166,0.007305525968920997,0.0007263981063719254,0.009353460411875299,0,2025-10-03T08:40:25.774694
174.0,1321.2121212121212,-0.0006079214446406851,0.0015498402620897492,0.011997108603573243,-0.0005054116704703276,0.0010849972471465843,0.008320603869924982,0.0008795545280956276,0.010646016069333495,149,2025-10-03T08:42:25.777662
176.0,1336.111111111111,-0.0008757255773146108,2.4173763579066052e-06,-0.0008646904201806568,-0.0007006414397089964,2.513324666903013e-06,-0.0006906375125208818,0.0008026438684391411,0.0008091033392394878,0,2025-10-03T08:44:25.780461
178.0,1351.0101010101012,-0.0009069649600315469,0.0007441218976090493,0.01289304710334677,-0.0007296508917995661,0.0005206761602771421,0.008926277735278907,0.0008987018463348366,0.011437476744175588,29,2025-10-03T08:46:25.783433
180.0,1365.909090909091,-0.001013731414925085,2.836514918804901e-06,-0.0010045223280847272,-0.000810573658757104,2.8338910624963745e-06,-0.0008021252476026941,0.0009289768442316418,0.0009364003392405324,0,2025-10-03T08:48:25.786125
182.0,1380.8080808080808,-0.0009230858973661811,0.001235304165769917,0.009125889575612613,-0.0007536550999990674,0.0008653176676220555,0.006286311070961337,0.0010910766098155744,0.008088143888408514,0,2025-10-03T08:50:25.789111
184.0,1395.7070707070707,-0.0011318106315414624,3.3496997144375504e-06,-0.00112040947261404,-0.0009053120556896904,3.401758708547778e-06,-0.0008953939429490876,0.0010372891245173281,0.00104626293739382,0,2025-10-03T08:52:25.791957
186.0,1410.6060606060607,-0.0011848370514352816,3.3465242799104708e-06,-0.0011738561023588634,-0.0009473464858388049,3.4208886959686223e-06,-0.0009363006444986222,0.0010857625668843165,0.0010924843466497795,0,2025-10-03T08:54:25.794814
188.0,1425.5050505050506,-0.0012333535164348148,3.514668094169898e-06,-0.0012210258365808215,-0.0009867138545546074,3.9536590308862664e-06,-0.0009706038805645343,0.001130411611103747,0.0011371321632056015,0,2025-10-03T08:56:25.797512
190.0,1440.4040404040404,-0.0012407948701076395,0.0007002281181656266,0.011745095354031869,-0.0009958555067540473,0.0004904376776685556,0.008100204584884828,0.0011984463893643228,0.010412633043269106,29,2025-10-03T08:58:25.802350
192.0,1455.3030303030305,-0.0013201984979473974,3.897241728605418e-06,-0.0013091699058511528,-0.0010559578130943101,3.7823383594873185e-06,-0.0010438216441686814,0.00120992783818389,0.0012212432746245775,0,2025-10-03T09:00:25.805166
194.0,1470.2020202020203,-0.0013584500530946248,3.98386479501018e-06,-0.0013423655630516716,-0.0010867211156496105,4.2471087108617205e-06,-0.0010707975795724233,0.0012450419759998603,0.0012544365410855443,0,2025-10-03T09:02:25.807919
196.0,1485.1010101010102,-0.0013947482244983152,3.980156818858885e-06,-0.0013794193752814676,-0.0011157306298828949,4.112234165364682e-06,-0.001101074977085286,0.0012782988333945187,0.001288665561916645,0,2025-10-03T09:04:25.810772
198.0,1500.0,-0.0014283956594655979,4.129294520772244e-06,-0.0014158970134025674,-0.0011420285491127622,4.052787892251175e-06,-0.0011294638291336838,0.001308935407460994,0.0013192986822985516,0,2025-10-03T09:06:25.813628
200.0,1500.0,-0.0014277798594243833,4.113288318000096e-06,-0.0014132347341453547,-0.0011425969528982493,4.0240905910330195e-06,-0.001126435330892952,0.0013087172945693336,0.0013190476184350383,0,2025-10-03T09:08:25.816452
202.0,1500.0,-0.0013336670165960316,0.0010472651302287695,0.010260448463613521,-0.0010766715101140497,0.0007329600320461402,0.007040562305855415,0.0013721358502887843,0.009086734458263104,0,2025-10-03T09:10:25.823490
204.0,1500.0,-0.0014281298657185762,4.2313834905848685e-06,-0.001414294391048793,-0.0011426007410383773,4.0681164759761375e-06,-0.0011238626005010608,0.0013089494545966592,0.0013203077281154815,0,2025-10-03T09:12:25.826369
206.0,1500.0,-0.001428391077562534,4.274957910965425e-06,-0.0014160776720509838,-0.0011423042065799294,4.298797224299889e-06,-0.001127359816389976,0.0013090235140918215,0.0013215092925816826,0,2025-10-03T09:14:25.829234
208.0,1500.0,-0.0012103566265367941,0.0017724139568545917,0.013206923034435058,-0.000990623996349432,0.0012411300776907397,0.009106982053624313,0.001464169008388812,0.011707172501398085,149,2025-10-03T09:16:25.832322
210.0,1500.0,-0.0012131855769899036,0.0017508089725971224,0.013028122400189536,-0.0009912393068510941,0.0012258688573362436,0.008979038591890668,0.0014615069466027044,0.011548280554381176,149,2025-10-03T09:18:25.835340
212.0,1500.0,-0.0013855005427572127,0.000794405990071415,0.013350430143155265,-0.0011125199254272428,0.0005558587789763256,0.00920021066099839,0.0013395618460391157,0.01183391484621422,29,2025-10-03T09:20:25.838383
214.0,1500.0,-0.001384359498408977,0.0007944077104632939,0.013347789568727429,-0.001112510775660325,0.0005558727387571081,0.009197545832606978,0.0013388160926771852,0.011831008611228355,29,2025-10-03T09:22:25.841381
216.0,1500.0,-0.0014281839402256634,3.9964488645906655e-06,-0.0014147524235475807,-0.0011421562130363367,4.020421999961813e-06,-0.0011307188336916315,0.0013088382942223783,0.0013207108387730366,0,2025-10-03T09:24:25.844165
218.0,1500.0,-0.001428058165006605,4.137101973129621e-06,-0.001415890659163182,-0.0011422997422312884,4.56142413095666e-06,-0.001129111090652058,0.0013088059129259446,0.0013182710231537241,0,2025-10-03T09:26:25.846967
220.0,1500.0,-0.0014282307065596512,4.395284910988829e-06,-0.0014045003526911445,-0.001142974752259409,4.439206128849903e-06,-0.001122286501190475,0.0013091392572090633,0.0013205001096952527,0,2025-10-03T09:28:25.849735
222.0,1500.0,-0.0012416941795839983,0.0016267199967613109,0.013548200903050022,-0.00101260260886375,0.0011383344263887945,0.009340172954803402,0.0014411309901802092,0.012009083589638536,130,2025-10-03T09:30:25.852955
224.0,1500.0,-0.0014279111141166747,4.453269712092653e-06,-0.001413375503062368,-0.0011425487478966964,4.373126919524785e-06,-0.001127577392150515,0.0013087900901162942,0.0013203149178448428,0,2025-10-03T09:32:25.855730
226.0,1500.0,-0.0014277121100494245,4.567792545932281e-06,-0.0013937516057567583,-0.0011425546577109693,4.325235072549161e-06,-0.001126072723303197,0.0013086629547961564,0.0013181644636258427,0,2025-10-03T09:34:25.858491
228.0,1500.0,-0.0014285876838563646,4.08496714358843e-06,-0.001410334446447173,-0.0011429764947669331,4.472510052534144e-06,-0.0011291840527120438,0.001309371155774494,0.0013199483544214287,0,2025-10-03T09:36:25.861274
230.0,1500.0,-0.0014286614819014045,4.187275066918092e-06,-0.001410959639118834,-0.001142770631652855,4.202381297381512e-06,-0.0011203237540671086,0.0013093529706238434,0.0013175731283018531,0,2025-10-03T09:38:25.864129
232.0,1500.0,-0.0012655531303211562,0.001520176988645206,0.012962749665618958,-0.0010288959166006883,0.0010641697654128234,0.008927210837773585,0.0014238917655804242,0.011489382923783632,113,2025-10-03T09:40:25.867171
234.0,1500.0,-0.0014282989892148794,3.975139853942041e-06,-0.0014155432580626236,-0.0011428915930816698,4.821934285679483e-06,-0.001126569003900239,0.0013091555171210769,0.0013193059833253539,0,2025-10-03T09:42:25.869968
236.0,1500.0,-0.0012118898117520075,0.0017553854429552711,0.0130647674240118,-0.0009912282052080246,0.0012289601121737432,0.00900733896502903,0.0014616583209517506,0.011580831267845128,149,2025-10-03T09:44:25.873090
238.0,1500.0,-0.0014277737472378393,4.037705075474646e-06,-0.0014138057580108904,-0.0011420811883944336,4.555019015584721e-06,-0.0011239874819088977,0.0013085457525907026,0.001319534699882719,0,2025-10-03T09:46:25.875920
240.0,1500.0,-0.001386422534333724,0.0007855006810958705,0.01317973896157165,-0.001112693698465958,0.0005499379364585066,0.009086631593624484,0.001339377522690474,0.011683599908769387,29,2025-10-03T09:48:25.878956
242.0,1500.0,-0.0014282678938515637,4.323424370952864e-06,-0.0014133106665356672,-0.0011425543765291746,4.557280915021166e-06,-0.0011286614585941594,0.001309026912908659,0.0013194752258252878,0,2025-10-03T09:50:25.881744
244.0,1500.0,-0.00142796794048885,4.456448462060614e-06,-0.001407450021731084,-0.0011421886764613302,3.8983441706598365e-06,-0.0011311641719575162,0.0013087073909950387,0.0013196921475085756,0,2025-10-03T09:52:25.884584
246.0,1500.0,-0.0013368950252292554,0.001010041922435968,0.009843306468525671,-0.0010789123005357849,0.0007067741593718542,0.006745638943869269,0.0013690158512498739,0.008716550372324163,0,2025-10-03T09:54:25.887661
248.0,1500.0,-0.0014275947450582385,4.0082583786645564e-06,-0.001409560755028883,-0.0011428159015773956,4.313699162759882e-06,-0.001125134185492098,0.0013086696827537658,0.0013186760718830587,0,2025-10-03T09:56:25.890523
250.0,1500.0,-0.001366802895386693,0.0008815246933463721,0.011197342830915785,-0.0010995380111990581,0.0006172254707643206,0.0076982120953373034,0.0013515695073574826,0.009921656841672106,0,2025-10-03T09:58:25.893432
252.0,1500.0,-0.0014284571070288193,4.1080994452910135e-06,-0.0014118966164342033,-0.0011427018093167767,3.9434389703862e-06,-0.0011296879332190206,0.0013091958660876514,0.0013186853041746859,0,2025-10-03T10:00:25.901901
254.0,1500.0,-0.0014276690445188943,4.260125162491253e-06,-0.0014073993575631396,-0.0011423964862851271,4.033139971697528e-06,-0.001130095724489041,0.0013085807800325697,0.001318277613298751,0,2025-10-03T10:02:25.904751
256.0,1500.0,-0.0014282404778679187,4.3950252921445395e-06,-0.0014069791063488434,-0.0011430085567001546,3.977245365719466e-06,-0.0011309754288075363,0.0013091564207220908,0.0013200077302921126,0,2025-10-03T10:04:25.907669
258.0,1500.0,-0.0013132318051968274,0.0010752065914199755,0.008750476842044639,-0.0010630187527081113,0.0007525168569874211,0.005981946493083307,0.0013819367804141348,0.007744650898841718,0,2025-10-03T10:06:25.910824
260.0,1500.0,-0.0014278529988225503,4.1963136846143005e-06,-0.0014133759931471135,-0.0011418937143912516,3.952698371478902e-06,-0.0011284798799166733,0.0013085379839312304,0.0013181174854345699,0,2025-10-03T10:08:25.913639
262.0,1500.0,-0.0014280297683491522,4.256433877847873e-06,-0.0014058974893143192,-0.0011423149458263306,4.1587205101589565e-06,-0.0011283798900477901,0.0013087900315468836,0.0013189406943828969,0,2025-10-03T10:10:25.916398
264.0,1500.0,-0.0011065760114641837,0.002099519057612086,0.013443017337059455,-0.000917780713948604,0.0014696326836614905,0.00927200247016917,0.0015352085098170052,0.011916583821876946,230,2025-10-03T10:12:25.919613
266.0,1500.0,-0.0014279377966264256,4.256614674252277e-06,-0.0014164719685184808,-0.0011422270157702052,4.263388043446217e-06,-0.0011235396729005918,0.00130870087736948,0.0013202521602129174,0,2025-10-03T10:14:25.922422
268.0,1500.0,-0.0013111849422949462,0.0012931798999978933,0.013004303135529178,-0.0010603523247683685,0.0009053035568918916,0.008964593686324683,0.001391484336191866,0.011526548055964009,81,2025-10-03T10:16:25.925379
270.0,1500.0,-0.0013144819267069884,0.0012560078694670172,0.012590331689022762,-0.0010631405851276644,0.0008787233794063497,0.008663905358331517,0.00138857327869922,0.01115709231034391,81,2025-10-03T10:18:25.928380
272.0,1500.0,-0.0013691598211086496,0.0008535448033197904,0.010797290894165283,-0.0011005100356564783,0.0005971219854918672,0.007411290078164893,0.0013499310692225359,0.009564423219208699,0,2025-10-03T10:20:25.931372
274.0,1500.0,-0.001428527463974003,4.446841668034911e-06,-0.0014153450329988907,-0.001142561225952066,4.031983548779194e-06,-0.0011262562015581313,0.0013091967763281425,0.0013193846846811894,0,2025-10-03T10:22:25.934101
276.0,1500.0,-0.0014290867794832084,3.911752765386516e-06,-0.0014162219809489356,-0.0011423937755743118,4.342057881431112e-06,-0.001128813921050997,0.0013095079485037182,0.0013209298399777425,0,2025-10-03T10:24:25.936939
278.0,1500.0,-0.0014285648453940863,4.13150603831619e-06,-0.0014127024896643794,-0.0011420790682764713,4.134993516303436e-06,-0.0011296665664396895,0.001309063182412204,0.0013231609963675498,0,2025-10-03T10:26:25.939835
280.0,1500.0,-0.0014278315936388569,4.040812069633701e-06,-0.0014152836512580653,-0.001142342565372717,4.194116253723504e-06,-0.0011264523728195513,0.0013086690107229045,0.0013196794689847617,0,2025-10-03T10:28:25.942684
282.0,1500.0,-0.0014280430278287785,4.288139307458904e-06,-0.0014145813397382278,-0.001142923952878381,3.940256681899853e-06,-0.0011287692564210033,0.0013089976421259823,0.0013200251007511369,0,2025-10-03T10:30:25.945448
284.0,1500.0,-0.00142791273620694,4.246220546530795e-06,-0.0014139087249204155,-0.0011429436921607944,4.239607051877561e-06,-0.0011295634834175756,0.0013089203348015867,0.0013187433048161626,0,2025-10-03T10:32:25.948244
286.0,1500.0,-0.001428462374670854,3.955703527426106e-06,-0.001414339539652479,-0.0011425122587151969,4.123867279705764e-06,-0.001126275598633545,0.0013091372203367108,0.0013213935870003014,0,2025-10-03T10:34:25.951044
288.0,1500.0,-0.0014280676544492367,4.172227772340381e-06,-0.0014142767246738816,-0.0011419203479800324,4.188803003997988e-06,-0.001124653807790089,0.001308686520416737,0.0013178718739975742,0,2025-10-03T10:36:25.958877
290.0,1500.0,-0.0014279814486225719,3.875001597383097e-06,-0.0014136576600600225,-0.0011422415138602488,4.149037432610846e-06,-0.0011279895689104721,0.0013087332884719042,0.0013246620559146953,0,2025-10-03T10:38:25.962062
292.0,1500.0,-0.0014273162335630644,4.475935156949032e-06,-0.0014127920313602097,-0.0011426726745480966,4.540164405481752e-06,-0.0011258340880706723,0.0013084429862440647,0.0013182500865485663,0,2025-10-03T10:40:25.964827
294.0,1500.0,-0.0013114205112283869,0.0012953255602457935,0.013026323986274787,-0.0010603856302510847,0.0009066364004282133,0.008977217704111515,0.0013919785366817705,0.011546502800882192,81,2025-10-03T10:42:25.967918
296.0,1500.0,-0.001428639044101049,4.647915547022167e-06,-0.0014135507059026588,-0.00114218292695058,4.388920559808838e-06,-0.0011274366712297845,0.0013091479653916797,0.0013203114282667255,0,2025-10-03T10:44:25.970750
298.0,1500.0,-0.0014274618632821347,4.1904400551020606e-06,-0.001412631024990766,-0.001142437724685124,4.352381200521258e-06,-0.0011288965664017101,0.0013084604186312492,0.0013241962622566497,0,2025-10-03T10:46:25.973807
300.0,1500.0,-0.0014281783515632867,3.82834096875622e-06,-0.0014143394552675946,-0.001142603069713914,4.3693985041327e-06,-0.0011270865593831004,0.0013089818577690952,0.0013184076964664936,0,2025-10-03T10:48:25.976630
302.0,1485.1010101010102,-0.0013948122797812514,4.23120521772399e-06,-0.0013814101086916807,-0.0011166123232980959,4.181462626686479e-06,-0.0011013953723908359,0.0012786309313210537,0.001288893439753026,0,2025-10-03T10:50:25.982244
304.0,1470.20202020202,-0.001359417110179157,4.0875192066457794e-06,-0.0013403940913633862,-0.0010870848783904315,3.954986408634603e-06,-0.0010752475955974092,0.0012457939537928952,0.0012557505061587845,0,2025-10-03T10:52:25.985133
306.0,1455.3030303030303,-0.0013208904957575263,4.016261682683841e-06,-0.001302774753517059,-0.0010564674476997037,3.965948664453698e-06,-0.0010417062677826117,0.0012105507781455067,0.0012196585417363866,0,2025-10-03T10:54:25.988018
308.0,1440.4040404040404,-0.0012785705400669759,3.6766722653729236e-06,-0.001265587655456186,-0.001023202353595057,3.957039606564615e-06,-0.00101148836156481,0.0011719554983872704,0.0011812885790596715,0,2025-10-03T10:56:25.990798
310.0,1425.5050505050506,-0.001232510926718401,3.7118739800220547e-06,-0.0012209224905696831,-0.000986284123009585,3.8074664936506677e-06,-0.0009685226262259692,0.001129719528468286,0.0011405554735808938,0,2025-10-03T10:58:25.993721
312.0,1410.6060606060605,-0.0009991229044642828,0.0015068892724623933,0.011256739411481118,-0.0008177267018047192,0.0010548346998481327,0.007763950387080435,0.0012180173583597957,0.009978884628779458,0,2025-10-03T11:00:25.996956
314.0,1395.7070707070707,-0.0009587579977220166,0.0014056583915296626,0.010477185095295731,-0.0007845997565693037,0.0009835602794715105,0.007216077544593056,0.0011600864517172054,0.009285205060239667,0,2025-10-03T11:02:25.999963
316.0,1380.8080808080808,-0.0010108437700986062,0.0009082380319941907,0.011934769148300273,-0.0008151341971394206,0.0006356749580687635,0.008245923347890451,0.0010319254803095844,0.010583705729642295,49,2025-10-03T11:04:26.003088
318.0,1365.909090909091,-0.001012956755379105,2.8041231356098033e-06,-0.0010044570119903439,-0.0008101180433667583,2.9887960034968467e-06,-0.0007996153247852525,0.0009283198804925508,0.0009358701262378047,0,2025-10-03T11:06:26.005826
320.0,1351.010101010101,-0.0009469131217570684,2.90871673423293e-06,-0.0009363947731296194,-0.0007582611647945118,2.651226936648927e-06,-0.0007461787933332047,0.0008681097178476009,0.0008745786998519956,0,2025-10-03T11:08:26.008606
322.0,1336.111111111111,-0.0008761304637285805,2.3965169058168515e-06,-0.0008673131998511099,-0.0007007151528216491,2.6552997266527476e-06,-0.0006917656078530663,0.000802934724342201,0.0008089676211410709,0,2025-10-03T11:10:26.011603
324.0,1321.2121212121212,-0.0006900620473223564,0.0011991853565948662,0.01258207973519551,-0.0005629820617724079,0.0008391234539086198,0.008726274190913114,0.0008162943151143502,0.011164323546514922,81,2025-10-03T11:12:26.014659
326.0,1306.3131313131312,-0.0007155462343465312,2.2424019813617197e-06,-0.0007070586810348584,-0.000572507306076174,2.2778543801495233e-06,-0.0005650137184018102,0.0006558407738178625,0.000661536070210468,0,2025-10-03T11:14:26.017363
328.0,1291.4141414141413,-0.0006259880995204694,1.8504012539563554e-06,-0.000618588261127026,-0.000500543169993114,1.8326826195549391e-06,-0.0004937010363838225,0.0005736531690310289,0.0005775649522932655,0,2025-10-03T11:16:26.020169
330.0,1276.5151515151515,-0.0005294149833156565,1.523386701017056e-06,-0.0005244685422182031,-0.0004233544202918825,1.608209540564012e-06,-0.0004165727990924714,0.00048516444439131916,0.0004892592851531634,0,2025-10-03T11:18:26.023056
332.0,1261.6161616161617,-0.0004248042848599861,1.1867469650861096e-06,-0.00042001561051019127,-0.00034008684279899956,1.221033791181047e-06,-0.00033601277736051836,0.00038942322631944866,0.00039207273664231896,0,2025-10-03T11:20:26.025859
334.0,1246.7171717171718,-0.0003124668544296892,8.926751740448533e-07,-0.0003089670261257543,-0.0002501033519602938,8.686240182903694e-07,-0.0002470731522981592,0.00028642628936509525,0.00028915279106610556,0,2025-10-03T11:22:26.028717
336.0,1231.8181818181818,-0.00019151388471669358,5.611086306858114e-07,-0.00018935761274288906,-0.00015313712884116142,5.586115818912365e-07,-0.00015063809634343643,0.0001755032630384826,0.00017662391210011117,0,2025-10-03T11:24:26.031639
338.0,1216.919191919192,3.094628363578303e-05,0.0010151627322835502,0.011264987124085545,1.5599436792515105e-05,0.0007106028063613848,0.007879233992821632,0.00013634793945730285,0.010011099708604983,81,2025-10-03T11:26:26.034755
340.0,1202.020202020202,8.002478744233628e-05,2.416438519262007e-07,8.084881698598136e-05,6.405466374620932e-05,2.478959830144822e-07,6.492474807522711e-05,7.335620396827343e-05,7.407394765204224e-05,0,2025-10-03T11:28:26.037553
342.0,1187.121212121212,9.891239752655133e-05,9.840286628630382e-08,9.923285524646326e-05,7.913932450944915e-05,9.451205691920824e-08,7.942230616873609e-05,9.065790184270339e-05,9.090548829705799e-05,0,2025-10-03T11:30:26.040327
344.0,1172.2222222222222,9.765501155243777e-05,8.838867322457804e-08,9.794047882604159e-05,7.810956652976675e-05,9.652806636983407e-08,7.860150758087311e-05,8.949767770439134e-05,8.973093998406568e-05,0,2025-10-03T11:32:26.043215
346.0,1157.3232323232323,9.639037017062738e-05,9.232930336814318e-08,9.67558259700053e-05,7.711050933091254e-05,8.786100194640639e-08,7.743014711328798e-05,8.834276996122226e-05,8.860824465285386e-05,0,2025-10-03T11:34:26.046013
348.0,1142.4242424242425,9.509262298646004e-05,9.215170322297222e-08,9.576558869572738e-05,7.609242601592164e-05,9.729366641713672e-08,7.641678270872e-05,8.715994658857977e-05,8.757502192009825e-05,0,2025-10-03T11:36:26.048741
350.0,1127.5252525252524,9.382051151851054e-05,9.695540048675217e-08,9.412766786113544e-05,7.506132661836092e-05,9.002241751660438e-08,7.546207331306289e-05,8.598964408150671e-05,8.617490777818524e-05,0,2025-10-03T11:38:26.051603
352.0,1112.6262626262626,9.258584393376773e-05,9.406538466017864e-08,9.295575267186276e-05,7.406025573973872e-05,8.560927080173579e-08,7.436789021707814e-05,8.485368254304581e-05,8.506928128474423e-05,0,2025-10-03T11:40:26.057319
354.0,1097.7272727272727,9.129198591509149e-05,9.039403680184042e-08,9.162272689005157e-05,7.303412102441098e-05,9.013755443564353e-08,7.336486775369366e-05,8.367077410263779e-05,8.389490767359773e-05,0,2025-10-03T11:42:26.060216
356.0,1082.8282828282827,9.00314141689868e-05,9.747934660735347e-08,9.03862366788151e-05,7.203036137396843e-05,8.150027309782745e-08,7.226113638196256e-05,8.251697181649912e-05,8.27478898778148e-05,0,2025-10-03T11:44:26.063113
358.0,1067.9292929292928,8.875590946223813e-05,8.83651390901384e-08,8.902242724962433e-05,7.100177324854166e-05,8.657179671701582e-08,7.127839046145222e-05,8.134526605313723e-05,8.159865279900058e-05,0,2025-10-03T11:46:26.065882
360.0,1053.030303030303,8.749615759631288e-05,8.344923423960567e-08,8.776781468544388e-05,6.998776551775607e-05,9.08520123016693e-08,7.028052737156224e-05,8.01886633880867e-05,8.039813848376396e-05,0,2025-10-03T11:48:26.068706
362.0,1038.1313131313132,8.622083900410336e-05,8.144750461126989e-08,8.652279702591826e-05,6.898393494136409e-05,8.244403433885129e-08,6.923999111498746e-05,7.902517936289862e-05,7.928526331688584e-05,0,2025-10-03T11:50:26.071594
364.0,1023.2323232323232,8.494596585563185e-05,8.671018524083057e-08,8.522459957008559e-05,6.797064657236207e-05,8.4836556923178e-08,6.834632834363105e-05,7.785890700377844e-05,7.804751922671998e-05,0,2025-10-03T11:52:26.074405
366.0,1008.3333333333333,8.368162762617075e-05,8.193114176214303e-08,8.400252820515022e-05,6.695129673404985e-05,8.67997938061428e-08,6.726793763825464e-05,7.669754878085591e-05,7.693221232432449e-05,0,2025-10-03T11:54:26.077172
368.0,993.4343434343434,8.241773348886152e-05,8.238972467169473e-08,8.267696573467199e-05,6.59389660101545e-05,7.558648817205651e-08,6.614937796964082e-05,7.553875692360952e-05,7.574306473510711e-05,0,2025-10-03T11:56:26.079980
370.0,978.5353535353535,0.00012298281355867707,0.000775624437246573,0.014505119968386574,9.420154427105555e-05,0.0005429384324063318,0.010161733011042659,0.0001115554062788255,0.01289426875294898,29,2025-10-03T11:58:26.082997
372.0,963.6363636363636,7.989120828960446e-05,7.834879508207398e-08,8.013545231065774e-05,6.39039705993982e-05,7.3694727626344e-08,6.411512630681633e-05,7.321864743543116e-05,7.339948875902691e-05,0,2025-10-03T12:00:26.085712
374.0,948.7373737373737,7.861098991688546e-05,8.017247108228123e-08,7.884427797794717e-05,6.289062747121632e-05,7.890415037395313e-08,6.316944718837324e-05,7.204886498226428e-05,7.223280957220263e-05,0,2025-10-03T12:02:26.088509
376.0,933.8383838383838,7.7344746297974e-05,7.409539099916463e-08,7.757980095697307e-05,6.188160969511316e-05,7.899961932873343e-08,6.214581614552238e-05,7.088962239797401e-05,7.109817438420585e-05,0,2025-10-03T12:04:26.091457
378.0,918.9393939393939,7.608691809601653e-05,7.69701975739209e-08,7.634159061089013e-05,6.087531772796405e-05,7.32810695151604e-08,6.111292346317729e-05,6.973679831936292e-05,6.994745376625489e-05,0,2025-10-03T12:06:26.094175
380.0,904.040404040404,7.481678461128561e-05,7.174005867695165e-08,7.511438967089626e-05,5.983758558587036e-05,7.244203376478058e-08,6.007970184782835e-05,6.856561253245506e-05,6.879571372445453e-05,0,2025-10-03T12:08:26.096958
382.0,889.1414141414141,7.353582607100685e-05,7.446922276484146e-08,7.392093959634128e-05,5.884181276673746e-05,6.78807362607886e-08,5.9198822103371786e-05,6.740108443828014e-05,6.76761487966969e-05,0,2025-10-03T12:10:26.099793
384.0,874.2424242424242,0.0002321319831146787,0.0013956370966550897,0.012966456583426352,0.00016972754170126248,0.0009769452046506195,0.00908380711189178,0.00020832285190455996,0.011526437663897916,130,2025-10-03T12:12:26.103055
386.0,859.3434343434343,7.101206479421404e-05,6.94484605189461e-08,7.120849838374705e-05,5.681204207416071e-05,6.73302284470007e-08,5.7047113968772365e-05,6.508449634378323e-05,6.524616734444538e-05,0,2025-10-03T12:14:26.105825
388.0,844.4444444444445,6.974571866869125e-05,6.834123229704807e-08,7.002244468154928e-05,5.5800884162738406e-05,7.124570741912834e-08,5.6071145509875015e-05,6.39245022498697e-05,6.41397390264103e-05,0,2025-10-03T12:16:26.108594
390.0,829.5454545454545,6.847714686695576e-05,6.682199630900606e-08,6.873523530325748e-05,5.477281963267923e-05,6.328086459238843e-08,5.499878611234594e-05,6.275750136963115e-05,6.291403709775578e-05,0,2025-10-03T12:18:26.111441
392.0,814.6464646464647,9.642562477034527e-05,0.000541905663135412,0.010144788458781456,7.42236298105426e-05,0.0003793376687876989,0.007108168289255033,8.756703639849099e-05,0.009018416283822805,0,2025-10-03T12:20:26.114404
394.0,799.7474747474747,6.594386830687378e-05,6.73868502983498e-08,6.621139704239235e-05,5.2741402981680776e-05,6.769851963572522e-08,5.295623481603162e-05,6.043414904362705e-05,6.061475480413084e-05,0,2025-10-03T12:22:26.117144
396.0,784.8484848484848,6.467432287917022e-05,7.201081613306435e-08,6.496668232498299e-05,5.1745064407512134e-05,6.571804025533516e-08,5.1988777007544885e-05,5.9276918216433395e-05,5.945838639113593e-05,0,2025-10-03T12:24:26.119964
398.0,769.9494949494949,6.339606775925193e-05,6.029662001030196e-08,6.363841639488984e-05,5.072973426326028e-05,6.206699310153797e-08,5.092496666541235e-05,5.810774209216907e-05,5.8300562014170704e-05,0,2025-10-03T12:26:26.122807
400.0,755.050505050505,6.213756050191882e-05,6.37244499639953e-08,6.237136636492045e-05,4.970326487632235e-05,6.324172470456682e-08,4.990365496452635e-05,5.694787743216161e-05,5.708578832684899e-05,0,2025-10-03T12:28:26.125577
402.0,740.1515151515151,6.085934464712035e-05,6.041085800925325e-08,6.1029520676807836e-05,4.8699175909144573e-05,6.229258463213803e-08,4.890036895663214e-05,5.578241563306181e-05,5.591188559086204e-05,0,2025-10-03T12:30:26.131336
404.0,725.2525252525252,5.959657337419813e-05,5.061243365779707e-08,5.976866891381398e-05,4.766825924627261e-05,5.322179566223057e-08,4.7911307333358045e-05,5.461828114590095e-05,5.475392620137589e-05,0,2025-10-03T12:32:26.134194
406.0,710.3535353535353,5.8328989812345735e-05,5.617788470613649e-08,5.853434155912032e-05,4.666137561943834e-05,5.713218327870945e-08,4.683935526628122e-05,5.3458876003601643e-05,5.362899836317598e-05,0,2025-10-03T12:34:26.137035
408.0,695.4545454545454,5.706147241323173e-05,5.97883128082524e-08,5.7285738239640274e-05,4.564051294818435e-05,5.989856557893446e-08,4.5895008272002346e-05,5.229494139220361e-05,5.248173992103628e-05,0,2025-10-03T12:36:26.139817
410.0,680.5555555555555,5.579249785469775e-05,5.7184979879895465e-08,5.598697663154933e-05,4.4636132825809946e-05,5.806163636006374e-08,4.484464196318785e-05,5.113543733623194e-05,5.126694876306839e-05,0,2025-10-03T12:38:26.142673
412.0,665.6565656565656,5.4524999317543424e-05,5.458639072480329e-08,5.470586847919134e-05,4.361469323242744e-05,5.108876246495591e-08,4.378501590804803e-05,4.997130925729502e-05,5.0103828666443845e-05,0,2025-10-03T12:40:26.145455
414.0,650.7575757575758,0.00020572584302043983,0.0012397420568344693,0.010286239121878158,0.00014934289537255936,0.0008678133181723118,0.007205711143789815,0.00018432712600042195,0.009143782455340473,0,2025-10-03T12:42:26.148489
416.0,635.8585858585858,5.198598979059914e-05,5.040065900535888e-08,5.213399799702293e-05,4.1597989415138925e-05,5.156861399416469e-08,4.1817049097776344e-05,4.7649021686275e-05,4.776137998545919e-05,0,2025-10-03T12:44:26.151323
418.0,620.959595959596,5.072169497110761e-05,5.1359576007126666e-08,5.093105237810288e-05,4.057448465810636e-05,4.948998286023208e-08,4.077886858258549e-05,4.648631522825513e-05,4.663560516993346e-05,0,2025-10-03T12:46:26.154251
420.0,606.060606060606,4.945163672295259e-05,4.593465691484136e-08,4.96360527241639e-05,3.956222209177709e-05,5.119474742289105e-08,3.9760844318799126e-05,4.5323531481779064e-05,4.5447798879208344e-05,0,2025-10-03T12:48:26.157072
422.0,591.1616161616162,4.8183490351693165e-05,4.7282772646362836e-08,4.834003345922812e-05,3.853328240679189e-05,4.8773216330179966e-08,3.8665833878781404e-05,4.4156539337832616e-05,4.4283943590969015e-05,0,2025-10-03T12:50:26.159829
424.0,576.2626262626262,4.6914236778066234e-05,4.433913826102274e-08,4.705898666206028e-05,3.7535206176343514e-05,4.5269954792835153e-08,3.770406845699581e-05,4.299891323853584e-05,4.3090068182975605e-05,0,2025-10-03T12:52:26.162699
426.0,561.3636363636364,4.565462091901894e-05,4.7230260741911126e-08,4.581199738406763e-05,3.651830037418456e-05,4.293565287663801e-08,3.666205503010495e-05,4.184144335926406e-05,4.194818074596352e-05,0,2025-10-03T12:54:26.165441
428.0,546.4646464646464,4.43852046597312e-05,4.392954055326068e-08,4.4543539340719746e-05,3.5489388675920054e-05,4.5927627678845956e-08,3.5671363601328446e-05,4.067362748178447e-05,4.0781454317676945e-05,0,2025-10-03T12:56:26.168252
430.0,531.5656565656565,0.00012877559330596255,0.0009479433882139469,0.010618752962757716,9.445327793573694e-05,0.0006635601292205232,0.007437453598763107,0.00011565023424476353,0.009439124765184083,0,2025-10-03T12:58:26.171366
432.0,516.6666666666666,4.185110706019182e-05,4.300439123054453e-08,4.203355196235249e-05,3.348635228729653e-05,4.0105968581443945e-08,3.362953553873746e-05,3.835901306037627e-05,3.8504572173900615e-05,0,2025-10-03T13:00:26.174191
434.0,501.7676767676767,4.057742980440681e-05,4.5049526827638425e-08,4.07397521289982e-05,3.24612467160903e-05,4.1581479643617096e-08,3.258511481992919e-05,3.718965676301953e-05,3.72853218712161e-05,0,2025-10-03T13:02:26.176944
436.0,486.86868686868684,7.56557423420752e-05,0.0006740273720063369,0.012573909785600008,5.689220091727962e-05,0.00047182107002225604,0.0088057146232013,6.833318762765613e-05,0.011176828349554248,29,2025-10-03T13:04:26.179955
438.0,471.969696969697,0.0002389913713202847,0.0016339687225759162,0.013524938444337583,0.0001711065141530132,0.0011437763910139092,0.009471257415799024,0.00021347364861003265,0.012022083277288004,149,2025-10-03T13:06:26.183024
440.0,457.07070707070693,3.6770026851887205e-05,3.762559757189602e-08,3.6891058020257235e-05,2.941797830178329e-05,3.387423387966074e-08,2.9543371011709658e-05,3.370096994832046e-05,3.377816110071846e-05,0,2025-10-03T13:08:26.186293
442.0,442.1717171717171,3.550921199574913e-05,3.185945756449024e-08,3.5661622218905824e-05,2.84000956490591e-05,3.349946561960273e-08,2.852535162729692e-05,3.254239088947311e-05,3.266599137979138e-05,0,2025-10-03T13:10:26.189051
444.0,427.27272727272725,3.4238420002880314e-05,3.5610544065079176e-08,3.435036793156452e-05,2.738956828851904e-05,3.3507902341303376e-08,2.7506849102262223e-05,3.1379689001615296e-05,3.14579048878231e-05,0,2025-10-03T13:12:26.192022
446.0,412.3737373737374,3.2968436327982215e-05,3.3769329771538865e-08,3.3070619013414346e-05,2.6379056794482436e-05,3.24471903426187e-08,2.649723464184149e-05,3.0217518024924482e-05,3.0296726639942372e-05,0,2025-10-03T13:14:26.194908
448.0,397.47474747474735,3.170118715897877e-05,2.9630786482014098e-08,3.179628040378881e-05,2.5356346653913364e-05,2.9273828240201318e-08,2.545489146860194e-05,2.90531472381791e-05,2.9125914813139463e-05,0,2025-10-03T13:16:26.197704
450.0,382.5757575757575,3.042992490342375e-05,2.9828109092491246e-08,3.052031861577871e-05,2.434719587805826e-05,2.7454475934061647e-08,2.445150442070353e-05,2.7890587641814057e-05,2.7957654655729034e-05,0,2025-10-03T13:18:26.200525
452.0,367.67676767676767,2.916515175310984e-05,2.8685855331105986e-08,2.9243266555689553e-05,2.3331578883462027e-05,2.947770132621832e-08,2.342707168923703e-05,2.6730156622666977e-05,2.679118973994277e-05,0,2025-10-03T13:20:26.208719
454.0,352.7777777777778,2.7892471172850685e-05,2.857587142151007e-08,2.8028530251510492e-05,2.2313362184268546e-05,2.7947341805012816e-08,2.2437643472814453e-05,2.5563706221720307e-05,2.563502815754102e-05,0,2025-10-03T13:22:26.211651
456.0,337.87878787878776,2.6631566252712867e-05,2.4957710659078326e-08,2.6698107678134768e-05,2.1301567346834492e-05,2.4212239893577923e-08,2.140005522161869e-05,2.440705576030151e-05,2.4468041201119465e-05,0,2025-10-03T13:24:26.214402
458.0,322.9797979797979,2.5358428671490262e-05,2.311880571420521e-08,2.5430728344307614e-05,2.0294231259551872e-05,2.4502017306511646e-08,2.037905182855123e-05,2.3243864642646043e-05,2.329411991349146e-05,0,2025-10-03T13:26:26.217153
460.0,308.0808080808081,2.4096692738854853e-05,2.283307819571262e-08,2.4174429689542688e-05,1.9275720997710304e-05,2.3883560696603287e-08,1.9377808859920714e-05,2.208447707786665e-05,2.214753301822081e-05,0,2025-10-03T13:28:26.219988
462.0,293.181818181818,2.2823477115534237e-05,2.2697686765651777e-08,2.2912429036021835e-05,1.82591611517921e-05,2.195169091630504e-08,1.833216807005941e-05,2.0918211519117934e-05,2.098461856665174e-05,0,2025-10-03T13:30:26.222834
464.0,278.2828282828282,2.1557078994935017e-05,2.2546612295000686e-08,2.1617476256013264e-05,1.724323095260906e-05,2.2740586981428534e-08,1.7311555936061167e-05,1.9756621089921157e-05,1.9807882538725343e-05,0,2025-10-03T13:32:26.225722
466.0,263.38383838383834,5.839798367052869e-05,0.0007066089718352366,0.013160784563952291,4.290579643829683e-05,0.0004946282687683462,0.009214600796174728,5.246632824811308e-05,0.011698021570706306,29,2025-10-03T13:34:26.228772
468.0,248.4848484848485,1.9021348684998897e-05,1.8019007426926085e-08,1.9076398513068104e-05,1.5213659092872503e-05,1.848424805826428e-08,1.5284763951900805e-05,1.743225658638573e-05,1.7476111410432275e-05,0,2025-10-03T13:36:26.231597
470.0,233.58585858585843,0.0003267254063890237,0.0020373990679716978,0.014956131392580604,0.0002304853793252218,0.001426177695992577,0.010471060491401655,0.0002908902600727885,0.013293692747157812,149,2025-10-03T13:38:26.234842
472.0,218.6868686868686,1.6483992683183434e-05,1.5986563490904564e-08,1.654486473457443e-05,1.3188883376135594e-05,1.687513881829547e-08,1.324622583794093e-05,1.5108403169078567e-05,1.5144313025452153e-05,0,2025-10-03T13:40:26.237685
474.0,203.78787878787875,1.5213767915796937e-05,1.3238671268265982e-08,1.5256840097829135e-05,1.2172398665947747e-05,1.398836460822731e-08,1.2217121393009894e-05,1.3944118695347036e-05,1.3976548438062185e-05,0,2025-10-03T13:42:26.240409
476.0,188.8888888888889,1.3945764746320888e-05,1.3846470412665639e-08,1.4002845775293635e-05,1.1155461628599025e-05,1.4032783654542529e-08,1.1206072540893876e-05,1.2781144736009397e-05,1.281194534982313e-05,0,2025-10-03T13:44:26.243312
478.0,173.98989898989885,1.2678767662307063e-05,1.2357957512578094e-08,1.2732042013803543e-05,1.0142946480385168e-05,1.3110934471463953e-08,1.0190410731351676e-05,1.1620274897031905e-05,1.1659906401091362e-05,0,2025-10-03T13:46:26.246208
480.0,159.090909090909,1.1410242423647035e-05,1.1035795260487033e-08,1.1457176989119726e-05,9.13081131537027e-06,1.1065135395620201e-08,9.166435078725016e-06,1.0458529899308764e-05,1.04898922110501e-05,0,2025-10-03T13:48:26.249022
482.0,144.19191919191917,1.0143113929098177e-05,9.760581408695921e-09,1.0174310996644593e-05,8.1143534673223e-06,9.877067175599732e-09,8.145966831823347e-06,9.296284492509222e-06,9.319567945810495e-06,0,2025-10-03T13:50:26.251814
484.0,129.29292929292933,4.571980388691856e-05,0.0006831828143742833,0.01271370049935505,3.2891997729083116e-05,0.00047822850643264417,0.00890049346999801,4.088252684573789e-05,0.011300386700570621,29,2025-10-03T13:52:26.254864
486.0,114.39393939393926,7.60828148269147e-06,7.788130052850321e-09,7.637388663461287e-06,6.086240009519727e-06,7.909904365404624e-09,6.1104817308475045e-06,6.972988626717674e-06,6.995519098192281e-06,0,2025-10-03T13:54:26.257709
488.0,99.49494949494942,0.00016659398006773417,0.0014989939519879393,0.014188050922594377,0.00011724880657135406,0.0010492960473089924,0.009932272662525322,0.00014824686859179107,0.012610758043757877,113,2025-10-03T13:56:26.260706
490.0,84.59595959595958,5.071818885278344e-06,5.2132920463249694e-09,5.093310361921738e-06,4.0584768104332935e-06,4.661754994473915e-09,4.074063905735102e-06,4.648738642687945e-06,4.664561702347197e-06,0,2025-10-03T13:58:26.263557
492.0,69.69696969696952,3.8040587045713477e-06,3.743855393082437e-09,3.814674581488094e-06,3.0433420730110955e-06,3.949893569906725e-09,3.055667004026537e-06,3.4865130765472e-06,3.494828244095439e-06,0,2025-10-03T14:00:26.266404
494.0,54.79797979797968,2.535977860051819e-06,2.5507306704099493e-09,2.5442310842149522e-06,2.029016163518705e-06,2.5625169600766623e-09,2.0368329679469244e-06,2.3243416155181726e-06,2.330240257607526e-06,0,2025-10-03T14:02:26.269140
496.0,39.89898989898984,1.2679738734783754e-06,1.1667910333000655e-09,1.273164712319785e-06,1.0144454051336993e-06,1.280728462916232e-09,1.0190977557237097e-06,1.1621405183938763e-06,1.1664581390444934e-06,0,2025-10-03T14:04:26.271917
498.0,25.0,1.3740673858775544e-10,9.544453869312851e-10,3.772660155630599e-09,1.7617710474626256e-10,1.0047828429436305e-09,3.659697756042313e-09,1.4941960355556678e-09,5.427324404563191e-09,0,2025-10-03T14:06:26.274739
