Point_ID,X_coord_mm,Y_coord_mm,Exx_strain,Eyy_strain,Exy_strain,Principal_strain_1,Principal_strain_2,Von_Mises_strain,Temperature_C,Correlation
1,4.487147948560782,0.29514026892869194,-0.0012954987810838777,0.004127266057241008,0.00015600970523901828,0.008263501309068515,-0.0025999667567542547,0.004912486888511198,1500,0.9237655761042876
2,7.378545469296301,1.5771354453636195,0.007199815755545805,0.013307284644356706,-0.0018946033777186716,0.027694538334468978,0.013319662465336043,0.011994988109637885,1500,0.9735084264403263
3,9.001015591176726,0.9392923109798351,-0.005263093056619533,0.0004926440894769919,-0.0003734083234570123,0.0010335363187677603,-0.010574434253052841,0.005563630086222959,1500,0.9117429349488757
4,0.40485331600568997,0.4613648534232401,-0.0033451126226875403,0.0030265210991086617,-0.000536371115107833,0.006142715788197788,-0.006779898835355545,0.005597923210677155,1500,0.9205751669054751
5,7.018589904384369,0.4307985432734046,0.0006824020084813226,0.01021034072529741,-0.001923505342999259,0.02116800951423703,0.0006174759533204358,0.01043306242784278,1500,0.9685957165472485
6,3.495535592494848,1.2416001501177343,0.0029484835970920342,0.0005441082480917309,0.0024650547893812964,0.008977753764169111,-0.0019925700738015807,0.005061106638609415,1500,0.931399543939287
7,2.27699021069843,4.5452418062152224,0.009133152225431797,-1.6322874030149292e-05,-0.0013112281233156958,0.018634716268210977,-0.0004010575654076823,0.009419223581406394,1500,0.9678866936800186
8,6.119034580045913,0.9422859741108669,0.0019576781887986165,0.0040488076022372225,0.0020673770442410262,0.010639952484125057,0.00137301909794662,0.005012108147920814,1500,0.9011568285233859
9,7.892233890019231,4.156334667428211,0.0016941083852484798,-0.0004796521565923284,0.001396913749527136,0.004754330094733288,-0.002325417637420985,0.003125180990539964,1500,0.9050332113961949
10,0.7931304859848098,0.24074614779383774,0.0005396118563224023,-9.952934610176802e-05,0.0015594369276057767,0.003623771502782312,-0.002743606482341044,0.002765922062345452,1500,0.9299530701624771
11,5.38675662004437,0.824485000365483,-0.0021852743740159,0.007285459404479816,-0.00018659995402753372,0.014578269039086758,-0.004377898978158925,0.008595262019980898,1500,0.9058779796739062
12,6.400785115788792,2.2422030731271096,0.0020564638466441716,-0.007658387400821612,0.001719145619001592,0.004703423669362239,-0.01590727077771712,0.00935390415414867,1500,0.9392544077393257
13,7.628157588861751,4.818504506155557,0.017024756995887735,-0.002511332209404222,-0.00292160591963827,0.034904646084772305,-0.005877796511805276,0.019092179139246216,1500,0.9828785888104477
14,3.369805142471959,4.602246685898528,-0.0011849813369117492,0.00726010115194344,-0.0006894498090467841,0.014632034118701395,-0.002481794488638012,0.008008892369860394,1500,0.9654897130225547
15,0.3473790306255087,3.9017433698977517,0.0005074344871634617,0.002573266156593688,-0.0002751049610067391,0.005218548029494249,0.0009428532580200498,0.002408417052264546,1500,0.9586077042247295
16,7.69061559016939,4.850888153022916,-0.0035030668548461192,0.004728766554653003,0.0006376089690304837,0.009555721432749627,-0.007104322033135859,0.0072399952687830175,1500,0.92537613860158
17,7.755656564665342,1.7378582076974225,0.013283968561450055,-7.854841450118848e-05,-0.002554326641670434,0.02751119514524849,-0.001100354851350755,0.01403877412884906,1500,0.9355423499164615
18,2.798718727951024,1.9041768926446108,0.0035838705097757237,-0.0023511378856212496,0.0011920206616945583,0.00762866708950506,-0.005163201841196112,0.005573229826093511,1500,0.9675100212236853
19,5.2306805592145675,0.7742450924479033,0.0015775877059005568,-0.0011148235627322601,-0.0011686251423130966,0.004028127705618303,-0.003102599419281709,0.00309635280005125,1500,0.9330282112865717
20,2.9109909271164778,1.3498891074484631,0.015182357288960184,0.004897027986635742,-0.0003041009618689704,0.030382681274318486,0.009776089276873364,0.013431822645844601,1500,0.9668388574208869
21,7.747910267711932,1.5383838851320486,0.020499621364372618,0.010440206443809542,0.0016362794352909706,0.04151817692822313,0.02036147868814119,0.017978997157213586,1500,0.9081433444829315
22,0.3668227451426287,2.629429902382131,-0.003952774236796255,-0.005588427398669433,0.0020105912471116666,-0.00520008773258386,-0.013882315538347519,0.006073926621263935,1500,0.946723468745403
23,1.1159897700273302,4.9662941430139576,-0.0007938713890550896,0.002214747726714922,-0.001497805530222443,0.005666518174795469,-0.002824765499475804,0.0037448402300575855,1500,0.9198888456694538
24,5.214195578320229,1.7902619538400062,0.010815835763118902,0.005045999919729069,-0.0018582413556009873,0.022725016388783756,0.008998654976912183,0.009910948232089815,1500,0.9126418470705913
25,0.9659356140994257,4.809896218405839,0.005553412523775461,-0.002130538776434356,0.0007197174599735972,0.011240487224148431,-0.00439473972946622,0.0069832174910372715,1500,0.9882545073304478
26,2.7266569175292634,4.06381103219532,-0.0013254969000330119,-0.008682810619819244,0.003090647242325275,-0.00039901687603644855,-0.019617598163668065,0.009710582107215681,1500,0.9861670727383939
27,0.6960781834928986,2.5729486881594292,0.0035801715963211613,0.005426786771945809,-0.002024392034417491,0.013456974103396364,0.004556942633137576,0.005927335387347168,1500,0.9447465218445077
28,1.8084769443311943,3.0791891892753362,-0.0007648193319944019,0.0020615586513858227,0.00048569230122777674,0.004285384589547148,-0.0016919059507643063,0.002668217312876161,1500,0.9349328419668654
29,2.3995833951460286,4.834723242235518,-0.003733079618098511,-0.0003208699697493742,0.0017716161177595037,0.0008651630718813025,-0.008973062247577074,0.004717719664682714,1500,0.9154548176684416
30,3.505783806653986,0.55271012349913,0.006647602513354543,0.0019535599008063623,-0.0009796984587022966,0.013687740077811858,0.003514584750509955,0.006156293768571975,1500,0.9057633767206328
31,7.60174229591256,0.319206843739232,0.003931717111169031,-0.007010489656476345,-0.0014029754948500608,0.00821747682793615,-0.014375021918550777,0.009903213999672632,1500,0.9614502777421199
32,6.471990219980275,1.6779444319843095,0.014465636597977047,0.0038255043363893096,-0.0003907003478257211,0.02895992725668272,0.007622354612049992,0.013000335009669817,1500,0.9303094799065925
33,0.7057590907993128,2.9295725552217666,-0.0051752114479568,-0.0001548409541147404,-0.001748204221492519,0.000787871420240816,-0.011447976224383895,0.005930776388797668,1500,0.9222189723307858
34,3.8878902629236167,4.8486480254410464,-0.0010603174995045578,0.001653199084556176,-0.001977964425369611,0.005390020870509523,-0.004204257700406286,0.004165007339313583,1500,0.9650696949287069
35,8.53194565796596,1.7046335979289222,0.00526495800706204,-0.009800349164113833,0.0006371403491371229,0.010583711708524507,-0.019654494022628095,0.01328844975276552,1500,0.9878153980341459
36,3.4441431852421345,1.9339590516654814,0.0005504200239211787,0.0029443556029411866,-0.0004668223044457571,0.006064331972267161,0.0009252192814575696,0.0028293690161739853,1500,0.95199426473274
37,2.761325827891592,3.5383811436371033,0.00919919195894388,-0.0002038667417475007,-0.0008279792453467774,0.01854308471623844,-0.0005524342818456832,0.009412691035482002,1500,0.963740033598
38,3.30521520504249,1.354766140011963,0.009606146990935727,0.000999308928436071,0.002625649550698397,0.02068780701851646,0.0005231048202271327,0.010215638823845147,1500,0.9002736023208752
39,1.2886116979677587,3.7778465945777286,0.0032776141810930315,0.003731377772411053,-0.002097100459272844,0.011227667425964049,0.002790316481044118,0.005062549664696905,1500,0.9423872642224898
40,6.724887545678305,1.8318527644388694,0.0008179453088743339,-0.005728816045070228,-0.0017176743144129553,0.002482484687904728,-0.012304226160296517,0.006857509837194175,1500,0.9551664766085856
41,9.942077108825371,2.3890755849729652,0.012077626329308113,0.004128004435280844,-0.0035783602530504665,0.026902131905637054,0.005509129623540858,0.012307191784273148,1500,0.9713888758093973
42,3.2336820514065523,1.8541638822324562,0.006950279460682261,0.006224177916597998,0.0008548386191011427,0.015031934082692348,0.011316980671868171,0.006780799848086136,1500,0.9184666991519195
43,9.809941615126599,4.02353776707125,-0.004312300966180267,0.006590136642459101,0.0011133384263288984,0.013405334749135956,-0.008849663396578288,0.009703765277167377,1500,0.9465521356054594
44,6.588277429749054,4.792794377730149,-0.00027196045337009095,-0.000744685384437819,0.002239632491169368,0.003487494884067798,-0.005520786559683618,0.003933682107355309,1500,0.9165091658152468
45,6.133879325450221,3.713068797941217,0.003882999467006162,0.00299098457853182,-0.003218076879753093,0.013371657919876821,0.0003763101711991429,0.0065937651230178656,1500,0.9227580733808304
46,2.8597119066964547,2.1423385024843244,-0.010493547120915022,0.0022596744463911373,0.004637407526837691,0.007535301515162983,-0.02400304686421075,0.014263565675299518,1500,0.9167791937955889
47,8.333153252133828,1.3033418255450746,0.018746274010663727,0.00826624243098682,0.003105272431356761,0.03919454949869002,0.014830483384611069,0.017138274655860555,1500,0.9474073430217331
48,3.438198767430134,4.11342142859332,-9.203453274013885e-05,-0.00042292763058169496,-0.0013669337002347529,0.0022388572217412234,-0.003268781548384891,0.0023987366282222566,1500,0.9044140729520355
49,6.785564308938261,2.092606984065993,0.002021589678417714,0.0029181420397882303,0.0010512766407199292,0.007225456206846814,0.002654007229565074,0.003165223481911172,1500,0.9423021790001987
50,6.269957602481454,2.0042960266148175,-0.0015687013671163604,0.0019483525761836516,-0.0015672865126623973,0.005090831155872126,-0.004331528737737543,0.0040844150289262434,1500,0.9242526696888445
51,7.362503006536731,1.9984400152424509,0.009230448681342138,-0.00711822716616622,0.0016861923027677982,0.018805099634139004,-0.01458065660378717,0.01449498205770571,1500,0.9127937244347746
52,2.625640654417718,4.96025196833706,0.009171702375120844,0.0013207934985785855,0.0005275200630489892,0.018413978049116278,0.00257101369828258,0.008636291293517435,1500,0.9718719725831914
53,4.032716529254015,4.001265700005886,-0.0017417913006010513,-0.005784309253833613,0.001253117536742103,-0.0027697189837687904,-0.012282482125100538,0.0055792402370925835,1500,0.9435848535432192
54,8.698722960271427,4.3190232003687665,0.005497636549161864,0.004240467836069016,0.0002352656998035337,0.01108044300539932,0.008395765765062438,0.005005903912662528,1500,0.9327484062447956
55,2.235367955386518,0.6685624894948095,0.005516019524506758,-0.001105637910050375,-0.0008164496522840117,0.011230404145173161,-0.002409640916260395,0.0063045536706334004,1500,0.9435641303077182
56,2.8938729411945374,4.251016372974858,0.002810758330760831,-0.0012323279957400816,0.0005590261448847134,0.0057732590521672915,-0.0026163983821257926,0.00371756661746315,1500,0.9303516320329361
57,7.2515383793277755,3.41290229763129,0.006835149263319594,0.003925005188390466,-0.0005868241013713383,0.013898050026876038,0.007622258876544081,0.006027439127577202,1500,0.9868703111806774
58,8.285946998192092,3.415605617756618,0.011986482207083413,0.013735775946228178,-0.0019193011888581286,0.029940657944704054,0.021503858361919127,0.01336992197906989,1500,0.9601553424461942
59,8.936186882190562,2.5569061957932835,-0.002805186907026503,0.005572257674793569,0.0028288654996439,0.0128760518134397,-0.007341910277905569,0.0088632834488571,1500,0.9153976837983998
60,4.201912696989536,4.58797314917783,0.0005609289409699745,0.0030451746790079483,-0.003980900619691075,0.011946472668310676,-0.00473426542835483,0.007444616358570447,1500,0.972185573571348
61,9.573145290685998,4.230306502754327,-0.0010240203985489808,-0.0018571823000992829,0.0025141301457148875,0.0022156159475823795,-0.007978021344878907,0.004643113447041519,1500,0.927399648197572
62,7.033162661577359,3.7796713289537442,0.0007193811095011159,0.0052335167166829635,-0.0026945699052976653,0.012982851466014893,-0.0010770558136467337,0.006776756913588879,1500,0.9280547531135569
63,9.552831561181046,4.511073469587181,0.0009151208217269846,0.004239006881656165,0.0026705843267025237,0.011445097511251267,-0.0011368421044849683,0.006026896708781939,1500,0.9167520564938013
64,6.122897736805913,2.559690097365734,0.014721248206005103,-0.0006899168980197547,0.0018581420379413511,0.02988424199328768,-0.0018215793773169852,0.015417705648563346,1500,0.9248736356728622
65,1.3227658220821048,1.1890886490854868,5.992363331637474e-05,0.0009817509495035819,0.0010455334724451663,0.0033269156136265317,-0.0012435664479866185,0.0020464643683154385,1500,0.9267084635776913
66,4.170287150032404,3.886995514159106,0.0031962371109609047,-0.00193901426636851,0.0005572024178233405,0.006512002083159545,-0.003997556393974755,0.004593983125219172,1500,0.9429335674011105
67,2.363038855875843,4.299433901876522,0.011726282971524253,0.006592779195203624,0.0016974588945274955,0.024473599339898594,0.012164524993557163,0.010597440989647704,1500,0.9856104708304175
68,2.3485554485943383,0.9479375596944084,0.007519417869857224,-0.0017326616685681851,0.0034388563491577085,0.01731515191560763,-0.005741639513029552,0.010394689396164213,1500,0.9532303507197007
69,4.516571348124161,2.0877151258447597,-0.001454276395105205,-0.001477193591802122,-0.0020557796593599236,0.0011801531997741158,-0.00704309317358877,0.0038506444905985486,1500,0.9445865372543104
70,3.0678572801400463,3.870997700818318,0.010177345288953615,0.0018534979478972329,0.0009237275904855791,0.02055724489305428,0.003504441580647418,0.009524176665182214,1500,0.939961621186746
71,3.6033794634796767,4.162779846460012,-0.0021271731973800207,0.002371372595560856,0.0019270897035870628,0.0061680168458973965,-0.005679618049535726,0.0051316291956766845,1500,0.9379390149695653
72,7.671492142981961,3.6785075364469115,0.014706258900656981,0.002386205227308276,0.0060350137114281365,0.034339762017857905,-0.0001548337619273893,0.017208720053172644,1500,0.9298140464740745
73,4.4147210589840356,1.8102598218108352,0.0073117175031218945,0.0006885004757466433,-0.0026381238773133886,0.016468145361641585,-0.00046770940390450724,0.008353455425588326,1500,0.9557487778417801
74,1.8172175959034143,0.12823251648954925,0.006555596706036021,0.0021579601847652743,-0.0008581360237340647,0.013434234460190536,0.003992879321412053,0.005974538974507466,1500,0.902442197684875
75,6.433326645294658,2.6065762183603356,0.007467766237362392,-0.010885977072852722,0.001395323678708456,0.015146476238918544,-0.021982897909899206,0.016168077992049917,1500,0.9272076128032256
76,6.748953881663087,4.652599886760605,-0.0009649333906057243,0.0037270763464615445,0.0011607080474150813,0.007997019082190672,-0.0024727331704790315,0.004739230366916016,1500,0.9268936935875624
77,9.48205530000832,3.2925851648606757,0.0018538492110966262,0.00017930619215262233,0.0010224682466030903,0.0046762330758764615,-0.0006099222693779654,0.0025045608219996917,1500,0.9600518696184671
78,5.858363225276111,4.307745695096294,-0.0012376056216619794,0.0014259999229000622,0.0025829779434777688,0.006000613733003562,-0.005623825130527396,0.005034411002831305,1500,0.9273843493728676
79,5.593082260755539,1.916817214560735,-0.00017662255943788532,0.003110346138422599,-0.0012267371585605443,0.007035393902826872,-0.0011679467448574453,0.003843105267044906,1500,0.915048460795366
80,5.4877106602266394,3.394315996616007,0.008453549408238668,0.00767528670265744,0.0003000563002756506,0.017111601582531666,0.015146070639260552,0.008109205235546566,1500,0.9744748264710406
81,2.0345268288040663,1.5779535846203991,0.007933660363829078,0.0029542620872109867,0.002714617334581818,0.018254807565526075,0.0035210373365540514,0.008386892215981571,1500,0.9310822995436369
82,0.8978981666449104,3.323387829406579,0.016369478628636098,0.01268217886489361,-0.0029715025180850375,0.0360456183461252,0.022057696640934214,0.01573805315425224,1500,0.9299113243254797
83,1.7691157756247844,3.1301558949903345,-0.005073472765186773,0.0009914386493410413,-0.0012190566439726283,0.002454597040256392,-0.010618665271947856,0.006017591776111593,1500,0.9124903000225129
84,4.547158231609526,1.8895264419899678,0.00044163916501255935,0.0008585908171258741,0.0014832041314257927,0.004295797818478346,-0.001695337854201479,0.002674456860410832,1500,0.9886181594763366
85,6.424189549782712,0.9127628164711443,-0.006689814688995288,0.0034077083723463137,0.007211203967748511,0.014323739946232369,-0.020887952579530317,0.01533516946246785,1500,0.9618466862029736
86,4.8113725300687324,1.442703880017819,0.01357790873978707,0.004127615761870016,-0.00108766323486829,0.02740295109938934,0.008008097903924828,0.012202518651225189,1500,0.9355905106261686
87,9.56255713907968,0.8230084879850658,-0.002358765304166257,-0.0037991495159163773,-0.0023937396871165366,-0.0011584483049266302,-0.011157381335238638,0.005312812608211673,1500,0.9338705604778093
88,8.833427128679705,3.302887216890982,0.008768774215307865,0.009465401919115218,-0.0024951315781464173,0.023272828387433366,0.013195523881412796,0.010107537149096475,1500,0.9759985734066837
89,8.307211360291406,3.926086381256253,0.0019750586333413416,0.0018969028145799744,0.002901914631971427,0.00967631692092654,-0.001932394025083909,0.005386643500947646,1500,0.9871289670337875
90,3.8158819062850604,1.0302257688206096,-0.002754765411631107,0.0005128818950270717,0.0009725581900669995,0.0015608781973317776,-0.006044645230539848,0.0034788299635419447,1500,0.9027088262934397
91,8.248990225766303,0.3680125652687971,-0.006324355046387859,-0.001550251165703558,0.00042877845507640087,-0.003024093690953498,-0.012725118733229335,0.005757426468237695,1500,0.9359961187368367
92,4.220087678160286,4.892457548350806,-0.0024782382739870342,-0.0008758516551764727,0.0009460575080479767,-0.000874625851932515,-0.005833554006394499,0.0027245708645469687,1500,0.9218219055744827
93,9.698302488995797,2.4321507874847335,-0.0003231493845037691,0.0015078456635732307,0.0012458933665562214,0.004276870916666386,-0.0019074783585274634,0.0027426327334257707,1500,0.9285842184337131
94,6.872733197457961,3.6333933273495385,0.0030273357560068985,-0.00033623661136366906,0.001939955946875354,0.007826012520135268,-0.0024438142308488104,0.004646074168793496,1500,0.9055977521549902
95,4.614346486812943,0.3420904764432592,0.00019096215263241369,0.00011975442866631785,-0.0011517838384301543,0.002615384579477218,-0.0019939514168797546,0.0020019383444163596,1500,0.9608844659522469
96,8.658570822929882,1.7467370686892103,-0.0033491754746680534,-0.0035391222620265814,0.0031607565366175904,-0.000563931577377867,-0.013212663896011403,0.006469958803205122,1500,0.9449016430448202
97,7.064044492098189,2.4922609983939594,0.0033802301121990098,-0.00841645368792691,0.0016902190582323098,0.007235251907660403,-0.017307699059116204,0.010921662871592838,1500,0.9356014695795368
98,7.1703799463889695,4.752992631607366,0.004739290557909016,-0.0004071019291382067,0.000279527218881407,0.009508857199880844,-0.0008444799423392236,0.004978994647531926,1500,0.9611600155368059
99,2.6795763355252666,2.186894212463713,0.012780460557767546,-0.0002621076168016791,0.0029392596156465433,0.026824490537849542,-0.0017877846559178085,0.013880794998643762,1500,0.9063503607795441
100,7.6795438322740015,1.542655881420853,-0.001228899337410154,0.0065118363488294384,0.0030065904834167,0.015084841637771788,-0.0045189676149332185,0.008890183158672203,1500,0.9857839399021375
101,8.175143011932853,0.9364704971972254,0.010579357144343382,-0.001128253786419343,-0.0014426214266287036,0.02150899620984422,-0.002606789493996139,0.011461911868961111,1500,0.9742826339638302
102,7.12989276839007,3.589844853511587,0.014163010362811458,0.0010355193833374915,0.0007827306567814739,0.02841903232889642,0.0019780271634014784,0.013741728167027175,1500,0.9436884083844983
103,1.1093221486863114,3.2550132937629694,0.006144966587006962,0.002885769129541451,0.002462271359683104,0.014936113694426913,0.0031253577386699113,0.006822291674484834,1500,0.9314627682573751
104,3.6548379262089026,2.0240138914567973,-0.002786884547400347,-0.0017889158309847756,0.003981335208305444,0.003449164526367692,-0.012600765283137938,0.0073167297044234945,1500,0.9146506880296611
105,9.676062822913945,2.695695261364108,0.0008192318178522591,0.004618689576574542,3.7007777088110426e-05,0.009238100016883247,0.0016377427719703559,0.0042689302459658915,1500,0.9128597974625061
106,2.6728719792140065,3.394858710930353,-0.00032716663709138425,0.005779580430335624,-1.9153416602687817e-05,0.011559281006390322,-0.0006544534199018417,0.005950006253142844,1500,0.9680161486757393
107,7.9863530180440065,1.634805572952764,0.006818747834526924,0.007896225977780006,0.0021392259400321045,0.019127015249013193,0.010302932375600666,0.00829048827293239,1500,0.9254325267341129
108,1.8319571569733495,4.799018574436429,0.004311572373830115,-0.0008346933673495458,0.0005965039457988242,0.008759616829641369,-0.0018058588166802308,0.004894145593218147,1500,0.9808310670322696
109,2.103783558040755,2.2959268978399465,0.00682075159867854,0.00182833594767863,0.0007130012715647606,0.013841167792786411,0.0034570072999279286,0.00623858572195319,1500,0.9122081858285556
110,2.26732105835982,3.479501852473754,0.012526083160167883,0.013486380562851522,-0.0026616768890445988,0.03142173969567023,0.020603187750368585,0.013824155205529678,1500,0.9564871871918867
111,3.4058366712585695,4.397781539258611,0.009616832820873441,0.00451295751824048,0.0004419175341376825,0.01930962697097211,0.00894995370725573,0.008368737921955992,1500,0.9251062443304131
112,0.0023571348511675083,2.2900274738129767,-0.0004770666947747945,0.003118517685912479,-0.0034767051180835543,0.010469486565346313,-0.005186584583070945,0.006906730163250365,1500,0.9722573612663006
113,1.0177103857529646,4.578949970038619,0.010397645832710823,0.0024266870669620447,-0.0008227715078961609,0.02096337433353289,0.0046852914658128495,0.009528844377833842,1500,0.9449737859544649
114,3.7721934137112867,1.0789588722451227,-0.002547802440958864,0.005858694645892705,-0.0006509569069599547,0.011817605603780625,-0.005195821193912944,0.007550737145190691,1500,0.9897421049356931
115,5.57900579969489,1.4470402597071081,0.011035856404974075,0.006744237734146401,-0.00038563168723087707,0.022140465454568603,0.013419722823672348,0.009658807659614809,1500,0.9871998879520698
116,2.4314863467399386,2.7331665709843564,-0.0009391399998623946,-0.0011616061109361087,-0.0002060978208862063,-0.0016323483976610103,-0.002569143823935996,0.0011259799593079283,1500,0.9139179649027026
117,6.335994604374381,4.0496085259610535,0.0030503069142407656,0.0025569964878148837,-0.0036595099658307483,0.01294292934241539,-0.0017283225383040923,0.006943991562014982,1500,0.9284543098028695
118,2.2601595116483155,3.1067777875469025,-0.0066899788105034275,0.0016451264511621083,-0.001326327301927757,0.0037021789182065286,-0.013791883636889168,0.007984081096762994,1500,0.920362231975258
119,3.0295482732260206,4.705203184479194,0.0039010793785896848,-0.0037545641582805624,-0.0020815555759941505,0.008860892560511494,-0.008567862119893247,0.0075472277028071685,1500,0.9144243275129835
120,7.7210265633257915,4.438611141923969,0.012079220366240744,-0.00683627228408036,0.0008187462443152621,0.0242291863576765,-0.013743290193355732,0.016650226996622663,1500,0.9127426260893612
121,9.59863609075823,4.926890226208456,0.004246117998703615,-0.0018070164805232295,0.0014578000471002078,0.009157818727060837,-0.004279615690700065,0.005945012594913253,1500,0.9316195285164471
122,4.962530007787799,3.109724100744052,0.0030512427176661635,0.0015482645751003377,-0.0005981721490150332,0.006520492190276024,0.002678522395256978,0.0028383981514928116,1500,0.9320630941486431
123,1.9712837640401404,0.48848291468396643,-0.0035881405656298633,0.013090939000231998,0.0014543631875374558,0.026433610118907384,-0.007428013249703113,0.015413146425672614,1500,0.930611582354333
124,0.6231403992759643,0.21020160500344776,0.007462711795109078,0.0023917078077855067,0.000608471535623638,0.015069401086860593,0.004639438118928576,0.006683892603570131,1500,0.9486916746401518
125,2.2189628482103885,1.8315746925095044,0.0023703561961221494,-0.005065739175711717,-0.0021694439543350048,0.0059139992667166024,-0.011304765225895737,0.0075767650979111255,1500,0.9317530598570598
126,2.949730913973667,0.9310903204973076,0.007385318266175915,0.006236246733488697,0.00015770327378435804,0.014813138194009536,0.012429991805319686,0.006888515316679859,1500,0.9475953594909751
127,2.8258304074261256,4.9976746828143455,-0.0026133218095552363,0.002934217503583243,0.001345370829663535,0.006486549196135885,-0.005844757808079871,0.005342022635917297,1500,0.9246018473178049
128,2.2957673438933823,0.5271590391337599,-0.002197605736419247,0.006903186665956773,-0.0014186952445847509,0.014238429776507388,-0.004827267917432336,0.008584406113732491,1500,0.9207112639839856
129,0.6537994823228432,2.899135621659106,0.004068311511550321,0.0024903207255397687,0.0010967717180701052,0.009260795764149102,0.0038564687100310774,0.004028669755710356,1500,0.9697564091820615
130,5.757929126591609,2.2319312021710527,-2.26447713923255e-05,0.005781344879808649,0.002848443842999169,0.013891401085221477,-0.0023740008683888307,0.0076089602192588816,1500,0.9647688536455507
131,3.8464225972739605,1.9672058474649023,0.0033196041995811106,-0.0020062982897053514,-0.0018064920453353074,0.0077490569433470435,-0.005122445123595526,0.00561207284582521,1500,0.9402462819524796
132,5.269831140227557,0.5889967981609384,-0.004337266875558707,0.0003109671547953936,0.00034325402760646283,0.000672356779856215,-0.008724956221382843,0.004539912118473805,1500,0.9464075989354296
133,5.274414486234996,2.2074296681474674,0.0008832401544586468,0.0005214293451531516,-0.0019310305617122145,0.005283641423046752,-0.002474302423823155,0.0034319224186864145,1500,0.9589014982440877
134,5.158826444090579,0.06618039753349458,0.0019880044125091647,0.0015217959449227143,-0.0003896139556279948,0.004417845770905059,0.0026017549439586985,0.0019230404291003596,1500,0.9027505149889631
135,0.4247129413327855,4.011075031328394,0.0007176859289819101,-0.001215341155728951,-0.00044812592506625966,0.0016330397512100891,-0.002628350204704171,0.001861937431278496,1500,0.9618098143401977
136,7.19853805438402,3.7272321513763265,0.006476432437700077,-0.0006912138534938661,0.006431010744652349,0.02050957765844106,-0.008939140490028639,0.01307563578289839,1500,0.9293285455931817
137,8.813391714269374,2.992815179884545,-0.0012196263568805127,0.0017257979948569798,0.0039005151076226285,0.008844732486886648,-0.007832389210933715,0.007225839065811403,1500,0.9328744031161551
138,5.8474644892397585,4.60197189102177,-0.002071918449086339,0.0030465026914813526,0.001992204098561937,0.007461011891996772,-0.005511843407206745,0.005638507014407254,1500,0.9659537554183532
139,5.711532331618451,3.69085260023801,0.007228496416781463,0.005959209843512763,-0.0015695862897837575,0.016573779633596814,0.009801632886991637,0.007216510151658657,1500,0.9141956051696951
140,1.6141021793680654,2.2895199659395575,0.0008349773535523276,0.00026371893608830954,-0.0014650431511312033,0.004083950368982842,-0.001886557789701568,0.002643026640593977,1500,0.9412173694244153
141,2.9162664377785417,2.680318715058841,0.00503782907195078,-0.0006611845243266236,0.0012297569901154582,0.010583734444629518,-0.0018304453493812054,0.005803854591234311,1500,0.933808175986561
142,3.311204556006925,3.1359519778665454,0.003478836328313569,0.0005582097947387054,0.00016151731854249882,0.006975482905659339,0.0010986093404452089,0.003248113820965403,1500,0.9820147445965938
143,4.85082854183569,0.4349729723806317,0.008637723861446185,0.005231899972895264,-0.0014355106100312769,0.01832410463527365,0.009415143033409248,0.007935579104951213,1500,0.9161697465242286
144,0.0849577287781711,4.564660582793264,-0.0019007514750871107,-0.0002416099362194475,-0.0024226513597811086,0.002979133398823896,-0.007263856221437012,0.004562862031862101,1500,0.9297491059873557
145,2.7225428555304934,1.4682875064257384,0.011127112662292103,0.010326472000513677,0.0019076389876410704,0.025351965287881528,0.017555204037730032,0.011245536996716446,1500,0.9254081644805687
146,7.276755455418637,4.08140067509488,0.006181896561449942,0.0020887215892302965,0.000688703048206922,0.012589336584156,0.00395189971720448,0.005575775984499632,1500,0.9381922126976939
147,1.0624682011307107,0.2407927389625275,-0.0009096843135670395,-0.0011640183080269886,-0.0013162265344073463,0.0005710081263422839,-0.00471841336953034,0.0025141463453603632,1500,0.9102124305866677
148,8.807152752545754,2.2031165534843473,-0.004383599213151073,0.0034720449052347275,-0.004611368111435342,0.011203312920055261,-0.013026421535887952,0.010501677902964152,1500,0.9269435448396097
149,9.228064419178093,3.0026096660594943,0.005713921829362107,0.001481942504886578,0.0011014784309353624,0.01196688811725917,0.002424840551238201,0.005478787898136486,1500,0.9329870350402015
150,1.8834163067398912,1.0883115343818157,0.0023707317628038453,0.001102121098166422,0.00034107802865939254,0.004913238193084044,0.002032467528856491,0.002138038628559767,1500,0.9344285106893114
151,9.804793064781794,2.2490286107240887,-0.002520327529755756,-0.0038604433986623053,0.00315415701055537,6.831709478626741e-05,-0.01282985895162239,0.006432076776478527,1500,0.9660419797605583
152,1.147965905401076,2.582467346459041,-0.0041618368273299185,-0.008265957095596646,6.3000835653940055e-06,-0.008323654312653849,-0.016531933533199282,0.007158595316341029,1500,0.9360124679062213
153,7.963518738041474,0.9959441226359406,-0.004663021507741779,-0.0006355330231013008,-0.00016321439154485962,-0.001257859139658403,-0.009339249922027757,0.004389086973658103,1500,0.9194550502744587
154,8.886006336651803,2.5284412591537886,-0.0011980760688322933,-0.0016223003929124271,-0.000888141896546478,-0.0009941370495246398,-0.004646615873964801,0.0021189605092002957,1500,0.9133571861953281
155,0.6874271327236192,1.9498966050902662,-0.004438922447024121,-0.0044369072334032615,-0.0019210643691794972,-0.005033700413574168,-0.012717958947280597,0.0055467608661629204,1500,0.9854787258385648
156,5.036884585424048,2.582036864144037,-8.803919603599586e-05,0.0007166525634511051,0.00033513631491193224,0.001675892807716238,-0.00041866607288601953,0.0009598876814405554,1500,0.9379295018075541
157,6.723991776095451,4.644866597868953,0.007106839473213405,0.0005800869392192492,0.0018929901686509391,0.015232265752345445,0.0001415870725198637,0.007580984021442426,1500,0.9812513372742036
158,4.660089543417074,0.9558064633454372,0.006009344655078974,0.003090518075081758,-0.001723447062948549,0.013616568135568767,0.004583157324752697,0.006000195514845638,1500,0.9809863507106539
159,6.980256518471616,4.808441657375998,0.0003086304301236622,7.553809089736515e-05,-0.0015397544506435639,0.0034724863660157163,-0.0027041493239736616,0.0026814504837718617,1500,0.9508122388526775
160,7.4715628533374465,0.8418928217764449,0.0023245493983617663,0.004311819415247222,-0.004449562206843903,0.015754683211034987,-0.0024819455838170114,0.008565517546843867,1500,0.9360262537870594
161,0.3109605876071242,1.6148304213719538,0.013575633185373484,0.005850188749111924,-0.0010710766803048953,0.027442761048519924,0.011408882820450893,0.011939184395350712,1500,0.9476165022909886
162,3.088922865658877,1.8385999712124819,0.01002964859043365,0.010711451576273436,-0.0007473433083957529,0.022383946292768707,0.01909825404064546,0.010467689170814202,1500,0.9843249889396718
163,6.72358111703539,0.20487626531231817,0.0007712695164616514,7.401106392587449e-05,-0.0018614186398219666,0.004632850614108252,-0.0029422894533332007,0.003307248083399473,1500,0.9093807625985247
164,9.026358666691124,3.8413521639805093,0.013954642029575415,5.069896903608104e-05,-0.0007453244912710042,0.027988962382926554,2.171961429643654e-05,0.013989054449345463,1500,0.973681544845921
165,6.244700653780897,1.9822609992997486,0.008732533247819562,0.008148001714003563,0.0013468185951722948,0.01963686557102674,0.014124204352619508,0.008771324527672987,1500,0.9840005429203739
166,7.5754051335358845,1.7063638083469168,0.010995642590005857,-0.0007049894595051163,-0.0019851576447185563,0.022646550259223585,-0.0020652439982221035,0.01187331170544921,1500,0.9599542933747532
167,7.983266025992113,0.9515588922855983,-0.0029952454487093593,0.0038114112295630073,0.0010628459569675419,0.007947024161780787,-0.00631469260007349,0.0061889730636098435,1500,0.9879495540023322
168,5.206866285219575,2.690468156253534,0.00019174736198292186,-0.003363568127023018,0.001540649077553115,0.001532928595661981,-0.007876570125742173,0.004372197576923398,1500,0.9114117849148085
169,6.539038824060094,4.32459720898632,-0.001324305676465189,-0.0031591610163308513,-0.0028085600882706654,0.001425740800255904,-0.010392674185847984,0.005586986512719428,1500,0.9417765141960747
170,7.59719734355134,3.1507650276113286,0.0004745198612472572,-0.000999015000838112,0.002759670036243764,0.005188159219421914,-0.006237149498603623,0.004954249555384174,1500,0.9722167420203904
171,9.403389089684769,3.9566103737391147,0.0005825968192753998,0.0033460331455611673,-0.002279361032456961,0.009259533002274861,-0.0014022730726017266,0.005017213245027519,1500,0.9094200171801677
172,1.8871364309837224,0.3915211027315102,0.011649827129945927,-0.0008421003813521878,-0.0008117124125303606,0.023404701032529947,-0.001789247535342469,0.012174340236771755,1500,0.9592945494749672
173,0.9446531590189866,4.481194721857961,0.007018951672131107,-0.004693877020495257,-0.0008797868797992482,0.014169332998965117,-0.009519183695693418,0.010323097155535695,1500,0.9792418955621699
174,2.6638788185411366,0.05344508212722088,-0.0014760203073832892,-0.0015680795662522348,0.00017617654855493832,-0.00267991913253789,-0.0034082806147331577,0.001554383067106294,1500,0.9752899888734315
175,2.9003819314782153,1.9697046931942257,0.014015425369072885,0.004212138265003263,-5.44089459435791e-05,0.028031454666641357,0.00842367260151094,0.012455851176952267,1500,0.913734787846809
176,6.831698150646175,3.783125724559475,0.0026685369686729908,0.0006502506185769529,0.0005893207588068956,0.005656024335640429,0.0009815508388594588,0.0026173640319682836,1500,0.931607392551194
177,9.410143111592395,3.4358476363924497,0.02004371135786762,0.0008134989755547084,-0.005193765322705627,0.042713602102838866,-0.0009991814359942043,0.021610927828457964,1500,0.9347331473006428
178,8.24893045264938,0.6868012688530312,0.0031619946128836115,0.0016308522953995068,0.0031132540555587917,0.011204851279320591,-0.0016191574627543535,0.006047991022828365,1500,0.9360260792534207
179,7.626486402309514,1.9512151686380697,0.00505913276998173,-0.0006337339431467563,-0.0010833622973328953,0.010516657061598624,-0.0016658594079286748,0.005720455301465966,1500,0.9172695787374794
180,9.99162282820096,1.428701821364677,0.01384098589260367,0.0033595706353137193,-0.0008416880795923107,0.027816291127513486,0.006584821928321291,0.012589088610154297,1500,0.9451932764094062
181,9.046346840055692,3.561472425364684,0.005676147973921727,0.0053965592624188735,0.0020690232180969018,0.015220188177308993,0.006925226295372208,0.006599424975117107,1500,0.9367799537104926
182,8.024086652281442,3.945931130340154,-0.0023427112440680365,-0.002467006393156437,0.00012845880916389875,-0.004524312755181199,-0.005095122519267748,0.002417527227866864,1500,0.9482529216522231
183,0.5895753286789795,1.145751259765152,0.0025830560854546315,0.005552228437866698,-0.0005304661059562349,0.011288308725036517,0.004982260321606143,0.004899171846475601,1500,0.9027925309699425
184,3.9689267679851516,0.2363684770680241,0.00769088908215279,0.0036193308591574913,0.0014189902511483785,0.01627325527209901,0.006347184610521552,0.0071031020372226165,1500,0.9426734148524696
185,9.544585660861872,1.393131646710955,0.008945492548461515,0.013100698263123782,-0.002779572649203082,0.028986639714931057,0.015105741908239542,0.012555317819958679,1500,0.9009445275751267
186,0.9580150722683034,3.4464878927436287,0.019081228257313225,0.011541512512880667,-0.0005052911223553899,0.038229881493236216,0.023015600047151568,0.016668518397108676,1500,0.9069717962600912
187,9.362809363461967,3.949936449785349,-0.001447139688741173,0.002686646532024919,-0.0014166791970149197,0.006251104224160921,-0.003772090537593429,0.004384196110422985,1500,0.954384170248377
188,1.8894519799552112,3.9423522617207123,0.0008307928150265353,-0.006543309197744973,-0.002331436863758808,0.0030121481892599507,-0.014437180954696826,0.008077625874962134,1500,0.9540721210444632
189,1.2608588550432964,4.540837668243822,-0.0006012642453741748,-0.0026117575456513693,-9.528295936368405e-05,-0.0011935172280596934,-0.005232526353991395,0.0023748002583967283,1500,0.9153880569139282
190,1.1218089628646533,1.972269874456899,-0.0072805986574772975,-0.005012842995339671,0.000254030929098417,-0.009969470354605289,-0.01461741295102865,0.006467828759637005,1500,0.95090413800515
191,1.017213246461739,4.605651899396829,-0.000332481933904128,0.007938735653356378,0.0017191252505137046,0.016563630951858102,-0.0013511235129536042,0.008639428746965123,1500,0.9570386515764534
192,1.298529516804846,2.4145256373786483,0.004325835039805657,0.0021252588243142736,0.002136857259052305,0.011258085799046023,0.0016441019291938384,0.005266358476951111,1500,0.9137673048426989
193,5.6810647911686765,3.456388408487433,0.009334861794972026,0.005928975905004406,-0.002754737206951234,0.021741056780177938,0.008786618619774924,0.00947163980483318,1500,0.926423313512879
194,3.4796197906648896,0.5446756027029126,0.013050118034422131,-0.006020473553356085,-0.003356954233312069,0.027247558082771947,-0.013188269120639855,0.01785852732414067,1500,0.903183698067815
195,6.1702044681225585,0.7316912588118285,0.006827325230983314,0.008485909488604941,-0.0032996429948529134,0.02211775360879401,0.008508715830382502,0.009661775063593088,1500,0.9077040031177456
196,5.524941599900199,4.138285554710569,0.0060092660858800905,-0.0015060934601090117,-0.0009759208677613955,0.012267856474197758,-0.0032615112226556005,0.00709135934598488,1500,0.913055156336537
197,5.540556375416149,1.9656166992112394,-0.007025185054439786,0.0051076124583955985,-0.0036142051566597938,0.01220527028862919,-0.016040415480717565,0.012268263508914048,1500,0.9390440444509508
198,3.270960463586813,4.085511139483574,0.00016681153949455862,-0.0008983341011997966,0.0024453412919317637,0.004273805736418295,-0.005736850859828771,0.004350145381888761,1500,0.9891517225626212
199,3.139264958263862,0.1341480394351824,0.005799993994034039,-0.002320905208187137,-0.0011546951918272497,0.011921972641304845,-0.004963795069611043,0.007515831992701521,1500,0.9303971564556326
200,6.551274317196283,1.6789518434060569,0.007783057315343357,0.006394495004770639,-0.0006183381261663165,0.0160369805772475,0.012318124062980494,0.0072693777264606595,1500,0.9190148640560901
201,3.862342107843164,2.3692749270418965,-0.003612454467622893,-0.00047519597940058654,0.000570106276013749,-0.0007496157728890157,-0.007425685121157943,0.0035403500050921223,1500,0.956104770763044
202,8.429727349189104,1.733085697367549,0.004684220746930687,0.0030494365625210206,-0.0002496402190397544,0.009442984746031616,0.0060243298728717976,0.0041404968372277,1500,0.9812213120215366
203,4.097408329581963,2.219771562049688,0.005820310263688175,0.002419326463272793,-0.00231869304233149,0.01399046627659237,0.0024888071773295677,0.00646350785021232,1500,0.9723620712613044
204,8.225699843028561,1.9308880313227894,0.006325012227298285,-0.004788410526327211,-0.0003400612925304361,0.012670816178495331,-0.009597612776553185,0.009673072687646356,1500,0.9421633196169908
205,6.967356377965203,0.30596137047189664,-6.452761299593048e-05,0.002122381994942533,-0.003187531546109181,0.008797587541579728,-0.004681878777686522,0.005926777662576684,1500,0.9112168147193334
206,5.193783164437913,0.7314775688884256,0.00985235752852608,0.003896731319501945,-0.0025858743212660803,0.021636830448964785,0.005861347247091262,0.00969132146356231,1500,0.9291226092383024
207,7.891598584117098,2.231525595261807,0.005243005710066979,-0.0021794308578471735,9.713401867937292e-05,0.010488553281484665,-0.004361403577045052,0.006610151376865339,1500,0.9185664748671264
208,8.994942678288801,0.16798676212574692,-0.00019837834881363935,0.0012062526782651124,0.0017638475850567696,0.004804928652933652,-0.002789179994030705,0.0033267354595155054,1500,0.9258899210068667
209,1.3474884362379336,3.1854915045820897,0.002743110959957935,0.00034968431386698964,0.0006515560487472558,0.005817972744899919,0.00036761780274993097,0.0028215757721687133,1500,0.9870512718464411
210,4.36971850910857,4.469739173577309,0.007791453124184498,0.001672699420289477,0.00016075783819025573,0.015591347597602891,0.003336957491345058,0.007109812603759954,1500,0.9010142946050592
211,9.06538220038027,4.243734925632024,0.0003406670008230116,-0.004177092572660435,-0.003448076951710748,0.0044077899896018125,-0.01208064113327666,0.007392892394703827,1500,0.9294851518483614
212,5.215178837346275,2.9473949966705906,0.004463269589167682,0.003924158314191112,-0.00010980802548651344,0.008969555188968952,0.0078053006177486355,0.004223907058754881,1500,0.9142329592158227
213,6.615031872454667,1.1578822227688628,0.003891650038494095,0.0011011997501871272,0.0012347142580280835,0.00871906636953422,0.0012666332078282252,0.004079908670381162,1500,0.936406955079499
214,5.694665895772779,2.0810297368404544,-0.0017209863582494603,-0.006225843820495394,-0.0006950888937302618,-0.003232348761250295,-0.012661311596239413,0.005697172873397701,1500,0.9390224187392135
215,1.021914085878054,1.60159214757994,0.010630145211632183,0.002946590474354897,0.0006753373927027548,0.02137810324409293,0.0057753681278812285,0.009577470428264897,1500,0.9319915414535348
216,1.6160702023647922,2.305707426501101,0.003585440100106292,-0.0016064151086650318,3.0032656011102167e-05,0.007171227640660014,-0.003213177657777494,0.004604167812113602,1500,0.9899801608961639
217,9.656837827360967,0.48046102175923366,0.009404143480451682,-0.002132299123976681,0.00013231568136109397,0.01881132171567139,-0.004267633002721388,0.010634358625641412,1500,0.9274665699542631
218,2.5267202280203027,0.5505471859794631,0.0018555966822055797,0.004466867244100498,-0.001279894032551948,0.009979135758131754,0.0026657920944804007,0.004474575308239982,1500,0.9548532032585412
219,9.35849536174681,4.170304108034793,0.00702535125187351,-0.0003987741345146314,0.003068370609597131,0.016258670895150432,-0.0030055166604326744,0.008975567056247986,1500,0.9057646296582675
220,6.767802162047189,2.0036113699269857,0.003076048045140657,-0.0019622756518136836,-4.269900278760862e-05,0.006152819773005783,-0.0039252749863518364,0.004399331893256093,1500,0.9040279843388042
221,4.77922262488303,0.35120180973346904,-0.0001491732951103119,0.0017050998338573264,0.0011588808947471264,0.004524149668778016,-0.0014122965912839874,0.0026857007020017316,1500,0.9751745552648454
222,3.864468883488492,2.6919332982175757,-0.000817814626569695,0.0022046444461645467,-0.0008131036424638934,0.0048190024521857205,-0.002045342812996017,0.0030521600502035726,1500,0.9850988488562433
223,9.581998751553805,0.6577266261622572,0.007508637683551519,0.0012393647307713358,0.0028552980238736245,0.017228255392684272,0.00026774943596144,0.008547976631519611,1500,0.9320099681315123
224,0.490454451456791,4.135667981441722,-0.004884744311776254,-0.004092590361767581,0.001933821494447084,-0.005029402281765,-0.012925267065322672,0.005642496086639805,1500,0.9678323511406068
225,8.784743991496322,2.228367526495205,0.0008922599635472737,0.004980628744729968,0.0014310845727772148,0.010863557151353082,0.0008822202652013994,0.005225206606105385,1500,0.9133460618883879
226,3.2321056561656194,4.125689292962756,0.003105764021685618,0.0007228398112627396,-0.00046651289662386536,0.006387678846207065,0.0012695288196896497,0.002928515070821816,1500,0.9133110817871654
227,9.610095669175976,2.660841852663732,-0.005123063943627197,0.00032901354516102,0.000946565412707345,0.0009773526602264437,-0.010565453457158798,0.005543243613190144,1500,0.9390929646447322
228,4.264805088916055,0.14858749911257907,0.0032837293525831346,-0.005461970366732202,0.0034498185708449034,0.00896142936999686,-0.013317911398294992,0.00970852077710573,1500,0.9798586170776754
229,5.217428678752134,0.5186761327013906,0.007420845949263954,-0.0018722350307517877,-0.001542214935544545,0.015340192084534177,-0.004242970247509845,0.008922055092822272,1500,0.9213759742870881
230,5.689666270613181,2.5058396769689666,0.0011866895882813346,0.004520033733698113,-0.0010692703431404334,0.009667094448359267,0.001746352195599629,0.004461510659227797,1500,0.95673851360157
231,8.043625503876207,4.257915096613052,6.238130356855465e-05,-0.0024998567882534074,-0.00021229191822652938,0.00015970288295966617,-0.005034653852329372,0.0025581875008744764,1500,0.9808875543241264
232,6.009656198098128,4.368507534492995,0.002104729909637326,-0.0016765358717799983,-0.0010850477246649739,0.004787928567495586,-0.003931540491780929,0.003781706150694978,1500,0.9142035601667408
233,3.761706460389862,4.581055782124031,0.0009289447137994214,0.002837009413527625,-0.0007411099342553043,0.00618208463641725,0.0013498236182368432,0.0028149365179343327,1500,0.9462504793107714
234,3.2398876395680176,0.6195437751714294,-0.00776569049752786,-0.004437656298959656,-0.001982029162063957,-0.007027482615123469,-0.017379210977851563,0.0075711687193445254,1500,0.9062799680382422
235,2.4519344232953943,2.6593444531556893,0.005393825266979613,0.00015192179631730166,0.001183775857977605,0.011297516627827821,-0.0002060225012339911,0.005700961977167943,1500,0.9086474338141347
236,3.7358297941932053,4.447683645077641,-0.0028943690303328473,-0.00531311520369689,-0.0010348892217888186,-0.00502404020960244,-0.011390928258457035,0.004943828097280292,1500,0.9336083090775696
237,6.906741742517193,4.147027807546827,-0.0025376752342114624,0.00047505798040952383,0.0026884597035247426,0.004100809044320388,-0.008226043551924266,0.005436401869178711,1500,0.9077876486725238
238,5.22977319125879,1.7460206126081712,0.00032950380109764946,0.003892237164530637,0.0012522792859058058,0.008576724623296079,-0.00013324269203950686,0.004322058096454879,1500,0.9763405833597186
239,9.695050909096238,3.9740071593405983,-8.909773300481679e-05,0.0012532169311586406,0.0010223828674125418,0.0036101109332058907,-0.001281872536898243,0.0021968045094716187,1500,0.947687124387322
240,7.452083775253633,2.228806742616989,0.005346236792021141,0.00413081310026419,0.0006389456708105513,0.011240643108272021,0.007713456676298639,0.004978585586170239,1500,0.9323142190817303
241,8.61678443788753,3.778441433893929,-0.00046512582014455106,0.0011466766823127067,-0.0013366103284718014,0.0038030915054463217,-0.00243998978111001,0.002724727488237794,1500,0.9856514819190065
242,5.211091361973744,1.669883028641359,0.020206406474803148,0.0073782659370282295,0.00030109487458829346,0.040426939429415054,0.014742405394247702,0.017717827311219653,1500,0.9688263891092367
243,3.3651091601860204,2.7370133066834827,-0.0044515215541650836,0.007066521512679497,-0.004198465355293491,0.01686890333436502,-0.011638903417336192,0.012413294376668169,1500,0.9861246282837439
244,1.482733016820904,1.952103308773936,0.00132915576239788,0.002257570777876856,0.001338059823519552,0.0064193173695749235,0.0007541357109745479,0.0030387217581335805,1500,0.9856059478085233
245,4.859970476941337,0.43204237506481946,0.005288638413943204,-0.0016145609772879052,-0.0012701287569083393,0.01102982825296193,-0.003681673379651331,0.0066298577515910275,1500,0.9261048643018864
246,0.23037904688280264,0.7667018139055221,0.009689310157306253,0.002234731227731499,9.214370945673648e-05,0.0193808978856035,0.004467184884472002,0.00878915367885586,1500,0.9545199662107929
247,1.1732135959615708,4.598920236399725,-0.007011726302536591,-0.002767986230003712,0.0005771413320911393,-0.00538179276609923,-0.014177632298981377,0.006198142303047042,1500,0.9746752147688235
248,0.5395089331060721,4.080173951906895,0.00015710393799397613,-0.0028175574199338473,-0.0008099060477355158,0.0007266398765289001,-0.006047546840408642,0.003220839059411218,1500,0.9620519127889589
249,8.609001571144764,1.6736340806060328,0.016163544949980544,0.007495103356389498,-0.0023577754694823253,0.0335266927083511,0.013790603904388984,0.014593376414001276,1500,0.9829343150527867
250,2.701491026994135,2.3997826286074373,0.00449239573888556,-0.0015202759557464696,0.0022142511678308273,0.01043963970908438,-0.004495400142806199,0.006635605803890414,1500,0.9621049817377001
251,3.5145112752754804,2.6120467359865214,-0.008748346051398756,-0.0028517870519846294,0.005454999491113907,0.0008013783297357111,-0.024001644536502484,0.012206100375361104,1500,0.9431274000611654
252,1.1009052612936632,4.57804868698667,0.009904973462372747,0.003000519836136165,-0.002979474644692772,0.022025830820241316,0.0037851557767765096,0.010199184119438405,1500,0.9464697183719201
253,9.886961749793867,4.333344135878906,0.005413891095848096,0.00762942228189812,0.0010336227165432378,0.016073508440275542,0.010013118315216889,0.007029834105813322,1500,0.9018876416276059
254,8.316319835786382,2.26041429912492,0.00848774142232753,-0.0022186965606508387,0.0008416626638659419,0.01710700585267244,-0.00456891612931906,0.009895518162339348,1500,0.9828100916900948
255,3.0439730255829867,0.6340580151701936,-0.00446976792708917,-0.002312998272445969,0.0008340759329700067,-0.0040561591521172495,-0.009509373246953029,0.0041324652234060915,1500,0.9235449229022076
256,0.7287604612498544,2.0361664280421126,0.004058270673058631,-0.0017816991804341475,0.0005258364766125084,0.008210479470529894,-0.0036573364852809285,0.005263472461972679,1500,0.9281544575413038
257,6.757410145941678,4.945660068621724,3.185543670604536e-05,-0.005734172637878461,-0.001051830902216895,0.00043547334138688103,-0.011840107743731712,0.0060318703503925266,1500,0.9859015249020815
258,2.2308275815888834,0.583871696083379,0.0015774678825042996,-0.0015386910432109266,0.00197105421373186,0.005063780849659451,-0.004986227171072704,0.004351824317336669,1500,0.9150758842780428
259,3.8687228343789783,4.748969609572039,0.00017976608765404877,0.0024823459782106687,0.0034844867556939633,0.010001626079396015,-0.00467740194766658,0.006494078812958952,1500,0.9198072813412307
260,3.5569092399235682,0.28825020626813747,0.002423011851943599,0.0024209418636544676,-0.0017100284953029865,0.008264011332633825,0.0014238960985623094,0.0038260380914984767,1500,0.9698314090377731
261,4.611618808839667,4.291366890959579,-0.00789589989233304,0.0020411225131986895,-0.0006100935626586129,0.004156879372314409,-0.015866434130583112,0.009151205260588791,1500,0.9385856781548322
262,6.043926212492645,1.8654247520596046,0.0066497698924495455,0.0005680757068175881,-0.002210235384350674,0.014736327226862737,-0.00030063602832846974,0.007444460911448489,1500,0.9239701120457441
263,7.037090593989186,4.598066240153786,-0.0009528865811086421,-0.0043578049898566635,-0.0005920890196331729,-0.001705730128881376,-0.008915653013049234,0.004098496247364925,1500,0.9111935513071279
264,0.7029667653345317,3.8071340645997784,0.0005798179540667224,-0.0026099860204093443,0.0013159164558262618,0.0021052150925001843,-0.0061655512251854285,0.0037224240754150876,1500,0.9092095262121908
265,9.836610736259397,2.2233798205278887,0.008656367773388325,0.004843945464313568,-0.0017339371095792843,0.01865402214126208,0.008346604334141704,0.008092289600353778,1500,0.9641287547917693
266,5.709667419404358,2.8327119577631557,0.0018746449742387257,0.010881414687781591,0.0006414271857751877,0.021853730573379936,0.0036583887506607005,0.010136812937694207,1500,0.9078302384901323
267,9.751326613033832,0.3010467896540575,0.0012604060665788704,0.002539018895073591,-0.0009896459083046304,0.006155788019521019,0.0014430619037839039,0.0027880535603127666,1500,0.9886247343939498
268,4.338495945968578,3.0764492744965026,0.0009139063022879561,0.00404084532387103,-0.001047714467492735,0.008718867733065527,0.001190635519252445,0.004094364232568497,1500,0.9192866595238278
269,4.490246613148719,4.466814730554377,-0.003805210083108657,0.002144335204980555,0.0001320666254044371,0.004294530692377354,-0.007616280448633558,0.0052239609466481285,1500,0.9258863178745419
270,0.6104499490378712,2.349330066607517,0.003115738417646797,0.00256592434611655,-0.002028202417899336,0.009775159521444185,0.0015881660060825106,0.004542891119005758,1500,0.9784198264064792
271,3.745325735585209,4.658975910842446,-0.0002844911321073151,-0.00038895928588782375,0.001804221721164623,0.0029365049379120843,-0.004283405773902362,0.0031443945554123598,1500,0.9877233587693721
272,9.89923652384456,0.737113161713332,0.007750045676129998,0.005491364687503716,0.00026737798562940005,0.015562531592087484,0.010920289135179943,0.006919135778579622,1500,0.9237665701185032
273,3.4163329989772464,1.3363765680871538,0.0053082257826270705,0.006888961616521695,0.0004121816356442098,0.013979966291666812,0.010414408506630717,0.006290991221357273,1500,0.9413292416501464
274,9.067639245082104,4.608680422527479,0.006354414826687684,0.005233951327976685,0.0012679410015948016,0.01436075429236165,0.008815978016967084,0.0062719342728679885,1500,0.931736115478843
275,8.074038705219447,4.075765351270665,-0.00239203996476861,0.006009823465490684,-0.001251002953033386,0.01238427325744463,-0.005148706256000481,0.007804524095392706,1500,0.9852958289396128
276,8.393536265418659,4.048978979523541,0.009014122385031045,0.0003478750872881718,-3.172460693834746e-05,0.018028477036039263,0.0006955179085991713,0.008845487560853318,1500,0.9877752228800206
277,0.4610689593555928,3.6980790753490904,0.009031714443784727,0.004067559616926495,0.002247771433019629,0.019796492797277646,0.006402055324144799,0.008748559843395239,1500,0.9324617392967797
278,5.286143602235737,0.32112717796440315,0.0075705763479493446,0.004622990553859343,0.0014999143528840982,0.016399186270875755,0.00798794753274162,0.007101844419256531,1500,0.9803568852520288
279,2.9444049271003356,3.525578825356646,0.004108048912023037,0.006656478379274821,0.001157523652292335,0.014207481948568551,0.007321572634027166,0.006152984197142925,1500,0.9546716047964401
280,6.424276301416253,2.7737512668007582,0.007834262980122873,6.50061371411095e-05,0.0015970629556861795,0.016299494842202528,-0.0005009566076745586,0.008277829263712774,1500,0.9102574276758385
281,5.813199935463604,0.3908269439173656,0.00127147349733841,0.004666379032431245,-0.0008336004928255527,0.009720040087091474,0.002155664972447837,0.004420772580148515,1500,0.9063703272627537
282,1.6184124765196584,0.885270530074162,0.002245800229899169,0.008531348020002088,0.0004452238101691716,0.01712545573979444,0.004428840760008072,0.007698213240081289,1500,0.9504464295460116
283,7.7579985456628116,0.039597172524823976,0.007167904436905099,0.005733956408951156,0.0004912072653963742,0.014640062576722306,0.011163659114990203,0.006624236730699542,1500,0.9716621937187974
284,2.718884738578169,0.5638245672034203,0.004369518703766388,-0.0017305943006546056,-0.001261547538527399,0.009240241501582685,-0.003962392695359119,0.005867198741925991,1500,0.9000131341494138
285,5.773912975075326,0.9302326378917747,-0.007942713059028892,0.00305286260798329,-0.001756879290696341,0.006653510568055425,-0.016433211470146626,0.010291479343193258,1500,0.9142263622895888
286,2.5127656439026023,2.677640394286221,-0.001385711933599593,0.0019712944765372855,0.001306737418881419,0.004839961788529179,-0.003668796702653794,0.003696015936469705,1500,0.9098903103539737
287,1.2869646343398433,2.511456481979011,0.008253176850912328,-0.0007191765329509696,-0.0013237008269794813,0.016888777747826156,-0.0018207771119034388,0.008934438189919462,1500,0.9755815409685934
288,8.575677499430505,0.06475868530873286,0.001979824859639777,0.002030777340310461,0.0018442666709135825,0.007699487447427742,0.0003217169524727336,0.0037718878931318066,1500,0.9687458881049514
289,3.0748037284628515,3.3669865136807644,0.01903863886954989,0.009314531491223795,0.002257473937670377,0.03907431855591864,0.01763202216562873,0.016946469583469556,1500,0.9268686607158871
290,7.018110598973792,4.037307047329782,-0.004323827536594502,-0.000964481765597294,0.00011546625453962131,-0.0019210353553816375,-0.008655583249001954,0.003936426576676099,1500,0.9693202938304435
291,5.842569029482995,4.439483839644504,-0.0030477009414202633,-0.0012620037796377877,0.002759039715109669,0.0014901155306228375,-0.01010952497273894,0.005465512319035914,1500,0.9358078346923735
292,6.187789278618855,1.2067420646563554,0.009674518382878526,-0.005228426709131894,-0.004382109914634109,0.02173508590797598,-0.012842902560482719,0.01513683996137409,1500,0.9189438629052108
293,7.931108840271197,2.269940419202105,0.007218480231291105,0.0021231134944557986,-0.001079270687489649,0.014875314268956979,0.00380787318253683,0.006692001989090214,1500,0.9175710869556429
294,3.611487278696531,4.946798820899726,0.004802424828287169,-0.0006443902764302948,0.0015903601736582688,0.010465552028076164,-0.002149482924362416,0.005844732275153218,1500,0.9165543612020027
295,5.886441765484883,2.809075197455399,0.015819688058756894,0.0025909776342334435,0.0004955403487535867,0.03167644951622772,0.005144881869752951,0.014721546051567167,1500,0.9345835126736737
296,0.44281785726044576,4.845504989764228,0.002208314605391604,0.005549974664497327,0.0009709380082654997,0.011623205105221024,0.003893373434556838,0.005123567498283692,1500,0.9577502269203212
297,4.392356473220681,4.6262129550107,0.00038411834302891595,0.0014490861710971226,-0.00019054881280601248,0.0029643065763058562,0.0007021024519462207,0.001341530321667609,1500,0.9144445758146686
298,5.140263031996702,0.3832773689570085,0.0035227940951054228,-0.0021494351596764803,0.0029240609909377572,0.00952042683950948,-0.0067737089686515945,0.007088904377028588,1500,0.9339278859086019
299,8.122401886865797,4.909081052956226,0.004797603999078874,0.0016196378100638159,0.0015337769505148703,0.010834181477538181,0.0020003021407471984,0.004992721215423158,1500,0.9701347397727811
300,0.4503066591868443,2.5843635517240267,-0.0011628059840446767,0.008049077791750823,-0.001303986771038626,0.016460211889769504,-0.0026876682743572113,0.008977774299547,1500,0.9330988850469928
301,6.120418232359546,2.417423681678415,-0.00728596320181913,-0.005178009514714036,-0.000591365894539987,-0.010046882889513848,-0.014881062543552485,0.006574146058122758,1500,0.9451849846754862
302,7.105750500018918,0.48767582590163117,-0.000424207081913579,0.00286009246027066,-0.0012443331961716402,0.006556575113725484,-0.0016848043570113218,0.003770735646462285,1500,0.9882273398631481
303,0.4690167762935993,4.175512661861221,0.013562759585995648,0.003634545234362431,-0.0014408106040557681,0.02753525340791712,0.006859356232799039,0.012413368157770005,1500,0.9113978863088155
304,3.1651629496631517,1.2711583728198672,0.0057607812856972345,-0.0037714188218688693,0.0008758695436000693,0.011681185239772424,-0.007702460312115693,0.008452098100078662,1500,0.9426570122225657
305,5.4075582002113585,2.9766548067095893,-0.00546066363041849,0.0036952150367257114,0.0015653733169297848,0.00791089827136375,-0.011441795458749307,0.008426325929722273,1500,0.9194872014463156
306,6.010756745030724,0.9901079460178208,-0.001271863649260344,0.0017389693123971773,-0.001055692616982493,0.004144477377990906,-0.0032102660517172397,0.003193249750965341,1500,0.9419551246249438
307,7.664304310120259,0.49369089773780905,-0.0075349229730606124,0.0082989273610753,-0.0035078126077569016,0.01808248623742542,-0.016554477461396044,0.015003109206178004,1500,0.9247466222192904
308,4.336325923730203,1.9935402246090557,-0.0038032500875520734,0.00539726125179172,0.0011849754122380523,0.01109485722213516,-0.007906834893655866,0.00826648503051942,1500,0.9425648410521734
309,1.2235658208378164,4.708415945752348,0.0021778715900291,0.0026285436923607196,0.00016192511978055453,0.005361378633867905,0.004251451930911734,0.002450794811445961,1500,0.9354273512972641
310,6.689198350395872,3.319704290405732,0.011388356163651896,0.005204002719734719,-0.002561267728530238,0.024622713609557312,0.008562004157215919,0.01082550419610439,1500,0.9097929175457314
311,4.142709005616658,3.0982171003699683,0.0020007721262928044,0.009160900370953774,5.069799516218587e-05,0.018322518650240347,0.00400082634425281,0.008342902459820677,1500,0.9197006661861414
312,8.458064956486776,2.6268464636677824,-0.003823086860449608,0.0027402133326156573,0.0008476874295481444,0.005695858310581426,-0.007861605366249327,0.005895469258013362,1500,0.9813464566905048
313,0.17368697702345837,2.9118598496061123,-0.002725338450155143,-0.001291006921361779,-0.00037304893299578844,-0.0023995680336846856,-0.005633122709349159,0.0024481083015100193,1500,0.9559643468032929
314,7.321590516852251,2.1751618845829404,-0.004919480887481302,0.0030164323287080862,-0.0011911411589738685,0.0063827216297666425,-0.010188818747313075,0.007238500477808514,1500,0.9316615544261969
315,2.5118690182740124,0.10971873353825268,0.004432059000215118,-0.0006381735638213738,-0.0019018436392385304,0.010132283906501496,-0.0025445130337140073,0.005807741648052051,1500,0.9455303612813787
316,6.909675270194437,2.5541919395879304,0.004061473468232834,-0.0008932669846042158,-0.0003385042512210144,0.00816898576963582,-0.001832572802378584,0.004611423661001624,1500,0.9659757744883198
317,4.901714956734495,1.7032198884367278,0.006073234957380155,0.002144006832155522,0.0014185954674709352,0.013063733929359346,0.0033707496497120074,0.005873425763807042,1500,0.9631483004226188
318,9.946395980364569,0.1815456146658756,0.004851463191928963,0.0020245723042598912,0.0028565409497427877,0.013250250497349087,0.0005018204950286214,0.0065033013690720485,1500,0.9114833447353623
319,2.68712557082777,4.128252851814603,0.00038072156361216593,-0.00383234375044246,0.0001690840433289883,0.0007749931251331832,-0.007678237498793771,0.004046805119677482,1500,0.9368922281840685
320,5.2482036407596775,4.751055003210655,-0.0029954522166604812,0.002539376192580582,0.0005188269005395333,0.00517518057908034,-0.006087332627240138,0.004882139851838738,1500,0.9856791688036475
321,4.381928243120463,2.5230409489828984,-0.002149445042857569,0.010755255251901012,-0.0004932247759694765,0.021548158234655442,-0.004336537816568554,0.012005968167980713,1500,0.9183596758495107
322,5.392348672487618,3.9506775970133514,0.002593544610565771,0.006880701308422439,0.005220031437351123,0.020760282662669022,-0.0018117908246926048,0.010861459522925603,1500,0.9264714314339195
323,8.774924212783727,4.746448779671283,-0.002802172123739995,-0.004572880057372814,-0.0010225080085332426,-0.004669964918881019,-0.010080139443344599,0.0043687494195422455,1500,0.965998791909304
324,6.117363438706793,3.334160406334002,0.003906404726701378,0.004515881997678725,-0.0014216283492770937,0.011330133212369323,0.005514440236390881,0.0049066696256423025,1500,0.93658355754658
325,4.352902564921335,2.334931441895299,0.005224818320591599,-0.0010847726735765503,-0.0026379871830117855,0.012364815797276127,-0.004084724503246028,0.0074175553593020995,1500,0.9474990814287434
326,0.03338055098155657,4.777299885387455,0.009414132789296705,-0.0015644503440914556,-0.0012274852956278579,0.019099401029269714,-0.003400036138859216,0.010503404437996518,1500,0.9127683327102906
327,6.932674814892117,4.872726882379206,0.0006692510200827493,-0.00041626761020223694,-0.0010313681194435331,0.0025839127283957164,-0.0020779459086346917,0.0020226032155007583,1500,0.9195715018190835
328,4.99469110281553,1.679517966269151,0.008502922988000722,0.009265803060990303,0.002434533559292982,0.022697194432886737,0.012840257665095313,0.009856432255604345,1500,0.9270720470855568
329,1.9521334660980871,2.991547177180618,0.002327108528694468,0.0007501222979672951,0.0024335542645656607,0.008193443391269097,-0.002038981737945571,0.004690315623156274,1500,0.9037040402815166
330,6.421853103911614,4.347993045256708,0.00484036537032973,0.007674094628028848,-0.0007532118632001795,0.015723717537011708,0.00930520245970545,0.006846709262461836,1500,0.9524887819580217
331,6.19294761871029,3.943657167826482,0.00045837726396029204,0.000673679680383078,0.001446482786235013,0.004033023151318956,-0.0017689092626322156,0.002575284825377525,1500,0.9429343163214339
332,1.366670159086666,4.548330428625625,0.0031892309485432,5.092757783850012e-05,0.002228786965515476,0.008691664134668573,-0.0022113470819051717,0.004991376750647903,1500,0.9286035148904482
333,1.735524108276607,0.3103010793138272,0.0044716065001241066,0.004107766097259678,0.001496904716179188,0.011595209919925326,0.005563535274842244,0.005022237012349263,1500,0.9028987458168463
334,0.8665046299992185,4.131411749712845,0.006375251582367027,-0.000555953813480267,0.0031407202008935245,0.015173339770108762,-0.0035347442323352416,0.008607533499859966,1500,0.9013557173599027
335,3.7372211988526125,2.0136162587675575,0.001214863376368668,-0.003415081969408368,0.0009884250640391145,0.0028340966864958744,-0.007234533872575275,0.004496497327321947,1500,0.962565758468945
336,4.824888385866409,3.967754108106094,0.010900617574238103,0.006088001254804725,-0.0010006654128753053,0.022200777778286038,0.011776459879799618,0.009619160208342472,1500,0.900553700482762
337,3.2988716353398226,1.5660035277874536,-0.0023989602454118873,0.0077732851458100355,0.0016715591093594546,0.016081846356064997,-0.005333196555268701,0.009654486202094565,1500,0.955859877938753
338,3.8380271527124776,1.4604500973159862,0.014475377638601872,0.00415574287952358,-0.0033536574073904403,0.030938960847986575,0.006323280188264332,0.014155983297858393,1500,0.9370833691822263
339,3.1220346134209978,4.047300780311677,-0.0030596429794656132,0.0019493251575314753,0.0024237213223944126,0.005860152893302342,-0.008080788537170617,0.006062078679001384,1500,0.9257468357954203
340,4.8813224094897745,4.627838569248286,0.009222582140715738,0.0046637387392148046,0.0005397172392158313,0.01857121489715608,0.009201426862705005,0.00804168209142686,1500,0.9693441990897964
341,4.759991926646723,3.7175134829007095,0.0011720214068570915,0.0005978116340889769,0.003308256726447865,0.008411215964365903,-0.004871549882473765,0.005819282825213563,1500,0.9362808663639538
342,5.108594823188838,2.449306801621971,0.004134105388466827,0.0010489042547443663,-0.0006192104975993024,0.008507487436319619,0.0018585318501027682,0.0038736302983194398,1500,0.9060301313844854
343,1.6162937658923415,3.275862792457389,-0.008213064971356068,0.0017448110738241067,0.0034508605892657716,0.00564756429842014,-0.01858407209348406,0.010979725180475026,1500,0.9381639466696351
344,9.690917539291396,3.707940449482897,-0.0021511057203493084,-2.6935683536675244e-05,-0.0038508019422266,0.005811126308605551,-0.010167209116377519,0.0070040036152902085,1500,0.9406373858804308
345,6.006648658833998,0.4703007794537889,0.006381681770779816,0.007629832433360367,-0.003614420076536012,0.02134731750270038,0.006675710905579988,0.009457332610180341,1500,0.952693336978053
346,0.7228635112169013,4.124349325026903,0.001581639395222501,0.0007811597234376965,-0.0013240702201302273,0.0051292798245903045,-0.00040368158726990927,0.0026712855596132,1500,0.9772878012627988
347,6.753256109547813,3.7661423784087384,0.00032250803768595245,0.005585327814891515,0.0016907284095235729,0.01216335519364152,-0.0003476834884865859,0.006170435380511635,1500,0.9099030380924573
348,4.2158793355106985,2.0855759370671234,0.00797149136107049,0.0015263086100892117,0.0009126541454762109,0.01619646633474031,0.0027991336075790943,0.007497076054100358,1500,0.9610561522006296
349,3.8536843510871432,1.1432322359782425,-0.0023513626626202903,-0.0010346575243244949,-0.0005545288049846467,-0.0016644740204289547,-0.005107566353460616,0.0022558976216095032,1500,0.9701548135330019
350,8.437126205426225,3.3511593768996306,0.018484451188524754,0.0006804290335973538,0.00047718844364280617,0.03699446350766557,0.0013352969365786477,0.01817260819431734,1500,0.9656273020038542
351,8.002966971892043,1.2108381213235981,0.004740984622795831,-0.0028695926215286708,0.0009418004475153267,0.009711598524286193,-0.005968814521751874,0.006853988309611735,1500,0.9763364388467513
352,1.777852145447013,4.834000008189411,0.00540453624375579,0.005268175331910634,0.001608685782171699,0.013892971515690633,0.007452451635642214,0.006021150110679401,1500,0.9865008719352094
353,7.889018113800176,0.908867812760838,-0.002459075355393762,0.005742743119707201,0.0036883585054616583,0.014314795546990645,-0.0077474600183637665,0.009693294260204448,1500,0.9682344797756157
354,4.393719355830251,0.5448788682109534,-0.00477629259571631,0.008208836464640993,-0.001352198800804998,0.016696304387786957,-0.009831216649937594,0.01161426264036251,1500,0.9445148546903008
355,9.977251210159787,4.302129701008313,0.009213177939282235,-0.0015202593756272619,0.0009408073657387802,0.018590035181862058,-0.0032041980545521095,0.0101909573617919,1500,0.9668123065690334
356,2.628272446065767,4.953742992105119,0.0025262110109318366,-0.0038823172691870803,0.0014547927146943479,0.005681998748633679,-0.008394211265144166,0.006132776501056919,1500,0.9454517990011942
357,4.958038750899588,4.957311233432277,0.003169360454138903,0.006079499580791146,-6.402009259882943e-05,0.01216181455319801,0.006335905516662089,0.005267763377900992,1500,0.9139873405670983
358,3.2098289992032623,1.0827266977115935,0.0008006350372763611,0.010128024169686698,0.00399699939630133,0.02321296646148658,-0.0013556480475604617,0.011959809846236647,1500,0.9585516016643629
359,7.99129019411961,0.9321431742894654,0.001266246881855587,0.0031098987058745787,0.004221074566663972,0.013017264383207883,-0.004264973207747553,0.007796753367871865,1500,0.9458855942128463
360,1.0490338329032256,3.707650544820156,-0.0004475727785636231,-0.0006900538212351957,-0.0009891799422380553,0.0008555379414670102,-0.0031307911410646478,0.001817436996586683,1500,0.9315066187947207
361,6.136253816357867,1.4550528977572412,0.012319854280692854,0.006002495425984302,-0.0010579926463163676,0.02498466286786994,0.011660036545484372,0.010826677107349006,1500,0.9334604500773387
362,7.984070540523144,2.802455766167988,0.00014102950045349633,0.006719711378716807,-0.001345548788271469,0.013968557802942703,-0.0002470760446020969,0.007046860110657699,1500,0.9158318575207496
363,4.996114477411164,4.115829662374049,-0.00014961677787809179,0.005122234560637125,0.0009589078069203128,0.01058246923035509,-0.000637233664837024,0.005457522959312634,1500,0.912715174984977
364,5.160550813185435,2.9630069165783612,0.004944787173291365,0.0028303587133385742,0.004056315719954008,0.016158796439464447,-0.00060850466620457,0.008235740454484126,1500,0.9318524190818326
365,4.929104635502615,4.5006325122758035,0.00303490950546274,0.004402394716360643,-0.0021733152733766025,0.011993971086099568,0.0028806373575471994,0.005422248906679072,1500,0.985306776512169
366,8.495256378154664,4.730808038814847,0.0055826828641159605,0.0016298430567511445,0.0009143182551601868,0.01156785071123172,0.0028572011305024883,0.005218407138387001,1500,0.9260919521859128
367,6.888953602912286,1.546515849608761,0.011676599373008585,0.0051521238037808715,-0.0045955694389190165,0.028100183389430718,0.00555726296414819,0.012887429628677666,1500,0.9267503435371373
368,4.429502744240911,2.7067354308561753,-0.0071430631739527566,-0.00321969022780775,-0.00283402600257077,-0.0034693022481269665,-0.017256204555394044,0.007904834983861044,1500,0.9581106713650562
369,6.4038659400908235,4.761877590203913,0.003436607119075176,0.002879341112243448,0.0052916692979044794,0.0169139481009124,-0.0042820516382751535,0.009706235183741764,1500,0.9084133229592622
370,9.101163496802325,2.011530571534381,0.0015722871425242794,-0.0019141219820375658,0.0033414161812757933,0.007195757413308228,-0.007879427092334801,0.006529983575149516,1500,0.9048102078003404
371,1.0496249552448833,0.8537275090174812,-0.0010087102845888507,-0.0019791037190326167,0.0014968921043061448,0.00015931282975336193,-0.006134940836996297,0.003108064286508573,1500,0.9687716511436104
372,8.1165726981454,3.5046064515198294,0.0035790530273147455,0.00750723286775061,-0.0030874782874077506,0.018404802517965377,0.003767769272165336,0.008420032535954313,1500,0.9320358980272725
373,0.2681541098016338,3.606284419898053,0.01993145241438401,0.005348971188945213,-0.0030305858817523405,0.041072401371708374,0.009488445834950072,0.018622966352562564,1500,0.9149898410822961
374,0.6197905711302398,4.259298596803857,0.0020709654578942513,2.3051368504981582e-05,-0.0005127597167575823,0.004384353532221402,-0.00019631987942293674,0.0022428683168741847,1500,0.9010823580515811
375,4.217463042451809,4.2043603843567965,-0.0035612448467746086,-0.004513456752018032,-0.00021472821715508373,-0.007030124966152549,-0.009119278231432732,0.004137457762138411,1500,0.9620426959813003
376,2.3141949052195643,3.1096854678112127,0.003592313111426027,0.005648824849624863,0.0022755233295876105,0.014235261129670135,0.004247014792431644,0.006328949942233593,1500,0.9108901162843077
377,2.0102101281407005,4.346376767791591,-0.0011180418488113287,-0.0018034428541808898,-0.0014521229698566504,6.254261198041736e-05,-0.005905512017964854,0.0029685151978441145,1500,0.9715288568024905
378,3.515948456745165,1.0063253230673608,-0.0034274201267583213,0.008426121313955176,0.0002477772353441376,0.016862596791935264,-0.006865194417541555,0.010574061073202638,1500,0.9176280086445985
379,0.11130325742187863,2.866809077947503,-0.005278172444648543,-0.0029954624785228463,-0.0011209860549610247,-0.005074071870015863,-0.011473197976326914,0.004979072354246194,1500,0.969263851252558
380,9.083188669527557,2.153807255710147,-0.0038802525912806926,-0.0026634548162186547,-0.00048560882490371505,-0.004986832156012128,-0.008100582658986567,0.003538774091441908,1500,0.9715049175062055
381,8.941880673758648,0.20649615757249384,-0.005986072878600073,0.005082602898884848,-0.0018248735896643049,0.010751410454682142,-0.01255835041411259,0.010103526263445628,1500,0.944213750293747
382,9.950569118911066,0.15568119862986785,-0.005118293184510564,-0.0005048033993727706,0.0003948488957370809,-0.0009425078816547435,-0.010303685286111926,0.004933126467818614,1500,0.9122008568554743
383,5.593249719516824,4.967776952184659,-0.0027777556181932716,2.544109604196037e-05,0.0016653971102860575,0.0016010866721444545,-0.007105715716447077,0.004013463002954319,1500,0.9756104076238042
384,9.86785394125899,2.2388836366382368,0.0029693285830829077,-0.0027417728645730464,0.004265022677822405,0.010492951644375338,-0.010037840207355615,0.008890821702032849,1500,0.959079077792608
385,4.395511275586438,1.4875472188261925,0.01557478919693536,0.018249590342448073,-0.001192169671849068,0.03740762321989736,0.030241135858869513,0.017194530795038358,1500,0.9769220520056324
386,4.522967251294729,1.2412728045660955,0.005872347418508384,0.000590821629601231,0.00034873111746966417,0.011790548162463867,0.0011357899337553629,0.005632838068607507,1500,0.9777139331693426
387,8.112699736404155,4.937987311205976,0.005208214424020379,-0.0023324859752425903,-0.0007513457778144851,0.010564697457871485,-0.004813240560315909,0.006812315087022911,1500,0.9350512193328352
388,6.38838488361435,1.6491376476547404,0.0021139578670425763,0.009116118518361683,0.003292573340772971,0.020842277517525723,0.0016178752532827953,0.010041138474235453,1500,0.976716407594506
389,4.951768468557512,3.1695225715019415,-0.003668644345954036,-0.003761546060190882,0.0016253311018156681,-0.0041782009395836435,-0.010682179872706192,0.0046619211689882855,1500,0.9679223238555539
390,8.32446821329587,0.5008255015747054,0.00419568335975729,-0.0008333344336652914,-0.0007921942341200198,0.008635043378158508,-0.0019103455259745108,0.004865935435642126,1500,0.9116171546103184
391,5.466279462496915,2.378981710364461,0.007877818136748635,-0.0012711077552008585,-0.0017039183983260473,0.01636971179550854,-0.0031562910324129875,0.009077406180906673,1500,0.9236044449355033
392,9.656729333605496,1.7050244937311654,0.00477827647073672,-0.002445640347963677,-0.0016970382967728737,0.0103141604211986,-0.005648888175652515,0.007009910514056837,1500,0.9492604272941995
393,6.4165612350722,3.885176571257783,0.006086749934460203,-0.00010415859501970042,-0.0005291053269805843,0.01226328861032882,-0.00029810593144781374,0.006207513064029353,1500,0.9776380325263839
394,4.142634183471473,3.123945327029305,0.0015175830808957878,-0.0044807660305879555,0.0033316437522362885,0.006002283710247971,-0.011928649609632306,0.007904416969088248,1500,0.9849555294345032
395,3.4705788067773415,2.6453253000991106,0.003025729209067431,-0.0017205505903184295,0.00029867651774970216,0.006088901288707894,-0.0034785440512098914,0.004193909243655478,1500,0.9754311722097604
396,8.894105674749966,1.8900426650715285,0.008106668032956265,0.006719195995012466,-0.003593154521944857,0.022144888302444602,0.007506839753492864,0.009753340365830036,1500,0.9061297225779358
397,8.091825115026447,1.0827718735002878,-0.004140130651747922,-0.002966123807404097,-0.002684519738877527,-0.0016103580823761234,-0.012602150835927913,0.005939559819359368,1500,0.9382457689310678
398,0.8480144627797148,0.553840239642292,0.009626709996695907,-0.006146863714332908,0.0012022897695807067,0.019435648687049924,-0.012475956122323925,0.013927241482801923,1500,0.9743200246143827
399,9.787157304309053,4.265518660828575,0.0035460684505317286,-0.001984870308870005,-0.0008847957500735498,0.007368326316383309,-0.0042459300330598615,0.005089340638787695,1500,0.9102438993924925
400,7.785695376739703,3.97281255686752,-0.0026020683352888487,-0.0029654880339658046,-0.0037587204568199917,0.001958663915021831,-0.013093776653531137,0.007087482966949417,1500,0.9345283235822918
401,2.5777821704708357,4.070959485874698,-0.004702968386624972,0.004709382491692498,-0.0020987971786495386,0.010312341886931357,-0.010299513676796303,0.008925195844850155,1500,0.9102249363315831
402,9.477482282577306,1.0566128807565107,0.00582204424610109,0.002223758873271403,0.0007002431368792696,0.011907023059664183,0.0041845831790808035,0.005231204596400876,1500,0.922071235462714
403,0.7430551774496796,1.3629251459762692,0.008136077210373526,0.011192392424255529,-0.002961296673286724,0.02599316577440037,0.01266377349485774,0.011256600978128627,1500,0.9794498551174978
404,9.148561391040218,1.4683447197675452,0.015299650516229689,-0.004278150335529803,-0.0014265146717594081,0.030806091726297537,-0.008763091364897765,0.01799835863427253,1500,0.9194552471130948
405,2.497782911703439,4.743065176865106,0.0026578364767263713,0.0007695921121934483,0.0011768517832264668,0.006444942012075316,0.00040991516576432355,0.0031250371401359256,1500,0.9411177198639418
406,8.233387574925622,4.068189756484292,0.004165128213546445,-0.0009630533963034117,0.0006812884461578709,0.008508190384310443,-0.0021040407498243764,0.004866155319357554,1500,0.9423583290110633
407,3.041494197100917,3.3975278966815137,0.012094550418627654,0.004562796838539046,-0.00044484360052726864,0.024241465881430023,0.009073228632903376,0.010606882006114383,1500,0.9368972444346074
408,5.871163222174738,1.285712512771452,0.007882003830380882,0.007482304457696295,0.0011152184742201825,0.017630275756840227,0.013098340819314127,0.007928836530026873,1500,0.9040481638537636
409,6.664295541279651,3.8420930230126586,0.0036453864388527437,-0.00029229438350775985,-0.0026296005776103065,0.009923063672472376,-0.0032168795617824085,0.005931627253148924,1500,0.9666333998696256
410,6.568110659378745,4.222118654008984,-0.001215446783992343,-0.0029867074796552573,0.0006063528127255521,-0.0020555244897925403,-0.0063487840375026595,0.002805448208998643,1500,0.9707624890914877
411,5.042842956903346,1.1775787619500433,0.006951333091958032,-0.00046010250103129696,-0.003286729789769684,0.016397781372751205,-0.003415320190897733,0.009172722057317336,1500,0.9732782259038886
412,2.1701454159172617,3.8320990356886266,0.0025948539148738783,0.0022985261782470026,0.0032514602441794096,0.011403048671889796,-0.0016162884856480344,0.006145578161409747,1500,0.963568945650989
413,8.61172838614843,2.28369784508959,-0.0010773938893212207,-0.003118616443423288,0.0020982924890224344,0.00047067103556496827,-0.008862691701053986,0.004553576827409392,1500,0.9408378176133108
414,7.304923864127223,4.90394976237093,0.006989096273992387,0.007733615369018955,-0.0014696355621943464,0.017754810491255633,0.011690612794767052,0.007815675089201106,1500,0.9245001259142899
415,9.602321334469572,0.019489036488650746,0.004660104569493869,-0.0007271876726031462,-0.0009431094500267675,0.009640870947220652,-0.0017750371534392068,0.005320010658821138,1500,0.9727341084092185
416,5.757846734948187,3.190372501729354,0.0012703212441756667,0.005084291764742031,0.0010376490967779315,0.010696644068678268,0.002012581949157129,0.004922926153845966,1500,0.9253047129568581
417,2.6212303879031706,3.6693240825268463,0.011153995426260426,-0.0030632660210958896,0.002403021986744233,0.0230983468622291,-0.0069168880519000255,0.013611995146931632,1500,0.9310886967877325
418,0.13489735243762513,4.264870928583892,-0.0006075390545655945,0.005106737738642067,0.0007188892193876202,0.01039158072433817,-0.0013931833561852255,0.005576811076322903,1500,0.9323061117092558
419,5.973378454094396,3.986811204026038,0.0018970993558015414,-0.0008257046536404636,0.00012820995088943697,0.003806246222785506,-0.0016634568184633503,0.0024282774309890985,1500,0.9717344060781301
420,3.3759777315804227,4.859169133161912,-0.00479439162234124,0.004203979310106338,0.003982369286451642,0.011426564843964196,-0.012607389468433998,0.010411193574901383,1500,0.9172108562661377
421,0.37190280215846916,2.044597034213169,0.0030723504955237958,-0.0024285402236782516,0.0010974566806402665,0.006566431597587299,-0.005278811053896211,0.005139231989571178,1500,0.9614686728605011
422,3.432310252844485,4.726225751318076,-0.008357990608185753,-0.002242953495199951,-0.0010119433523094958,-0.004159686750482681,-0.017042201456288725,0.007694956217258319,1500,0.9329901353137795
423,1.1313834125840039,4.1940587740606885,-0.008022092892302664,0.005949144986168308,-0.00036058484911273493,0.01191689031989459,-0.0160627861321633,0.012159809145222314,1500,0.9890782703483201
424,5.0230125830289465,1.6234885710351155,-0.0006619652820110027,0.0018987647816895142,-0.0019583206431356324,0.005916267142954216,-0.0034426681435971935,0.004099448904297926,1500,0.913141152589518
425,1.7537038048789688,4.169736400486618,0.015036727999580956,-0.0004131822976000568,0.0005028221554956047,0.030106150414081795,-0.0008590590101199974,0.015272370763174186,1500,0.9266376117131381
426,9.920243809002221,4.768851939714025,-0.004616944420065185,0.002839390815510068,0.003573035060456302,0.008550236735991158,-0.012105343945101392,0.008988179136675984,1500,0.9533605718957662
427,9.335722165164228,1.0456414066062603,-0.007205554020352686,0.001352791776231802,0.0004324059701845367,0.002749166752686768,-0.014454691240928536,0.00800366124477679,1500,0.9142368673516731
428,6.575715118452218,2.2482836030421227,-0.0012599935814222845,0.01187254239355217,0.001395551400146155,0.024038410273347105,-0.002813312649087336,0.012780722399548009,1500,0.9312472276417568
429,5.565245148997199,4.98815234637318,0.007937388062362867,0.0007088272979972787,0.0012672267349480774,0.016306211777800186,0.0009862189429201028,0.007918075451195678,1500,0.9852484241888272
430,9.94724405973366,2.7701822689594047,0.004551637245486866,0.0011441189116996983,0.002130898134701049,0.0111523199694209,0.00023919234495222742,0.005517334141437434,1500,0.9095348066236266
431,3.6758128810025257,1.544979051230373,0.019159237920600754,0.0113857432640675,0.0005559298850883249,0.03839758911603019,0.022692373253306322,0.01671815053723649,1500,0.9286607192901225
432,0.4570505577336026,3.6773296191337703,0.016558504506542573,0.003562608090276173,0.00021723003336840185,0.03312426910637114,0.007117956087266354,0.015100541461894691,1500,0.9254151305165409
433,9.546313371768871,4.620178864631495,0.005742439923029204,0.0036093133627500104,0.001973659525851835,0.013838573609584404,0.004864932961974024,0.006079678432540989,1500,0.9268912509477362
434,7.796440066667084,1.5907213510123663,0.010274887031377676,0.006724918194009889,-0.002284449236144988,0.022785746116580293,0.011213864334194839,0.009866923452756722,1500,0.9351192090484862
435,3.5769504354414696,4.137820730242953,-0.001009618550673021,0.009379178395034386,0.0016204693260195248,0.01925215077324499,-0.002513031084522265,0.010311909231134248,1500,0.9423787987692511
436,8.283662375219137,0.36009907463248336,-0.003278912082511811,0.0070671592827672115,0.0013976863627989198,0.014505303763065117,-0.006928809362554316,0.009472548772131387,1500,0.9139957731351667
437,2.690296648432623,4.439951890499294,0.0029839416627098565,0.0022574657283843764,-0.00021220762372379056,0.006082772701420295,0.0044000420807681715,0.0027201120471258837,1500,0.9502757390553475
438,9.200976462370518,0.22169338096622748,0.0034099399241089073,-0.0042710292861147985,-0.0014594110610290098,0.007355771996725912,-0.009077950720737695,0.007129023542099214,1500,0.9541730272884368
439,5.761546573681004,0.9375488944327731,0.0036884178867983624,0.0005929599727622532,0.0037137075009206423,0.012328014008110254,-0.0037652582889890233,0.007289980389167262,1500,0.9616000241575053
440,9.39647320512228,4.728261043206712,0.0002556555305757459,-0.003729046543410279,0.0009127267642261963,0.000909545354826743,-0.007856327380495808,0.0041741717363131805,1500,0.989504968888532
441,5.4112846611034975,3.686684781269059,0.003361602467609998,-0.00038518747528293405,-0.002464618456746118,0.009168006986757744,-0.003215177002103616,0.0055647659538170064,1500,0.9315165233827322
442,9.141718198595301,1.402860149259294,0.005309583576180481,0.005188759630027339,-0.0022952002179808706,0.015090333470618422,0.005906352941797215,0.006585482781099939,1500,0.9570020224958342
443,7.762569493074427,4.416697045230741,0.003179583404954103,-0.006320816519994142,-0.001997568186287657,0.007165013212766747,-0.013447479442846827,0.009062608421300635,1500,0.9786684236569763
444,2.1925375736463493,1.9268404067850335,0.0008592872825124898,0.00520216970908724,-0.0026114862889876356,0.012854105246980944,-0.0007311912637814845,0.006617429104739498,1500,0.9330294563524438
445,8.460089674097569,4.128473273365515,0.006233542420286717,-0.0034151405449380293,-0.0035728498971981638,0.014824987922808387,-0.009188184172111011,0.010493065742147653,1500,0.9519058127698607
446,8.863192912873114,3.3694290853490614,0.005616626428272558,0.013868392092713303,-0.0022811501126003358,0.028914028009034393,0.010056009032937322,0.012712047499717443,1500,0.9074195274626723
447,2.830267127561127,4.834802406774081,0.005446092682333103,-0.0020193675422062276,-0.0008864227404429198,0.011099799977718136,-0.0042463496974643865,0.006862409882392009,1500,0.9188890367824019
448,8.596192821295611,3.204987576103223,0.009522479781234612,0.0008513804409183692,0.0007323538966206815,0.019167797491045385,0.0015799229532605808,0.009214349868227441,1500,0.9659015389032203
449,9.328680310614738,4.103482211127232,-0.0031812301339200185,0.0011102058528466943,0.002812803124767331,0.005004558274682762,-0.009146606836829411,0.00621451420230807,1500,0.9287187360230309
450,0.9873340376584405,1.3182789017298764,0.007908545796280335,0.0008239350518862696,-0.002690907305856795,0.01762942627423491,-0.00016446457790170177,0.008856115620108369,1500,0.9789929651155126
451,0.9981103152641535,3.400431017545067,0.015907429219867687,0.00506011185461953,0.0029688649058180906,0.03333366129622238,0.008601420852752057,0.014986665462382972,1500,0.9727342518255144
452,4.972878945559357,2.793835428075248,0.008270058758722304,-0.0024491649328154948,-0.0015829769288940574,0.016997880019817432,-0.005356092368003815,0.010107643964706687,1500,0.9270817861915381
453,3.2096490171600656,1.3120782320010937,0.006224323112901229,0.007384867171700805,-0.003009371651831535,0.01973880148498041,0.007479579084223656,0.008630273179423675,1500,0.980290822212127
454,7.297697998705105,2.852384154627103,-0.0033207535034234263,0.0007145579296654497,0.003522020208521168,0.005511824120659116,-0.010724215268175068,0.007150157107461118,1500,0.9408670533269942
455,2.731141174533981,0.7983901065752103,0.0048121744915148555,0.004130930771846951,0.0018196266771348861,0.012645571736154066,0.005240638790569547,0.005502360986386251,1500,0.911014968566329
456,8.346077229888426,2.1464744211024263,0.0039763597477925966,0.004232421477882174,-0.002008111165194216,0.012233158123621477,0.004184404327728064,0.005384489703332435,1500,0.911753919550591
457,9.75727820347356,2.1981059949464883,0.00567235647108247,0.006589366842098717,-0.0033267695812200164,0.018978157739770535,0.005545288886591841,0.008451055153485789,1500,0.95602667934988
458,9.315813823260186,2.554532070710712,0.00028496376412714833,0.006424740473799187,0.0017312291012519365,0.013758496676969888,-0.0003390882011172179,0.006965568094322949,1500,0.9481608509225611
459,6.971967255970183,2.3689012596423167,0.001040931228416313,-0.0030369931408931895,0.0015581004082753883,0.0031362060745713473,-0.0071283298995251,0.004555348154397228,1500,0.9863825713968033
460,2.7312155761937396,3.4205397544631513,0.009259767608381125,0.0027069881078874364,-0.003794430768746667,0.02199320766186407,0.0019403037706730488,0.010545051662093154,1500,0.9701158097895737
461,8.47893135520124,1.5385619755947206,0.00787094866099004,0.014412066967317953,-0.001057905075685669,0.02915781608315933,0.015408215173456655,0.012632511917404736,1500,0.9594619975740575
462,6.475202150672158,3.6501577498161404,0.019071428940304953,0.010163272496202469,-9.467305828272044e-05,0.038144869963783606,0.020324532909231238,0.016529073458871783,1500,0.9622446235755066
463,5.736699358413854,3.467516445181404,0.014349593078580936,0.012953968738207144,0.0019738026875279237,0.03149060797089405,0.023116515662682108,0.014125142073382915,1500,0.912117301075081
464,8.208988696743905,3.2774848441579083,0.0045201379745775025,0.005933869994105981,0.001022216111353057,0.012939634919028031,0.007968381018338936,0.005652904267235894,1500,0.9049022745097403
465,5.858334905903949,3.4448019625120043,0.0008827019068841755,0.004161281506969891,-0.003949253874732603,0.01359591353882937,-0.003507946711121238,0.007823814531074584,1500,0.9859195233917128
466,7.179687831859849,4.906700748536484,-0.0013605531102066797,-0.0018358239682567312,-0.0006663950749734699,-0.0017813816818959102,-0.004611372475030911,0.0020139179690747055,1500,0.9842377203761967
467,8.332031100617801,1.4174565909167187,0.00946685595543018,0.010071732667474489,0.000409165219923652,0.020556203749342073,0.018520973496467263,0.009808963592191614,1500,0.9622400201966346
468,2.735975564907317,3.1985567478710535,-0.0005007071893874085,-0.0025438107843945286,-0.0037102475182201606,0.004652105889040415,-0.010741141836604289,0.006837089043408398,1500,0.9589288076541844
469,7.396441892759472,2.2189800396747272,0.015677737010522604,-0.0004420495732060576,-0.00046031541996894014,0.03138174208383634,-0.0009103672092032455,0.01592334303493471,1500,0.955150313427016
470,3.8632739862481094,0.5648733084437241,-0.008616379546379123,0.0018763114384177382,-0.0015432380373747898,0.0041971572560163956,-0.017677293471939165,0.010053571679846855,1500,0.9109280207821088
471,5.078431679148112,4.17394291046976,0.011969063475002359,-0.003387540178508389,0.0007035374695508799,0.024002455034079342,-0.006839408441091406,0.014027276544772264,1500,0.9447469526716887
472,8.226080299703268,3.469371974509629,0.0031244738245218458,0.007177006864359023,-0.0008770133897463736,0.014717319678489712,0.005885641699272026,0.006415204718670996,1500,0.9092316604215955
473,3.2191055764141385,0.967055027976727,0.004128794650502943,0.006217422561838739,-0.0008990331002441501,0.013102194101459108,0.007590240323224256,0.005697157985456507,1500,0.917408397578198
474,3.2732242902405106,2.6650645694974524,0.007011499421930965,-0.0024611621309005394,-0.0014605119300941023,0.014463142004444332,-0.005362467422383482,0.00888111284300826,1500,0.900660399061506
475,8.234245433033458,0.8536399918766213,0.0013246488911098488,-0.003617143054940107,-0.00187363665058912,0.0039093898105574815,-0.008494378138217998,0.005491940094049147,1500,0.9770171876908214
476,8.946618931334744,3.0988111250464296,0.008909443061333983,0.003232722150001526,0.0008724553307583817,0.0180810096714838,0.006203320751187215,0.00795678635795992,1500,0.9532740521623013
477,3.9342475766340823,2.6633019828118782,7.609155375598153e-05,0.0075896641250840354,0.001655686359888942,0.015876660749165848,-0.0005451493914858142,0.008078067472319343,1500,0.9462917356208624
478,3.030115315252514,1.4262784395201433,0.013845300092819979,0.010999696186192419,0.0070693988615082,0.039267307558616224,0.010422684999408571,0.017615923393633836,1500,0.9525197682123675
479,7.209657813142635,0.020950305938842173,7.241769979862223e-05,0.004524052807804139,0.001123988360334617,0.009583499129086511,-0.0003905581138809863,0.004892312963766634,1500,0.9221124828091347
480,7.5893003936528824,2.094368861581079,0.006471706362502873,-0.0049911244646122154,0.0031421117442009087,0.014552993895041033,-0.011591830099259718,0.01134521913655797,1500,0.9836052443612818
481,3.592726978171993,1.8539676116563253,0.01286842552824399,0.005647247816651031,-0.00017336725255045172,0.025745170724342258,0.01128617596544778,0.011176169474524348,1500,0.9558320997427308
482,6.925607058378386,0.4862193239604562,-0.0008804740245888765,-0.004910383325927875,0.0011093109913087162,-0.0011905907844608349,-0.010391123916572667,0.004924971733176484,1500,0.9141334992085727
483,5.492772894293459,3.488665479002327,0.0005515360783269257,0.016979657008782244,-0.0023637910219728967,0.034626022401492595,0.0004363637727257501,0.017204957853197526,1500,0.9087303716820062
484,0.5132414709782707,1.96939481318816,-0.003510825801464091,0.0067770238199357825,-0.0014397896354521689,0.013949447833483952,-0.00741705179654057,0.009394992407204846,1500,0.9716580669700801
485,8.612928840294474,1.9777008198248742,0.006449153867969986,0.003953315007390486,-0.001863758340690162,0.014888401579709408,0.005916536171011535,0.006491959168592433,1500,0.9482613190993243
486,0.7151665917852335,3.639199010556421,0.00833830778923335,-0.00047670339048328826,-0.0015174398032140322,0.01718442137239286,-0.0014612125748927375,0.008979832580490758,1500,0.9308957460944991
487,0.19030483152519762,4.719430836173652,-0.00409564923251856,0.00946096640326254,0.0007043284924710051,0.018994922520772662,-0.008264288179284703,0.012104596795590422,1500,0.967978722682084
488,9.787022278719983,0.9664175653141,0.006435870691792393,-0.004672165317267623,-0.000821532053033925,0.012992602187445555,-0.009465191438396012,0.009764412777451022,1500,0.9897740177674738
489,6.486303428004625,0.9849668011733587,-0.0025166217086974333,0.006478232480226348,-0.0007562446829064206,0.013082741510735355,-0.005159519967677526,0.008143700599085524,1500,0.9220982221436959
490,9.052076393957861,2.222456017959282,0.001515710208979443,-0.00017059352705809435,-0.0038834263798467636,0.009292922799393838,-0.0066026894355511396,0.0069157827671707285,1500,0.9186201091032509
491,6.327356720667413,2.7128796731821314,-0.002563127485730926,0.0009000206885854098,0.0002480614011019118,0.0018353976136187668,-0.0051616112079098,0.0031418355922582524,1500,0.9241632767809651
492,0.26455820650913897,3.346752112981242,0.013373329179013856,0.004209920597404519,-0.0016539529672725405,0.02732544144489371,0.007841058107943043,0.012185047888866169,1500,0.9314649910537043
493,8.987292300593996,3.172495492049745,-0.0013809784245236685,0.005497707193817623,0.00039920523162315357,0.011041595201492952,-0.0028081376629050447,0.006340520110198413,1500,0.9029360378731692
494,0.3721962978970006,3.3812808686122837,0.010310399126345782,0.009920154025212586,-0.0003892055492066029,0.02110130861498729,0.019359797688129447,0.010143346662336133,1500,0.9085466311932615
495,4.122349678969968,2.4716858299314737,-0.0011643029082159984,0.004518906042315873,-0.0006732447734459083,0.009195142327983817,-0.002485936059784068,0.005328908340673449,1500,0.9514745779354291
496,5.854240386027492,2.731839643576116,0.004036491820745784,-0.000995085381457329,-0.0003579326918208352,0.008123653224837789,-0.002040840346260879,0.00465665787600466,1500,0.9573811101573606
497,5.766075272664589,4.609278974269988,-0.0029069035476601765,-0.0018214606721434507,0.007922618113848295,0.01115400642652995,-0.020610734866137202,0.013956239825232964,1500,0.9193421060711582
498,3.348215873075601,1.3049894339464236,0.014844137724552689,0.004197988834152267,0.00024157875539972714,0.02969923345395641,0.008385019663453504,0.013260131654778025,1500,0.9704895347720263
499,0.11198198284633754,1.6707223043701642,-0.0010968589221036938,0.005741565592695104,0.004004756346168929,0.015176389509213281,-0.005886976168030461,0.009411725802101914,1500,0.9183753495859228
500,3.6135554692939387,2.3459282319857055,0.0073189355241729025,0.006989832349438288,0.0015902758148409603,0.01750630091780209,0.01111123482942029,0.0076715951856013275,1500,0.9419115655683009
501,4.965011380378539,3.273787302114211,-0.0008663194351467285,-0.005071578323188715,-0.001470241243276155,-0.0008065587937788263,-0.01106923672289206,0.0053444024103723705,1500,0.9842928964173577
502,3.1443071801211584,4.663468029763378,0.0011786576310936867,0.002421917438224227,0.0012412477110080608,0.006376989748064096,0.0008241603905717303,0.0030037300242725506,1500,0.9198318926617163
503,3.4500240669198403,2.1070448309972685,-0.002109679407394262,0.003984529386884159,0.0026756958318931465,0.009985138110469083,-0.006235438151489289,0.007085996456887678,1500,0.9194736799966876
504,3.584454773601693,2.40813693409324,0.0004898656082499644,-0.003229681891801726,0.0005836075675431183,0.0011585711749642793,-0.0066382037420678035,0.003643448490021537,1500,0.9555697678106371
505,9.825498295069508,4.667873713052983,0.006097997633707001,0.006722940958742491,0.0005212051917738112,0.01403632888664898,0.011605548298250005,0.006496306394657346,1500,0.9161190308844386
506,8.121344648533363,2.572626351192415,0.003359910999242529,-0.005619994897132081,0.0013984367734972871,0.007145298154192197,-0.011665465949971301,0.00822331462766633,1500,0.9261656696013711
507,5.762595847951585,3.0356690796409076,0.01149104952727165,-0.002532164032538881,0.00213946354888911,0.023620390726193645,-0.00570261973672811,0.013464219586223677,1500,0.9792617841585932
508,3.485091723786884,2.028935095594865,0.002865659017231922,-0.004670694713264735,0.0006912686218567653,0.005857081294814161,-0.009467152686879787,0.0066966832127597,1500,0.9776623659450301
509,5.824197385702224,1.5480727570764201,0.014897837556738295,0.004351598402795521,0.0019490464896715456,0.03049302476239207,0.008005847156675561,0.013691198379465109,1500,0.9700030907075546
510,1.3565716527873417,2.01032742910936,0.006481053249187367,0.004350031516901297,0.00047563640942305913,0.013164788603200597,0.008497380928976731,0.005780374512266719,1500,0.9047081473344714
511,6.98277727586298,2.0064949218245283,0.0047143629416704575,-0.0031767723914320565,-0.003698137027056439,0.01235308345296282,-0.009277902352486017,0.009397989743647696,1500,0.9758995641564256
512,0.024621419988811732,2.4490348933972856,-0.0014376068221045781,0.0028526513075719075,-0.0014237433042541229,0.00656426722340448,-0.0037341782524698214,0.0045151366344363935,1500,0.9371909403930414
513,7.004414740364267,0.9260550574877752,0.004164231854247229,-0.0014206287610653103,-0.001964552649908344,0.009572112194700107,-0.00408490600833627,0.006070687102409982,1500,0.9787826873415427
514,5.624710825067531,4.708513313242303,0.00785435445584298,0.006394559636769797,0.0009565485071341957,0.016655351521634262,0.01184247666359129,0.007423011116084322,1500,0.9064175418519572
515,5.643409067500292,3.711712095745928,0.008967855515545374,-0.0005777871695326663,-0.0005707087896910674,0.01800371117075435,-0.001223574478728933,0.009322816526349264,1500,0.9611092378811662
516,1.617889564243984,0.875557900432366,0.0007971172933851757,-0.00554222571211772,0.002944997355371074,0.003908174624944518,-0.013398391462409608,0.007860565759019725,1500,0.9844218908204454
517,2.8338740437774455,4.0160331483115534,-0.001295905379578665,-0.0012864934108407938,0.00025194863366010604,-0.00207841363074876,-0.0030863839500901574,0.0013629734623484772,1500,0.9789136226208208
518,7.746872340578771,2.4412369488040926,0.001349839621851745,-0.0008763026664329653,-0.0015702714217861187,0.00432304586435798,-0.0033759719535204212,0.003342169720711163,1500,0.9100028313650638
519,3.147823370013796,1.9695607206780608,0.012543738024255947,-0.0019004846794966946,-0.0017430915580924832,0.025502225120598132,-0.004215718431079625,0.013925210666864776,1500,0.9499306476123912
520,9.36297685147197,2.3692201459590647,0.0048965403316950495,0.0004317311410414169,0.0015981318643978168,0.010819229761865943,-0.0001626868163930109,0.005450741823047034,1500,0.9655257830790854
521,2.5648414113230675,1.5720839368334294,0.003664296069975214,0.000774257025245988,0.00041669289276844703,0.007446352547909889,0.0014307536425325154,0.0034220361709763098,1500,0.962914055104267
522,0.8927259800462817,0.9051486363774147,0.010924334521601908,0.0071081667534002345,0.0006300027315541274,0.022051300872160975,0.01401370167784331,0.009664669586169591,1500,0.9484261974154891
523,6.923153847131385,2.126354666138055,0.0027741678503635397,0.0031954549670620896,-0.002678679414765039,0.01134352051491114,0.0005957251199401195,0.00552884992497194,1500,0.9499034081992835
524,1.4217505922835638,3.5775670196691625,0.013757098345480789,0.007533587985635329,-0.0010985315206734957,0.027890623240417346,0.014690749421814888,0.012082744163374525,1500,0.9241901453161983
525,2.567186640055107,2.70031715376121,0.007167520626509205,0.001994104810097074,0.002778880000690227,0.016754577921802512,0.0015686729514100446,0.008013959117814586,1500,0.9832188442332808
526,8.548921970661024,1.9706972306935533,-0.0038151451579248423,-0.00043446698159648714,0.001487768233689597,0.0002540310746560852,-0.008753255353698744,0.004441497774911799,1500,0.9377417664385442
527,5.126858039672393,0.9822510866274653,0.0015074239969269242,-0.000771307033248754,0.0018033491312592835,0.005002366776422375,-0.0035301328490660337,0.0037129681717742555,1500,0.9130555809038176
528,4.947102344413793,2.1434939338164667,0.0003703596277603513,0.005888078273656457,-0.0012563649490146447,0.012321360513137977,0.00019551528969564014,0.006112387764880635,1500,0.9540597214176174
529,2.3069323092730265,1.2703543714342869,0.0047211939222131325,0.002721269836888855,-0.0013346136405391717,0.01077780041753889,0.004107127100665086,0.004710723900869313,1500,0.9680721255857141
530,9.67869928768261,2.0592823577656794,0.0011232062818019588,0.0070882513527688274,-0.001902434998817544,0.015286681899395879,0.0011362333697456945,0.00737571067214984,1500,0.9619222728850051
531,8.678681775100422,4.31050081455274,0.01402190785657585,-0.0007704596225008868,0.0006284535700757088,0.02809711936053505,-0.0015942228923851234,0.014463598565756384,1500,0.9304847265326173
532,4.882962125549419,3.722858671320549,-0.0009670267868129015,-0.009163086351682996,-0.0021229237572278985,-0.0008995869613536104,-0.019360639315638188,0.009463443251790733,1500,0.9738879544106952
533,9.43987485372094,2.394121030169174,-0.0021020958824359724,-0.003440097269169158,-0.001719087210315893,-0.0018528448273632129,-0.009231541475847049,0.004229355095710773,1500,0.949641024204906
534,3.4002943732872093,4.8740746495044,0.0016220596914465488,-0.00408049652571502,-0.0008333895612143091,0.0034827162569127327,-0.008399589925449676,0.005289986101745541,1500,0.9661297711736333
535,3.9810155893148447,0.8732806543478111,0.006836341104787959,0.00018513972455616958,-0.002979521023763201,0.01595169146093535,-0.0019087298022470948,0.008493338254340897,1500,0.9051570323498891
536,9.95835663226948,1.74447046022655,0.007044424224234385,-0.00160957452452285,0.0021257265508643026,0.015076765889955546,-0.004207066490532475,0.008781190618554003,1500,0.9328604636208812
537,2.889759301255377,2.2277520173801784,0.0013142168912256278,-0.0014405023208424695,0.005149972325366274,0.010535672071024918,-0.010788242930258603,0.009233741945254465,1500,0.9140158659732054
538,1.0681398215585591,1.0984227486652354,0.00919889802642631,0.0003802814663863459,0.0015480150600139554,0.018925483603910855,0.00023287538171445563,0.009405063547989933,1500,0.929427166587559
539,3.416400162142945,2.9733107577346747,0.003985929595030441,0.0029749268701604005,-0.003960857334132152,0.01494682477185776,-0.0010251118414760776,0.007742425203291515,1500,0.9305491843593836
540,6.315856460111463,2.473903633285462,-0.00167195742673868,-0.001644576965336278,0.00190735904688232,0.0004982819632116157,-0.007131350747361532,0.003696548114373118,1500,0.9700841486567979
541,3.187167715079715,2.1834200439770597,0.002147545266717721,-0.0003788239873125422,-0.0021550424066987517,0.006764656898124582,-0.0032272143393142242,0.004416064228569042,1500,0.9030133326696651
542,9.63845397243459,3.228711995000619,0.007132390926018206,0.009190843237945685,-0.0017806272880919588,0.02043659776044676,0.012209870567481022,0.008905156565190326,1500,0.9357525601426886
543,3.3985319567385694,2.2773366917666094,0.011109644140997191,-9.065633282918776e-05,6.256131525526552e-05,0.02221998715539865,-0.0001820115390626393,0.011155774866033948,1500,0.949195623757879
544,1.4158178840609859,3.775421948277549,-0.010316024925159506,-0.0066722682831779085,-0.00012293049227445768,-0.013336251301443633,-0.020640335115231195,0.009063861434311099,1500,0.9734831127819519
545,4.14251751568338,0.8956630738064303,-0.0030091346795655333,0.006967172050486585,-0.0015432880417643082,0.014400912831803177,-0.006484838089961073,0.009257794061007322,1500,0.920388901095122
546,2.483407593477829,1.8605842700937703,-0.004241829930453436,-0.001547603380111073,-0.0017559652933323217,-0.0013630902205950509,-0.01021577640053397,0.0048035163554378335,1500,0.9413294692893965
547,3.347981174061405,2.3585479229280777,-0.008173013070307098,-0.001478591764807591,2.917311677314531e-05,-0.002956929271766249,-0.016346280398463132,0.007543366599017536,1500,0.9343484140788755
548,2.1042801157778213,1.434158918166673,0.007400856297360272,0.008396300057986318,-0.0022859040358397674,0.02047608115970533,0.011118231550987848,0.008877318864524884,1500,0.9497491224379213
549,8.220076104282812,0.3916141798609629,0.0021052658491148967,0.0003437820143256492,0.0031327763731949913,0.00895750209759007,-0.00405940637070898,0.005767966820975121,1500,0.9374125522410728
550,9.776903025446545,3.9538883757700245,0.010192365891519275,0.0004265690567838812,0.0014415388516457012,0.020801416220593515,0.00043645367601279766,0.01029332980645629,1500,0.9451934950667868
551,9.293349256916507,0.7149271648281519,0.005932606373846176,-0.002645631578432596,-0.002544713738829341,0.013261363920380739,-0.006687414329553578,0.00879303017387171,1500,0.916995339976096
552,6.112679737198827,3.2239085288047855,0.004308001041934671,0.0003889514708803294,0.0003979682608866897,0.008696010462766954,0.0006978945628630471,0.0041844580404414656,1500,0.9758555760555727
553,3.445269134172496,1.1823344860113467,0.0049096377976606265,0.0071413674605943275,-0.00269504471050598,0.01788484458196993,0.006217165934539977,0.007863328994440876,1500,0.9359200684029217
554,6.541600199523209,4.462593300096383,0.0021649707620360953,0.004110726007573548,9.106824052809742e-05,0.008229958055433022,0.004321435483786265,0.003565171155214468,1500,0.9584473323955145
555,0.9846920281149552,3.793256329097585,0.0029476053339231806,0.0014923454250944349,0.0015552102036576999,0.007873971217967787,0.0010059303000674443,0.0037111538731224194,1500,0.9488464475155316
556,7.339376326360942,3.6193212682389486,0.01477023743086309,-0.0016171669380520763,0.003967453762519332,0.03136048050580449,-0.005054339520182461,0.0170845880952148,1500,0.9003296763141041
557,1.4062389119645713,4.368334896859835,-0.005038212605387211,0.0010066176073452392,-0.0014127496749543034,0.0026409921221908546,-0.010704182118274798,0.006120131021055188,1500,0.9870017534969364
558,8.742595310436066,0.12491634295689058,0.0035541370646492033,-0.0013989659440511925,-0.002784158818322835,0.009607646596396381,-0.005297304355200359,0.006543373264440676,1500,0.9722127951029491
559,9.248032314649112,1.9851248496549312,0.006574798946557687,-0.004315857442674145,0.0016073920983044796,0.013614170872728665,-0.009096287864961583,0.00989856705254877,1500,0.909101681134602
560,4.527445251299494,4.9837284174181695,-0.004235272823699557,0.00027815285906519446,-0.0018553538735996784,0.0018858555940143113,-0.009800095523283037,0.005433228518832179,1500,0.9582871082323932
561,2.503365692430134,2.570304254671028,0.004369436316704662,-7.38474339650858e-05,-0.0005970618682802406,0.008896534653685262,-0.0003053568882061108,0.0045265381311512445,1500,0.958969459680529
562,9.239139593078562,2.8767461427490697,0.007647002609614031,0.0026856506098041143,0.0019365647324606273,0.01662678902332793,0.004038517415508362,0.00751019572159956,1500,0.9249789144036831
563,7.983789052684123,2.7581483621479084,-6.528326068693966e-05,-0.004021476791686076,-0.0006931284735147492,0.00010527711085764335,-0.008278797215603675,0.0041659673084228814,1500,0.9548777710158007
564,8.586023363770114,3.49741742155551,-0.0034054218578716926,0.009484211688696535,-0.003249581241724872,0.02051422421816136,-0.008356644556511677,0.012865622640010786,1500,0.9473017753480332
565,6.3198645649714935,2.519174566721652,0.002921218046316421,-0.0021931148859593713,-0.0012091670470426063,0.0063853764552205435,-0.004929170134506444,0.004912849417864567,1500,0.9573938479546389
566,6.035955306119276,1.8443847529871977,0.013182497232162927,-0.0020874877034515126,-0.0003787214239794714,0.026383768785165684,-0.004193749727742854,0.014355641010136446,1500,0.9723845838046932
567,7.322757540433247,0.4405850710974446,0.004762081374806756,0.0008690397375970928,-0.0010737725419142346,0.010077211875773838,0.0011850303490338618,0.004770028674204489,1500,0.9015754215624185
568,6.152154290316391,2.6519141606847016,-0.002737454039991199,0.0034539352989410087,-0.0027260316388173188,0.008966226462868264,-0.007533263944968645,0.007153464775602675,1500,0.9705189620538992
569,0.7011763512574476,2.0449123890476066,-0.0019157694109584716,0.0017225052785771184,-0.0009378033276717218,0.0039000160977133214,-0.004286544362476028,0.003546201494244118,1500,0.9414066720851808
570,4.58779865251042,0.10509260688633726,0.0039014606857285493,-0.0022037009608446897,0.0012870321867687207,0.008323377139880258,-0.004927857690112539,0.005800405297760416,1500,0.901065752262481
571,0.6623048009076205,4.27241849860303,0.005755275887662012,-0.001866078591260555,-0.0008609618706434669,0.011702651427846824,-0.003924256835043908,0.007040526471843892,1500,0.9602213855478149
572,0.2691962569614126,3.079629080671701,0.001564079278200355,0.0074104537792361825,0.0005592895317018464,0.014926953903398876,0.0030221122114741997,0.006834401681591488,1500,0.9612209096499068
573,9.733691624625777,4.260454057930483,0.0073090125948294055,0.0027455442876508883,0.004318838477608668,0.019823625731317185,0.00028548803364339924,0.009841217310665612,1500,0.9734606244222482
574,0.19228881994563962,0.9638939449213207,-0.005014482229638964,0.0017454841646280085,0.0010747105564040131,0.003824460666228954,-0.010362456796250865,0.006356843136818315,1500,0.9761709291525058
575,7.095503545047653,3.444038731293994,0.006164337271176438,0.002910264228666931,0.0007575466086116817,0.01266409990809811,0.005485103091588629,0.005500042928231322,1500,0.9578325302348785
576,0.9180986563586024,4.983601269091521,0.002199306530748063,0.0033417922278651023,-0.0006072430029904786,0.007208506875074334,0.0038736906421519956,0.0031242809145956337,1500,0.962596738585394
577,6.7950189174498306,2.8336422215772004,0.009457279445926203,-0.003255251083434967,0.002919462145652739,0.020191362490302213,-0.007787305765319742,0.012505694341256673,1500,0.9554141805632289
578,9.865364084250146,1.2240397026702015,0.0018330872791847987,0.0030251446219184954,-0.0013416619421326335,0.007794424635961441,0.001922039166245147,0.003516607048477233,1500,0.9039224633825219
579,2.7945512424186756,4.984146039967381,-6.242250141618409e-06,0.007177439142719039,-0.00156008077017575,0.015003226411930696,-0.0006608326267758544,0.007672159475144128,1500,0.9372954195931116
580,9.111310222194545,1.0379231003535383,-0.0010642062005488773,0.005384811712234646,-0.0031780536306736658,0.013375434696002556,-0.0047342236726310195,0.008133840216328854,1500,0.9207098557162053
581,9.359440146105094,4.073046531414125,0.006682706105090079,0.0011758188183337741,0.002978481030774438,0.015970935452469512,-0.000253885605621805,0.008049689865879717,1500,0.9337576879761692
582,2.115505219395816,0.1152212107891637,0.008433193024401594,0.0004658352653010263,-0.0007067371687799625,0.016990795671705174,0.0008072609077000633,0.008300945768318347,1500,0.9354266555726363
583,3.4715387949347543,2.490312711041389,0.005103884620518447,0.005384910954313538,0.0009823680400616874,0.012473528217991983,0.008504062931671986,0.005518884026800383,1500,0.9136890983055322
584,9.530183903473551,3.5942148603445845,0.018938257980265633,0.0002744594979034367,0.0002385051979744864,0.037882610694469715,0.0005428242618684305,0.018807068159472314,1500,0.9717686880728228
585,5.503431940927089,3.174434861654161,0.0007934876807656752,-0.0025192121595880076,-0.0012846822558060227,0.0024666035410027777,-0.005918052498647442,0.0037317880317027244,1500,0.9455082055850474
586,3.3140947049295653,1.2043586323080864,-0.0017668956247563947,0.0030332000097328957,-0.0004570023415297808,0.006152644800962472,-0.00362003603100947,0.00427879932861149,1500,0.9685872579267262
587,1.093374700470171,2.681261543255913,0.010548339437061094,-0.006323924029539069,0.0014063362467890083,0.02132951409307485,-0.0128806832780308,0.014963279124767507,1500,0.9690610347884125
588,1.3186538044608431,2.4163324817043312,0.0002616761778206915,-0.002302061880526851,0.0013479145554239282,0.0016798625990492987,-0.005760634004461617,0.003379493900569685,1500,0.9436594290730649
589,7.059819718278683,0.05301679492277611,0.005083300129910708,0.0016615035074260187,0.0008742302316900849,0.010587433741529846,0.002902173533143607,0.0047378738496076595,1500,0.9554543038581923
590,0.9340577830980756,3.068613710033401,0.0031964158311349722,-0.00828526238863463,-0.0017339569589399518,0.006905125331918661,-0.017082818446917974,0.010694185854218245,1500,0.9809082020573334
591,8.06069774797724,0.42306809396895184,0.0034708354486278487,0.003741736996834946,-0.002452936412997295,0.012125919149457248,0.0022992257414683427,0.005577726436058168,1500,0.955337561527613
592,1.9196944269624039,0.7663473511449764,0.005277355836153547,0.0022410170948410227,-0.005161842547690346,0.01827931280168341,-0.0032425669396942717,0.010048873223292926,1500,0.9334704123595748
593,8.677983388283023,3.742343949955626,-0.004988199855130808,-0.0009495165135191817,0.0016561774010942474,-0.0007144360325592267,-0.011160996704740753,0.005410740431833505,1500,0.9253098764032139
594,1.9684141023116308,2.36875355360312,0.0028810637194128497,0.006005980295883556,0.002114831424030518,0.014145860556892926,0.0036282274736998844,0.006362880746649336,1500,0.9498753278154729
595,1.5547117907936059,0.9555386928781795,0.002232295403240648,0.002144076883756972,-2.276248800771889e-05,0.004475644793871869,0.004277099780123371,0.002189874396299025,1500,0.9199569650355568
596,6.318267524559708,0.26021841766369014,0.012943643777177759,-0.003434828486085003,-0.001212470823514774,0.026065828779942915,-0.007048198197757401,0.015106469270233343,1500,0.9663214619668042
597,0.27817576604183714,1.509579390996284,0.01337571291399361,0.011555491525454965,-0.002068293886455095,0.029450558852003938,0.02041185002689321,0.013065590760853785,1500,0.9584554649138594
598,2.377580737620879,3.720785237124215,0.0061230286471909475,0.0028163411091977238,-0.0016591191250142263,0.013623906826139703,0.00425483268663764,0.006036285992128173,1500,0.9223308179471154
599,4.4600214608573765,4.412276507635938,-0.004776100980692446,4.2859591360168425e-07,0.0032375798607273912,0.0032706266535705714,-0.01282197142312826,0.0073660680042063045,1500,0.9867119137302452
600,0.31763788526848025,4.14482052247639,-0.00683391817326047,0.004296952638651879,-0.0005381766998432234,0.008645825783863683,-0.013719756853080864,0.009767300793224406,1500,0.982790681031736
601,9.518674660935522,2.4086631477510068,0.004164468986883415,-0.003991936273365196,0.0007566147774211558,0.00846812253311872,-0.008123057106082281,0.007184709439191197,1500,0.9844041116626728
602,5.869325059222704,3.092677740432264,0.0022404109773150023,0.0018912027346921598,-7.057593771147838e-05,0.004508270384125356,0.0037549570398889695,0.0020914016000758355,1500,0.9367501153695864
603,0.3757887421969286,3.5835130282334386,0.020782802346326665,0.00467949968841332,0.0004697809379679887,0.04159299120200966,0.009331612867470307,0.018900570255560665,1500,0.9080295181066397
604,0.7283079012728466,1.3879495646725877,0.003769116904253923,0.007189501282661217,0.00019171772171212148,0.01440042759990224,0.00751680877392804,0.00623757702703075,1500,0.9428145410261577
605,3.9931977299355594,3.9270091747711544,0.0015304336032189322,-0.00306927997904993,-9.698217363922579e-05,0.00306495501073248,-0.006142647762394475,0.004060572921066053,1500,0.9057599913180159
606,3.292964997016057,0.33621322198924386,0.0007829770856200744,-0.005474013411548431,0.002480199230107117,0.003293666734658976,-0.01267573938651569,0.007301922190568002,1500,0.9861386500912148
607,6.984273614805564,0.5381951659213974,0.004819854312152011,-0.00021297620773934995,0.000657112057557294,0.009808470943793564,-0.0005947147349682413,0.005059472059143444,1500,0.9724539428270473
608,3.4600023267722113,0.5102675445062221,-0.0018940254003882748,0.001198463363793668,0.0011610118861449434,0.0031716438223778525,-0.0045627678955670655,0.0033671074386542963,1500,0.9532474346456279
609,8.906166421484311,1.147227735252473,-0.0009313837737845239,0.0009015414447716373,-0.0005320570520670374,0.0020895806310015173,-0.00214926528902729,0.0018355347732275165,1500,0.9651790455841663
610,1.4863601073670851,3.9998538577995206,-0.0008977794044237636,0.0016636942898971547,-0.002988846529689201,0.007269295683092332,-0.00573746591214555,0.0056450976742724755,1500,0.9578910025775773
611,5.83160297031669,0.36334054716698316,0.002658701687693307,0.0011845509457918044,-0.0016930818209158066,0.007536384721443933,0.00015012054552629005,0.003731228506206887,1500,0.9418613243878626
612,7.6493908618629884,3.6418032771734508,0.011966719207124634,0.009879845864344669,0.00026262976346179005,0.02399852648363022,0.019694603659308384,0.011081123805601029,1500,0.9369414766721272
613,6.535653389553469,0.44027820987919464,0.0005514996437603332,-0.00011398365120965804,-0.001598034468367366,0.0037021330702865615,-0.002827101085185211,0.002835691901303454,1500,0.9488259888975664
614,7.0675872001589735,4.711995147571681,0.012167232563843788,0.0008817357659350367,-0.002077915811532053,0.025075329976381188,0.0010226066831764621,0.012289992858380509,1500,0.9234095779154293
615,9.162161016056155,0.24841262416036347,0.008105172278826112,0.0017009184406637972,-0.00012411164100697747,0.016215153211099,0.0033970282278808182,0.007405870328039063,1500,0.982454892779917
616,0.39365417584363294,2.9705139053826497,0.002618458241112994,0.0018243835403145762,0.001864126625856387,0.008254721493505979,0.0006309620693491615,0.00397901130662076,1500,0.9214875613299883
617,0.15534689212899022,1.7511661412135955,-0.00012720573679131549,0.0016400629530490334,0.003676687513055371,0.009075618808210699,-0.006049904375695262,0.006593080191514065,1500,0.9433908039361532
618,8.685631435324071,0.4231700167396263,0.001759092669411494,0.002106902586879243,-0.0009994263955870964,0.005894882690199721,0.0018371078223817527,0.0026122342917550404,1500,0.9210615533655693
619,7.032743714519869,2.883564146514235,-0.0007953325542070571,0.006169912320574288,-5.021709293324486e-05,0.012340548700503993,-0.0015913891677695313,0.006604170599687735,1500,0.9875837559805687
620,2.2185181257516295,4.957512603759389,-0.0053909754552521555,0.005837101784516044,-0.001904952200423016,0.012302984684063722,-0.011410732025535945,0.010270763102601266,1500,0.9090399000951834
621,9.112370005937224,1.399534279019029,0.013828185079187885,0.008352292410433105,-0.001440916518321288,0.028368398155790436,0.015992556823451545,0.012317108712883922,1500,0.9750903060057745
622,6.136895776394711,2.169251616274608,0.004368735210033956,-0.00351187246020417,0.0024015187605558814,0.010085792627200371,-0.008372067127540798,0.008003962359611583,1500,0.9155722718206065
623,0.35486050773673394,3.660199448657945,0.00940762167474811,0.0017093005700451244,0.0009781121648135959,0.019059904144491907,0.0031739403450945607,0.008843908137435633,1500,0.949603432425842
624,2.3268676079103545,2.097209400873858,0.0018028957288530117,-0.0007956323549127807,0.0005663241561149495,0.003841913334926024,-0.001827386587045562,0.0025060078166494085,1500,0.9478748814630051
625,6.544939904541527,4.5817207749720295,0.00013703249986554873,-0.0037034106371414254,0.0032218964335295032,0.003935053059645447,-0.0110678093341972,0.0067367177286953486,1500,0.987839658048275
626,9.22313882333675,2.7512600227546082,0.0025737275880811927,-0.002187957173972926,-0.001759194993142374,0.006306303318228231,-0.0055347624900116965,0.005130958692552075,1500,0.9283128803522946
627,4.657544394757357,3.6212828503165317,0.012240988349096791,0.008184730393235575,0.002493627893471873,0.026854244925594847,0.013997192559069883,0.01163172206519247,1500,0.9563834260736962
628,2.815214557406737,3.058573351454366,-0.0028329968148019663,0.004746184266680624,-0.0012781509700678282,0.009911853932926916,-0.0060854790291696,0.006992787045434044,1500,0.9706421187708512
629,4.102454580549216,4.693296515904195,0.004868744019748322,-0.003998876719997048,0.002128363679705066,0.0107062500391689,-0.008966515439666351,0.008529653353274614,1500,0.9416436883685187
630,9.80222641296606,4.479017073656663,0.002981165782441523,0.0012552229784573358,-0.0035775013729813115,0.011596615853683257,-0.0031238383318855393,0.006716878335684341,1500,0.9274423003391877
631,7.793728096960636,2.6007571110272525,0.00012860840751976327,-0.004588964645286975,0.002360897430710601,0.002214285492087055,-0.011134997967621478,0.006195710298939193,1500,0.9048348542942577
632,1.2136902078596656,4.218155106193704,0.010322313014230271,0.004171368546973227,0.0006277541581094698,0.020771453377013225,0.008215909745393771,0.009059498635571607,1500,0.9533004429690912
633,2.4836499360312905,2.5709473263918845,0.004106809242566494,0.003497181400053867,0.001460701760756592,0.010588323841490124,0.004619657443750598,0.004597265698724806,1500,0.9147579572319857
634,6.275201817724282,2.303698757814057,0.009311707850036264,-0.00164652535910681,0.0013490645302034353,0.01895069424239993,-0.0036203292605410196,0.010498134942657505,1500,0.9533989216210224
635,8.496104067980497,3.6833159862644314,0.013526805487711055,0.013712074135484337,-0.004193943143188192,0.03562881173406665,0.01884894751232413,0.015436397293426463,1500,0.9469032351868087
636,5.2738219544911304,4.007612101960578,0.0035083483159884174,0.0011006223597523701,-0.003121867267574805,0.011300858692268913,-0.002082917340787337,0.006236720018709687,1500,0.9731269645563669
637,6.031468376285699,3.7320371405008714,0.004755771635577882,0.0037862455171231934,4.803690853377325e-05,0.009516291791954167,0.007567742513447983,0.004353552866771995,1500,0.9368104673191933
638,4.928555145715324,2.3760216960120593,0.009093178643620414,0.000665933344157711,0.004472975464707001,0.02204929104948424,-0.002531067073927992,0.0117088190149177,1500,0.9658914460539557
639,4.45969334834868,4.5126335692426345,0.008280179766287801,0.00655337825558939,0.000761386322912057,0.017135878587789,0.012531237455965379,0.007680112036179202,1500,0.9367132908761605
640,2.175097256676386,0.3499389447928436,0.006993681320420466,0.0010101048590193304,-0.0004895659549596072,0.014066944314146146,0.0019406280447334476,0.00660201205894004,1500,0.9106844164270874
641,6.03533914717751,4.23879647852123,0.00042115446787700426,-0.0027939617706759135,-0.0032452340767969872,0.004870337682649348,-0.009615952288247166,0.0063839576740625514,1500,0.9375003349986758
642,8.102226123974797,0.318374022065524,-0.003357373895338106,0.006527563592004859,0.0008652970270300263,0.01320547469055837,-0.006865095297224862,0.008834179891743359,1500,0.9344428081071369
643,7.652323906712363,1.2763567201515964,0.001468556251842387,0.0005270847474106561,0.0023707467377037557,0.006829700263576242,-0.0028384182650701556,0.0043036894030258075,1500,0.9476501513625545
644,5.459920172794305,1.869037810433238,-0.0005742416169734034,0.00607269704836554,0.0005598846801162076,0.012239054591770476,-0.0012421437289862024,0.00645251972592268,1500,0.9339161679930131
645,9.485227446104652,1.8835025985991427,0.0067323758280483596,0.0002622549579336627,0.0007189020537574411,0.013622582560510896,0.00036667901145315,0.006721497117619124,1500,0.9801999918535788
646,0.3329406792709044,0.5959971718669455,0.006862125071469113,-0.0034323015938316484,-0.0004592035602305494,0.013765136342092464,-0.006905489386817535,0.009113448374603603,1500,0.9442762161475237
647,8.31681549632821,0.36614696347624487,0.002193095995094377,0.0010146229810459077,0.00024346634749605875,0.0044828276359386455,0.0019326103163419246,0.0019472523791723036,1500,0.9184254362890024
648,6.6367601678233665,0.07597943216817338,-0.007868263549524922,0.0010280742071030633,-0.0008533225311859447,0.0022183680951022326,-0.01589874677994595,0.00855804561198044,1500,0.9095454682786889
649,6.3062386187279795,4.1057857891066964,-0.0022127999326501877,0.006403193305178073,-0.0020733026013029367,0.013752279911311976,-0.005371493166256206,0.008541785807989258,1500,0.9411214991185323
650,7.800098721705058,1.9278062861668588,0.0030638263445787036,0.00385346177963272,-0.003291476263379761,0.013547430512566482,0.0002871457358563645,0.0067030821131577965,1500,0.9405758425061753
651,6.750615696419898,3.840233203925007,-0.0004553432141473626,-0.003356493007864075,-2.5370744264714145e-05,-0.0009102427245964904,-0.006713429719426385,0.003153879747872473,1500,0.9328412325610694
652,9.69631747505174,3.660944092910741,0.0066171383664749926,0.009412970175917119,0.0017862232386564975,0.02056652225147492,0.011493694833309302,0.008926106764720217,1500,0.9620149893094349
653,0.10803407935223053,1.1535831828622278,0.0034291828034809565,0.000953131654929163,0.0025248595523531658,0.010006413704216578,-0.0012417847873963384,0.005340790133314374,1500,0.9006209122778515
654,9.97050842312336,4.593688226751237,0.005133199687538878,0.0038532601023876325,-0.004960703332730665,0.01899008691028129,-0.0010171673304282692,0.009759279254192635,1500,0.9518086590124687
655,8.431352985885379,2.4717322472354057,-0.003022957216196812,1.710952444723083e-05,0.0014886992238703444,0.0012493734898317895,-0.007261068873330952,0.003979819162302872,1500,0.9603496396571247
656,3.1713145795597333,0.41174004290032484,0.002489590960043075,0.006898733384358893,0.0005154574146868714,0.013916383785633306,0.004860264903170628,0.0061165881197294825,1500,0.9598525059669737
657,6.416576866528512,0.9643524126851916,0.0035314176674410783,0.003256259781166228,-0.00021716347351028424,0.0073018289430984255,0.006273525954116187,0.0034229234735892997,1500,0.907934278450703
658,4.809337595094868,2.094092882643654,0.004916374143732085,0.004763543115819488,-0.0069174532062975845,0.02351566779099582,-0.0041558332718926744,0.012922700728338907,1500,0.9443889713928301
659,9.0536897672283,0.5976056452991452,0.0009673420491249642,0.0066438577475813835,-0.0033148593957527356,0.01633908623783646,-0.0011166866444237682,0.008462540509994199,1500,0.9417751101828453
660,8.828752667175284,1.1104343676472017,0.002528669658367343,0.002229900520849296,0.0018184666404930188,0.0084077545658813,0.0011093857925519777,0.003955806814486815,1500,0.9177951169843592
661,5.9720509241130255,4.82792044998971,-1.5890899136733992e-05,-0.005665151129017723,0.002128535187229082,0.001392626702992371,-0.012754710759301284,0.006752492252488529,1500,0.9847327004710787
662,3.357870846289516,2.54797766330179,0.0053279679159759005,-0.0070652829004586035,-0.0021397892759531163,0.011374033473284344,-0.014848663442249752,0.011387939217635902,1500,0.955086083846984
663,5.1945218033255935,4.662803105101727,0.004312127681008614,-0.0011908132827668488,0.0013168915802373262,0.009222066236105511,-0.00297943743962198,0.005509086188612976,1500,0.9352097286049184
664,5.6503798058277654,3.5166405130117475,0.00970742195025506,0.0070180757383902,-0.0023764388056794804,0.022186489231930152,0.011264506145360363,0.009607413268413684,1500,0.9593285808539942
665,9.534202366215608,0.9451260861411653,-0.0016587182777021954,0.003096263746948902,0.0015233814560433802,0.007084900451645321,-0.004209809513151907,0.004943288173569771,1500,0.9707081442065031
666,9.683917938508193,1.9713516439075414,0.0034804571703936707,-0.0022531102730886142,0.0008605941228779361,0.007213688401620372,-0.004758994607010259,0.005220518035242978,1500,0.9550869726379406
667,9.328048718527706,4.945756566460841,0.0022623757326575974,0.0005886040728011783,-0.0002655209400314928,0.004606974409015217,0.0010949852019023344,0.0020843846210747544,1500,0.9566846135832938
668,8.28901225200236,1.427500792462768,0.010761104052226168,0.012678052018151554,-0.0014136563276494357,0.026855058052999387,0.020023254087756053,0.012087174983801638,1500,0.961491000016447
669,0.15888371008605295,2.799853205516899,-0.004361262042682967,0.0005976490722328414,0.0009596498841843257,0.0015537652412718418,-0.009080991182172093,0.004974643598561281,1500,0.977701865807196
670,9.86927904938934,3.066024809982801,0.007590765055105528,0.0035160649555816647,0.0012735109440102745,0.015912087693591988,0.0063015723277823985,0.006939617732333105,1500,0.9350117891295542
671,0.1806453330245883,1.643560236772309,-0.001682064907523922,0.010969104916733481,0.00040712325140572866,0.0219643857601758,-0.00339030574175668,0.011920511713023108,1500,0.9744535240183891
672,2.746662364705461,1.3252647269240114,0.006965161293310366,0.008435337782252186,-0.0003642987522837811,0.017041313882997983,0.013759684268127117,0.007830264865783615,1500,0.9501025673956076
673,6.449998355009155,3.019026393689918,0.005114947418000049,-0.0016063768795720051,0.002614820213456915,0.012024751566796565,-0.005007610489940476,0.007580997380736869,1500,0.9883075132116478
674,4.274798933977965,4.676328371759834,0.0069530774429077315,-0.003184931831997773,0.0006229962174862945,0.013982436051566077,-0.00644614482974616,0.009044253824435392,1500,0.9149232404757249
675,9.724961949530632,1.4880964180061662,0.009601454023583363,0.011241576696986331,-0.0014900181852224316,0.024244592002243843,0.017441469438895543,0.01082986365423829,1500,0.9271108647316002
676,5.2335405195719185,4.627322097276448,0.009909220463772135,0.00010744303055067823,-0.0017158120442927651,0.020401791550142344,-0.00036846456149671435,0.010294248415569359,1500,0.9262332015600262
677,0.12546237719606612,0.8285431074869959,-0.0037287860402141024,-0.0023833140721790077,-0.0016860039871342454,-0.00248157224508531,-0.009742627979700911,0.0043846312721200235,1500,0.9084453372264639
678,3.122941176832753,1.710561532134337,0.01046927233352519,-0.000926937627744658,-0.0034489549049628405,0.022863549411174897,-0.0037788799996138316,0.012484194360458235,1500,0.9319870532236326
679,1.9661359853462346,3.638453610852672,0.016296901898907586,0.01127834048674807,-0.0006248193772793203,0.03274704629382072,0.022403438477490597,0.01449686741697318,1500,0.9274359884301719
680,8.05821176952082,2.2157952354337422,-0.0004244411127849574,0.0013546436523174505,0.0014628032897422072,0.004354281460839942,-0.002493876381774956,0.0030015923333531927,1500,0.922658739733208
681,9.67785846216356,1.046752482367534,0.012143654517240877,0.0005345500330792382,-0.0023987003361358823,0.02523950862810183,0.00011690047253840562,0.012590630951457954,1500,0.9194372493209868
682,8.043626172833093,1.4652128332768415,0.0073959924535872135,0.01334090815892162,0.0016661796599647901,0.027552077894183402,0.01392172333083426,0.01193062206210377,1500,0.9004794026222239
683,7.208317066575897,0.4308729015212692,-0.0023679301866453327,-0.0018200045880346727,-0.0014491528488835643,-0.0012382910030827882,-0.007137578546277222,0.00330302864107098,1500,0.9573530149739599
684,5.807633429951879,3.644861925402796,0.004259540377671159,0.015633952242677055,-0.001116871882344523,0.03148516447910414,0.008301820761592289,0.014131981620415722,1500,0.9364929897790315
685,4.607332423582266,1.4864570698608703,0.007225452936650293,0.00691112874570222,0.002227365079248961,0.01860238737472719,0.009670775989977835,0.008057189384456015,1500,0.969322728499435
686,5.5407595186087,0.5464839192304716,0.009350056723542735,0.0017762773684923444,0.00011368486199553507,0.018703525571097442,0.003549142612972715,0.008602860025286763,1500,0.9487782987879738
687,5.990818846382696,0.8993601695430298,0.0016268480683048017,-0.0010426797774826854,-0.0001883657845030844,0.0032801478149507087,-0.002111811233306476,0.002352985835888304,1500,0.9634436899638747
688,2.822197825300843,4.538227272753719,0.0061244739042424275,-0.0008589046900974598,-0.001637719098024623,0.01297893890371793,-0.002447800475427993,0.007180084175220718,1500,0.9198327095264457
689,4.709399212976085,2.9069686935358963,0.0019110418066771676,0.0012687808115734223,0.0026525392851405203,0.00852363753109018,-0.002163992294588999,0.0048933716737950324,1500,0.9262487480592664
690,4.256535640679489,1.3775816051489276,0.01557729609290223,0.011015828184661368,0.0013133597921395307,0.031856834494924206,0.021329414060202993,0.014056263680286644,1500,0.9755036175130858
691,9.563020987070614,4.4164553487460765,-0.004331706868042329,-0.0018032555429765714,-0.00018991368698874583,-0.003578141154605104,-0.008691783667432697,0.00378317884180629,1500,0.9261707895729578
692,2.1837872464184924,0.11818682112314849,0.0012633757664542878,-0.0034559331013661494,-0.0005046369556016514,0.0026334669105436284,-0.007018581580367352,0.004320845916022941,1500,0.9281651643864729
693,9.759502562123373,2.0353931666033627,0.0012839730020987468,-0.002919690516936588,-0.0019159458569929211,0.004052356068457464,-0.007323791098133147,0.004993448584277527,1500,0.9587875753877958
694,5.928851104016417,4.497149721159442,0.002357860569460377,-0.007211726802612212,-2.1307567243109015e-05,0.004715816024970346,-0.014423548491274016,0.008635630738017734,1500,0.9830597619710761
695,1.0632364303931208,1.4310081833739035,0.009527334797953434,0.006447127484866509,0.0039442150432706016,0.02444293359243909,0.007505990973200797,0.010843528763630926,1500,0.9354515044050319
696,9.61850890840333,1.1311152288889255,-0.0059658765992228364,0.007814927312113118,0.004729228009820365,0.018563503941104786,-0.014865402515324222,0.01450463571322416,1500,0.9204717628969896
697,1.6670666979823023,0.8325265409452481,-0.0015315058311583625,0.002040076749692233,-0.0007380110623682645,0.004373133435112834,-0.0033559915980450935,0.003356455523048823,1500,0.972583777088328
698,8.898940685147824,0.6414936641252478,-0.005287007471975133,-0.007396737249288131,0.001480472266752072,-0.009048067031510057,-0.016319422411016474,0.007080463207754868,1500,0.961006658504608
699,6.52459039521462,2.9528939418064915,0.009157220658591748,-0.005754758972347658,-0.0003610925161655708,0.018331918733788546,-0.011526995361300368,0.013040732425076664,1500,0.9726589404304377
700,6.606472861963331,0.9186384533323855,0.00043083843396488075,0.003269607504967017,-0.00154041812613358,0.007889737269427054,-0.00048884539156326,0.004072584735221701,1500,0.9052394092995546
701,8.293114276769085,4.308536505635029,-0.006167549583794672,-0.0012298239496314808,-0.0007788928385052706,-0.0022197456350762264,-0.012575001431776079,0.005812586067198234,1500,0.9202142746838651
702,9.212006314082293,3.458816630327438,-0.005178376773028036,0.004467121421871312,-0.0006852558976764642,0.009031123106335477,-0.010453633808648922,0.008444638805206137,1500,0.9845420040368974
703,1.674027915895,4.9019140937438594,0.00417781284621936,0.0073263361448514435,-0.0003960901732407975,0.014750800907026802,0.008257497075114806,0.006402493459561237,1500,0.9090907511703479
704,8.50862157999784,4.557424349557227,0.008429538711282304,-0.0019355311690912765,0.0007106963568997535,0.016956083381711114,-0.003968068297329059,0.009624671768087,1500,0.9073064368336312
705,4.965382945490939,1.786296530797038,5.380433793403315e-05,0.0009887576153971506,0.0019705736014892007,0.0050930901789560225,-0.0030079662722936546,0.003546380977358617,1500,0.9174619535190601
706,9.68237127605899,4.593761044978205,0.005898760387592279,-0.004817294363976481,0.0018140168381220456,0.012395017976675483,-0.010232085929443887,0.009812733336639403,1500,0.9588130983464741
707,2.5467344681389514,1.6369852720687361,0.007004298870041335,0.012825087320617688,-0.000339875520777429,0.02568973086182453,0.013969041519493512,0.011138171704692747,1500,0.9186492086750125
708,3.962469600434643,4.72776944575199,-0.0007243989868567524,0.003152554179093988,0.002380547149170274,0.008568088804961916,-0.0037117784204874446,0.005454179405364011,1500,0.9382641614249922
709,4.550001063648622,0.8674056620543014,-0.00647163728099321,0.0017200623759843063,0.0011988370599656515,0.0037838093543852737,-0.013286959164403082,0.007764274232735023,1500,0.9647047152812154
710,1.8086707574492211,3.954601153658568,-0.003577002568474281,-0.0025034660003727255,-0.00010610196488084775,-0.004986159987660889,-0.007174777150033123,0.0031845184812349997,1500,0.9107871478271771
711,4.0385267153325,0.5682494639744673,0.012585618445169922,0.0019606190343738963,0.0007794197582873852,0.02528498010230236,0.003807494856785278,0.011806299210218649,1500,0.9520862747121313
712,3.3271877664446716,0.5097342984638176,-0.0068550842393279455,0.0032266961035203245,0.004117212198563914,0.00938883276703703,-0.016645609038652275,0.011418289282598738,1500,0.9694027101937616
713,2.2905872043608086,2.18323441600078,-0.0012356264036004236,-0.0012145530823172383,-0.0004552279275738432,-0.0015394797829185835,-0.00336087918891674,0.0014570090391225758,1500,0.9297286246732116
714,1.0938031336627263,3.605300563473831,0.016523530593376926,0.007498199867248919,0.002448344513845038,0.03428984412136659,0.0137536167998851,0.014944447202662196,1500,0.9286146018167633
715,7.317820629371732,3.8682153388617464,0.004997038275331259,-0.00022032431687037286,0.0041132074714078735,0.014518108890907017,-0.004964680973985245,0.008767857804655258,1500,0.9296446900969937
716,7.345505612327151,0.7266116541832796,0.0019750093181678044,0.0032671347330937945,-0.0030549547396021403,0.011487188641332031,-0.0010029005388088345,0.00601002953507887,1500,0.9846119628089837
717,0.1282554212740672,4.143001623369157,0.0026172339036420996,-0.0019429866318683934,-0.0003397252163044866,0.005284807348691057,-0.0039363128051436444,0.004007068818104035,1500,0.9431755635531193
718,9.764495871893587,1.1703304318559389,0.006592201654801827,0.00503489020779007,-0.00034252257427013334,0.013328416581313285,0.009925767143870508,0.0059973490513882035,1500,0.9449824942277455
719,4.39464056501113,1.540282852512549,-0.0024084925715903514,0.010201960233911333,0.001083160066926905,0.020588641083659424,-0.00500170575901746,0.011746143269707934,1500,0.9129638838145427
720,2.076417830421937,3.0041435281218583,0.003590305510612851,0.005363730522375698,-0.0028584458744386975,0.014939676144182044,0.0029683959217950513,0.006849423769599943,1500,0.9115358967039845
721,8.393818441305207,0.6316184396499741,-0.004400323607922153,-0.00016157635372028318,0.0010243179013802632,0.00014595378899130186,-0.009269753712276174,0.004671792805553927,1500,0.9703483564903855
722,6.192195853852902,0.789959322323634,0.0050622397616144395,-0.00038728241455382277,0.0006913749649200804,0.010297171263039147,-0.0009472565689179141,0.005400997457597623,1500,0.9830864615287767
723,8.697808361398721,2.905994321436401,0.0014894109271165116,-0.0012320145862956024,-0.001058674896815494,0.0037054866780423072,-0.0031906939964004887,0.0029889058950219025,1500,0.9399095101528654
724,1.2828236998595277,2.2189660663698723,0.005848410819989956,-0.0016873019487739943,0.002547119188281771,0.013257164696163651,-0.004934946953731726,0.008147538305368783,1500,0.9130531596064717
725,8.539008021315192,0.19241129192974105,0.010007029285399266,0.004295604848026598,0.0009721337108807519,0.020335920543927258,0.008269347722924468,0.00885673441354178,1500,0.9122187578653617
726,7.329332733970685,3.517935552771828,0.005829050440296621,0.0027754993856863018,0.0033478428450059105,0.01596365173467673,0.001245447917289113,0.007689398877926762,1500,0.9348239454216364
727,9.820744136804022,2.894297427853245,-0.0020148601495506326,-0.00239437484601763,0.00024867904731381115,-0.0037836181166990496,-0.005034851874437476,0.0022702170977420876,1500,0.9271967279177521
728,7.073411240279688,4.619478816889387,-0.002250267414353282,0.0003507386637066905,-0.003294118131517985,0.005183556006412798,-0.008982613507705982,0.006207223181536052,1500,0.925139620255134
729,9.02329294232214,0.36672116296111945,0.004177397638360444,0.005330050059608849,0.0002909064581985265,0.010798615337703286,0.008216280058235298,0.0048834645322585885,1500,0.9365498507549902
730,5.254579100395124,0.6343719593339536,-0.0006425654021752366,0.003184453876727087,-0.0014077728013929135,0.007293032926413598,-0.002209255977309897,0.0043064288518571145,1500,0.9460164477486297
731,1.0540248939127472,2.924836946816964,0.007576934043154562,-0.005551431044689014,1.711399541987619e-05,0.015153912705473742,-0.011102906708542646,0.01141455306507874,1500,0.9676252957380382
732,7.0231553147628905,3.499813941721608,0.0072095463830710825,0.007391129681720833,-0.0007175631111419598,0.016047244337717682,0.013154107791866147,0.007407047671874637,1500,0.9471877842818482
733,6.849800424018476,4.97473581006818,-0.0011476868741047792,0.0013577629912070884,0.0024558393519454095,0.005723864897772626,-0.0053037126635680065,0.004776236283113366,1500,0.9297543174989688
734,0.21564676035040864,4.8295370870938035,0.003268562995300071,-0.0026382687510709533,-0.0023974950776328506,0.00823835522381068,-0.006977766735352444,0.006596306664365352,1500,0.9692400256609666
735,7.045913753828156,1.0052307710480317,0.005357650245856523,-0.0017652756316340144,1.899730348231299e-06,0.010715301505053686,-0.00353055227660867,0.006424823301953294,1500,0.9395500944136927
736,7.2039812465102315,4.3785553082854065,0.002230314696877024,0.0024905332414991675,0.002319516459344321,0.009367173380232597,7.452249651978583e-05,0.004665067673469409,1500,0.9442415632035043
737,0.32484369109310296,1.9013263630486332,0.007947672546846508,0.003427152295147231,-0.0009443326512660662,0.016274024773718518,0.0064756249102689584,0.007095652191643031,1500,0.9716977584919508
738,2.94836015741779,1.2209884751140698,-0.0038774796454231365,-0.002188252871898964,-0.004359500367897922,0.002815396967332391,-0.014946862001976592,0.00826765525619714,1500,0.9425512382667026
739,3.1976198811195777,0.5006905144452778,-0.00010167833133279628,0.0005125894513336195,-0.0018064303356548125,0.00407561944933861,-0.003253797209336963,0.0031803737738626565,1500,0.9481019353480837
740,9.304517956561963,2.4707712206095906,-0.0012932090914414087,4.708826336258991e-05,0.0023007182195523036,0.003546541720277187,-0.006038783376434825,0.004197072194560593,1500,0.9002424053665492
741,7.482470861630523,1.7063575360952759,0.0018523972612097942,0.004922015181582927,0.0012161473380246175,0.010690866396079204,0.0028579584895062375,0.004793446011214292,1500,0.960094102893623
742,8.058386608952686,4.488311639679069,-0.006339999395114766,-0.007023882377817627,0.003119341572580027,-0.007087827015384885,-0.0196399365304799,0.008613360639148328,1500,0.9106931809676873
743,4.728276300122519,0.49836523956209133,0.006070899105322512,-0.005215875656435719,-0.0009301475263718194,0.012294078576209375,-0.010584031678435787,0.009915732596685952,1500,0.9012623659021349
744,0.35571939916186346,3.1315511036703807,-0.00470921934156465,0.00011726396917357748,-0.0031118786341072895,0.003283963347510018,-0.012467874092292164,0.007196810772652991,1500,0.9492669173110686
745,5.07881000779958,0.06150843151967289,-0.00564969598927176,-0.0022941143720465974,0.0013340175237270535,-0.003656813859768247,-0.012230806862868464,0.005436891116932027,1500,0.9270252880719214
746,0.41822333290227665,4.273198314679427,-0.0032975528311154217,-0.0020941378548892903,-0.0003341769418226637,-0.004015135376985444,-0.006768245995023981,0.002947670351731913,1500,0.9233194295584475
747,9.999102736117253,1.0786474550965242,0.006127801229692304,0.003721384883313589,-0.0030017856913959547,0.016317084456393537,0.003381287769618247,0.007458344220231091,1500,0.9881216113551322
748,5.571718111494732,4.7551177138328855,0.0112846059920246,-1.1396561337049214e-05,-0.0013943396351731754,0.02290834611911594,-0.0003619272577408371,0.011545718558662555,1500,0.9891855267027037
749,4.515392816521457,3.4358022046156016,-0.002892455461077824,0.004112866558388714,0.003482810381227646,0.011099399365487494,-0.008658577170865715,0.008577188217224111,1500,0.9043041568951078
750,7.698036516758125,2.6069519329241366,0.00047299216060411203,-0.003374797912085793,-0.0013708501190189861,0.0018228538805710294,-0.0076264653835343916,0.004341304600450697,1500,0.975025514240529
751,3.3375928009678715,4.182881437846787,0.00503421345176622,-0.0017233282248474866,0.0007744910840923314,0.010243685185703441,-0.0036219147318659745,0.0062280234984986305,1500,0.9149180558049141
752,3.7425042817892997,4.656367410493557,-0.006024057619470464,0.005644170764697923,-0.0036666314702148337,0.013401415659089925,-0.014161189368635009,0.011936469441989589,1500,0.9653463392039757
753,1.020220189530019,3.6235760870763967,0.012531365479898941,0.01116904391044653,-0.00020021025894551817,0.025120358914005873,0.022280459866685066,0.011913838332158175,1500,0.917923847522809
754,0.47659266874803596,0.3901073635059976,0.009881094529476707,0.0023970852607604343,0.0007816409337134249,0.01992371737311885,0.004632642207355434,0.009029347066028055,1500,0.9259017939019759
755,7.8112780944543845,4.416985628635058,-0.004650179450865061,1.4223600117326332e-05,0.0017826963821632885,0.0012350475886931007,-0.01050695929018857,0.005587891615087494,1500,0.9753547444903659
756,9.106882625486811,4.5757405954005765,-0.005732747815514509,-0.00010875436897485021,-0.0007285851765034595,-3.1799289813648664e-05,-0.011651205079165072,0.005817669012254908,1500,0.9560915652260128
757,7.745611062541436,3.788891799842546,0.002006665967603091,4.749133870695114e-05,0.0009816981359265647,0.0048278353962904015,-0.0007195207836703174,0.0026124429505530937,1500,0.959765028018603
758,6.926398084946986,3.782591373857016,0.0020922851390610224,0.005376235295162047,-0.0015455999649335197,0.011978492233931569,0.0029585486345145686,0.005403663904678596,1500,0.9775432638435139
759,3.3605848441364685,2.393121048910365,0.0038702113139154563,0.00014378992338769862,-0.000554547156708571,0.0079019707042405,0.0001260317703658093,0.0039198573207638076,1500,0.983170058032864
760,9.01148176715013,4.042596529401298,0.007542017462539211,0.004551504026194456,0.0015150812698472948,0.016350874613613828,0.007836168363853506,0.007082168257113135,1500,0.9368534206347965
761,5.57887876124742,4.44845917823034,0.0020973252444445346,-0.000714202842272048,0.0005874390735570903,0.0044302569320156734,-0.0016640121276707,0.0027280081611076312,1500,0.9775840087112123
762,9.97891551283631,3.2489812034721473,-0.008772489794854807,0.004382463360873789,0.0036423371053653725,0.010647236311808169,-0.019427289179770206,0.013206344542953117,1500,0.9052587684671436
763,3.563302331599507,2.321004439047612,-0.0004107912944076907,0.00023526606268055707,0.002176216796009792,0.004224596162233305,-0.004575646625687571,0.0038116274067561324,1500,0.9062776360680135
764,3.0153277762510458,3.8140058498140594,0.0037930841431430854,0.01144342653640867,8.095659884060605e-05,0.02288856626075214,0.007584455098351372,0.010097191707864056,1500,0.9822476314329087
765,0.7232507760267737,1.393301026718912,0.011889615652233235,0.00859767475268216,0.0031877587619120983,0.027662532462346387,0.0133120483474844,0.011981040896803562,1500,0.9415927887575339
766,4.978215239294705,3.686257903928143,0.01779505594701213,0.017406167778967745,0.002555380114748068,0.040326758247436575,0.030075689204523182,0.01815171799168347,1500,0.942365681778132
767,4.469386628704463,1.7046779827572793,-0.0019074127236457638,-0.0017072006315568375,0.0007176099469777543,-0.002165496028750293,-0.005063730681654909,0.0022002984334563496,1500,0.9839867585139781
768,1.842146061302552,0.5986295360290905,0.004483399213183048,0.006746903807817402,0.0007909857509622671,0.01399184007178072,0.00846876597022018,0.006103236161906001,1500,0.9042978780901377
769,1.67734036553834,4.3527508662709575,-0.0015972660374947603,0.002124304557237805,0.003916159549665774,0.009198561463570837,-0.008144484424084749,0.007514381213667704,1500,0.9264073664276798
770,2.1112263522435204,1.083107922995295,0.005794897293344888,0.0030038970160999605,0.00012242731691147242,0.011600514555880211,0.005997074063009486,0.005024134012886612,1500,0.9419181448009479
771,3.8534982392433834,0.9715949892955311,-0.003729678811125868,0.0006074293796318409,-0.002985732933952655,0.004258056257967333,-0.010502555120955388,0.006579422043807342,1500,0.9880090652514668
772,3.39927528195918,3.920515253426997,0.010512056683543394,-0.004137044184841617,-0.0002324309211431179,0.021031487272143455,-0.008281462274739899,0.013086992996026633,1500,0.9861843635260462
773,9.351107419858403,2.1793275382541166,-0.00016634985001257431,0.002708427341893799,0.0016516270721257447,0.006921099282717591,-0.0018369442989551415,0.003999676659074716,1500,0.9268124603457956
774,2.5937519168297785,0.3474759864394772,0.011729168115531275,0.0005107640661643017,-0.0025350896839340838,0.02455087480349385,-7.101044010269716e-05,0.0122932284665597,1500,0.9515683812146246
775,7.553251697951894,2.7789729648237764,0.004092382574801649,0.0004527968999099289,-6.513540629693103e-05,0.008187095779281315,0.0009032631701418417,0.0038874580243975646,1500,0.9867246909287662
776,9.296296940464716,3.561582526705325,0.016865107159564314,0.006745972735435164,-0.004523161333302925,0.037184319570255434,0.010037840219743523,0.016659693872141494,1500,0.9002764284020865
777,6.958802484677907,3.1548513158581044,-0.004351561558055368,0.007111640017890456,-0.0017221402440228677,0.014729542042264312,-0.009209385122594137,0.01045732050357241,1500,0.9680125416767179
778,2.0992050751756297,1.675877070679297,0.016848576128403108,0.00789882019331796,0.0015176004567591134,0.03419782360745867,0.015296969035983468,0.014835475661007423,1500,0.954441013252959
779,0.507026431162797,0.17614763709529413,0.0016065899543600418,0.005966975120310739,0.0003019389142439959,0.011975567712923314,0.003171562436418248,0.005373354855716767,1500,0.9223406266352228
780,9.704409659170398,2.935180157338749,0.01647355071779273,0.0007680871688841288,0.0005362740899209436,0.032983681746486776,0.0014995940268669496,0.016130017914340856,1500,0.9636669053377515
781,2.73608137342221,2.4160258244735218,0.007387088550767292,0.004633457702092237,0.00045154695540759407,0.014918487153313913,0.009122605352405144,0.006513211892083552,1500,0.9713239919948131
782,1.9027675662341637,3.4798005587315686,0.0033900609862484695,0.011017664934478808,0.0009542462920600174,0.02227046627856056,0.0065449855628939985,0.009912752191128573,1500,0.9346759580126376
783,3.170632012840404,0.9405898776355948,-0.0005942000943311332,-0.00473697837120297,0.0026902784132501203,0.0014594771445317995,-0.012121834075600007,0.006456788572404495,1500,0.9317197818665807
784,4.958279970389446,1.8678973664186038,0.00758138562948911,0.0011960648487745224,0.0009394893687008463,0.015433491536447786,0.00212140942007948,0.007244865157528297,1500,0.9397561175691312
785,3.0922554548620482,4.356998187491549,0.005548673086488825,0.0015590511899011145,-0.00226797293584446,0.013148575857799955,0.0010668726949799251,0.006324464559847231,1500,0.9051252420286438
786,5.3975010807960535,2.7707483585460686,0.0066784657987304956,0.004022101812950171,0.001705633218155688,0.015024108790443191,0.006377026432918141,0.006530336365485223,1500,0.9454366703469361
787,0.1512558942805775,1.1914266729590266,-0.007659222533185916,-0.0021938718179702354,0.0006538148885628312,-0.004233489910064744,-0.015472698792247557,0.006925014991243485,1500,0.9642184965210688
788,9.215651436744034,0.34498153635287854,0.0035253682935044743,-0.0032702674439144402,0.002037564579492294,0.00817894731062722,-0.007668745611447154,0.006863437634628441,1500,0.9667445090553424
789,3.0188880500762636,4.623068746738321,0.0009168902101886732,0.003630844205990536,-0.0027764141941020812,0.010728304729683856,-0.001632835897325438,0.005815501623261438,1500,0.9392027990224279
790,4.056427668926634,0.9156333591413868,0.004410238655216498,-0.006691572912502779,0.002820331732676653,0.010171268057672513,-0.014733936572245077,0.010844427131446585,1500,0.9052488284032135
791,7.9802573705050115,1.68451537990377,0.005015669557119283,0.012348598743623485,-0.0005540788527280551,0.024780457615643438,0.009948078985842093,0.0107995069966587,1500,0.954071572787752
792,6.9218245548067685,0.33660675378601956,-0.002018717251296929,-0.0001815884683656489,0.003890989962178408,0.005795584081239325,-0.010196195520564482,0.007011492465668082,1500,0.9117594857099999
793,4.01260170052252,0.49946432398426444,0.0013183999488412383,0.0008019378703987323,0.0019435414241221636,0.006041580753257753,-0.0018009051147778112,0.0035575367500017643,1500,0.9031848063858503
794,1.5135631668560146,0.20002395397314188,0.007836377671876161,-0.0013076350369203918,-0.003267978145393188,0.017768479867369295,-0.0047109945974577565,0.01026668836035503,1500,0.9594337561852296
795,9.14640952515793,3.3417932807379653,0.00925252363372806,0.0030531027323688837,-0.0028319834783366252,0.020702848597197863,0.003908404134996027,0.00952586562808686,1500,0.9177097686907716
796,5.862408614169587,3.2712939472640294,-0.00010387320076517617,0.0004100190395316724,-0.00110252084898411,0.0025702779295279617,-0.0019579862519949693,0.001966761783226536,1500,0.9310281339257296
797,0.5047903546429688,3.560289905379732,0.012960999083179109,0.005791057147030552,-0.005125356709785537,0.031261460411781065,0.006242652048638253,0.0143273793119563,1500,0.9317176292507131
798,5.485404107585636,1.059386247754791,0.006920644658410564,0.0019895698654165727,-0.0015081948811469527,0.014690708085122073,0.0031297209625322014,0.006701384937032357,1500,0.9088314935513986
799,8.162744085237945,4.145456170015886,0.002949470689689807,0.007242387619427272,0.0009858650234252334,0.014915930190797065,0.005467786427437093,0.006534993137390377,1500,0.9092302062871015
800,2.2639914104378924,2.1381156421279304,0.0034147620739005255,-0.0005652448809231301,0.004036700126521316,0.011850641956376327,-0.006151607570421536,0.007924337342199255,1500,0.972945889099199
801,6.828656198758983,2.54213859723813,0.004997561687273344,0.0058202705519617365,-0.0004414085279773098,0.012024569920059396,0.009611094558410766,0.005508950486417481,1500,0.9616363539065862
802,4.50261108593243,3.3296792485824667,0.005569096920175721,0.011612301182421406,0.0009593454978833447,0.023521878596413078,0.010840917608781173,0.010195654949993525,1500,0.9326553201981724
803,2.3975379744006373,0.2843810987698825,-0.007039400677697918,0.000257108142118932,-0.0033498851385266,0.003123562436252097,-0.01668814750741007,0.009224659617121683,1500,0.9428337144904414
804,9.56464033289859,4.969842358068598,-0.007602356778476246,-0.009732640022754948,0.001325765536238417,-0.013933714141826842,-0.020736279460635547,0.009154347126996414,1500,0.918894282031132
805,5.7757333141026415,4.224569929674359,0.00015857216597598366,0.001083280869059667,0.0014705693014098811,0.004324933064252422,-0.0018412269941811214,0.0027412746287216977,1500,0.9535803399713306
806,2.450058893465805,0.17163616284784355,0.008748799129947759,-0.0023589629499335247,-0.00022419569101456363,0.017506644771274883,-0.004726972411246415,0.010143721040274108,1500,0.9604234908862925
807,1.1447748953997428,2.3174907756768635,0.000537280880431576,-0.0030002457991360216,-0.0005553436644826976,0.0012448270591951826,-0.0061707568966040734,0.003439090004815929,1500,0.960540690125268
808,4.371971309718648,1.5058950967462503,0.007749066152610673,0.003569883601951351,-0.0033468524901429575,0.019210163422613336,0.0034277360865107125,0.00887316717709662,1500,0.9449943536921207
809,2.839388072549336,0.24189426697322602,-0.0009374367692905417,0.0022530336225161525,0.0015396862924085522,0.005749741284468051,-0.0031185475780168286,0.0038960141680816607,1500,0.9269745985497126
810,0.39085426540462653,1.1281161591677735,0.006097366827027557,-0.006291488664713571,0.0004882720156023455,0.01223316180115179,-0.01262140547652382,0.010762780997588914,1500,0.9443099679989495
811,6.275937036622644,2.4957206197123014,-0.0027670613599207776,0.0026066498564133785,0.0004475496603572066,0.005287338034650437,-0.005608161041665235,0.004718571206995669,1500,0.9733766641861654
812,6.633611530618653,3.980566977496661,0.0028816223810187542,-0.0032313224444003663,0.0024534431838042704,0.007489026125435097,-0.008188426252198322,0.006790787416125834,1500,0.9011549167625551
813,9.14295298315615,3.615269435831662,0.02259832460292377,0.011813803962764043,-5.3737519517565744e-05,0.04519718472326283,0.0236270724081128,0.01957770991068393,1500,0.9713777752652782
814,3.4414832423083697,0.8973634180564022,0.0008815849589532687,0.004334352514716514,-0.0003809687225127465,0.00875177577091462,0.0016800991764249454,0.004022202789580062,1500,0.9292806714852675
815,4.841038969910927,0.4659596808529942,-0.0050592914359152245,0.003913237404557058,0.00278293347088978,0.009412598752340209,-0.011704706815056542,0.009161998767502873,1500,0.9073856060077151
816,2.979779686096673,3.3029155403834656,0.00151202385265381,0.0008101701931672468,-0.0006672995359032961,0.0038300910057628484,0.0008142970858792647,0.0017474155853611259,1500,0.9884093749100352
817,8.219087537599892,0.28972728841916207,-0.0012485072228523688,-0.0017908675479750185,0.0025828054629136645,0.002154630519822,-0.008233380061476774,0.004747917224305398,1500,0.9785263060590602
818,2.9730862081233536,0.14144776511065327,-0.006135318709605486,0.004781932365369942,0.001302402241972486,0.00987031079323355,-0.012577083481704639,0.00974353358512274,1500,0.9113698387830245
819,2.0675182700027572,0.5719904996073866,-0.005946592520119828,0.002288662463829197,0.0005243506807632086,0.004643828745091437,-0.011959688857672698,0.007418524952537537,1500,0.9674194472431369
820,8.362372557616988,1.4011894912939393,0.006586283820671895,-0.0008078265456372543,0.0020905777755649197,0.014272863072493595,-0.002715948522424314,0.007903406829259038,1500,0.9827877596817401
821,7.803555414353839,0.9444694775117385,0.009725403261277868,-0.0026016722411483276,-0.0005376360055709143,0.019497614821930048,-0.00525015278167097,0.011292547815578854,1500,0.9155266803882273
822,5.851570888745407,2.341875065439825,0.008399031611795022,0.0002846810201364067,0.0004230305696060341,0.01684205222866527,0.0005253730351975853,0.00829280380813497,1500,0.958704694533651
823,6.377591639893132,4.672133047269827,0.005274499714924674,-0.000841718006155457,-0.003250151321980804,0.013358141851348839,-0.004492578433810405,0.00804107758173377,1500,0.9253446732374899
824,1.5006348634077349,4.897008356659899,-0.005630548650042515,-0.0028763550436280245,0.0014371236808062423,-0.004526089666696812,-0.012487717720644265,0.005475126742949378,1500,0.9881806612048045
825,0.5895046586643093,1.384263517667429,0.0024290444823299347,0.010527255263586222,-0.0012140258977595864,0.021410674553042904,0.004501924938789408,0.009776183601541111,1500,0.9705302656117725
826,3.7584448462105478,0.26686323388229904,0.003037482935035458,-0.0017677063499775478,0.00048600831769720514,0.0061722923070405816,-0.003632739136924761,0.0042929102538028655,1500,0.9417986637668437
827,4.66614168995417,1.1371526768260098,-0.005259439079911348,0.00048391928625684546,-0.002257384904137741,0.002529910497844419,-0.012080950085153423,0.006762276327750812,1500,0.9645450593065095
828,1.4039162229058622,2.2080057959424355,0.010848788090095485,0.004329082150168568,-0.0009457751666950234,0.021966428865396955,0.008389311615131151,0.009599756893417823,1500,0.921812962308562
829,7.888501438845178,4.73798048785695,-0.0020714568766588837,-0.004367102256339311,-0.0022787122208484814,-0.0013356084913571289,-0.01154150977463926,0.005467525936431151,1500,0.9047643692970384
830,2.4213841178902715,3.863146060608409,0.011101832156690788,0.003152998051334771,0.0009563699401197549,0.022430558767850037,0.006079101648201078,0.010046489395697224,1500,0.9782919023601291
831,1.1591867630906394,4.493751126115959,0.007285303372986184,-0.0019171669571515781,0.0011683678784466958,0.014862650314640059,-0.004126377482970847,0.008649483671047068,1500,0.9488819293468072
832,8.4652365738403,3.803302366911716,0.003453803924338278,-0.0014758963860257847,-0.0006197111239697345,0.007061027904651546,-0.0031052128280265596,0.004511830454654351,1500,0.9140181996586694
833,0.14932223223532604,1.5588675972108468,0.004701266509246697,0.0031400345242074646,0.0008384032771852512,0.010132398048399058,0.005550204018509265,0.004394126150126939,1500,0.9840917069795078
834,2.6412888149689806,0.22814797547330234,0.0037873399460980964,-0.0025653809515870413,0.00020872961498904762,0.0075883814602746465,-0.005144463471252535,0.005547233292867818,1500,0.9882669315753624
835,9.704903665390013,1.2187887830104365,0.00350360801960862,0.007109171363281218,-0.00043020039178261996,0.014319580771364165,0.00690597799441551,0.006201858911461087,1500,0.9189421059391111
836,2.675909765873541,4.276082944788154,0.008114605168874117,0.005183196096242047,0.0019222444456030068,0.018132390594698983,0.008463211935533343,0.007857341796747694,1500,0.9653440839567179
837,0.7238224578096286,4.994214985102417,-0.004395903697519947,0.0019229534849987608,-0.0022184549488450723,0.005248068213391876,-0.010193968638434248,0.006799960649766211,1500,0.9012119464478832
838,9.443893123164539,4.393698140232114,0.001335991879570411,-0.00039933930744208207,-0.0018213425996114181,0.004971566423656673,-0.003098261279400016,0.0035255817749926224,1500,0.9879100312040038
839,8.576819920881002,4.961338942247584,0.0071993580125145305,0.0003259913645972881,0.002922599583295209,0.016548071935952383,-0.0014973731817287455,0.008672650263457943,1500,0.9457346538299295
840,9.329126572919806,0.6196256657780158,0.004073538065791568,0.007892770084000352,-0.0011447354660697605,0.016419196017010557,0.007513420282573283,0.007118236470675959,1500,0.9533007608759134
841,1.4752236486358528,2.3702602093651297,0.0019572668123404497,0.00141087057235479,-0.0008510254881977842,0.005155740913814483,0.0015805338555759958,0.0022875165886906924,1500,0.9694574377683187
842,5.9049787409802885,2.6995553252023847,0.00328095105870587,-0.0023078264903592465,0.0010292511533079368,0.006928950811553956,-0.004982701674860708,0.005180795550476569,1500,0.9434286521918474
843,6.046318846042498,3.1604159045608,-5.5464106322918646e-05,0.004901299105360718,0.0006857587227622709,0.009988845949840688,-0.00029717595176509144,0.005070350129876018,1500,0.9502727313639312
844,4.172871491248763,3.025863742213369,0.007241778935235408,-0.0016110592905328935,0.0001532914284017393,0.014488864918952097,-0.003227425629547068,0.008171676951770204,1500,0.9478606812261365
845,3.9683983838643346,4.537490420306292,0.006690907077831875,0.0030809045756388155,-0.001415205880664873,0.014359114652457558,0.005184508654483824,0.00629718884512064,1500,0.956736435302768
846,3.7160577260897854,4.466638226447717,0.004324390321525538,-0.0027388642147365004,0.0007091821594204055,0.008789783319367375,-0.005618731105789301,0.006289234035044941,1500,0.9467016926432216
847,6.207806443807446,3.595641182367152,0.007530245519718238,0.001260901217880187,0.0005863969385091828,0.01516924390312993,0.0024130495720669203,0.007059118771505237,1500,0.9674023003389195
848,7.903356521768201,0.2518739722531782,0.004081191624061408,0.005228221175916869,0.0006252583310479496,0.011006312536264782,0.007612513063691774,0.004881177440572792,1500,0.9483365808977811
849,6.6195134540392395,2.802230777737513,0.006321551891089016,0.0029459102853583246,-0.002040311225502806,0.014563350755146021,0.0039715735977486595,0.00651968486021095,1500,0.9148779591561206
850,2.8727233751562786,3.9031916990585094,-0.0019150289552336752,0.009373407138322958,0.002740545351691559,0.02000712890724605,-0.005090372541067486,0.01148956961044513,1500,0.9491911501445464
851,0.095360949539256,0.0679003520210586,-0.00467594175310121,0.001369796609096291,0.0008084685188648007,0.0029520844561398618,-0.0095643747441497,0.005666279839930521,1500,0.9816891170001936
852,0.9644182333651963,0.3940298973493722,0.0018519087045617407,0.006671621911911442,0.0014906247324684798,0.014190759548966387,0.0028563016839799798,0.006500058182236138,1500,0.9175676752686337
853,0.5897233351389097,3.6758943747609103,0.009563585332964438,0.008261805965776215,-0.0023755221573511223,0.022751551223174845,0.012899231374306461,0.009881114939070939,1500,0.9022263405281766
854,5.954545074448485,1.8248220612113335,0.004468515947715655,-0.002188803819229002,0.0007226893961831093,0.009092129198277236,-0.004532704941303928,0.006008830301878466,1500,0.9328840850131834
855,3.518630561195896,0.5144509062808006,0.0001452473441356768,0.0053038995779098475,0.001991849657377842,0.011966934361001182,-0.0010686405169101328,0.006267732075405399,1500,0.9085384975788177
856,7.865004903626724,2.3663873533094963,0.008551833673588064,0.0035223465899720426,-0.0034439004738124487,0.020602810998816664,0.0035455495283035487,0.009539371778215178,1500,0.9092733912507011
857,3.4867212487983936,4.787377901112684,-0.0025096710693973323,-0.003775170395545993,0.003771245055393727,0.0013630762657732684,-0.013932759195659918,0.007330947569838751,1500,0.941951491095466
858,0.37825900341586616,4.882572917210453,0.00031900465778800084,-0.0017030609163962533,-0.001267261684546545,0.0018582512367999306,-0.004626363754016436,0.002891940758873396,1500,0.9083379728879591
859,2.5102663095868625,1.9194377832356873,-0.0012794734914651673,-0.0018269999277157841,0.0017335849745052866,0.0004036622838532321,-0.006616609122215135,0.003413697960614839,1500,0.9048112176224637
860,0.40566479626018115,1.825344948851234,-0.0003554828074337443,0.0023429774006784427,-0.0013575910165547459,0.00581553599423365,-0.001840546807744254,0.003460918868639992,1500,0.9591406100889095
861,9.247096221813946,3.073989561529586,-0.005226599103423607,0.0017956893817900384,0.0004655721290097037,0.003652843887774841,-0.010514663331041977,0.0063700438992682715,1500,0.9410617350818326
862,9.983905476240222,0.5506968211664948,0.004360190590393395,-3.43632345568925e-05,-0.00209869789077601,0.010402852505313497,-0.001751197793640493,0.005689979927790411,1500,0.9666466089962611
863,5.175195156629676,0.08534739467393526,0.002396917311987313,-0.007893883418053672,-0.0008254964882384285,0.004925430809892464,-0.015919363022025183,0.009435249185800637,1500,0.9120156965599275
864,4.38721214698862,1.4376132349054966,0.010504191539652747,0.011434365844188893,-1.0047015834075166e-05,0.022868948703087463,0.021008166064595817,0.010998831575500377,1500,0.9269030661281793
865,9.33180929605052,4.578522431298496,0.00792272046146972,0.009085649030721041,-0.0012014097373752141,0.019677815930203867,0.014338923054177659,0.008812809790854845,1500,0.9541087449696292
866,4.443382569900272,2.672601783572048,0.0004805657473186031,0.0003080105703662057,0.0040233832642684215,0.00883719277356553,-0.007260040138195913,0.006981449225813276,1500,0.9318024053714763
867,8.816383500371618,1.6176660904855318,0.012073549839358476,0.005570425198536566,-0.0002832285663086101,0.02417172379050172,0.011116226285288364,0.010477885837197042,1500,0.9624934675232367
868,6.787025027962721,3.4258418438310274,0.015393907933903037,0.009266008873909073,-0.0030230660424789436,0.0332684509500591,0.01605138266556512,0.014408609207717714,1500,0.9760767508682289
869,9.431546637672398,2.308978031453686,0.0036321423612056735,0.0003821803451303765,0.00042026166365950166,0.007371215997714198,0.0006574294149579024,0.003532739181559546,1500,0.9607514033908134
870,8.126931596154122,0.4235124855179262,0.0005201597468024706,0.000821325363526765,-0.0037916009700568395,0.008930665065584006,-0.006247694844925534,0.006606559987636482,1500,0.951433084208982
871,1.7432001925438412,1.9688911195189434,-0.003084235722427265,0.0007619861392552523,0.0025669488921215558,0.004092602641808767,-0.008737101808152792,0.005675469811644785,1500,0.9669633559165735
872,0.40189947081532784,1.1834547470125063,0.0020761572439832853,0.004261134040946305,0.002070682792505556,0.01101970866401715,0.001654873905842031,0.00514626948298445,1500,0.9492540759602962
873,4.321704504187665,0.4297535049989559,0.005095681114396594,0.004510819043906823,0.0006250288446317508,0.01098661170016675,0.008226388616440082,0.004949721428914883,1500,0.909028201824496
874,8.9906153472248,4.26322759226384,0.005870615275875353,0.0005357935619381504,-0.0008713174798485357,0.012018636499112917,0.0007941811765140895,0.005820940047878389,1500,0.960611968183361
875,7.621199217320822,0.692382462476761,0.0023713507704990534,0.0009522554219256877,-0.0005499359296334123,0.005119030853932325,0.0015281815309171566,0.002275796963031465,1500,0.9681464011185762
876,8.833207108164968,4.585209661692464,0.006783223488077547,0.004238328772334685,0.001406266315449372,0.014814549612650453,0.007228554908174012,0.006415510520824833,1500,0.9213793762294455
877,1.0252310356428873,2.110713778526461,-0.007875415621936763,-0.0009276854482103789,-0.0017609620358672987,-0.001013691353488783,-0.0165925107868055,0.00805480135777942,1500,0.9143412089338487
878,4.470078601468704,4.710236260004153,0.001785447126687389,-1.1647047337558832e-05,-0.002752493504852604,0.007564692018191161,-0.0040170918594915,0.005092878730725727,1500,0.9192871676041799
879,6.6824831755023775,4.984123158389345,0.00410240597209674,-0.00011008418798701797,-0.002155188501822812,0.010019296420057638,-0.0020346528518381942,0.005588199688069396,1500,0.9068154551638615
880,8.283752109332646,2.3107945901976255,0.0003324454163119268,0.0007430385612767015,-0.00279556872289827,0.00668167739812634,-0.004530709442949083,0.004884794770292065,1500,0.9791361056072374
881,6.453478872142112,2.285663316184085,-0.00021970896979149916,0.0013192928149643565,0.002924038970381642,0.007146776755501074,-0.004947609065155359,0.00526580266713292,1500,0.9715268821894456
882,1.442046981267352,3.813720690429632,-0.003914240689453157,-0.0013935726625290195,-0.0012674471068653775,-0.0017329768554744988,-0.008882649848489854,0.00407772149949485,1500,0.9349579995080793
883,6.8063769441522615,4.953643987675717,0.0016174910799539055,0.005360680070208595,0.0014983880590386763,0.01177318219484662,0.002183160105478381,0.005423819349796052,1500,0.9026117832785512
884,8.30827346238521,0.8432270795458707,0.011766010421507402,0.00017030154636429602,0.0026167449991250946,0.02465833546568278,-0.0007857115299393872,0.012530215371562146,1500,0.9776457456337607
885,8.699839732867506,2.970070773869,0.010807016171628303,-0.0015780992889946853,0.0016904566072318882,0.02206720567579832,-0.003609371910531083,0.01203783498222017,1500,0.9350050805488823
886,4.682335767503444,4.176843392214562,-0.005781345279584556,0.0016786696037394502,0.0024711887241566683,0.004846006735605864,-0.013051358087296076,0.008016681021535766,1500,0.9705870582720417
887,8.681218000215173,1.4230013272570718,0.017724256658137892,0.007385285572217957,-0.0019587996592633724,0.03616584846417597,0.014053235996535731,0.015789354274526657,1500,0.9694650189554674
888,6.9456078822478515,0.6967664532156198,-0.0003260596274986785,0.0016293168855915632,-0.0009868907653268403,0.004081622035924359,-0.0014751075197385896,0.002492810261374469,1500,0.9155711339015733
889,8.407956099774404,2.3134676774755962,0.006972632738779022,0.0021078520096753186,-1.2127622152407637e-05,0.013945325944129184,0.004215643552779496,0.006193852654937737,1500,0.9459442465645999
890,3.7944615362033174,0.06210465861161529,-0.0017344251734271224,-0.0023433871169991458,0.0035545962741895844,0.0030574139385484596,-0.011213038519400996,0.006506975355184202,1500,0.95834072990731
891,5.056990618083841,1.4593942668316235,0.008266668720522823,-0.004650504281072022,-0.0013387898517795086,0.016807934276058853,-0.009575605397157249,0.011566600835155445,1500,0.9093976593930772
892,8.608289590025187,2.412885225360888,-0.008595106918473833,0.003863944277112096,-0.00011236304852830333,0.007729915101471323,-0.0171922403841948,0.01104784227211139,1500,0.9525571493193034
893,2.411732411983678,2.7200913474305137,0.002767522009721015,0.004649460012903341,-0.00011896904218454314,0.009313901941813122,0.005520062103435591,0.004056061447493683,1500,0.951741018052523
894,3.52264220211143,0.021661469239411257,0.0002978047549428047,0.002859201508773516,-0.00010409565458902469,0.005726850023899374,0.0005871625035332676,0.002728505974173385,1500,0.9129745774892208
895,5.797309828601316,1.499481494075798,0.008936219638779212,-0.0002815660024200516,-0.0018371755131207153,0.018577779534539672,-0.001268472261821349,0.009621698295243506,1500,0.9649991719141533
896,0.07184679341098343,0.025140051078489933,-0.0019750756756109966,0.003243394151200239,-0.0013381582752175632,0.007133051854991265,-0.00459641490381278,0.005118445188481015,1500,0.9863251245534794
897,3.3996595806971532,3.519687033761117,0.013791328257260224,0.016229248985588914,-0.0005742921318534924,0.032715517555444204,0.02732563693025407,0.015190648174610766,1500,0.9269023849111762
898,3.4068570477685176,1.4743076639563812,0.003534699562268932,0.004914827308298357,-0.0003689030283888918,0.01001449024802321,0.0068845634931113675,0.0044368298213581904,1500,0.9254517848332133
899,8.309486256701419,0.0535759310801448,-0.002865786187550637,0.0016046044444375056,0.00047873074915374665,0.0033105930679759475,-0.0058329565542022095,0.0040091755436463365,1500,0.9128763815014943
900,2.8718435592011837,0.9160313258525105,0.0029767145049298263,-0.0005379714581492255,-0.0012665150797102475,0.006771093356669996,-0.001893607263108795,0.003945099658786104,1500,0.9057398071178764
901,8.35924748035352,3.7451241632595558,-0.005566723331603798,-0.0025006339120499763,-0.00014462539728412078,-0.00498765427894139,-0.01114706020836616,0.004835699637831836,1500,0.9790572527646526
902,0.9151047224661246,2.7301755681905098,-0.002193503265876906,-0.0022021789713325985,-6.856475342689958e-05,-0.0042582785636228054,-0.004533085910796203,0.002201060065006434,1500,0.9317678338290778
903,6.004421837959015,1.8558977293951102,-0.00548564811024989,0.008068912651211922,-0.0018927675715723217,0.016656515542636925,-0.011489986460712859,0.012256043784160347,1500,0.9640771670963344
904,3.836502612078627,3.288841112452049,0.0008482954683082678,-0.0044418571208828216,0.0010669535122962745,0.002110758956098368,-0.009297882261247475,0.005256698254856517,1500,0.98572525700723
905,4.160351248301552,4.090202840948223,-0.006523924240745849,-0.002182422478864404,0.0028550060140056536,-0.0015332807845687049,-0.0158794126546518,0.007585497642334165,1500,0.9670153564823966
906,0.22757107025036194,2.757085094713579,0.010175306215612209,0.007175741843472872,-0.0002674997483637726,0.020397949909179106,0.014304146208991057,0.009067933907470313,1500,0.9487127736033237
907,9.973001791527707,2.8857143958816596,-0.004853470714219032,-0.0029222670968731762,0.0012892926883508508,-0.004554146596088422,-0.010997329026095995,0.004785343466686006,1500,0.939662007354341
908,8.98009041188341,4.773668894013859,0.007595227232733956,-0.0007874086783739897,0.0008133311810426893,0.015346824073647427,-0.0017311869649274947,0.008140796018270465,1500,0.941690847509083
909,1.9574344987548042,3.975536964700181,0.0012219281989919247,-0.0001900170031696204,0.0009811987040329539,0.0034494704693646926,-0.0013856480777200838,0.002156305824746099,1500,0.9416095764355477
910,6.850071019086565,0.5515720677581676,0.0057595813047673725,-0.0007658076648988281,0.001018633267469024,0.011829792667037778,-0.00184224538730069,0.006425170106419466,1500,0.9690865724635227
911,8.532989027349181,1.5200526985324907,0.006866166551163973,0.006615582194820146,-9.889344952662281e-05,0.013800985612716877,0.013162511879251363,0.006746541443233866,1500,0.9637651302639969
912,8.959196732609417,3.4662065750694264,0.02000268629700977,0.014976516056490388,0.0017873451703030122,0.04114692464928364,0.02881148005771668,0.01828706504773815,1500,0.9335741701146266
913,9.317826202147995,2.336664313974553,0.00532488160405951,0.0035326404031823535,0.00344016982216621,0.015967458866560234,0.0017475851479234932,0.00758467702903782,1500,0.9003268179551962
914,5.618218896854402,0.9347603605426363,0.0016722392770716662,-0.004460780942054007,0.00032820521590828635,0.0033795059729012987,-0.00895658930286598,0.005520652126491677,1500,0.9808791066372717
915,4.857153171402268,2.224071760791243,0.0032828249875436148,0.009074148080477996,-0.0015298667938559638,0.018906888547974583,0.005807057588068641,0.00838747521289026,1500,0.9004009480784186
916,1.947021832004503,2.164420603233639,0.0021506430187870663,0.0009225080232547824,0.0006677875847208581,0.004887559099916469,0.0012587429841672286,0.0021977538038099238,1500,0.9420125946823159
917,7.525498487722019,4.069378305407593,-0.0012240874171674998,0.008906674021009534,0.0025296269454523203,0.01900638354876685,-0.00364121034108278,0.010532180076736236,1500,0.9556828184255175
918,8.934509932364648,1.1288957795067707,-0.0012581780808630788,0.008167352543044782,-0.0006392747614998368,0.016421025829028622,-0.002602676904665216,0.008932561796929068,1500,0.9897957029009526
919,7.239017010458676,3.9170008018572138,0.0017231339729236418,-0.0022386251658457856,-0.0008708862344709471,0.0038122457222781107,-0.004843228108122398,0.0037567822531902667,1500,0.9632031155106265
920,6.831897872952524,0.09995904152211577,-0.0032295620136006562,0.001795654685150708,0.0016979089164400533,0.004631105583615128,-0.0074989202405150255,0.005301161077941576,1500,0.903806351761537
921,2.1166520198595187,3.7945087731111693,0.005269441792997494,-0.0007282533294765896,0.0008309223085168742,0.010764858949119693,-0.0016824820220778854,0.005848602730592062,1500,0.9059480997400877
922,1.7427026394303624,4.446733515825075,0.007228500259224488,-9.019098694435369e-05,0.0006281873373190605,0.014564056297315425,-0.00028743775275515745,0.007354940786746382,1500,0.9211518212442344
923,0.10021065428445164,0.143639286069151,-0.002926297191545345,0.0008592986839919833,0.0014793738808234526,0.0027376788437300523,-0.006871675858836776,0.0042874017825495206,1500,0.9621599992443528
924,3.9740343806096403,3.927193648339024,0.003913696716351087,0.003657509005897974,-0.0003163893784470939,0.008253877750505501,0.006888533693992622,0.0038314905514403993,1500,0.9738478592623215
925,2.121572498727826,4.17393369183897,-0.0031389410254857248,-0.0049725141553773715,-3.353912774554486e-05,-0.006276655487430491,-0.0099462548742957,0.0043558918402610705,1500,0.9564874691579868
926,6.373323414586897,3.933331521683761,0.0014108355725885773,-0.004421262760569719,0.0004569140255443312,0.0028928306138249317,-0.008913684989787216,0.005329353381928451,1500,0.9429134673207403
927,7.626525004403613,1.883974065422354,0.0045379385312294684,-0.007919277946144457,-0.0010682930323926607,0.009257776154474796,-0.016020454984304773,0.011075594604444848,1500,0.9792827709950087
928,9.29674987958967,1.3991224021566402,0.011874941023048188,0.015706445179265546,0.0021706415349814563,0.0333716506861398,0.021791121718487672,0.014674078788966233,1500,0.9472202504340815
929,9.416177304976209,1.2704987605327562,0.011094454438216512,0.006716087474450079,-0.0005721559540317717,0.022335975263444982,0.013285108561888201,0.009729517514500208,1500,0.9171140465699721
930,0.8161706703174165,2.6399778850943276,0.001770485549606016,0.0026166684607580168,-0.004365204340693987,0.013158474393475129,-0.0043841663727470625,0.007906568536669269,1500,0.9674456287967501
931,9.480464600714807,1.0780784748802608,0.006315199207809477,-4.712885527857302e-05,-0.001994402276280946,0.013777383246590932,-0.0012412425415291263,0.007219038134803097,1500,0.9493078990204906
932,2.9782550598818833,3.851812385180988,0.002788938564337655,0.0017891632508504447,-0.0017882100801079684,0.008291635420779604,0.0008645682095965953,0.003947467914682806,1500,0.983604248141067
933,3.690918329830012,3.428486261888523,0.016340750476844506,0.0034494275320540897,-0.002170886749377893,0.03339301610913995,0.006187339908657238,0.01538475510666344,1500,0.9120422239017025
934,1.5585205028663407,2.0812406621526938,0.006062206661846203,-0.004322534510383785,-0.0025471032441725036,0.013306598664590486,-0.00982725436166565,0.010054946868020848,1500,0.938673051189798
935,6.572557575417056,2.7089856318347434,0.00597629009542795,-0.00424900522727959,-0.0015910112958244765,0.012436249907326936,-0.008981680171030217,0.009314361352862328,1500,0.9888273721581936
936,3.095853476515086,1.2438398781541045,-0.003448116577665343,-0.0034022752353484566,-0.0013667411552939293,-0.004116525142716553,-0.009584258483311046,0.004163830835441472,1500,0.9720836552117347
937,5.956193604232287,3.0695492499136714,0.005510227997029051,0.00041184242852710144,0.001305338086961739,0.01164999897697862,0.00019414187413368568,0.00577707570047011,1500,0.9021398844091194
938,4.857829221126588,3.295540751856981,-0.001828885495787141,0.0007560330827361556,-0.0010800595683000897,0.0022958147925217476,-0.004441519618623718,0.002966258945451869,1500,0.9142684721873132
939,6.8361859884582765,0.8075286965274281,0.0005006811358275664,-0.0018073710721862382,-0.00042843304671465567,0.0011552857940225615,-0.003768665666739905,0.0022299894663842953,1500,0.9375844292741333
940,4.934383672052434,4.452239135873453,0.0011469281664831287,0.003627539572297583,-0.0001377114800019389,0.007270322452812372,0.002278613024749051,0.003220380973166062,1500,0.9012694825279718
941,9.32422916234308,3.098053645686229,-0.00234461907831705,0.006224045403179609,0.004474710504814476,0.01626950894783366,-0.008510656298108543,0.01090404043029679,1500,0.9736812046212591
942,5.8402056062523675,2.5642224317247435,0.019680234198751166,-0.0030245369795579586,-0.0020281122414509537,0.03971994642256138,-0.006408551984174966,0.021640766066631335,1500,0.985447399301829
943,6.986003758589013,2.3152582543331155,0.008563754061753635,0.0038651322368734383,0.0032285638399041786,0.020414595091626464,0.004443177505627683,0.009297739636653136,1500,0.9602186701994175
944,7.7725205727487605,1.8273591753556684,0.006261255260540152,-0.0012192423080503523,-0.0016617049706254387,0.013227542716121084,-0.0031435168111414837,0.0075238053395033375,1500,0.9682032607496848
945,3.291496745007599,3.563722472657492,0.0071741689968645855,0.009459197551767527,0.002048629502692443,0.02132472955461762,0.011942003542646604,0.009256018897222254,1500,0.9458518634642601
946,3.8267772257190256,0.7049734270325575,-0.0033296367293330414,0.002689233822916664,-0.0017189747295143646,0.006291140876001404,-0.007571946688834159,0.006011426900189138,1500,0.9290889596978024
947,9.237792796877365,0.6027547580738868,0.005817825194361142,0.002011812401629454,0.00042711737661797056,0.011730336301616722,0.0039289388903644695,0.005170821406236378,1500,0.9299785499381727
948,8.313168098007825,4.834221210986009,0.002960098411041025,-0.008405265183045536,0.0019697632475382584,0.006583605344516696,-0.017473938888525716,0.010767124930413598,1500,0.9149235947366647
949,9.829947069546419,2.7539886045540634,-0.0019363677137029054,-0.0022929057949013574,-0.001024189704611142,-0.002150096361877581,-0.006308450655330946,0.0027773947879709744,1500,0.9306980599781927
950,9.634327201377221,1.448262983075811,-0.0021555764230971053,0.00406328353749758,-0.0040419240237732105,0.012106864847532551,-0.008291450618731601,0.008884084109100071,1500,0.9559058324213148
951,0.8892901549315768,3.4209416142649967,0.006140662016452985,0.011910091699406343,0.0035474958910471856,0.027195436720454397,0.008906070711264254,0.012007345579625408,1500,0.9867137008012717
952,5.992597963364382,1.4981167995313989,0.010065766847790926,0.011854911435650314,-0.00031871428951286415,0.023819981721448263,0.02002137484543422,0.01108307490111621,1500,0.9078382375925299
953,5.365998697680197,2.850631657602528,-0.005852924026124631,0.0007245884071435288,0.0011951692716391348,0.0018700490633065834,-0.012126720301268788,0.0065808812233763,1500,0.931671912960356
954,4.093638530854017,1.8147928015531123,-0.005257220657277648,-0.004186199479813895,4.2111423268394886e-05,-0.008369092509943008,-0.01051774776424008,0.004812502556804252,1500,0.9568169803480804
955,9.788381949021979,0.5631173603802936,0.008056088452632656,0.0006940369508767121,0.0006941208128225187,0.016241922058897216,0.0012583287481215217,0.007825371332310397,1500,0.9448199215242415
956,2.530216133451183,3.3640718137132737,0.007087059352540221,0.008514363869294857,0.0020026775058259254,0.019853489419921933,0.011349357023748225,0.008626189880323078,1500,0.9459953072285963
957,9.62079630764727,3.200598885307068,0.0027162834905428168,-0.0023733731613586263,0.0006678585975525538,0.00560491995094887,-0.004919099292580489,0.004560258306074707,1500,0.9162554192475033
958,1.620207695731084,2.9221783516852446,0.0031873197757194896,0.00041274386421892215,-0.0004514536289832241,0.006517856128304864,0.0006822711515719598,0.0031024585906628023,1500,0.9056084808744341
959,2.2853238183748594,2.154400119824314,-0.005755718690658913,0.001461875576485026,-0.0023735822595996187,0.004344978447674302,-0.012932664676022075,0.007783392618606266,1500,0.9431136532197639
960,3.5532293065977494,0.1229293555883032,0.002107096584949312,-0.003220146395218189,0.0010937849894905062,0.004645854615286637,-0.0068719542358243926,0.005018311977851424,1500,0.9016405603850886
961,4.012405804050322,0.5395140566937917,0.009335285455724759,0.006697019299222507,0.0009690423998213341,0.019305929810318014,0.012758679699576518,0.008502715136427865,1500,0.9694958794653256
962,6.21985590769802,4.186734651388214,0.004708973491558504,-0.00625307143956159,-0.0049749383377651136,0.013260174237084442,-0.016348370133090612,0.012844100428440834,1500,0.9658494315875618
963,4.272369516889796,3.127404808127024,0.005888541449735822,0.0011289820008926388,0.0032452217945617154,0.015066080099535509,-0.001031033198278587,0.007803579751820923,1500,0.9418961307509847
964,4.728984859731869,1.7067396703703879,0.006814752169864955,-0.0008954059784931166,0.0016471827953888965,0.014303818942737488,-0.0024651265599938124,0.007841186282835136,1500,0.9219323333940664
965,2.8253053471942047,2.903304474930277,0.002055744826874586,0.00024064529731010606,-0.002348140396750974,0.0073312326831571645,-0.0027384524347877806,0.004508944621066399,1500,0.947002918534815
966,6.673464185339263,3.811741054236692,0.011718702386118697,0.0038452140866087133,-0.001525535533466013,0.024007899694998183,0.007119933250456635,0.010678694371785424,1500,0.9424515099470044
967,1.6895982359682171,4.805334390850203,0.0006818816866970836,0.0020628924681234716,0.0020470156759322053,0.007065455060472424,-0.001575906750831314,0.003985556285713603,1500,0.9695739495668597
968,3.8131594061778094,4.081073475853485,0.014531067841785584,0.0063656764539118,-0.00011377808409945842,0.029065305878182315,0.012728182713212455,0.012617944733001362,1500,0.9790527809692611
969,6.647605077609228,1.036260354712768,0.0029732827385192864,0.007861038886681639,0.005184577815639264,0.02229772202253391,-0.0006290787721320613,0.011309411689904769,1500,0.9340073187156039
970,7.200930471872368,2.7832134652616918,-0.0009251750813518535,0.001561578723954465,0.0004050676046826884,0.0032517933928423227,-0.0019789861076370996,0.0022872363363508528,1500,0.9597705165112624
971,1.2021143928003442,1.0133098405902126,0.007727961236934264,0.0038126152392395324,-0.002965032642971593,0.018646602691803217,0.004434550260544376,0.008436108865081901,1500,0.9842801514656078
972,7.611514821046804,2.314167313656172,-0.0011830975695595134,0.00047533130577394854,0.0019926920509357876,0.0036089075452936563,-0.005024440072864786,0.00375506163085656,1500,0.9340670596259857
973,7.725450256267462,3.186486048378721,0.0035182751582646474,-0.0016691696899671206,-0.0012235434466697523,0.007584767445523896,-0.003886556508928842,0.005052540103351202,1500,0.9143236704688589
974,0.8664243247547776,2.7992316385915617,0.005325281548728822,-0.006404832947027592,0.0024343875118820794,0.01162086419787699,-0.013779966994474528,0.011012119461851134,1500,0.9512779583927325
975,2.165257217454383,0.15394035991263266,0.003928024629623068,-0.0015793940145812854,-0.0020525284235278288,0.009217629948284452,-0.004520368718200888,0.006063528702129155,1500,0.9739282194934294
976,3.550466940632069,3.789426896616756,-0.000982642996862761,0.0021260831702228505,-4.2522831969441016e-05,0.004253329423297715,-0.001966449076577535,0.002753256656701594,1500,0.9500765869473063
977,8.715501492084487,2.454092927192033,0.000503636432606128,-0.001528755801710773,0.0005661272240096686,0.001301384086549616,-0.003351622824758906,0.002078985612530012,1500,0.9827967504535502
978,0.8648848140087118,1.4815178392995327,0.007958907509944341,0.005793948942592055,-0.002358455288613951,0.01894287485249574,0.008562838052577054,0.008215076590936652,1500,0.9848169740086091
979,7.9310141884592325,2.847524987813825,0.01701256528503796,0.0017235858566903538,-0.0021214996122926036,0.034602969801442895,0.0028693324820137263,0.01663062809056297,1500,0.9637663113218357
980,9.103316514812237,4.834955816891394,-0.0032976129214531257,-0.004752212503317753,-0.0013183617080432149,-0.0050384851390344355,-0.011061165710507321,0.00479594100043947,1500,0.9597993654385799
981,8.184580559643063,0.6696775227873608,0.01245612356689031,0.0016942313833362668,-0.0028945173155709224,0.026370471370744067,0.0019302385297090847,0.012730144158751752,1500,0.9006797429852799
982,0.11641952083326634,4.506121828144404,0.0016026921670238131,-0.002960042822154124,-0.0015865382405046815,0.004200253589128483,-0.006914954899389104,0.004860640276969505,1500,0.951533180697463
983,6.469528466076728,3.376241385623013,0.010539914280257249,0.005412023340990097,6.879684720263016e-05,0.021081674213876467,0.010822201028618222,0.009129716676894212,1500,0.9152930757728422
984,1.2445826724280618,4.721384175017146,-0.004410371507707943,0.004904593102707565,0.002589864847228296,0.011152465606136199,-0.010164022416136955,0.009233617265023364,1500,0.9342452490147333
985,7.370079400939101,0.705683657312402,0.006753070322674485,0.001655708921174759,0.0040789231739096375,0.01802821531318967,-0.0012106568254911798,0.009331508710387786,1500,0.9876857303908246
986,1.7290569577933645,4.854598423463432,-0.0006245839156313756,0.0029933286854666266,-1.2683405946894378e-05,0.005986746298902005,-0.0012492567592315026,0.003349655093349536,1500,0.956378269787405
987,6.728581383294429,0.5149159609449194,0.004282853887483964,-0.0007727577327245622,0.0004593950253637191,0.008648518481865573,-0.0016283261723467708,0.0047835898405581955,1500,0.9147997459545456
988,8.881752581383695,3.99536045254675,0.003820237471051374,0.009381199261502656,-0.0003140664295403639,0.01879776114447978,0.007605112320628282,0.008188932662047219,1500,0.9116912078752877
989,4.720541101964869,4.845045536615435,8.43846666434122e-05,0.001863660703943783,0.0031664606374529436,0.008526169350193152,-0.004630078609018763,0.0057794901600198905,1500,0.9874921572695073
990,3.8811067449666514,0.5039998769861376,-0.0018085145754209494,0.002392155282708413,0.0005971853402210534,0.004950807818733544,-0.003783526404158617,0.0037933192000242978,1500,0.9110937277641566
991,0.1314999288602503,1.0981538936481794,0.010840422850317182,0.007373050206716125,0.003219940919612026,0.025527483663585687,0.010899462450480926,0.0110929578365912,1500,0.9288640759042424
992,3.2062785437680494,2.3775252752049,0.004429037220147951,0.0024127684680881343,0.00374905615359391,0.01460627784362014,-0.0009226664671479687,0.007544391768571913,1500,0.9809095801167885
993,2.819131995802553,2.5378902690525313,-0.004039036491224265,0.001105040472189306,-0.0029850609256044623,0.0049466056536677325,-0.01081459769173765,0.006980687301604448,1500,0.9628716499613321
994,8.267415131888278,0.2472243542037611,0.007795879488788421,0.0020634317593845692,0.001189460600868445,0.016065777477390762,0.0036528450189552185,0.0072932620865359754,1500,0.9121960255922655
995,9.694118861182998,4.921192796624416,0.005340007650670035,0.001613825428320398,-0.0028433477533384814,0.013752578532367435,0.00015508762561343252,0.006837847133965209,1500,0.9105853260305982
996,0.4434277649770324,0.1643603906465263,0.004939565029766203,-0.000694972451767868,-0.0026316849311712564,0.011955044895380743,-0.003465859739384074,0.0070066002984522004,1500,0.9499681247042996
997,5.265561434801177,0.7540387751427907,0.006784675786872646,-0.0057864005649636745,0.001487209218506533,0.013916445590894728,-0.011919895147076788,0.011198592885549308,1500,0.9475916019260391
998,7.881097727602989,3.5253020383677107,0.009882839613059469,0.002150567258427545,-0.0006471849385904512,0.019873268422889466,0.004193545320084565,0.00907184061216667,1500,0.950376058347065
999,2.2919733553773236,4.449321249890257,0.0064348939003666,-0.00028899812933540214,0.00032884490019739087,0.012901876817528697,-0.0006100852754663006,0.006608741834310815,1500,0.9495692156947015
1000,7.111161963804262,4.40021296089083,-0.0046286858248888825,-0.006709230851525338,-3.892798409237226e-05,-0.009255915437307078,-0.013419917915521362,0.005948792777535681,1500,0.9698111247607557
