Point_ID,X_coord_mm,Y_coord_mm,Exx_strain,Eyy_strain,Exy_strain,Principal_strain_1,Principal_strain_2,Von_Mises_strain,Temperature_C,Correlation
1,9.511377190849847,4.762929643901323,-0.003933978978516987,-0.00032839065260243543,-0.00010991334022448825,-0.0006500862887709132,-0.007874652973467932,0.0037852862411089424,800,0.9184301476649609
2,5.903220283331803,1.9458536140469977,-0.0015439733881231145,-0.0002027080776176853,0.0024186758516540744,0.0032731755177462267,-0.006766538449227827,0.004434179420894943,800,0.95055973508599
3,8.159434018009073,2.664141558987094,-0.003790014698692473,0.005956729551995623,0.0008496214269197795,0.012060472974696975,-0.007727043268090677,0.008636463433452713,800,0.9294840449345314
4,4.935992074347154,0.9018065650480245,-0.0001539784649098922,-0.010330852886346938,-0.0012128051420733617,-2.2883242025073178e-05,-0.02094677946048859,0.01046767360955948,800,0.9178081554370736
5,5.430898561882211,4.609279743242972,-0.0008225183649419976,-0.0003450689437430898,-0.001823905603389934,0.0025113370653829592,-0.004846511682753134,0.0032390860506375245,800,0.9598405964192425
6,0.096222025163476,4.1360295468566175,-0.00623689803688705,0.0038783848252022944,0.003318679100055463,0.009739977241948628,-0.01445700366531814,0.01054375405559692,800,0.9049636506603836
7,8.057717834674477,4.048738993057901,-0.001319368375909348,0.005151720629328266,0.00041353361348607287,0.010356080720456653,-0.002691376213618817,0.005965819791302797,800,0.9160930772696128
8,9.883058706035431,1.3917081829397715,0.006492024455596801,0.012907965916908045,-0.0025752931122993692,0.02762755643374063,0.01117242431126906,0.012035760843516265,800,0.9242426099561503
9,8.848828317715821,1.4692734391511402,0.009208986948537452,0.008756888424653077,-0.002128706995108254,0.02224722644024748,0.01368452430613358,0.009718057660911246,800,0.901808707227535
10,0.09034486809524567,0.6723518416850544,-0.006214492734059317,-0.002239129011841122,-0.0005479964317021581,-0.004329944129917143,-0.012577299361883738,0.005533486059087116,800,0.9386862060129562
11,9.788451957512306,2.5848883288020605,-0.002889467646521149,-0.0005453848988017384,-0.0008488548676691014,-0.00054055776530861,-0.006329147325337164,0.0030384633792825606,800,0.9518270384971411
12,1.9696307679741587,2.478786924153522,-0.0035542878299992383,0.0010656987150147565,-0.0020232801687984055,0.0036529844815721834,-0.008630162711541147,0.00546236795055462,800,0.9099700212710476
13,3.3777004066564564,1.3380438804602264,0.008885412685656714,-0.0026378927054517996,-0.0006349618770103858,0.01784059004286635,-0.005345550082456519,0.010514624652554054,800,0.9671618364207046
14,2.5083058381514824,2.8017164444372753,-0.004862542095963803,-0.00244144507697137,-0.00040647124681959655,-0.00475005172478102,-0.009857922621089326,0.004269542933453668,800,0.9809598910426379
15,9.53623021868481,2.083739014189017,-0.0005397327678540289,-0.004686612756477343,0.0024958253387723237,0.0012631221061200227,-0.011715813154782767,0.006197867736563275,800,0.926954104958608
16,6.3489823915089785,1.35785532139242,0.01903772277237354,0.009910121156741426,-0.001122961566042076,0.038347699351881884,0.01954798850634805,0.016606094619530203,800,0.9538206128353518
17,6.334966287939875,1.1683258570645179,0.0004560705054168393,-0.003255780865730658,-0.002112780146282746,0.0028246296354186343,-0.008424050356046271,0.005067987254927633,800,0.9130010476493827
18,7.351890942571283,2.8533348416748487,0.0017463808929569107,0.006734412792175165,-0.00021752307066615743,0.013487761567264635,0.0034738258029995174,0.006064920519839833,800,0.9786770090041165
19,2.6083176336211467,1.7035855110221725,0.003053204666736103,0.005662601666419056,-0.0021980190439395086,0.013827958871180351,0.003603653795129968,0.0062122377359768634,800,0.9897946171052752
20,9.90664799274201,0.3401814247598023,0.0032353540213945643,0.002233457945932988,-0.0007152499854362075,0.00721527293531146,0.003722350999343644,0.0031248312783276368,800,0.9002956327814327
21,8.354124407312307,4.511854237084383,0.002480061920163064,-0.004392467905736177,-0.0008999503152445861,0.005191910201612672,-0.009016722172758897,0.006226379809250833,800,0.9635635484613563
22,3.1236442542344554,2.416541178978247,0.0029781512797202067,-0.0018853697894335815,0.0012684263244284093,0.00657816739759658,-0.00439260441702333,0.00478180266849901,800,0.9090168591191106
23,6.250123305916334,1.0944621211757704,0.0053536536710504295,-0.004821924288907933,0.0009423358754661337,0.010880370569658493,-0.0098169118053735,0.008966128755205492,800,0.9025526459823647
24,0.21742688522770837,4.5257091200443895,-0.0026356944760810496,0.005544007558275881,-0.00013455339350526083,0.011092440637021798,-0.005275814472632135,0.007235297445252333,800,0.9551443347885908
25,9.51634201032625,3.744207693183552,-0.0031550962222784504,0.0010330407038029626,0.001661254140092729,0.0032239291600947373,-0.007468040197045713,0.004749783578596373,800,0.9302836924940974
26,9.8785198717566,0.16784264882702737,-0.005372013876147066,-0.005426680498939011,0.0017922054485544014,-0.007213866635994587,-0.01438352211417757,0.006228257580643945,800,0.9298473943324254
27,3.9009973106158693,1.8742151985473843,-0.0014009461271811542,-0.003312944097958765,0.002102780504195883,-9.409806146384436e-05,-0.009333682388815993,0.004643495449587473,800,0.9403193956117141
28,6.807372197753515,4.998269254660694,0.004993186370076931,-0.00011196588135009111,1.718348657210466e-05,0.00998648841500588,-0.00022404743755220086,0.00505018799790778,800,0.9526336803083953
29,8.325667041280123,2.6653744501908863,0.007835025088824074,-0.0064321622239249835,0.004006487876533856,0.0177662492575844,-0.014960523527786217,0.01418845716530403,800,0.954276868982033
30,8.12212628036797,1.3808651962994,0.015289675112713287,0.007247979719448568,0.0022039541908556344,0.03170817941364658,0.01336713025067714,0.01378623814382041,800,0.9022623479568822
31,8.718043298534614,0.07096646035843479,0.001325904404359019,0.003731307156802107,-0.000400160796190223,0.007592261275208398,0.002522161847113854,0.0033486870536232264,800,0.9111469131426457
32,3.938245511776204,1.415402183849097,0.006867251538644916,0.005016408012291405,-0.0027495330068135937,0.017685844379194925,0.00608147472267772,0.007781667730415874,800,0.9895316993343449
33,1.5884009364851737,4.662726557472979,0.00624441930095238,0.006161361241407203,0.002990759107261054,0.018387875392152184,0.006423685692566981,0.008081766008134192,800,0.9048915963471924
34,9.855726072026343,4.674157279719912,-9.313197579190972e-05,0.0008966566106816485,-0.0023635782119392932,0.0056331922530317895,-0.004026142983252312,0.004201866244422365,800,0.9579597640478446
35,9.5866298617376,4.4910704956499865,0.0020195641110359805,0.00584518807499627,0.001871010489502074,0.013216211773932958,0.0025132925981315446,0.006078007200359799,800,0.983603680883934
36,8.814344352594144,0.4096825730304554,0.00411853500551371,-0.0001545193308484503,0.002002547302263836,0.009820616749753108,-0.0018925854004225888,0.005445474008916768,800,0.9669017236376626
37,9.286038222823397,2.164268729132261,-0.004917279158575314,0.003126769380161003,-0.002179723489596555,0.007358888827939104,-0.010939908384767726,0.007974026740618924,800,0.9355103791000248
38,7.619430188428636,0.7191375477949841,0.004547636824920591,-0.0008582945328565374,-0.0010826453571398389,0.009512792963473907,-0.0021341083793457996,0.005370032116175936,800,0.9010019289600851
39,9.040702907058256,3.906179020666045,-7.23068918881617e-05,0.005350140552915835,0.0034983860163712217,0.014129825254439194,-0.003574157932383846,0.008107539603094169,800,0.9853640691923395
40,6.456673079010064,0.5584974625715061,0.006466840152873626,-0.0005684470435841573,-0.0008381000632912015,0.013130606657090562,-0.0013338204385116258,0.006922892814328171,800,0.9112009631988663
41,7.512966538771768,2.8825283559578114,0.000705476907728405,0.003340029966980082,0.0024726605304598824,0.009648815738013183,-0.0015578019885962085,0.005257312443779628,800,0.9444423294882663
42,3.8396137261909544,0.022736461178298195,0.006220759127192956,0.0029906235070942637,-0.00226897449727769,0.01478154934646169,0.0036412159221127505,0.006669517254635034,800,0.9222727155087459
43,5.605373941219657,2.2342510569290717,0.006966369378518424,0.0002940719118891291,0.001067915007744983,0.014266247692118606,0.0002546348886965002,0.0070703249173256115,800,0.9069801987152428
44,4.55992785755401,0.5775912451688753,0.005211800009933931,0.005652935249687909,0.000988036104130035,0.012889447997767828,0.008840022521475852,0.00570834602309859,800,0.9265187250612205
45,6.601331457718196,3.819046211484568,0.006751781196025268,-0.003780291046094152,0.0012571907764044618,0.013799539849961505,-0.007856559550099272,0.00949433692563786,800,0.9411421639799177
46,9.18296737765244,2.727055793484015,-0.004018451688337141,-0.0010579333461660356,0.004173593945890903,0.003780263008353689,-0.013933033077360043,0.008079144891070601,800,0.9703016628758961
47,6.723307336576255,0.4733010244875213,0.005830104794508832,-0.0036561842430717726,-0.0032166594160392466,0.013635913000383172,-0.009288071897509055,0.00998571158284493,800,0.9587999295321059
48,5.902925638564219,2.719609623186017,0.0027032892718884425,0.0018538227659769366,0.005233025837538307,0.015057580170764953,-0.005943356095034194,0.009374790173062222,800,0.9013831868664548
49,8.703435472917848,1.2698359812775184,0.003887363720881788,0.005516873702422139,-0.0003369655916532753,0.011167610900413244,0.007640863946194609,0.004943888640867325,800,0.9410389748462836
50,2.622926728171704,1.1949073304867175,0.008437217792684384,0.0025568001107844087,0.0029699643511759354,0.019352370917228467,0.0026356648897091165,0.009089205479161377,800,0.9244292210615329
51,4.535866894239903,1.1620934892903223,0.0055280260450087364,-0.0012391246469619687,0.001135670986155073,0.011427061023819879,-0.002849258227726344,0.006543214877474595,800,0.9250038610431167
52,9.445692261265668,2.758483878850157,0.007543725392989196,0.004913977123523509,0.0019259999706072396,0.01712176507053941,0.007793639962485999,0.007423860022143962,800,0.9483968902776952
53,2.318306081978294,0.7029988378916247,0.008159041864637116,0.0050751678259927276,-0.003046577459870316,0.020063325003917817,0.006405094377341869,0.008874890901049344,800,0.9263183003622394
54,8.01932043785878,1.491803352222999,0.0022750400631266886,0.011463190261676196,-0.0010526992265198012,0.023164513087226623,0.004311947562379147,0.010668919727517335,800,0.9038196308156509
55,8.352725761601224,2.6825878151341693,0.002382049221629824,-0.002958168884278925,0.00022056649917813917,0.0047822875392080355,-0.005934526864506238,0.004649448813795948,800,0.9340565466838765
56,3.9136880218278316,1.29293042940407,-0.001447675517157616,0.0029085607418331194,-0.0010410444634237918,0.0062891238935325975,-0.003367353444181591,0.004244698209826464,800,0.9835967368793774
57,9.028250710770543,4.46425827339888,0.0028156472639867354,-0.006750819836603504,0.0011326530881026792,0.005895844915854582,-0.01376619006108812,0.008738310731373712,800,0.9233529376241091
58,2.8190534499925124,3.822492688035721,0.0008163161975670466,-0.0033084397967275596,0.0026133677977149355,0.004166132703881819,-0.009150379902202844,0.005899317990761761,800,0.9533261043335283
59,5.590060410289307,2.8828552802707748,-0.0022996036661171787,0.004488389134841854,0.0013946426297580708,0.009527515503603031,-0.005149944566153681,0.006449063059906015,800,0.9528159755327492
60,3.464435546961603,2.3018066353120696,0.0047960253754846804,0.0013854939017092396,-0.0026944524315329027,0.012558981198427726,-0.0001959426440398841,0.006329044995982442,800,0.9127701381979761
61,3.2578977822381274,4.890602137555663,0.009087875996667473,-2.4617963172455636e-05,-0.0007948160590933547,0.018313364867434283,-0.0001868488004442507,0.009203750261436664,800,0.9233610284167264
62,1.5334116265865616,3.1409483378072576,-0.010373262871511186,0.0034773895508279974,-0.00031656379181262107,0.006969242007419836,-0.020760988648786213,0.012492771290227224,800,0.9449489845920966
63,2.458192664063742,1.7843099397578506,-0.0003753913865989014,0.003442735339542761,0.0007957161536230688,0.007203858002892682,-0.0010691700970049635,0.003896820639378123,800,0.9447618786408345
64,4.136178197113075,2.1504095726575216,-0.005494115524306485,-0.003397925346026504,0.0016861008158733483,-0.004921429190922305,-0.012862652549743676,0.005620624123833801,800,0.9158145968050809
65,7.054711775248819,4.021465749941642,-0.003350457051596749,0.0071901898498200065,0.0013575010952413722,0.0147244226879111,-0.007044957091464584,0.009619939837984561,800,0.9281985817074937
66,0.2733573262001676,0.07121242044619946,0.007401511573976322,-0.00033987180732443826,-0.00023373835403029712,0.014817124995111723,-0.0006938454618079558,0.007587974195734582,800,0.9849271796403308
67,2.5743129181103708,2.9483711224741604,0.006542338271342534,-0.006039326824816355,-0.00031093195265016613,0.013100035353331239,-0.012094012460278882,0.010912241456744704,800,0.9356004079824858
68,2.833212402881032,1.4437518761091943,0.005360398291290725,0.012999928437115343,0.0018339838352395578,0.02683478291630645,0.009885870540505685,0.01175319978363075,800,0.9039756030892612
69,8.578348330030941,4.404726463491441,0.000535359709118796,-0.002023319401115963,-0.0018684378962657983,0.003040956235458364,-0.006016875619452697,0.0039920941396367855,800,0.98324278191396
70,9.25701062110968,1.0347981469206697,-0.003028452553370458,-0.005655133846026147,-0.0011935379430794047,-0.0051342785937155844,-0.012232894205077628,0.00531971405373894,800,0.9048891414866144
71,1.3127904481846853,4.20716484022879,-0.0032407713195882456,-0.0036349375296187217,0.00012443011486945002,-0.006409556068377026,-0.007341861630036909,0.0034614761094181145,800,0.9846941958192904
72,0.491839410664473,4.718647461711867,-0.00024271098786433345,-0.0008002913079657773,0.0035072981427923,0.005993719729594916,-0.008079724321255137,0.006116253436099831,800,0.9437651346556457
73,4.214452522382018,2.5946880453841685,0.0019246361079792644,-0.00017322653182207603,0.003384443487137794,0.008837936124896844,-0.005335116972582467,0.006199274374502048,800,0.9525057982174789
74,1.2280389905508493,0.7445278752481171,0.00801796456653989,0.0025397465065010827,0.0007412800445502368,0.016232995870399513,0.004882426275682434,0.00721269429019418,800,0.9245523501974082
75,0.3759285902477494,1.3388554790564462,0.008058551782846696,0.0019898852921518533,0.000668175715815805,0.01626249759321901,0.003834376556778091,0.007362315057482333,800,0.9571882372698843
76,6.346805856830697,2.066251423620493,0.005642281649155924,0.003258186880631511,0.00020094170279496982,0.011318198485136882,0.006482738574437987,0.004918195666622024,800,0.9078226777816294
77,8.560127988214472,4.2963869721108345,-0.0075559574792128294,-0.0002670169058989224,0.0021411596090116563,0.0006308361501648381,-0.01627678492038834,0.008300597356955326,800,0.9461425482914428
78,5.179172743583869,4.020165303719546,-0.0009942369028465379,-0.0015039353505528403,-0.0023662005303046966,0.002261597941268756,-0.007257942448067512,0.004307177194108919,800,0.9430036085421792
79,8.57938995750564,2.1452384324629046,0.0007209461281970587,0.0017640590474934494,0.002241119884764136,0.0070870218981659815,-0.0021170115467849648,0.004174653412711057,800,0.9069611035962072
80,4.653967439901596,2.3754076185914434,0.0024327912246218148,0.0062377517288271745,0.002161957848072168,0.014430227960975536,0.002910857945922444,0.006608710715135406,800,0.9084836983754886
81,4.951036568938623,0.0223089283567085,0.00296216257974561,-0.00018268630159594965,-0.0015442665465260875,0.007187322821911556,-0.0016283702656122354,0.004062413748033851,800,0.9707813130901611
82,1.561612539284738,3.4184460631907694,0.005357683427555962,0.008105882250858992,-0.0034360364273525235,0.020864780584954157,0.006062350771875748,0.009295180835456182,800,0.9545085391386425
83,6.360742016930372,0.9461227189201143,-0.0006759755801257795,-0.0014558585623107457,-0.0007186995388825568,-0.0004964951639180911,-0.003767173120954959,0.0017725488381736636,800,0.9017520827807651
84,8.520937238187482,4.528185720649914,0.0014469258757464718,-0.004958822341136695,-0.0014219298161484446,0.003496751608690089,-0.010520544539470536,0.006318561154696324,800,0.9201024135494267
85,9.62803982868834,1.4698582758100764,0.0029550726125463847,0.012394509906485832,0.00035500386912185224,0.024815684537000372,0.00588348050106406,0.011229770097294088,800,0.9691372997446108
86,4.362660437080144,1.0170704971664368,0.0021871031502834304,-0.0018721212128626256,0.0018234035772642925,0.005771767149675304,-0.005141803274833694,0.004728338190605118,800,0.9488480474671677
87,1.5895989815280887,4.927559637368427,0.0024183889103000476,0.009653179795456223,0.0013504410866086419,0.01979406594858788,0.004349071462924662,0.009008796562449663,800,0.9608692872864114
88,9.179483292347959,0.3756649502701198,-0.0028265925658376226,-0.0023502447144830635,-0.0017326036618699053,-0.0016790423932539606,-0.008674632167387411,0.003984449505354801,800,0.9830513535684038
89,1.418329490406407,4.410190662802033,0.01180794511175337,0.0022863121958761473,0.0034788633550538305,0.025887113380577333,0.0023014012346817027,0.012408288078190468,800,0.9569311009984179
90,1.3802418700550356,1.4158061687659802,0.004849417632435323,0.017773621194282538,0.0011525991226973185,0.03575121374399538,0.009494863909440333,0.01603783663505686,800,0.9838207326259735
91,6.373188547418806,1.0711394082803183,0.008988043882781089,-0.000610234315994071,-0.001209793622731116,0.01827636233067559,-0.0015207431971015518,0.009541118037156418,800,0.9854283037209819
92,2.792080412863286,4.449488805730183,0.004663501390490025,0.003917849519045611,0.0009411608261213362,0.010605982114444357,0.006556719704626915,0.004635109976587895,800,0.9756540762315038
93,5.635717659365841,3.400122172503226,0.018215148778283168,0.009709234922361084,0.00220439932094501,0.03750499307526644,0.018343774326022064,0.016241424144976497,800,0.945649243174168
94,3.8473222803367815,1.2243042675248454,-0.00015740702591821726,0.0029854319124506495,-0.0005592167162294119,0.00616394004363238,-0.0005078902705675159,0.00321646990367368,800,0.9027662373263509
95,2.2307541834266487,3.9257768588679727,0.0016717632463566492,-0.0004130948324976315,0.0002940665545806881,0.0034248941091769803,-0.0009075572814589452,0.001978752603612548,800,0.9329269409877828
96,9.33435626489781,4.759605440089931,0.0019962142220408827,0.00031668648231867637,0.000177476061982546,0.004029526592199921,0.0005962748165191964,0.001883475708938005,800,0.9534943999966707
97,6.883720833441052,1.8391002962003928,0.001466998958744292,0.00018297303134950905,-0.0025100236805485916,0.006831631771465097,-0.0035316877912774944,0.004562652787516725,800,0.9416366586324306
98,9.54018978181508,3.0418895596557602,0.004573309016924225,0.001959442929543385,-0.0017370958695059253,0.010880429966075068,0.0021850739268601546,0.004984570204155264,800,0.9430067870734113
99,1.6291311369088979,4.06789230772119,0.0030542374192828784,-0.0008727239234135218,0.0015101257137677894,0.0071355970713212905,-0.0027725700795825777,0.004426845190153706,800,0.9380685755657682
100,9.410248354132753,0.6640896277303415,0.008004146335696141,-0.0013926445618290813,0.0008732396771333262,0.01616921433005395,-0.0029462107823198316,0.008912933911259592,800,0.9288224556777799
101,6.593801729935825,3.4108214889123776,0.0230583114434268,0.006678865557388879,-0.0006830268433620591,0.04617348894141407,0.013300865060217288,0.020583711683050586,800,0.9608419475432501
102,8.801247736228197,3.382340542089329,0.006033157569308893,0.001491311737848413,-0.0001489958448691883,0.012076080297115484,0.0029728583171991273,0.005449062446102003,800,0.9773893247221973
103,7.380114386416606,2.9606041808259436,0.0010820921424324454,-0.000908783676565136,-0.0004925356846577301,0.002394558593456349,-0.0020479416617217305,0.0019256097873325906,800,0.9724921433215772
104,7.122843410387394,4.261086673178611,0.00101672934024883,0.0026377065566778246,-0.0004733609550260673,0.005531627818695618,0.0017772439751576913,0.0024457335432447502,800,0.9045428182252456
105,4.552637237413412,4.774681814181926,-0.0028778023137900352,-0.002040386441154945,-0.0008754187104739274,-0.0029773907184835547,-0.006858986791406406,0.0029786184584579154,800,0.9056577785969002
106,2.771626849261689,0.5563315339872443,0.01021561332212281,-4.434020731860122e-05,-0.0013258229270622422,0.02076834215119313,-0.00042579592158471444,0.010492240147627167,800,0.9871553181897411
107,0.253162643704532,3.033570556691359,-0.001367556152977358,0.00010679884203043709,0.0009364237135245139,0.0011227862981168192,-0.003644300920010661,0.0021583181766152964,800,0.9281728956157548
108,4.7619270379737975,3.3799373572626563,0.008108261133786737,0.005890380737827169,-0.0007189888596577085,0.01664189240306743,0.011355391340160382,0.00736414106270701,800,0.9283557725404551
109,1.8036961357602788,1.3552198992304954,0.006098727219958911,0.01120652568828192,0.0015796485858978744,0.023311146997609996,0.011299358818871664,0.010095593960440567,800,0.9585284451791192
110,6.70806581494059,1.8897107492735477,-0.007203207877640441,0.00027890571600832454,-0.001250828709762734,0.0009649508874803574,-0.01481355521074459,0.007659420693570346,800,0.9703508328517397
111,5.745711871640453,1.7890435176808999,0.007147232472921316,-0.0009812626748133212,-0.001171754887089693,0.014625548477239706,-0.0022936088810237166,0.007948468371900958,800,0.9102414362464986
112,8.673143067069189,4.076842150408432,0.008460779737893321,0.0022989563689279607,-0.0007041404841372613,0.01708044196265193,0.004439030250990634,0.007675055189316706,800,0.9819390763113094
113,9.016353203914555,0.32641448377526694,0.012908627339306563,0.00849606899900883,-0.003128997080981611,0.029061925735277248,0.013747466941353533,0.012590279101836691,800,0.9014718573626452
114,2.1349810458588623,2.1886193817063426,0.0016651398577203994,-0.0035624085568928005,-0.002009285228977911,0.004696377557086745,-0.008490914955431547,0.00578852618062016,800,0.9394580823981766
115,7.0142831449990215,4.161624963081843,-0.006892358739903463,-0.0007458864397967256,0.0023041699877342646,4.3936741178846224e-05,-0.015320427100579223,0.007671221327494978,800,0.9265761280264199
116,7.671050043135297,4.574095105114635,-0.003158048773838155,0.004149517145584062,0.0019132988032295169,0.009240308830165448,-0.007257372086673633,0.007160885354785917,800,0.9006935134165046
117,7.613507284992122,2.544063066932407,0.007733681853669338,0.000974385973481842,-2.5038469912664827e-05,0.015467549204876984,0.0019485864494253767,0.007295584465444343,800,0.9584754752621021
118,8.159874327208062,3.3166260419074605,0.00598290240521324,0.009175915071241188,-0.0049444311303063725,0.025550397081826555,0.004767237871082302,0.011765888485031826,800,0.9109011173329501
119,0.6152149099318827,0.9935867414004457,0.005047082723597334,-1.2890075705594781e-05,-0.0011395112781724555,0.010583721325357457,-0.0005153360295739803,0.005425285735381374,800,0.9567538128950531
120,1.95027566281344,3.093689998536738,0.004395774346986903,0.004355434836744302,-0.0006054112510391524,0.009962703470810505,0.007539714896651906,0.004499633801774837,800,0.9643803404478728
121,8.103898057903566,3.132445361183251,0.003989089950792118,-0.0008889926221961877,-0.0007976415668243173,0.008232408490771895,-0.0020322138335800355,0.00470724062065441,800,0.9527293241886389
122,7.520448154539405,4.489969268569032,-0.005057742793273505,0.0009747361507634899,-0.0026132315771707285,0.0038986422669534003,-0.01206465555197343,0.00720748050959204,800,0.980147030266081
123,4.670198828547182,2.007591454645758,0.000386993366912514,0.0011139257172751015,-0.000704831297573427,0.0030869768618741154,-8.513869349888441e-05,0.0015652073281005065,800,0.9742098223196438
124,8.784304595058796,2.1953098127710002,-0.0015415213647568902,0.0026845163007477558,-0.0014073080695251843,0.006220539456767298,-0.003934549584785566,0.004434264665790177,800,0.9878794372831365
125,1.293549152665222,2.235447333620976,0.010416926872423885,-0.00021273099976025305,-0.0003910110438282371,0.02086258153960536,-0.0004541897942780936,0.01054667208748205,800,0.937660810306801
126,2.680149869913959,1.2778514233242961,0.002397897010930034,0.0032214783620183214,-0.0007546179817770688,0.007338700657920805,0.003900050087975906,0.003179843466616527,800,0.9450081759970482
127,6.210879048966419,4.639481511986912,0.007059236877582635,0.0005854242664808517,-0.0005515542387219296,0.014211783652184451,0.0010775386359425211,0.006852410855267674,800,0.9776507040791358
128,6.006830022118079,0.003929403597711656,0.008314756163663298,0.005374023969680361,-0.000743703572523135,0.016984274914383736,0.01039328535230358,0.007415584250323962,800,0.9587200627950452
129,4.930137966498589,4.434806525126661,0.006493853355649522,-0.003774426781587038,0.0012685210694831817,0.013296484756357687,-0.00785763160823272,0.009260369326688472,800,0.90557622489934
130,0.0400111067653075,4.716597420899679,0.004326441408156866,0.006059500483906965,0.0010304988130133623,0.013078748044486908,0.007693135739640754,0.005692569804335058,800,0.9688281660589793
131,8.475838157910639,0.5572849183882461,-0.0002957825905116722,0.003471344806301617,0.0014946715371276268,0.007984659931517826,-0.0016335354999379359,0.004457198052157042,800,0.946873181249398
132,9.25723154758593,2.7365983822438595,0.010040679950207203,0.0057371484744887045,0.0005992233830486297,0.02024511594775381,0.011310540901638005,0.008786493089397907,800,0.9255244548312583
133,1.0503702781265278,3.875895669892321,0.0005693415500630302,0.003258496457077282,-0.000636725342557962,0.006803275917993275,0.0008524000962873484,0.0032098300614258014,800,0.9479714879851228
134,8.845838223532223,4.9971670071090655,-0.0022688248405743653,0.0029674053804204983,-0.00014617924144327786,0.005942966148263543,-0.004545805068571277,0.004555182652758796,800,0.9735000659546216
135,3.66874044651468,4.588736675702243,-0.00503384481334826,0.0020838399340825558,-0.00010003197052568615,0.004170491012476547,-0.010070500771007955,0.006340483302175125,800,0.9267269416475472
136,3.615849985519346,3.1012940954000117,-0.0006584390503753842,0.002050600506441739,-0.001487316261124,0.005415510056773907,-0.002631187144641197,0.003553171660932069,800,0.9271356246773701
137,0.4837306332165092,4.5606770312189635,0.000375583874854859,-0.0006621081812465965,0.0007123170005049878,0.0014759701872534932,-0.002049018800036968,0.0015330734407182308,800,0.943800647644298
138,8.959388398516102,2.5418714558154845,0.0024172507794366607,0.004232788770881136,-0.001361762029855245,0.009923227828159471,0.0033768512724761217,0.0043693337743697085,800,0.903282341235323
139,7.92678920914593,1.3798800743736195,0.0057494076348104505,0.004550011098305668,-0.0024857349074931365,0.015413523168215123,0.005185314298017113,0.006792279049762332,800,0.9159368287156753
140,9.012553431884513,3.1211101567157398,0.004410364490801207,0.003242710845162187,0.00130177665523381,0.010506477669427954,0.0047996730024988336,0.004555087176108549,800,0.9696321591968027
141,7.731232465644606,1.5885855770357367,0.007076915956672816,0.0034189175909944943,-0.00015707679954757019,0.014167297087882533,0.006824370007452087,0.006135989232424705,800,0.9299483749073045
142,2.4911200510205935,1.0596974306784113,-0.0035480029541687837,0.0017980601909535266,0.0039921643107703846,0.00785890184414468,-0.011358787370575194,0.008367376884957733,800,0.9268032444495765
143,2.0521051641324894,3.5198426807660255,0.014159328652901882,0.004449449513500978,-0.0005166811208395225,0.028373489653400353,0.008844066679405366,0.012573139982908944,800,0.9052188826391854
144,4.469039764189241,4.871299386620399,0.006291031698711461,0.0005304041218668202,0.002731625518967398,0.014760701654558056,-0.0011178300134014937,0.007675086523975873,800,0.9455964331500006
145,7.262292461283197,2.3902175000513424,-0.003576444333397196,0.0010780129825458725,0.0008845777697250751,0.0024809144122688786,-0.0074777771139715255,0.004489538169484309,800,0.9250801175368255
146,6.167918322703842,1.1417414004264126,-0.007814185071276089,-0.003122284058319735,0.0021304440882850954,-0.004598559129555077,-0.017274379129636572,0.007747800760997471,800,0.9045884190602701
147,0.08987631856118172,4.496086980780724,-0.0030996365595081414,0.002057413802966517,0.000589437882415312,0.004247854417754134,-0.0063322999308373824,0.004610883261487657,800,0.9037470287676813
148,4.539666068586722,0.6607532078440487,-0.0020624027002996486,-0.0035537995778186513,0.0014384702802626799,-0.0023756696621631073,-0.008856734894073492,0.003970040394440257,800,0.9047460959943615
149,3.9061383013996487,0.9499302247010766,0.004916582854681974,0.000655367771525163,-0.0011690873972028436,0.01043250772947392,0.0007113935229403527,0.005047813384111027,800,0.9424840032421735
150,0.8600143623408218,3.206671426231331,0.0018310635940511307,-0.004558074688921495,0.0007785963746413018,0.0038491532322556467,-0.009303175421996376,0.005856073797426911,800,0.9142531293363284
151,3.099460809072726,0.4294000175128193,0.002997807815759255,-0.001863245748002602,-0.0017759543949683971,0.007155018678495752,-0.0048858945429824455,0.005244638321442399,800,0.968743140584672
152,3.814512532302655,3.870951353334048,0.005681892267035518,-0.00024279325430077991,-0.0008411637706034355,0.011598005123614747,-0.0007198070981452708,0.005987072980978212,800,0.9281744131626812
153,5.413668306629723,4.1232729775947226,-0.0005021827110828999,-0.0018788264354213558,-0.001040584514517454,0.00011426888833966859,-0.0048762871813481795,0.002467207022589541,800,0.9275412904059139
154,7.366272341238965,3.464637266360147,0.006979470517519574,0.004686691386239396,0.00026421595292417017,0.014019048731456468,0.009313275076061472,0.006178745075591287,800,0.917591906901905
155,3.7354031527471774,1.2907678410634116,0.010598571912813432,0.001962635600255344,0.0003452314722847948,0.02122470190461674,0.0038977131215208096,0.0097845840407695,800,0.9349050181178423
156,3.8949316472561977,2.313173677394909,0.005987328207578752,0.004280192677353868,-0.0012243634020809332,0.013252579457218427,0.007282462312646811,0.0057479063397566435,800,0.9528782380011539
157,5.897931193698994,4.751938713150864,0.004968503438248164,-0.0026038854393405295,0.0015181873773032948,0.010523088748002785,-0.005793852750187515,0.007163681895022306,800,0.9854014181613425
158,6.244189199704468,1.4246752976594972,0.011645667437343394,0.0065446417207809275,-0.0006941256869421606,0.023476868080346158,0.012903750235902482,0.010182466093517223,800,0.9406884228701692
159,2.017466969935009,2.801711280988069,-0.0030513158580769955,0.007068808623908819,0.00033934362108917226,0.014160349163493395,-0.006125363631829749,0.009010727715260626,800,0.9679133880462987
160,1.8385173898203744,0.7594621648356548,0.0014953174709369382,-0.000847867563986146,0.0025171833190115933,0.006200409798209541,-0.004905509984307957,0.004819888018507166,800,0.9338925556938392
161,2.431279285513388,3.1139710263939024,-0.005393070423784617,-0.010962915365539432,0.0008286697013822075,-0.01054479429608041,-0.022167177282567684,0.009602449047691062,800,0.9854118453891284
162,8.008578003849916,4.078797520034982,0.0032209622881895165,0.0017365416840531076,-0.00041378574385532587,0.006657027169276523,0.003257980775208726,0.0028827930434983692,800,0.9127162929235336
163,3.9557218799973626,1.3133562633030027,0.008680170740984873,0.005013413730882289,0.00026469247587542757,0.01739835914764391,0.009988809796090415,0.00756125521793491,800,0.9133553819045834
164,1.4675556693549185,1.7808566920055158,0.0028030126112066514,0.002872762221254409,-0.0007127579748659806,0.007102996164645396,0.004248553500276724,0.003095371631239312,800,0.9728955410528044
165,4.3764269699206695,4.917672166794519,0.0018144389644256672,0.0025905022336377976,-0.0009636848962863093,0.006482687216021781,0.002327195180105149,0.002844054873935351,800,0.9007701148322457
166,1.7012727994442478,2.32833805352372,0.009851995307578644,-0.0034894550737431824,-5.270628475572818e-05,0.019704407048006682,-0.00697932658033576,0.01198434550245053,800,0.96059583493212
167,5.50679395179144,0.020804946899148913,0.009185956906854115,0.0038857660960371298,5.8868063734411736e-05,0.018373221321930887,0.007770224683851602,0.007987296093557828,800,0.9232751086924578
168,3.2253534887826243,0.9761415335354828,-0.00432115169048384,-0.003122282878023362,-0.0005152295340730496,-0.005862570146548467,-0.009024298990465937,0.003965542684724651,800,0.9830525708189869
169,2.7939157417125635,0.4602942117678205,0.007516204929744796,0.006997939770388232,-0.0018787356073058702,0.018307189480258713,0.010721099920007342,0.007965895468943147,800,0.9187923879022467
170,5.614557302377586,1.1283347825815633,-0.004051595821658021,-0.0013991219853979474,0.001477282696675026,-0.001480192134600748,-0.009421243479511187,0.004387640224512345,800,0.930310199772681
171,8.317691251531912,2.9110995844392065,0.00133579413348703,0.004328408154860082,0.0028742122764322856,0.012144952516591897,-0.0008165479398976726,0.0062865642072200524,800,0.965335721534964
172,2.498815957820338,3.1653298629217117,0.0041837944221173075,-0.0008522508355418938,0.002923452617514653,0.011048282059829825,-0.004385194886678999,0.00688736779660899,800,0.9130232162972701
173,4.230790635950101,4.411043866024303,0.002119267325612997,-0.005045929667856195,-0.0025261616658710045,0.005840664445534512,-0.011693989130020909,0.007732454485423084,800,0.9675370764482201
174,3.4214056249724556,0.03770810500143329,-0.008978822627013945,0.001327633962607293,0.0034077483906997017,0.00470494518931202,-0.020007322518125325,0.01136400918922744,800,0.9265526490984468
175,1.8609109546045222,4.342796903334784,0.008427188556114271,0.001177314686275929,4.117419710853383e-05,0.016854844778248695,0.002354161706531706,0.007904885193550705,800,0.9243800243367147
176,5.919246247559348,4.688131906915598,-0.0017354306694599437,0.004249383863442277,0.0012202571097526625,0.008977242963816679,-0.003949336575852012,0.005736774019605224,800,0.9153958618734238
177,5.694380089448174,0.6610980814726092,0.0031328108049233547,-0.00523593761572991,-0.0038596401996400763,0.009282093433479334,-0.013488347055092446,0.009915806351666832,800,0.9137158748734697
178,9.176197200587602,3.092130364321195,0.0032131121827708876,0.0005184021110395668,-0.004533875885443864,0.013191196347089398,-0.00572816775946849,0.008402097246704168,800,0.9209445692656126
179,1.1673906742257778,1.5500990639042005,0.010880563167308862,0.007852389693551957,-0.0020992722686361143,0.023909593742612558,0.013556311979109077,0.01038407862238032,800,0.9430743782109765
180,8.82236326166335,2.458019628464822,-0.004251861541194,-0.0003316810122798665,0.001895718197051302,0.0008701539277948932,-0.010037239034742627,0.0052496970929024915,800,0.9319544487550031
181,2.9041336164480835,2.3761632071568406,0.0076910922601165135,0.0029459408666080663,0.002440701102819469,0.01744471623043408,0.0038293500230150764,0.007940090072861762,800,0.9771751457160432
182,6.964275809789067,3.823973998477954,0.0044685560312185,-0.008477632796916965,-0.0029459175668955506,0.010214759791908444,-0.018232913323305372,0.012480237134824476,800,0.9530034488451357
183,3.6009065995037526,2.115111264758603,0.00502530105509816,0.00401572297564152,0.0014473658975298488,0.012106757232414101,0.005975290829065259,0.00524252505277655,800,0.9769255191217399
184,0.3888659901067715,2.583213306947178,-0.0013214160823671601,-0.0038864649143725716,-0.0008276772681277199,-0.002155066860361006,-0.00826069513311846,0.0037108303292532853,800,0.9877138169301282
185,8.482685809788247,1.7519242724556305,0.0057193026149961225,-0.0014741763186847546,-0.0051577028882674614,0.01682104516945462,-0.008330792576831884,0.011095971158299711,800,0.9846646610623142
186,1.5893868037020642,1.1213793451536946,-0.00512170303686725,-0.0013865105345345031,0.0007941261156589396,-0.00244937036430826,-0.010567056778495246,0.0047900800731899285,800,0.9334520549751045
187,0.01888465100753689,4.487409311339582,-0.00508312473057303,0.008154549806550795,0.0019097903803237505,0.016849132589854123,-0.010706282437898593,0.01203026729764472,800,0.9602184724360111
188,5.756258957056674,4.727987813656893,0.00808426109484305,0.000638670610137175,0.0019913130447443833,0.017166753602356984,0.0002791098076034646,0.00851445714995394,800,0.9697294720484725
189,8.428686563778708,4.851977864600619,-0.001398732036045089,-0.004653435481259152,0.0014627955682945837,-0.0016758473719335459,-0.010428487662674938,0.004849877980471384,800,0.9332138988259769
190,7.223067267430116,1.6563118968782402,0.005087955465775961,0.005537736939930071,-5.527691781395678e-05,0.01108886140840838,0.010162523403003684,0.005327966677726873,800,0.9813670974875233
191,9.887606040125998,3.1167866771749315,0.007630148660654092,-0.0007652496833346607,-0.0006527078484939591,0.015361181899644437,-0.001631383945005574,0.008119225770622714,800,0.9114804567971118
192,9.629342346212521,2.7685280637422913,0.008704207693655678,0.0014868622732267173,0.001406014424357737,0.017936880522517937,0.002445259411246855,0.008423933917138674,800,0.9704267340998127
193,2.5226282386452348,0.3640037003860269,0.005493642624889264,0.00017857181434684287,0.0028673873073775946,0.013491269216069468,-0.0021468403375972537,0.007341438371566576,800,0.90848036383948
194,0.0683960697967323,4.518629337134716,-0.007451663073444503,0.004929389987533828,-0.002141222799379789,0.01057848319779662,-0.01562302936961797,0.011415464370046426,800,0.901476233065233
195,6.000308689950789,1.2703378968430483,0.014046543240749483,-0.0007646419677082282,0.000427845273763078,0.028117783909148958,-0.0015539813630664496,0.014463048971464327,800,0.9633620002466797
196,7.983311808721832,1.3407919664377803,0.015231093169769332,0.0031933219925952302,-0.00023935415438638426,0.030471701020967388,0.006377129303761737,0.013918246690512458,800,0.9445589213878748
197,8.840317238126845,1.935678526663978,0.0007554611206386638,-0.00190864144013977,9.839350636443953e-05,0.0015181803043617529,-0.0038245409433639655,0.002384236124918187,800,0.934869402242765
198,6.857188592860842,3.960298482602065,0.0006570287546283317,-0.00020627271093619681,-0.00038724031234698016,0.0016105446703272687,-0.0007090325829429991,0.0010293820945525543,800,0.9487686551939701
199,5.618662330564126,0.3534908385744989,0.0012518557451918991,-0.0011957946415792377,-0.0007215010464084006,0.0028974071676700765,-0.0027852849604447535,0.002460837520771229,800,0.9429814849662344
200,5.235373459643142,4.382851927245102,0.006796719738114742,0.00018975820471451622,-0.003507619530374669,0.016623153706976018,-0.002650197821317501,0.009047201686094993,800,0.9312503123989847
201,2.197226248035072,0.4017295709598967,0.00829435747469899,0.004228959804299045,0.002564807965337059,0.019068576465212053,0.005978058092784016,0.008446222959326372,800,0.9584526931262997
202,9.324474076547494,2.7771354221050553,-0.003971233467244239,0.0052421106304692084,-0.00107928805457275,0.010733707621488762,-0.008191953295038822,0.00821965038200442,800,0.9365736994388646
203,7.01458121140365,0.4882576176510317,-0.002692942567308552,0.0008945685772434448,0.0005017383348423919,0.001926837633304288,-0.005523585613434502,0.0033490951735058987,800,0.9312301953801356
204,9.289329435706895,1.7832170264202263,0.005982832354413272,-0.0007470887836825623,-0.0028349860266977944,0.014035767525884247,-0.003564280384422829,0.00805813681275449,800,0.9540624791848533
205,2.2423559869030063,1.1008182293724493,-0.004643670642714966,0.002251130325839995,-0.0012738811152064355,0.0049579272042222285,-0.00974300783797217,0.006477120647015667,800,0.9468087358739188
206,4.019293638881782,1.5167097985300682,0.006321919909560565,-0.0034394845007198263,0.0014219586648682382,0.013049680947304777,-0.0072848101296233,0.008922262597071295,800,0.9415740895124012
207,2.5590695959899987,0.5143408886419953,0.007013757383384926,-0.0017303536363622654,0.002632961010236335,0.015490725249324978,-0.004923917755279657,0.009226085192379035,800,0.9572678848610711
208,3.242153587501102,3.868771222769409,0.007609980014816349,-0.0045143375454297485,-0.00039289819342238746,0.015245397704092781,-0.009054112765319578,0.01063523223874402,800,0.9340074428022251
209,6.308206565857062,0.5087301526465521,0.007338593782605784,-0.007662428165868961,0.0018718024138974102,0.015137253437628008,-0.01578492220415436,0.013390673793014606,800,0.9613055300189839
210,7.1420741109884265,1.1069287397317895,-0.01013335709982723,0.00233112911111529,0.002541365371035428,0.005658736623795159,-0.02126319260121904,0.012292960043103382,800,0.9121454241184905
211,6.222602511559513,1.8966394936795368,0.006645838890258217,-0.0023664559790791246,0.0024254536599919853,0.014514262521558408,-0.005955496699200223,0.009118270121264318,800,0.9260056919903972
212,4.955446791839537,2.1007370352788075,-0.0034557681973693315,0.0007706369395762947,0.00037704603274678415,0.001608020873781237,-0.006978283389367311,0.003952954450347847,800,0.9182528877453016
213,9.513062426896765,3.532427247103174,0.023887917371954913,0.016168882676685148,-0.0019980462182325287,0.04874887985657738,0.03136472024070274,0.02139628463249745,800,0.9400892491035625
214,8.3484557885504,2.8380142385313607,-0.0020684758615722495,0.00037527454191076375,-0.001009150068754251,0.0014762547030007988,-0.00486265734232377,0.0028724242874127288,800,0.9305389416001673
215,3.0525209690319888,0.6980666358946325,0.006877417570783497,0.0001631806299295358,0.0015793820523600918,0.014460757792473623,-0.00037956139104755506,0.0073271128032376025,800,0.9283691566942517
216,7.572653785642674,2.3322840834312535,0.0004572568224209504,-0.0012407251627749062,0.0010532549737231965,0.0019221788984301893,-0.003489115579138101,0.002375679038851723,800,0.9349271223361943
217,1.0429100136050118,3.6863650665022965,0.018844341757031664,0.012597316094301786,-0.0021395363572296326,0.039013698060315134,0.023869617642351758,0.017033681539963878,800,0.9496467071269684
218,8.414413498421428,1.506276021818464,0.014518507209141985,0.009244801856521444,0.000985777552640784,0.02939349535737886,0.018133122773947997,0.012843206869669496,800,0.9041981741886679
219,3.167982339085802,4.950149276592835,-0.0014364306450282095,0.00093560561804584,0.0002777811755966544,0.0019354027044503346,-0.0029370527584150733,0.002124643639875703,800,0.9138400697689619
220,7.497196133508584,4.584516363373677,0.005752277713239388,-0.011089423151834227,-0.004034365063435363,0.013337631504889456,-0.024011922382079134,0.016391514596731074,800,0.9743573756654881
221,8.99604501401292,0.18234333068901154,1.8932247610762773e-06,-0.004223006119865864,-0.002009269281277659,0.0016097040846136893,-0.010051929874823265,0.005472957930272712,800,0.9769359685054416
222,5.713152780496187,4.527845853887364,0.003740417906237572,0.0009900612497154486,0.003423996145527754,0.012110144470615414,-0.002649186158709374,0.006814613222960633,800,0.942873895463606
223,2.2133272078469535,0.292745553726666,0.005091091958379986,0.0008507888393510593,-0.00397125582238166,0.014945416867989631,-0.0030616552725275395,0.008344113684505189,800,0.9561923634874854
224,7.14446278553611,2.5342398084892497,0.002035588090809707,0.005736998014651943,0.0006927606988667514,0.01172481395414335,0.003820358256779949,0.00517864387823929,800,0.90052098953685
225,9.429419613785095,2.7707798200573626,-0.0032756464359521035,0.0019199656507215735,-0.001077643921836357,0.00426923260470473,-0.006980594175165791,0.0049182522892858545,800,0.9197809890838525
226,8.57727709962516,2.213013342587868,0.012971376154835476,-0.0020862695423357917,0.0007084363575648707,0.026009266828274293,-0.004239053603274924,0.01418367206211726,800,0.9671018198595142
227,4.603487372927311,1.4508701440392835,0.015663636632688382,0.003179535884289621,0.003424030986829783,0.03308215858661276,0.004604186447343247,0.015518628510425406,800,0.9318723973675408
228,0.2178125143390186,2.2320036153947913,0.009742587340157866,-0.006197894773312247,-0.0012281302633615138,0.019673306449786654,-0.012583921316095419,0.01407978517901148,800,0.9419177069758671
229,3.0252422035466475,4.765632118229909,0.005941089307127536,0.0014790568883257225,0.0028690056292024714,0.014688881058413955,0.00015141133249256273,0.007306881843268717,800,0.9899580487299192
230,2.553088491593768,1.0174799460752826,0.009196990873657402,0.0002260205056616579,-0.001554788499052913,0.01891762977347301,-7.16070148348881e-05,0.00947676736559725,800,0.956928731634341
231,2.4362439676537417,1.09660659610611,0.003834721768073286,0.0040431021706883955,0.0010719917669932105,0.010031910238378978,0.005723737639144385,0.0043583360749465914,800,0.9570810211636942
232,4.5890815297019305,2.0069869511491416,0.00773050858239021,-0.006902343056512332,-0.0022648418604092908,0.016146076013172864,-0.014489744961417108,0.013272160743720271,800,0.9313999886346531
233,0.008264562156276023,4.328952853903967,0.003948262853325362,-0.0007690398027031039,-0.000925971084990132,0.008247026731658495,-0.001888580630413978,0.004667851798584152,800,0.9609899460530785
234,3.7107692433265504,3.498088356618479,0.00272197961643444,0.007125104662208694,0.0003423816296242125,0.014303137564897806,0.005391030992388465,0.006255683445086634,800,0.9786216825688411
235,6.800698367096036,3.979725162407356,0.006886901022048518,0.0076116400027783,0.00045119656480451144,0.015655934627087868,0.013341147422565768,0.007318237009352913,800,0.947018438017317
236,0.9072369872652941,2.2852778035253025,0.004452938318368957,-0.002163070183726787,-0.0009545540806135309,0.009175814872097154,-0.0045960786028128135,0.006072320056766821,800,0.9726897061312634
237,8.28020321743956,4.9161882914753905,0.003495303904897903,0.0037072701289845834,-0.0035879367007100537,0.01438157735978798,2.357070797699267e-05,0.007184903252195618,800,0.9629240148414187
238,3.9231872041865437,0.673183881047249,-0.0008492922781597411,0.002507315793407309,0.0021353194426859336,0.007089890066936715,-0.0037738430364415783,0.004776624453607168,800,0.9051987468570083
239,4.786162777212671,1.4753184699132431,0.011264177075479595,0.008116447845308638,-0.00020475285432182581,0.022554879830508683,0.016206370011067783,0.010072689623629965,800,0.9717944210959314
240,1.203040274411259,3.4728523297636427,0.002353354258983112,0.006895666061620597,0.0009667999054223919,0.014185760615664688,0.0043122800255427285,0.006297987597510348,800,0.9312124408592715
241,5.8857337648574335,2.340480226526163,0.007762131136817438,0.008971924481151628,0.00021571408879577506,0.018018473855310496,0.015449637380627634,0.008440642867260288,800,0.9099215938929006
242,4.116394314052413,4.495583401143477,0.005775947778192054,0.001491463846363554,0.0006026176246604707,0.01171818622773451,0.0028166370213767063,0.00529725059407314,800,0.9849277091482314
243,9.983862607128717,0.6058849719182452,0.00045943784172059604,0.005884847411599918,-0.0038662425781810484,0.015790257712220566,-0.0031016872055795383,0.008773954958546274,800,0.9468343638849647
244,0.7062700775631148,1.5583909298395642,0.017222240337948853,0.007535469684052918,0.0007153596450950432,0.034549568037133604,0.014965852006869939,0.01500487967045247,800,0.9525271698083799
245,1.7835799075091097,2.4536172900843596,0.0022368138703973742,0.0015489335922038603,-0.002131847447245141,0.008104575246899896,-0.000533080321697427,0.004191917942358902,800,0.9025265419219042
246,7.684752524844088,2.28734325627955,0.006220267353915489,0.004473860991054229,0.002777908579017822,0.01651796208897079,0.004870294600968644,0.007350433652036821,800,0.9536117579821601
247,7.13453137500366,1.407984921034,0.008007244682084606,0.006686214117644882,0.0005292925773755015,0.016386303825726593,0.013000613773732381,0.007491577009306474,800,0.9132044010725584
248,4.706525539139365,4.078499422596415,0.005727016537291288,0.004307385621836964,0.0005660245619442259,0.011850135387058583,0.008218668931197924,0.005257848613172232,800,0.917591843952847
249,6.274470380822212,0.8015429831790799,0.004592253962115562,0.006628724047684833,-0.001736859358885197,0.015247630731305804,0.007194325288294988,0.006605909171250479,800,0.9344912694218239
250,3.4049907373948396,3.045041922237555,0.0025488868359352227,0.005408598595306321,-0.002377679565419924,0.0135064846031596,0.0024084862593234894,0.006238905148707247,800,0.9179052262179255
251,0.7635936355083728,3.8656561128100133,-0.0015586699971855207,-0.0026791965595079287,-0.0011584081563777184,-0.001664305287961001,-0.006811427825425899,0.00307527095408275,800,0.9875268667137875
252,3.3292820194728714,4.807416894423463,0.0013902876116556819,0.0014225300554332808,-0.0025191205739924995,0.00785116198247968,-0.0022255266483017537,0.004584394277044069,800,0.9114508203545563
253,9.944732175710568,4.405234565147462,0.00288443182980121,0.0029553543556199518,-0.002637912194711982,0.011116087256503938,0.0005634851143383867,0.005422664512708757,800,0.9714934829210431
254,2.7025600069441458,2.3571920690700394,0.010437164315773679,0.008463621128995485,-0.0009762325168116346,0.021676932490154212,0.016124638399384113,0.009751418713218071,800,0.9143208467694823
255,6.680447647761854,0.10378795604534863,-0.01182845477621357,0.0021340281174768404,0.0026278423128163223,0.005224459004767389,-0.024613312322240847,0.013799468799230566,800,0.9434236460430848
256,6.575610913487974,2.308246362550049,-0.00128962750810747,0.005392981937086232,-0.0020342431766627108,0.011927026853370474,-0.003720317995412949,0.007079319673923149,800,0.9799849842378113
257,1.0791090799462433,2.3819621100169246,0.008184030069354817,-0.00176841814328659,0.0001414389279772497,0.016372079437525215,-0.0035408555853887625,0.009199915927686575,800,0.9640804949699764
258,1.8479214114144993,0.6375552990861494,0.0012490768962816275,-0.005973375684619487,-0.0005072413314941496,0.0025690541002086004,-0.01201765167688432,0.006743478110591328,800,0.9737505548738011
259,0.5121450165320762,4.263805159129548,0.004793007437692261,0.012324537686950573,0.0013759681275301173,0.02513609243992432,0.00909899780936135,0.011021588522490841,800,0.9807388215617913
260,4.966360152019725,3.0250093907802897,0.0030589585123823944,8.624921552964225e-05,0.002930439383948549,0.009716881829355428,-0.003426466373531354,0.005904511688921934,800,0.9419580836736073
261,8.597634730515491,0.7577763250455699,0.004475903863431287,0.003599394856918802,0.0003446197979996151,0.009190340988244311,0.00696025645245587,0.004151518011536859,800,0.9167161996254062
262,5.758782805977749,1.8653084970326068,-0.003598038058118597,-0.0025763259025809,0.0029209480523041693,-0.0002437951999640182,-0.012104932721434977,0.00599244749239865,800,0.9040177270677385
263,9.244169567059163,3.368147486668615,0.005554416960765261,0.007211547489818034,0.00013864924475593415,0.014446135883087814,0.011085793018078775,0.006546731560125428,800,0.9042181226442023
264,7.052612670669606,0.17242455481470076,-0.004169638037508577,-0.010420770820864213,-0.00011497963318601454,-0.008335047770527106,-0.020845769946218472,0.00908664758962959,800,0.9188660447979852
265,5.152609159216356,4.474869272890235,-0.003769920211183742,0.003038857745815562,0.001315079405495836,0.00656806026539589,-0.00803018519613225,0.006331785495508759,800,0.9596896356764024
266,7.200216187056904,1.9147818185574965,-0.008066219945379937,0.0008449148567643948,-0.0044127064524291364,0.005320474545998791,-0.019763084723229876,0.011445915826098683,800,0.9436717616099356
267,3.136935050783798,1.3293609672202,0.007062182868433598,0.008371754004386556,-0.0002521284485455887,0.016837237118093824,0.014030636627546483,0.0078120765825955805,800,0.9341843672731663
268,4.084450919786185,2.7021136860115074,-0.004350607576535561,-0.0006574394622674482,0.0007509002934214493,-0.0010212067205950734,-0.008994887357010945,0.004265126677823552,800,0.9273371561137144
269,7.86297840182094,1.1544763354369874,-0.003241846328100548,0.002537640559009547,-0.0023177958045712027,0.006704652324099137,-0.008113063862281139,0.006425913174411635,800,0.9889871290829046
270,5.194374954491519,3.0575708616357176,0.004114097211172631,-0.003981923986423238,-0.0025304288056739077,0.009679834665869871,-0.009415488216371084,0.008268781451098418,800,0.9008565341234985
271,1.9297070502934421,1.669536614338372,0.011636971709879875,0.004842509122062402,3.0467602896707576e-05,0.023274216658783257,0.009684745005101296,0.010125198681507713,800,0.9335971916322476
272,0.7076836423355515,2.324592200627325,0.0017280700712608615,-0.0007366956878109125,-0.0005966763980314604,0.003729834013052666,-0.001747085246152768,0.0024228241061338067,800,0.9019064252799674
273,1.387674664549643,2.114067360066762,0.0034733238250365204,0.002968378219393062,0.0015417727007079529,0.009566317589941033,0.0033170864989181315,0.0042066968083926525,800,0.9429999661814497
274,5.914848888073098,2.524448360219018,0.017516250352885208,-0.0031298645222825553,-0.0029614612228749484,0.03586528407369211,-0.007092512412486809,0.019943653793111353,800,0.9281690913639562
275,2.0647141111871923,2.529690909848293,-0.0032537607026738,-0.0028826282102993464,0.0026293202823081813,-0.0008646681393808297,-0.011408109686565464,0.00550064515842083,800,0.9145058289824343
276,4.991907765587839,4.6297845780998745,-0.0016232986996517164,-0.0013741143635556275,0.00014267090314148322,-0.0026185822569514713,-0.0033762438694632164,0.0015341955066737304,800,0.9578602050805475
277,4.839929687097689,4.398960188621299,9.120752902120124e-05,-0.005188252322210597,0.0003550025689016749,0.00022994343811688633,-0.010424033024495677,0.005270442971734113,800,0.9651058479846988
278,8.32928192846591,0.5402519345582296,0.0004963018568221013,-0.003367532527102499,-1.0389243996352247e-05,0.0009926595833320492,-0.006735120923892845,0.003641184877132806,800,0.9402504394551764
279,5.06245358365314,4.383533590598605,0.006296254535945276,0.004546503886930854,0.0008916261764713884,0.01334108111780614,0.008344435727946123,0.005837170956055217,800,0.9481634792535034
280,2.753556080041685,1.3238896056200682,0.007090452649407627,0.002747722659969273,-0.0008712193415878543,0.014517426993759174,0.0051589236249946265,0.00637330138930006,800,0.9596359692106922
281,7.2219776302191585,2.264529808399509,-0.0006228030472348375,0.007603307385651911,-0.0020242401299100325,0.016148878527345062,-0.0021878698505109146,0.008673302378899031,800,0.9517845402839108
282,0.5537309378759758,2.168154402622307,0.004521886685445459,0.0018443943883725427,0.0018480405414183587,0.010930268406380204,0.0018022937412557997,0.005074925512414395,800,0.9565082020585967
283,3.2855847143590875,3.916247004232064,0.00433320495138044,-0.007712138415222694,0.002202052789811447,0.009446293348024881,-0.016204160275709388,0.011234728742615238,800,0.9346112796982661
284,2.352203486920985,2.804055782910771,0.0007236929019527113,0.004332575415657037,0.004026177496401641,0.01388035206199051,-0.0037678154267710134,0.008049211313588408,800,0.9674814923233486
285,6.148139294756368,4.1541554813615456,-0.0047077997917037585,0.008490498575692357,0.0024992072182905287,0.017895785855024222,-0.010330388287047026,0.012367765462223639,800,0.9232388197123884
286,7.3203588976501806,3.8582330923667425,0.004165287042090708,0.0023965919983905855,-0.0025322527600821843,0.01192634530669872,0.0011974127742638667,0.005687502780352329,800,0.9569875666821525
287,8.259519314471683,4.826947863170792,0.011776800064282826,0.0022907409077048634,0.00024285195650664948,0.023566026462486324,0.004569055481489058,0.010823116335397485,800,0.9140916539965105
288,9.67777554918229,3.7522722664131964,-0.0052703643790143135,0.005780925456932038,-0.0001562420808698475,0.011566267902423759,-0.01054514574658831,0.00957792556849567,800,0.9703529881473416
289,0.23173880869328145,4.058812791289325,0.011839186346549723,-0.0027260427158875395,-0.0013521143937501368,0.023927283868165415,-0.005700996606841048,0.013614566094465841,800,0.9394112937378871
290,1.0632373683773955,4.805919956604329,0.005530762661400526,0.0013443868623469416,0.0013683559422412773,0.01187668271563669,0.0018736163318582456,0.005529775849494123,800,0.9115794316977889
291,8.95583960267696,1.210884383067784,0.008383483738817286,-0.00013017971681746022,-0.0008468819969971263,0.016933816789294273,-0.000427208745294623,0.00857570599118586,800,0.9243858505179284
292,9.175631831757356,1.0159033650723093,-0.000912798403158506,-0.0017866530362704081,-0.0010116745712764504,-0.0004954633104952083,-0.00490343956836262,0.0023377194598195976,800,0.9881310710478122
293,0.10163234868784121,4.530028452332463,0.007814799798637702,0.003298366438592585,0.0017523648186950668,0.016829922321490765,0.005396410152969808,0.007442216810149761,800,0.9717847057410798
294,4.194195178413228,1.1471709506253718,0.005000794755808308,-0.0027335428401472767,-0.0012469736537510906,0.010393736470547565,-0.005859232639225503,0.00712845854500636,800,0.9307906970705855
295,0.27355791952232145,1.6593266774124644,0.004980325258300276,0.0031197166108575167,-0.0030825575608581742,0.01453980188044349,0.0016602818578720958,0.006892427099559566,800,0.9575738410651198
296,3.815705500183344,2.751854712943133,0.007153161602513196,1.3465830324910872e-05,-0.002741809960671187,0.01616914614490676,-0.0018358912792305442,0.00858045130288242,800,0.9488802115384489
297,3.314868497308595,2.158633584239592,-0.00840789034551719,0.004984009381395362,-0.0025906328217300207,0.010935384057590807,-0.017783145985834463,0.012552772968031959,800,0.9059449139307827
298,9.23619253961487,2.304704866058013,0.00259602587100299,0.000456744790567413,-0.0017234190112508203,0.007109520086229589,-0.0010039787630887827,0.0038305044183358826,800,0.9681830038072546
299,7.629330454575544,4.797243965129121,-0.00426430022330928,0.001168844608883729,0.0023251816535733534,0.004056113559961428,-0.010247024788812531,0.00638389909124911,800,0.9749697353184479
300,6.325063521322561,4.179653904252012,-0.0005655425017135709,-0.0003158457678783832,0.0013028969362828917,0.001736341694554337,-0.003499118233738245,0.0023094575000063506,800,0.9419163086986148
301,9.701417230102368,2.405490527727732,-0.005831638125372435,0.006412811634963379,-0.0035911987095026206,0.014776714450954218,-0.013614367431772328,0.012297132902652686,800,0.9103139931894201
302,0.4916516530392101,2.169116152483716,0.004523230875677082,-0.0007314698118546404,0.0015190829738515493,0.009861549498465697,-0.0022780273708208135,0.0055880329027553815,800,0.961191557036504
303,7.724798836072725,2.4200590079121698,-0.004727135965715356,0.004551389559570159,-0.0007268000304390922,0.009215951473384356,-0.009567444285674753,0.008133923622403161,800,0.9440461985300224
304,8.336527945476123,0.10709917671569702,0.004647819646769786,0.0018110880770184708,-0.0015859652709936639,0.010714279547967172,0.0022035358996093423,0.004900052476006226,800,0.951276389814195
305,3.714361997559056,3.5415915317397855,0.0023372056772040526,0.013418067106521367,0.0006495156597511306,0.026912018383799842,0.004598527183650997,0.01246643029944758,800,0.9475175732685635
306,6.78943561092699,2.1738868544561503,0.011631272462523547,0.0007824330721392076,-0.002855593989951671,0.024674006683498673,0.00015340438582683684,0.012298831630298856,800,0.9752254057695238
307,4.237033930336849,0.21095289736937528,-0.0008807414049904522,0.0013501474395070827,0.002537003821359321,0.006012186798255237,-0.0050733747292219765,0.0048059233714722515,800,0.9431520262480415
308,0.9615113852146306,4.492533927016572,-0.004957779095970241,0.005371382898193806,0.001687806123688268,0.011280357942550907,-0.010453150338103779,0.009413157078581263,800,0.9571863890459867
309,6.7015376057020495,3.833853348232795,-0.004395054410516065,0.00080327298737821,-0.003296443795346712,0.0048039778944711006,-0.01198754074074681,0.007489446196970291,800,0.922576429983522
310,9.192569387855961,4.64713242286468,0.003433187896732053,-0.0013558685070985,0.0020321628304053444,0.008358545728191547,-0.004203906948924442,0.005537975008862254,800,0.9326845482793673
311,5.580008234215658,0.5226227458514254,0.0026373617468855763,0.003244132460723208,0.003620073937702307,0.013147023228739797,-0.001384034813522228,0.006945424932731377,800,0.9475216247994434
312,3.6154783133994686,4.94221144927309,0.0026184025189068174,-0.0017359277346866583,-0.0008509644581443094,0.00555759553062434,-0.003792645962184021,0.004072745502887479,800,0.922751982894087
313,5.281383569710599,1.867504219099917,0.0006481780886367818,0.01071532516243148,0.0008140670975309854,0.021561457514671485,0.001165548987465034,0.010501476320316451,800,0.9120317429490842
314,3.5826593131928473,4.916273741816043,0.0036034848385731594,0.0034604716280458737,0.005982978944607702,0.01903076894884928,-0.004902856015611216,0.010948895879458279,800,0.9475964609646843
315,6.359963482529807,1.9190499387228894,-0.00140639480213327,0.0032014528104863968,0.00112943537054549,0.006926798127073255,-0.0033366821103670017,0.004533941530048599,800,0.9686121791334485
316,3.532123362733132,2.002419998471545,0.007875247250718306,0.001682664608393857,-0.0013034555205627212,0.016276845179093825,0.0028389785391305005,0.0075297057376373655,800,0.9014361848787273
317,5.211691414914048,0.8341586170552684,0.0012125176695379906,0.00010315013578551693,0.0004974207305085492,0.0028057704385346166,-0.00017443482788760136,0.0014484646480388138,800,0.9475614809458478
318,1.0499915191555276,1.147017952972943,0.005321915346062367,0.001004801511206771,0.004617428085852633,0.01652083478748676,-0.0038674010729484844,0.009377999084527664,800,0.9095548803172847
319,6.701434616199137,2.1618380824380194,0.004674508756375046,-0.006699298240355004,0.0006413150854567798,0.00942111046989886,-0.013470689437858778,0.009964005842494341,800,0.9537438112686546
320,4.158335463378173,2.6044194527071287,0.004677729263302401,-0.0010231636541695836,-0.000501763123750373,0.009443109898149286,-0.00213397867988365,0.005335672046452345,800,0.9571282366116862
321,9.242141164666581,4.17507099670411,0.008713811536416111,0.004365810173324436,0.0023999481107638003,0.019556049706011484,0.006603193713469609,0.008615521789807078,800,0.9332509615455054
322,0.992722151698735,4.025798735050731,0.0024137784976775494,-0.008653462722555284,0.003994445896954253,0.007409719436879778,-0.019889087886635248,0.01222550939829284,800,0.9211774883720122
323,4.954436484289984,4.973963598557794,0.006003194024788164,0.0003554816502485214,-0.0005795322674735441,0.01212409722612038,0.0005932541239529899,0.005919311896779139,800,0.9748997615913981
324,0.5572172110239937,1.7177283169939606,0.010475380202985848,0.003675783427521093,-0.0014927862813374267,0.021577344333661666,0.0067249829273522185,0.009561640962788567,800,0.9024822370837046
325,0.7373351866192956,0.8450374361553464,-0.006922810181509224,-0.0047457796644072535,0.003547855854451543,-0.0042464212592931835,-0.01909075843253977,0.008680750955087324,800,0.9358022285771443
326,6.046900077819027,3.000199358318874,0.0024696293256151235,0.003219278542707684,0.0019569355440638026,0.00967392491259861,0.0017038908240470056,0.004472268866687554,800,0.9243959434242995
327,2.1761397489196788,0.8327399903198723,0.003685760432555629,0.0014102285703198867,-0.0011848072497794187,0.00838127713827088,0.0018107008674801525,0.0038193081282850445,800,0.906055164017611
328,9.421983112788679,2.952201728145738,-0.004380760094970928,-0.001081317241581533,-0.000593694277869392,-0.0019554814480757473,-0.008968673225029174,0.004084205339038593,800,0.9776420841725931
329,1.836582803839596,4.618712646983337,0.0006383858648761774,0.0008806952633695357,-0.0004974682513979988,0.0025430989450800413,0.000495063311411385,0.0011676306074455546,800,0.920589437492578
330,6.613193753920374,3.7326010191975905,0.0029863262782142278,-0.0010383028373040296,-0.0024846597042146048,0.00834269113364205,-0.004446644251821653,0.00562294673698189,800,0.9460645468199579
331,6.485749972114831,4.249545079989099,0.006722977383162544,0.0014117021937502022,0.0015984694074444592,0.014333878067347657,0.0019354810864778355,0.00673541382526851,800,0.9516115510476826
332,4.497102438010546,1.4082374517032503,0.01483378917544812,0.00608405998361208,0.002976364339678706,0.03150051137896082,0.010335186939159574,0.013906245291439486,800,0.910368184075355
333,3.64776886067491,2.464242870910918,-0.002393305628646791,-0.0016272083302501569,0.0014801127745562956,-0.0009627630906557886,-0.007078264827138107,0.003324682451391933,800,0.9386119817917227
334,7.172242424738629,2.6940032994484744,-0.0045240824779001106,0.0018714759951549943,0.0011079476275851648,0.004115950229298694,-0.009421163194788928,0.006009916826478579,800,0.9307671357575205
335,8.903579200865792,1.9435378792804907,0.003844501870751491,-0.001545068279593463,0.00341769342638813,0.011004028919638031,-0.006405161737321975,0.007625571033337988,800,0.9196244362629613
336,7.132885517775489,4.638700862867867,-0.0013943168081364328,0.003607473545811813,0.0029851770760023315,0.010001804594987267,-0.005575491119636506,0.006835334100853173,800,0.9480968086484692
337,5.815487661455704,4.060680314283888,-0.001281950112337987,-0.00016615312694181366,-0.0010587566992608301,0.0009454017023357247,-0.0038416081808953263,0.002195654840146014,800,0.9238824337486526
338,3.0875727640569295,4.939760987672196,0.007905258803890303,0.0019184400403532886,0.0003225862503442842,0.0158451809261802,0.0038022167623069855,0.007163794357246091,800,0.9857145215706765
339,9.179930325840983,2.80843931586979,-0.0019385334780392255,0.002287529645003644,-0.0007782682449680628,0.004852596433911467,-0.00415460409998263,0.0039041338481759446,800,0.9841330929244337
340,8.247361542822624,0.8690661760540469,0.005844244036290798,-0.005507822631403714,-0.0005018651234158943,0.01173277573582054,-0.011059932926046373,0.009870965700860067,800,0.9714988220335057
341,8.108311414952778,1.2505190864688498,-0.005406351504891496,-0.000167853705349159,0.0015668642099591133,0.0005300648530521777,-0.011678475273533488,0.005976163124085414,800,0.9045279790016403
342,0.1206074359694409,1.4737645218705526,0.011319878077904823,0.010266658079820138,-0.004178317004277503,0.03000927943514376,0.01316379288030616,0.013026956246958439,800,0.9116257658883766
343,1.398843247931073,0.2950113983655295,0.001520080668154181,-0.0007639481458013703,-0.0016293972679973714,0.0047356462427473505,-0.003223381198041729,0.0034670349271309917,800,0.9270534868709196
344,8.847509675623398,4.314545239216899,0.004100730877149295,0.0028850279338996036,-0.0010536750421304068,0.009418629137198655,0.004552888484899143,0.004079135945201122,800,0.9178983309970855
345,7.4799214296813075,0.07833363966400164,9.076818496739727e-05,-0.002694791541267946,0.001463396714130866,0.0014364546797912686,-0.006644501392392366,0.0037335414126730914,800,0.9269207192182367
346,2.787510058045952,1.321393775251154,0.0011003640539987906,0.0042683399139476575,-0.000252625600157747,0.008576717344576759,0.0021606905913161365,0.0038631927135906957,800,0.9112966104601948
347,1.1805957626046326,0.09689113834126406,0.0030852671362489505,0.004201624640195268,0.00098858183879503,0.00955744903945229,0.005016334513436147,0.004140201764872289,800,0.9641989559773168
348,2.416996768320251,0.9766403486426356,0.0033825335952800883,0.007658977714620716,-0.0011584024585447508,0.01590520942241695,0.006177813197384657,0.006944091913197628,800,0.9081892506599798
349,7.534328643044949,2.6881989056882127,0.004293012701145753,-0.0016650806997488533,0.0005231233461661818,0.008677188907414387,-0.003421324904620588,0.005401077530200958,800,0.9651798603159397
350,5.003675028497291,4.8736684020470005,-0.0005554860568963982,0.00580312766567693,-0.002231461944109545,0.013016145847366906,-0.0025208626298058407,0.007221265761087318,800,0.9420554719174964
351,3.779671370340175,3.4091693081875403,0.012468106931467288,0.009066857582453463,-0.0033032377886723576,0.028965577993857596,0.014104351033983904,0.012543890412073953,800,0.9032210107426182
352,7.995287023678833,4.15816638795131,-0.003931424871249764,0.007498604300903,-0.0016258411564046775,0.01545073970171398,-0.00831638084240751,0.010444876534723166,800,0.9312360309324146
353,0.30770176153696593,2.6977859386816694,0.006626786360820984,0.0010918219174811214,-0.0032785785230091506,0.016299525473752952,-0.0008623089171487415,0.00837366905095111,800,0.9102111059681488
354,2.7853512906158038,3.6253157517168964,0.021197418184219524,0.0038634434880913736,-0.0006952297842414892,0.04245051539449861,0.007671207950123188,0.01959111378592021,800,0.9767440141773536
355,3.672138154678277,1.8496770529956135,-0.005246447137273183,0.003342292325850444,0.002236697864544287,0.00777973464036496,-0.011588044263210438,0.008440363592423011,800,0.9199889300849626
356,5.134590499477477,4.872302628065897,-0.005040596170592465,0.006399872597702429,-0.0008122646816438431,0.012914509929316434,-0.010195957075096507,0.010030178167371222,800,0.9378812827384018
357,9.650403223570517,4.482808914918921,-0.006153773816435604,-0.005813584056652156,6.901568284649054e-05,-0.011600231558889786,-0.012334484187285734,0.005992119818025283,800,0.968724047421997
358,8.144345788010657,1.9645307052946466,0.001190955627149003,0.003422351477945734,0.0006361220177424285,0.0071819122379985206,0.0020447019721909544,0.0032045202227578688,800,0.9475849589473191
359,7.066747033231286,3.3368932062290964,0.008248701213197361,0.0031183553901636104,-0.00202278268800763,0.017900589145220188,0.004833524061501757,0.008019836629424135,800,0.9704297436743123
360,5.415394349951743,0.7037482349361851,0.013542963672845161,0.0011206331912812506,-0.002500728105799698,0.028054969416248843,0.0012722243120039806,0.013720492424498038,800,0.9440928912244803
361,2.2205672879767437,4.648681113251118,0.005077360686230619,-0.004214288978280379,-0.004768726187156571,0.014178391879853681,-0.012452248463953201,0.011539477312837445,800,0.9867169122071452
362,4.3009781145661075,1.3871503991470409,0.011717840525173372,0.0019535690969289562,0.0014195700980999943,0.023840072935346047,0.003502746308858608,0.011148010829175293,800,0.9043861546367146
363,8.701366049908504,1.737368986751019,0.008333053425330583,0.003725857758188239,0.00033025620901387475,0.016713213340631534,0.007404609026406109,0.0072526706226242535,800,0.9312286866738483
364,4.939281060233085,1.201674896775577,0.009590747328904333,-0.0024258939854263245,0.001130361159850426,0.019392303359081098,-0.005062596672125082,0.011178849729352345,800,0.9175928259371358
365,5.0203525819384955,2.9473166036487974,-0.00828018226457148,0.0032907371276259018,-0.0022338445151752814,0.0074140390853463245,-0.01739292935923748,0.011027622424309358,800,0.9729278139936759
366,0.3400205227541886,1.9052302428458852,0.004502711726548373,0.0032736496042858197,-0.0024661116147194277,0.012859413532552839,0.002693309129115545,0.00587333071186792,800,0.9782299727521785
367,2.867903990612959,0.0053801638584016764,-0.00804770609658751,-0.002264889174740206,0.0030340157053926533,-0.0019303535214209144,-0.01869483702123452,0.008904150036525844,800,0.9222556405986088
368,4.193777904885021,0.36788041163300755,0.0014215670559390467,-0.007345018711234196,-0.0018697113810874635,0.003607356736833843,-0.015454260047424142,0.008769210416779954,800,0.9553212140383482
369,4.6367535714164365,3.1544602689679273,0.0029328941706811607,0.0019352879431453736,0.0020640421088155454,0.009115098347174336,0.0006212658804787326,0.004410444693355757,800,0.9854710455272441
370,1.6069597596080387,2.882438179265944,-0.002656835920877703,0.0073851524991825086,-0.0014416670444531827,0.015176050633920544,-0.005719417477310932,0.009351770131307906,800,0.9469017942917757
371,9.896277472202987,0.3937296295161674,-0.0008035141835519063,-0.006436293760227993,0.0008065021330422161,-0.0013806280931672032,-0.013098987794392595,0.0062330727700768895,800,0.9320295033276954
372,9.051037401707577,0.5627561695485223,0.005430909388777414,-0.0019788872314084795,0.001964824406469218,0.011839347460798315,-0.004935303146060445,0.007465891343496876,800,0.9544746946580849
373,6.814304540832805,4.724868290318604,-0.0016499378303580837,0.00095353395736697,0.004425215616507715,0.00852900659808362,-0.009921814344065846,0.00799702403137822,800,0.9525554153066336
374,2.9219139171314366,0.7905218844439293,0.0074948746715908605,0.00056061781078863,8.114942629509787e-05,0.014991648415541237,0.0011193365492177454,0.0072322495898765335,800,0.9069203590281761
375,5.739217596663087,2.194240285835484,0.011157205627312206,0.0021679313046200173,-0.0005644833161851426,0.022385027577277707,0.004265246286586741,0.010293251791484555,800,0.9462875276561582
376,3.8150475535880846,2.7181488387901185,-0.0023447665783123415,-0.0020879988695622657,0.0019622304426499836,-0.0004999136967268267,-0.008365617199022388,0.004063599949717905,800,0.9174016878225972
377,4.66265211850056,3.1978369847956016,0.0026353264304580524,0.0017163909193706841,0.0011075577063033143,0.006749878888321263,0.0019535558113362114,0.0030079469820342144,800,0.9397590410443307
378,7.714325539286074,3.7068767339310904,9.2547417144314e-06,-0.0013040849452298536,-0.0012733825892950004,0.0015706320642838714,-0.004160292471314716,0.0025646250837344725,800,0.9869891859151296
379,0.2193666344871581,2.1679580506839957,0.003603483346837239,0.004841214153823381,-0.0026084280856946106,0.013806373158841034,0.0030830218424802063,0.006276057948032284,800,0.9186546246030256
380,8.817623471160799,1.3399074820163515,0.012500879416164882,0.008578287963487072,0.0004678448031793599,0.025111813997453807,0.017046520761850096,0.011103130342966226,800,0.9898763405964119
381,6.899408547155712,1.7117718420813528,-0.006431044709642208,-0.0028717484281163604,-0.0024279758645239574,-0.003282090752278353,-0.015323495523238785,0.006987283660470451,800,0.9853906008243155
382,0.8848677619573897,2.873808570833825,0.00022576782420004739,0.0040908673213974674,-0.0016481931524799957,0.00939651278140367,-0.0007632424902086401,0.004900224723533051,800,0.9313644791522024
383,6.884018815918246,2.1131124823490706,-0.005829618621487972,0.004260398109662535,-0.003831089057662095,0.011100326090395579,-0.014238767114046454,0.011000166888873597,800,0.9106832621909408
384,4.823310572982875,0.981281776709475,0.007865361533194202,-0.0002670206737461374,-0.00248131455559575,0.017125319816861852,-0.0019286380979657248,0.009083291914022325,800,0.9812774449668625
385,4.3150038833038264,2.4197323436441254,-0.0014063803808477032,0.008089403713217314,-0.00039503546536998453,0.016211618592779115,-0.002845571928039895,0.008902881328130406,800,0.9431139031280242
386,3.434170515785193,2.4006852531163063,0.0013598134805897482,0.0036678853049470876,0.000307366410880561,0.007416232224394791,0.0026391653466788807,0.003255496545986357,800,0.9095092663046375
387,0.5189026150629161,2.4448583952217096,0.00021787273045002905,0.0003082010611582612,-0.0008051919668870173,0.0021389890471273363,-0.001086841463910756,0.0014213761376457791,800,0.9074973441990027
388,2.650139597072929,0.35804390492324534,-0.0004438469295531544,0.005139843871915131,-0.0013746605653141167,0.01091985182866198,-0.001527857943938028,0.005879232437568581,800,0.9019819372588715
389,6.632790519287013,1.6286603284496703,0.009403475892610803,0.005583911967396913,-0.0019195057669276353,0.02040283596112263,0.0095719397588928,0.008840291698721175,800,0.9160192435677004
390,5.844320889825967,3.6273756400224704,0.01359045801951769,0.009170678293903604,-0.00024152097181647859,0.02720723374175752,0.018315038885085067,0.012014290171551123,800,0.9065728722891269
391,8.031157902421292,2.873842284179064,0.004221611953675299,-0.0026405148178075735,-0.0012809032509907344,0.008905824870159047,-0.005743630598423597,0.006392471691324462,800,0.9270809782812749
392,3.418422962426649,0.309654362460951,0.00817589133092967,0.0024942570862537044,0.00010521713633386109,0.016355678319785932,0.0049846185145808195,0.007259955545058185,800,0.921637513043287
393,1.506429768402946,1.22715904294108,-0.002875291111400483,0.0022665628809496355,-0.0017973005019796206,0.005665012189451115,-0.006882468650352809,0.005441737007323184,800,0.907107546890827
394,0.9103460222390625,1.064558984694854,-0.00052121482897964,0.004379335678696046,-0.0005975250512382188,0.008902279850551864,-0.0011860381511190525,0.004775345970925682,800,0.9559057249249158
395,3.2978483958569837,1.9649911455897056,0.009971904550262362,0.00368296624669275,0.0014927313699831038,0.02061646061235156,0.0066932809815586644,0.009108329906671039,800,0.9205776001689869
396,9.79108327005413,4.70722790509309,0.004343148694710926,-0.005671969353689243,0.0028853957839473686,0.01022992602236546,-0.012887567340322096,0.010032193664325801,800,0.9881269287970461
397,4.061898697978197,1.0513322929487119,-0.005417273372960171,-0.005403965182392381,0.004014802010551706,-0.002791623505821456,-0.01885085360488365,0.00881083647281598,800,0.9839843471946327
398,8.423224231808446,1.8415627851517802,0.013711645517906343,-0.003033085674890814,-0.003058475427101594,0.028505592980129824,-0.007148473294098765,0.016335857581836477,800,0.9049838327219404
399,3.6266015362473327,3.381138434868088,0.018656120838382237,0.006520922805980779,-0.0025104918215460843,0.03830995299567582,0.012044134293050212,0.016965431402999734,800,0.942613275515282
400,1.4334445840512444,2.8421782536085156,-0.0003515176705353065,0.005715122373115855,0.0021975147579909476,0.012854960111689358,-0.00212775070652826,0.007020140187387563,800,0.9153067755684144
401,9.572109144520706,3.932324191356371,-0.006991712325137098,0.003980935771212538,0.001100113605605755,0.008180291582195461,-0.014201844690044582,0.009807966067685804,800,0.9598472227725374
402,6.904247018268314,2.986966731394612,0.008056228864782434,0.0016973458467672222,-0.004597112241070717,0.020932535175958285,-0.0014253857528589726,0.01084019938525365,800,0.9351731218487601
403,3.070637291167422,4.300826217716439,0.0065686135508956685,0.0007775264224792328,-0.0022504663776682864,0.01468065330399011,1.1626642759692517e-05,0.00733742171848077,800,0.9837628696140437
404,2.542811920189607,1.898535118843473,-0.0027049500452912666,0.007849711206991645,-0.0026854485911454178,0.01698737112290327,-0.006697848799502512,0.010573679580572771,800,0.9271024728323307
405,7.673416920730488,1.1970147211297206,-0.0003271206709238527,0.0014645284150614848,-0.0021165345298408355,0.005734023902938187,-0.0034592084146629226,0.004021204319307319,800,0.9397742689581142
406,7.321763802483106,3.4641947750766717,0.009414878811994421,0.005018364502110345,-0.0014805674371795002,0.019733965700832874,0.009132520927376656,0.008552945194896779,800,0.9750100706963714
407,7.080678893726323,4.95430655281509,-0.007717470189521378,0.0012329055461305202,0.0017383385830280096,0.003117336726979574,-0.01608646601376129,0.00892523260751897,800,0.9463460479322893
408,1.0262172304714623,4.250643718584208,0.0040977501593052,0.007878345343029431,0.0009707038079993422,0.01622603238123725,0.00772615862343201,0.007028740177034029,800,0.9836524380790429
409,2.8540393159463617,3.8213385013419865,0.007227012889036209,0.0006699907593453534,-0.0012150508027657248,0.014889852354199679,0.0009041549425634439,0.007229496277230145,800,0.9488974679860995
410,4.502066321555306,0.595902096776656,0.004331679556072204,-0.0012149198709318055,-0.0025637575298212804,0.010670313543457849,-0.004436794173177053,0.006724632306052574,800,0.9424284163615159
411,9.177964764798856,0.742762842707913,0.006896015728376446,-0.004241627073101946,-0.004274949664766334,0.01669532401295159,-0.011386546702402588,0.012232021258653962,800,0.9310584191672718
412,6.781244188243437,0.6502997109859165,0.00789592998024693,-0.00396586215964199,0.0008888610546544518,0.015924333478320556,-0.008064197837110678,0.010571573429226645,800,0.9863642999370729
413,5.2150394566450125,3.7268546378782856,0.005124721213628433,-0.00023074541295601083,1.6648115490285775e-05,0.010249545931616212,-0.00046159433027136675,0.005243982108568333,800,0.9328700009392397
414,7.314873327114731,0.42341134803244473,-0.0064190021877621635,0.007921236066641362,-0.0013737358484949154,0.0161032966456376,-0.0130988288878792,0.012667180116183197,800,0.9764074932082126
415,9.337050330874947,0.5453487279121605,-0.002045888958070079,0.0004935380172578195,-0.0006681154083358539,0.0013171790134565815,-0.004421880895081101,0.0026034784384923915,800,0.9815253599033018
416,2.8841772361702778,4.01322693598129,0.006545020598562982,-0.0016933829330800856,0.00014552970282224778,0.013095181098243053,-0.0033919057672772606,0.007540000215857782,800,0.9144301989462418
417,0.24526654718696528,1.098753634039829,-0.0014423977352833787,0.004150392442762893,-0.0007433507954887677,0.008495013248685858,-0.0030790238337268286,0.005191386763778418,800,0.9001092660366123
418,6.154379693565141,2.1307097669158335,-0.005078954116916323,-0.00020577386754624277,8.186295605139659e-05,-0.00040879813292198607,-0.010160657836003145,0.0049812755801399745,800,0.983058752364464
419,9.965193430225245,4.896305143168651,-0.00612277224855887,0.004790267149798235,-0.0011087680371592071,0.00980355772213787,-0.012468567919659139,0.009667099555854602,800,0.9719861130109785
420,0.8963830016313923,3.85473266377133,0.004510326271098418,0.003165289338683394,-0.0002103501448086856,0.009084910853243791,0.0062663203663198335,0.004027201703381018,800,0.9851812040646488
421,8.237670240105947,4.827868359768405,0.00373995554797288,0.001473003794530956,0.00019591066741968813,0.007513523232264067,0.0029123954527436047,0.003280728872491759,800,0.9495471334604438
422,3.3417761206753926,0.5655402084522387,0.006629773447903255,0.004896198479185237,0.00022203456140244598,0.013315519232413048,0.009736424621763936,0.005967735490494178,800,0.9797567271675782
423,9.661244806915633,3.4514402639393986,0.010469537518481035,0.006520892764884706,0.0008628941738855882,0.02129973890673058,0.012681121660000901,0.009278808431691692,800,0.9263461127073873
424,7.087541764366914,0.9756117073309062,-0.006198831466261479,-0.003737372097362914,0.0014361392384998955,-0.0061535106241730865,-0.0137188965030757,0.0059509335166910236,800,0.9025532525643493
425,5.567386009613027,3.2789679073771385,-0.004605140556357947,0.0009053771049841251,0.0003881455412500108,0.0018651653658467507,-0.009264692268594395,0.00516220756601082,800,0.9218851435973753
426,5.159407309005911,1.8408958245391838,-0.005727614953850099,0.004326143719953538,-0.00043591484890835445,0.008690017778785216,-0.01149296024657834,0.008767533477248186,800,0.9473909098706337
427,5.535886187935456,3.704048037250019,0.0031394488813724706,-0.0016359146514252965,0.0003309997315182131,0.006324565256546701,-0.003317496796652353,0.004242276383586079,800,0.9060410696707963
428,6.572316691238137,1.8914106103927248,0.010279066239252477,0.0012419770987492633,-0.00012809284207602385,0.0205617629574881,0.002480323718515382,0.009720317295626349,800,0.9402016405090294
429,3.4858311145114573,2.1131473740142708,-0.004602288080233717,0.012725179959029092,-0.0006995602696735437,0.025506754710033344,-0.009260970952442592,0.015593086875924303,800,0.9445050203651825
430,8.439980167966754,0.11640909969768853,0.010937607943212227,-0.00516620708797558,-0.001638558475659729,0.022205279097189633,-0.010662477386716336,0.01452176065466782,800,0.9830733827254287
431,7.966090328160176,2.3672209490587033,-0.001323321347507176,0.0008205712450659555,-0.0015670767118876017,0.0032945111648739183,-0.0043000113697563595,0.0032981182916270594,800,0.947526100963505
432,9.109631309702479,0.5640148683549678,-0.00235162553908895,-0.0010284227261397666,0.004270249311198091,0.00526234621797718,-0.012022442748434614,0.007672966725545583,800,0.9768727874638627
433,4.930781159633745,4.265126399213443,-0.00988763440222479,0.0056316822628097755,0.001247482962320557,0.011462637005757649,-0.019974541284587678,0.013778019294851588,800,0.9578160933404717
434,9.599710087733136,1.4929890812667512,0.017170490752045638,0.010578082318882657,0.0008115799239131245,0.03453786587955231,0.020959280262304286,0.015068732511365613,800,0.9517647857435407
435,1.9894308288382634,1.4547880048026958,0.01020247084936619,0.005803396071751896,-0.0005399667584650057,0.020535559548662593,0.011476174293573577,0.008912661243936002,800,0.9673675722763349
436,0.7148289553351728,4.503324449506347,-0.004136520675673436,-0.002645818580044482,-0.0008431080163704145,-0.004531668856262507,-0.009033009655173327,0.003911415265623385,800,0.978547552013016
437,6.3962792177808385,2.8074385668047213,0.005662881478407789,0.0008898409247456193,0.0011903755016862908,0.011886566370402847,0.0012188784359039705,0.0056632112200958535,800,0.9080068875504541
438,7.870026525850124,0.47930367047690936,0.0018198652583868978,0.0031939249148450273,-0.0005255433180311806,0.00674376793494296,0.00328381241152089,0.002920469186160042,800,0.9603913994355471
439,9.604799590145063,2.0055168689605734,-0.0012367717448003319,-0.0010663122297077223,-0.001123464311001167,-4.969881465212867e-05,-0.00455646913436398,0.002265912058620797,800,0.9370279583396858
440,9.833245849065191,0.03718816750538312,0.00562258275926842,-0.00032552724386741404,0.00278011339965341,0.013439299350434093,-0.0028451883196320823,0.007532383439865552,800,0.9479506454491944
441,0.3171694349128995,4.068151993913242,-0.0016380381674969999,0.00032260845009376277,-0.00016746472269605787,0.0006736185204383616,-0.0033044779552448356,0.0018438610318303455,800,0.979504568459973
442,8.482966975229084,4.7777685945075525,-0.0017881737920606485,0.0019100746982852407,-0.0013896231088741978,0.004748049567391288,-0.004504247754942104,0.004006825867709427,800,0.976675120062873
443,1.1893812735069798,3.724218814184121,-0.0020358482610028693,-0.0003075742402815979,0.0009863962528267798,0.00027933203566002504,-0.00496617703822896,0.0025557852561744654,800,0.9269112770060642
444,0.9859937966404275,4.295773790396718,-0.0010523788772169346,0.0006089854491916553,0.001052466142769046,0.00223818658229768,-0.0031249734383482393,0.002332874395853057,800,0.9241424592868881
445,0.5851725348698877,3.240638189051351,-0.0005907387907855329,-0.0015520142333894948,-0.0034095483400071766,0.004743764964470338,-0.009029271012820394,0.006059368377694573,800,0.9373111636204428
446,8.324870581811068,2.674064889720473,0.0010412142721165137,-0.0036436326639933915,-0.00205959607857476,0.0036358133160913735,-0.008840650099845129,0.0055569592857353306,800,0.9398917404314409
447,9.461484447397627,3.624210059022186,0.004863216361942086,0.0110281833002818,0.0005839681017157283,0.022166022545402418,0.009616776779045358,0.009626126689936771,800,0.9603242024097385
448,9.168120514841092,1.194376696122203,0.003957427881399566,0.002214818193959391,-0.0013268060664296999,0.00934688713765544,0.002997605013062471,0.004133148292707415,800,0.9899943529798311
449,7.328570422740663,2.2988976804854717,-0.0013500614111782803,-0.005896563995395266,-0.00036458461950704743,-0.0026420218918921656,-0.011851228921254927,0.005387965765607777,800,0.9233527290676264
450,7.946481476366659,2.333561309254181,-0.006069558572163866,0.00844495842103085,-0.0012612870283043945,0.017107493502411746,-0.012356693804677778,0.012813530687250479,800,0.941482127794463
451,2.8440676646108254,2.3598345677363457,-0.0005194316204837285,-0.0030054352964150773,0.001428292527920841,0.0002619909439143253,-0.007311724777711937,0.0037230889109667493,800,0.9710049353736175
452,3.447986214696459,0.23751589269248863,0.008213257226475389,-0.004114413506010344,0.0005016005743309057,0.016467266345572162,-0.008269578904642074,0.010905665437567082,800,0.9873866011598016
453,1.4825600055772048,1.1591488982092395,0.0032385278641468415,0.0016622645046659,-0.0023296592306091203,0.009819517274872366,-1.7932537246882416e-05,0.004914247906513442,800,0.913353674850092
454,9.04325884554382,2.958249072805824,0.01564036982078603,-0.0013996521806153017,0.0023177692578396202,0.031900008881287606,-0.0034185736009461447,0.016869719472495912,800,0.9534205928641722
455,2.6276031141396503,1.6998157623427694,0.00808231165122806,0.00686099644343672,-0.0003174485698532022,0.016319791009484202,0.013566825179845355,0.007566151142695394,800,0.935738418725025
456,8.319094607876945,2.911574759647299,0.004128614786336528,-0.0021414934151609347,0.003801585997904528,0.011842195255035664,-0.007867952512684477,0.008592381729078457,800,0.9748975772483406
457,0.46428800573839024,3.665825136580974,0.012429255755002176,0.010917050550703316,0.004009564488810166,0.03150677161962104,0.015185840991789951,0.013645783236394678,800,0.9427689950261144
458,4.532112064166899,3.1741965848387252,0.005682927013497216,-0.004756763184952184,-0.00037032372793506974,0.011392093796468925,-0.00953976613937886,0.009075583310699199,800,0.9586346978858429
459,7.951475034704321,1.4372005571669144,0.0025341323690326427,0.00426864250373073,0.002373142015293216,0.011856064643434569,0.0017494851020921761,0.005542674410620996,800,0.9799799235782736
460,5.099898286529645,2.975927019246144,-1.9245674761018093e-05,0.004718925903981024,-0.0008339707121038512,0.009722856366305672,-0.0003234959078656603,0.004944286848714435,800,0.9556030010508616
461,2.4914276524686683,2.6033073547171877,0.009677402191433631,0.0023621044712375076,0.0005107321479807136,0.019425775683159802,0.004653237642182474,0.008783800868781043,800,0.9698008586967286
462,7.626822911062052,2.1785180794313996,0.0024405395220188347,0.0002671538165771737,0.00022922141967800434,0.004928903653171138,0.00048648302402087926,0.002352282349155923,800,0.9540628934140708
463,9.378080435693048,4.149688588459258,0.00540585122882428,-0.0037399408501204937,-0.0026059439721961056,0.012192509482696958,-0.008860688725289384,0.009154276643711977,800,0.9407244866224844
464,5.1762383660048075,4.7110280431319564,0.006471030874395764,0.004165397399156962,-0.0015597510120386512,0.014515505302997249,0.006757351244108202,0.006290376026509153,800,0.982751539196676
465,4.747449980513567,3.9479941924010427,0.001165662274010619,-0.008545157962380916,-0.0003982861841971866,0.002363940933356186,-0.01712293231009678,0.009209514485295603,800,0.9370242139843855
466,4.950242495731295,1.324984956049039,0.011497033978095587,0.005444928951375614,-0.0033565167841320843,0.025980369589004213,0.007903556269938185,0.011533738473851926,800,0.967731180947822
467,0.26772066244003967,2.1622451880447353,-0.007207858569530214,0.0018285830240268122,0.0009738936151281759,0.0038647036717015543,-0.014623254762708359,0.008445265843932953,800,0.9771538491452486
468,6.962369671488896,3.087512130918149,0.000711919910576025,0.00516860146780427,0.0020270346623804136,0.011905261089978223,-0.00014421833321763295,0.005989010716702362,800,0.9331152422696019
469,3.992027590149699,2.89582709483202,-0.001921998098650588,0.002629106460459216,0.00320836815190132,0.008573941110792732,-0.007159724387175477,0.0068220446850047484,800,0.9291294229491446
470,0.7064734596489985,0.5780523597635856,0.008052936592395726,0.0043703027658657904,0.001634699998491179,0.017347746261553536,0.007498732454969497,0.007534739226980094,800,0.9348405072381359
471,8.145607791125506,4.082392763271591,0.00453907588776041,0.001753694307728359,0.003210676732203737,0.013292208091580118,-0.0007066677006025814,0.006829629369829502,800,0.9793762505428169
472,9.023787739295901,3.4168261188309517,0.026079557298278853,0.013471986942116257,0.0006190383927385534,0.052219758969090195,0.02688332951170002,0.02261512571840423,800,0.9756913737832937
473,3.6700840860085115,4.420439908834771,0.0028077093448678554,-0.0015243651084870776,-0.0015028658713471595,0.006556037322314252,-0.0039893488495526975,0.004611150874901074,800,0.9713279804046057
474,9.0899121200105,1.6292836341695,0.009441954904288683,0.012234889238575944,0.00092033773942796,0.02502177589315522,0.018331912392574035,0.011218859982595723,800,0.9339489486167345
475,9.675712603958823,4.015055451947006,-0.0018466552078547555,0.009352915191406588,0.0019474125173525696,0.019363748721854594,-0.004351228754750927,0.010933252677927116,800,0.9804130203329361
476,1.1408549954990288,1.2916261596182455,0.005793070873801234,-0.0018856740868730235,0.0055338493026021816,0.017377997240758135,-0.009563203666901712,0.011828344975213836,800,0.9199848677059336
477,9.395004050485673,4.595960429255609,-0.001622788153825464,-0.0030912173555828213,-0.0009918447382159473,-0.002245947921044433,-0.0071820630977721366,0.0031818144478101187,800,0.9644013781549139
478,1.1104004047809723,0.8653316429139307,-0.0006392422293342941,-0.0018878516761106335,-0.0040992191792325995,0.0057658800525590805,-0.010820067863448937,0.007292229679791615,800,0.9830447803771545
479,3.0343944838068193,1.6186088669170973,0.00022658809088898623,0.0016966470811802695,0.002201564954025307,0.00656528498030118,-0.002718814636162668,0.0041335430563078195,800,0.9270971375647316
480,7.4940277618254845,4.966035200482239,0.005105000980314014,0.0032227837158725118,0.0021320084393262172,0.012988748305998825,0.003666821086374227,0.0057992616612380496,800,0.9047039187280475
481,3.771814957375621,4.3352272709637845,0.0028768341113579983,0.0006474055213680626,-0.00033913808723614697,0.005854563731799253,0.0011939155336528691,0.0026791554737006663,800,0.9219317041583877
482,8.494005443763447,0.02623818036501191,0.00019199893272404522,0.002743335920346682,-0.0013629099227556254,0.006668887350973272,-0.0007982176448318177,0.0035508602289950368,800,0.919751752876717
483,0.7199338899323804,0.12538915703596776,-0.003669728000935609,0.00510855172849726,0.0003314481882622765,0.010242097358102813,-0.00736444990297951,0.007657726385186705,800,0.9655042385842709
484,9.592521098526031,0.34702427885686615,0.007069764012825362,0.006917076165892013,-0.0006926970171169507,0.015380622876519305,0.012593057480915444,0.007096823035891813,800,0.9688444363816204
485,3.3909567599661927,2.644380047812213,-0.0010919067560174302,0.003041974785372055,-0.00016691189776002257,0.0060974063233325965,-0.002197270264623347,0.0037216935020632533,800,0.9215280777271179
486,2.6040142505476727,0.33966383443577886,0.0008630389597922403,0.0044583126912616615,-0.0013562714529554314,0.009825114768781278,0.0008175885333265272,0.004721451843871181,800,0.9343607392691948
487,3.501515106737496,2.1790616021702913,0.004117562258534857,-0.004888726094997466,-0.0002792821934267845,0.008252428800687689,-0.009794756473612908,0.007824167142679899,800,0.9351755307174531
488,1.3341562779398453,1.7267951614100596,0.007889674316413497,0.0030033687643173496,-0.00014550028383813394,0.01578800613256623,0.005998080028895467,0.006901818191519515,800,0.9569919586190424
489,7.38521261809289,0.2754007237349282,0.0033143739320425545,0.004121578461306907,0.0030599343546268867,0.013608826292156106,0.001263078494542818,0.006511653102474528,800,0.9652671736194263
490,1.670941994641545,0.8385923733977485,-0.005012302574932112,0.004952036537766416,-0.0032090420820514716,0.011792153896770272,-0.011912685971101664,0.010264540989083776,800,0.9543993781713375
491,3.0397610188924498,2.1598389857308615,0.0042408736092247445,-0.0015664241077951477,-0.00032755447602869804,0.008518581131806363,-0.0031696821289471694,0.005234842492262962,800,0.9602354234562979
492,1.7680861299704442,1.2407512923127173,0.0026773241204935015,7.877846198831604e-05,-0.0001346407203716392,0.0053685634977234074,0.00014364166724022782,0.0026491016187642612,800,0.9341026399185185
493,3.1334392127862265,0.06371463925682608,0.004557543923299039,0.002516157294257331,-0.0006006757370848307,0.009442351620997089,0.00470505081411565,0.0040886661369087755,800,0.9492448645602461
494,2.4788511713552297,2.5447280548854643,0.0011802172453203065,-0.0027372355981266595,-0.003308663495419723,0.006132939597944935,-0.009246976303557641,0.006705047837337641,800,0.9646213788196911
495,9.121166805682632,4.555198929167632,0.002220957179435149,0.009659509186270517,0.0015310870681227826,0.019924654727441468,0.003836278003969863,0.009155222283810492,800,0.9765901752893272
496,0.5032282479481032,2.847787368274057,0.007474415121937526,0.002826912958052832,0.0017096356615303246,0.01607113680680426,0.004531519353176459,0.007176166080220889,800,0.9559178688902781
497,6.576620697618298,3.161528914049563,0.004563434586288583,0.0016959428897188912,-0.0034399517657464707,0.0137129391234714,-0.0011941841714564532,0.007173676708717525,800,0.9878486048957135
498,1.0047555937925334,4.605512490424727,-0.009929914837442887,0.00045901838258749993,0.00044285240983905644,0.0009557236340253811,-0.019897516543736157,0.01019609115166381,800,0.9503175202061386
499,4.598540564202782,0.9526657404455441,-0.006316798595787827,-0.0047208879331804435,-0.003507490882283377,-0.0038434596768160516,-0.018231913381120488,0.008323178838527557,800,0.9164105329208585
500,9.027644377386467,3.9745410884229377,-0.002904488109953629,-0.0037519888115585195,-0.0015012749504793187,-0.0035366110034048487,-0.009776342839619447,0.004286880423091084,800,0.9184285817632788
501,6.843698957317185,4.68606485896073,0.0030321395267720493,0.0029204328343200078,-0.001697559770672006,0.009349529099873778,0.0025556156223103354,0.004184825652566088,800,0.9562079265874505
502,8.131696141009051,0.8706307012325193,0.00034407060505293584,0.001376178328655909,0.0005975371941935784,0.0032993148433211853,0.00014118302409650433,0.0016155187893232598,800,0.9517444300742121
503,4.444374091002493,1.6843092249728964,0.008586235066515558,0.004936033012825391,-0.0022685485567460937,0.019345430901212157,0.007699105257469741,0.008434740804548061,800,0.9313203110881447
504,6.642527913344882,4.31655381914598,0.005831431003601766,0.00943178177356014,0.0018156434393956974,0.020376799587104845,0.010149625967218967,0.008823434343686501,800,0.9274015693321773
505,2.006299295402749,0.240215281624796,0.002486901685747246,-0.004298144545926498,0.0012615983605460106,0.005427774618683442,-0.009050260339041945,0.006334246657582674,800,0.9702609625390458
506,9.404928868217258,2.8803646741096935,0.008898811259341343,-0.0036310779616336077,0.0009005440186132432,0.01792640787318145,-0.0073909412777659785,0.01127469667129689,800,0.9128928326253208
507,7.563688458926562,1.4439984553022116,0.012056075723999086,0.004397395924881622,-0.0026446627892887232,0.02576112126312831,0.007145822034633103,0.011517527440007815,800,0.9819458621643211
508,9.280802285679423,4.657660767798214,0.002563273361519464,0.006527670436453291,0.0017288329022163134,0.014351352240564129,0.00383053535538138,0.0064354671564416975,800,0.9699687251972579
509,8.866183861843398,3.453954055251792,0.005263821398102867,-0.0034464182441260377,-0.0023057323040718675,0.01167305536259388,-0.00803824905464022,0.008583481164360696,800,0.9338560837404817
510,9.630017577723283,0.5904362457132045,0.0016171303179478521,0.0011545792109440753,0.001358727977685332,0.005528250911851724,1.5168145932131262e-05,0.002760341233455568,800,0.9409775455063822
511,6.829122542972926,1.935194571812397,-0.00010277851050959725,-0.003392865452767533,0.0005318214419995056,-3.78978372149656e-05,-0.006953390089339295,0.0034672594197323035,800,0.9624783987450414
512,3.5209017656757613,3.7729154481423395,0.003004805244220974,-0.002177896629850137,0.0004805416080401047,0.006097969196808804,-0.00444415196806713,0.004583558029732866,800,0.9094918131004476
513,3.697387858366563,2.17462651623942,-0.01017966169442167,-0.005755936731350623,0.0015046545301190513,-0.010585338285467986,-0.021285858566076604,0.009217092110506758,800,0.9880399892781195
514,0.676386868153066,4.6687456048278815,0.008020674651020548,-0.0023139019624964377,0.0009825987140268811,0.01622653859427892,-0.004812993217230699,0.009546775354198515,800,0.9530054245194535
515,0.20100596136135573,2.033675649447484,-0.013341161506518815,0.004980256404469885,0.0032542811772069543,0.01108223605853496,-0.02780404626263282,0.01734943766161199,800,0.9266609408074973
516,4.026833536424865,3.7758884011730998,-0.004554212241255999,-0.0003147029032628888,-0.0005915562646150529,-0.00046741600402686306,-0.009270414285010912,0.004522884000717393,800,0.9047520761421103
517,9.72826721279729,2.33757605611826,0.009092770692067534,-2.5847639350062976e-05,0.001940721282920533,0.018977260921124776,-0.0008434148156898375,0.009706357242058723,800,0.9644679930529613
518,4.879598943850861,0.7767673759109073,-3.054910021286312e-05,0.00029297232160845445,-0.0007434026901715947,0.001784019866171973,-0.0012591734233807906,0.0013242578105595478,800,0.9464539260576222
519,9.342858782502494,4.886792710794228,0.0007876474239661094,-0.0026501099989744295,0.0010347556281515252,0.0021501491603764782,-0.005875074310393118,0.003597635531156194,800,0.9860760431392399
520,5.503480967280918,4.762786292050915,0.005586652928678053,0.0011357779179403803,0.0012769936099404585,0.011854013358916577,0.0015908483343202882,0.005572039432046838,800,0.9284014497761923
521,6.797456705255486,0.10213467739296822,0.0007456638190889505,0.004086772294656177,0.0003680074662169034,0.008253652830977856,0.0014112193965123967,0.0038231731020268427,800,0.972437661512466
522,3.97571844331573,4.865461855927633,0.004770816652810834,-0.0023472795897234388,-0.002551250804536517,0.011181551494941993,-0.006334477368767204,0.0076808525285589,800,0.9691821240212057
523,0.3227618281390032,4.004250852871422,-0.001141506309051861,0.004558112289803359,-0.00045618284938764823,0.00918878610101092,-0.0023555741395079235,0.0052826931211708,800,0.9179374933198242
524,8.142076590571591,4.182160494323862,-0.002451597683576583,0.00502412585374105,-0.00034664915648132023,0.010080331108252395,-0.00493527476792346,0.006627956247173311,800,0.9101019352321191
525,5.589090219276822,3.2071155059855743,0.012943433345966354,-6.195611068379454e-05,0.0008723751787446324,0.026003379106928518,-0.00024042463636339897,0.013062210589620924,800,0.9268624330662655
526,2.07818823720076,0.7827412472002865,-0.011812461349142473,0.006839803693346542,-0.0032873514816829405,0.014804442998034744,-0.024749758309626606,0.017306996092454893,800,0.9030563106929598
527,9.446537987043865,3.277592150183315,-0.0001231382491395103,-0.00981688527880517,-0.000588937309953298,-0.0001749776962359558,-0.019705069359653403,0.009809082882999429,800,0.9695637513979284
528,4.091106527240511,2.4602536153404624,0.00033617195124609005,0.004255799744396448,0.0013798980686887748,0.009385713110938193,-0.00020176971965311583,0.004744103559255019,800,0.9549615637972984
529,7.481467172540414,2.7763373110807654,0.01327120289224024,0.005767721394200379,-0.004423729529896936,0.030639776255419242,0.007438072317461998,0.013840339024056491,800,0.9281113245335296
530,5.064244279900222,2.6595914783506034,0.0021872708126846408,0.0027726031025846034,-0.001647962378338935,0.008307370575653181,0.0016123772548853072,0.003815021327896251,800,0.9341345087330807
531,8.276305898263418,4.475841456499733,-0.004275344594983403,-0.0026330284434784076,0.0012454412495309661,-0.00392480169431279,-0.009891944382610832,0.00431366178366558,800,0.9152145802549967
532,7.284454174466729,1.4704941880177635,0.008354731930067695,0.006229970482229971,-0.0015726856302593233,0.018380485806633297,0.010788919017962036,0.007999022740082436,800,0.9508112756196292
533,5.321798056437684,1.0525215048873555,0.001978403313105424,0.013205101629547633,-0.0017903180983598898,0.026967379970065146,0.0033996299152409676,0.012719256604933409,800,0.9292595186999257
534,3.011311067783712,0.11157967854914186,0.005545552301298773,0.005040561735724243,-5.866982099471296e-05,0.011104557922994767,0.010067670151051264,0.00531206557267416,800,0.9158769086859657
535,1.3397066702026106,1.8355698756975487,0.0006247759111814727,0.0005739298994664813,7.849392758338529e-05,0.001363722487311811,0.0010336891339840968,0.0006161548367116663,800,0.9558788153100098
536,1.5008121399065544,4.5813789957632025,-0.0013483564825756103,0.0013468694011112624,-0.0007228324723234106,0.0030569749006888356,-0.0030599490636175316,0.0026487058774163855,800,0.9224184521692349
537,1.733074126402332,3.883122248443251,5.928039146173617e-05,0.004101793937933272,-0.0006924904790314437,0.008434256753256956,-0.00011210809446693913,0.004245432947814573,800,0.9880861926065322
538,4.357820706473385,3.6487538418957186,0.017441619399222376,0.00737438091688228,0.002349463784987691,0.035925870295910184,0.013706130336299126,0.01570128581194434,800,0.9135578332295472
539,3.701367439329756,3.5903679812061187,-0.0020898271918109394,0.012726931823670047,-0.0009405650601215268,0.02557280007104515,-0.004298590807326934,0.013985465577747911,800,0.9714054551718695
540,2.8767536669336002,3.6077185285964344,0.005522424080323141,-0.0028781834100070204,0.00021041438702404085,0.011055382273193701,-0.005766900932561459,0.007403274915764102,800,0.9454960010526009
541,2.612768949615898,1.1538001501114308,-0.002349429190602782,-0.004546769042353938,-0.0004782729897624251,-0.004499683548036357,-0.009292712917877083,0.004024530965632897,800,0.9183936765139075
542,5.716325253783488,3.922877682727766,-0.0011544357613996947,0.0026901665530154337,0.0008956934991076882,0.005777196851055713,-0.002705735267824235,0.003752618154850706,800,0.9659784099032523
543,0.9876199631038751,2.055606986249029,-0.0048680119073506774,-0.0021789377011998436,0.0003256862845997532,-0.004280109116203464,-0.009813790100897578,0.004261036191929266,800,0.9389621619649364
544,3.57110934790537,0.6143755739681567,0.001948506844775814,-0.0010543803914542394,-0.001651258673680126,0.005357751950955619,-0.0035694990443124693,0.0038913789286034494,800,0.9035159831412214
545,4.635772148812569,4.962095720795043,-0.004646877272840082,-0.005758075135204746,-0.0011806205027964204,-0.007795312629106576,-0.013014592186983082,0.005672162152590679,800,0.9838937089570534
546,0.35523839301571325,2.949006772867671,0.00699689490537198,0.00031107612520817095,0.001301547165549595,0.01448266773899869,0.00013327432216161082,0.007208246304705017,800,0.9249167378288884
547,6.850618993133094,3.0430421379640022,0.006063450965566997,-0.0019462434656871684,-0.004188880328837428,0.015707810526441844,-0.00747339552668219,0.010246677914757453,800,0.9091810331124176
548,4.530486328091063,1.4234302225505062,0.02146401171907191,0.005184029317183175,0.0015751451686031011,0.04323002391570897,0.010066058156801203,0.019589567119473572,800,0.9199520406992727
549,0.8063565915549209,2.9333193311266674,0.0027847500360881003,0.0017622630362748681,-9.856786543150293e-05,0.00558833058454163,0.0035056955601843074,0.0024458308590205903,800,0.9419100190453957
550,5.435309142293531,3.1082001495620104,0.00048802763994464245,-0.007981480764391053,-0.0016705935118623333,0.0016112765990884438,-0.016598182847981265,0.008729836048634202,800,0.9897314987311481
551,3.2474031853283303,1.4742724438485673,0.008675196253758125,0.004768649356214886,0.00025579468964292523,0.01738374819197968,0.009503943027966347,0.007538326768121341,800,0.9877862905559581
552,6.987949471232389,2.5551819819711024,-0.006301341577104989,-0.006027320405696858,0.002026984270320332,-0.008265442996470435,-0.01639188096913326,0.0070979777380398255,800,0.9185595867322508
553,2.9923857054861704,1.3944394945092058,0.003484620976699472,0.011542510755439338,0.0012120270734891443,0.023441739637074313,0.006612523827203308,0.01046699057366135,800,0.9867877597428171
554,5.402766909702031,0.7850173828557816,0.004978636323860997,-0.003816764136399341,0.0029552517164744448,0.011758717005012225,-0.009434972630088915,0.009195505794160293,800,0.932650525333424
555,0.26144216341628557,1.4423051922872459,0.009039569439050486,0.00859120383555077,-0.0017380916571180648,0.021135752896307397,0.014125793652895109,0.0093233418459547,800,0.9823019286248547
556,8.411907043400252,2.4905685622718625,0.007065804023482403,0.002482406959646662,0.0019412898944101732,0.015555036639108632,0.0035413853271495004,0.007060704574657361,800,0.9600719779853688
557,1.6681860640590263,4.506573306152698,0.0027006490978209487,-0.001471992189525167,-0.0016209749186249746,0.006512705929653402,-0.004055392113061837,0.004617172294235786,800,0.9006418480536763
558,7.609052000174668,0.6304578806978273,0.0011733186896029436,-0.0006162603734305044,-0.0007073844961407466,0.0028383221159923692,-0.0017242054836474907,0.001995169638196428,800,0.9297274717057772
559,8.249693046005897,3.3712401365801763,-0.004122424414093195,-4.856058459201066e-05,0.0005920850610915149,7.149368477202874e-05,-0.00841346368214244,0.004224718688801188,800,0.9796369163533197
560,7.378500871632509,2.537168189820384,0.008013315930249388,0.004600762352966482,-0.0016129934106030714,0.017310088599263106,0.007918067967168632,0.007504540452292274,800,0.9702908312322247
561,7.317947127326082,0.5428658500822137,0.0057114264725043485,-0.002688411085273139,0.0015564885743220038,0.011981134482500542,-0.0059351037080381235,0.007903833171419482,800,0.9197761076644855
562,2.421844754169281,1.8584028375152428,0.0040634512253696475,0.006571052874169666,-0.00015242205469600414,0.01316056743209762,0.008108440766981008,0.005749688368151034,800,0.9745315068560216
563,1.0044292792293708,2.2526789856982887,-0.00029538446972649044,0.0018949985767088202,0.0014007650514585015,0.005155784632654768,-0.0019565564186901085,0.0031818945501949397,800,0.9063761998399703
564,4.378091366802204,4.149298618799067,-0.004424395862746352,0.001231991200078978,0.0012404815335276655,0.002984155249175977,-0.009368964574510726,0.005582139477028308,800,0.9413777755234037
565,4.469119503795502,0.0029063869642542706,0.002462037428816729,-0.0020473786133938274,-0.0009388585057593374,0.0052993956780484144,-0.004470078047202612,0.004235383825123927,800,0.9398046984233448
566,5.144061831431089,3.0031386007689993,0.0023416822783375885,0.006011918614670947,0.0017605659191867109,0.01343975899001542,0.003267442796001649,0.006070207171977723,800,0.9440198871110648
567,0.09796902741748492,4.419712326717963,-0.0034512581189479648,0.007778426585636489,-0.0010215740334563492,0.0157412068662957,-0.007086869932918651,0.010118858689375804,800,0.9669109930437727
568,4.39748320926161,2.9005302753271804,0.0021104009729555227,-0.00221980348186784,0.00039475662854853707,0.004292188317562143,-0.004510993335386778,0.003812281938684123,800,0.9558026339925016
569,9.796959133436117,2.3901800125674857,-0.0034415649003787414,0.008313431245004988,0.0008903777901257052,0.016760980054848003,-0.007017247365595508,0.010580502777794288,800,0.9866338175670393
570,5.5741553100588925,2.6908725452255666,0.005937164836909533,0.00435780400668137,0.0015772849581982878,0.01382281407680243,0.006767123610379377,0.005985888811592379,800,0.9826468705010803
571,4.339281544087785,2.427948922532504,-0.0029796208902297438,-0.0038147816060853422,0.0015673710181064735,-0.0035503154051738928,-0.01003848958745628,0.004408406981174137,800,0.94888434467578
572,3.051530309927087,2.563809621971374,-0.0014194393094671943,-0.0023037648520076682,-0.00039705295945794143,-0.002534660567134822,-0.004911747755814903,0.0021272139557978152,800,0.9198917105158874
573,5.434200434311723,2.495873403815991,0.004617376496271126,0.0027490045242973245,-0.00303894073718316,0.013724954527425361,0.0010078075137115406,0.006624913970507445,800,0.9003270231281508
574,8.951784836329976,4.097510492823803,0.002073876208383899,0.0034965930426121847,0.002539002706986553,0.010844012857977706,0.0002969256440144624,0.005349320382078995,800,0.9261474365690291
575,4.569694148752047,4.346086276609885,0.0027950464873726646,0.006966102493786497,-0.0007043973821817613,0.014163694937391644,0.00535860302492668,0.00619328794184885,800,0.9305791451804994
576,5.741432889177863,4.672816853459235,0.006088994546316453,0.00207841671973419,1.568131972800943e-05,0.012178111718369036,0.004156710813732249,0.005361057758117605,800,0.9025867965829856
577,2.963567995531661,3.498670848806406,0.007318696530111206,0.008333269404155469,-0.0005380179600773487,0.017130888318372617,0.014173043550160734,0.007930095709732531,800,0.9210893512853539
578,0.10519929341221923,3.333346959976202,0.008066933169822297,0.007288972710748472,-0.001150588852935971,0.017785029448832458,0.012926782312309077,0.007960932252924295,800,0.9628597413529433
579,2.707584523788845,3.1117642444477083,0.007659353733149454,-0.004008149346689215,-0.0008157083589097345,0.015432212349500825,-0.008129803576580347,0.010364696562700034,800,0.9150698194500214
580,0.15939013624436615,2.9921507253474076,0.0049184018107132094,0.0016364491549580272,0.0011591657139321874,0.010573043823666254,0.0025366581076762193,0.004780263923526808,800,0.9497404410048906
581,3.481187431012285,2.9893124981177293,-0.00810915061828693,-0.0032831510681050544,0.000783220860030762,-0.006318446020263417,-0.01646615735252055,0.007194035231980111,800,0.9268770047565322
582,6.22011720949777,2.592808149433734,-0.0037106437841374212,-0.0038441034111294254,-0.0027460536280448193,-0.0020610186267599074,-0.013048475763773786,0.006074894359939113,800,0.9194220506619013
583,0.37862597681195376,4.152924608326372,0.005040357571513316,0.0048045554951803085,-0.0045189073834558105,0.018885803419983433,0.0008040227134038166,0.009248451335647783,800,0.9281230513763354
584,5.723496728390238,1.4386517775756735,0.019171031551295514,0.008024781800998715,0.0005081794900892347,0.03838830499055695,0.01600332171403151,0.01669901098202052,800,0.9115675539071587
585,0.34345526112775193,3.9460812421846603,0.006508980977021571,-0.0009593840684069309,0.0010459384994738442,0.013305396405152999,-0.0022062025879237184,0.0072673121465163994,800,0.9483920092631628
586,4.3226809196792395,1.1809353930635402,0.00790527407576508,0.006536113701112053,-0.0022984008485563896,0.019237759944891093,0.009645015608863172,0.008330204662018111,800,0.9251986781307618
587,1.0921900867959633,0.7832087896340639,0.00694158862763507,0.0013675292778067563,0.0005737643796458957,0.014000072121459577,0.0026181636894240766,0.006445973937912031,800,0.9423487093802106
588,1.5651737686735978,2.2007057584441414,0.002289642881581367,0.001208347169477311,-0.0017593878753560358,0.007179156062095659,-0.00018317595997830328,0.0036362372034751548,800,0.9407716797268225
589,9.585932623163478,4.750113709043708,0.006638400796483136,-6.710461571448841e-05,-0.0006122769307701538,0.013387698090341243,-0.0002451057288039467,0.006755959193072798,800,0.902311088911208
590,6.752461728954255,0.33801520511377414,0.0070701498607927595,0.007955328582464519,0.0024045944308030342,0.019915451743378283,0.010135505143136273,0.00862410167896457,800,0.9452156015028665
591,4.586393143363758,0.8708636676357329,-0.010243562522160077,-0.001909142878615668,0.0031290939312443138,-0.0017302552993409166,-0.022575155502210575,0.010880839201421237,800,0.9408143116085771
592,5.224829756412722,4.634709145671468,0.009886777239784553,-0.0023905727209152573,-0.00044015257358083547,0.01980507364684425,-0.0048126646091056595,0.011299533837924036,800,0.9780646131636354
593,1.0838512420172597,4.30795320449391,0.00452324594407202,0.00021839685113892511,-0.0016348457403829923,0.010147436732489773,-0.0006641511420678843,0.005247642343813494,800,0.9559266312844413
594,9.170592669269851,3.731953631705205,0.005636064289171502,-0.0006510377265331127,0.00026444240461088786,0.011294334836712702,-0.0013242817114359233,0.006005676533957646,800,0.9626687675757835
595,6.333687589799921,3.389646852815191,0.019226737531775825,0.007194069836722518,0.002653140159790037,0.0395715374885161,0.013270077248480587,0.017441933451254218,800,0.9527289645017152
596,4.500881418737997,4.991813002506844,-0.0015868396095846844,-0.0065742287781251855,-0.0005529937282620775,-0.0030525207494408596,-0.01326961602597888,0.006018613090784891,800,0.9470627456782175
597,9.984568235571512,2.621187525405188,0.008467662324248275,0.0033802289213627356,-0.001362326505820871,0.017619001421534178,0.00607678106968784,0.007750639730947341,800,0.9153045801989448
598,6.709625256274169,3.2483296398966948,-0.00039708696415196925,0.0008259225282995666,0.0017836524501648673,0.004199964900373432,-0.003342293772078237,0.0032729248903964744,800,0.9609241409553049
599,4.945778300534229,1.2471099244125066,0.0069655104904322975,-0.0015709799483559655,1.7185447241642903e-06,0.013931021672810745,-0.0031419605886580815,0.007869498113677839,800,0.9560027842135733
600,3.409243948831322,4.912054758073879,0.003570857974376186,0.002953912378457293,0.0007969311244488548,0.008233869161207349,0.004815671544459608,0.0035824462441036596,800,0.9187547676502684
601,1.5863446892164457,1.2439354131262341,-0.00177703628990406,-0.001746742314673869,-0.0009118674748845786,-0.0016997920662655548,-0.005347765142890303,0.0023663155078050904,800,0.9583249479481704
602,7.823027583850659,3.1154145770842328,0.005256311197633061,0.004257044986220663,-0.0014448426954859449,0.012570939317648593,0.006455773050058856,0.005444042380002851,800,0.913562462253693
603,3.2287846688830113,4.60777177109036,0.0030582524953940704,0.006602157459656578,-0.0011280440837020016,0.013861504599881303,0.005459315310219993,0.006047129673326762,800,0.9841645022811769
604,5.284917727202925,4.521151622892916,-0.00042127712498495236,0.003911178842566016,-0.0007802183004688788,0.008094805310091352,-0.0011150018749292263,0.00435301117869337,800,0.9441538909716564
605,8.869225464200591,0.4924589073578628,0.009751083034453165,-0.0026207292677756264,0.0014473205959617964,0.019836284951425885,-0.005575577418070807,0.01156680602686686,800,0.9822004429239446
606,5.048542674264102,3.179612444605006,-0.0011683442255467375,0.0012320541934220317,0.004166934892213772,0.008736385342497715,-0.008608965406747127,0.007510824745338443,800,0.9860318038687533
607,0.7108239482257084,4.799336475367356,0.003781743655341177,-0.0071032332802489434,0.0002666796664100014,0.007576546669133242,-0.014219525918948775,0.00958297811913232,800,0.9596996292499435
608,3.0625051576203455,2.5921087086149965,-0.0019882539011305276,-0.0024689447052939624,0.0010857239747274021,-0.002233182004328461,-0.006681215208520518,0.0029455631446426637,800,0.9837834491430291
609,2.7689288634270226,0.17983587894079334,0.007224255399748459,0.004483818117726928,-0.004183783763703073,0.020512968907109234,0.0029031781278415405,0.009613240009978355,800,0.9541694162537124
610,6.480829977775192,0.26910685692378533,0.003964391276454005,0.006753101554221462,0.001700395971384529,0.015115479967005995,0.0063195056943449405,0.006574411097763176,800,0.9723667753241045
611,8.430329173946339,4.596361672205548,0.0026576921975033246,-0.0020484791602680473,-0.0014637566013288798,0.006151629694294104,-0.004933203619823549,0.004809529283777853,800,0.9222418868543221
612,7.110814880383055,1.7059973711170784,-0.0011063747452139524,0.0019653515401944805,-0.0011703360159474843,0.004720873729566485,-0.003002920139605429,0.003371964743825484,800,0.9722869872363896
613,0.5096939647646603,2.1952930085343647,0.013534181050188592,-0.0003997280524242416,-0.002085129108799277,0.02767903537338879,-0.00141012937786009,0.014205179381078369,800,0.9125052243065395
614,3.192569646196902,0.8279259976314207,0.002227601209662122,0.004891391533541558,-5.941626231499393e-05,0.009785432327837776,0.004452553158569584,0.004242928170889109,800,0.923318805596923
615,7.731838282015745,0.32957837408085167,0.006635789046815379,-0.0003589535829972583,0.0006499077877687488,0.013391323849340168,-0.0008376529217039254,0.006914595042427089,800,0.9342830311094628
616,5.991318927101928,2.441876017161056,0.003898475399026142,-0.0004584243361095059,-0.00201862799609629,0.0093799173281216,-0.002499815202288328,0.005424020304650274,800,0.9825868490858549
617,5.3834044117246265,4.125059433761129,0.005107100902767482,-0.00442951500269657,0.004012509966306071,0.013141453191051353,-0.01178628139090953,0.010799341255297603,800,0.9791369709825468
618,9.414915520924872,3.4203082975170913,0.0162479874821691,0.00834971301062094,-0.0010518174141734208,0.03277131775315545,0.016424083232424638,0.014190409850404545,800,0.9834753883134046
619,1.3394737542121216,2.2163228853590375,0.0020668027724248575,0.0020284802531752282,0.002368219883553421,0.008831877823861044,-0.0006413117726608705,0.004584684664960788,800,0.9072385292909771
620,3.936074504479313,1.2329901455606112,0.006183433942057879,0.0011658169914220088,2.486199961946611e-05,0.012367114257585948,0.0023313876093738273,0.005690965346526923,800,0.9451075977904367
621,1.6804796099639097,3.5047738288415093,0.005012756781694196,-0.0016453777790316191,-0.0008523279076465656,0.010240268298827924,-0.003505510293502772,0.006185649989685916,800,0.945815772069718
622,1.0624752420480266,4.559614979185817,0.003215735228899802,0.004578402469315847,-9.243136159021599e-05,0.009169287229912025,0.006418988166519272,0.004074975188952708,800,0.9667233618380868
623,2.661794154287349,1.639076379352381,0.006678354919543026,0.0026152002823039843,0.001324323612231302,0.014143767333885214,0.004443343069808805,0.006263861458140046,800,0.9036513830575268
624,2.551112805487575,3.4986186796258423,0.003198716366068266,0.008688775269554838,-0.0018578677830002955,0.018516777989386522,0.005258205281859682,0.008263697266774585,800,0.9066398069692169
625,9.086604911186726,1.8625886736388115,-0.008289731391742038,0.004092979483391595,-0.0007592939484788813,0.008278729558027494,-0.01667223337472838,0.01100597156131685,800,0.9371949374933313
626,4.222050323538377,1.8743106134022036,0.005623881350372152,0.0022123253235879965,0.002461657601856009,0.013826010269988084,0.0018464030779322118,0.006500757194242551,800,0.9040675275598488
627,0.5981829797901317,2.70058881487806,-0.011085387029265325,0.0026726181165831918,0.0016870081069414312,0.005752918186951924,-0.022578456012316186,0.0129689509386111,800,0.9698838118040971
628,9.105972885911584,2.8436049832613426,0.011226782185028712,-0.002138072620350851,-0.00011911675937462425,0.022455687502055212,-0.004278268372699491,0.012436166401729929,800,0.9100332450826378
629,7.65915125275496,0.8015867245739178,0.002524587248430873,-0.0014835739896500908,-0.001953567036668725,0.0066384281243673255,-0.004556401606805762,0.004875368399860288,800,0.9561140101987444
630,5.995674378198358,1.7066063507898777,0.007079963441865985,0.004546338575357753,-0.0008279021442218953,0.014653006959205645,0.00859959707524183,0.00637678851407889,800,0.95950087148665
631,8.09423175267564,4.301989574704886,0.005429886353690798,0.004277116803774609,0.004296014185079435,0.01837601862341244,0.0010379876915183727,0.008939818199291443,800,0.9459817646132898
632,0.5899956901894032,0.15091878141977266,0.0020284401542891247,0.005243480817112571,-0.0011521811948484637,0.011227495833120023,0.0033163461096833696,0.004995511787451954,800,0.9400505115692711
633,0.21805019474206544,4.128578680960248,0.004380483014245621,0.005549787620795067,-0.0003995575061067998,0.011346553821992681,0.008513987448088695,0.005114387770840223,800,0.9440326191119904
634,4.539063848447466,0.22486248136132314,0.009801831972407821,0.007747310075488673,0.0019612027097914222,0.021977044994043026,0.013121239101749966,0.009575898914967828,800,0.9687220773660661
635,5.864845027794649,3.769980426922511,-0.003081978357503154,0.010717718251734912,0.0007261331436459521,0.021511643608088424,-0.006240163819624907,0.012608792917653001,800,0.9645719991008698
636,4.030485556303524,0.8829416312447735,0.006182258190106283,0.0009238379379244435,-0.0008493525002696784,0.012632087643352979,0.001580104612708473,0.005960418375899754,800,0.9750098115633419
637,2.168525563287637,4.292359622742964,0.004385282057015624,-0.005011145338567144,0.002348220885943619,0.00987886960973066,-0.011130596172833702,0.009102746071910821,800,0.9271868780053528
638,6.133195983458034,0.38209442206292965,0.009843858722983191,-0.00038515402105852165,-0.0027032534142623155,0.021028623362168188,-0.0021112139583188503,0.011079893366501383,800,0.9017747398933629
639,8.521787151386935,0.034648970246945465,0.011178012756486411,0.0016464852793811136,0.0002865340999223991,0.02237323738766086,0.003275758684074188,0.010464260837458012,800,0.903758481680947
640,2.167863714812853,4.205817512935209,-0.0017540517585987862,0.003649411821640504,0.0007319729171794491,0.007493623728582059,-0.003702903602498623,0.004939991345521292,800,0.9178794361682737
641,4.881611362373555,2.0496114663300746,-0.007946378705017349,0.0017192739945094304,0.001330146146044512,0.0037979637275236938,-0.01625217314853953,0.009223378240065874,800,0.903986196089828
642,5.771063810921467,0.2906527662796282,-0.0016352853339734576,-0.0005953008960836242,0.0006761100690468188,-0.0005246944008606906,-0.003936478059253472,0.0018510615689704443,800,0.9037855669674065
643,9.9234567277545,2.5346222039053057,-0.008862791882970332,0.0040071757453621955,-0.0007244310490916604,0.008095648979509935,-0.01780688125472621,0.011475874830241033,800,0.962249194625158
644,7.425676298548957,1.990214656832105,0.004205073386363707,-0.0026919646991064644,0.0022818841744232394,0.009783363574161211,-0.006757146199646726,0.007202097708003728,800,0.917042465997244
645,4.758023129912548,3.0203849329497006,0.007205606612412256,-0.0009764693330931548,0.0002474297304964361,0.014426164341867597,-0.0019678897832293932,0.00775203052814326,800,0.9076733977591198
646,2.9563762042792763,4.338995010830029,0.0017291974945332857,0.006724324153176799,0.002505330056133163,0.01552868985041367,0.0013783534450064975,0.007443722918304165,800,0.9397199770901308
647,8.992309893187024,4.5841822627287865,0.002957119883221051,-0.0071028350635532,-0.001923406460320023,0.006624645221136824,-0.014916075581801124,0.00955495871117491,800,0.9783495946918632
648,8.832989455537648,2.7376233008820625,0.004399307904203121,-0.0005191304676762404,0.0016014297072508635,0.009749533827736879,-0.0019891789546831167,0.005440675745714986,800,0.9681968362605389
649,0.8717499479827873,4.22013878275329,0.006768592411820872,0.0022787446512642726,-0.0011660184955302742,0.014106697639348693,0.003987976486821593,0.006297731660189716,800,0.9573754703132551
650,9.871185504022844,2.028217068958609,-0.0029116052430492945,0.004563429687544857,2.1189505754925556e-05,0.00912697950604574,-0.005823330617054616,0.006526146519541429,800,0.911216495129481
651,5.403217552738244,1.9320006349783596,0.004291769279511639,0.0014278017296144258,0.00025911723127797605,0.008630048132390376,0.002809093885861753,0.0038120245206310667,800,0.967099299849659
652,2.6637307841248425,3.564662422121208,0.014712243709048676,0.006349393724913213,-0.001432509943669495,0.029901637366767455,0.012221637501156322,0.013019498529471787,800,0.9658382561826176
653,1.4628662534600156,3.3062594167597585,0.01205883659118259,0.010779621647905928,0.0015907493167314549,0.02626749956660685,0.019409416911570186,0.011799048139744963,800,0.9044624475551769
654,3.0905873661912384,2.9941489582287844,0.009176052852341991,0.003648957324253086,-0.001533232048124774,0.01914576859866817,0.006504251754521984,0.008431145342128658,800,0.9548810085504654
655,6.97996402693545,4.167122634140182,0.00016150925935539805,0.002223243260381388,-0.00011264921102687368,0.004458759865424488,0.00031074517404908446,0.0021558967965959424,800,0.9826843630810862
656,8.677511790071675,0.1315285365560942,0.006190967828752418,0.008104218694573243,0.00198887944889602,0.01870915239593137,0.00988122065071995,0.008105578972384626,800,0.9345937402677941
657,9.531036623307518,1.3072660212276994,0.007538318086394228,0.004567100216218136,-0.0017572512095705786,0.01670757680555452,0.0075032597996702085,0.007247081152778524,800,0.931941487285921
658,8.475145053548184,4.531999231284474,0.0007743616895159598,0.0004514810725002547,-0.0017843833451575406,0.004809185835564559,-0.0023575003115321306,0.0031632156591603205,800,0.9708604050682791
659,9.652990818884904,4.7210606465176035,-0.000230991686787176,0.0013787190842171242,-0.0028894390710584054,0.007146610739163032,-0.004851155944303137,0.005226783959137287,800,0.914922834169724
660,2.5467620945063665,1.8265544570463688,0.003366014661651368,-0.0018568247153809745,-0.00223460385329858,0.008383189414046562,-0.005364809521505774,0.006000692883802768,800,0.9574423636042888
661,4.173389006050136,4.652059243233982,-0.004019852212524023,-0.0008536573576799669,-0.0007867225871158712,-0.0013379021860118298,-0.00840911695439615,0.003913203746814503,800,0.965393795663307
662,2.9026373553157683,1.2472087901630329,0.0066335195938553885,-0.0009565247054634219,-0.0020001650901347455,0.014256704325010255,-0.002902714548226321,0.007953969339474776,800,0.9592545336826408
663,1.291731583986544,1.6472503057105765,0.008805669081395365,0.0031895777567557456,-0.00016510553925524492,0.017621037549070195,0.006369456127232026,0.007727135790145087,800,0.9640115255817542
664,9.093377793687585,4.470806247233121,-0.0003111712587298798,0.0027176580127506542,-0.0031115540857770173,0.009327533067306064,-0.004514559559264516,0.006113383365804838,800,0.9321003894076834
665,2.758083604345183,1.5408935228988323,0.0071331910828325296,0.005984842291488662,0.001198793648094429,0.01577644075270155,0.010459625995940835,0.006951334206073068,800,0.9701926011612121
666,0.7288740639739533,0.5664307090156384,0.0046003577834164856,-0.004095875552625076,0.0030537980122159383,0.011131203429380211,-0.01012223896779739,0.00920646664875828,800,0.9691431356870902
667,4.937615330073735,0.12068662428225851,0.017145610114710684,0.006955875344121016,0.0008337834756320488,0.03442676871072907,0.013776202206934332,0.015005965680505311,800,0.9033844573895214
668,7.736998623618155,0.940187040639413,0.002314956493382423,-0.0008495031521216763,0.0018229285640096171,0.006293090345629715,-0.0033621836631082223,0.004244578619641473,800,0.9283298104718134
669,6.436264843414402,1.736496078528988,-0.0003006991842731091,0.0006736658347432616,-0.00019023516117576007,0.0014189804441043677,-0.0006730471431640626,0.0009248700843607782,800,0.9188099184017491
670,8.102099133733008,3.611178589497256,0.014247966273523068,0.007860151943616864,-0.0015064215381493647,0.029170794431986273,0.015045442002293595,0.012633418748010208,800,0.9827801638265914
671,1.2519116372033734,2.2935973299219587,-0.003314784976963762,-0.0032511822380786645,5.716619311951931e-05,-0.006435134486198308,-0.006696799943886545,0.0032849382443899304,800,0.9457188404706758
672,3.108940805066215,2.133150146207713,0.012086008036278562,-0.002804440696834561,-0.0033826488373062667,0.02563683303889346,-0.007073698360005456,0.014904962601222769,800,0.9410977944571329
673,9.180755084824018,1.9555897508282771,0.0032863666053484742,0.005072786889083007,-0.0014035612958162708,0.011686499985945698,0.005031807002917265,0.005076641388931317,800,0.9697848291112826
674,5.0455494171882265,2.6704217674810353,0.0034654978910867067,-0.0019848209802640466,-0.0012897243912248135,0.007510563462050885,-0.004549209640405564,0.005274253491639656,800,0.9778242946376177
675,0.7302161706437815,4.346234106449698,0.004461451409918599,0.00023954049898714837,0.0002760272044409683,0.00895884298781962,0.0004431408299918763,0.004372848395446078,800,0.9471108853511411
676,0.9321431298334282,1.926486416574484,0.004590354894251823,0.0014625085122816448,0.003149234405076545,0.013085226618262169,-0.0009794998051952343,0.006800727028104745,800,0.9062999210471131
677,3.0580404501631198,2.25014969162427,0.003861865136438291,0.001524501801861681,0.001566689546765674,0.00929550135676174,0.0014772325198382048,0.0043259953912024186,800,0.9529776487066371
678,5.892640425178745,0.03662651274880413,-0.00011182462743923984,0.001770063541879567,-0.0017916502297519172,0.005705651083333246,-0.002389173254452592,0.0036018881191699887,800,0.9074543797096366
679,9.335632068401186,4.142358636568231,0.010055371719177393,0.00336561409127545,-0.0009852862603511232,0.020394938289457775,0.006447033331447911,0.00902816287600409,800,0.9128715500645543
680,3.620741804125461,0.5251132676614473,0.0058912207754421905,0.004130680496129611,-0.0016096262293940125,0.013691109424361005,0.006352693118782598,0.0059335438504871775,800,0.9543684200495591
681,1.785272332005421,4.748348685015446,0.0033197908308006587,0.003280232073063136,0.0019060976974605531,0.010412423541830826,0.0027876222658967643,0.0046680696814807975,800,0.9601783668559286
682,9.390441481581291,3.6073447749532424,0.011556837961142723,0.0038527185407337336,0.0015035916021388903,0.023679780614197316,0.0071393323895555996,0.010519556219115933,800,0.985886390057415
683,7.326076760746012,1.6390935217569629,0.012908390118533326,0.018281499062390745,-0.002400163068492978,0.03839498673362876,0.023984791628219385,0.016796945253157624,800,0.9610554070410526
684,7.287381433045522,2.434146092939005,0.008956681919507034,0.004698256876791447,-0.0010740509206546146,0.018424480217133752,0.008885397375463209,0.007979707538905288,800,0.9265082994012183
685,0.4598051819257587,0.7892988866773015,-0.0034289452159786014,-0.006591763888541289,0.002935422869972346,-0.0033521071777485876,-0.016689311031291194,0.00764567469113455,800,0.9523348401537102
686,4.6115785948867565,0.30744493266012696,0.007608210035657505,-0.000867696438484605,0.0006873899183782815,0.015327189913301079,-0.0018461627189552765,0.008164366999767072,800,0.9179390225959212
687,3.396373653600878,1.3029487278091483,0.004575524476185259,0.0026370094250563973,0.0012915534516408044,0.010442128593650324,0.003982939208832989,0.004563756427228093,800,0.9809489280822566
688,7.56966487211681,1.2925258427718118,-0.009045170741639621,-0.0005949735885370615,-0.0007325207216887234,-0.0010638876667415174,-0.018216400993611846,0.008854220995914687,800,0.9865740656290172
689,8.347356463066134,3.1875562147147813,0.0076749324335080565,0.0026892951204178493,0.0011915514583704925,0.01589014457551216,0.004838310532339648,0.007053801981519029,800,0.9054431397479635
690,2.209285510532003,0.7396953854331789,0.004576339028435847,0.0030991204474730112,0.0005440667275135539,0.009510182657179287,0.005840736294638429,0.004153652176759398,800,0.9550189790988445
691,6.881912617515735,3.655838383336298,0.013864892602093448,0.009052529743858291,-0.0013744912347876494,0.02845960069903219,0.017375243992871287,0.012423319500789521,800,0.9435962810717846
692,1.6850208018475465,3.5961368653209353,0.0031763972982044673,0.007219828421245448,-0.0011982813494920788,0.015096528690210276,0.005695922748689553,0.006602273344473251,800,0.9579122319329285
693,5.7511447933247855,1.2245596176121825,0.0010772621742166845,-0.0012418869158728105,-0.001201801986537669,0.003175399893200103,-0.0035046493765123546,0.002893717116007748,800,0.9499967925380042
694,6.04974374816885,4.9531220007393255,-0.0030657325223202025,-0.003806413599107856,-0.00247668570201882,-0.0018637035766992946,-0.011880588666156822,0.00553353147831035,800,0.9766893384234271
695,4.210271716356424,4.117468169026916,-0.004276665245698704,-0.0019449185283302436,2.8647059759359694e-05,-0.0038891332664961475,-0.008554034281561748,0.003709079426472637,800,0.9265590625540666
696,5.25442141545116,2.5060974270099012,0.0013875512547954069,-0.0017740584210025924,0.0014689868489706835,0.003929447559215082,-0.004702461891629453,0.0037427190438641634,800,0.9345242701807748
697,1.2737930479763349,2.2361062280357142,-0.0018839520732467719,0.005124037232643123,0.0008161050612612258,0.010435641009748142,-0.00395547069095544,0.006438676568727772,800,0.978531250171216
698,9.067184756360092,3.925654730279853,2.143065133398698e-06,-0.003927533924280382,-0.003504219898924459,0.004109569603804949,-0.011960351322098916,0.007229980330552029,800,0.9274704914300751
699,7.631129877778699,0.38956021241623673,0.0030672069860976665,0.0006107676749760548,0.0030510804433975663,0.010256003361038171,-0.0029000540388907274,0.005986210870412274,800,0.9728040370593971
700,5.821662346013628,3.3602317755886317,0.00103350395916254,0.0016515730922453797,-0.0021882541625373735,0.00710501308858293,-0.001734858985767091,0.004056388248496206,800,0.9729235288703574
701,3.223237579444657,4.7150577603977535,2.2459759991385643e-05,0.0057132299265732185,-0.0010436245129602244,0.011797164225409395,-0.00032578485228018737,0.0059816920042692475,800,0.9470248102108871
702,6.847605254742981,0.5869556598420722,0.004057751179557273,0.00106518970932821,0.0012798916741348807,0.009060949896388979,0.0011849318813819858,0.004265215943552882,800,0.9324902447851667
703,5.066123090251988,4.767132363863747,0.0062276926626837386,4.9284995469265095e-05,0.00037574069711240996,0.012500918980832764,5.303633547324403e-05,0.0062372426857833976,800,0.9612560184351933
704,4.616802937165204,1.6409920205679533,-0.004274178224318959,0.0061831356764042635,-0.0028992474159406758,0.013866296467669579,-0.01004838156349897,0.010399254631399235,800,0.9445098819461226
705,6.348759366316582,2.436414416463164,0.0030917085018406683,-0.0015098411253790206,-8.524483400526098e-05,0.006186574283384606,-0.003022839530461311,0.004065472958116486,800,0.9144566809635193
706,4.734319953170958,2.580833772442777,0.0046041634554555766,-0.0022652327315359454,-0.0007192996033955459,0.00935734732965298,-0.004679485881813717,0.006189610486254286,800,0.984064414480043
707,1.9155920189218856,2.23016965145477,-0.0030161058569046105,0.0013660714761764515,0.0024787374234340495,0.004966613942698085,-0.008266682704154402,0.005789272807643525,800,0.9034638987089748
708,7.039041418221067,3.630280365874917,0.005929654492383416,0.002253601080912612,-0.002154775028698413,0.013847669963256839,0.002518841183335215,0.006387926950925978,800,0.9024118154745168
709,6.787460105436185,1.6650622464586395,0.010926922353452474,0.005016369888943662,0.0011645249852401743,0.022296173809111017,0.009590410675681255,0.00968589025501226,800,0.9044474986389316
710,1.5735716743809391,4.053022958631204,0.008665624908160065,0.006468117130904526,-0.0002866843539846341,0.01740481933990156,0.012862664738227622,0.007818304234680332,800,0.9419186600703056
711,9.763978071120235,4.7984372817646195,-0.007271695449329114,0.00201165684250952,-0.0025231185304704982,0.005306187694448047,-0.015826264908087233,0.009521074268353765,800,0.9379616390520924
712,8.905299324240087,0.5015396731828148,-0.0014806862446597982,0.009843674203803762,0.0008596000999333266,0.019817104638047988,-0.003091128719760059,0.010764872668622572,800,0.9538506573686915
713,7.266650292002504,1.8230690302401338,-0.002105854794673954,-0.0018523176655495907,0.0017290678820332678,-0.0004907549718670204,-0.0074255899485800685,0.0035963899031026276,800,0.9453292496478923
714,9.710457314468169,2.4645635548239957,-0.003919885313715421,0.003893071201586652,7.457371493120554e-05,0.007787565867488019,-0.007841194091745558,0.006767464857576216,800,0.9447981222100186
715,1.495250617276086,0.5409537674380183,0.004403248303227175,0.0020026983299243004,0.0009976989940702803,0.009527525289120252,0.0032843679771826996,0.004191327718724229,800,0.9018440181381158
716,2.7038210370318327,4.642131378098135,-0.005450568154537643,0.0024171524792365416,-0.000903715674416269,0.005039244112641078,-0.01110607546324328,0.007153759829885583,800,0.9840752291483758
717,9.920495482929828,1.100294978174578,0.009129274890456469,-0.0008375702370002147,0.00175587572708727,0.018859126291235456,-0.002275716984322945,0.010046934436333805,800,0.9328588120726024
718,5.233125207573131,1.3162069312222076,0.014907639207222592,0.012462806375923141,0.00021610907735490325,0.0298531900537388,0.024887701112552667,0.013853098495812437,800,0.969478176361497
719,4.34332627381683,0.5098562881393559,-0.008842502571791509,0.002895995058582225,-0.0011355908380064365,0.00600968723360487,-0.017902702260023436,0.010772798267812009,800,0.986311615397401
720,5.58042718931714,2.3964947165328936,0.007129622345580569,0.003389609389212335,-1.078764145881425e-05,0.014259306922089977,0.006779156547495831,0.006176947537218117,800,0.9640075619730104
721,3.786776025442189,1.6243209335220983,0.015918248077510754,0.009686188640602361,-0.001239987421439494,0.032311808785210006,0.018897064651016225,0.014058393398529526,800,0.9322233928826508
722,8.794679789409276,1.3798631645234993,0.013693361587035678,0.0025372220714649464,-0.0015741871732136625,0.027822464865454068,0.004638702451547181,0.012908785531992824,800,0.9874212476328583
723,9.929324438095488,0.7239070363313888,0.008508036073477663,-0.0002100998938953315,0.0013676635593315833,0.017435108017284456,-0.0008392356581197902,0.008934756186034287,800,0.941260827694133
724,0.9476335974900119,4.349521033472051,0.0038080609974138827,0.0029962241204654597,-0.002634659620451452,0.01213577687697669,0.0014727933587819946,0.005735257385186891,800,0.9315845029154419
725,7.847830401035388,0.27021166214726944,0.005086968501637071,0.0006830073065752238,-0.003256870848746668,0.013632780976170735,-0.0020928293597461444,0.0073953319086295394,800,0.9599503514975342
726,4.744213166777557,0.8394897719159189,-0.003735580366019676,0.005304953923848759,-3.8474409774233315e-05,0.010610235318032967,-0.0074714882023748,0.007868838501732065,800,0.9499256334384147
727,1.5580259688349196,4.487476205922095,4.307616175665448e-06,-0.0012704425700174396,-0.003435799149806334,0.005722702662560474,-0.008254972570244021,0.006085528970571439,800,0.9461947792505849
728,9.331107259720632,2.4021635588859045,0.006460098205226024,0.00040075023388640575,-0.0013682572714862793,0.013509473084983022,0.00021222379324183777,0.0067023106155546285,800,0.9480777898278462
729,9.705460022631978,4.841747874609105,0.003503480162055297,0.0015575695832611696,-0.00023828696470425288,0.007064469494359277,0.0030576299962736557,0.0030681955852394807,800,0.9744253220716174
730,4.876322777232546,2.5819864730290414,0.002756135587671056,-0.0018605525589550248,0.00024848733438399004,0.005538943155240228,-0.003747777097808165,0.0040461231059839425,800,0.9345056393319413
731,4.7831246442307584,1.4738185801612786,0.005589447735182854,0.000489991647315698,0.0040458590659495555,0.015643975686898792,-0.0034850969219016896,0.00882327387311599,800,0.9250232865930113
732,6.751471984059441,2.8336139371694076,-0.005554830462874878,-0.007614018569804415,-0.0008265456925915051,-0.010528211460522461,-0.015809486604836127,0.006970249012911185,800,0.9861917064743231
733,2.7684643917269716,2.74899690588771,0.0039011999486412334,0.009622994744091323,-0.0014513782094691858,0.019940184913183927,0.007108204472281183,0.00875212307976925,800,0.9315406190284471
734,9.765461780594864,3.2681259017016533,0.005361588379510743,0.005164668198112395,-0.0007183572087195153,0.011976403423676714,0.009076109731569562,0.005410888447457399,800,0.9393670648613031
735,5.869967167465826,0.6771041118732113,0.010334700582903901,-0.0047661892487852785,0.00040549762339959285,0.020691162788117834,-0.00955414011988059,0.013389287504154591,800,0.9719978559805678
736,6.030053225664814,2.96282827084164,0.00025300707438291343,0.004362622805852012,3.841870249388967e-05,0.008725963862667928,0.0005052958978019224,0.004242304077171629,800,0.9343697822907567
737,2.3164054752540206,2.953623265106236,-0.006296335165884476,-0.004729030074963424,0.003726365433297103,-0.0034096155983036353,-0.018641114883392165,0.00859589446404265,800,0.9741345011527222
738,4.26872598510602,1.3594950994353272,-0.006762093029440567,0.013878202835703641,0.004899124604428028,0.029964030958077682,-0.015731811345551537,0.020104237871984888,800,0.9495292862147412
739,5.281911937864868,2.596739069620892,0.0003340138627462301,-0.004588819746602825,0.004227103141848842,0.005528235291189643,-0.014037847058902831,0.008735374305192235,800,0.9112334186054997
740,4.239177024566142,0.3120544467954339,0.011077898828499438,0.0018029594480696476,4.8560967890640366e-05,0.022156306146136208,0.0036054104070019632,0.010295852435376953,800,0.9794733497382915
741,2.7918163311695974,2.6724307156933538,-0.0006846584744356105,-0.0022279810353007063,0.0003953857827583102,-0.0011785218102404597,-0.004646757209232174,0.0020919465517067726,800,0.9455052404881396
742,0.7099101955294529,1.6576964694712315,0.006934158671587443,0.002262090374684827,0.005356174342125814,0.020883106472625604,-0.002490608380081064,0.011116641871905314,800,0.9875069640849523
743,8.113058437743874,1.0107049774537213,-0.003522987694048802,0.006031436049236602,0.0010966111848035012,0.01231136819719408,-0.007294471486818481,0.00858172513887863,800,0.9611230270182076
744,2.471911448104993,1.3225105310563472,0.016792499317363357,0.0012236809786238777,0.002145282582449834,0.03416539247178458,0.0018669681201898894,0.01663560875166793,800,0.9535554690315988
745,7.615565111382717,2.294011593322163,0.0008503521423257805,0.006218441749717045,0.00019718519598980135,0.012451350351482173,0.0016862374326034775,0.005849863015604269,800,0.967152765813722
746,8.718517541457576,0.5549794497028798,0.0009126397934680567,-0.0002511439618266655,0.001413225720789387,0.0037181640145965865,-0.0023951723513138045,0.002667734894875744,800,0.908588124904098
747,6.1815973039894745,4.5620589066426565,-0.0018716893293193007,-0.004282615165953193,-0.0010905792758649138,-0.0029031483905102217,-0.009405460600034766,0.004170896542505286,800,0.9808521776843432
748,4.3295582869995775,4.756988721292316,0.0001040036227064375,0.003127550565874889,-0.0021633964387919136,0.008510093070038336,-0.002046984692875684,0.004848501331414115,800,0.9046365253412311
749,1.7751584953068367,1.3896708728684963,0.01024805418646644,0.014137887889868122,-0.0011434798851879648,0.028898257582971657,0.01987362656969747,0.012803877778281247,800,0.963821040258152
750,3.746599260662876,1.5781687731428184,0.017323834780902065,0.007761711347075192,0.0012805952286610719,0.034984733019960815,0.015186359235993702,0.01519264894534633,800,0.9443803920755176
751,6.843826371575719,1.6800492090400554,0.00736787950892668,0.012398620021493929,-0.0020736964563940513,0.026286408891587402,0.013246590169253818,0.01138246631797794,800,0.9480370549732093
752,3.444676145982278,2.1935341846729024,0.0037135791182090795,-0.003219050566393754,-0.002477098038214572,0.009015409557177525,-0.008026352453546874,0.007383440895192219,800,0.9059740874796378
753,2.3353996394514542,0.9975437386441455,0.002291357665706242,-0.004130151717577016,-0.0016834988223160948,0.005411892529312668,-0.009089480633054217,0.006346229811093676,800,0.9738431857990958
754,9.578104350271987,1.1893049212801632,-3.7141771938935166e-05,0.002589685649444776,-0.0007563084589621308,0.005583753576969752,-0.0004786658219580694,0.002918911482597786,800,0.9692545284453784
755,0.7414879177786227,0.8730211111376468,-0.005672445270086718,-0.002609704684832089,0.0011758690693185274,-0.004420666798761583,-0.01214363311107603,0.005322761603989498,800,0.9818626039120479
756,1.6917173876024083,4.685519533462756,0.01119045871769065,0.005968498762836947,-0.0036542834102178787,0.026141385589834688,0.008176529371220511,0.011581039094519588,800,0.9276263711399846
757,8.667350336180297,4.378389524939102,0.0053597294737363355,-0.008958844911342457,0.00023450537459270568,0.010727138207498937,-0.01792536908271118,0.012536728664656428,800,0.955460859361797
758,8.649345035282257,3.699198060573007,0.012853375129616915,0.00822904256066543,-0.00047605827111704,0.02580374987709797,0.016361085503466717,0.011306428133171783,800,0.9515326633236763
759,7.3955935294765425,1.4437171194409553,0.0010000588673973903,0.006005088355146544,0.0016388557290082978,0.012987931906556206,0.0010223625385316626,0.006254063185947007,800,0.9253440631600283
760,2.7840125776295563,2.9960256754597037,-0.00021474973485091468,0.0047287302468720285,-0.0018024074308000738,0.010632206113950873,-0.0016042450899086454,0.005759211612956079,800,0.9606840092770347
761,7.30145044374202,2.7713757178083505,-0.0006289451681500149,0.001430033325995246,0.001655979494951508,0.004700891331103093,-0.0030987150154126314,0.0034009975230473244,800,0.942181991380632
762,4.3401669917455346,1.5830792308313912,0.005501450867614267,0.010465114963298787,-0.00209828205882068,0.022466497495804823,0.00946663416602129,0.009768297694297459,800,0.9456465699146639
763,6.336166846047662,4.714363502837239,-0.005506966770345749,-0.006130580018411132,0.0007950603066413176,-0.009929513695415596,-0.013345579882098167,0.006003845151324953,800,0.9051521975849859
764,9.231486526280209,1.775097975390461,-0.0034215562743488692,-0.0037102101036054543,-0.000721387790102881,-0.00566039884807521,-0.008603133907833436,0.003786715558820976,800,0.9831528157025473
765,8.030654709532719,1.35392666239735,0.0066940858395201355,0.008071198661139707,0.0033012925830158946,0.021509954292293236,0.00802061470902645,0.009413890510569234,800,0.9884232114049918
766,9.624067026479791,4.732625095503652,-0.0008398181035921782,-0.0005935550347468776,0.0007366761920298702,6.041826165346866e-05,-0.00292716453833158,0.0014789182527938142,800,0.9825205275965128
767,4.700253229122921,2.7301841696689784,0.005490088301167052,0.0037272808841469075,-0.0011752983212120563,0.01215553095160198,0.006279207419025939,0.0052644628974142646,800,0.9314971807733995
768,6.390670151836652,4.093430076219856,0.016476771075744027,0.002793584545184647,-0.0008032918199501045,0.033047536196869336,0.005493175044988011,0.015336058160616823,800,0.9504979997071206
769,1.3181508329110403,1.7676998735244376,0.0014015705827888567,-0.0017568815808599175,0.001509794302564735,0.004014326906182032,-0.004724948902324153,0.0037883852809675505,800,0.9328830441796956
770,9.647486134699081,2.781119924614293,0.0018164495549608424,0.0047154728108497294,-0.001051061329214501,0.010112879711167427,0.0029509650204537162,0.004503769985267122,800,0.9497799324300696
771,7.124542668705617,1.2642524568535696,-0.007148810349705737,0.006383933816964493,0.000513611490170428,0.012806798077707071,-0.01433655114318956,0.011759635318601516,800,0.9819588825426022
772,3.332631116501453,2.399821196836325,0.009742539849263133,-0.002298364434559553,-0.0030358259054830395,0.020929290604637524,-0.006040939775230362,0.0122572503305415,800,0.9694479284424763
773,8.838870614097527,3.489601371878088,0.01169963247098688,0.006057662955983428,2.6850556228321698e-05,0.023399520503808995,0.012115070350131617,0.010134417254260635,800,0.9525741669048253
774,6.055196237359133,3.8498502920843194,-0.004145179449782516,0.0028796479607316808,0.0007331351469170995,0.005910689572349951,-0.00844175255045162,0.006246919563193844,800,0.975855613946671
775,7.090635046190986,2.1342216327383774,0.011562632201725966,-0.004046053787909109,-0.0007517457400812445,0.023197508391147648,-0.008164351563513935,0.014090543335096342,800,0.9406734857674526
776,4.610188855643243,3.8799056663876073,0.005701371563600415,0.0018855308084128855,0.0015204069076686056,0.012466163517770492,0.0027076412262561087,0.005678526560384049,800,0.983955021620174
777,6.571120984634701,0.3600153474877382,-9.529535652211263e-05,-0.00031369782901000056,0.0013309842456065305,0.002261919746070106,-0.003079906117134333,0.002322100508721123,800,0.9604422606341356
778,3.58278890638003,3.405165683589035,0.0038168984985077294,0.004029401312617358,-0.000624276968759524,0.009112808548125679,0.006579791074124498,0.0040735903656589625,800,0.9706219497084111
779,1.9615167517731236,4.847588778744118,-0.0025229378503516895,0.004046362162667601,0.0007408811929700444,0.008257763361505677,-0.005210914736873854,0.0058816406920960745,800,0.903543886852575
780,7.875586128694113,0.8235940304882711,-0.0037031512134252063,0.0007979724302995159,0.0037537859686730983,0.005848320542888212,-0.011658678109139594,0.007718667552005029,800,0.95631440837535
781,3.078013991883731,4.36742287622302,0.0018886250884091297,0.0022486487953106774,0.0009104583298578546,0.005993440511789967,0.002281107255649647,0.002619785241312445,800,0.9551709440101035
782,1.2718714035385437,1.0958017168904126,0.0016223182018220335,0.0009775695206103163,0.0004224038165635473,0.0036626204258503126,0.0015371550190143865,0.0015927663486836846,800,0.9600707692582497
783,1.7423329451239578,0.45922313850793484,0.0011733932534385115,0.001411215787957439,0.0021898171189890527,0.006970695636117385,-0.0018014775533254836,0.004012277119855099,800,0.9845868032187967
784,4.676511228737419,4.878426852745298,-0.0062060876114137555,-0.0034440563882729668,0.0005540126969024322,-0.006674150593961328,-0.012626137405412116,0.0054702579799186055,800,0.9273723609884069
785,3.588801101752109,0.9724739924165438,0.003315224783159842,0.0036390390184761036,-0.0025317864124310627,0.01202817998262235,0.0018803476206495414,0.0056034735043937476,800,0.9733731628374439
786,5.714135173351687,0.9817493713893283,0.00128265017946789,0.0006678118347327267,0.005230739609290353,0.012429993188396944,-0.008529069159995711,0.009127787559996364,800,0.9775238186539758
787,0.054316076514069334,3.96617842805374,0.002396441735429107,-0.00024505042232406474,-0.0022517005820356173,0.007372320623489321,-0.003069537997279236,0.0046476551392662735,800,0.9390720503408548
788,7.7956316052571415,1.1027208940664397,0.011297435062123462,0.002552313370126351,-0.0019268933853161714,0.023406360064064685,0.004293136800434945,0.010791223393117019,800,0.9668041556750435
789,0.5577118877501619,0.4395347970058555,0.0062171907871085745,-0.0017020954663697525,0.0011585265122800972,0.012766387915426902,-0.0037361972739492566,0.007493957135666387,800,0.9522458991261215
790,6.427999741227727,3.6793941171968685,0.023245154856431752,0.0041503101771269545,-0.0033918278471141844,0.04765949913105794,0.007131430936059467,0.02226210197914144,800,0.9113853706146622
791,2.7127397449635193,1.6901237662128132,0.015158832420254752,-0.0004487748191579437,0.002777767968312709,0.03127693368812372,-0.0018568184859301031,0.016122731968220352,800,0.9756880069467962
792,6.165455276883433,4.460524874374166,0.008249937393236588,0.00012564944435668158,-0.001324490265968215,0.01692082835172811,-0.00016965467654156928,0.008503145189851019,800,0.9868525047113226
793,4.948704766296825,0.6326930805284159,-0.0030397184663786573,-0.00433078754568402,0.00235877276799359,-0.002479484109469011,-0.012261527914656343,0.005614504533545346,800,0.9673145571656299
794,2.062863688700868,2.639337514475994,-0.004337320575992416,-0.0018861129993588241,-0.0018067278721812987,-0.001857029906402046,-0.010589837244300432,0.004897131008750125,800,0.9110762385099245
795,3.676347739499132,2.705611888470403,0.011526734626666217,0.0035242526711803685,-0.0018298698832857087,0.02385061300618787,0.006251361589505303,0.01071018739869478,800,0.9288645359283059
796,1.0686981491593661,0.35971013016641795,0.010324158221373194,-0.00016070179898475105,0.0052044694124878995,0.024937700806064687,-0.004610787961287799,0.013767086999212613,800,0.9593522180598365
797,1.3242762244424755,1.1682113640876735,0.010612572605175834,-0.0015367459606090489,-0.0014025566304974397,0.021544772150099104,-0.0033931188609655338,0.011713180987055054,800,0.938530744194132
798,9.534680852041156,2.037176329033743,0.0014591315732695761,0.00021706333204876119,-0.00022986860704001696,0.003000616221161389,0.0003517735894752862,0.0014205548938877254,800,0.9610981462771738
799,7.85624607922685,0.7166409138201435,-0.0007545277963898001,0.002770864028937099,-0.0024390589188457716,0.008035008940087237,-0.00400233647499264,0.005308928217732404,800,0.9767490038839998
800,7.395700398476377,0.5777655193958053,-0.0012077454302815613,0.005226336555435646,0.0019068143468351588,0.011497974442789053,-0.003460792192480882,0.006781824958436998,800,0.9129938210087352
801,3.051799260717284,2.4485636669207893,-0.002851601670416996,0.008742373331681492,-0.004200179842460233,0.020208114263344037,-0.008426570940815042,0.012744215239875718,800,0.9306229049493747
802,2.2433200302361387,2.909229345724777,0.005374043819157261,0.0039488600638025225,-0.0009961146812885457,0.011772419461526566,0.0068733883043930015,0.005121447952479618,800,0.9322887544749426
803,0.19068306623019282,0.106988199524653,0.011395240964516593,-0.0013701770202057795,0.0013448070298661765,0.023070749825665742,-0.003020621937044117,0.01235993191154861,800,0.932970732498085
804,2.18279927069395,2.616797595770633,-0.0017467940519142935,-0.0008071924006487368,-0.0017118349305919277,0.0009962764364973898,-0.006104249341623451,0.0033292621759255614,800,0.9179042990041152
805,0.501279812567792,3.1848293514589896,-0.00825990653529464,0.004896853820839797,0.00018937288831044133,0.00979915802052653,-0.016525263449436216,0.011522168826401336,800,0.914668174014478
806,8.540186663232534,2.4952124801735613,0.0066010441801530526,0.001872784133812457,0.0030169331273081855,0.016139595401766897,0.000808061226164121,0.00787555905043922,800,0.9269787313606294
807,6.8421877985903805,2.760795718698451,0.005867121959311209,0.007942769874214977,-0.002996205917759672,0.0201516040528812,0.007468179614171174,0.008822769605869848,800,0.9165361458961585
808,4.9595644908524426,0.3847320909277929,0.0058863880635702005,0.0011562132163785933,1.9560104033983945e-05,0.011772937893307661,0.002312264666589928,0.005402001624754168,800,0.9851899161962905
809,6.6853639602468276,4.178554166994709,0.00210321647054942,-0.0030115299773019934,-0.0010065342718507243,0.004588328758071374,-0.00640495577157652,0.004781847498323632,800,0.9404704883545998
810,7.194952495436776,4.5886203062058515,-0.0031750179314701202,0.0025510777124488,0.00018307510350893302,0.005113850060991227,-0.0063617304990338675,0.004978855623763652,800,0.9662703123082271
811,2.890312219937805,3.7942647632411135,0.0005088887591871403,-0.005862020196132846,-0.00021813907694928706,0.0010326981524299414,-0.011738961026321354,0.006143949764094206,800,0.9220161315877189
812,7.461888918980842,2.7557470927309184,0.00275466813781629,0.00191997422755825,-0.0005585294489377809,0.006069108035495114,0.003280176695253966,0.002630868903973977,800,0.9145488902320029
813,3.5919306888215887,4.065094958723896,0.005944207348698774,0.0037480574374636412,-0.0020707044598263597,0.01437994462510163,0.0050045849472232,0.006321847504928356,800,0.9104204049786421
814,9.477338916779747,2.033090709824523,-0.00035818823687051296,-0.006879849142995256,0.00024038924313283784,-0.0006986789306498422,-0.013777395829081693,0.006720840942440337,800,0.9287759668210451
815,2.901750983826805,0.8886318779158353,-0.0004402640937940295,0.00181155151476001,-0.0010088624378290837,0.004394842813013126,-0.001652267971081165,0.002706755013721764,800,0.9250317747249424
816,9.144680984484166,0.44892051907999664,-0.0021363528551915376,0.004468268693574236,0.0009534655502548916,0.009206318505124926,-0.0045424868283595295,0.006066507800020496,800,0.9697196180647301
817,2.1256324696385653,2.18626741751292,0.0036153819112853904,-0.004703741575667315,-0.0001363955515076589,0.0072352351465788094,-0.00941195447534266,0.0072289559842727445,800,0.9561220914190037
818,8.699021847461538,1.2876097870717933,-0.006338115751140169,-0.002442056389129151,-0.002604633853462151,-0.002275116522158274,-0.015285227758380366,0.007142105232298733,800,0.9255997475967913
819,7.65666455695076,2.9317741466748535,0.001970824302431217,-0.0018089243330354499,-0.00020100580545328808,0.003962967330363714,-0.0036391673915721796,0.0032928160762460542,800,0.9479441404587892
820,9.756796000247613,0.7246632936339087,0.012375217599021212,-0.0005115846526174857,-0.0019944054665251686,0.02535363980082979,-0.001626373908022333,0.013102353237914768,800,0.9594779601364093
821,1.1256028847273891,0.8364328759264916,0.011025129480151111,0.003141724732640044,-0.0007442254847430702,0.02218954432905791,0.006144164096524402,0.009922076753273622,800,0.9279862821879652
822,0.49119751481543683,1.207256151625562,-0.006322443005104272,-0.004608143730788824,0.00015246504889101622,-0.009189379003756624,-0.012671794468029567,0.0056695048172269325,800,0.9515555419576207
823,4.573266696157791,2.759289064608534,0.006501721619122096,0.0002401991101506119,-0.0003182608984748182,0.013035713236843046,0.00044812822170236816,0.006408762897487367,800,0.9110874081403609
824,9.80150910131057,3.8908059622363984,0.0019644730409732044,0.004753393299283325,0.003128853035841194,0.013568921841913426,-0.00013318916140036587,0.006818002138198208,800,0.98074250999408
825,6.9785770567495895,3.0916225074774046,0.0041859010854105125,0.001693319684398657,-0.002178177014789008,0.010898262757249685,0.0008601787823686539,0.005247322752490742,800,0.9712783448596687
826,7.8058221576887865,2.482195528084969,-0.005141181885902133,-0.0057605340498437865,0.0002658460464016713,-0.010085447852008225,-0.011717984019483613,0.005496505505711855,800,0.9709462223307895
827,2.3891821640707853,2.339574284457276,0.00024918322731656275,-0.006075555022963646,-0.002457941159988551,0.0021841346127156862,-0.013836878204009853,0.0075241485740310645,800,0.9234058538071924
828,5.858235252170475,2.5260790317747657,0.00567914215935756,0.010816893025259528,0.000837472766356187,0.021899915873310128,0.011092154495924048,0.00948320826915941,800,0.9662480972569649
829,7.396207078226267,3.7588796299062555,0.005089110380204417,0.007996302451588454,0.002424799413432287,0.01873964792784649,0.007431177735739254,0.008172196041193317,800,0.95301353637555
830,5.933433254672817,4.528389684186682,0.010060846064001488,0.004419039547994735,-0.0004949868193797689,0.020207889502488533,0.008751881721503912,0.008776348515256507,800,0.9776791649119153
831,5.221639210664543,4.296956193998272,0.0036082799998669065,-0.0008313553256364718,-0.0017176649391919573,0.008390466621768969,-0.0028366172733081006,0.00505585972502882,800,0.9434382029536255
832,2.5760490141729884,4.424895454236148,0.0032124803089368797,0.002866843169974157,0.0009556719436774942,0.008021667549244512,0.004136979408577561,0.0034740565418512493,800,0.9587892502316979
833,9.339327943382676,3.8474005424205826,-0.0008602808993608767,0.00876187635710897,0.0009824764514248167,0.01772233627393159,-0.0019191453584354052,0.009377847051880604,800,0.9728515964787138
834,1.9950084895670672,1.1348923066200696,0.005457036894552177,0.004774164184417279,0.0010092951146483244,0.012362168383284302,0.008100233774654611,0.0054383025953527635,800,0.9153526260799646
835,4.468253735840667,1.4642371129213312,0.008535158233076542,0.008833249815299059,-2.4904747526169702e-05,0.01767063243056422,0.017066183666186983,0.00868814734086684,800,0.9656680242798237
836,0.7658535292812729,1.1920840774460117,-0.001918481728748988,-0.0020015910629738475,0.0035570968479996766,0.003194606337066617,-0.011034751920512287,0.006465735611848477,800,0.906450758532703
837,4.98454600359925,1.933375170040379,-0.0002465899065730581,0.0011166693537334566,0.0005199574931046227,0.002584692811553095,-0.0008445339172322979,0.001547315030337477,800,0.9691364198012465
838,1.3816732110944718,4.338742486551183,0.007632570951059628,0.0015174240039628954,-0.0006641744401504363,0.015407752774911614,0.002892237135133432,0.00709226702955562,800,0.9868311706698604
839,0.68931603122941,0.7767622556439946,0.0007069941051794718,-0.00331870501739115,0.0009798008464269924,0.0018655976789066593,-0.007089019503330016,0.004091451776242505,800,0.9389018735254411
840,6.74939315122736,2.487915292177531,0.004556358518280341,0.0008532246018092371,0.0005205923800332714,0.009256304647301216,0.001562861592877939,0.004291135894401925,800,0.9488357175590797
841,4.379293346031735,2.6572571172151207,0.00518258753607144,0.005175500552400308,0.0012294910332741203,0.01281708036762665,0.007899095809316848,0.005599774949392398,800,0.9069858223618524
842,3.4518773447371967,2.069181848963346,-0.008463922295280217,-0.0008051969895900935,-0.0015491545091979976,-0.001007425022705179,-0.017530813547035444,0.008524719182495566,800,0.98111977825708
843,7.678110558220932,0.47023247473711727,-0.0038704917796234034,0.00533205659779598,0.0009588815143555515,0.010861815435737797,-0.007938685799392643,0.008173590195514235,800,0.9480492709040834
844,3.1334417198087374,0.2491008925727628,-0.007060133924808155,0.005272642052443972,0.0004444093124340098,0.01057727103894954,-0.014152254783677907,0.010745431735774583,800,0.9660564676521118
845,3.8579567744796095,4.111037224469349,0.00855409780279224,0.008286473359531438,0.0021254584244642153,0.021099904079475647,0.012581238245171714,0.009192804084862935,800,0.9034392772873632
846,5.653461995188353,3.747742274174188,-0.00036800231678886823,-0.0014203804653931825,0.0023231057686758207,0.002975521227921359,-0.00655228679228546,0.004221452866847006,800,0.9259891130673753
847,4.96235852026455,1.4673552323247048,0.017136206383996398,0.011483970352011152,-0.0007575946337219077,0.03447197737149141,0.022768376100523697,0.015180952114678575,800,0.9112664053504465
848,9.740594730212086,4.339429521908626,0.0009834880248059757,-0.0010352992389975908,0.0028295072469024306,0.005956511934373963,-0.006060134362757192,0.0052034249676218775,800,0.9323749065280589
849,1.4905992662639145,2.292340689534748,0.0009932713578400172,-0.007777538046355966,0.0011715754758739598,0.0022941392281309765,-0.015862672605162872,0.008562689946260122,800,0.981726468516317
850,3.43522326302512,2.780187665253142,-0.0008348392792984533,-0.0019333754166545956,0.0008740352546388064,-0.0007036246275657562,-0.0048328047643403415,0.0022611174811551014,800,0.9831556009098842
851,0.8501815219555897,3.15354192581333,-0.0058313846936223004,0.001882312239653289,0.0007483947273333401,0.00390850344767054,-0.011806648355608563,0.007085542858468514,800,0.9820980320465369
852,8.775703368390797,2.27209279701601,-0.00321723237844401,0.005884690509120603,-0.003084198659726883,0.013662644611215108,-0.008327728349861924,0.009615062533654727,800,0.9174079478251597
853,6.290737902159412,2.5876282170012566,0.005072970338171329,0.00450683622011107,0.002771444279418756,0.015151531732348657,0.0040080813842161426,0.006798989960650064,800,0.9064599374449258
854,4.865570730640924,0.9455302009924144,0.003268689713419332,0.0008935817175101483,0.0014457978321716595,0.00790425799935551,0.0004202848625034497,0.0038513599513540085,800,0.9499875105731691
855,2.4423678304764715,4.584064597093081,0.004652332801651933,-0.0039283549618182425,-0.001205581352742545,0.009636996861831174,-0.008189041182163796,0.007727384230320717,800,0.9710251127320837
856,6.3020514315484295,2.2133654936394036,0.0037467049977192536,-0.0020312941244110825,0.0015025704259013766,0.008228178748375784,-0.004797357001759442,0.005705065088318494,800,0.9458632227004521
857,9.828559302929389,1.918815524118303,-0.00036561369923386383,-0.0038448255071284196,-0.0009867680648344686,-0.00021046924906240917,-0.008210409163662157,0.004053611885972105,800,0.9677335430509189
858,5.532353440905413,3.6748919524492134,0.011509200215806216,-0.0034467672461610463,-0.0052143728982398324,0.026295362016044044,-0.010170496076753703,0.016296640222934516,800,0.9613834946297637
859,5.835966293635612,4.3334856710674865,0.0034128961039027,-0.0027577107240409106,-0.00330638963694626,0.00969981021178748,-0.008389439452063899,0.00783972229949577,800,0.9479841799037374
860,0.037660881424547155,3.101406624898978,0.0056177609249693115,-0.0004409784970676471,-0.0015682774585172353,0.011999267322111241,-0.0016457024663079122,0.006450542161341654,800,0.9579993139148929
861,3.446048397090461,3.4080552411767333,0.011908524159217192,0.0030396299493454368,0.0011136209977406879,0.024092436005591647,0.005803872211533613,0.01088922616041121,800,0.953449965117025
862,7.828288012922897,3.756044973278666,-0.004191719947115282,0.002318907190979617,0.0014415335657718305,0.00524760449401795,-0.00899323000628928,0.006237155863620853,800,0.9292734817433719
863,1.7570376583230596,0.3267254384354923,0.015098630909727791,0.005789717023960981,0.000266810621027979,0.030212543843395705,0.011564152023981842,0.013201751469848862,800,0.9740281630246559
864,6.39354646563028,4.996936692830632,-0.005291963851476571,0.00802349142868988,-0.0018614392594647276,0.01655763237158034,-0.01109457721715372,0.012051397888414582,800,0.9876152670069733
865,6.786275861665936,2.290346916796647,0.00048780753859457957,-0.001830490834626578,-0.0012838445225437304,0.0021167291366712814,-0.004802095728735278,0.0030702362112738743,800,0.92965841709137
866,6.9835632640443706,0.44532735533845846,-0.0030636125632155075,-0.003545396634647335,0.0012141882198937709,-0.00413330161723046,-0.009084716778495225,0.003939111151384205,800,0.9707481864987342
867,8.923701134544217,1.1484047842592315,-0.0007675568878523775,0.0076178346250830335,-0.0034790633853043875,0.017746622031583316,-0.004046066557122003,0.010038890153054932,800,0.9622644304834534
868,0.6211527011480356,4.49446169678539,0.0005325151101601049,0.007396715859522808,-0.001817103868100677,0.015696129822984482,0.00016233211638134147,0.007807798299822274,800,0.9885432715360949
869,1.2176021683300742,0.4104467904604747,0.0042208709702964056,-0.0027099655744818596,0.0011072714378181031,0.008786941085561058,-0.005765130293931966,0.00634635567058955,800,0.9048822974367526
870,3.588534020988252,2.8429779314644446,-0.001441210348772935,0.00021915515807549232,0.0010497782936931402,0.0014546875089225934,-0.003898797890317479,0.0023973043887363385,800,0.9276843221179161
871,9.746147748061208,4.670383926961715,0.00033240913996765366,0.0017253091649991619,0.001795776050882695,0.00590991468877543,-0.001794478078841799,0.003491147933018594,800,0.9513029330011926
872,5.0695922613691575,4.851071280795515,0.007956763096694752,-0.004294446972122447,-0.0010816437651109973,0.016103054088563905,-0.008778421839419298,0.010928499927510727,800,0.9657756445068756
873,2.552493261933124,1.0633713179070048,0.007146792803802515,0.0014286475909510835,-0.0024334876515044786,0.016084410582159783,0.0010664702073474126,0.007789288763905796,800,0.9144909174108867
874,0.14448675274508993,2.512431429889183,0.0017040224183194881,0.0014129733929232405,0.0011837928026411522,0.005502403770801027,0.0007315878516844306,0.0025877681642622547,800,0.9832954550805298
875,3.173596024607317,0.4953241556271659,0.005370699504744489,0.00840170129503107,0.00134142235824978,0.017820193732420466,0.009724607867130652,0.007727109852111083,800,0.9438818393517869
876,8.074460775269372,4.689787838383486,0.006302752169800936,-7.454485968453554e-05,-0.0004459884013422017,0.012667581504773155,-0.0002111668845403529,0.0063872370073886665,800,0.9042661672067079
877,7.86998939193047,0.9647144065855878,0.006432183779199467,-0.00031750029291555387,-0.0013765330414812725,0.013404238200429486,-0.0011748712278616593,0.007014309979053518,800,0.9065121888287119
878,1.7303489334202027,1.0279869867210074,0.0005655918440231208,0.0005922783480578528,-0.0014009277038407823,0.0039598526857900305,-0.0016441123016280828,0.0024946934213879715,800,0.9776262587423957
879,3.325868004211575,1.2411460806947998,0.000687695056586741,0.0015584592414724058,-0.0009133265942761706,0.004269738281225655,0.00022257031489263893,0.0020814589559653624,800,0.9664843106245851
880,5.332749977818142,3.421795753958008,0.010413220324403573,-0.0008072711548385778,0.0010339989113408797,0.021015420850162753,-0.0018035225110327614,0.01098638238388043,800,0.9468882527857567
881,1.1150440320172017,1.193580083803421,0.00459398354136386,-0.0011229498537118484,-0.002287066598017157,0.010792647030269536,-0.003850579654965512,0.006573928442666531,800,0.9460656994731758
882,5.671383067142617,0.8887707352471791,0.0014888726875955053,0.002307740540478633,-0.0005961763315222071,0.00524307423119677,0.0023501522249515065,0.002274369160022792,800,0.9573831370188378
883,6.920942335186964,1.9007453576846416,0.0030382636319044327,0.0007994108280315231,-0.00037279310916968296,0.006197411878884764,0.0014779370409871472,0.0028032493342372475,800,0.9557280591154916
884,9.042027886646423,3.1580907704243524,0.0009154317532038283,0.007591089157573829,-0.00013759337221367187,0.015187847839227463,0.0018251939823278494,0.007181247916970684,800,0.9817509365673794
885,6.726961974705818,4.713400297650983,0.007462878917504414,0.0002669375471454718,-0.0006796310332268327,0.015053010137559487,0.0004066227917402833,0.007426936772485715,800,0.9480044238459937
886,5.443986086439676,0.8827694816712811,0.005989061636008036,0.0056759140902827385,-0.002613621758322084,0.01690159067945396,0.00642836077312759,0.007388133512566448,800,0.9110159718164094
887,7.3036700778012165,4.00691217527257,-9.774098579638226e-05,0.0010094779444873275,-0.0008872687086920234,0.003003367137588411,-0.0011798932202065208,0.0018678874897639678,800,0.9586123551277318
888,1.398797844158397,3.1959847418061416,-0.0022263975221942086,0.008376288933609142,-0.001315506617495914,0.017074139244688306,-0.004774356421858438,0.009947848216329614,800,0.9844282027611589
889,6.669672941341858,0.8697618882644886,0.00356142286936294,0.007880412662478263,-6.123190251415286e-05,0.015762561190405554,0.007121109873276852,0.006835963922290566,800,0.9036761182415722
890,5.0027504781046765,1.8190626895835793,-0.0003132790912592563,0.00562364105122308,-0.002004827847331897,0.012474464106636655,-0.001853740186709009,0.006748574346662368,800,0.9745865754404861
891,7.081750617163488,0.19505508539230387,0.0045798598717829596,0.0030235853536515356,0.0023051715588604193,0.012469373095728207,0.002737517355140783,0.005675476663084915,800,0.9729213136013508
892,2.491999132165237,1.818654732976115,-0.003764230856598381,-0.0026325114165746443,0.005607702793051073,0.004875618231694571,-0.01766910277804062,0.010272738750748207,800,0.9109967079151369
893,8.44130110965694,2.6979978009749255,0.0022701655184122708,0.007309351198469807,-0.002248855339133618,0.016333981437605404,0.0028250519961587504,0.007560349223407464,800,0.9519598848852396
894,8.94202174319326,3.995689405953959,0.0008149075442319741,0.0008330734524212603,0.00014825615490892907,0.0019450492549607538,0.001350912738345715,0.000863219267569338,800,0.9894338514170791
895,1.1286533212996797,4.600485979051588,0.0068410529093456554,-0.0004897285946379487,0.0006463891466916278,0.013795223371988847,-0.001092574742573434,0.0071863450389535715,800,0.9211568312576798
896,0.7750874499616256,3.5916377795225007,0.0027442995249831416,0.0017599384465478785,-0.00011413897961431931,0.005514721795947733,0.0034937541471143072,0.0024161639215089154,800,0.9294712949869582
897,4.670856365492781,4.33608313220487,0.013466582269480094,-0.003442039658673521,0.0030010026545420013,0.027966826836609872,-0.007917741614996726,0.01632688078196817,800,0.9522137675058224
898,9.128023056620576,2.603303464894293,0.009826422209364423,0.0006222220642203861,0.0005005822794919512,0.01970713393367705,0.001190154613492568,0.009569914570073517,800,0.9540678537146962
899,6.7096022713125825,4.309687309947112,0.0028456234590068037,-0.0009074103027316783,0.0017327656225713031,0.00704655625632318,-0.003170129943772929,0.004528856862459435,800,0.9630000883855877
900,8.616039278233986,1.0252841186553785,-0.001384055281447701,0.005691107543734922,0.0007642018012928156,0.011545418554154668,-0.002931314029580227,0.006628207504970746,800,0.9698914245375174
901,4.6848459217113785,4.278813076003064,0.001540725594992765,0.00012775960012614037,0.0013258702690395058,0.004673181649661526,-0.0013362112594237155,0.002732601562529468,800,0.9227428879026326
902,7.214071047144296,2.35728556971917,0.004925670373899771,4.552565835385725e-05,-0.0007124952207003102,0.010055132519145832,-0.00011274045463857598,0.00505598705989631,800,0.9435852181190486
903,9.067866800762662,3.7035310764352616,0.002124272180534448,0.008282575371006056,-0.0011637867376233975,0.016990334201367117,0.0038233609017138924,0.007718959861379321,800,0.9680584186620131
904,0.7971651891155429,1.7985200665514889,0.012502852816534217,0.0044976544665620306,0.0033979552081484887,0.02750134529768971,0.006499669268502784,0.012448092674269442,800,0.9616627374250327
905,4.731561306340954,4.775256974979852,-0.0020722374020172678,0.00048527288226578476,0.0003055737418274404,0.0010425525653786506,-0.004216481604881616,0.002411510765574346,800,0.9857935676913054
906,3.225074791436305,0.18141470253242975,0.0006975331576273827,-0.0016666036326494931,0.0035779282533206576,0.006567203478781685,-0.008505344428825907,0.006544565931097037,800,0.9794279572815411
907,0.726987593714048,0.29547522325660436,2.4885861011355627e-05,0.0033637584696949796,0.003832441854674182,0.011749177362448493,-0.004971888701035822,0.007436034698086464,800,0.9793317221196824
908,9.295710957712947,1.435671259694119,0.005749734633529141,0.00879049834502778,-0.002078586608441476,0.019690799268231866,0.009389666688881974,0.008529410506941879,800,0.9197785332122332
909,5.629043907282028,2.581310733607703,0.0005776306012567787,0.0027780354645487813,-0.002313585664676822,0.008479385034834938,-0.0017680529032238178,0.004743890359345728,800,0.9033449093120277
910,1.2622652375253596,2.684224317047041,0.007823649142768669,-0.002128751366690822,0.003065726646098068,0.017384422803856877,-0.005994627251701183,0.010516259396824441,800,0.9829981882969971
911,8.39364244506966,1.264355877786394,-0.004332701438195967,0.00024921644720775,0.0031709613757461945,0.0037404498051664178,-0.011907419787142852,0.007076664411201507,800,0.9586614291846495
912,0.9685172572741529,2.8832383849766527,-0.005409866637989286,0.006556746002028947,-0.0005150729686124877,0.013157750220402461,-0.010863991492323139,0.010417513960397843,800,0.926967912908187
913,1.1902525959293109,3.6168548597295826,0.007518497608669495,0.014528854675799913,-0.002174908070770322,0.030297564807421344,0.013797139761517474,0.013136625925034149,800,0.9016141967319777
914,1.2481082037788038,1.1512228417886627,0.007007905146509262,0.0019050377650171517,0.0010680118836042549,0.01444483707602159,0.0033810487470312374,0.006543051858377257,800,0.9176871190595357
915,9.618085490521887,4.653529874563641,0.001820146144910916,0.006507690936334197,0.00041480443530187913,0.013088228561972719,0.003567445600517506,0.005859540331824524,800,0.9149153037772022
916,8.63508813617301,3.7721112774667893,0.0018858861988674557,0.0038358255747724507,0.00015550263167163862,0.007696297260148906,0.0037471262871309067,0.0033329772408165897,800,0.9106311371701006
917,7.603715852513125,3.700522442657008,-0.0033079379448804087,-0.0025250477815291794,0.004117842611035624,0.0024398268597013092,-0.014105798312520484,0.007735341083934867,800,0.9782522750946957
918,7.785639176398597,0.6485742963312302,-0.003865452976280411,-0.0005518886873378897,0.0015984831742343211,0.00018703691879605987,-0.009021720246032662,0.0045583388905314605,800,0.9531032269983807
919,2.9138670583470483,4.839233167505024,0.0016689413273151688,0.0032867986256688224,0.0016267868145930003,0.008589361231869663,0.001322118674098319,0.004005276809307754,800,0.9048872694786239
920,5.887178187214017,4.870914199821468,0.009538178855784736,-0.008666788196064281,-0.0031999366963216887,0.020168520104297774,-0.018425738784856864,0.01671748288532223,800,0.9124392757352615
921,5.126091446063521,0.6882594991060975,-0.00409464728794943,-0.0008794175191984056,0.0020284635373685475,0.00020245523585379985,-0.010150584850149469,0.005126655829400379,800,0.9694232864057287
922,1.9431335895041557,4.722747510874402,-0.0003072894703482075,0.003325047148540412,-0.001941234156314852,0.008334469962253939,-0.00229895460586953,0.004845336674029134,800,0.9287700759719216
923,2.572889275810115,3.2202728675233288,-0.00047103883337750114,-0.00195374440383268,0.001191106761950086,0.00038116706208446123,-0.005230733536504823,0.0027156787822656125,800,0.9634736780665792
924,1.0886694596576818,0.18439155997673318,-0.004281931173830915,0.0015939236835492844,-0.0016995090340490666,0.004100143519548369,-0.009476158500111631,0.0060303890144952155,800,0.9807212582170618
925,7.2784353366003085,0.9535323585105543,0.010879370837370434,-0.0026487122111925293,-0.0017172320824517392,0.02218789958092332,-0.005726582328567513,0.01276868695899411,800,0.9285207126883046
926,6.139605329899377,3.961649297285279,0.005251097626223554,-0.0012624162401749066,-0.0016882116986633548,0.011325308529755778,-0.0033479457576584843,0.006659351934249153,800,0.9231134056630267
927,5.500719510340102,0.978524583568694,0.011588394321428174,0.007276328596796943,-0.0018896968919945233,0.024598633293178192,0.013130812543272044,0.010659631271125089,800,0.9530283346457534
928,2.0468527031866657,1.0131464022211045,-0.0026720292487671425,-0.0015320852801423792,0.002253094824703693,0.0004440267563818618,-0.008852255814200906,0.004541206645713197,800,0.9322514610955319
929,7.68721603218403,4.234700352898243,0.002354863377226599,0.0018257035788806697,0.0027831945369544233,0.00977205132202633,-0.0014109174098117941,0.0052742590076106394,800,0.9661476960094838
930,1.0184631476255968,1.817416095526367,0.007647248655192654,0.001262542365433792,0.0014186039891707135,0.0158965086704854,0.0019230733707674913,0.00751377146624429,800,0.981120466861493
931,9.04272015419276,2.5801699204521773,-0.002964897897055549,0.006030821700048758,0.0016700795493089214,0.012661737154335866,-0.006529889548349449,0.00845042588256915,800,0.9890841070516172
932,3.1334841170087016,4.9973057364091895,0.0038834708760988328,-0.0015030048375675622,-0.0018085515010664854,0.008868728883234561,-0.004107796806172021,0.005743676583567195,800,0.9189876404863786
933,6.483719508772905,4.575345122729482,0.0039879852926863885,0.003987387948121255,-7.229870075260348e-05,0.008119971876149018,0.00783077460546627,0.003989652385428409,800,0.9246542826591037
934,7.066482641225993,4.139129657934743,0.005111611882849589,-0.0050299557682380045,0.0017417273488668356,0.010804801691015418,-0.01064148946179225,0.00928660622724067,800,0.979905136226226
935,5.971879906950537,4.403666183237692,0.005560882228324071,-0.012401126187741408,0.0006578777246268254,0.011169890930167688,-0.02485037884900236,0.01596780991281748,800,0.9844018054578999
936,8.615537865446456,1.9344315147829168,0.005485561513796047,0.00813635757295969,-0.00024006419431971474,0.016315846149030252,0.010927992024481224,0.00719945151828744,800,0.9563027184367946
937,6.633184459305835,4.085362135284956,-0.006048256441990758,-0.002595653251185053,0.0007071852677600414,-0.004912835745247535,-0.012374983641104089,0.0053962930146190646,800,0.95708282883198
938,0.35848940490569525,4.515748837044963,-0.005700704276983838,-0.0021529019646796205,0.0007876438927381054,-0.0039717983053711835,-0.011735414177955735,0.005169246307777381,800,0.9028444204861453
939,7.172665035389965,1.1463247853287994,0.01207829510321449,0.002530015622264792,0.0010329239706583378,0.02437751584989792,0.004839105601060644,0.01117715134259458,800,0.9770939942312553
940,3.4024471330165493,0.33659778593742196,0.00441004143217522,-0.00393383023162977,0.0010414738630068888,0.009076145245138688,-0.008123722844047786,0.007451566510163927,800,0.9682932164383538
941,7.687721098702656,2.667405829239403,0.0011869374168692196,0.0010984314628975664,0.0008429029601672078,0.003973496512655661,0.0005972412468779101,0.0018555481421520359,800,0.9371987783713651
942,8.861279958055015,0.41199145347271315,0.0027873275762100337,0.0030854947441381728,-0.0014348566296477612,0.008757983988367317,0.0029876606523290953,0.0038555970859972047,800,0.9633645122865323
943,5.3596377357081115,2.4024028908014965,0.0011921049952544056,-0.001771012771055905,-0.0012220830954737308,0.0032621878056692906,-0.0044200033572722895,0.0033390560047289832,800,0.9241801212648707
944,0.08720588703234888,3.1817398819994986,-0.0008446975428823794,0.005787922168099961,0.0009906494219079278,0.011865448930960462,-0.001978999680525298,0.006484347263071474,800,0.9598042334262326
945,0.6824536254714941,2.050494756001517,0.00028092386586217426,0.008624842094916915,0.00029546345868605126,0.017270583115674164,0.0005409488058840169,0.008503281211577273,800,0.9055909229840167
946,1.556241033847534,1.8021570367352608,0.01049264612030852,0.003784580103182169,-0.00012797771887556225,0.020990173629529242,0.0075642788174521336,0.009206386061661893,800,0.9274041834136965
947,4.70488409579389,2.534583130313526,-0.0007952214417485401,-0.0020027002256625924,0.0010387758030836899,-0.00039495980964242934,-0.005200883525179835,0.0025075407637086553,800,0.9717830511869172
948,1.2467232820827756,2.8531974250212637,-0.0026680156040695324,0.00416152968952994,-0.0004301769679478663,0.008377037733443175,-0.00539000956252236,0.006007896423884207,800,0.9232595142058792
949,3.3264574652120293,3.8479685168101825,0.01362681339323451,0.009611811933595504,0.00039904343450967365,0.02733217871861623,0.019145071935043795,0.012148099081697915,800,0.9061821645623863
950,1.4237774088511879,0.5199490438678095,0.0015251418252626076,-0.0018182176369842765,-0.001272929587315141,0.00390923919679982,-0.0044953908202431565,0.0036422605523201926,800,0.9816587225910322
951,3.771943395813091,2.682858781894388,-0.00040560173412368394,0.011883009751451009,0.002854149989967283,0.02502711874871636,-0.0020723027140617124,0.013062492846975719,800,0.9892365122094977
952,1.9796577688884553,0.34580148456743676,0.0038943871964385313,0.0026142352030364686,-0.0003879789070808639,0.008005585877843769,0.0050116589211062325,0.0035030295640223145,800,0.9695772966450245
953,9.932872518666457,4.314060675337588,0.0063494257369926125,0.0016137511130282,0.0015015425520751152,0.013570772973747047,0.0023555807262945795,0.006279880341320124,800,0.9242929730186001
954,9.996730177449523,2.527295027681473,-0.0019986459806054886,-0.0014445644636757096,-0.0012445328709861465,-0.0008932193471862912,-0.0059932015413761055,0.002800136690833011,800,0.9302875727874731
955,0.2459194567726397,4.926724473774891,0.0037902649682157513,-0.001980678500457738,-0.004004069985747764,0.011680457468925518,-0.008061284533409492,0.008596174820077847,800,0.9105124644601752
956,0.22960959540751613,0.7711937797363688,0.011570737468760674,0.003115878039751433,0.0008984082350706655,0.023330295129580764,0.00604293588744345,0.010486136887218061,800,0.9720597220436219
957,1.464142832085249,4.46252280136599,0.005457731929807047,0.002841168094595411,0.0032512944320408346,0.015308184455713286,0.0012896155930916297,0.007352923675859762,800,0.9721406667864388
958,1.5466229972014311,3.0497009786578766,-0.0004224003861953659,0.007014011574507232,-0.00043194466623717206,0.014078034074313139,-0.0008948116976894059,0.007273048207973205,800,0.9518834190734007
959,8.329992294309147,4.385888827286043,0.0006274015902801423,0.006882843163235095,0.001550505796902953,0.01449213720310022,0.0005283523039302553,0.007117658371796487,800,0.9442508973644836
960,3.5460122953067685,1.134726373024575,0.003789311163754146,-0.0020606610353190776,-0.001792240199479482,0.008589457257370455,-0.005132157000500319,0.006004170522392965,800,0.9404887641500725
961,2.4943807622128467,0.02788707366216503,0.008171754503119317,0.0012215765972566474,0.0024696952291895814,0.01791991019304078,0.0008667520077111496,0.008751318789641029,800,0.9041455161291826
962,5.008447509462101,2.5616994981570502,0.004287744514840454,0.006544915526038072,0.0024409336150413006,0.016211084403639914,0.005454235678117137,0.0071436837387842496,800,0.9814826319123837
963,6.175022404439802,3.05823742143808,0.0036150219356371922,0.001681289966963441,0.0019311399549080295,0.009615631921821206,0.00097699188338006,0.004583134736589902,800,0.9454165254244492
964,7.596903067586008,1.0292369404666029,0.005598492716466469,-0.0016977750377178582,-0.0012174912192514278,0.011592574581770617,-0.003791139224273397,0.006940993917642557,800,0.9125966979011838
965,7.280603312184878,3.4415948886313346,0.008396081143632895,0.004898731423879936,-0.001390088385803621,0.01776256792603914,0.00882705720898652,0.007691465319368912,800,0.928348710343597
966,1.338308301809813,4.58056416723473,-0.00024651008445149064,0.008716066662571574,-0.0005274130088886357,0.01749399228757352,-0.0005548791313333568,0.008888963778924857,800,0.9437164150505561
967,3.224147098707001,4.695681667408884,0.005072155906183038,0.001348756335328913,-0.0006573781661101719,0.01036961944480649,0.0024722050382174135,0.004690548468602807,800,0.9830616473270279
968,4.876613823772795,0.9985547350339868,0.0005603249835458978,-0.0003498483762022185,-8.571762040707644e-05,0.0011366545527667932,-0.0007157013380794346,0.0008089680404693759,800,0.9191804458363881
969,4.649224553426353,1.5560265015221049,0.009902154588987607,0.004560295348248573,0.0002709865101280085,0.019831732468688072,0.009093167405784287,0.0085972385522144,800,0.9718324889762604
970,8.456075824386078,4.469378212440134,0.010437918140303664,-0.00022697480972952108,0.0032330224534316498,0.022682899006138436,-0.002261012344990149,0.011946886611371995,800,0.9251745533580843
971,5.2105746804609705,4.73508982115397,-0.0032921566653600094,0.0015167969964083236,0.0007157992012608511,0.003242160565899167,-0.006792879903802538,0.0044350431191690085,800,0.900406270697318
972,6.001041385600441,2.4032908728395137,0.003011682162765341,-0.003209031046610835,-0.0014868622318910776,0.006697599268229597,-0.007092297035920585,0.005972015502352749,800,0.9579749445569941
973,2.6674298742955505,1.7988495348282207,-0.005074112218812646,-0.0050360114276851815,0.0028256260004303536,-0.004458743209160709,-0.01576150408383495,0.007036137127181799,800,0.9205078123096361
974,1.186574409004958,1.3124542680202729,0.015108709523817994,0.017509583445081956,0.001537504721633217,0.036519559258450456,0.02871702667934945,0.016655424583232166,800,0.9802741057947194
975,1.9092247430062093,0.4064057645186314,0.0034641386961478,0.002934369623521121,-0.0037740892325563947,0.013965254873605044,-0.0011682382342672031,0.007292253920280495,800,0.909250668035653
976,8.747709946559397,2.6544089311872927,0.0005276547722502139,0.008942096028373415,0.000786373686233094,0.018029911777518136,0.0009095898237291237,0.008796380620416478,800,0.9720674059343453
977,7.702998393077275,3.3008670230341517,0.021722490861678517,0.007088574256950058,0.0024120714979768347,0.04421962997196765,0.013402500265289505,0.019636376230026027,800,0.9025962413504655
978,3.2275641521959786,0.39172952217212786,-0.0035244332288727536,0.0004976850820660204,-0.001488998851879663,0.0019778403508406797,-0.008031336644454146,0.0045907222317559246,800,0.9838710676996322
979,5.606495874097752,4.745119623093302,0.012544698274423699,0.002827254613056195,-0.00189793783464475,0.02580446856724551,0.004939437207714276,0.01186179882859855,800,0.9605979940919347
980,0.7328379849260158,3.6050718561799107,0.013190859918728658,0.012821510427152568,0.0018371162943545466,0.029705120562570603,0.02231962012919185,0.013393586370907713,800,0.970568498252681
981,8.38812139042188,2.6630256170199393,0.007100218742704399,0.0015057696790127043,-0.0012829225102690205,0.014760776882392315,0.002451199961041892,0.00685031568071339,800,0.9462226669546675
982,4.763607406880937,4.007559161211953,-0.0037562062946050597,0.0049407628809331255,0.0019059964792445044,0.010680269469299578,-0.008311156296643446,0.008244829649145375,800,0.9630824895907654
983,0.8573561194547197,2.9706631129608523,0.006834501189247813,0.004280478375754997,-0.003053681304604347,0.017734867069500317,0.0044950920605053065,0.007984539787098512,800,0.9320126297881013
984,3.5620134800029546,1.0780533814778825,-0.0020196523400219336,0.0017745642364800258,-0.0017800207370196155,0.004957793283370701,-0.005447969490454517,0.0045074935484519215,800,0.9857065073489935
985,6.8963077584931165,2.6046640690896625,-0.0016584834928050408,0.00038232289513693066,-0.000558273744701591,0.0010501173326655177,-0.0036024385280017377,0.002113249446853858,800,0.922709314894392
986,0.7292828672048113,3.9267685987996686,0.003532897386645444,-0.0007832195861217639,-0.004386264515909105,0.012526493812738626,-0.007027138211691265,0.00857786573129937,800,0.9163461547988204
987,9.903629061648079,1.2623873826088223,-0.002780815566904107,-0.001966448562504235,0.0006467741393320183,-0.003218715547553675,-0.006275812711263009,0.0027178069751012893,800,0.9345319992545223
988,4.294301902003056,4.329234347667152,0.005064931756711171,-9.139507773315864e-05,0.002299453446485952,0.011882780561910151,-0.0019357072039541262,0.006479757329534902,800,0.9282825321913967
989,0.10450374820076158,3.013310481650315,-0.0025957999793547147,0.005898686731513384,-0.0003519811025740381,0.011826493222860592,-0.005220719718543254,0.0075641368096392905,800,0.9326134851535679
990,3.8553702081640218,1.1350269672579727,-0.013661300267461618,0.0022511279143207713,0.0005222271552440801,0.0045364967488089325,-0.027356841455090625,0.014942228744983284,800,0.9186485946677537
991,8.38862531433137,0.7099886839905517,0.0028055482093364116,0.0005513482767395895,-0.001210621712427178,0.00666504355936642,4.874941278558203e-05,0.0033204015266903083,800,0.9202637651176044
992,2.7438103635310074,0.5653876940779201,-0.003029388035850183,0.009564963027250739,-0.0010416899061705721,0.01930108125410326,-0.0062299312713021485,0.011528098183325017,800,0.916875258790997
993,6.621256623283088,4.399839686588419,0.001350378493158968,-0.011392919106377596,0.0001311427455472909,0.002703455910756776,-0.02278853713719403,0.012126766924202476,800,0.9796841532404885
994,4.71802638681405,1.9595963545277573,0.00382537586881285,-0.0037059483648269817,0.00279289993911201,0.009496100954190801,-0.009257245946219064,0.008120656960862872,800,0.9108343966417786
995,3.2440145836867273,3.180860067237577,0.004455308081820594,0.0007887411215222702,-0.0015252942917060343,0.010013724661861541,0.0004743737448241886,0.004892582753154692,800,0.9173968408642886
996,8.952115532195847,3.2112358616749552,0.008610600413143429,0.006933688120160073,-0.0009270966539354047,0.018044302065529195,0.013044275001077809,0.00806807147016134,800,0.9361180680447896
997,7.079671719871991,2.1532567341979107,0.008416169930642531,0.006523605743324106,0.0004997950316769724,0.0170800979622859,0.012799453385647377,0.007696425074053437,800,0.9062437800734611
998,7.1967093396836255,4.403067028597711,-0.0009096439207347718,0.00698729038279377,-0.0010491081684185237,0.014248575613043952,-0.0020932826889259563,0.007701136865570975,800,0.9257136792476897
999,6.314359963612359,3.4374862126568564,0.002683709420020595,0.006750271676191637,0.00028634071832049125,0.013540669861043101,0.005327292331381362,0.005907509567433091,800,0.905197062329006
1000,2.8761783064661515,2.850557270651288,6.31837425817479e-05,-0.0010528790187647932,0.0014530345485315001,0.0021233151131618134,-0.0041027056655279035,0.00274098512364652,800,0.9129468429153738
