Point_ID,X_coord_mm,Y_coord_mm,Exx_strain,Eyy_strain,Exy_strain,Principal_strain_1,Principal_strain_2,Von_Mises_strain,Temperature_C,Correlation
1,2.174694175977838,2.3557336193883867,-0.001369217334877085,-0.0012743829430699929,0.0018145622773544116,0.000986763146761244,-0.0062739637026554,0.0034105438794986083,1000.0,0.9225186059618011
2,8.66640975146661,2.5821959727549375,-0.0021109625177133445,0.007207960854238202,-0.0003471061503313217,0.014441743572789788,-0.004247746899740072,0.008484576928678081,1000.0,0.9832203157285911
3,7.536805020278857,0.605649008286982,-0.004940851110926128,-0.0032767036865740274,0.0005369191588803287,-0.0062370206819977805,-0.010198088913002529,0.004452408140487688,1000.0,0.9811400860083082
4,8.878630498867047,0.41611752307251226,0.004332654638906998,0.001171071970543796,0.003632619509667116,0.013427065739953238,-0.0024196125210516495,0.007393052744340973,1000.0,0.9585289509399523
5,5.1988841199787075,2.8646111401350787,0.0035148129110036865,0.0019263342775520773,0.0009451951532926264,0.007910325165163318,0.0029719692119482086,0.003460368563029798,1000.0,0.9764798398692631
6,3.6783076055552932,2.4896342944008367,0.0002894699361323985,-0.002845031401469316,0.0010382003827767582,0.0012042974116181953,-0.006315420342292031,0.003497874737857599,1000.0,0.9303900127684431
7,2.1212820715963163,4.109118821584355,-0.002292871686054093,0.006383230359464276,0.001303881868848737,0.01314989389415401,-0.004969176547333645,0.008107967829931796,1000.0,0.9438880223017092
8,1.969968738081742,1.9312696813558734,0.018070720204252183,0.0013794670769495228,-0.00150105608806387,0.03640927359142919,0.0024911009709742207,0.017614919888457176,1000.0,0.9502989928917415
9,9.472250577866253,3.8939482517062025,4.799487066845529e-05,0.0019146860246571653,-0.0017394721736042887,0.005910793056264595,-0.0019854312656133535,0.003557206952193632,1000.0,0.9722435492972259
10,7.783348300651182,4.782546589201292,0.003054954541025016,-0.0007646765194016692,-0.0007871865226889369,0.0064216496974458795,-0.0018410936541991855,0.003756663053419118,1000.0,0.9736775788085921
11,8.5299867668631,3.2115411581228583,0.0020058756492887814,-0.0017282441974041805,0.0015949048134213492,0.005188694115398946,-0.004633431211629745,0.004255369804081938,1000.0,0.941114961080646
12,5.07671689673614,2.4158808768778055,0.0024475519489785993,0.0022771277468247933,-0.0005566411202753701,0.005850930891498846,0.00359842850010794,0.002555774026364281,1000.0,0.9733116287913738
13,1.9815264756690354,0.9619586010140524,0.001522787688306715,0.00035135191251612545,-0.0010183494030101153,0.004223693559183094,-0.0004754143575374124,0.002240179158745534,1000.0,0.9616021657404655
14,3.5936936368699612,3.4112499973575092,0.011867031836711141,0.010142542988491451,-0.0009531420918687138,0.02458013530432024,0.019439014346084943,0.011227697087076632,1000.0,0.9142740274511888
15,1.1524617815407712,2.0298700387934483,0.006511654123582165,0.003675708402261962,-0.0009876079857830836,0.013643381372523706,0.006731343679164548,0.005907930137509806,1000.0,0.9804479006834986
16,5.3928037453512445,4.821871875340731,-0.0035158818667746505,0.002499359442024356,-0.003689074029776739,0.008502941677381439,-0.010535986526882028,0.008259750423217162,1000.0,0.9027089254931772
17,6.794616720063079,2.8587247577211325,0.004747082140205198,-0.0015473549034181358,-0.0004895020111130614,0.009569843921092978,-0.003170389447518853,0.005743984116117808,1000.0,0.936993927700956
18,6.414147975621929,4.101933882893728,-0.00945969319502923,-0.004277962436208858,-0.0018852308127680227,-0.007329323982006357,-0.020145987280469818,0.008830675594513178,1000.0,0.9575170560137316
19,4.636975471230588,3.199514171391133,0.0005990618003590693,0.0021576625638145288,0.0009005849422033315,0.005138624717323883,0.00037482401102331264,0.002480921053612987,1000.0,0.9889762226977934
20,8.32947712154148,1.8982138947715066,-0.0015332285962923412,0.0007601316968846849,-0.0020887633336114553,0.003992533225736297,-0.005538727024551609,0.004145219242842062,1000.0,0.9174056519183846
21,3.321257837123679,1.8203706213660036,0.010564186565396356,0.003010221939529591,8.550456475339059e-05,0.02113030856323939,0.006018508446612505,0.009427876793481515,1000.0,0.9422274671893363
22,1.4676613236813985,1.620821563127695,0.00715585280869696,0.011675604043820504,0.00025961333569524527,0.023380934576793518,0.014281979128241407,0.010206823818888017,1000.0,0.9881817118914324
23,9.965246653829873,2.583228609016019,-0.004811275450210397,0.0008143318750265299,-0.0019403078761601451,0.002837281793862412,-0.010831168944230146,0.006246908578007822,1000.0,0.9077360463846312
24,7.45162121931577,2.977948596544654,0.010601163536977622,-0.004067725936852786,0.0015949261914893161,0.021545148915649362,-0.008478273715399687,0.013404665575245302,1000.0,0.929806682918282
25,5.797713438214624,2.9639661951342733,0.007498450180802686,0.007083160965927982,-0.0034051586798793587,0.02140457880550073,0.007758643487960607,0.00938458905136936,1000.0,0.9578953537646084
26,1.3906061992281749,4.2582227738412595,0.0030178001658631103,0.006887764699961293,-0.0006690554928120001,0.014000337937073334,0.005810791794575473,0.0060914225519604825,1000.0,0.961769790068301
27,6.658761284183091,1.768560694896728,0.002583281720069072,-0.00031601187222533075,-0.0003108665293223215,0.005232477316222809,-0.0006979376205353272,0.002807039301227113,1000.0,0.9708052917807761
28,0.3850264786278268,1.7002149741054433,-0.002648143545383181,-0.00045754835566152487,0.0011150471248272122,2.033235471106008e-05,-0.006231716156800472,0.0031209535853219143,1000.0,0.909056988847159
29,2.383798217897286,4.91937892997365,0.008085889269107546,-0.0024423383027821566,0.00162239425543268,0.01666045744163607,-0.005373355508985292,0.009949451647788678,1000.0,0.908464203166468
30,7.5387856451439905,3.4383104957597075,0.007319543919514313,0.006844893572572118,0.00021709693891074671,0.014807723801119985,0.013521151183052877,0.007104096376271119,1000.0,0.9371527671614096
31,1.2458350977012689,1.2202124218887471,0.012216661312191587,0.0038989062410186644,-0.003410812811735508,0.026872873236829138,0.0053582618695913655,0.012317369791016065,1000.0,0.9403643610190011
32,8.440203585090224,3.8113244416856276,0.007470447897380504,7.728032215117823e-05,0.0016690006414952102,0.015659520830334055,-0.0005640643912706899,0.007974517843699373,1000.0,0.9474680021029125
33,6.96361175935408,1.717045399190114,0.00208093747603305,-0.00267694388000717,5.182710696732974e-05,0.004163003912701138,-0.0053550167206493785,0.004132183478992758,1000.0,0.968365978617256
34,2.813486811051372,0.9776174757256573,-0.000287748676207148,-0.003157880007242462,0.0010976009943817898,0.00016775831891563875,-0.007059015685814858,0.00357218609225489,1000.0,0.9815198660623612
35,4.075254560343681,4.172684460199115,0.010426224743272736,0.00019904164170978813,-0.0023760810412343752,0.021902602890157337,-0.0006520701201922878,0.011117904947703558,1000.0,0.9834667851674819
36,8.916697861844996,1.8936496022597487,-0.0011469810138657467,0.004565235853735472,-0.0033233344241496605,0.012182250978701629,-0.005345741298962179,0.007779899599523671,1000.0,0.9063748188306716
37,8.234058306652804,2.4151858566460738,-0.005593660286793987,-0.0029806298829577844,0.0013922022668164209,-0.00475580401706148,-0.012392776322442064,0.0054143550264543145,1000.0,0.9763647635277479
38,9.250098749460623,3.314208800582841,0.01168201108706133,0.00493388567068441,0.00022120669631427053,0.023378509140924986,0.009853284374566493,0.010164728277227251,1000.0,0.9639401505838668
39,9.754477174268757,4.936510023401032,0.004212212668965543,-0.0025566488430457716,-4.836304302706033e-05,0.008425116403787193,-0.00511398875194765,0.005920756241714998,1000.0,0.9413949307322033
40,4.30360882637518,0.13537195414143055,0.0004549603953063737,-0.0017595868090647063,-0.000694689179117843,0.001309678760226039,-0.003918931587742704,0.0023561528339456407,1000.0,0.948994636035528
41,9.154301871640623,1.7259887303837296,0.0064119131989508905,0.00591005583190624,0.001093822907092013,0.014566441134754589,0.010077496926959674,0.006460338340074068,1000.0,0.9362729132227606
42,3.236830541179266,3.9333803676858454,0.00491443101416217,0.006439924145244775,0.0030069586145464533,0.017558735042309082,0.005149975276504811,0.007816718785398916,1000.0,0.9798657677870817
43,7.460858334804094,2.2991460670634973,0.0037562238731664093,0.0017150644688425387,-0.0015823326403413406,0.009237113358206352,0.0017054633258115452,0.0042567390770182735,1000.0,0.9656223055293365
44,4.3709672763920935,4.619398435977301,0.00643066794482047,-0.010920530483981478,-0.0006567176447670551,0.012910976497375496,-0.021890701575697512,0.015235866099002376,1000.0,0.9781466762718084
45,2.8434711032568174,1.423072712732395,0.01023796544037556,0.004977348522425548,-0.0036910676923918575,0.024280081648555538,0.006150546277046679,0.010931786434255651,1000.0,0.9562735904239693
46,9.477818761311626,4.478563040833878,0.001520230586204058,0.006434018401296447,-0.0038336023578607594,0.01706091351654366,-0.0011524155415426462,0.008832667964561317,1000.0,0.9872047663016541
47,5.976990044192733,0.534310604290737,-0.002691336479114139,-0.003170675877489062,-0.002057608774862183,-0.0017189721998591406,-0.010005052513347261,0.0046329670323171455,1000.0,0.9295338562771709
48,6.886792400628482,3.8413718105824124,0.0016068101982383606,0.002121970598446818,-0.0013220182930012766,0.006422536484579494,0.0010350251087908637,0.002986334096677609,1000.0,0.9837988022128016
49,2.986240380070071,1.1349266882300757,0.0014372754211881165,-0.0005483536039383894,0.0010396489482740446,0.003764022227324851,-0.0019861785928253967,0.0025292681303701768,1000.0,0.9512334746599916
50,0.7957976596801852,1.1844916195417143,9.922137925882381e-05,0.0016684636598781875,-0.0016390331849123647,0.005401999343137058,-0.0018666292648630352,0.003269152481086147,1000.0,0.946884421784092
51,0.3480680116652324,3.635827904492854,0.01668299914300437,-5.274483722405438e-07,-0.00034287888080062316,0.03338008599227258,-1.5142603008326538e-05,0.01669382993459337,1000.0,0.9166664855122596
52,7.035339319582176,4.228338667278356,-0.001341468103724681,0.006337490173496626,-0.0011894106842647693,0.01303500156512323,-0.003042957425579339,0.0073965500488687875,1000.0,0.9685260501521495
53,3.1197884210851,0.3374124754059227,-0.0006783192496916169,-0.0029545632402743424,-0.00036066051032338295,-0.0012450820964047924,-0.006020682883527126,0.002752390204184985,1000.0,0.9826825851891512
54,0.29515158746664993,2.972410832774999,-0.008018197140918927,0.0027985355466886306,0.0029672547293946435,0.007118089762950529,-0.01755741295141112,0.010998922592839886,1000.0,0.9683802491644717
55,5.085571507718122,3.805144871234592,0.005377561711028288,0.006646243768856308,0.001672178520705937,0.015600714506445925,0.008446896453323267,0.0067630380150304975,1000.0,0.9527855600236954
56,2.222392266248926,3.265641357140453,0.0027127966905101954,-0.00043934880119922957,-0.0029582476211178267,0.008977248091606764,-0.004430352312984833,0.005915897581143457,1000.0,0.9314647520721826
57,6.807524388767089,0.6550814481054307,0.00711808583163653,0.0036677860828865346,0.00024049813360325635,0.01426953747902418,0.0073022063500219475,0.006179458112415078,1000.0,0.9199451536796299
58,1.2922485291954677,4.932830441046302,-0.0003431764654758143,0.0019729769966548186,0.00016200471694704388,0.003968507219370596,-0.0007089061570125879,0.0021831683794205853,1000.0,0.9542767313534422
59,3.739527992109287,1.6960010738003302,0.001088502393227545,0.008868627066680571,-0.0027093411477658045,0.019438292772201618,0.00047596614761461625,0.009602366900203706,1000.0,0.9099579667939592
60,8.850608546639858,1.4736339762184159,0.00984622728125578,0.005950749672007906,-0.0011463003431119044,0.020317017186560888,0.011276936719966487,0.008815281787807754,1000.0,0.9569238421581517
61,1.155939643885756,0.07605308221752982,0.0072702069402853405,-0.004419493781384012,0.0024773131873482186,0.015547067969437878,-0.00984564165163522,0.011087367157484197,1000.0,0.9120450572491361
62,5.604154719268894,4.010334216914263,0.00272181406390709,0.002346338124869574,0.0007566218842354252,0.006627282999071928,0.0035090213784814,0.0028713600113638477,1000.0,0.9154005044614595
63,4.2295817191582294,1.6568346015839093,0.015902483707320125,0.009306737050829857,-0.003354740132537229,0.034617780657732175,0.015800660858567784,0.015008895773717152,1000.0,0.9192924195821723
64,6.285291061489313,0.9996700493694061,0.003276818342522962,0.0031024647243918994,0.0007062077458104582,0.007802419288478401,0.004956146845351323,0.0034194737374048188,1000.0,0.9348040787869408
65,8.069346162854675,3.2416091775730864,0.0014975894955360442,0.0020878968854091233,0.0013350831934561536,0.006320125543309206,0.0008508472185811285,0.0029702889856438445,1000.0,0.9313273550642468
66,4.764341928005677,4.900983814214329,0.0034659970886594537,0.009942165212380394,0.0007354370058746839,0.020049263408923906,0.006767061193155788,0.008833055644374189,1000.0,0.95788415173894
67,7.428148523399052,3.1492553599049766,0.0002492791254896211,-0.002372983650887115,-0.0024837763236342848,0.003493487065758713,-0.007740896116553701,0.004979172748219874,1000.0,0.9153253024445608
68,3.6579701490900374,2.633379940102562,0.0007190120648300356,0.002797475967399549,-0.00264185755192789,0.009194309576888961,-0.0021613335124297923,0.005222036493548481,1000.0,0.9849099458912371
69,4.3577395469008176,2.029834329623835,-0.0023858160520199576,0.002808016864166849,0.0003721903208923009,0.005669104937545907,-0.0048247033132521235,0.004548853213425476,1000.0,0.9372758810352414
70,7.071536393087735,3.5076996941155425,0.0014969192480271546,0.0033074626779158985,-0.0003684980645141892,0.006759178796647555,0.0028495850552385515,0.002938782830844966,1000.0,0.9746522505462853
71,4.365107427355705,1.7505652190367682,0.007480494205842135,-0.00325551241160671,-0.001339697249575969,0.015290287617934608,-0.006840324029463758,0.009812918144945391,1000.0,0.9408888476345465
72,2.8927412414720157,1.4620273106727621,0.012626982008880041,-0.0019416674623500656,0.0013323085637967811,0.02549563972365685,-0.004125010630596901,0.013894361648839788,1000.0,0.9484422305549347
73,5.208031884462193,0.1605388752639081,0.00473082567997757,-0.0024110857327635116,5.750574258249106e-05,0.009462577357456654,-0.004823097463028538,0.006293678817475995,1000.0,0.9680262767179771
74,7.808702413130582,0.5766231104525837,0.009323895354283745,0.009656490376741236,0.0008639430824628648,0.020739990813964115,0.017220780648085843,0.009611759368635541,1000.0,0.908724204897389
75,3.9571131638271693,4.933503503652754,-0.0012903173395682577,-0.004930340671271035,-0.0029402879247311165,0.0006953337601664422,-0.01313664978184503,0.00674887791817418,1000.0,0.9687026099930539
76,2.3153656905140076,3.2113238383929517,0.006881766442081765,-0.003349311525098756,-0.0006575669569423554,0.01384771223718479,-0.006782802403218772,0.00910620445749005,1000.0,0.9791746002584566
77,7.029434425467892,1.3939445002754676,0.01259198973018685,-0.00015537318695890354,-0.0010996583644765575,0.02537231348678981,-0.0004990804003339178,0.012812749483330249,1000.0,0.9286791013766421
78,2.9159750992627176,4.57277712750075,-0.0005907335532546651,0.0009310053756046045,-0.0012331945936412667,0.0032383341044187625,-0.0025577904597188835,0.0025155555989351142,1000.0,0.9343894304583434
79,4.368368198832836,4.380237277765839,-0.002767473586222145,0.003494650507504976,0.00282408938361209,0.009160214425750587,-0.007705860583184926,0.007312269670391775,1000.0,0.9517401087275192
80,2.6466173889760567,1.9906232191808082,-0.005407849834710057,0.0029465223438179533,-3.2852262305167126e-05,0.005893303056410219,-0.010815958038194427,0.00733923851232491,1000.0,0.9672929028122653
81,1.1233120854947276,1.795834928195716,0.004417403866168842,0.006171938189541575,0.0019782970185853663,0.01491750876540033,0.006261175346020504,0.006487165143062132,1000.0,0.9516531432952434
82,1.0782691559668034,2.452603740824182,0.004664530288938159,0.00297015577158883,0.0009482050428588774,0.010177770058010124,0.0050916020630438555,0.004407103921442332,1000.0,0.9734616097155202
83,3.548202088134804,3.8243382877981595,0.0048513297019442,0.006080503924438665,-0.0033001300958402937,0.01764557355783153,0.004218093694934199,0.007980098652841017,1000.0,0.9798374133342407
84,2.216788943228103,2.295739885191413,-0.0016886480574717388,0.00837056880134256,0.001386007890042319,0.01711609130495003,-0.0037522498172083887,0.009634103626187121,1000.0,0.9761714452957306
85,7.209101460049191,2.5929495893685184,0.0004537058075620103,-0.0033764374190791042,0.002416378110879436,0.0032437527868685776,-0.009089216009902765,0.005536672050509291,1000.0,0.9818918523870765
86,6.964282743437039,4.566150991065162,0.009114241483082574,0.001270685461845343,0.0010517699540941474,0.0185056566660569,0.0022641972237989316,0.00874193144079689,1000.0,0.9200512383578467
87,0.5870979391906173,2.060945680526563,-0.002348344787066266,0.002308348471782332,0.001883474775755761,0.005949553002539472,-0.00602954563310734,0.005187140416384368,1000.0,0.9495929426130244
88,1.8240412633341507,1.8967949495285763,-0.0012922180748643343,0.006227999744150251,0.000825180512706144,0.012634961337252133,-0.002763397998680299,0.007109747593370176,1000.0,0.9155507109639404
89,1.434965194963217,2.5299006154050288,7.746776847302361e-05,0.0037314242843663804,-0.0023892088552279044,0.009824261869869547,-0.0022064777641907386,0.005546658471032242,1000.0,0.9066216312764579
90,2.2228569624371985,1.1464645774379951,0.0014354712176567822,0.0005706490528128081,0.00021978514385394973,0.0029762436722288836,0.001035996868710297,0.0013084281393634168,1000.0,0.9484887369525137
91,9.964623801252776,0.7643915885432229,0.009475645653148276,0.003735428187807174,-0.0011340573761835584,0.01938314327343208,0.0070390044084788226,0.008497290675108075,1000.0,0.9166921001952373
92,5.519225005050423,3.2774845004726965,-0.0022725247143937427,0.0004020254278552358,0.00163452838426354,0.002353237284231117,-0.006094235857308131,0.0037755337185195184,1000.0,0.9362824451007018
93,1.9831023583072804,1.1833817386405205,0.0013026962182623274,0.002390949546083347,-0.0027593719149013357,0.009318663876716388,-0.0019313723480250391,0.0052097386049101465,1000.0,0.9503285786615682
94,1.411837554533364,4.536404501993418,-0.0030395730610362675,0.00021859128016461392,0.0011196977123566069,0.0011325643163048352,-0.006774527878048142,0.003703023036503694,1000.0,0.9605723430779473
95,3.9043561473891106,0.043399764951123077,0.0063468851348597805,-0.006845657856134386,0.0012966868319335676,0.012946255264180426,-0.013943800706729638,0.011646406171181033,1000.0,0.939371107667
96,1.103228339102852,4.774649034181551,-0.0029773516846472057,0.0007026574185225123,0.006066645484039965,0.010404391533549589,-0.014953780065798974,0.011039156264756452,1000.0,0.9046797983105721
97,0.9041913495759901,1.3182178414980417,0.010600295921393263,0.007087546339163996,-0.003654265356125703,0.02579672817659862,0.009578956344515898,0.011292938681234361,1000.0,0.9898420235894064
98,3.293499741528895,0.7666645624352897,0.014580153807999322,-0.0023269931640311197,0.001937551637488376,0.029598708894904915,-0.005092387606968509,0.01622300895444193,1000.0,0.9318467444833326
99,8.08197759039858,0.7718494258548336,0.004168464387251169,-0.007227318454138809,0.0010048812611084068,0.008512792832487813,-0.014630500966263095,0.0101373766835162,1000.0,0.9626216082195268
100,0.5130774818140416,1.2293079968938598,-0.004708983765119734,0.004398861840659848,0.00247611100243345,0.010057006625153377,-0.010677250474073148,0.008979535604649187,1000.0,0.9267343685595149
101,6.264444965603215,3.185613506027205,0.00973743608494853,-0.0018557337816830807,0.0007344470433068194,0.019567558600270974,-0.0038041539937400774,0.01086046664950557,1000.0,0.9613441528707745
102,2.531488688418304,2.3354032188485023,-0.000410627475947722,0.0007550701713900493,-0.0028775106445342,0.006216335153810355,-0.0055274497629257,0.005088123521947005,1000.0,0.9884708049898339
103,1.4018109913592403,1.2999297957818035,0.0008976025592676489,0.004055848048868475,0.000854133099567259,0.008544089545663741,0.0013628116706085065,0.003975384788492572,1000.0,0.9374941321107
104,3.966460138761523,4.175348659002932,-0.002586902481514123,0.0005655089592864598,0.0010099023743329219,0.0017225761778131236,-0.00576536322226845,0.0033962464249585327,1000.0,0.9721170077760993
105,6.604373215092049,4.008912499824197,0.014721824964899325,-0.0003830873064065302,-0.0003445054975226637,0.029459356391704064,-0.0007818810747184726,0.014928987995377467,1000.0,0.9184348567356737
106,3.532227771831015,3.474184291541516,0.011432082267220563,0.005989396216792526,0.0011774586952739373,0.023351779265577948,0.011491177702448233,0.010112038798486897,1000.0,0.939653436853523
107,4.175312346259242,1.6959433810795126,-0.00396225967310874,0.004524399481188408,0.003420436364790686,0.011462640865533204,-0.01033836124937387,0.00944429419113023,1000.0,0.9255575184117232
108,2.563642797554876,0.2182037175739343,0.008478163406604145,7.1759020536076e-05,-0.0007547532752301601,0.017090779803773264,9.065050507177375e-06,0.00854312454102825,1000.0,0.9762941462675045
109,7.475058004600545,4.162993543309947,0.0015770685065439678,0.003303824778778406,-0.002471803005351725,0.010117392842542278,-0.00035560627189753016,0.005149900535471481,1000.0,0.9323447924395021
110,3.5192560176883414,1.1420347615199806,-0.004142529087869652,-0.004173472760606023,-0.0007993435182079797,-0.006717015372208018,-0.009914988324743332,0.004382526668421751,1000.0,0.9220372006011853
111,6.0068592659246285,2.4595294984863902,-0.004105537767355007,0.005130720145910777,0.0025590440006248104,0.011584693969008244,-0.009534329211896704,0.009159160086983982,1000.0,0.9868428972456932
112,7.7843423859620575,0.2360190608192836,0.00628937819098873,0.004757002495102894,0.0019507456407694419,0.015238016344550685,0.0068547450276325635,0.006609310757216947,1000.0,0.9253862039829676
113,1.8078679500214845,4.171201000792697,-0.005787919756402065,0.001054325898042455,-0.00019846414696340385,0.002120155310254935,-0.011587343026974155,0.006390002813277032,1000.0,0.9132061133311676
114,0.6300848507137313,2.346993211874586,0.0031153615223757317,0.0015512545643930685,0.00011724869001002665,0.006248203769208838,0.003085028404328763,0.0027056221323859832,1000.0,0.9356309682649517
115,1.922074565212466,3.4751269476863653,0.00788550813062785,0.008303309324542018,0.00166074404307821,0.019536479466800545,0.012841155443539191,0.008597940646299524,1000.0,0.9036870650496541
116,7.896131933464265,3.1392799200314334,-0.0038202554073013956,0.009154417308402201,-0.0018951273468150803,0.018851120239507003,-0.00818279643730539,0.012006016943118373,1000.0,0.9192258261217437
117,9.514776387447498,0.4783140281056486,0.0024986878151301685,-0.0006684476476097581,0.0019175007510387667,0.006803969508797616,-0.0031434891737567956,0.0044035136468407385,1000.0,0.9302428048434501
118,1.8337202163248667,0.955290653854261,0.008267716994848682,-0.003532630294744229,-0.00045683613278808523,0.016570752847976565,-0.007100579447767657,0.010519862469979867,1000.0,0.9759463551937065
119,8.563602191024632,0.3753012501405367,-0.007382669493574847,-0.00013708776400566465,0.0008350483508633041,-8.418884669322748e-05,-0.014955325668467797,0.007456704734530685,1000.0,0.9822336096179162
120,5.664056345283887,2.3491222087059898,-0.0011838490048775387,-0.003828609214234408,-0.003640820133049742,0.0027346084212286903,-0.012759524859452583,0.00716198055687076,1000.0,0.9603176859474933
121,1.0744014627808773,3.776642224887097,0.006781331266145216,0.0052633641939120865,-0.001051494453146624,0.014638300359107365,0.00945109056100724,0.006427578234503538,1000.0,0.9758481955418395
122,0.0014004701533942843,0.18088454603784165,0.005585966099484061,-0.004573520198261802,1.366586418117813e-05,0.011171968963721857,-0.009147077161277339,0.008812955992107378,1000.0,0.9872283482689299
123,5.904921725820297,0.5565282101703084,-0.0012614050390529052,0.006404633331724898,0.0027260064899596505,0.014550278299738297,-0.0042638217143943094,0.008542987866912842,1000.0,0.9187760344901181
124,7.713067156146156,2.3949216206834896,-0.005042822021950497,0.009250642026637938,-0.0035880378008229267,0.02020154300931732,-0.011785902999942435,0.014009847213998524,1000.0,0.9666350507740477
125,6.5482889943077,1.7087490755940675,0.0035910858021437767,0.001928167668223427,0.0001253263336641484,0.007200956024257138,0.0038375509164772694,0.0031203577242617632,1000.0,0.9351685880934224
126,8.710911834447423,4.128403565950755,0.00236928255346445,0.005942508255504444,-0.0029054697970312855,0.01513344463216773,0.0014901369857700597,0.0072230663347146,1000.0,0.9807855198838669
127,4.771899282491274,4.302037419031776,0.0055928778184389195,-0.00517228808149268,0.0009987281306313748,0.011369499653860703,-0.010528320179968225,0.00948436583057808,1000.0,0.9081961993470974
128,6.136962549655141,1.7678777747894965,0.002412991754384488,0.0024339436618432114,0.0015491733183762648,0.007945352893570266,0.001748517938885133,0.003615707244813523,1000.0,0.9453839089100587
129,4.910199320725626,2.6625921096345273,0.0050503520582519165,-0.004207472605885424,-2.0423553698343927e-05,0.010100794228280793,-0.008415035323547808,0.008028658103405242,1000.0,0.9101723046134165
130,8.039201166462654,4.899794028349487,-0.0029432846075350527,0.002700706218196177,-0.002046932891130882,0.006729822164567362,-0.0072149789432451135,0.006039494033594831,1000.0,0.9205293132031604
131,5.108675514080923,1.8107707854393484,-2.448793230023236e-05,-0.0010569589435517439,0.002185441205372622,0.0034097232876618574,-0.005572617039365809,0.0039268739366766225,1000.0,0.9183485674394037
132,4.6865214560045185,2.6360467589221344,0.007130692286476066,0.006620219056974296,-0.003119655070574511,0.020011069005640907,0.007490753681259818,0.008755802142606364,1000.0,0.9602453231206625
133,7.590787434141805,4.685763482510393,0.0022201528111448253,0.0021385181056287434,0.00012150481801618312,0.004615025960315295,0.004102315873231842,0.0021906144050115013,1000.0,0.953753393679488
134,2.1421323610556318,1.1236993246106923,0.006105773790135299,0.0029581572283889565,0.003026618035469251,0.015886625277414277,0.0022412367596342337,0.007446514559836681,1000.0,0.9410482569643669
135,5.559573427725072,0.30820391759993016,0.007542084963203049,-0.0067864953839639934,0.0006217625906343153,0.015138029206842948,-0.013626850048364838,0.012461286295335515,1000.0,0.975011696121786
136,2.7206797673564154,4.707381569145507,0.001954241001131675,0.0008789390166658803,0.001874628758636807,0.006733591058781413,-0.0010672310231863024,0.0036628720930143633,1000.0,0.9445610492807902
137,0.8643172630182083,0.7341018846781505,0.0038206457804614456,0.0014866315633539383,-0.005740733659101996,0.017023578558134102,-0.006409023870503335,0.010487877945968324,1000.0,0.9872061149406535
138,8.118064808237726,3.127664308582512,0.0006923359204513563,0.005156393860802532,-0.0019899681093090444,0.011829340586103208,-0.0001318810235954324,0.0059479146944825855,1000.0,0.929116354427358
139,0.7300997939919118,0.1627731227343493,0.005685743391076758,0.0008761353829358097,0.0027162836312789097,0.013817574209612694,-0.000693816661587558,0.007088610615053597,1000.0,0.9088024603782002
140,2.6822147969017207,2.1658168036204763,-0.0012656769095248667,0.0023206176691564977,0.002583896235133463,0.007345218004779644,-0.0052353364855163825,0.005473017071707634,1000.0,0.9752625162298462
141,4.998928143947895,3.9014260725779444,0.00248217013255294,-0.0009576782284444777,0.001187986040374909,0.005705137796211648,-0.0026561539879947234,0.0036999147216919058,1000.0,0.9211648764892667
142,3.258557076065298,1.6675098088853395,0.029200155005180785,0.009997002850886286,-0.0028216078386738286,0.059212325500682186,0.01918199021145196,0.026164087942825293,1000.0,0.9336714521823335
143,4.0377294547910845,3.4966569282154394,0.004172316828873464,0.011902394707714294,0.0030113227766618506,0.025874015770762454,0.006275407302413065,0.01168840709213888,1000.0,0.9074229693503273
144,2.5963636531989334,4.1650394163853734,0.005623648731662323,0.00624230596627716,0.0015310590497309923,0.014989943178871182,0.008741966217007782,0.006520713016621225,1000.0,0.9441610934068955
145,6.258007022589798,3.940779708172145,0.010443403976500355,0.008450495726115042,-0.0033278440898080325,0.02584155171165664,0.01194624769357415,0.011200324228439714,1000.0,0.9860872945481498
146,5.925419689864997,0.546284047234637,0.004595216524874948,-0.004398912288288991,0.0014098279815629993,0.00962205687805591,-0.009229448404883996,0.0081635313119972,1000.0,0.954614014539139
147,2.3901537795192365,1.8415369260674592,-0.0059450853757377665,-0.0031776682105956328,-0.0014362120883600735,-0.005134092355177043,-0.013111414817489755,0.005721732435367546,1000.0,0.9135011510079778
148,2.370856890713491,0.9028276204437885,0.007143020705902159,-0.003265486554794761,-0.00019866329849028334,0.014293622275765746,-0.006538553973550951,0.009226591279488734,1000.0,0.9232043772755301
149,7.074285195746922,4.833698523754523,0.008098210062383924,0.005641975209143437,0.0011782544799652497,0.017144039576944388,0.010336330966110334,0.007475817073962812,1000.0,0.9064744787684087
150,0.14246017281492218,0.6011124726907896,0.0004770189205444248,-0.0033710702924238424,5.034194927496111e-05,0.0009553547951013995,-0.0067434575388602355,0.0036341889349016717,1000.0,0.9145133412131099
151,7.810166495793194,0.7881648120366952,0.006442908330836906,-0.0013621267356236358,-0.0030585258502908923,0.014997277644537812,-0.004835714454111271,0.008955794539110776,1000.0,0.9623278387008288
152,8.94170342187783,0.811485995242065,0.0068585625551765865,0.0009641423787927221,-0.0009139754253609718,0.013994057583787358,0.001651352284151258,0.006622905198423056,1000.0,0.9813085038632798
153,8.903356241222225,1.5789979010754773,0.006608133520422665,0.010256988459102081,0.002572888226605414,0.023173303783336693,0.010556940175712798,0.010047534677647064,1000.0,0.9133758243076036
154,8.42283521447081,3.342265083895921,0.0025315750156679577,0.015234978317732528,0.0010054654001558723,0.030628135589816197,0.004904971076984774,0.01424702874079545,1000.0,0.9461671813845286
155,7.806749343145772,3.304287940443376,0.00012935216907929798,0.0064059893973146265,-4.277446677274006e-05,0.012812561772416686,0.0002581213603711635,0.006342735410178669,1000.0,0.9148376518601941
156,8.427641629530335,1.5225676424933732,0.003126465694967288,0.010186171828127918,0.00035115100528587115,0.020407190278599874,0.006218084767590534,0.009058481581137636,1000.0,0.9730227557057571
157,7.350965242849066,0.4325794106457742,-0.0012160699172870403,0.007122735716597153,0.0007369856563034523,0.01437473941909442,-0.0025614078204741937,0.007905907812436856,1000.0,0.9882203769495206
158,2.4129994857819193,0.9743246062715571,0.005245782717826504,-0.0017845317930755712,-0.003920950276983168,0.01399314184806085,-0.007070639998558984,0.009283620484832177,1000.0,0.9090822379591714
159,4.440659710247399,2.620358049673839,-0.010455421668536994,0.005657676628608775,-0.0012001514646555816,0.011493153980259144,-0.021088644060115583,0.014310822217171702,1000.0,0.9812759849022289
160,1.232272205940419,4.974353632593218,0.00816326918122387,-0.0018513719857156143,-0.00296784169953684,0.01795343382589335,-0.005329639434876838,0.01056428146582221,1000.0,0.968859343879759
161,6.083432742685554,1.5022294255586517,0.012246673711466875,0.00884331446541696,-0.001130762116472805,0.02517622679129118,0.017003749562476488,0.011122945196110616,1000.0,0.9781787326625347
162,3.9678756783101212,3.607575209349246,0.02277421484034433,0.003177654210138575,-0.0014846627393042685,0.045772113305568254,0.006131624795397552,0.021517584403268553,1000.0,0.9855015205118316
163,8.921209311389099,0.6532995475911779,0.002397742041483444,-0.0023999827429775707,0.0008501714577573385,0.005087880037523019,-0.005092361440511272,0.004408174010689134,1000.0,0.9898724489332293
164,2.4252332116833406,2.753388857494796,-0.0027635986357534897,-0.0026787914972494766,0.0008478775937524898,-0.0037445156068110904,-0.007140264659194842,0.0030930544806017364,1000.0,0.9002956603245679
165,6.088027096479473,1.2728175944846165,0.0018389856930467812,0.0010077483275373455,-0.0017196746659439621,0.0063851064408611356,-0.0006916383996928826,0.0033787620786939854,1000.0,0.9549872019256782
166,2.2672407269948835,3.898719647394246,-0.0005462271089476597,0.0018293946980189098,-0.00024333077140674346,0.003708124996323739,-0.0011417898181812387,0.0021958924349002765,1000.0,0.9771234989881528
167,4.441128598322239,0.7999090321908336,-0.0034977576595290457,-0.003689066592539198,0.0004571474451654785,-0.006252728831709713,-0.008120919672426775,0.003683342422078098,1000.0,0.9818938831103886
168,7.839130966248357,2.0790078858934695,-0.0010558158520219524,0.00365913520655115,0.001526507757926963,0.008220406431011493,-0.0030137677219530994,0.005035679530510743,1000.0,0.9024064722324205
169,9.749566449156077,4.438629215278972,0.002370470401950533,0.0028957482727535143,-0.002047672162173062,0.009395112228249515,0.0011373251211585795,0.004440617779637469,1000.0,0.9079499797063084
170,9.889909037513497,3.2845228917087277,-0.002283842123399182,0.004459839781367567,0.005292217682509474,0.01472619756191184,-0.01037420224597507,0.010923112178934066,1000.0,0.9372002645782596
171,9.545349949090944,1.587211793169101,0.00966300993234539,0.016939111816560694,0.0007043678609401934,0.03401334263102688,0.019190900866785286,0.014768644711299444,1000.0,0.9419577516311863
172,7.9362149061765415,1.8193632439543443,-4.055788307507019e-05,0.002580932688872618,0.0016941979476139365,0.006824466256923178,-0.0017437166453280833,0.003921537416586576,1000.0,0.9074493946513548
173,8.309997090717111,3.559684184275717,0.003875794561798913,0.009364675313811905,0.0006093504624193609,0.018863017683679813,0.007617922067541823,0.008218107660663462,1000.0,0.9289940564412769
174,2.130216172168721,0.853949066450081,0.005739610865303418,0.00888704571239449,-5.9438256796951687e-05,0.017776335568034454,0.011476977587361364,0.007805455077514953,1000.0,0.9307968248740928
175,0.9020420599493695,3.4024450729413362,0.006819349671914431,0.00944694753021008,-0.000702554272649637,0.019245995262162294,0.013286599142086727,0.008532705114071715,1000.0,0.9815299292797668
176,0.21350983556563286,2.3731879910327796,0.0013613255315769652,0.0009687019873361535,-0.0022504811012498396,0.006848081745659736,-0.002188026707833499,0.004082507508454864,1000.0,0.9641910800760293
177,3.920490802228863,4.890327603618918,0.006504353558768832,-0.0009035318554377354,-0.0019174941772171462,0.013942518292674361,-0.002740874886012168,0.007747917618923289,1000.0,0.9598415714962042
178,9.895273801109841,4.83534714242972,0.0004993158086559453,0.006649285294226604,-0.0004729859314651724,0.013370898704163456,0.0009263035016016411,0.006466325464374106,1000.0,0.9341664515879192
179,3.2371562509149108,0.7947103090465307,0.000801514112337166,0.0013655652083262944,0.00011426394797162654,0.0027756667327176266,0.0015584919086092943,0.0012049241362404905,1000.0,0.9155188968902055
180,5.642381029438974,1.2847545057926602,-0.0036892516876551144,0.0020470559819756318,0.0017636274124966708,0.005091804018192158,-0.008376195429551123,0.0058893349280513445,1000.0,0.9521252453552745
181,8.64267756522578,3.535409094922671,0.007287419372617638,0.007233109618722372,0.0012372605084672976,0.016995645920420167,0.012045412062259852,0.007570078824328768,1000.0,0.9281997888430007
182,7.04731690252096,4.812380793656845,0.0015176667520239208,-0.002452112268134489,-0.0031966469369839527,0.006591067890149858,-0.008459958922370994,0.006534011870703851,1000.0,0.9123819257736903
183,8.841913642172724,0.7163484459757868,0.0016518606349508413,0.007345871853644867,-0.00163297756106581,0.015561894782323005,0.0024335701948684134,0.007249549465165133,1000.0,0.9854321966430221
184,6.792420628281997,3.0189147592191876,-0.001980893390368394,0.0014180338277475972,0.0009249109918779381,0.003306836498523571,-0.004432555623765165,0.003363051207762914,1000.0,0.9788913982280191
185,9.297428019431738,4.9083789428582945,-0.009301777274196028,-0.009244219827476769,0.003690087799551057,-0.011165597062836482,-0.02592639714050911,0.011262381216854422,1000.0,0.9605507403734224
186,2.869433406385694,1.6311968894989715,0.016873550291102924,0.01317506904268367,0.0013103314216894816,0.0345814592034021,0.025515779464171086,0.015528678595726854,1000.0,0.9670231788594256
187,4.311610933927412,4.309297502473176,0.0073423865202849135,-0.005423215630613714,-0.0007342874282975559,0.014768968957518454,-0.010930627178176056,0.01116954730570038,1000.0,0.9789088610536645
188,2.384628913225116,4.219815865321604,-0.0026118912660002052,-0.0038539892857539244,0.0029785891033897926,-0.00038058847347179417,-0.012551172630036465,0.006182635973910512,1000.0,0.9763728992446771
189,2.018777096269022,3.2732541445795853,0.00953714134254816,0.00018778954925234646,-0.0012214301540714849,0.019388157342624477,6.170444097653577e-05,0.009678689440854168,1000.0,0.9610309644901277
190,1.4459520617633426,4.520799643931099,0.002671126406575162,0.002795157200620756,0.002832612328537058,0.011132865826928736,-0.0002002986125369012,0.005617177196628106,1000.0,0.9233967753029444
191,1.0007806570523758,3.302658231296895,0.021941375708863613,0.005794830152413828,0.0010906708378632763,0.04402943098440054,0.011442980738154342,0.019784493108982285,1000.0,0.9591592427332734
192,6.019267240035418,1.6287183598374826,0.009250881579045824,-0.0017393245781534318,-0.00043829940542651415,0.018536667288455478,-0.0035135532866706932,0.010260149354863744,1000.0,0.9049372324864616
193,1.2440730885018436,3.308485438477166,0.008024228678777647,0.010108167513316394,0.002215102323845196,0.02302826325386321,0.013236529130324873,0.010008650440077014,1000.0,0.9131234666900468
194,2.5634555975561337,0.18139761489936623,0.0020131392668893805,0.0022283003449851757,-0.0011986198982950331,0.006648315788972689,0.0018345634347764219,0.0029735907913172152,1000.0,0.9209083529177724
195,0.854998128613782,3.425574052155495,0.0035342809056875145,0.0007261506964041653,0.0032137411429238824,0.011274569026406701,-0.002753705822223341,0.006437112102053823,1000.0,0.9015979539996247
196,4.5744507341640634,1.5112624908469185,0.011646791605686173,0.004651948181199983,0.0005836705062330707,0.023390320680626506,0.009207158893145807,0.010204416658462346,1000.0,0.9290790371257018
197,5.774598119606615,2.7674410336955146,-0.01162931934629681,0.005806861145196281,0.0021529083916206953,0.012137509736030304,-0.02378242613823136,0.01582389304510639,1000.0,0.9022546601923679
198,6.9552510530428435,0.510740347296032,0.016589780571909553,0.0013613186792492008,-0.0018531015794732804,0.03362406940590588,0.0022781290964116324,0.01627243024827372,1000.0,0.9628307722365923
199,3.0372517601803106,1.3910648468287028,0.008119942268496256,0.016367064898592267,0.001080765751251543,0.03301268896458454,0.0159613253695925,0.014297510887716695,1000.0,0.9642625318626976
200,4.331778875574106,0.38514731037178007,0.0001931856799030011,-0.000294638122488373,0.00032573639637377395,0.0007124203127455015,-0.0009153251979162454,0.0007066574813366341,1000.0,0.9504907005869869
201,0.1741479549182634,0.11594101389259925,0.00449131698515902,0.0041340280780848455,-0.0046168357886389915,0.017865926547119732,-0.0006152364206320031,0.009090676761667334,1000.0,0.9057941986039818
202,6.338717399207074,3.02758976493237,0.008150425574890796,0.0020383040591931173,-0.0005596837819097257,0.01640250571353718,0.003974953554630648,0.007410183045195585,1000.0,0.9871012637384478
203,2.3263597509416947,1.606214770942898,0.014346410944838482,0.005718336405870755,0.002020877331445199,0.029592572443823587,0.010536922257594889,0.012989730937001077,1000.0,0.9616809874542558
204,8.198297331958603,4.19760335906393,-0.0020354783036818517,0.00043117823928392974,-0.0006490519645321629,0.001183076535849727,-0.00439167666464557,0.002543726775395286,1000.0,0.9457184036392629
205,7.7520896975403115,1.4739730225943588,0.009950921885598624,0.006194415040747778,0.0006123605973081296,0.02009644888122107,0.012194224971471733,0.008767921097744682,1000.0,0.9082062764041431
206,7.575341940239987,1.7497360181750254,0.002843266858333014,0.0006815208361867725,-0.0022782461718612195,0.008568077131253148,-0.0015185017422135738,0.004709788565303039,1000.0,0.9676725822787964
207,6.255251319589762,0.04121778710137802,0.0036570797096267716,-0.008573120799162705,0.0022444842315619937,0.008111953474022807,-0.017944035653094673,0.01154722246947674,1000.0,0.9869948120157663
208,8.686335272495914,4.135629877810338,0.011813744837192948,-0.000536106127963799,0.003317066011067342,0.025296573281752693,-0.002741295863294394,0.013386342989237122,1000.0,0.9612555245093085
209,8.867218469076168,4.95286443067026,-0.004985782716326972,0.004109569523891604,-0.0003515678128853393,0.008246277261485479,-0.009998703646356216,0.007912446616000464,1000.0,0.9124366274249646
210,2.5236425124235016,2.6130043521239505,0.0021798887895887555,-0.0032108425665466995,-0.0008821959485606677,0.00464117662710096,-0.006703084181016849,0.004939181502338523,1000.0,0.939020858549345
211,6.200077654471868,3.5224553060251895,0.006552953946429323,0.0031380758303162165,-0.00046174411678642785,0.013228574556031833,0.006153484997459246,0.005732772613014923,1000.0,0.9743352862993546
212,7.203639333563303,2.8162971560521344,0.005306465663422225,0.004859697206574601,0.000359445135311999,0.011012570145031635,0.009319755594962016,0.0051356616741418445,1000.0,0.981728199361698
213,8.476440229167881,1.8397210390429923,-0.00013861210350310646,0.0052872711377414585,0.00033068047031936134,0.010614700311197496,-0.0003173822427207937,0.005388448560928918,1000.0,0.9072013226930621
214,2.5965269684946826,4.434745644744166,0.003657698389866083,-0.001178284071880331,-0.0009095020783091333,0.0076461833753477555,-0.002687354739376251,0.004643113256118493,1000.0,0.9373873813486401
215,7.181039600685742,3.432148350754447,0.002715257835219042,0.0037195906759495048,-0.0025047366393162224,0.011544007638099534,0.001325689384237559,0.00547078139561879,1000.0,0.9468714321410152
216,2.984428057256807,1.9476800699686665,-0.001245500542340472,0.0008182605862941132,0.0006070224365651618,0.0019671315585764494,-0.0028216114706691676,0.002084561034735722,1000.0,0.9529225792188761
217,0.029679052356217372,0.18108088829618452,0.002461321001046731,-0.0041475464417121775,0.0017217134594437193,0.005765909677653149,-0.009138360558984041,0.006508577219749708,1000.0,0.9019424065522961
218,6.76341858842867,1.08302391462106,0.0019531949598189506,-0.0007570708646515041,0.001794027772783231,0.005692754326503214,-0.0033005061361683205,0.0039398528894848475,1000.0,0.9809126879888048
219,2.6526391216540834,1.1581595699865765,0.009622000704109263,-0.006999851917813501,0.0015364751716300867,0.01952566937808561,-0.014281371805494086,0.014697471631616292,1000.0,0.9356672343102335
220,0.5044341478708969,1.8129517578759236,0.0030762580138612152,0.0011821389376168953,0.0011274007234857934,0.0072031917898765,0.0013136021130797215,0.0033222505368022542,1000.0,0.9482648150229219
221,1.3819708949563903,3.4019756243786325,0.010328949440153072,0.002975681816384531,-0.0028809811445878026,0.022646512981792127,0.0039627495312830815,0.010474080811440814,1000.0,0.9267602059986815
222,2.166271889972787,3.2607237613041513,0.0031577891630472604,0.00046705086517264565,0.0026044373525339433,0.0094876421126114,-0.002237962056171588,0.005391122565672687,1000.0,0.9146177622813345
223,2.9559118335700365,0.3861799073844846,0.007338406294035215,0.0003759474195679463,-0.00037953082175626004,0.014718067596772572,0.0007106398304337503,0.00718796351010637,1000.0,0.9425671808777464
224,0.1000625507919295,2.363643461463682,-0.0037907439411822173,-0.0049655108160483845,-0.004709041020706585,0.0007348119135431354,-0.01824732142800434,0.009312800827634238,1000.0,0.9049726823133238
225,2.110993183531733,1.2642166406560318,0.004670196523595907,0.0034714721679852878,-0.001334560093445559,0.011067611728074519,0.005215725655087871,0.004795054667099343,1000.0,0.9714761112427068
226,1.4955022175431643,4.4059659146911665,0.008326189534180475,-0.0017320279127786423,0.0017875602906471332,0.017268861869235805,-0.004080538626432138,0.009814920321027685,1000.0,0.9406124722904294
227,3.1749341827371778,2.872915459414263,-0.00872363063474711,0.0013064387869483355,-0.002299454965216724,0.003616949040927878,-0.01845133273652543,0.010250262562050068,1000.0,0.9627284729211975
228,1.3299314804514484,0.14717888459793493,0.006332711619689212,-0.00043993244671235187,-0.0014226362147818571,0.01323881775500185,-0.0014532594090481289,0.007011021589741202,1000.0,0.961084023731874
229,1.8090163038242724,2.3761779656867765,0.000216480026207511,-0.009674281015007606,0.0023795609212066858,0.001518372965969154,-0.02043397494356934,0.010616957940010552,1000.0,0.9291306230368931
230,2.0972416178751354,4.2990236950948715,0.00404646001102598,0.012216001214134891,0.0034113867250573993,0.02690631583807651,0.00561860661224523,0.0122916899586928,1000.0,0.9011383280249131
231,6.478208204717583,4.583040262738196,0.009811734563233816,-0.0013701530137943388,0.002801163440363963,0.020948406736665183,-0.00406524363778623,0.01162456803334329,1000.0,0.988177796974657
232,1.529940587678701,2.5626132196510634,0.0024056666796982403,0.008177031867803358,0.0026529130921859882,0.018422369945796227,0.0027430271492069665,0.008607770493092408,1000.0,0.9190890073426334
233,5.938566458806713,2.049796529184032,-0.00707321993924869,-0.004612424265598232,0.0011377193186511243,-0.008334057067446983,-0.015037231342246863,0.006524064865960228,1000.0,0.9215239023911753
234,9.0739880820826,2.5134604768227167,-0.0007381198576607152,0.0031056882976665595,-0.0024867687901339113,0.008653341041468355,-0.0039182041614566655,0.005570865998882087,1000.0,0.9586240195897323
235,6.901017270993108,0.43149502088858094,-0.002652581088810623,-0.004717550189907066,0.0007311770891104885,-0.00483979985160317,-0.009900462705832207,0.004287381673546893,1000.0,0.9091976957283807
236,8.903407027815318,2.1380458432694533,0.006346677557542792,0.0008762255614333388,0.0006557004648295264,0.012848346873921026,0.0015974593640312347,0.006064387474969354,1000.0,0.9397289760334133
237,6.935865600414223,3.8950788937106866,0.0032028439398000498,-0.005064740586287052,0.0004050519942320127,0.00644528231921009,-0.010169075612184095,0.007254211298041989,1000.0,0.9101820577616004
238,0.12483411141729239,0.7127453769584402,0.008200872641588778,0.004864908878560337,-0.0003977780837465516,0.016495295165533136,0.009636267874765094,0.007176338520859639,1000.0,0.9806566497817777
239,9.863783944624174,1.7718615848914487,0.0003528919471503132,0.006632904370736146,-0.0014892482745343229,0.013936335702222486,3.5256933550432273e-05,0.006959370362946182,1000.0,0.904942871149695
240,8.327557976779175,3.549730875542561,-0.0011394231063665211,0.014337094979854983,-0.002090489244739429,0.02922899100831409,-0.002833647261337162,0.015371955979056042,1000.0,0.9429028441578104
241,7.897691926297731,3.469790263939289,0.010621283075314193,0.005191969556726826,-0.0004214554768124685,0.02130760829570682,0.010318896968375221,0.009227984493936386,1000.0,0.942082030873474
242,4.785017122968613,4.055105638968098,-0.002028553253601264,-0.002918752615892156,0.0008342695474891864,-0.0030561481245936564,-0.006838463614393183,0.0029667013758805888,1000.0,0.9821877106270709
243,1.817206059475276,2.849392785662585,0.002923486282133796,-0.005650705379476005,-0.002607341851511438,0.0073082026064324465,-0.012762640801116866,0.008797255116266129,1000.0,0.9215034262484956
244,9.350174708861449,0.582425179390475,0.0025590482366753043,-0.004236948787042069,0.0008151430588693193,0.005310905382842908,-0.008666706483576437,0.006110351368234098,1000.0,0.9735217283430163
245,3.630722694853593,1.4133559661620128,0.0027909379419388293,0.009163303843090735,-0.0014191530525729822,0.018930130884253576,0.004978352685805553,0.008498426072352516,1000.0,0.9041799697028882
246,7.24773650680757,2.484585406763275,0.0056059531224889395,-0.0010423691013906377,-0.0015359976209567256,0.011887336007537355,-0.002760167965340751,0.006740517943641899,1000.0,0.9288274520894739
247,4.484603468587284,4.5755011504117,0.015014949626691998,-0.0005157546953352991,-0.000987544883726886,0.030154984797337206,-0.0011565949346238058,0.015374800182772244,1000.0,0.9486134042731529
248,5.123865675716757,2.494108014251066,0.0001858644713700671,-0.0031339588413879637,0.0035923252575392785,0.00496647636071351,-0.010862665100749304,0.0070109298593300385,1000.0,0.9392711015702603
249,3.21880460848789,0.27185305637162316,-0.006114030971615919,-0.0030779537659632837,0.004963770850932494,0.0011894337127556012,-0.019573403187914007,0.010097204198919926,1000.0,0.9678294659881255
250,9.451329251432396,3.7651857266001394,0.0047026726978386555,-0.00307438371892283,-0.002235460846983678,0.01059889360196543,-0.00734231564413378,0.007811314980656194,1000.0,0.9766055788379198
251,9.339216586214498,1.878532832689927,-0.002260875664146585,-0.004458715157487767,-0.0041119143611955105,0.0017928622498200666,-0.01523204389308877,0.008101519497775307,1000.0,0.9581166023574338
252,7.217081782663892,3.4188782720567867,0.015045633871328082,-0.004276576338936221,-0.0005848984271276742,0.03012664602088566,-0.008588530956101938,0.0176076779872132,1000.0,0.98376125949141
253,7.411000024214004,1.7682768454856572,0.010927512822566815,0.0010947506826748292,0.001384633236223748,0.022237548527947328,0.0018069784825359633,0.010695687963787207,1000.0,0.9641978736854706
254,6.128466313988162,4.488081849684361,0.0031954199488916906,-0.006248626370681806,-0.0020350111416249143,0.007230523070587631,-0.01333693591416786,0.0090358639082168,1000.0,0.9440699340259426
255,4.034598016012408,0.5246226377690472,0.0077299032950431164,0.004118458059696842,-0.00025375615245852015,0.015495292314814129,0.008201430394665787,0.0067134935591526765,1000.0,0.9836760738369845
256,4.235586489547856,0.3928053750326693,0.00535537615688636,-0.010712955379722108,0.0007610410572873112,0.010782681380198958,-0.021497839825870453,0.014232249401716019,1000.0,0.9502721928979861
257,6.166634503996887,0.8748348749027623,0.0013904040999140389,0.005540170898911406,0.000693022630184334,0.011305696248556851,0.0025554537490940377,0.005134635519291954,1000.0,0.9469384723852688
258,0.259985823851121,3.4819264737534894,0.008537460438699043,0.014227548990153589,0.00046145975059081373,0.028529459804131737,0.017000559053573523,0.012429122240557814,1000.0,0.9619084022255594
259,1.7845496053049192,3.295887674413205,-0.0014732681020105751,0.002955327716987288,0.001786930308916366,0.007172836419925323,-0.004208717189971897,0.004983756681298964,1000.0,0.9442927986276637
260,0.8350966420716355,0.13707506611102593,0.0011881100096883053,0.0047681047813800635,0.001296363389006325,0.010376463054544548,0.0015359665275921893,0.0048500587308205395,1000.0,0.9048037580551718
261,8.492036039333838,4.7070836755476755,0.0030431297775418125,0.002041144614356826,0.0009032728842929069,0.007150087036171626,0.003018461747625651,0.00310856042790834,1000.0,0.9708986947235075
262,4.6670743065213225,0.5497524559474742,-0.0015825735395014347,0.0028176492177416452,-0.00043723883680173354,0.005721351585380879,-0.0032512002289004573,0.003934000078671612,1000.0,0.9502072049377097
263,8.879214900052864,3.0991953037590916,0.004749478425698539,-0.005483881913098169,0.0019328792482734291,0.010204780786451949,-0.011673587761251207,0.009480725265164974,1000.0,0.9579016476535025
264,0.9241414036858697,2.993076986353324,0.006832878717733766,0.0005438622026646692,-0.0021373042326330266,0.01498095069250073,-0.00022746885170386085,0.007547985250732293,1000.0,0.9110144220183867
265,7.941969912736417,0.260648873489715,-0.005964635789403493,0.0006416087438500047,0.0005389747194455173,0.0013705849708355112,-0.012016639061942488,0.006378635089216493,1000.0,0.9817546167032439
266,1.948095936650751,0.944630803754628,0.009102703499096379,-0.004207546253385192,-0.001063557247023472,0.018374302787778022,-0.008583988296355649,0.011927118869334074,1000.0,0.9643329987021199
267,2.983319207839931,4.887281794250175,-0.004142505707040398,0.0008465859894359973,0.001334282414341849,0.002362019324196719,-0.00895385875940552,0.005169620619230816,1000.0,0.918443834441285
268,4.290554144482606,3.7713154744221984,0.007386666510198419,0.0019183215588847735,-0.0037684859605805155,0.018616740978548048,-6.76484038166468e-06,0.009310062160192088,1000.0,0.9740688063935835
269,9.52508623209097,3.7076986536007714,0.006984142329401568,-0.0014313125797574913,0.0011725468633099491,0.01428892418106601,-0.003183264681777858,0.008059031517072884,1000.0,0.9863201914881996
270,1.501922868452098,4.022969196455931,-0.003968542448690071,-0.00016853756627253414,-0.0006480518340473152,-0.0001221177704520196,-0.00815204225947319,0.004045837259602127,1000.0,0.9796177490556944
271,8.146785981502708,4.602308238373553,0.0018043944604424027,0.0026218554336499837,0.0019654573725583573,0.008441263365563372,0.00041123642262140114,0.0041216710098342805,1000.0,0.9252197744898664
272,6.828798426860228,4.844148538450939,-0.0001222919144168149,-0.00227437430127036,-0.0006195557026547617,8.664924445343997e-05,-0.00487998167582779,0.002461939071805823,1000.0,0.9573144509862527
273,2.6708409128366717,3.079041646283599,-0.006497669747236534,0.005128807178979847,0.0007439047579363207,0.01035242331987705,-0.013090148456390423,0.010173979228218225,1000.0,0.9432855371727975
274,9.266637601145675,3.7002892189049232,-0.0019976437235484194,0.0035860688368043697,-0.0011038827373511253,0.007592763074091329,-0.0044159128475794295,0.005260211910755317,1000.0,0.9440321341352548
275,2.104770364950838,4.220965423036823,0.0035625170776956245,0.0013282112651645428,-0.00551122834533887,0.016137357791800713,-0.006355901106080376,0.010042151731688107,1000.0,0.961165389345589
276,1.6721516690957705,1.1394868051220386,-0.002448129887693529,-0.0008989446812474227,-8.02282875862062e-06,-0.0017978062684207913,-0.004896342869461112,0.002144971151964586,1000.0,0.9382560458400081
277,6.036383383008167,1.741029308451797,0.00337086040064085,-0.0010705469440393267,0.0010052347206546603,0.0071755659193789775,-0.00257493900617593,0.004375948517923713,1000.0,0.9392548732940302
278,2.886074603300596,0.22436659949949922,0.0019812246262911853,-0.003667625827739201,-0.0005833645677936556,0.00408168065717948,-0.00745448306007551,0.005065971130882216,1000.0,0.9009578003523345
279,1.6760574524393845,4.098045165052734,-1.324552927344175e-05,0.0028071535705780143,-0.00028363024264699564,0.005670787520987181,-8.297143837803639e-05,0.0028563625805000225,1000.0,0.9376418799500571
280,9.65254843941928,4.463463918192626,0.012265527739252803,0.0033386447377315625,0.000917532869580789,0.024717717692206237,0.006490627261762491,0.011097976368027156,1000.0,0.9721417452332135
281,1.8473304803471668,3.377557037799694,0.016269461534517603,0.0064304299997844615,-0.0006986710863967901,0.032637653188182715,0.012762129880421413,0.01424396710661307,1000.0,0.952684405940749
282,8.898820316809676,1.6466810601502218,0.012175408919499342,0.008811361917947801,0.0010516285634456655,0.02495420108516002,0.017019340589734262,0.011041581165020289,1000.0,0.915897839961423
283,9.203596088869938,1.660737518536759,0.006022785408226918,0.01589490339242547,0.000955271431191085,0.03197298031919803,0.011862397282106743,0.013997426057413652,1000.0,0.9583957091177471
284,6.623762398885065,1.237487955753217,-0.0012445072769990406,-0.005822303818717803,-0.0006809560013474585,-0.002290722164336195,-0.011842900027097491,0.005439965429667658,1000.0,0.9699865081971825
285,5.607275438351742,2.9530205866326362,-0.005402222531432482,-0.002919027448051068,-1.7501813425622937e-05,-0.005837808199207158,-0.01080469175975994,0.004683632416434976,1000.0,0.9697852587553043
286,6.1157299620219066,2.6935416184396543,0.008502333326694832,-0.0026624612848999553,-0.0032049018660675814,0.018713807827077863,-0.0070340637434881115,0.011525176498380698,1000.0,0.9593326281331119
287,2.0597373604360882,3.373387506284234,0.011382486350675194,0.009817954648119973,-0.002224536456506747,0.025916584469217872,0.01648429752837246,0.011359849539543066,1000.0,0.9406347774749113
288,7.306841368269974,2.321921390865787,0.005783220016867275,-0.000764496543316922,0.002644692371991451,0.013435978555962281,-0.0033985316088615746,0.007709379590329135,1000.0,0.9751328651665742
289,6.004802352152017,3.90557188270181,0.0018204380750570424,0.0026292123177443887,-0.0025472801460731383,0.009608008692294405,-0.0007087079066915424,0.004990625453187257,1000.0,0.9663861441207418
290,1.7602515233174965,2.730616133072224,0.012872469493050214,0.0024177173738510636,0.001659055832737745,0.026258856198158542,0.004321517535644012,0.012193491451591616,1000.0,0.955512527021887
291,4.546092565565166,3.701206766730536,0.000430667049987198,0.0011334998878921008,0.0022251731765713734,0.006069669868848095,-0.0029413359930894967,0.0039794876615105845,1000.0,0.9889733161674004
292,0.6091051554909876,3.9323102960570084,0.0014118353215010807,-0.006324120084189146,0.004066645652278272,0.006312483986983482,-0.01613705351235961,0.010026425609863993,1000.0,0.9855544929790542
293,0.13754940568436624,0.07882390575194964,0.005110903060737609,0.00064277492300268,-0.00030031216392981857,0.010261994591792063,0.0012453613756885154,0.004849731081613806,1000.0,0.9868576919998564
294,1.8511170874769411,4.336841092706515,0.006561903968193973,0.0030178726742584854,0.003109066353761905,0.016736964091497747,0.002422589193407167,0.007833391938706883,1000.0,0.9034465856252131
295,2.456438043872502,4.059264820950245,0.007860599777648442,-0.0015310916546214175,-0.000684252002986593,0.015820381168924105,-0.003161364922870058,0.0088075633207981,1000.0,0.9638665317766705
296,7.019315814828714,2.8446510196753803,-0.0093751621042786,0.007377905232392234,-0.0001533919443354291,0.01475861915837165,-0.018753132902144386,0.014545335847243466,1000.0,0.9458933467089039
297,0.0836307529155933,2.751471413511122,-0.006197355119291988,-0.010418425879952137,-0.0013171934196924261,-0.011640096886880865,-0.021591465111607387,0.009358905857162397,1000.0,0.9226821156584287
298,9.82678795440219,2.3651675761284467,0.00691040901643645,-0.0012706993411577897,0.00043995627261532964,0.01386800111675985,-0.0025885817662025306,0.0076635609438316845,1000.0,0.9489666458940247
299,1.6292984775556263,1.847741369365235,0.007840283462024072,-0.0020797793847215787,-0.00020475870792015702,0.015689016120769023,-0.004168007966164036,0.009067930599320862,1000.0,0.9566020050509905
300,0.1919486199532272,2.4434955448602764,-0.0003085489835205064,0.0018136789100849377,-0.0005869905529841231,0.0039304304996001585,-0.0009201706464712957,0.0022311244196896625,1000.0,0.9865258438060759
301,8.736877831702918,1.5969196699353794,0.013874020502378319,0.01431852015160488,0.0019079387591074517,0.03203422012684145,0.024350861181124943,0.014483566998870104,1000.0,0.9732381205972737
302,4.926219627643054,4.713212903277851,0.0030324348895709617,0.005393244283421193,-0.0004269589896992181,0.01093617651607607,0.005915181829908238,0.004740776841802616,1000.0,0.9675457580988931
303,8.98041157455953,1.1638547200742995,0.007164547212036634,-0.0006985059465321904,0.0013494105579892313,0.01477935831650944,-0.0018472757855005524,0.007892138664816995,1000.0,0.9408209680657199
304,3.222297505930678,1.724654705785531,0.006229174319488468,0.003565807455678764,-0.0013697255455309397,0.013615729781979466,0.005974233768354998,0.005910499428359189,1000.0,0.9644172611677321
305,4.277986118309345,0.7342311359753573,0.0007262775427146811,0.00028040654071215525,0.0026951103789046695,0.006415314295259165,-0.004401946128405492,0.004710978007507072,1000.0,0.9610333467251994
306,2.3397935671104975,0.8587115434677922,0.006564816831390427,-0.0019100695819428359,-0.0032688292539366985,0.01535823632939111,-0.006048741830495927,0.009557205493888504,1000.0,0.9042910107221891
307,5.71187243784589,1.2467601572255882,0.015175789562360379,0.005233217494520883,0.003239532948845502,0.03227631653421456,0.008541697579547966,0.014482978558813819,1000.0,0.9516406004678672
308,1.301001601855093,2.5494801099914715,0.00955599334168502,-0.0009131690221060435,0.002360384609870162,0.020127118926800917,-0.0028414702876429637,0.010843955460249579,1000.0,0.9727586838004837
309,1.744880364505107,1.8173835141909322,0.009295420593881554,0.00375978670094015,-0.0008444244319864658,0.018842732939000247,0.0072676816506431615,0.008229896669412663,1000.0,0.9161247014877644
310,5.3541679623112834,4.5815478526782085,0.0013955614969835479,0.0009481194457444435,0.0005290552619312518,0.0034925074178432016,0.0011948544676127811,0.0015372253552328693,1000.0,0.9035441142310389
311,3.752162360176249,4.522082481033699,0.004043604355970288,0.00026062502676453276,0.0021209959914556295,0.009988015848488211,-0.0013795570830185695,0.005372212680638259,1000.0,0.9687789825127767
312,2.544264849686786,0.8517419188340708,0.001274849162153899,0.004709932584158621,-0.0021662453071508037,0.011513820816453298,0.00045574267617174303,0.005646424347948556,1000.0,0.9307559470616955
313,8.449314285000794,4.472866484142267,0.007259308035974606,-0.0060192050215208985,-0.003252199738297751,0.01602611402382383,-0.013545907994916413,0.012820064549311954,1000.0,0.9605478815591801
314,3.016104259579686,1.1850025411917735,-0.004608269917469238,-0.003617977910738519,-0.0007216755997457138,-0.0064758361784327395,-0.009976659477982774,0.0043835766265145045,1000.0,0.9344222312431806
315,6.241181507256073,4.21364249877265,0.000305335691918335,-0.0002925688448880022,-0.0003274545887599811,0.0008995564872119681,-0.0008740227931513025,0.0007680088850696193,1000.0,0.9188191217912905
316,6.709915065312066,2.319027977271053,0.0013262826179689198,-0.0025067013940335923,-0.0007495024610407461,0.0029352564045941965,-0.0052960939567235415,0.0036128152134090757,1000.0,0.9329566999962644
317,3.9619144256164684,4.8952092502431865,0.0029130229890711396,-0.0035134490393532907,-0.0012983338544818577,0.006330823903578731,-0.007531676004143033,0.0060101412048833526,1000.0,0.9480659456191539
318,6.5093925326191835,4.74281338793456,0.0020667884462055746,0.001704679811822416,-0.00454954797449451,0.012877766614220985,-0.005334830098165005,0.008108606262443047,1000.0,0.9109409760095567
319,7.697839353258219,4.896786925974869,-0.0043994224532481405,0.006062657537192869,-0.0018740632066968884,0.012776451060302169,-0.009449980892412712,0.00966018968442084,1000.0,0.9547309153551004
320,4.982196683744822,1.6427821605577952,0.003923981244863097,0.006472779125953088,0.0006554719573585584,0.013262932833558555,0.007530587908073814,0.005760587208929353,1000.0,0.9260890421617948
321,0.6097804042205224,0.9888492126931825,-0.0020136687000187024,0.007107394452076594,0.00018911156883887214,0.01422262742566493,-0.004035175921549146,0.008305970433012837,1000.0,0.9616345145748189
322,7.010122455473492,4.3853735449427,0.00044084635540635815,-0.0021654734628236477,-0.0001796374844660748,0.0009063387795146727,-0.0043555929943492515,0.002436200071537516,1000.0,0.9010455844895444
323,5.1090194063371825,4.047785248532213,0.006205698089878386,-0.0031372265916745027,0.00036383934090367754,0.012439691155704556,-0.0063027481592967905,0.00825946110443458,1000.0,0.962616810949954
324,4.600163651040807,2.7792234383529486,-0.0008917423435006811,0.009073284273804376,-0.0012905012763251593,0.018475391048120883,-0.0021123071875134933,0.009808511830783437,1000.0,0.941832632927609
325,4.683862922255953,4.955710085686081,0.004979386025807088,-0.002155746687863291,-1.5678939137843963e-05,0.009958840957955607,-0.0043115622820680145,0.006338498355001783,1000.0,0.9689586766499979
326,8.52650972688576,1.7033806042510924,0.008687085378141314,-0.0030339771929079476,-0.00012858272545945731,0.01737699158040573,-0.006070775209938996,0.010539283155707832,1000.0,0.9539695641005527
327,1.2731549033209844,1.0057996813012848,-0.002367059669191386,0.004456837910843515,-0.0012482657785902662,0.00935601853487148,-0.005176462051567221,0.006378908940714234,1000.0,0.9261368844012788
328,8.548281566369166,1.8052317162750127,0.0028654674920179433,2.9138134900956567e-05,0.00016087912643282211,0.005749127057094335,4.008419674346453e-05,0.00286459506393936,1000.0,0.938149454240207
329,7.642617191659066,3.8098854758895677,-0.00023091541526533725,-0.0033017437898943108,0.0006352596679737389,-0.00020937674809361597,-0.00685594166222568,0.003376843938062867,1000.0,0.9007809437129237
330,0.8082303639004873,3.815909425676871,0.0013697795407068588,-0.0024348367271787817,0.00294002851089662,0.0059385258626108856,-0.008068640235554732,0.006088613828012408,1000.0,0.9720161247675823
331,0.023733706638451313,1.9364783271887793,0.005655871536265946,-0.004864601610095648,0.005063719128571456,0.015394192951221047,-0.013811653098880449,0.012652689345774808,1000.0,0.9485395685667583
332,7.43957964271528,4.744689050913639,0.009108218834624746,0.004006675896808233,0.0020367148318133953,0.019643184673745605,0.006586604789120352,0.008658177818243126,1000.0,0.9027995062544365
333,2.1211543154399704,0.6596315272296682,0.00023262682722007856,0.0007288765730379982,-0.0014844801154768107,0.003971651015111629,-0.0020486442145954756,0.002650823210737253,1000.0,0.9181196069744875
334,7.1513191928910205,3.9659194775654565,0.006424395048852223,-0.007031865881724425,0.002265568565689062,0.01359119677839038,-0.014806138444134784,0.012300157586573249,1000.0,0.934188304843745
335,4.372818050442761,4.862842563738322,0.00011031634682443707,0.00045158810828937036,-0.0009010492560195649,0.0023960324392705906,-0.0012722235290429755,0.0016130571133315319,1000.0,0.902578867686048
336,8.272620793861996,2.185859171382125,6.286243756051702e-05,0.003524361905354061,-0.000500452731183247,0.007190527037683652,-1.6078351854496593e-05,0.0035992898402597818,1000.0,0.9086058615716828
337,9.784508864310817,0.013367664370863563,0.0051309836196324655,-0.00053720710690734,-0.0010576206635288597,0.010643787420494197,-0.001456234395043947,0.00572081022673448,1000.0,0.9719760004324391
338,3.530086274943518,0.09594108873277107,0.004162964999776336,-0.0006757085400139022,-0.0024082447573423823,0.010314505749903703,-0.003339992830378836,0.006164311726084232,1000.0,0.9293627549468739
339,4.749023558017502,3.5957855799695393,0.013976396853663966,0.010889310572286544,0.004171392077983352,0.03376133270929725,0.015970082142603773,0.014626173913041335,1000.0,0.9114903085035956
340,8.2147186249142,3.6082689803433183,0.005349104724492224,0.005519033958615268,-0.0008865181472978087,0.012649299441310694,0.009086977924904293,0.005648761797397428,1000.0,0.9166149775162319
341,1.0061208063704674,2.911248230165503,-0.0014357968606244944,-0.0011604649243477341,-0.0010713240749562873,-0.0004359958824829797,-0.0047565276874614775,0.0022771046069779187,1000.0,0.9322219690063069
342,4.597520460352634,2.824442510332767,0.0005132105996353325,-0.0033205562232358193,0.001682284005509048,0.00229344705527932,-0.007908138302480293,0.004635068697147063,1000.0,0.9725941809482098
343,7.236429072420228,0.3699172348426677,-0.007633606172512217,0.006688045060227517,-0.0004888331198330112,0.013409421482912628,-0.015300543707482031,0.012440766272042086,1000.0,0.9709710712476352
344,0.7022425161376711,2.382024606934829,-0.004984233791098311,0.001331794443891071,-0.0021506263144996565,0.003989091052107846,-0.011293969746522326,0.006865116053571079,1000.0,0.9262201224295198
345,4.454471985401225,0.6868634798326323,-0.002249027524525227,0.004654302667496103,0.0019101286934734246,0.010295163243736007,-0.005484612957794256,0.006937873435736257,1000.0,0.9587632857022399
346,1.7844544037959431,4.012573413713172,0.003215583857884165,0.00499630733559749,-0.0006800606383191273,0.010452629016441653,0.005971153370521657,0.004541417040619373,1000.0,0.9796412029877296
347,3.3905339192290675,1.4033542374408037,0.006713975391351598,0.0062041375370175235,-0.0029603139651723813,0.0188606519250683,0.006975573931669943,0.008258615967763136,1000.0,0.9479612102513608
348,6.1200796216300155,4.576205732921225,-0.0013550988254144689,0.0026568651153003643,-5.532027499155519e-05,0.005315255544000905,-0.0027117229642291143,0.003536201473762958,1000.0,0.9302271876746137
349,4.21929411738165,2.9128959194136916,-0.0015665834615993459,0.0015855650048358985,-0.00014937769499640062,0.0031852561266389164,-0.0031472930401658114,0.0027420906490980145,1000.0,0.9280649621318853
350,8.287550102815008,4.376434335019317,-0.003804534989890535,-0.0017903747758616297,0.0008261139698088924,-0.0029897804921400865,-0.008200039039364244,0.003593852768394969,1000.0,0.9733217346127973
351,3.0991253359743354,3.090393085054011,0.005726256491417614,0.004086512487332955,0.0007030836931818087,0.011972877105073018,0.0076526608524281215,0.0052509198332897425,1000.0,0.9172031521557762
352,4.801285021395402,2.53888063575865,0.005550560069892389,-0.007263566825965879,0.00019867132997172587,0.011107279094584022,-0.014533292606731002,0.011135681164886828,1000.0,0.9653614721157291
353,2.1212194885173483,0.22930802048047816,-0.0041622364948108856,0.0030244954097243216,-0.0010562596853745407,0.006353043490607383,-0.008628525660780512,0.006512104411307012,1000.0,0.9865897970314256
354,3.545974345176913,3.979929283178127,0.0007798639922408179,-0.00444203517039201,-0.0006792635244873093,0.0017335518139510809,-0.009057894170253464,0.005018789135852009,1000.0,0.9863598222926471
355,7.663963221789816,0.11017028931330441,-0.00606590791545537,0.004230870043969623,-0.0006806660331092183,0.008551340772691197,-0.012221416515662692,0.009041542291147451,1000.0,0.9722604102583858
356,2.609079305180507,1.0207992121952025,-0.00431382313948551,0.004648890134250745,-0.0001244723807498227,0.009301236897320406,-0.008631102907789935,0.007766738022739011,1000.0,0.910880320607626
357,7.88399336541128,0.24703498953243808,-0.006631009872485603,-0.0004179450140224389,0.00048591777894247773,-0.0007603430136827313,-0.013337566759333352,0.006487057939720132,1000.0,0.9207767045405665
358,0.35473126440174085,2.3207439847070006,0.004771483748684011,0.004211785587119668,-0.002326477467551136,0.013669766072189088,0.00429677259941827,0.006053694800286101,1000.0,0.9150505978722187
359,3.7356669342758195,3.028855318355393,-5.037991395290785e-05,0.010920555595345747,0.001302607596071611,0.022146193247296324,-0.00040584188451064755,0.01117593883957894,1000.0,0.9839901378340917
360,9.903239768382226,1.6225234386547394,0.012084195830885429,0.005039838121244298,-0.00113367468789916,0.024524293997108787,0.009723773907150667,0.010694906322563466,1000.0,0.9068189358831998
361,9.094413875541191,0.20551248846294223,-0.003731120710080133,0.0004941050148186619,0.0014023992259280557,0.0018344167238762404,-0.008308448114399182,0.0046807197885851935,1000.0,0.9746552380444853
362,3.5081107800486344,3.8861473020272443,0.0060305033208016305,-0.0015192035589968065,0.001604925069646265,0.012715031344907243,-0.0036924318212975954,0.007454117338820818,1000.0,0.9701883131892843
363,2.264150008171492,3.3523615997722205,0.011757610992698665,0.006969445914951491,0.002504884318774822,0.025657014094641543,0.011797099720658765,0.01112177571549355,1000.0,0.9884526348216963
364,5.97374135807855,2.533887884841393,0.004968747961731336,0.009164290775729476,-0.00032526590207062494,0.018378715495327654,0.00988736197959397,0.00796586620135312,1000.0,0.9870850154085642
365,5.60638602303049,3.3959571181312995,0.017724501378858976,0.011907252985343838,-0.00035717523235769477,0.035492699292991474,0.023770809435414153,0.01566120120772456,1000.0,0.9391794688253144
366,7.830271204779317,2.511291743967943,0.002830080057922987,0.003109630473381492,-0.002255405606468571,0.010459175790994221,0.0014202452716147364,0.004913167509263162,1000.0,0.944103858468447
367,0.05999757509284942,0.065277158889811,-0.003571144643407906,0.006340515875551558,0.00019638751673989267,0.012688811058566556,-0.007150068594279252,0.008701368806565715,1000.0,0.9001708302548505
368,5.578467427549523,1.8910686496981788,0.0030279557514639632,-0.0022133732448237865,-0.004376979631135521,0.011017686564368282,-0.009388521551087927,0.00884552912349803,1000.0,0.9515017115644792
369,9.190857074573495,0.1707179457621566,0.0017577466344296804,-0.0016565567499038734,0.0020998881378528115,0.005513729802739007,-0.0053113500336873926,0.004687670116686017,1000.0,0.9377475230425686
370,9.410674088510833,3.6195168405017597,0.010891063497734374,0.00845687130631546,0.00043407151101034256,0.021932303959462433,0.016763565648637235,0.009929494863487605,1000.0,0.9321326011478358
371,7.69042254537097,1.126000321132059,0.00636805501135574,-0.00037660067235293325,-0.00310360947077855,0.015157693877669083,-0.003174785199663469,0.008484653306661717,1000.0,0.9521556723651142
372,4.508889572869434,2.250673471230157,-0.009707838273935605,0.010628796390294782,-0.0020575518293531932,0.021669760192341195,-0.019827843959622837,0.01797488891910681,1000.0,0.943049106576176
373,5.622651725407909,0.5124323567036954,-0.0018272411540705058,0.0014823643216710747,-0.002826036412730642,0.006204887715229481,-0.006894641380028342,0.00567488297054784,1000.0,0.919170824056352
374,7.812326091387231,2.190629531707478,0.004342633661247824,0.000322982532822771,-0.0032195462904980893,0.012256367702379166,-0.002925135314237974,0.006975430091633065,1000.0,0.9276545099234259
375,3.9970651640541455,4.920530077975424,-0.0008625852956453575,0.002281763243522572,-0.0006633285911662523,0.004831940320970588,-0.001993584425216159,0.003039527393088715,1000.0,0.9787573870224947
376,8.907921024799625,3.1133298556705915,0.0005312540861245139,0.0014209409654964138,-0.0018406845438770176,0.005739545194345718,-0.0018351550911038623,0.0034221020159532684,1000.0,0.9797049308878757
377,2.1522428024027427,0.25570216648647837,0.0015256700924057346,0.008197331145267736,0.00013341979301792416,0.016399996412821607,0.0030460060625253334,0.007554527562572234,1000.0,0.9704801906953394
378,6.820639392873082,3.6118012170049365,0.015551100648918332,0.003947393540860299,-0.00013551698119253583,0.031105366208473532,0.007891622171083731,0.014003122061204057,1000.0,0.9245843938883053
379,0.1859393390060382,2.9895758989362546,-0.005236234673676986,0.0027272265597429084,0.000293422952814948,0.005476046859773749,-0.010494063087641904,0.007028129739041449,1000.0,0.9811331208057648
380,4.919807009049486,3.6789139648085154,0.005920719650458209,0.006388861154575132,0.0025748663667989275,0.017480548189901097,0.007138613420165584,0.007611545353634562,1000.0,0.9208369978626938
381,7.602751367316416,1.1156072440952465,-0.0009047574336381787,0.001003326880437686,0.0015945753935705873,0.0038149478576647864,-0.003617808964065772,0.0032188554415381477,1000.0,0.957346665919697
382,9.804206354356033,4.766084491932264,-0.003906285970471818,0.0006960561273374852,-0.0019519620175992391,0.00282484891839547,-0.009245308604664135,0.0054674514771361855,1000.0,0.9271906225814177
383,3.189831410997189,1.329289624084054,0.0062408537140370346,0.006128945194326205,-0.0013355586983406934,0.015043259524051793,0.009696338292674687,0.0066040536798291135,1000.0,0.9831995376780982
384,0.41579950545804434,0.6765153256474954,0.008278631800875109,0.007287001232792657,0.0021159546955817946,0.01991217053823092,0.01121909552910461,0.008645318047569614,1000.0,0.9782677792945537
385,5.568263269575198,4.943645251243153,0.001973344553546861,0.0009137256409041594,-0.0005109422889810245,0.004359157260730313,0.0014149831281717272,0.0019258955903558076,1000.0,0.9354461068617022
386,1.545373750453115,4.4872750601451035,0.004728656688676294,0.0012558694369362443,0.0007589740496911608,0.00977456804203861,0.002194484209186466,0.004441503296546645,1000.0,0.9420747468463597
387,9.429039300917578,1.7504906792593733,0.0050980613707829,-0.006195215525053097,0.003005130091591903,0.011695864665210519,-0.013890172973750912,0.01109265228411352,1000.0,0.9843599564074097
388,8.735732969586659,4.8479859032224,-0.0030383672725512465,0.00804418361541092,0.0006921677779412216,0.016174492142414038,-0.006162859456694691,0.009990947835479562,1000.0,0.9265718654033644
389,4.05385618126079,2.174670948823425,0.004315430203302479,-0.0026597852933394213,-0.0040838735864908975,0.012396488689962161,-0.009085198870036046,0.009338607168455621,1000.0,0.9072678844047479
390,0.3019009561292618,2.2392206762953397,0.0011293836110686992,0.00026549964286304826,-0.0007153573933645983,0.003066182243187803,-0.00027641573532430786,0.0016066595957579311,1000.0,0.9812538072367075
391,6.370765728532845,0.7248990710330122,-0.0027058508253398348,0.0001361879620813513,-0.0007497240956261257,0.0006436733076791508,-0.005782999034196117,0.0030651164444918805,1000.0,0.9232113595666808
392,9.893811067311907,4.238492012236879,0.0026160388509214425,-0.0001373826829917464,0.0014350066436594824,0.006455879623156253,-0.00149856728729686,0.0036605551367664417,1000.0,0.9614259525467058
393,4.973494172241822,4.999030839830026,0.005450977109556396,-0.0013761194015526152,0.0010447471388905435,0.011214551896754216,-0.0030648364807466548,0.006510187490908155,1000.0,0.9826131327148393
394,0.939726925236849,3.461935077554004,0.008346111945245253,0.006028411607273124,0.002810236278936563,0.020454116189401298,0.008294930915635459,0.00890942292257513,1000.0,0.9559845979644883
395,1.5106675065423736,3.3629166082042055,0.009627171202317908,0.0021259311694798912,-0.005779772586903319,0.025533221625836496,-0.0020270168822408997,0.01330235388313421,1000.0,0.975874955269392
396,1.5702466946536042,0.5966820330585487,0.009565411757176779,0.0024526734965126962,0.0004295979651346504,0.019182529629306194,0.004853640878072755,0.008637449895641459,1000.0,0.9738342383645584
397,1.8436878335107176,2.138274285664295,-0.002762366018996246,0.004207312394203333,-0.0012639193131277458,0.008858878213564481,-0.005968985463150308,0.006461172996032772,1000.0,0.9268550192611016
398,0.8603615251813967,1.9624995118252109,0.01959541990057527,-0.004292830126667138,0.0007332260266276013,0.039235808759003794,-0.008630629211187528,0.022093925447700252,1000.0,0.9849918146496485
399,9.594658413962163,0.34927753508413484,0.0019803968764391653,0.0002642966986324376,0.0013193468023888102,0.0053923440893699414,-0.0009029569392267353,0.002947955245863458,1000.0,0.9473176897882174
400,3.179421558088488,3.0524131917910795,0.0025207704452404403,0.0033211178948023153,-0.0017497817324192617,0.009431804841084641,0.0022519718390008716,0.0042658574996970395,1000.0,0.9726498900961089
401,0.1608343707826687,0.5088746264435146,-0.0043058116446997785,0.005818768407396014,-0.00010368821090137576,0.011639660382908281,-0.00861374685751581,0.008802548165171202,1000.0,0.9362610209913759
402,7.147774691897727,4.383547454585118,0.006232155231210763,0.0023709912781384205,-0.0007827996644778305,0.012769642438944177,0.004436650579754189,0.005614561310897807,1000.0,0.9169820097676358
403,5.414574363113229,2.460065449360948,-0.005773211196161696,-0.0032353047434231204,-0.0021470784621332967,-0.0040204549081740305,-0.013996576970995602,0.006240905743419583,1000.0,0.9522783139103266
404,7.665112521449352,4.599341064334487,-0.006804738346904055,0.0042449492960524166,-0.0035985412786055967,0.010627082994566052,-0.015746661096269328,0.011491663315329026,1000.0,0.9093022440983928
405,4.51825965550041,4.780545073319217,-0.0046721976053987575,0.005578010148506726,0.001328156048339351,0.011494615731060122,-0.009682990644844187,0.009181350053543444,1000.0,0.9426596357632604
406,7.369931333699464,3.1523580631017882,0.00038581070357038413,-0.0003507256084630695,0.00024021595189918548,0.0009144601875059839,-0.0008442899972913547,0.000761763188808076,1000.0,0.9076705408974955
407,4.419496396915546,3.5367943253049794,0.0057166932151838275,0.0079105318014907,0.001169865026141179,0.016834601586446486,0.010419848446902568,0.007358040755460087,1000.0,0.9491438017325906
408,3.9877433943122065,3.749773540857164,-0.0016242910248838094,0.0011226127092270138,0.0016861096818876018,0.003847728949924622,-0.004851085581238214,0.003775040126213148,1000.0,0.9011776572415047
409,9.585363879521214,2.003670211250296,-0.002563300835199702,0.007023332939218597,-0.0007417285734531777,0.014160763634760543,-0.005240699426722752,0.008692014482607797,1000.0,0.9767355549703141
410,3.6712024930527596,3.89165257348677,-0.003217404013840017,0.003759555557179594,0.0003222358688015879,0.007548813278874654,-0.0064645101921955005,0.006073998977703645,1000.0,0.9808344963042994
411,6.022986039644978,4.341180820289326,0.005726869672621799,-0.0023046179983222987,-0.00042842373558411796,0.011499316846586677,-0.004654813497987674,0.007201193510703088,1000.0,0.9090687015172576
412,7.621585896050961,4.694496286233428,0.0003543235706413143,0.005768460774001095,0.0019873895551968347,0.012839312512768139,-0.0005937438234833196,0.006573122165886567,1000.0,0.9020463238737482
413,5.239135041363701,4.571608710461018,0.005450618915695933,0.003775673069867397,-0.001175131725409865,0.01211232418821065,0.006340259782916011,0.005246713481481101,1000.0,0.9389362716927132
414,5.796480492336417,2.1957225945992875,-0.003349610133477084,0.004535600445984722,9.446988074597409e-06,0.009071223528132343,-0.006699242903117066,0.006854510952937039,1000.0,0.900306878036718
415,1.2371431217033801,2.028543754776525,-0.0001885636293564529,0.003231452598424045,-0.0004055162075072582,0.00655775519361814,-0.00047197725548295613,0.0034030143625737135,1000.0,0.9784274148028832
416,2.3995061104852433,3.54966304935508,0.003071947416034764,0.005064410090296812,0.0019322825287557137,0.012484319165783712,0.00378839584687944,0.005543343423581013,1000.0,0.9805191914542555
417,0.3343913730330139,1.9998542222032745,0.0025067439691882814,0.006831347914157382,-0.0001947920192868631,0.013680208303244342,0.0049959754634469845,0.005995037219101882,1000.0,0.9566591880885633
418,1.0025898741652195,0.06376439333050377,-0.0010595796113640789,-0.0020699833621616887,0.0012713320801679593,-0.00039349704378601824,-0.005865628903265517,0.002839556951397144,1000.0,0.9328199359640742
419,7.397339283663088,3.745079178967977,0.0073582864187317285,0.003981344862650322,-0.0003135032112396585,0.01477428866269679,0.007904973900067312,0.006402691847550485,1000.0,0.9007518439051833
420,2.072024651643818,2.9973815367062793,0.0014093107200606253,0.0028619959666991686,0.0011167184946718,0.006935614328750389,0.001606999044769198,0.0031440287230664497,1000.0,0.9342661708383396
421,6.502067256345406,1.1542866884723675,0.0003538140499733677,-0.0010323866222377814,0.0028707046940318836,0.005227808220148602,-0.006584953364677429,0.005126316000081973,1000.0,0.9525873443289578
422,8.498876651940279,1.3483594668110395,0.019374254550317202,-0.0013024945584513984,0.0002909397347155685,0.038756695027391264,-0.002613175043659651,0.020063574715609177,1000.0,0.9300388070669918
423,8.69842969021679,1.942830751585758,-0.0049770375068809575,0.0031454959658903645,0.0019464491712230607,0.007175689305441083,-0.01083877238742227,0.007854062117450836,1000.0,0.9661154711721819
424,1.7045653021649765,3.5301365521406214,0.023909585996027355,0.00806027990721045,-0.002129115083898229,0.048381234757143336,0.015558497049332272,0.0213896669495333,1000.0,0.9648256819752995
425,6.347694957592714,2.4315009594597963,0.005155187528786777,-0.003810225087419083,-3.103585570595115e-05,0.010310589930628042,-0.007620665047892654,0.0077935286102835365,1000.0,0.9564764428636907
426,3.220361318429803,1.4375851400297286,0.0038840689497976894,0.007586268386449198,-0.001216192259485207,0.015900097500958933,0.007040577171534844,0.00689994499901826,1000.0,0.9627506015573895
427,5.116858021734899,2.857901164237664,0.00225865211325473,-0.01195859058724498,0.0026020879332040994,0.00543985797290486,-0.02483973492088536,0.013979709544188049,1000.0,0.9076414187904033
428,8.719582329734447,3.6274652489339947,-0.003268494407917681,0.012138995737210051,-1.1059105137589934e-05,0.024278007350301545,-0.006537004691716804,0.0140611123243796,1000.0,0.9821704814871173
429,8.20384279122084,3.583792160058596,0.012768346414495542,0.015518606610393842,-0.0020407787062639905,0.03320864400024579,0.023365262049532983,0.014771770692802983,1000.0,0.9057087300468399
430,4.465401641236678,2.397442493762571,0.010353499543033442,0.003410877195084948,0.0009968189851179653,0.020987575297108742,0.006541178179128037,0.009300293802572255,1000.0,0.9698521942750007
431,2.9681490059209215,4.386364751400055,0.0009371860764597029,-0.0014153599184390003,0.003559183474810443,0.007018866953399163,-0.007975214637357758,0.006497028403159784,1000.0,0.9195141570827606
432,2.7601434442701134,0.018928886938361922,-0.002225504314593974,-0.007083898008205213,0.0035758600736820758,-0.0006635310336614766,-0.017955273611936898,0.008816436959633215,1000.0,0.9809267864024996
433,3.0516727639705077,1.061554228032624,0.005502371915348508,0.002295219571465414,0.002117346227742756,0.013109695246099949,0.0024854877275278953,0.006030293774839979,1000.0,0.9480051435476198
434,4.455780348952258,3.3934445053859763,0.011968831654254757,0.01158575311846638,-0.0013066715072808362,0.026195855466220774,0.0209133140792215,0.011997368424412147,1000.0,0.9331045009608823
435,4.382609736369912,2.862759965802724,0.00806099470553815,0.006780606192376124,-0.003392542288988851,0.021746437425664088,0.00793676437016446,0.009530259960224252,1000.0,0.9310459429091232
436,4.521636923129576,1.2986852458328864,0.008625966632020967,-0.0005486595491872798,0.000522262888092786,0.017311201150995173,-0.0011565869853278014,0.008958756731495713,1000.0,0.9537212755307023
437,5.804706736036023,4.250510902285026,0.004642804148047172,-0.0005114859191856346,-0.0016182364278802149,0.010217488013155173,-0.0019548515554320984,0.005661099235967123,1000.0,0.9737923523456351
438,0.06354502158114728,4.053551846990332,-0.003629620525951654,-0.0008342777577861741,-0.0005031164148784167,-0.0014929648110367823,-0.007434831756438873,0.0034060873808962975,1000.0,0.9351573594403546
439,3.2656728971535443,0.4678166156343089,0.005669171068121874,0.0015081944232829005,0.0002977459198521574,0.011380737610317139,0.0029739933724924087,0.005111741066098654,1000.0,0.9606990628076233
440,5.965169257939257,3.1057741604180844,4.5634894377085105e-05,-0.0034100467129940908,0.001207423105614901,0.0008514175891525216,-0.0075802412263865325,0.004019916655587926,1000.0,0.9773147962999599
441,6.409690330777046,3.8540038273850117,0.0060960800776671195,0.00209268147457435,0.0008499706179365532,0.012538129389142245,0.0038393937153406964,0.0055634255971808615,1000.0,0.9090678236648813
442,8.705069466518816,0.5229303864151347,0.004575703230876921,0.001331342061521165,-0.0016691070197936179,0.01056210193773773,0.0012519886470584423,0.004997545427517511,1000.0,0.9519660957197843
443,8.910455161181424,2.9824823145221897,-0.004763021989451628,-0.00028026421609552007,0.003669365084079934,0.0035562531853530633,-0.01364282559644736,0.007862743938314334,1000.0,0.9491841791968365
444,7.118302506033637,3.6479159684942712,0.0052556340829748235,0.011073989633604259,0.0026769487209959476,0.024236423267149955,0.008422824166008211,0.01065609037269046,1000.0,0.9889478899427488
445,7.176502516495857,3.1789934648694733,0.001328456236455556,-0.0005443311869732369,-5.720571809503435e-05,0.002660404002645769,-0.0010921539036811308,0.0016715352391946485,1000.0,0.9253339409809629
446,5.673067114927486,2.698481179049516,0.0021000050864100647,0.004569117477264361,-0.0023289058141463784,0.01194090832974359,0.0013973367976052621,0.005653591143231434,1000.0,0.9827726699354342
447,7.007161876118973,2.3859535100553595,1.837645882914879e-05,0.003934775306751989,0.001004644502042607,0.008354903943742591,-0.0004486004125803158,0.004293998008719979,1000.0,0.9086937802755473
448,0.5996243671681911,3.321023839001524,0.006334732135799414,0.006537915948568079,0.0008468447927642006,0.014578481626627282,0.011166814542107703,0.006603685957964419,1000.0,0.9687590512434473
449,7.292408907894029,3.0856397808933327,0.0037949274315698606,-0.005996369641081591,-0.004392086910932007,0.010952690528819364,-0.015355574947842825,0.01144486754067868,1000.0,0.9633178835583163
450,7.172090078510605,0.5226823891990834,0.002303064789770268,0.0019112101755142429,-0.0008909437990850013,0.006038740216043155,0.0023898097145258674,0.0026337299518316777,1000.0,0.9197297361957029
451,5.03626252421104,2.907647018416068,0.006428972518248216,-9.971492349604752e-05,-0.002283444429989364,0.014296705967436305,-0.0016381907779319674,0.007591116558433436,1000.0,0.9834050764249727
452,3.281342852148519,4.046464734648734,0.00870523209523828,0.0011890381732082287,-0.0004890709999497367,0.017473843663138904,0.0023146968737541122,0.008219586100918509,1000.0,0.918701656195439
453,2.369000452515746,3.040482355391964,0.006474701761392168,0.007225803579645856,0.0015211983023535201,0.01683424608361979,0.010566764598456258,0.007368256912678911,1000.0,0.9542838617045286
454,4.732331684826274,2.936698740748212,-0.006720140552819586,0.0019137396911138083,0.0028031477198008003,0.005487987737073707,-0.015100789460485264,0.009233428387000265,1000.0,0.9173606818732144
455,4.804441983890008,4.2049630383385725,-5.993709578329008e-05,0.0055895806373949496,0.0036758867125879797,0.014801408374296905,-0.0037421212910735864,0.008492258637063876,1000.0,0.9851962239192752
456,7.2677832120642805,0.020992106390279597,-0.0023367105033298185,-0.001583959635045304,-0.0007563323809106753,-0.0022310581854820526,-0.005610282091268192,0.002446222597599399,1000.0,0.9056405269563337
457,6.239536336167801,3.357100624986178,0.005657804744741416,0.01614126916534308,-0.0012176546118043675,0.03256168313241598,0.011036464687753012,0.014341381516046237,1000.0,0.9419338452972319
458,6.092454616872698,2.2161485199130757,-0.004632049134624808,-0.006952586948149496,0.002413957311421023,-0.006227990177970627,-0.01694128198757798,0.007420996550643761,1000.0,0.9611979957043382
459,3.574965771166033,3.098496694408293,0.00329600530527639,-0.00023622964094807512,-0.0011935712345287394,0.00732300599858275,-0.0012034546699261207,0.003996486762293144,1000.0,0.964036570696541
460,1.9128841949818198,1.0851400190581733,0.003735091379332166,-0.0007929348442849173,0.0008879897190572153,0.0078060155427045665,-0.00192170247261007,0.004461716553520319,1000.0,0.9380189091113712
461,8.718215461008871,0.08232099910280954,0.0005866432060338911,-0.0015282532121848416,-0.0008076811081072887,0.0017196269147879003,-0.0036028469270898015,0.002352295434877807,1000.0,0.9013275138643408
462,4.073601626344968,2.2962137373442895,-0.0045249860053329,-0.0040486678782034125,-0.0006264774152610536,-0.007233215609850864,-0.009914092157221761,0.004441223514172637,1000.0,0.9018816570381735
463,3.8827957266678825,0.2913100162250931,0.00583481178101793,0.004208260938375844,4.681783927528429e-05,0.011672316496118823,0.008413828942668724,0.005215999796276438,1000.0,0.9757807470360561
464,6.523143974065457,2.7647562635594536,0.0020229831898339982,-0.0005869114750286289,0.0017004370648025459,0.005722969778335175,-0.0028508263487244364,0.0037813617583930927,1000.0,0.9515119511901224
465,9.86693885762384,0.283718319129615,0.007244452468804608,-6.467420142658702e-05,-7.626526932099655e-05,0.01449049630644254,-0.0001309397716864986,0.007278203945837597,1000.0,0.9462290043695933
466,0.525915949471315,2.8835105278132973,-0.004744990720013298,-0.0014106617220449014,-0.0010227745486734944,-0.002243872671116332,-0.010067432213000068,0.004577065651606581,1000.0,0.9696911297001866
467,1.7578104752239676,0.3509751720219939,-0.004738674681001996,0.0002518492009230517,-0.0011248866878484803,0.0009873693335954057,-0.009961020293753294,0.005244807657647302,1000.0,0.9608524719716903
468,3.5989372046593795,4.651657857693174,0.003421419896412932,0.0010228304944781702,-0.00018997907153664743,0.006872747726603345,0.0020157530551788583,0.0030595816489195097,1000.0,0.9101356172720096
469,4.342575546282034,4.806443793371878,0.015825264219846102,0.006871469318010126,-0.00016457795642314677,0.0316565765475917,0.013736890528120759,0.013747527719246144,1000.0,0.9633595925827353
470,7.6961930075625995,1.2449576850890924,0.0041039507871183465,0.0021876681066372184,-0.0016301204093285605,0.010073326114991761,0.002509911672519369,0.004541156153054858,1000.0,0.9657865919066116
471,1.1235037888913246,1.9961547284915893,-0.0029604923327281145,-0.001691079711811832,0.0014707279087481455,-0.0014478912351545414,-0.00785525285392535,0.003620353389892294,1000.0,0.9745907215327688
472,3.54143401161752,1.7701249570161774,-0.0029685274466509197,0.005140891717930117,-0.001568658270639833,0.010867502813422227,-0.006522774270863831,0.007608144802254916,1000.0,0.9390404739386337
473,1.0284841512822374,1.355800396953271,-0.0007852376564318432,0.0005689713331433668,-2.615929068460539e-05,0.0011389529288632918,-0.0015714855754402446,0.0011786251298437841,1000.0,0.9699175231054886
474,6.985024574193038,4.4210276816310925,0.005029102461963537,-0.000934698843802707,-0.001851630388226112,0.011114451081894154,-0.0029256438455724943,0.006414969605688216,1000.0,0.9594053295791714
475,9.606187210732392,2.180408474337196,-0.0010891539357783487,0.0014008370381089774,0.0013297221427471429,0.00395485465438367,-0.0033314884497224126,0.003158925577998956,1000.0,0.9174318512993567
476,2.979868800106966,4.8999637233946505,-0.005575273372952478,0.0037740633271775544,-0.004540173558331367,0.011231932341672687,-0.014834352433222533,0.011322905535941858,1000.0,0.9035093264920109
477,0.971714687578854,1.746464984552858,-0.0011695681231835165,-0.012116808078675545,-0.0021941785254427416,-0.0014923209090779797,-0.02508043149464014,0.012184283045432537,1000.0,0.9106269083440196
478,2.121787104936277,1.1700708983036079,0.0006882184210689247,-0.004360302744363164,-0.001788980182129605,0.002515755875517109,-0.009859924522105587,0.005664633753727163,1000.0,0.9061162779956691
479,1.8207542271595611,4.971235024028196,0.006320679141048642,-0.005056144224316651,-0.0014146773585032894,0.012987902948205243,-0.010458833114741259,0.01017240289410203,1000.0,0.983706382230849
480,7.686529314422101,4.437516445442734,-0.00383422624866055,0.0047455023572244084,0.0018407595970553097,0.010247513387427628,-0.008424961170299911,0.008098246781368421,1000.0,0.9143151494539392
481,5.778182228940556,2.1207640169643946,0.0022578987037251636,-0.001861235531014061,-2.6801581365308667e-05,0.004516146167318001,-0.003722819821895796,0.0035730855748621355,1000.0,0.958769676282011
482,6.6933955218973695,2.0403042343878686,0.009710441446955709,-0.005409339436904446,0.002749991747609481,0.02039015395302242,-0.011787949932919893,0.01409851282734937,1000.0,0.9731426301934627
483,8.487118597385033,3.8266546027383046,0.005168212803627956,-0.0020817866124345783,0.002077861372157217,0.011443011801388452,-0.005270159419001695,0.0073997228970962585,1000.0,0.9702673999240266
484,8.536866729175255,4.5102164181204545,0.0007818949304755872,0.0054785131647459955,0.0008538492055538007,0.011257853112606037,0.001262963077837128,0.005341256397704057,1000.0,0.9785923710599856
485,8.358102566006853,2.603784876816389,-0.00974134785544766,-0.0018431797058598614,-0.0009716055405450905,-0.0034508242580861166,-0.019718230864528927,0.009119658259677251,1000.0,0.9611971455009201
486,6.275600392950198,1.9182441874323186,0.0057590458933375124,-0.0009637855105533505,0.0026709814181424315,0.013382054256482877,-0.0037915334909145544,0.007813347701639623,1000.0,0.9376291077523955
487,1.8348324546421402,1.8638017645125382,-0.003337108517385225,0.006418155963281595,-0.0007783828087035279,0.012959746969381254,-0.006797652077588513,0.008692798257606204,1000.0,0.9553482462054173
488,7.743983488885446,0.7192558746374106,0.0025161764763585977,0.0013356192689572364,0.00112107649802582,0.006385758132102711,0.001317833358528957,0.0029197271532022087,1000.0,0.9616409243366709
489,5.402666222491501,1.023242693675156,0.008320012284412995,0.0046675309797125746,-0.00041150366619489067,0.016731599987834953,0.009243486540416188,0.007258273938902308,1000.0,0.9623562173317555
490,9.255929065730651,0.481425479932312,0.006995712781594808,0.0012519363068114,-0.0005393624877235848,0.014091844136907655,0.0024034540399047637,0.006528544301379026,1000.0,0.906067805896347
491,1.8089923860665158,0.45225641115640147,0.00486356714368876,-0.004729104722087113,0.002139627628112462,0.010638336900686808,-0.010369412057483516,0.009096870579489862,1000.0,0.9395348173700506
492,8.51985255014854,0.4592792421413533,-0.007930872323705805,-0.0005687114703397216,-0.001823695772154102,-0.00028344860112623077,-0.016715718986964823,0.008287906207194046,1000.0,0.9498040826791142
493,5.879929181865262,1.4469811582588505,0.010683282702579597,0.005167582440731507,-0.0007639432612880937,0.02157427204867971,0.010127458237942498,0.0093477548855955,1000.0,0.960711838130187
494,1.7384255976536667,0.2523837779769872,-0.0006312635421612078,0.002976468504717076,0.0007053923696933663,0.006218968520513306,-0.001528558595401569,0.0035538049547377336,1000.0,0.971543161249449
495,6.666048667183481,3.9103635576249722,-0.00032753149186455196,-0.006647477390192599,-0.000313460414241366,-0.000624044712501555,-0.013325973051612747,0.006512583714504427,1000.0,0.9143672954609273
496,3.3792661946867684,0.8396203385190265,0.011721163207802298,-0.0015725491807558637,-0.0014547189836744455,0.023756979775936195,-0.003459751721843325,0.012831184880366968,1000.0,0.9405134397450183
497,0.9610675444417749,3.0318600161121405,-0.004033658734538279,0.0005188545052682255,0.003406569716617706,0.0046793550159070175,-0.011708963474447123,0.007310721338829316,1000.0,0.9059686294147682
498,5.605277678497446,4.252492419977828,0.007730994083638499,0.006187032701920302,-0.0027547568162571917,0.019639788508585984,0.008196265062531616,0.008542937744839729,1000.0,0.9300070370163875
499,1.5664136321449673,3.4830515393095385,0.009490363723738581,0.005372281934827053,0.00044018662976905767,0.019073780267703004,0.010651511049428264,0.008277970766753519,1000.0,0.9863700092429658
500,3.781569923798208,2.7630698968040686,0.013955726904720083,0.0011919173128535246,0.00045098011047726397,0.02794328283147675,0.002352005603670467,0.013422334260059038,1000.0,0.9897444954252185
501,2.7907144251920055,0.6941102868850013,0.0012327451153725634,0.004792113011328369,-0.0006263932228924299,0.009798261590088213,0.0022514546633136522,0.004444508874425375,1000.0,0.9832562725004312
502,7.805266396648759,3.560172058457003,0.01185275678879127,-0.0019365560075227948,-0.0002826743983769589,0.023717098094725376,-0.0038846965321884287,0.012939526052991424,1000.0,0.9460509697935053
503,4.256858533516793,0.3507873673353351,0.004710739434837931,-0.0030171580177547628,-0.0007286310289805356,0.009557677788781672,-0.006170514954615337,0.006862948587275992,1000.0,0.9032975904058763
504,3.4176409621632544,1.6909788313397534,0.014665775865235098,0.008450774023165467,0.0012029184763871863,0.02978095528875427,0.016452144488046862,0.012919150289044775,1000.0,0.9227256539662173
505,8.799709929892323,1.5618193082717173,0.0171604511453729,0.002534581053535765,-0.0010650085274232792,0.034475189457789004,0.004914874940028324,0.016149717018478598,1000.0,0.9822203663730925
506,8.50252295008376,2.5654336296573628,-0.0009127350211837262,0.007900140734472207,7.160597590097677e-05,0.015801445011349675,-0.0018266335847727123,0.008394726095075968,1000.0,0.9616930516594492
507,3.491894944872337,3.753211289168642,-0.002457044789347244,0.005939694936384275,0.001150138993149783,0.012188769652070962,-0.005223469357996898,0.007738191044334162,1000.0,0.9108152675757237
508,8.167101911475447,3.8869862802192294,-0.0074012380203384645,-0.00234933905095664,-0.0015705864126712142,-0.003801741057795417,-0.01569941308479479,0.007092949015920643,1000.0,0.9195159722127634
509,7.810637286620208,0.7405242638832699,0.005940460833177097,0.0041345863739006145,-0.0015602825240307262,0.013680474890702763,0.00646961952345266,0.0059267171049914745,1000.0,0.9007647965831084
510,3.874113470463069,1.8153192925753387,0.004170626468314741,0.0106889091732776,-0.003316857527454097,0.02415976063088876,0.0055593106522959235,0.010957741031325227,1000.0,0.9820092395169977
511,5.675523237303796,2.2347272289235605,0.0005576161393509886,0.003735297062414304,9.754601738330509e-05,0.007476577278082061,0.0011092491254485245,0.003494147056521106,1000.0,0.9849411071401594
512,4.380922489891522,3.825507109577298,0.007719597648909152,0.007713753533528626,0.0009115055576183405,0.017256371665032823,0.013610330699842734,0.007876524293118393,1000.0,0.9813625815827751
513,8.570880260059162,2.621754728889133,0.008823496627163113,0.004333724997130634,0.00187172491109868,0.019002858104708344,0.007311585143879151,0.008301007144531391,1000.0,0.9482372487016598
514,3.1844331898822986,3.869365135522988,-0.004540807729513415,0.00893923931215235,-0.0029155032567353646,0.01908557920243428,-0.01028871603715641,0.012908167143364464,1000.0,0.911040469145926
515,3.9878483642536153,0.11477956662945321,0.0036662148192884393,0.0007822431651361384,-0.001181821533709223,0.00817727831424864,0.000719637654600514,0.00392113126519371,1000.0,0.9320313558621997
516,3.35740031923308,1.0205175533245314,0.006647568148880043,-0.0025708036741240938,-0.0013854600421047663,0.013702582735051143,-0.005549053785539243,0.008581799638236277,1000.0,0.9208894796011504
517,0.1310353542910303,1.4624728643098617,0.003256227159692579,0.011823914179870824,-7.50196783443884e-05,0.023649142021339917,0.0065111406577868895,0.010579390115621838,1000.0,0.9102259610298709
518,4.061388859314713,4.532291920165728,0.00399822949992293,0.0025908123424899527,0.0013886317099663216,0.009702563186282664,0.0034755204985431024,0.004257273713224985,1000.0,0.9555278789956773
519,6.927226995406323,1.1530402198613943,0.0016559401259472462,-0.0030126689300394695,-0.00010167428612142866,0.0033163067360545,-0.006029764344238946,0.004103428338788087,1000.0,0.9612496138374612
520,3.637622286404598,0.6873086109898974,0.0002248442746420297,0.004516196814918244,-0.0001688573832391306,0.009045661617369036,0.0004364205617515115,0.004417769354498846,1000.0,0.9172407969763477
521,3.4517853845434496,0.7502335231023693,-0.001538730559179878,0.0003972553321724368,-0.0016907523222014652,0.002755012297883894,-0.005037962751898777,0.003422382605319469,1000.0,0.9595001334514469
522,2.194114593484665,1.5723224940217762,0.013585052843753598,0.0032956929207558867,-0.0023067689087384333,0.02815707756249595,0.00560441396652302,0.012907619397286695,1000.0,0.9538318457923873
523,7.901026614490347,3.2805266591345275,-0.0011950173968370142,0.0008375291887546488,-0.0007144179521946859,0.002127027371315864,-0.002842003787480595,0.0021590652382301643,1000.0,0.9886667245818062
524,3.3919450073002144,4.114959534682277,0.0019516819225260397,0.0011109235483374815,-7.242646956537489e-05,0.003915750838162087,0.0022094601035649556,0.0017002296406215386,1000.0,0.9323505526176593
525,2.6141802804884073,4.857287892955206,-0.002071969968144554,0.0012399748008603574,-0.005476434695015812,0.010610658634523788,-0.012274648969092182,0.009918356643649142,1000.0,0.948953061679116
526,1.3153376298326058,4.242042795591801,0.0033899758595950635,0.0013752984106389196,0.00038953491315677055,0.006925337930778423,0.0026052106096895425,0.0030292517196235094,1000.0,0.9088900928747723
527,2.5366938402199235,0.1179199259432906,-0.004960199705930956,-0.0019174746099846242,-0.0010191677404760902,-0.003215299738894523,-0.010540048892936638,0.004678177172335272,1000.0,0.9364792995266599
528,8.027396996465889,4.141142077330121,0.0027145693196693535,0.0009096002832223757,0.0006926347228783167,0.005899446434373829,0.0013488927714096297,0.0026769973519860856,1000.0,0.9402148104126383
529,5.737099548158545,3.7762492335807534,0.009229971603900624,-0.0037728865526469304,0.0009939824665198178,0.01861103217043775,-0.007696862067930364,0.011713867334269757,1000.0,0.9040651146027532
530,2.5861407109814416,1.455203590248556,0.014266557492566393,0.009222864847550713,-0.0023986952125072602,0.0304502980312501,0.016528546648984108,0.013201461406172153,1000.0,0.988102414975022
531,1.3203021151091032,4.656746172314668,-0.005731760414119476,-0.0043564397781920335,-0.0019355161370740866,-0.005980110889593682,-0.014196289495029336,0.006172539515415594,1000.0,0.9513897604357179
532,3.9417663367083025,1.3343102395738793,0.007525945255775299,-0.0019000262901959965,0.0029429121405562756,0.016738608426443157,-0.005486770495284551,0.010026546830390419,1000.0,0.9026914245523006
533,5.564315209463258,2.4300244886211013,0.005960408027444818,0.00045159564943375986,0.0010505813573854145,0.012307925875319713,0.0005160814784374414,0.006029085479210701,1000.0,0.9889235097553107
534,6.343735666286575,2.2894672352144516,0.004648593957216679,0.0021498025384015834,0.0005804072825407308,0.009553654924377571,0.004043138066858952,0.004153087464145871,1000.0,0.9561312308003923
535,2.6949471587587883,0.6825871648339277,-0.005441864239806513,-0.0031049653056209117,0.0022638712877531965,-0.003451581812622761,-0.013642077278232087,0.006142738470229388,1000.0,0.903803689131082
536,5.542461655502224,3.3519561012419907,0.02198107532916687,0.008514155350456356,0.0016611160738978297,0.044365888924884675,0.016624572434361776,0.019410979977025577,1000.0,0.9524617661196046
537,4.09476226444236,3.4942157161436227,0.0010811106549851353,0.008303726149422664,0.001739667189793588,0.017401815181918016,0.0013678584268975828,0.00837990138309763,1000.0,0.9280828913756505
538,2.0742247765298827,0.9021814291930819,-0.0047271060159991005,-0.0006514733025987868,-0.0051688162113317625,0.005733460373584775,-0.016490619010780548,0.009992014234482177,1000.0,0.9722935378092485
539,9.313459665458044,2.263822955447033,0.004526034568891996,0.008675767739375837,-0.003644595177254023,0.021589446876945445,0.004814157739590224,0.009815107340447007,1000.0,0.9085998395300376
540,3.2017767447373413,1.7419298515276849,-0.0030958868754440176,-0.0037226502960374646,0.0015034779156490785,-0.0037469552082625306,-0.009890119134700434,0.004324242605046306,1000.0,0.9782316823020019
541,2.420782353182643,2.566718560164044,0.0032387803793235297,0.0066398703933003515,-5.575214075657522e-05,0.013281568122188607,0.0064757334230591546,0.00575167976662836,1000.0,0.9769783681648672
542,5.826445144679865,2.719091209969747,0.002950052779496012,-0.0005842749770755115,-0.0040053174193610975,0.011121447006440355,-0.006389891401599354,0.007674342549057387,1000.0,0.9298938260105247
543,3.6213164649386034,0.10556868324263946,-0.001004033034722164,0.004446401387902533,0.0009866786973136905,0.009239037638404668,-0.002354300932043929,0.0053069300043849755,1000.0,0.9301091606569588
544,5.656979702943065,2.2411742811919364,-0.009713608324135729,0.005892915116670466,-0.0035773621497675414,0.013347697914325708,-0.020989084329256235,0.0149904857969809,1000.0,0.9541858567941455
545,2.643197459520994,1.5254370712935867,0.020436406939295396,0.012006555984341846,0.0023307465688240723,0.042075818439789865,0.02281010740748462,0.018240898822767183,1000.0,0.9155719665821904
546,7.220280108700029,2.5588810763082783,0.010161981467577305,0.0014005053907663319,0.001519391091411356,0.02083597919937524,0.002288994517312036,0.009895505077393531,1000.0,0.977915039371915
547,7.697781389523292,4.885795660473071,-0.007263480582993842,0.002055918729335667,0.0011663005996534709,0.004399322755706918,-0.014814446463023268,0.008717731874642674,1000.0,0.9291202319711931
548,7.480087223518853,2.4304311511650805,-0.011832302874661653,-0.003609055525003184,-0.0001599570275055246,-0.007211890496072369,-0.023670826303257307,0.010507235306631281,1000.0,0.9697635695513216
549,0.3191539056738302,1.397022035663149,0.009755393881698115,0.008438716329158005,-0.0014066190025009628,0.02130022480149025,0.01508799562022199,0.009486430966322762,1000.0,0.9841399149931065
550,2.5117654702639367,4.596820251348688,0.0005973791858513437,0.0018734023149842786,-0.00340467524653729,0.009398659181887535,-0.0044570961802162905,0.006125586272262501,1000.0,0.98217892749481
551,1.603217093609347,2.073010812327281,-0.0025844619357094584,0.001783740398960271,0.0008593968360872612,0.003893470973589652,-0.005494914047088027,0.004084956699641312,1000.0,0.944471073517314
552,8.739536297499672,0.12181697405122871,-0.011661111768081432,0.0015958437756817983,0.00021630469203438505,0.0031987442651527156,-0.023329280249951984,0.012541049430413724,1000.0,0.9152246136735017
553,7.892098524174668,4.013834673719373,0.0018655612687571862,0.0003153176135479454,-0.0006909000847485508,0.004257565449637507,0.00010419231497275569,0.002103218604668845,1000.0,0.947609424326491
554,3.3626843963021558,1.9152760070410635,0.0074467512544045406,-0.004817379163474054,0.0003407920787637623,0.014912427568722953,-0.00965368338686198,0.010718371532142215,1000.0,0.900073231419191
555,5.029292248247806,4.4593260669543335,0.002563397786803253,0.001997663193810871,0.00014726625674063096,0.005198873673499619,0.00392324828772863,0.002346470347271525,1000.0,0.9001993496073758
556,5.659360817108514,2.7675733776680005,0.0065953153656822475,-0.0008236787940327983,-0.0014952270071806458,0.013770654608502193,-0.002227381465203294,0.007504409659941413,1000.0,0.9517690889126061
557,6.992579027815821,0.47737049889299554,0.002815505555108672,0.001422541434631273,-0.003722150068759215,0.011811550378423036,-0.0033354563989431473,0.006892657379821419,1000.0,0.9121960973333971
558,8.774630956306487,0.6140816905137436,0.0018030479352872085,-0.0007408217719722708,-0.00022701398647596187,0.003646295529205734,-0.0015218432025758584,0.0023000308631210015,1000.0,0.9512111616498771
559,2.0746176808372994,1.180472135836363,-0.002967778972302414,0.0015357833587907957,-0.002209393439822933,0.004877342795368678,-0.007741334022391915,0.005510759133514024,1000.0,0.9251367492186571
560,5.509979721999288,2.3353316872240395,0.004515228105289842,0.002203029248951378,0.0013388996079896733,0.010256176543871265,0.003180338164611177,0.0045465810906348565,1000.0,0.9741939547704741
561,3.0729546354871684,0.6374362466608591,0.0052485375192345245,-0.004224707515769028,-0.0013978899168277255,0.01090101362894771,-0.008853353622016715,0.00856919624280011,1000.0,0.936570605309116
562,6.610909268732689,3.175666415837712,-0.0021415496845667388,0.001422094427904037,-0.0020388478762257346,0.004696000588407811,-0.006134911101733214,0.0047036980636533405,1000.0,0.9307983985641989
563,8.981563400801301,2.3620488258820123,0.00667535565627611,0.005721031887421263,0.003237458721908745,0.018941254980097695,0.00585152010729705,0.008399051931820868,1000.0,0.9599519960599294
564,9.243917086410798,4.2020253298752355,0.0023687827142386047,-0.00033274982224039146,0.0012310345155861842,0.005691174744226753,-0.0016191089602303269,0.0033251171339156106,1000.0,0.9777429540983952
565,8.106023234654637,3.400552764866141,0.011411605946810578,0.002692791586007771,0.00017094250736733246,0.022829912372725584,0.005378882692911115,0.010336075868385648,1000.0,0.9316790458738127
566,2.17195012159354,4.801620568127528,0.00660984020383093,0.0010550198328128674,0.0029583983075763135,0.015780555419009922,-0.00045083534572232676,0.008005367168334875,1000.0,0.9170525887037435
567,9.607926760548207,0.8296506008570675,0.0028072756598775403,-0.002405128220101316,-7.357878201778154e-05,0.005616628195965811,-0.004812333316413362,0.004520347089365294,1000.0,0.9139523372124146
568,7.673276573640761,1.0509825092784297,-0.0005693139012691991,0.008333199919944169,0.002970408874185514,0.018466599125932178,-0.0029388270885822394,0.010048907026136505,1000.0,0.9402228056865768
569,7.741058646536084,4.351543455153881,0.0025028317058137235,-0.00628633370471758,-0.003376459862383454,0.0073003309763274935,-0.014867334974135208,0.009783518636515534,1000.0,0.955244395899936
570,3.008208163562304,2.6292746564509404,-0.0026851586679760373,0.0021186935244437324,0.0011629188868633271,0.0047708110565823185,-0.005903741343646927,0.004630886374868397,1000.0,0.9782562278215473
571,9.442218410491783,3.695914998721288,0.0005000695757567813,0.0007157909653024768,-0.00031255128526302706,0.0018771388044142594,0.000554582277704257,0.0008351921455662659,1000.0,0.9440822078876155
572,2.16200954780604,2.3428516118143223,-0.0059116983919633385,-0.0035718031511079414,0.0001293216348437993,-0.00712935497177789,-0.011837648114364671,0.005161463449324054,1000.0,0.9538735139802754
573,7.1441661569159765,1.417693907162093,0.005434874055490594,0.0014282278874997775,-0.0005970589819960848,0.011043907036199608,0.002682296849781134,0.004988475768260559,1000.0,0.9249336217067451
574,4.867213523745132,3.5999432259404336,0.02842634840199404,0.006783339400058522,-0.002747846806231573,0.05753954420418668,0.01287983139991844,0.02615143196814373,1000.0,0.9478631965240034
575,2.771957239390308,1.7418955793681405,0.0033467760667356405,-0.0032946233992579314,-8.771141474191512e-05,0.006695868497945161,-0.006591563162989742,0.005753685775412498,1000.0,0.900001822123198
576,9.035927870199561,1.9250115044706773,0.014282625349836427,-0.003716533692444941,-0.00026647662487909354,0.028573139316454506,-0.007440956001671531,0.0164651418844456,1000.0,0.9405682888518402
577,0.0076608333321115385,2.903486247080291,-0.005967716275611715,0.0023330991697062186,0.002019776204858533,0.005596933182539004,-0.012866167394349998,0.008198704222174075,1000.0,0.91933172404746
578,7.501064569488109,0.8538971599451195,-0.0018513135190060806,0.00014675342093198936,0.0005778348069580928,0.0006036521436841632,-0.004012772339832346,0.0021730771032659173,1000.0,0.9433831605867666
579,6.423561689950075,4.6556291834462025,-0.007028714167683733,0.0033508574436232215,-0.003618291660054939,0.00897535018103441,-0.016331063629155432,0.011111228161550621,1000.0,0.93866775668312
580,8.894469958653191,3.6800286909282387,0.021342369238768567,-0.0010749041198603515,-0.002714061023933633,0.04333256112568947,-0.0027976308878730413,0.022398471508968367,1000.0,0.9619679109369327
581,7.673702844250281,0.8613515922510995,0.012687531047858941,0.0023444446574297628,4.0376305560174976e-05,0.025375377324876144,0.004688574085701265,0.01169314077564965,1000.0,0.9230280941104098
582,2.346147952481253,3.5888612184277546,0.008443663199574727,0.004287510728829416,0.0016979438640636838,0.01809826409181005,0.00736408376499824,0.007881937580025335,1000.0,0.958438777711466
583,7.002780279475536,4.941120625475116,0.007680955787365536,0.002636591441680083,0.0022870897547903053,0.017127006079636447,0.003508088378454792,0.007835144707298904,1000.0,0.973171561627466
584,7.042454843623195,4.9329652972836495,0.011400576212454756,-0.0029600784533869605,0.004460169511688909,0.025346143287220766,-0.008465147769085173,0.01523683492881235,1000.0,0.9530758851295831
585,0.879956532395938,2.019268315899439,0.007456813934871304,0.002829392735878653,-0.0004312489303650283,0.014993321446560137,0.005579091894939779,0.006562713543408177,1000.0,0.9425057983495059
586,8.721681049196256,3.6597868115641456,0.012064810987325564,0.01083098876106936,-0.0009308194410668227,0.025129186551766793,0.020662412945023054,0.011610143151131127,1000.0,0.9199522077555464
587,2.6237753786752602,1.3652345365799219,0.014765118174016009,0.008224398530924593,-0.0005841645203015135,0.029633762801875775,0.016345270608005426,0.012854531272246547,1000.0,0.9665876793826149
588,0.43214635806181567,0.9398666987636928,-0.002199147872247032,0.007036001894974166,-0.000613877676640121,0.014153257536450338,-0.0044795494909960695,0.008422904489080856,1000.0,0.9807416287797728
589,6.480095537871783,2.6104899670236286,-0.00990412291647293,-0.00231172836562778,-0.002479695588532336,-0.003147223168496645,-0.021284479395704776,0.009949209392395856,1000.0,0.9617597001330677
590,1.9093759153785361,4.346601636978654,0.003763280748237215,-0.0027395020348530198,-0.0014869871840689527,0.008174352639048907,-0.006126795212280515,0.00621369948688313,1000.0,0.9714994122213845
591,2.6578761811447116,0.4005360908136013,-0.004859673879476375,-0.008998752155913056,-0.0007562893840846204,-0.009451628614542129,-0.018265223456236733,0.00791068206135727,1000.0,0.9778598840663096
592,7.99941454807649,2.8950018583812556,-0.0017166143782633416,0.006552313601881189,0.0024737727873309994,0.01447174494549851,-0.004800346498262815,0.008688269655745932,1000.0,0.927009055347034
593,3.594975175153113,0.20363955667375588,0.005829138250576425,0.0025287511931163416,-0.0029306770575909637,0.015084554798280442,0.001631224089105091,0.007169351371128727,1000.0,0.9713704534002605
594,5.2121503299053025,4.895017069052755,0.004688988782667797,-3.75755667664031e-05,-0.0032669873550399313,0.012715731913801766,-0.003412905481998978,0.007360967210376957,1000.0,0.9689393397761479
595,7.64813812609769,1.1468674907267888,-0.004494523217241927,0.00915404065151966,0.0003253278355470651,0.018323581561834775,-0.009004546693279308,0.012060587135026966,1000.0,0.9610558531415482
596,6.9832605758322055,1.6405313999394844,0.018776509808997394,0.0011806466913261825,0.001910713373044346,0.03796320274128231,0.001951110259364848,0.018513111565003324,1000.0,0.9567415964501956
597,6.331274394638582,3.60887631363571,0.011646661763796626,0.010682893830497978,0.0035242159802312037,0.02944357286518471,0.0152155383234045,0.012751831027643261,1000.0,0.9231945988132088
598,5.761314843904076,2.09409279896144,-0.005463504298695391,-0.00346455412164304,0.0012963412947980964,-0.0056542525585419725,-0.012201864282134888,0.005288280477129936,1000.0,0.9138470869884304
599,4.207358368118598,0.41288726742936877,-0.0028979826599990436,-0.003299665600646596,-0.004136609841595713,0.002085316975980268,-0.014480613497271547,0.007813983991795476,1000.0,0.9867468413932327
600,2.6989475984115927,4.090756865604724,0.004376443050594126,0.003869243809098628,0.00275320227024122,0.013775401321942974,0.0027159723974425325,0.006319109468314493,1000.0,0.9402034784610112
601,3.3629731948308628,3.1424630906181283,-0.0012867800926079555,0.0073345998232552355,0.0011730732153636173,0.014982728500638351,-0.002887089039343791,0.00830773596833994,1000.0,0.9477881678952871
602,7.900708009481897,1.6748606305764646,0.014809332248060891,0.010208991609483032,-0.0009246422672854191,0.029976447220344996,0.02006020049474285,0.013225595359786388,1000.0,0.9408194667763109
603,9.630762161547299,0.5477853370571828,-0.0017433665316358982,0.0016111864081597715,-0.0017557725259159868,0.004724153274977627,-0.00498851352192988,0.004206227342163472,1000.0,0.9458824832421041
604,5.370577137239813,4.028997444286401,-0.0022509627484927257,0.0004214909918634675,-0.000744017445135894,0.0012293281434966029,-0.0048882716567551195,0.0028024871719302337,1000.0,0.9040393916857208
605,6.196610489354325,1.2762880079303718,0.01048223229091238,-0.006571671712819338,-0.002496582021054661,0.021680403822193713,-0.013859282666007628,0.015512853306167326,1000.0,0.9089294366753332
606,8.156663213439092,2.311757090188536,-0.004982662455796574,-0.0019305752768631478,0.0014482497610064495,-0.0027055132135364998,-0.011120962251782943,0.005022641059113282,1000.0,0.9563752790660163
607,7.386483193734813,0.5397134080495758,-0.011222906988860167,-0.0033293812969785713,-0.0005609034538420783,-0.006579446973826897,-0.02252512959785058,0.010030798698430344,1000.0,0.9447164199751279
608,1.5875616225310618,1.4124758367793733,0.019264730789841412,0.005400135355121964,-0.0011658654521212834,0.038724168246356716,0.010605564043570033,0.017330230441945153,1000.0,0.9580914536076014
609,4.554592546137398,0.8498687568278335,0.005736052765131031,-0.00024167919694708761,-0.0011477961274306398,0.011897733874384853,-0.0009089867380169666,0.006188643036640717,1000.0,0.9107292466768939
610,0.32831699112316426,4.7246046056871425,0.006559071688538175,0.003999405331994362,-0.0020627125718406664,0.015413476966252457,0.005703477074812618,0.006748972336806822,1000.0,0.969198970094442
611,1.2560388025053948,4.5804299125087935,0.001894942299026082,-0.0017380274119594493,-0.0013024043764877338,0.0046272054324916065,-0.0043133756583583404,0.0038721801018073414,1000.0,0.9632659146923358
612,1.4602012281215038,1.2446152539463147,0.009547986220658502,0.0020843504383373846,0.0009040275046247614,0.019311849795101355,0.003952823522890417,0.00883510076585249,1000.0,0.9243274551961956
613,9.76484316843895,2.869377942671789,0.0022860536947872,0.0006469022172806762,-0.0009232894090587987,0.0054020996700804395,0.00046381215405531286,0.002592886570761008,1000.0,0.9068848974394879
614,8.773406461339794,1.5185736326397747,0.0035652560934283477,0.00022450889711124727,9.898684308442172e-05,0.007136373036026226,0.00044315694505296394,0.0034627184015548792,1000.0,0.9267182567028475
615,1.9840542328010202,1.3571611591798134,-0.0008057832038780187,0.004622690496151462,-0.0001319508692791724,0.009251791912900258,-0.001617977328353371,0.005078944127384841,1000.0,0.9532365895664238
616,2.8502014861507066,3.154403566282651,0.006169009641607969,0.002149855602237108,0.0016441384635891112,0.013511780065215032,0.0031259504224751197,0.006125818556961692,1000.0,0.9408956639918964
617,4.251480290300764,2.437142538605533,-0.004758959106487613,-0.008079683120247445,-0.0005043560642213981,-0.009368093547688933,-0.016309190905781184,0.007088103741957205,1000.0,0.9874414360038697
618,9.567144650574317,1.3979376892730877,0.00581707189896887,0.009766927390523102,-0.0021818023176155606,0.021469779086321923,0.009698219492662018,0.00931112567449824,1000.0,0.9473941547578651
619,5.047024047194251,2.2235676303746894,0.003068449512753097,0.0058202955507794685,-0.002223167993132019,0.014117756472943336,0.0036597336541217924,0.006345026985043457,1000.0,0.9211935516356684
620,2.8715081370237785,0.2557889822534759,0.001290368491218943,0.004778777712285052,-0.003982430046911933,0.014764432007191356,-0.002626139600183367,0.008118782563644133,1000.0,0.9207921711172482
621,7.360532634442274,1.6006419542176502,0.007458650338979884,0.001356726497011961,-0.00023669756795847196,0.014935636432437603,0.0026951172395460864,0.006893540479031815,1000.0,0.9580172307128199
622,0.772131216751305,4.171817011053151,0.0036087352405552134,0.007570353987606907,-0.0029312141582133653,0.018254574290137264,0.0041036041661869785,0.008293966218853175,1000.0,0.9657576508184607
623,4.029206394387178,4.962888369930583,0.0035201500280597625,-0.000521426892088191,0.003493755959459833,0.011070876926535588,-0.005073430654592444,0.007149673784547135,1000.0,0.9153277982298168
624,0.21889784517516553,0.6366739931794241,0.009144845562729289,-0.0033913949809451496,0.0010522342791687382,0.01846510330209938,-0.006958202138531101,0.011378274674162222,1000.0,0.9081697298246805
625,5.275357439498,2.9095040760097786,0.0038726700265553863,-0.009357169634052968,0.005548599485293027,0.011783287814120217,-0.02275228702911538,0.015203693492529924,1000.0,0.9197445409167295
626,5.877427243244826,1.9175241094252367,0.006002425499781134,-0.001844924501644953,0.0013908849169023197,0.012483312997764054,-0.004168311001491691,0.007504036428965177,1000.0,0.94297130661529
627,2.76684997046205,0.7963684209506511,0.0038908594050716056,0.004417097566474049,-4.153840466263506e-05,0.008840712411465222,0.007775201531626088,0.004179522524085309,1000.0,0.9465584534249537
628,8.402241436561706,3.7666201710315588,0.00641654448552523,0.003023062580775151,-0.0006209273347788933,0.013053181814132326,0.005826032318468436,0.005663036926876209,1000.0,0.933842468227399
629,1.3697202197890124,0.2580561452370034,-0.0040914961914702685,0.0015307937674799853,0.0016161110901593537,0.003924465623597771,-0.009045870471578338,0.0057604125442671395,1000.0,0.9353536557711951
630,8.5795023353959,4.458768985433432,0.005453169752942778,0.00030872339064725836,0.002490460940760846,0.012922543335043129,-0.001398757047863056,0.006837838585606227,1000.0,0.956234783281013
631,4.030404847865615,1.6542433680388424,0.007455878513544806,0.010407860236672012,0.004688021914940801,0.02769350955087834,0.008033967949555292,0.012338824337397502,1000.0,0.9281058847600587
632,5.9527969100616,0.14011843540676194,-0.003093565735761735,-0.005959536007363065,0.0008049006468235078,-0.005765968371518133,-0.012340235114731465,0.005347298116328467,1000.0,0.914360658008864
633,9.406841732444754,1.4390965368096142,-0.0005605502579834809,0.005146234747731125,-0.0016429106365742137,0.011170820520273043,-0.0019994515407777552,0.006146554967237409,1000.0,0.9028267080154755
634,6.923851870534998,0.1327015299647455,0.006864241154205803,0.006437941617324554,-0.0009015039060361762,0.0151549019800288,0.011449463563031913,0.006841888845264449,1000.0,0.9217338629145116
635,7.920315363167694,3.3482195569210904,0.016376219300495747,0.013547802183875867,-0.001290664649533806,0.03375327785288668,0.026094765115856546,0.01532511561787197,1000.0,0.9141266738670155
636,6.193455612055713,1.380267075199345,0.003713465275416057,0.009507203158584847,-0.0040218892094185475,0.023133779444688446,0.0033075574233133627,0.01083507479868542,1000.0,0.9301115602370263
637,0.136905019602086,1.7180781105023057,0.009793674293317924,-0.004413551038134177,0.0026423654843506987,0.020538409208094317,-0.009778162697726824,0.013400248368328725,1000.0,0.9208894932205245
638,8.39970786547386,1.4570530155524142,0.00827464726291232,0.010738454210020835,0.0021338357880200283,0.02394091694772119,0.014085285998145122,0.010420510108443998,1000.0,0.9717927032374095
639,6.5173130919335485,1.2029269130556486,0.003761028052212417,-0.0034645386334266953,0.0004592463568842209,0.007580200203397059,-0.0069872213658256155,0.0063096203205312285,1000.0,0.9670307056392251
640,0.3788921055176331,3.333838009968417,0.0035065953301174606,0.013493328776837621,-0.0022839045451895686,0.02798171470876449,0.006018133505145677,0.012755357640107556,1000.0,0.9604212153595391
641,4.1023020065209606,2.6252997019608024,0.004115256734726739,0.00026564482319917993,-0.001699902089091935,0.009516870825685546,-0.0007550677098337091,0.004957994539588357,1000.0,0.9362168985236916
642,8.757002783318459,0.25094225629363254,-0.00566378058818661,-0.0008491865469155908,-0.0027820607373592655,0.0008450056541697412,-0.013870939924374142,0.007156081881971452,1000.0,0.9585666563621238
643,7.236828233619155,3.0021037931661576,-0.004500934739499018,-0.0019250531385876738,0.0004150243885577735,-0.0037196717483072078,-0.009132304007866177,0.0039769888481183515,1000.0,0.985954405146811
644,8.41213529057275,1.6092330310749292,0.005519433104774107,0.017981198137490696,-0.00032097195413839316,0.03597891957488525,0.011022342909644356,0.015964043252892947,1000.0,0.9811473456363009
645,2.191248071476295,4.197652452606009,0.008781740099567899,-0.0015819451553080767,0.000595075392092542,0.017631593971811594,-0.00323200408329195,0.00972502365155324,1000.0,0.9857255596598283
646,2.496354781475941,1.2801434917577248,-0.0009046338424717102,0.006959980062858642,-0.002687500977898619,0.015581247642548493,-0.0034705552017746284,0.008787713177541887,1000.0,0.9647212130076747
647,4.260191638329535,4.7905878814917635,0.006743169277735751,-0.0026707699290466195,-0.0017524110854888455,0.014117598691617626,-0.005972799994239362,0.00893451909691726,1000.0,0.9853291689468701
648,0.18020474329109137,2.6080552074088548,-0.008119397352289134,0.0014615599095492734,-0.0011468629209020053,0.0031938588726432744,-0.016509533758122995,0.009158255296255255,1000.0,0.9653026641130404
649,1.8927893556735564,0.9851064721734992,0.006759882462679989,-0.002258890249169595,0.0004400159405725236,0.013562598988240492,-0.004560614561219704,0.008163900460649682,1000.0,0.9785964081965541
650,3.7569959265257227,4.0535214035521685,0.006169931660898937,0.0033721802189476645,0.0030502292110362135,0.016253520531566062,0.00283070322812714,0.007519656198900222,1000.0,0.9796607014028857
651,8.463197970053537,0.976186398849781,-0.002887536925284673,-0.004215365168449031,-0.0043964498413267055,0.0017896910417106136,-0.015995495229178022,0.008480652335917634,1000.0,0.917875070326974
652,7.507608037289554,1.8098064628037496,0.00978665935057257,-0.0031900796590280814,3.8953371964670055e-05,0.019573552558281977,-0.006380393175192998,0.01171239021270872,1000.0,0.9535140121524474
653,6.241960263208796,2.8776459832172057,0.014490240762511515,-0.0013580496169670222,0.0007728375435018745,0.02905567755483489,-0.0027912952637459045,0.015273561328024363,1000.0,0.9502554488960432
654,5.859298140534369,0.39563107406315634,0.007716065759951257,0.0022443799645949303,0.0012413450186496693,0.01596903085454223,0.003951860594550142,0.007202773160819018,1000.0,0.9783925741966587
655,7.244688337308029,4.438959897043092,0.007720996095027984,0.002924037984026436,-0.001158897313602851,0.015972601915563607,0.0053174662425452355,0.007043892526544741,1000.0,0.9123566275484442
656,9.284558639296346,1.509951826176188,0.014229137515646088,0.007706339444885631,0.0007524537996427041,0.02862962676123855,0.015241327159824888,0.012405644624010151,1000.0,0.9852891861672647
657,0.11579805178380864,1.0639306474529557,-0.0018821924698165238,-0.002253316869719794,-0.0011267210546938124,-0.0018517110427147907,-0.006419307636357846,0.002861365123463224,1000.0,0.9060800527501521
658,2.801164685467339,2.1347470277857727,0.0062632323222183515,0.004851188092927369,0.0031894081979697794,0.01764765602383008,0.004581184806461359,0.007930634333399062,1000.0,0.9340850387002927
659,9.573064792087644,4.366659103627403,0.0013006242466996288,0.002744902934696674,-0.0015693420234333991,0.007500563863496596,0.000590490499296009,0.00361172139011968,1000.0,0.9284998451644998
660,6.904636618356142,0.46998995992591663,-0.011403223358154153,-0.0063499201324014294,4.248352602295766e-05,-0.012699125990453683,-0.02280716099065748,0.009897011953997338,1000.0,0.9696039123749289
661,8.684587602842846,0.1884363758129748,-0.0037452562296107226,0.0032762527474705727,0.00024990748712500825,0.006570272284848793,-0.007508279249129093,0.006100700251557457,1000.0,0.9823026041409992
662,1.136691843665396,1.4418424052817786,0.019698247636193225,0.009825704721192211,-0.0009752500252880138,0.0395873292287857,0.01946057548598517,0.017142625418592294,1000.0,0.9291499875527508
663,8.517541570211787,0.4260965240503084,0.007459082791750764,-0.00124749476897001,-0.0008921372970087783,0.015099114599264394,-0.0026759385537028866,0.00829982246358111,1000.0,0.9856484974002572
664,6.088797815928164,0.00614267570063276,0.0037869299733946735,0.0013582301023715828,-0.00037515395587938745,0.007687117004188804,0.002603203147343709,0.0033859011829616794,1000.0,0.9556895425234136
665,7.681723334896212,3.1288349808877483,0.012017064893210808,0.0029794441007714215,-0.0013246687155026825,0.024414448174676636,0.0055785698132878245,0.011079124708662305,1000.0,0.9727339199675332
666,9.213114870588639,3.395269024238984,0.006426825909587359,0.01586104754014284,-0.00227673762153002,0.03276349632207538,0.011812250577385011,0.014369806249581039,1000.0,0.983741369373104
667,5.906017556635563,0.8463612898738332,0.007004693692352414,0.003249207918696989,0.00013904609998208596,0.01401966961609289,0.0064881336060059165,0.006076296656938936,1000.0,0.9832912664296245
668,6.78787088374059,0.42909781809071457,0.006604645567243463,-0.004411611039727124,0.0012815976889563674,0.013503555301378891,-0.009117486246346212,0.00985638170129901,1000.0,0.9076148296033845
669,6.434628145392947,4.5225015519182685,-0.00277233689164402,0.00509911062636134,0.00011091510141338173,0.010201346400430612,-0.005547798930995972,0.0069181023412379335,1000.0,0.9072703713698138
670,6.384376399572046,2.2684506546015086,0.006327627552033796,0.0025372247400661527,-0.0030576870564727296,0.016059638878111772,0.001670065706088123,0.007646575511552815,1000.0,0.9124693079913857
671,3.0451444181648615,3.369815508840391,0.004739869703611751,0.008994070976828245,-0.0005170594280672344,0.018112025910497733,0.009355855450382259,0.007844170087695602,1000.0,0.9213877856187143
672,9.248479010807072,1.0886753981622772,0.0012235241589523805,0.008354169712603316,-0.0006142491841718552,0.01681339109109336,0.0023419966520180375,0.007886668540260055,1000.0,0.9688855692575158
673,6.153236892206628,4.458162060634168,0.001654116185814046,0.001857105362681964,0.001108713342700438,0.005737919936480658,0.001284523160511362,0.0026078359752763885,1000.0,0.952917965663215
674,2.603506385510838,1.5108345812967876,0.006341367029551374,0.004778079829602719,0.0002591529300706749,0.012766416146718427,0.00947247757158976,0.005739765281701254,1000.0,0.9102972973316631
675,6.730000700505822,2.459570885287165,-0.0013212599011402032,0.0020068983551110435,-0.005570624404943718,0.012313366625134438,-0.010942089717192757,0.010075741751317594,1000.0,0.9673788675078299
676,8.745263029233088,0.6481421697807221,0.006438696522350985,-0.00579595944810277,0.0039337072687912105,0.0151886305917164,-0.013903156443219971,0.012601211902146376,1000.0,0.9537442312247344
677,7.722818614012537,2.6965239728162067,-0.0029452189313628517,0.0029781074061408478,0.0016098313853767246,0.006774700045709119,-0.0067089230961531274,0.005838603245331787,1000.0,0.9342531746318241
678,9.319348042345908,3.9190272105888413,-0.0025758859756134147,0.0028176445260746008,-0.0006388352560733948,0.005784556869924778,-0.005301039769002406,0.00480172590917751,1000.0,0.9611144707284242
679,7.068599495141305,2.0270657351715298,0.001948301838467112,2.1227715858797335e-05,0.002485012302483424,0.007300079174018281,-0.0033610200653664624,0.004720257525002493,1000.0,0.9750941618203244
680,6.225387107609302,3.5460263652593857,0.014195802088108184,0.002001229222331892,0.002723580231168289,0.029552897605112628,0.0028411650157675276,0.014119855848369053,1000.0,0.9181272373679229
681,5.330394892878022,0.1514544865586498,0.006533612863965485,0.005184896922306636,0.0008878846085446448,0.013948395658608781,0.009488623913935464,0.006169291787188692,1000.0,0.9064732928422782
682,3.1355920997569644,2.6028003066869685,-0.009397360439517229,-0.0014817634832856035,-0.00034717807916232184,-0.0029331308666702798,-0.018825116978935384,0.008771712407962613,1000.0,0.9611323419636018
683,8.388735060220247,3.735720654676279,0.002018383575989458,0.0011076181687796182,-0.002462307814664068,0.008134128412854963,-0.0018821249233168117,0.0046102029532082015,1000.0,0.9544164470182619
684,2.604470079400479,4.835360751509466,-0.005183267909998978,0.004789343186410762,-0.002378939863325177,0.010655527370226443,-0.011443376817402874,0.009571133049544989,1000.0,0.978919985042835
685,8.69901360164571,1.5243551387273384,0.010761791500609706,0.008658057513512929,0.0011486341687598775,0.02253483513014898,0.01630486289809629,0.010077697545079811,1000.0,0.9836897754778106
686,3.7855639688757736,1.2336899062976974,0.002684780424311557,-0.00222771099264298,0.00022257922222766656,0.005389689218589304,-0.004475550355252151,0.004277882839452581,1000.0,0.9441385596426504
687,5.525581479547997,3.1952460293567397,-0.003271968461999286,0.0026765162624510837,-0.0023744241644356213,0.0070161199749531064,-0.00820702437404951,0.006598534993179823,1000.0,0.9224470255606618
688,2.771501560631272,4.138317991072891,0.002497194834446429,-0.0006479375444586677,-0.00013964789107070874,0.005006766405534258,-0.0013082518255587354,0.002886578596229909,1000.0,0.9328986324747066
689,7.885333040204916,4.001048416674622,-0.001243968863930097,-0.0011748924442387238,0.0019459228635773926,0.0014735973898433157,-0.006311320006180957,0.003581361269662249,1000.0,0.988396902262406
690,9.814715105433166,2.4901180999676535,-0.001699860700937281,0.007315127756974242,0.0030620905476377233,0.016513689464074152,-0.005283155352000229,0.009847056121788829,1000.0,0.9537140798390387
691,6.144093486406675,3.6020234965591085,0.007662458875337162,0.008509130932336715,0.001889729771268172,0.020044723939842926,0.012298455675504827,0.008753910853512565,1000.0,0.944406508176658
692,6.16730436830602,2.0921527952557324,0.011717425044719662,7.619499178843959e-05,0.0023796057775461637,0.02437011922234648,-0.0007828791493302775,0.012385419541538607,1000.0,0.9644693840841628
693,7.295961258252732,2.073429565182237,-0.0007491686995723702,0.004596148284347477,-0.0006822528981131582,0.009363707757026954,-0.0016697485874767387,0.005150294193180328,1000.0,0.9870410476860457
694,6.562887720681063,1.406827169255,0.006071902986620643,0.0064053530920731745,-0.0013777009053188775,0.015252761097765504,0.009701751059622132,0.006685660094298434,1000.0,0.9153583121248751
695,4.616832617594278,0.8044275668917666,-0.002548956092353054,0.0038733407778711367,-0.0021550746413112926,0.009058935992981458,-0.006410166621945293,0.006730970334554021,1000.0,0.9851718543364455
696,0.3580260431333493,2.4374694587466736,0.001146952980947507,-0.001495621325616476,0.0029718719935374915,0.006156044681253246,-0.006853381370591183,0.00563594367128036,1000.0,0.957823609749656
697,2.235442674107293,3.314298969819572,0.015970695539691868,0.009569590728839672,0.0003206070152034706,0.03197342688819048,0.019107145648872597,0.013932534921681143,1000.0,0.9731479175296409
698,6.377844779734934,4.625589466687028,-0.00047310831065531904,0.00526585345171409,0.0004774628327886728,0.010610611170516353,-0.0010251208883988111,0.0055792719372085645,1000.0,0.9364881130303276
699,9.360234078294912,3.0517437925329496,0.006478213761077445,0.002451568111871351,0.0005294448769724169,0.013093328761754026,0.0047662349841435655,0.005739041130369342,1000.0,0.955625248264232
700,9.032436995965,3.5289949796254865,0.0061036809263800345,0.009039159032098351,0.003374390711964744,0.022502397174583667,0.007783282742373104,0.009896904178321012,1000.0,0.958688173747477
701,1.1253654173114336,4.736737981320726,-0.001138370591654011,-0.006269469097239892,-0.0003369992817785184,-0.002232663755874562,-0.012583015621913244,0.005814280408388031,1000.0,0.9330973062214926
702,5.027653543745822,0.7281626599852409,-0.002378787502154954,0.0010800927167146613,-0.00014665631316288294,0.0021725995934981507,-0.004769989164378737,0.0030755593857654056,1000.0,0.9474467388000698
703,2.0204531636930967,1.255794884378461,0.008119586160017775,0.0019046288979544979,-0.000686600732484153,0.016389069811433985,0.0036593603045105587,0.007450151267364821,1000.0,0.9495847329155743
704,9.54391007570987,3.827094189816063,-0.006187563790057934,0.0026016324343009316,-0.00044004382245585466,0.005247217829726642,-0.012419080541240647,0.007857042657502129,1000.0,0.9663852403284188
705,5.4104735690628125,4.3528592638021095,0.0005710048124502999,0.001022184855634506,0.0009832311251688282,0.0036107469072655784,-0.00042436757109596667,0.0019202776465009168,1000.0,0.9817637203827609
706,2.6666950318156424,3.168043332159884,0.0015394457714365789,0.0036922078845540917,0.0004413804826086828,0.007558379174264297,0.0029049281377170446,0.00330193711661797,1000.0,0.9577720458388995
707,7.321757123264721,1.9955356333098362,-0.005171491000535749,0.004096732694965388,-0.0018631117665665394,0.008914471509021128,-0.01106398812016185,0.008667601200470101,1000.0,0.9438085152322575
708,8.378041487062745,1.678052828582005,0.008938082519024504,0.011518161325670642,-0.001099328277483236,0.023846066449965456,0.017066421239424836,0.010641083169950709,1000.0,0.9833380655231302
709,3.924622279297094,3.4564674009047196,0.01605229647732869,0.010230506628367293,-0.0009296491170296325,0.0323942863109945,0.02017131990039746,0.01416718408857879,1000.0,0.9821499005344669
710,2.7075529500398163,0.8966856248465849,0.007228867143370486,-0.005072105496146741,0.0006703315465090802,0.014530576960502526,-0.010217053666055036,0.010770161756263606,1000.0,0.965970346154543
711,8.189832376557607,3.3550450296660568,0.011064259487714431,0.008993764619032047,-0.0022899022501795736,0.02508411187585179,0.015031936337641171,0.010932851936423918,1000.0,0.9542570912787675
712,1.2755670137634856,2.6192406965911283,-0.004146432096687739,0.0009317819295602718,0.0018946581149657978,0.0031215296903896023,-0.009550830024644536,0.0057178558318968595,1000.0,0.9750171605662366
713,1.7743718240705852,2.794249237029222,0.0003162366166089936,-0.0006799545898840168,-0.0024545517581139316,0.004645443059566182,-0.005372879006116229,0.004341870953946225,1000.0,0.982182701728794
714,5.942405433171224,2.634720452236748,0.002262905493216092,0.0040232244575375475,-0.002597414571878173,0.011771106950611529,0.0008011529508957504,0.00569583944262547,1000.0,0.9336979294424103
715,4.907291949779481,4.647445211551886,-0.0016997753241022565,-0.002928390507106581,0.0019080486178367523,-0.0006191642871802355,-0.00863716737523744,0.00417241534070016,1000.0,0.9822770141356005
716,5.659559203536436,4.533947369428823,-0.005890794375212626,0.001736261981518254,0.002280639376090448,0.004732382285981913,-0.013041447073370658,0.007971698328803489,1000.0,0.9447129885586084
717,4.956115975861344,0.5046276656626608,0.009448245601326346,0.0004006654914869589,-0.0004960135249843607,0.018950714403796844,0.0007471077818297627,0.00929421218083644,1000.0,0.9156905047836794
718,4.914682433719818,2.0169018274142725,0.007488032161384286,0.0033788997339000704,-0.0027451473130428138,0.017724650494631157,0.004009213295937557,0.008049458397622625,1000.0,0.952827773425569
719,4.41021870457406,0.4607456164885704,0.002047917093914212,0.001716534644763144,-0.0032492022892454697,0.010271300161174791,-0.0027423966838200794,0.005941134699552415,1000.0,0.9784907954730294
720,0.83121616285454,2.96178438400108,0.008891542789016016,0.009859468822331009,-0.0012960271713318128,0.021517891898112297,0.015984131324581756,0.009676870827038327,1000.0,0.9675346629078615
721,2.5192184032548126,4.16609355800958,-0.0018844528425341262,0.00715675576695559,0.0003456272013372982,0.014339898293069536,-0.0037952924442266073,0.00828343279437105,1000.0,0.925402220256852
722,0.1165290672636865,2.19418951936506,-0.004437523876618451,-0.0033643495766568976,0.0004344913197364595,-0.006420991884927327,-0.00918275502162337,0.004080126563549606,1000.0,0.9310420035206499
723,9.80884872295896,3.6996303655956786,0.013896771407508255,0.011164908546219664,0.0026926956119002502,0.031100348128605168,0.01902301177885067,0.013578331470415593,1000.0,0.918044925896359
724,3.5999767725391774,3.3789571389748967,0.011412363951126532,0.008786695444446551,0.0035145802820662113,0.02770260744588405,0.012695511345262117,0.012009493125189192,1000.0,0.9567337578708175
725,3.400614199671276,0.8914994622645483,-0.0011320001770213296,0.008049022804293173,-0.0024556274185518756,0.01732911209377183,-0.003495066839228145,0.00965763976343846,1000.0,0.9874011855294048
726,6.748603075057224,3.580555334777373,0.011384153479375873,0.006752905226366793,0.0004751613565286438,0.022864803796158628,0.013409313615326705,0.009949970093113502,1000.0,0.9768269621197494
727,9.39845677332975,3.7777543598601016,-0.0069643413283498115,0.0037673203246113224,-0.0012227728948671832,0.007809761270992122,-0.0142038032784691,0.009665256223043404,1000.0,0.9488328047194143
728,3.0120463956605725,1.7351252255187188,0.0022406199367153807,0.003990609706577938,-0.0018799712490116967,0.010378473521227916,0.002083985765358721,0.004754658721103319,1000.0,0.9857249045729457
729,2.973951800418817,2.934176036543585,0.005142222660226519,-0.0033907554619570434,-0.0009997146622266067,0.010515566310964786,-0.007012631914425835,0.007640286923899753,1000.0,0.9835238192281661
730,2.282238977888862,1.2161839240443366,-0.0015304753355044345,0.004444133109172828,0.0014861981090009953,0.009586819344018793,-0.0037595037966820055,0.005959921510684148,1000.0,0.988386148839804
731,1.1821473128066784,4.498674027546408,0.006009887957033098,-0.0013950065398458532,0.0004022370418796065,0.012063347102235972,-0.002833584267861483,0.006850840344051694,1000.0,0.9116948136123254
732,2.026150930531352,0.3939488896803145,-0.006367431418035413,0.005444055051548841,-0.0013654768300545598,0.011199714019831403,-0.013046466752804547,0.01050905068808182,1000.0,0.9557579884095871
733,2.9948731098381973,4.726944594512432,0.0053904474120259685,-0.0006819023148254394,0.000406847355826685,0.010835169803265446,-0.0014180796088643886,0.005804674577426073,1000.0,0.9543668674886854
734,9.200309030221899,4.489667300975592,0.003691392403866363,0.0019044764243715405,-0.0015432558898121542,0.009162326970924225,0.002029410685551584,0.004167511817423117,1000.0,0.9414162974185173
735,6.3110715790942,4.712198246553702,-0.0016001099333390512,0.003035899480334348,-0.001516162295536228,0.006975426331956122,-0.004103847237965528,0.004850881846405205,1000.0,0.9586749371614596
736,4.478599344694275,1.1932015081331027,0.008754440196880174,0.002803285789087671,0.0010314769192525637,0.01785629862785991,0.005259153344075781,0.007946651526622548,1000.0,0.9622997244026447
737,0.6258754806352407,0.8652661029525899,-0.006279199598325033,0.00832667741676698,-0.0015189059552325438,0.016965920920299346,-0.012870965283415454,0.012960246903194804,1000.0,0.9136320177061834
738,3.0618025379111016,4.753181600959434,0.012702097297236394,0.003929689623014255,0.0008402884535398302,0.025563722608742866,0.0076998512317584325,0.011357318803206848,1000.0,0.9742151558391225
739,6.205312407697456,1.0698979409301201,0.004090807959238057,0.0025832380397294323,0.000527474286932867,0.008514068704182995,0.0048340232937519835,0.0036979704117076073,1000.0,0.941380569806039
740,3.7709656763266275,2.2329087581000993,0.002609264571189907,-0.0006635418346467963,-9.334671822183107e-05,0.005223849672660274,-0.0013324041995740527,0.0030010075639437966,1000.0,0.950559131715295
741,7.780980667571198,1.6733889750018938,0.004161298589931287,0.007813320753027505,0.002438228726029895,0.01806700008955494,0.005882238596362644,0.007980332353562243,1000.0,0.9884389554963826
742,6.055933014761456,0.8560902841340656,0.010581562344384576,0.0036075143597781487,-0.002882872490399524,0.023237897648086987,0.005140255760238464,0.01057087247040447,1000.0,0.9264749085485591
743,1.4967564220358254,1.7554403718304372,-0.0013777645571625536,-2.243518075473877e-05,-0.0003507223291127164,0.00012588752272902812,-0.002926286998563613,0.001495609097273133,1000.0,0.9461182165584662
744,5.838499439439435,4.095750011922644,-8.030153650349361e-05,0.003484982906574003,-0.000165805263840362,0.006985354309912838,-0.00017599156977181904,0.0035374959836748407,1000.0,0.9366331597794494
745,1.253454588631584,2.7203045701869044,0.004201284751171236,0.0004828550758216476,-0.0012292989661233863,0.009141877262393107,0.00022640239159266076,0.0045154023920279404,1000.0,0.942365607829491
746,3.725660109847575,1.2233927663298898,0.003756416808235627,0.004602490428648635,-4.591893927743916e-05,0.009209950577200272,0.007507863896568249,0.004243941402049656,1000.0,0.914695924236599
747,5.142280226300324,4.872892116751072,0.007148621380771645,-0.002401158664673657,0.005398113621943227,0.01916123465886236,-0.009666309226666382,0.012706384882164603,1000.0,0.923542677020348
748,7.082863087815278,2.188118895006348,0.0015792008225081642,0.0047389613553562165,0.0011884156477686952,0.010272073359516057,0.0023642509962127044,0.004658846804815717,1000.0,0.949759181355604
749,0.39275782681262417,4.725296153741454,0.005770766124630211,-0.0012385858619121323,0.0004189901759855029,0.011591445546126442,-0.0025270850206902838,0.006519975785199952,1000.0,0.92550005282035
750,0.9547987896454346,3.692035660502274,0.0043447536334825275,0.01028190800242084,0.0004927862619267652,0.020645063018361862,0.008608260253444872,0.00898057203373402,1000.0,0.907339924376784
751,4.367633114022061,4.877602460593005,0.005603263896700172,-2.92351342263662e-05,0.001629187721688046,0.012081106129724385,-0.0009330486047767735,0.006286810881421507,1000.0,0.9161352119424412
752,1.6897303500030558,0.7645060117322661,0.008736328770932165,-0.002455301380938385,0.0005653700175194969,0.01752963434743958,-0.004967579567452019,0.010235291648545563,1000.0,0.9299414539207614
753,8.704141317245748,2.1249032870622515,-0.004897983303581592,-0.006604805349251567,-0.0024121044219943383,-0.006385540127892866,-0.016620037177773453,0.007260730751614436,1000.0,0.9869840330454154
754,7.471704234534125,0.027053509630668438,0.0044216193384364385,0.001014505062754051,-0.00041030721622968097,0.008940669412218214,0.0019315793901627638,0.004074216357416989,1000.0,0.941334593572384
755,1.4943079643893675,1.1254251241934026,-0.0033678772933849873,0.007545280089173549,0.0007116343301438681,0.015182978552460683,-0.006828172960883559,0.009757289420297646,1000.0,0.9558135188221242
756,2.054174162049911,0.3402301316002715,0.00728214146484687,-0.004445037110323384,0.00032951684833042107,0.014582786231165074,-0.008908577522118103,0.01027049523343758,1000.0,0.953514830897522
757,2.4495605398440077,3.5356309555108423,0.01198642273380496,0.012561344043159223,-0.0012475912775106752,0.027108327359108744,0.02198720619481962,0.01247259260559652,1000.0,0.9610111832859161
758,8.296142261798755,1.4750261928678214,0.009424877608038867,0.0045336933064551825,0.0007005294809572802,0.019046463414028585,0.008870678414959515,0.008253812031955576,1000.0,0.9844383103468466
759,7.324172442812673,4.935786704485519,-0.002197876272168375,-0.0024870234972564176,0.003799161519452769,0.002918922895612761,-0.012288722434462346,0.0069893247744966915,1000.0,0.9118000879663829
760,7.922721349798265,1.7281212218886095,0.0027298857197716885,-0.0018645168281256354,0.000656874520094305,0.005643911693873727,-0.003913173910581621,0.004160897657260824,1000.0,0.9834644722429824
761,2.9388968903105273,3.3438144700110595,0.0010129506692341857,0.006121513467009349,-0.001510570711736158,0.013069504941447214,0.001199423331039855,0.006256490761394191,1000.0,0.9298805311872123
762,3.182393765229814,3.9209098348902423,-0.0015105804534738488,-0.00318817643333022,0.0005447673696102786,-0.002698403363149146,-0.006699110410458991,0.00291901348661173,1000.0,0.9429129175905596
763,1.2887853890349699,2.0785938252323883,0.007805653581221364,0.0009172065943052952,-0.005387813751520598,0.02151210761139445,-0.004066387260341135,0.011903600711227483,1000.0,0.9876741620397508
764,5.2970325835256284,0.9197592869351773,0.00623039893010469,0.000803957440663462,0.001909214683153155,0.013669615978635771,0.00039909676290053424,0.006737250547188466,1000.0,0.9485579318543136
765,1.5460059967479989,3.598415075090468,0.016477506566980497,0.000736506874692313,0.000791128044230978,0.033034335993444366,0.0013936908899012564,0.016180003675033323,1000.0,0.9718995933375628
766,0.9193745085992888,3.468765677918088,0.009762408970805008,0.005864159594747763,-0.001196894673983898,0.020201125991181484,0.01105201113992406,0.008760270715780512,1000.0,0.975422906293266
767,2.251778094187854,0.11387422435601258,0.0037092662192560735,-0.0020600721339676725,0.0013707628792984337,0.00803677801969025,-0.004738389849113449,0.005592931402405095,1000.0,0.9874381397291525
768,6.877893655514448,1.7228109966707161,0.0011843830781479272,-0.0018915516384659537,0.0008737619369605826,0.0028305162858483124,-0.004244853406484365,0.0030840610234351366,1000.0,0.9734141595907545
769,9.023977979860092,1.6601964601903512,0.014803479778355864,0.0072058406741292765,0.00036395074499794103,0.02964174867273138,0.014376892232238897,0.012837173251847682,1000.0,0.911065631451269
770,4.243237840095366,3.962079121094757,0.005470526372962123,2.3759080340270177e-05,0.0006245920068463086,0.011082463567861769,-9.3892661256984e-05,0.0055648534698249565,1000.0,0.9444503484592063
771,8.355555066831275,3.7227286663369914,0.0016277098059319065,0.00490694349838902,-0.003214329148868689,0.013751371472492214,-0.0006820648638503624,0.007052388906677528,1000.0,0.9089219278971471
772,1.5882722901807045,3.9291223526236396,0.004419994700214796,0.001941935427382301,0.00327106510193877,0.013357660637283551,-0.000633800382089357,0.006842786184020754,1000.0,0.9439223138846654
773,7.352582880580601,1.3798524792967597,-0.008107849701121939,0.007937937604493354,-0.0018723137282275436,0.016307027092574068,-0.016646851285831238,0.014269700813740167,1000.0,0.9180360493278893
774,1.724414958096836,3.4144586984958587,0.00932174609568388,0.007787411366621554,-0.002404839533474811,0.022157641966377935,0.012060672958232934,0.009607091865303752,1000.0,0.9420594558858456
775,8.875381058865607,3.9406082237076574,0.0045772171400453405,-0.008567022729405557,-0.0024172267800962937,0.010015300014358783,-0.017994911193079218,0.012291740087909177,1000.0,0.9642196190728975
776,6.8770170317986254,2.6968295650180063,0.00849222177382851,-0.0010920734993941522,-0.000705145624388136,0.017087647295889442,-0.0022873507470207253,0.009169311674761815,1000.0,0.9058816250085991
777,9.866723866211354,2.248337886662994,0.002426735641169501,-0.0029427249942984308,0.0036726324645096403,0.008582583303794808,-0.009614562010052669,0.007883817574508293,1000.0,0.9338311574379534
778,7.413236419403601,3.5958760031393844,0.014654315563729928,0.012325072929012304,-0.001754422987947087,0.03119096436573028,0.022767812619754184,0.013974078837656143,1000.0,0.9645116736417916
779,6.456968927452125,3.862281771485127,0.0003529163945637955,0.005080406398384315,-0.0006601210765701191,0.010341703491218296,0.0005249420946779257,0.005044739830006682,1000.0,0.9549068293107088
780,7.464352474511461,3.17862162209067,-0.002442940611249362,-0.0011612958233617743,0.0003265065935723962,-0.0021658207836588745,-0.005042652085563398,0.0021907555221482187,1000.0,0.9523726667987653
781,9.44346324765866,4.046261057534905,0.00045586059082454206,0.003795830209346931,-0.0014696126480122512,0.008700785359005092,-0.00019740375866214577,0.004400573878501289,1000.0,0.9545992855959506
782,7.435487719207937,0.7093333352414283,0.0003036554510534148,-0.0007899527131882591,0.0011473227972818559,0.0020556266591394913,-0.00302822118340918,0.0022147582651273665,1000.0,0.9323859602323321
783,5.3491659357737555,4.3968816074157075,0.0015167487481133042,0.0068825227978745315,-0.001360425891208061,0.014415463495632396,0.0023830795963432775,0.006692000060298581,1000.0,0.9655446448437784
784,1.3478460851143148,1.8445355870518654,0.005519056325533368,-0.007693295579196425,-0.0010515441202305594,0.011204446145193694,-0.015552924652519808,0.011637170890479758,1000.0,0.9226704748050202
785,1.002718149677957,0.7079039812330706,0.0002402437506157846,-0.00032038519998004063,-0.002335787439774638,0.004624953307968693,-0.004785236206697206,0.004074928609140049,1000.0,0.9491402511118757
786,9.668520217392622,0.24038735647239073,0.007835792629352465,-0.0027597172424069574,-0.0021412069349958924,0.016504281632741452,-0.0063521308588504345,0.010217365552373348,1000.0,0.9666786881777121
787,8.64065621331558,3.1948742053334866,0.00852603728310988,-0.0006767587910579622,0.004395670951688298,0.020576381384885944,-0.004877824400782108,0.011699878385907924,1000.0,0.9552234383985088
788,1.5873583346032205,1.9901521651402554,-0.0037848298582009365,-0.00028416286106071244,0.0005309244241804595,-0.00041082481693237435,-0.007727160621590923,0.0037650789817180725,1000.0,0.9652317711509458
789,8.417354819153148,2.422860640282145,0.004796861818361767,-0.0005116498909401891,-0.001175679000776681,0.010091172745345257,-0.0015207488905021015,0.005465587441453827,1000.0,0.9722027354324547
790,3.6970093905688026,2.7729419266603355,0.001432064754845779,0.004208642813036709,0.0012793502970621597,0.009416463709849216,0.0018649514259157615,0.004318176270057915,1000.0,0.9828231459817294
791,1.8927958133176392,3.5683209548398285,0.007997466774622684,0.011708168084561507,0.0016596533174240613,0.024684299413834206,0.014726970304534171,0.010754921518154846,1000.0,0.9294823080967735
792,5.88002258716017,3.938189084554234,0.006595615428607754,0.00419377877914918,-0.0007475256855636935,0.013618527978541248,0.00796026043697262,0.005925010992592244,1000.0,0.9809677202698043
793,0.5451132637012979,2.167874341091607,-0.0006276554458796526,-0.0020176330038901903,5.2718407551294124e-05,-0.0012513176703946385,-0.0040392592291450475,0.0017907410884701815,1000.0,0.9031771241377713
794,4.3868214838835975,1.4441746873049544,0.007532356391342723,0.009737170672484554,-0.0007301482183185616,0.01991408216765515,0.014624971959999403,0.008933330567316551,1000.0,0.9794360513632736
795,3.5427230494014483,4.3274452604693545,0.007136618616384295,-0.002621650736006566,0.0038360933755759124,0.016928116969080417,-0.007898181208324959,0.010984577209159255,1000.0,0.9761372586817706
796,5.919051459229355,3.6148517366645376,0.0022389798976521977,0.014638387640091635,0.0014126698926635426,0.029594594329219213,0.004160140746268453,0.013874699157112801,1000.0,0.957382425432189
797,3.794666511912851,3.750997439760097,0.0015128789392634754,0.004265158653233628,0.00086839420886571,0.009032492636263668,0.0025235825487305388,0.004036091900465184,1000.0,0.9394771549686448
798,7.038993556954144,3.500435095334526,0.009653195716065,0.013982226194818696,-0.0032252170993628975,0.03140385844844193,0.015866985373325468,0.013598520026272072,1000.0,0.9465872931699415
799,9.648264659695181,2.207567953416796,-0.0009281126857535195,-0.0003912235009837356,0.001728960125107528,0.002180015532305876,-0.004818687905780387,0.0031014930007314525,1000.0,0.9217301961821678
800,7.906433838849445,4.708721878252495,0.004476614894005464,0.003363734667255721,-0.00014849762246460833,0.008992177922867689,0.006688521199654681,0.0040450960114245685,1000.0,0.9144790336699037
801,3.973274045923466,4.752263802195843,0.003842328243907377,0.0036031449454971246,-0.001370662381126242,0.010197212657882041,0.004693733720926963,0.004420160667930306,1000.0,0.973138961762958
802,1.7883730913262097,2.832750593474964,0.0017126984880806648,0.004656657445483541,-0.0005881832798683977,0.009539644978074125,0.003199066889054287,0.004204785752141493,1000.0,0.9038801229266199
803,1.8986555306443587,2.037387855629282,0.004270154387384787,0.0032923230080340493,8.512424953841498e-05,0.008555018960231555,0.006569935830606118,0.003877708106274359,1000.0,0.9280655456138416
804,0.8768168354585382,0.269619180895751,-0.0001370240924364859,0.003103039371300065,0.00018531754547969405,0.006227208560423409,-0.00029517800269625045,0.0031899604814764203,1000.0,0.9252189719706508
805,2.834412645328129,2.7392924034084096,0.009076853510006106,-0.004193955226672461,-0.0019743651332884294,0.01872872203071987,-0.008962925464052581,0.012236862356997766,1000.0,0.9202404410546567
806,6.141117584109206,0.3189771346274234,0.0037705214593886953,-0.0019411806121469458,0.0018232557535192504,0.008605813877140763,-0.004947132182657265,0.005939449640123093,1000.0,0.9396684025350094
807,1.4855628171205626,0.11707374234106782,0.006875028112043345,0.007309801302555868,0.0012791818046163819,0.016779873168418197,0.011589785660780227,0.007439962059277988,1000.0,0.9463490009276676
808,2.065884852863004,0.021487687826289847,0.0030126876961919435,-0.00039575297292766386,-0.0032280846510057077,0.009917591532835805,-0.004683722086307246,0.006456529967777884,1000.0,0.9190646990930477
809,7.3292176096893495,1.4122856914220694,0.001198356484067695,0.008062017526864553,-0.0014152772731301521,0.01668478522999616,0.001835962791868333,0.00792338583989881,1000.0,0.9062544653623354
810,7.315333756166973,0.33947451211520985,0.0023434007974632684,0.0017569841439022045,-0.0006633760413693041,0.0055509557188958185,0.0026498141638351272,0.0024044554169942362,1000.0,0.9600433980232445
811,4.5877747184487685,1.3651536069158627,0.012079769989298751,0.004833461841610045,0.0016958164727757254,0.024913991532875213,0.008912472128942382,0.010932678976260757,1000.0,0.9100772937428322
812,3.556881002116704,4.358754835968956,0.00690288165851777,0.00470007332394175,0.0008257909780253003,0.0143561508557002,0.008849759109218841,0.006272336623505445,1000.0,0.9171858633344586
813,9.091172206780186,1.532509654037542,0.015158902184300556,0.010683950725046652,0.0005110728155699951,0.030433056854046965,0.02125264896464745,0.013519088017096115,1000.0,0.933136578726373
814,4.11419387198615,4.949619115295782,0.002367837556162238,-0.0001578394921845365,0.0018011038932878793,0.006609423650371078,-0.0021894275224156744,0.003967018020926528,1000.0,0.9786485735105949
815,8.553288591745423,1.5191957087927017,0.01569478429995276,-0.004962639941036891,0.0032374303724870017,0.032380539170980625,-0.010916250453148889,0.01950088405917605,1000.0,0.9066095471222783
816,0.15729422351614675,1.266306702510409,0.002645401554882617,-0.003913549866878907,0.002850909308351108,0.007422684748809761,-0.009958981372802342,0.0075531440144753215,1000.0,0.9806414761664783
817,4.570449546299801,2.8950057388911663,-0.0005594196068635102,0.004469360384862411,-0.0004727281921023526,0.009026826156783185,-0.0012069446007853838,0.004843428146114791,1000.0,0.9587647952385449
818,2.2942672805955553,3.551363334884518,0.006753039999227022,0.00012793817719170333,0.0027353874400484687,0.015472913461384234,-0.0017109571085467843,0.008197742318581636,1000.0,0.9307320064999587
819,4.309290620417647,1.4652199574397295,0.005118910463157885,0.002432209491902423,0.0015081368776670644,0.011590460182877531,0.0035117797272430865,0.00514704335040753,1000.0,0.9364869977488824
820,9.631613347055174,1.1455139088287964,0.0014460592619385182,0.002757765640087423,-0.0007168859973576686,0.006147089103133581,0.002260560700918301,0.0026926274841134706,1000.0,0.9109015144908439
821,1.1584224077190364,3.442400860704982,0.011899794949502699,0.007804159627972093,-0.002073307258260114,0.02553221680867076,0.013875692346278827,0.011069685495735029,1000.0,0.9041581350449698
822,8.972127156736567,3.980861296096214,0.00336878553443358,0.0012833475098510472,-0.002478050596151764,0.010029120191630913,-0.0007248541030616586,0.0052052452922486375,1000.0,0.9171446162438099
823,8.181776561077132,2.211189427822295,0.0011030236908972243,0.005003780991148877,-0.001782729670564945,0.01139153815013292,0.0008220712139592806,0.005501778960273009,1000.0,0.9129340263368712
824,6.418787904435663,0.9729418857488936,0.004775955898042103,0.006809990623862039,0.0018076086333372635,0.01573408985972445,0.007437803184083831,0.006816440351490868,1000.0,0.9462568522450608
825,5.404523699988573,0.9728032173233048,-0.002192664785319611,-0.002302039130735663,0.0020163341297012305,-0.000460552699525673,-0.008528855132584875,0.004154079061792289,1000.0,0.9091944504141919
826,4.747560056111093,4.271660322065469,0.004480118495712978,-0.0014720229223285264,-0.002429277994303486,0.010691425174201654,-0.004675234027432749,0.006821827105750272,1000.0,0.9300335706890572
827,4.99073658679693,4.56622474621993,0.0006682593332517257,0.0038048856089762484,0.0006517979451673748,0.00786987670067802,0.001076413183777929,0.003695347940004064,1000.0,0.9444834570089904
828,2.9543004739890755,1.5035370459359487,0.0029991529899789813,0.004420138710316069,0.002285637500773069,0.012206332075846791,0.002632251324743309,0.005563118639880752,1000.0,0.9703886459379306
829,5.047868228999846,2.307772809660636,0.004294732330716889,0.0008638956843256431,-0.002550355506000139,0.011305813787586098,-0.0009885577575010343,0.00591555411107167,1000.0,0.9088349288941984
830,7.575757135735715,1.674606006237778,0.0007428514642613218,0.006375912138031694,-0.002530061456954186,0.01469083177804519,-0.0004533045734591585,0.007461324356306466,1000.0,0.9314261702815129
831,8.505734367414528,4.381715738605943,0.007904844837054292,5.830978093425464e-05,0.0002060272068590149,0.015820501576522653,0.0001058076594544384,0.007883932000441593,1000.0,0.9655296328359909
832,7.88891016229996,3.571997684406613,0.01188265012323028,-0.0008492075734397387,-0.0025421446893552214,0.02474293557085895,-0.00267605047127787,0.013091862464749799,1000.0,0.9556763503396551
833,3.6863475445790517,0.6681745533529937,-0.00040802578212060635,-0.001981279643821541,0.0011635850286405187,0.0004197599326535425,-0.005198370784537837,0.002710227157685476,1000.0,0.9756846954768907
834,7.278961053450816,3.9643226478979305,0.00183105379973798,-0.0044286453399774465,-0.0022320282415175105,0.005090817502175033,-0.010286000582653967,0.006783848145049513,1000.0,0.9151118539254279
835,3.282560759898858,2.799211140696011,-0.0011398585312753845,-0.006529303908012268,0.003617354595260079,0.0013523196196773496,-0.016690644498252655,0.008703123981376784,1000.0,0.9608924182874781
836,0.8250236584664539,3.630997402742512,0.011891355591652464,0.008342020799744904,0.0007877501933251078,0.024116671246720678,0.016350081536074063,0.010661020788321558,1000.0,0.9643256617087501
837,2.562035861026369,3.4592508665419723,-0.008161209318347525,0.005755693725290924,-0.0014908483188683416,0.011827217987163446,-0.016638249173276647,0.012384452155475111,1000.0,0.9799496859630146
838,2.926775776113262,2.125496609605139,0.004328590858028109,0.00789230829040588,-0.001414149603953696,0.016770553898773053,0.007671244398094927,0.0072706335872130675,1000.0,0.9428509458741512
839,0.6985677840664173,0.21359433535070194,0.006257756019890098,-0.002810033083975461,0.0020254229102144978,0.01337919569140614,-0.006483749819576868,0.008771961678011964,1000.0,0.9838601584621283
840,6.276295482180614,1.6758859921024198,0.010055995436365543,0.007921980925504703,-0.0006251274084849096,0.02045126466692505,0.01550468805681544,0.009240658785873006,1000.0,0.9804103483546455
841,3.8012630686309636,1.7479103162558078,0.0024384755019828536,0.00035641502695732874,0.0012966987648169634,0.006120651579944128,-0.000530870522063763,0.003201307263208428,1000.0,0.9544632758259363
842,0.6850411483095165,3.0556276447700226,0.004236695976319172,0.002172728152908659,-0.0004197914535416376,0.008637621300471958,0.0041812269579837025,0.003740832312806501,1000.0,0.939811116670986
843,5.748527886756581,0.09590110428521148,0.0018147226403090776,0.0012679303981290883,5.828439681900569e-05,0.0036417326747677694,0.002523573402108563,0.0016155850236576365,1000.0,0.957418285875246
844,8.129552539142576,1.4450650157735607,0.004414771486679471,0.013184304523026045,-0.003269509465391103,0.028538156329947342,0.006659995689463689,0.012929790322676334,1000.0,0.9129752995495689
845,9.406782199230872,4.7323690286448405,-0.002580470505576784,-0.0012840453674897423,0.001682162164881519,-0.00025904831191727673,-0.007469983434215776,0.003671943352527436,1000.0,0.9114178291077495
846,6.695869548189167,0.49423539159450525,0.0020643294499537207,-0.001429967633853924,-0.00032641898193829964,0.004189120530412929,-0.0029203968982133358,0.003094807888410882,1000.0,0.9441116945046252
847,5.681677018961024,1.7015869629668705,0.004756620969340261,-0.0011528691393825176,0.002689193289613029,0.011594315986554657,-0.004386812326639169,0.0071507757249475706,1000.0,0.9339976015954365
848,7.036477045677181,0.4712664350886281,-0.0010479151024655599,0.004106610079209502,0.0007472926861900297,0.00842552973140658,-0.002308139777918696,0.0048929633355545114,1000.0,0.9899530313014674
849,8.974484521151068,4.1677229304498695,0.0034061369936265536,0.0017363590692148468,-0.0014066503153926171,0.008414012340659572,0.0018709797850232288,0.0038260201915445735,1000.0,0.9197224199885276
850,3.6125736278953626,1.0802554366874473,-0.0034230081186867054,-0.0006655294232553229,0.0016738014411314896,0.00024852757321284624,-0.008425602657096902,0.004276287545031013,1000.0,0.9501490007639432
851,3.612853572075805,2.1270053213914952,-0.004930656785068925,0.0034492764202510785,-0.001570582158208289,0.007467932110917572,-0.010430692840553266,0.007785644950007814,1000.0,0.9096549413694767
852,4.166276899401407,1.3312410787345135,0.009523660127530935,0.002375573704117731,0.0013599280453193718,0.019547289576108746,0.004251178087188584,0.008903230253556271,1000.0,0.9102409919993076
853,8.709611657969875,3.7849798771088548,0.00512242207692683,0.002892726988441188,-0.0006076622642343356,0.010554549368021105,0.00547574876271493,0.0045713312128802695,1000.0,0.9761562895223576
854,4.643668821944068,4.795337760415178,0.006049025465842025,0.0014230463812548882,-4.7904398747023106e-05,0.012099042974812634,0.0028451007193811923,0.005478559188744861,1000.0,0.9769156602864061
855,7.1150311338207715,4.784136931388399,-0.003805837647347061,-0.006673330735837916,-0.0015534658130682325,-0.006251220802853617,-0.014707115963516338,0.006392174751781139,1000.0,0.9053706692465548
856,1.2321737339384486,0.4242113262455527,0.003202005129027903,0.0010290322559671776,-0.00020092299018154572,0.006440854413391721,0.0020212203565984407,0.002852698338862755,1000.0,0.9651444850279906
857,2.9089067674136517,1.6682656698157734,0.014096524208182921,0.009794963092630166,0.0006992505059837951,0.028414675679745566,0.019368298921880606,0.012571603564967783,1000.0,0.92541024918285
858,5.877111213851309,3.4254424620801958,0.016857403984528146,0.006640446598733267,0.002314459022957133,0.03471449448858975,0.012281206677933077,0.015244575129616572,1000.0,0.9476089589288266
859,5.640395449328324,0.7484206672173183,0.000967694605593097,0.00421699493537756,-0.0022284920167007947,0.010700363507688968,-0.00033098442574765446,0.005434817926059089,1000.0,0.9539316990645317
860,6.42106269246621,1.1574855402074342,0.005085084681287443,0.001522352127013259,0.0010381189300919303,0.010731006488243787,0.0024838671283576178,0.004864917827973169,1000.0,0.9055091051900458
861,6.974393174091872,0.06279234590687743,0.006112123680505477,0.0041636411402208705,0.0004058194727957295,0.012386532924473125,0.00816499671697957,0.005453378966619262,1000.0,0.9044582078744104
862,2.4736601836181693,2.176279369705341,-0.00213752328512703,-0.0008959270196234712,0.0019390356680077216,0.0010385269267350812,-0.007105427536236084,0.0038387763829312157,1000.0,0.9840342123549312
863,4.8535989768075485,4.208511830712186,0.01564312684701094,-0.00775121475971577,0.0022965307174364377,0.03173287332120395,-0.015949049146613603,0.021020564776331647,1000.0,0.962429826201355
864,7.372029468480578,1.457093078164931,0.008653491670427482,0.0008594724457449262,-0.003850599127838577,0.020469934055346563,-0.0014440058230017483,0.010614401266904815,1000.0,0.9440237344658424
865,4.728692957883805,2.396346446516297,-0.0024034489673317406,0.006075569871675423,-0.0010827828941815322,0.012423317145770732,-0.005079075337083367,0.007797992993457013,1000.0,0.9294720448143203
866,4.9169771214334625,4.557421147539361,-0.0015264834106705075,0.0012727314551703999,-0.0016966566788352594,0.004145131926632939,-0.004652635837633154,0.00381165739148962,1000.0,0.9488583136267528
867,7.572201983444212,3.2056025786720617,0.00025203872057240296,0.0008161966305005532,-0.00012615881750046524,0.001686246949885601,0.00045022375226031126,0.0007561318955848323,1000.0,0.9178605654354342
868,3.2217149212991414,4.4147946326035585,-0.0007283500004119639,0.004144083313850747,-0.002212907374721972,0.009998167711010298,-0.0031667010841327304,0.0059508940896207665,1000.0,0.9484584436985738
869,5.557368720906398,1.6987696445166827,0.004684488254722805,0.009104173343536347,-0.003766872256219641,0.022523129107099617,0.005054194089418686,0.010234744215908328,1000.0,0.9394139729726307
870,4.197379918196217,1.101464313945113,-0.002622749822749881,0.0014755323433038848,-0.0004682353326041014,0.003056696651383729,-0.005351131610275721,0.0036856068022550893,1000.0,0.9809833912832371
871,4.564149062654748,1.5720327796821232,0.008340616988759004,0.005008922036631056,0.0005831559985102806,0.01687947881643876,0.009819599234341359,0.007341519205445474,1000.0,0.9055755622586718
872,8.873003627500909,4.1875746925822295,0.0013861244191746217,-0.005271760460297533,-0.001444512767420982,0.003372042624213055,-0.011143314706458877,0.00657875114045006,1000.0,0.9460912177915578
873,3.3594949843286925,0.6277528365626828,-0.002038576921274512,-0.011931691136235347,-0.002241838576213766,-0.003108543071235311,-0.024831993043784407,0.011716437157163676,1000.0,0.9543511670090232
874,5.2931136940767365,3.305984474471394,8.951627898495101e-05,0.009910851235725583,-0.0006474496930340401,0.019906698053943263,9.40369754778049e-05,0.00992992327119,1000.0,0.92408298421129
875,4.979417604209306,4.98356869154197,-0.00017582992936426975,-0.0033444401550638105,-0.0018525878485193903,0.0013550163387817918,-0.008395556507637953,0.004574318380707742,1000.0,0.9595578063516774
876,6.054008736155513,0.3181180920060489,-0.0021757103618811656,-0.0023100403064655016,-0.00031372846973579246,-0.0038440757156618373,-0.005127425621031498,0.0023106924986506646,1000.0,0.985163227222944
877,6.426749012826736,0.6813377580825125,0.014146562777172593,-0.005412480380368461,0.0007670692325901319,0.02835319935116523,-0.010885034557556968,0.01754290059768382,1000.0,0.910139902857717
878,0.6943224818828264,0.9513490606660041,0.0014112860758421992,-0.0031705352291782687,9.755910687402571e-05,0.002826724853183777,-0.006345223159855916,0.004067813612646871,1000.0,0.9777785139747799
879,5.67929667927725,3.10588223141228,0.002556060991538694,0.003581518653843583,-0.0003997357854066833,0.007437855850547395,0.004837303440217159,0.003268869779165524,1000.0,0.9429277779930554
880,9.821117137965661,0.8949015611987526,0.004647512708508086,-0.002110060355775068,0.0020256288843924115,0.010416378880393026,-0.005341474174926991,0.006940301040430165,1000.0,0.9837554243767083
881,5.673338025691624,2.7274266815515262,0.002734232494391452,-0.0017243119213051377,0.002783415999575027,0.008142117767044165,-0.006122276620871536,0.006197270568654472,1000.0,0.9474852938722987
882,8.44441086869488,3.586341265611103,0.015757904399281673,0.015515304868718254,-0.0031262820181825767,0.0375304779661682,0.02501594056983165,0.016548971664452038,1000.0,0.9193298119723834
883,3.604167440593551,3.812788170608984,-0.0017855454847212605,0.0027048697614979415,-0.0015075641631732137,0.006328097511791666,-0.004489448958238305,0.004706634701390006,1000.0,0.9507562602391199
884,7.582868364947714,4.429680754176827,0.0023455089131857714,0.000374228818836572,0.0018773749194411719,0.006960503177430091,-0.001521027713385404,0.0039162880390709,1000.0,0.9621431736920412
885,4.0578309663421654,2.5354265459196377,0.002047340623347684,0.0020653893089527405,-0.001205951397319129,0.006524700256710722,0.001700759607890129,0.0029311836360738125,1000.0,0.9550849679330415
886,3.159218803446459,0.5856509124470377,0.006243526880358993,0.001475118167520799,-0.0005929086794118132,0.012632287735454729,0.0028050023603048545,0.005744761412770664,1000.0,0.966998669206812
887,7.715932072608217,4.083144201597416,0.004922371802413087,0.005210157721900159,0.0029653338345206073,0.016070175500292765,0.004194883548333728,0.007218640345821313,1000.0,0.9106807475672762
888,0.8169913463070666,0.28183284091817473,0.0058258102507009685,0.010140190416410531,0.0019155434995313915,0.021735845015848815,0.010196156318374183,0.009417888414185165,1000.0,0.913250426332284
889,7.602210734308138,3.858694392506838,0.0066984687712677345,0.005603083053926192,-0.0006444713845747788,0.013993072836561735,0.010610030813826117,0.006322813995833428,1000.0,0.9821805461775267
890,5.306870207781098,4.661918974712474,0.00036181836142476953,0.005564356652470154,0.0022627694071652524,0.01282160148582582,-0.0009692514580359746,0.006666338368713528,1000.0,0.9798220143279766
891,2.064752465817963,0.7096539097621662,0.009889168713309153,0.005661583218891797,0.0007188799120762866,0.02001613348639711,0.011085370378004793,0.00868396198360111,1000.0,0.9483576365314784
892,8.265385367481478,4.572403491227954,0.005837043528852729,-0.00020365990974923007,-0.0008378150874818267,0.01190218210975434,-0.000635414871547342,0.006116136741218725,1000.0,0.9173350573286971
893,9.302730193054753,3.572945913928609,0.006824593733577389,0.00990698792610308,-0.0014786042371888024,0.0210031429572679,0.012460020362093037,0.009147192637521312,1000.0,0.9129996149142589
894,5.676348453311392,4.571288439791509,-0.004840165883592883,-0.005044380745724638,-0.003878352365202445,-0.002125154128315842,-0.0176439391303192,0.008341594242423861,1000.0,0.9092758736524038
895,5.934507312219833,3.0442234132574955,0.003960297716142806,0.00041596637536647915,-0.003040081649065043,0.011414067043079998,-0.002661538860061427,0.006475795290040559,1000.0,0.9408992053771972
896,4.384175881246518,4.405496190116822,0.0018652061896975687,0.003017085550246466,0.0005878787664707945,0.006528266173988328,0.003236317305899743,0.0028268563876905754,1000.0,0.9087659258612741
897,3.770809890975685,2.4098656735426047,-0.0010793556974703395,0.008553339009453185,-0.004233801471562009,0.020299313986830766,-0.005351347362865074,0.011718870970633039,1000.0,0.9575377478366269
898,4.602863399025008,4.997752970802021,0.003446875869867177,-0.002116109788785462,-0.0032369229353828364,0.00986642597336917,-0.00720489381120574,0.007421984366612672,1000.0,0.9262866214463416
899,5.569220131497853,1.5854397046591568,-0.003962458603397133,0.009247502455926771,-0.0014014905787249,0.018789108964853134,-0.008219021259793855,0.011989693617820046,1000.0,0.9060726981263317
900,1.912525450387681,1.8426273890370575,0.0029200436816145094,0.004566143709503829,-0.0005873469952092866,0.009508451289066064,0.005463923493170613,0.004132543268792457,1000.0,0.9585159894051101
901,6.86362517453856,2.12065957509713,0.004794199200280071,0.005054987505595282,0.001064293248093684,0.011993689215069596,0.007704684196681113,0.005263153802688388,1000.0,0.9287292554420454
902,3.1858619371642805,4.260945666926254,-0.002015858815957965,0.002047196385329466,-0.0009300761533395275,0.0044999597477115155,-0.0044372846089685124,0.0038699720464594727,1000.0,0.9490316295070407
903,0.2539427739422573,1.5603799945402703,0.014698504896398772,-0.0015044143978497288,-0.001872075076826633,0.029823980877894066,-0.0034357998807959776,0.01584095787958385,1000.0,0.9139014243030231
904,3.137032245086464,3.026482290964154,0.008877138976173333,0.005879625037365469,0.0009980873572971029,0.018358125326227753,0.011155402700849849,0.008010485223519105,1000.0,0.9281738407422432
905,5.3576789916095136,2.1371114913626643,0.006849213507496987,-0.002986216213518211,-0.0024047002931359015,0.014811331039177662,-0.00708533645122011,0.009676269729111385,1000.0,0.9526739137375595
906,7.603480567555691,4.645953718519912,-0.0010686974392270761,-0.0050197183833587955,-3.178002690411806e-05,-0.0021368836663953634,-0.01003994797877638,0.0045801917638057695,1000.0,0.9609835668216629
907,6.783369993008335,0.5891440618761906,0.005114578796819623,0.004309609000821331,-0.0011748036286636234,0.011907860609457034,0.006940514985824873,0.005179797475617842,1000.0,0.9015060181246678
908,3.445220541619075,2.608068925827027,0.009645670504734156,0.006943040203161905,0.0005413739287469799,0.01950016283181709,0.013677258583975031,0.008669126013617495,1000.0,0.9566573411154905
909,3.283216618887802,4.81714738392617,-0.0013072986179587156,0.005535429282318646,0.0012769207047642619,0.011531898942602118,-0.0030756376138822584,0.006669186271608991,1000.0,0.9403548259283779
910,6.861123583522422,3.67824418591838,0.005867816079146832,-0.00021791596412138424,-0.0010388644538746824,0.012080537090983499,-0.0007807368609326036,0.006244610617553373,1000.0,0.9115184588610677
911,3.898995166800665,3.3339292625675068,0.010428400609359952,0.013041066913304608,-0.0011492883090125385,0.02694933529094246,0.019989599754386658,0.012115530785437187,1000.0,0.9664512164597477
912,4.75519750553716,1.4513790014134853,0.0015289259542567608,0.0005354830409263745,0.00017453234107493718,0.0031173928385400777,0.0010114251518261927,0.0013773261616720745,1000.0,0.9802608631590334
913,6.884391796908558,2.3181420715256578,0.006431333483969438,-0.004128771753949655,0.0006048592531017752,0.012931731100209422,-0.008326607640169858,0.009276846379846502,1000.0,0.9268983117470417
914,5.425210008752188,2.455986033434932,-0.0013829530173450622,-0.002427813879673253,-0.0002624104290040534,-0.002641505953248458,-0.004980027840788172,0.002157745224029434,1000.0,0.917663571186895
915,5.313224910447019,0.7766766290503602,0.0038910277959207304,0.00040633789854228853,-0.005302372248897707,0.015459967073371677,-0.006865235684445638,0.009903009145522234,1000.0,0.9661923543790818
916,3.21417131082381,2.854213828864898,-0.00048793644263703554,0.0034446120255510644,0.0018508925746796231,0.008357430228948713,-0.002444079063120656,0.00490526204046725,1000.0,0.9337230529431229
917,1.8808892296152824,4.4468812397562,-0.0013408246663004072,0.0012552025844572694,0.003900527838417962,0.00813604606761233,-0.008307290231298604,0.007120302181442347,1000.0,0.91791558658344
918,7.1107669740741395,4.5711970936237325,0.013122522498244481,0.004897097857139679,0.0017118851549512307,0.026929155341087044,0.009110085369681276,0.011862189497902213,1000.0,0.9722309190529199
919,2.3905701601704554,3.9101003735158186,0.010343024620305202,-0.0003660410887888156,-0.0019748013793349645,0.021391161132771175,-0.0014371940697384,0.011072381759665675,1000.0,0.968558126862095
920,6.526998406183972,1.8920368662451292,0.00017703657958701422,-0.002945470835600839,-0.0010518709392943056,0.000996639773753806,-0.006533508285781456,0.0035423006499576944,1000.0,0.905656323183793
921,6.156791970885067,1.0238571353629156,-0.0036845185614467263,-0.0009640764354120332,0.004276371823064278,0.0043263829550638285,-0.013623572948781347,0.008112646349331856,1000.0,0.9180399626755374
922,9.187364952814898,1.6717333131267291,0.021417384742107304,0.007904822224102465,-0.0016010735829396195,0.043209002574806366,0.015435411357613171,0.01896260199836809,1000.0,0.9788695516184384
923,5.568212175225074,4.936448012397902,0.005578245479402678,0.0003245483878590923,-0.0006383793445014493,0.011309405179316478,0.0004961825552070621,0.005534828657652758,1000.0,0.9538989681085162
924,5.700495097322609,2.0849129157650625,0.004744623576184586,-0.0004594344620639833,4.924114398626048e-05,0.009490178914927504,-0.0009198006866862974,0.0049909568777762765,1000.0,0.922584257126631
925,3.4364179194069413,1.8387334138817142,0.0032774676842181032,0.004125034255592356,-0.002422955243767463,0.012321975239474977,0.0024830286401459423,0.005643595653642142,1000.0,0.9747121360451839
926,5.04766470308741,0.05352062395070356,-0.0116823556226144,-0.010561469569642032,0.0023577918800401594,-0.01739685544383823,-0.027090794940674633,0.011887673304834565,1000.0,0.9473617021132168
927,8.692787999930623,3.9046208639454365,0.0014744452505979079,0.0033644592915337396,-0.0014722984581845395,0.008337876401810556,0.0013399326824527391,0.0038776091020220477,1000.0,0.9857777522534759
928,7.6633614426657815,3.6500515171011685,0.006485064728477864,0.006449039905429748,-0.0004482249663841486,0.013831278123170383,0.012036931144644842,0.006513559385819289,1000.0,0.9642045903031804
929,2.2879900905291963,3.834600152410623,-0.0006585648316682871,-0.002107061277436573,0.00349966113036225,0.004382006650269174,-0.009913258868478896,0.006342606916008455,1000.0,0.9665827071279841
930,2.704046728477657,0.8311655221109093,0.002328798301668513,-1.0300437576552229e-05,0.00042090331384761357,0.0048044627291633606,-0.00016746700097943932,0.0024451736276237816,1000.0,0.9149010115391276
931,9.144767781507015,4.019363167489101,-0.001742342160698412,-0.006898087862248744,0.0015988158029832647,-0.0025735888657607555,-0.014707271180133555,0.00680214517378597,1000.0,0.9825101034816718
932,0.6080509735145445,4.322985344449921,0.0019400044127930289,-0.003684708540892657,-0.00334252360879467,0.006991842793468329,-0.010481251049667585,0.007616195717562731,1000.0,0.9774809250070611
933,9.395305895406858,1.8945945901339383,0.011269226577540058,-0.0038874872836466177,0.002223164197201775,0.023177175700044666,-0.008413697112257788,0.01416842888948271,1000.0,0.9509140129942044
934,9.83761067932792,0.4270414097984726,0.004023707167954254,0.005140377749833622,-0.002511830629652378,0.014310357902839705,0.004017811932736049,0.006392042500063066,1000.0,0.9743318131583039
935,7.597018536148372,4.0211541409450415,0.004806569981985604,-0.0013310025334832875,0.002549650734413748,0.011455083214050085,-0.004503948317045452,0.007125615493537472,1000.0,0.9132951698010042
936,3.304930851153838,4.222639522253508,0.008400557267193472,-0.005093687121694443,0.0027005309339607456,0.017841865877460856,-0.011228125586462797,0.012695803371032084,1000.0,0.915139425958076
937,6.94123202853064,3.462593523107893,0.010179129177711348,0.00407909284224958,0.0032481020918505533,0.023169513289484644,0.005346930750437212,0.010506310382829067,1000.0,0.9699243338886862
938,6.3781694401036395,4.081797073737905,0.00299234888141153,0.009841792550664311,-0.001792996950013046,0.020565521052123698,0.005102761812027983,0.009274129053264244,1000.0,0.9490960243958143
939,4.431801198338633,2.942906001975601,-0.0017680111450743604,-0.0022742839793634933,-0.0014159306667836451,-0.0011655346555609846,-0.006919055593314722,0.0032080914208814262,1000.0,0.9578371846420166
940,0.496021353903372,4.887965853836341,-0.005960762387203984,-0.002386019992715811,0.0015114030494130081,-0.003665314672239777,-0.013028250087599811,0.00581844471899261,1000.0,0.9414796157610807
941,0.875625370666554,3.829577178728632,0.0014752159838023178,-0.0038268087596161505,-4.207090856223175e-05,0.0029510995804529986,-0.007654285132080664,0.0047404015457261596,1000.0,0.9506160957905869
942,7.698728224038093,3.497896600762089,0.008802878277935404,0.00875954807160167,0.0026126306996514166,0.022787867402484195,0.012336985296589949,0.009878695787860733,1000.0,0.9656233046361941
943,9.378300709113308,0.9253424412538064,-0.0056665512024514616,0.0013195392180059629,0.00030155937776399144,0.0026650641415015535,-0.01135908811039255,0.006449886587784754,1000.0,0.9564164711648644
944,0.8342319187820213,4.319510940082214,-0.0013044742718976276,-0.0005970963977297518,-0.000851627779887262,-5.7265120439531315e-05,-0.0037458762188152276,0.001858787231495471,1000.0,0.9221453598295406
945,2.678897719875293,4.312151680967491,0.0028022715190933432,0.0036492671411256523,-0.0015721849170168645,0.00970798814346347,0.0031950891769745218,0.004284732803660863,1000.0,0.9058556525750899
946,8.553504438512721,1.0345115397120708,0.0015736962548886593,0.003120016827507265,0.0014707339872521655,0.008016865374774074,0.0013705607900177759,0.0037135214411279857,1000.0,0.9107032911516371
947,8.431623979906236,0.2269863253862736,0.0038322434082746944,0.003448495574472788,0.002058384426370459,0.01141535482788297,0.0031461231376119963,0.0051062291540684675,1000.0,0.9420603583477458
948,5.035299056136093,0.30567033372423447,-0.00741830175358155,5.891196877966861e-05,-0.003461481317087625,0.0028306120152005896,-0.017549391584804352,0.009561237211480625,1000.0,0.9686671506317399
949,7.15740955927222,0.687322010937364,0.0033328724459773676,0.0008729707954613503,-0.0009037396165605991,0.007258399106345341,0.0011532873765320948,0.003377995311448908,1000.0,0.9519244515397921
950,5.0028118705438,4.700107699489873,0.002214128421182153,0.003905791167808297,0.000785061736958316,0.00842795134173276,0.0038118878362481397,0.003654943484197439,1000.0,0.9761747956650453
951,4.317184989746329,4.193404678044186,0.012106633190163994,0.00580552610099688,0.0048490418733357936,0.02947748587135772,0.006346832710964027,0.013436106087625835,1000.0,0.96286993118446
952,0.4921571104766731,4.515574823664633,0.004802018457943858,0.000323329642073418,-0.0019416025624005844,0.011053074101671286,-0.000802377901636734,0.005737660668739608,1000.0,0.966575712160209
953,0.9678952092436022,0.5968114318596368,0.013453149171223179,0.0011889268480077706,0.0012157769167779292,0.02714501980214605,0.0021391322363158525,0.013070589120896044,1000.0,0.9581362755091488
954,6.469130693503615,0.29352276627363894,-0.001957973489157219,-0.0006123438185264289,-0.0020799144544555526,0.0018017412191312075,-0.006942375834498504,0.003998475282775347,1000.0,0.9032643695154529
955,6.241698084899533,2.874981712274674,-0.000526498001861398,0.0006639863965344605,-0.0005011165619438849,0.0016936774376372478,-0.0014187006482911228,0.0013494513765781944,1000.0,0.9324761950790595
956,6.830510984312822,2.126016051499406,-0.00040200959767152386,-0.009072560379897922,0.0006287644828875188,-0.0007133012357187513,-0.01823583871942014,0.00894492825796622,1000.0,0.9668859838033411
957,1.6741563249777947,0.13556139452838123,0.003953107203524006,-0.0013768107914541115,0.0003464694284426668,0.007951069904280808,-0.0027984770801410203,0.004829644745748996,1000.0,0.9472574385708921
958,1.5147329221537043,0.743003898387945,-0.0016579274361614785,0.006206267849370532,0.000519772613074184,0.012480945393049645,-0.0033842645666315382,0.007236471270809517,1000.0,0.9674934199797348
959,9.992097930824455,3.4763495043489003,0.004340485091564977,0.012336283348822712,0.00382704311438795,0.02774554550781039,0.005607991372964988,0.01270499983194824,1000.0,0.9502189882272009
960,0.12245724640790101,0.03909693223974775,-0.0011215617743635105,1.1452654569428511e-05,0.0020165873751157594,0.0030791891820788355,-0.005299407421666999,0.0036702521386164986,1000.0,0.9313510034182071
961,1.7494860320030259,1.5770327299823583,0.013778156104721679,0.008828239863798472,-0.002876611037746344,0.030195943718030114,0.015016848219010188,0.013075290090584982,1000.0,0.9211626851229924
962,2.2436626344746036,2.3117965519233157,-0.007166784798003976,0.004619467234221818,-0.0033962454200380785,0.011056125705466446,-0.016150760833030763,0.011849576291050965,1000.0,0.9589093257693875
963,8.947364660936886,2.3536340417154755,0.005382609371888419,0.0033332832188926152,-0.0024501159937440945,0.01402739061041307,0.0034043945711489994,0.006336458342238525,1000.0,0.9541799648809732
964,4.498188482911844,1.3757630639046954,0.0143869557899471,0.01330245735118624,-0.0005332430874878981,0.02921044227467722,0.02616838400758946,0.013907230034910218,1000.0,0.9865028777190487
965,5.1765355219840785,2.296406246354787,0.0051608445233044965,0.000567006796599283,-0.00382369600334459,0.014648947080138263,-0.003193244440330704,0.00823963180962512,1000.0,0.9497973839830947
966,9.719201941590182,1.4490850306101688,0.006903946904439372,0.006254103311323698,0.002054682703172657,0.017318480570712072,0.008997619860814068,0.007501030390814415,1000.0,0.9788670405669141
967,2.9674121667079323,0.07429997738710559,0.003579693795802679,0.00020517253331223096,-0.001833930583739901,0.008768900768693594,-0.0011991681104637749,0.0047129346222387555,1000.0,0.9702430023789299
968,2.3374769127173467,0.3486887964444746,0.003567818942223666,0.004059531257477989,-0.002601573281033861,0.012853679231376747,0.002401021168026562,0.005918615051489635,1000.0,0.9490379683020255
969,7.387637756718649,0.8199951362883956,-0.006477666166803562,0.0026790949570533883,0.001952585966018014,0.006156158424857689,-0.013753300844358038,0.008827783831885028,1000.0,0.9016917227287723
970,3.329070016364758,1.8711985582333308,0.0002970221025579826,-0.0006419945102983178,0.0015941731365243725,0.002978776102012462,-0.0036687209174931326,0.0028836139838037435,1000.0,0.9486753867329865
971,4.7958950955654895,0.9030883251903277,0.0033569771629913866,0.003918272239228308,-0.0002318803959086937,0.00800334708428914,0.006547151720150248,0.0036918705478524946,1000.0,0.932632850299295
972,4.655388074071565,2.5769975579616853,0.011003278371760914,-0.00441809382550968,0.0007319599542268179,0.0220758843995541,-0.00890551530705163,0.01381348979569915,1000.0,0.9294821169697698
973,3.895067362586947,1.1786382101281374,-0.0017122874392269155,0.003342978319537549,-0.002294058547696842,0.008457588446026721,-0.005196206685405453,0.005968223015803552,1000.0,0.9061484639315417
974,2.313309400009752,0.6196495154676124,0.0022631211531761427,-0.001141739925609527,-0.003507944925672318,0.008919829109807683,-0.006677066654674451,0.006776888371030419,1000.0,0.9015118430938581
975,9.284845179892093,1.8036620068942582,0.005894664211243777,0.005250152741209892,0.0012080907522748806,0.013645482483454085,0.008644151421453255,0.005978438951714307,1000.0,0.9370720382190005
976,6.411305774863757,4.436861048477641,0.01520799483018547,0.004395714192717688,-0.004049003375536362,0.033112340556992026,0.006095077488814294,0.015262329321125877,1000.0,0.929666395860068
977,9.294515454055889,4.3169643443185315,-0.0017410170198703637,0.0014813953027991804,0.002470867453224671,0.005639927847337307,-0.006159171281479674,0.00511080861079517,1000.0,0.9165235847518239
978,3.3296362360179943,4.9557652457176795,0.005922611048571338,0.002745746429248454,0.0006029250019158695,0.012066377937035208,0.005270337018604377,0.005238798776604564,1000.0,0.9147303335639418
979,2.153204564666221,4.366188744158485,0.00791409608636004,0.005445111366830104,0.0012838836864872362,0.016921413908041482,0.009797000998338804,0.007357587380696281,1000.0,0.9305084144984866
980,6.234594263834899,1.1071520924895262,-0.0028470929088661827,-0.001649206330863949,-0.0009757221529338514,-0.0022065247677217244,-0.00678607371173854,0.0029977453298763515,1000.0,0.9854077497380407
981,9.436679442089197,4.5517510954705624,0.003796400735722361,-0.0018841621041026041,0.0017446676115905199,0.008578891050707776,-0.004754413787468263,0.005852123973717907,1000.0,0.9497416252484202
982,3.3855934593147174,1.8348192260793361,0.0012764394801494032,-0.00011284291861821181,-0.004492202010358106,0.010254780268342265,-0.007927587145279883,0.007894663079115039,1000.0,0.9173256485846158
983,7.062636663362467,0.9048319623632955,-0.004115766908039078,-0.004994323916227113,0.002669512198129008,-0.0036992642773812714,-0.014520917371151111,0.006534999743454524,1000.0,0.9791548348492589
984,4.293244610218788,2.7068520311142725,0.004143084132561068,0.0037810031851503944,-0.0023669028471006927,0.012671720302992788,0.0031764543324301377,0.005709886529247089,1000.0,0.9492249231371371
985,2.6712969777612248,0.023599581084683408,0.0008453498646122709,0.0013135478569446554,-0.004387792773868833,0.010946964122403376,-0.006629168679289524,0.00768685847029205,1000.0,0.9695757107352828
986,8.77783129172727,3.67756774388242,0.012112433865323843,0.006979498559586916,-0.0003225938331870785,0.024265257465706278,0.013918607384115239,0.010545043381258855,1000.0,0.910847750653091
987,8.276629598727565,3.6734184293700816,0.005753966635404116,0.006312799384241155,0.0026133857463723773,0.017323327089255516,0.0068102049500350275,0.007558127165649103,1000.0,0.9639540002247642
988,1.6338074095552713,1.3466407405134306,0.00319905965298273,0.01934668869765866,-0.0025685159976590313,0.03949080726129092,0.005600689439991858,0.01850483607835124,1000.0,0.9146275254067979
989,5.107160672628435,0.8603178063034789,0.009799045773928775,-0.002898553746985054,-6.919805175639042e-05,0.019598845742090365,-0.005797861688202923,0.011525638284264887,1000.0,0.9715169459374071
990,2.341066920425119,4.361557366069631,-0.00012977394292179546,-0.003966847048347155,0.0013743544622492824,0.0006233928612527414,-0.008816634843790644,0.0045721410698406776,1000.0,0.9010411108419738
991,2.9201590435609424,1.4069374438509397,0.01613253845724627,0.004652362979457211,-0.00023658127138758832,0.03227482362063122,0.009294979252775741,0.014388077209200182,1000.0,0.9580089656515648
992,9.140595604175704,3.2552813137503107,0.0021132146383527695,0.0029874763728617447,0.00072300922409846,0.006790455176106311,0.0034109268463227184,0.0029403638206326596,1000.0,0.9430611874215625
993,0.8818531267743623,1.5274698134109554,0.004125778792295602,0.011384728105982525,0.002831940566110555,0.0247176722936974,0.006303341502858852,0.011123078576740253,1000.0,0.9621937432109913
994,4.485570840748025,4.697899405199309,-0.00022320306650489008,0.0020756788403757213,0.0014077520691612507,0.005487296481236487,-0.0017823449334948248,0.003281289046124283,1000.0,0.9255693855208766
995,7.6177450949327055,2.64103176871839,0.00034742175634228665,0.010901857755708674,-0.0006147713773612505,0.021875092170403815,0.0006234668536981066,0.010785058802476283,1000.0,0.9249796631892103
996,5.546331518814168,2.713681979267329,-0.008143723815826676,0.0034466855515834804,-0.001398743736982111,0.007226196425686202,-0.016620272954172594,0.010589531916817337,1000.0,0.9344947693310667
997,0.5812234373678749,4.3765078397251065,0.0004252831486812722,0.0003433436830621473,0.002745553942097095,0.006260346040869605,-0.0047230923773827664,0.00477147060197725,1000.0,0.9693349464179761
998,6.9562124555016736,4.356525777981681,0.0053864726608877245,-0.0002081336050996955,0.0021097881207400426,0.012185795293902464,-0.0018291171823264056,0.0065978883774274015,1000.0,0.9170080473465086
999,0.3759036026056939,4.044057103441223,0.003760050183423368,-0.0007473766364697509,0.0015635333236699762,0.008498604858371736,-0.0024732577644645017,0.00498403774467317,1000.0,0.9015034645156604
1000,4.819901858726357,1.946939123649409,0.01284962702602812,-0.0030296453018268795,-0.0016412858798136966,0.026034992270583403,-0.0063950288221809246,0.01487625408261015,1000.0,0.941667981562388
