Current_Density_A_per_m2,Anode_Overpotential_V,Ni_Oxidation_Risk_V,O2_Chemical_Potential_Gradient_J_per_mol_per_m,Oxidation_Fraction,Volumetric_Strain,Von_Mises_Stress_Pa,Electrolyte_Stress_Pa
1000,0.42206331724616813,2.7761752140226137,-1583789888.976037,1.0,0.24499999999999997,10694444444.44444,3208333333.333332
3000,0.4728614526795595,2.8084779670751696,-1583789888.976037,1.0,0.24499999999999997,10694444444.44444,3208333333.333332
5000,0.49648124074449285,2.8136023727592674,-1583789888.976037,1.0,0.24499999999999997,10694444444.44444,3208333333.333332
7000,0.5120391974259225,2.810664947059861,-1583789888.976037,1.0,0.24499999999999997,10694444444.44444,3208333333.333332
