timestamp,time_min,temperature_C,region,strain_xx,strain_yy,strain_xy,von_mises_strain
0min_1200C,0.0,1200.0,anode,0.0050993428306022465,0.004472347139765764,6.476885381006925e-05,0.004817856362816158
0min_1200C,0.0,1200.0,electrolyte,0.004304605971281605,0.003553169325055333,-2.3413695694918056e-05,0.0039826242014955274
0min_1200C,0.0,1200.0,cathode,0.005315842563101478,0.004653486945830582,-4.694743859349521e-05,0.005018219915785387
0min_1200C,0.0,1200.0,interface_ae,0.007608512008717192,0.006657316461437507,-4.657297535702569e-05,0.007180776583207657
0min_1200C,0.0,1200.0,interface_ec,0.007548392454313207,0.00636734395106844,-0.0001724917832513033,0.0070389876294213085
1min_1203C,1.8181818181818181,1203.030303030303,anode,0.004889815164150106,0.004299479178931587,3.1424733259527386e-05,0.004623323220813416
1min_1203C,1.8181818181818181,1203.030303030303,electrolyte,0.003820213320894399,0.003319175582131719,0.00014656487689215542,0.0036049190529506584
1min_1203C,1.8181818181818181,1203.030303030303,cathode,0.004957117409900994,0.004515551043936056,-0.0001424748186213457,0.004758150352034608
1min_1203C,1.8181818181818181,1203.030303030303,interface_ae,0.007394532460092414,0.0067752526224396795,-0.00011509935774223028,0.007107958676423047
1min_1203C,1.8181818181818181,1203.030303030303,interface_ec,0.007578548608666586,0.006632940366513945,-2.916937497932768e-05,0.007152956625826117
3min_1206C,3.6363636363636362,1206.060606060606,anode,0.004888658681208584,0.0048785556401908054,-1.3497224737933921e-06,0.00488361555805409
3min_1206C,3.6363636363636362,1206.060606060606,electrolyte,0.003795657817132391,0.0037709889850518516,-0.00012208436499710224,0.0037892883431112304
3min_1206C,3.6363636363636362,1206.060606060606,cathode,0.005050772722655415,0.004116165978513063,-0.00013281860488984306,0.004660067698843766
3min_1206C,3.6363636363636362,1206.060606060606,interface_ae,0.00755287225265552,0.0069098433209326075,1.713682811899705e-05,0.007252829179605405
3min_1206C,3.6363636363636362,1206.060606060606,interface_ec,0.007490370349004047,0.006701929265815668,-0.00014785219903674276,0.007133523141739109
5min_1209C,5.454545454545454,1209.090909090909,anode,0.004876080194277821,0.004425916378169129,0.00010571222262189158,0.004670898829613936
5min_1209C,5.454545454545454,1209.090909090909,electrolyte,0.004084762886679102,0.0032618272748163226,3.24083969394795e-05,0.003742213907405064
5min_1209C,5.454545454545454,1209.090909090909,cathode,0.004943032579873499,0.004382659732299895,6.11676288840868e-05,0.004689229361848885
5min_1209C,5.454545454545454,1209.090909090909,interface_ae,0.007736273458434334,0.006963322222364869,-8.392175232226385e-05,0.007381649347285954
5min_1209C,5.454545454545454,1209.090909090909,interface_ec,0.0074682310787649005,0.006843318884822342,9.755451271223593e-05,0.007178199821439819
7min_1212C,7.2727272727272725,1212.121212121212,anode,0.0049394559231300764,0.004494629898296458,-0.00011063349740060283,0.004736624935334073
7min_1212C,7.2727272727272725,1212.121212121212,electrolyte,0.0037889912917431733,0.003787914519382217,0.0001356240028570823,0.003795728902029016
7min_1212C,7.2727272727272725,1212.121212121212,cathode,0.005020888746383068,0.004732468273207626,3.616360250476342e-05,0.004883472789250308
7min_1212C,7.2727272727272725,1212.121212121212,interface_ae,0.0074239122051276765,0.006869921661545515,0.00015380365664659692,0.0071679542052241665
7min_1212C,7.2727272727272725,1212.121212121212,interface_ec,0.007545770948226711,0.007110571271606633,-0.00026197451040897447,0.007351872742194812
9min_1215C,9.09090909090909,1215.1515151515152,anode,0.005218980562893353,0.004566549469464111,-2.9900735046586747e-05,0.00492555391952686
9min_1215C,9.09090909090909,1215.1515151515152,electrolyte,0.004062032204921747,0.0032417982617330035,-2.1967188783751193e-05,0.0037205537672135498
9min_1215C,9.09090909090909,1215.1515151515152,cathode,0.005126022576320658,0.00484471886476478,-5.182702182736474e-05,0.004992126618528465
9min_1215C,9.09090909090909,1215.1515151515152,interface_ae,0.007420201372448825,0.00672335867500781,9.154021177020742e-05,0.00709925375260304
9min_1215C,9.09090909090909,1215.1515151515152,interface_ec,0.0076476503149593995,0.006717758042971309,5.1326743311335615e-05,0.007228254793128878
10min_1218C,10.909090909090908,1218.1818181818182,anode,0.005097271009336424,0.004763798947626712,-7.020530938773524e-05,0.004940482187234826
10min_1218C,10.909090909090908,1218.1818181818182,electrolyte,0.003996751970253899,0.003577634328989676,-0.00014635149481321186,0.0038129821571256457
10min_1218C,10.909090909090908,1218.1818181818182,cathode,0.00513707955487973,0.004622281003956112,5.11345664246089e-07,0.004900004446404933
10min_1218C,10.909090909090908,1218.1818181818182,interface_ae,0.007569865822525194,0.006572030775870118,-4.2064532276535906e-05,0.007123929688718369
10min_1218C,10.909090909090908,1218.1818181818182,interface_ec,0.0075482403458948695,0.006694649470435877,-1.6128571166600916e-05,0.007159764033085049
12min_1221C,12.727272727272727,1221.2121212121212,anode,0.005185749467879418,0.0049716825471069655,1.7457781283183896e-05,0.005082188415641074
12min_1221C,12.727272727272727,1221.2121212121212,electrolyte,0.004135461515357761,0.003660667110338654,-0.00019187712152990416,0.003933754970976033
12min_1221C,12.727272727272727,1221.2121212121212,cathode,0.005099636521426667,0.004606491408853065,0.0002463242112485286,0.004890465292528118
12min_1221C,12.727272727272727,1221.2121212121212,interface_ae,0.007618936751818541,0.006951977518764012,-3.471176970524331e-06,0.00730832044872779
12min_1221C,12.727272727272727,1221.2121212121212,interface_ec,0.007423673337250859,0.007120232613200293,7.519330326867742e-05,0.00727786502878562
14min_1224C,14.545454545454545,1224.2424242424242,anode,0.005293943571798601,0.004440285973192045,0.00014027943109360994,0.004928933924973033
14min_1224C,14.545454545454545,1224.2424242424242,electrolyte,0.0038282195333535374,0.0038151021900808485,0.00021904556258099786,0.003840463990973119
14min_1224C,14.545454545454545,1224.2424242424242,cathode,0.004937629917363854,0.004508903918230438,9.965136508764123e-06,0.0047378690120499925
14min_1224C,14.545454545454545,1224.2424242424242,interface_ae,0.0076029106427617475,0.006623112510013262,6.856297480602733e-06,0.007163454334186206
14min_1224C,14.545454545454545,1224.2424242424242,interface_ec,0.007491145030839767,0.007027963682353524,-9.194242342338032e-05,0.007272371855539662
16min_1227C,16.363636363636363,1227.2727272727273,anode,0.005480125178124239,0.004496473808941411,-3.220615162056756e-05,0.0050608221721236074
16min_1227C,16.363636363636363,1227.2727272727273,electrolyte,0.004298814081170519,0.0034763267106401353,2.2745993460412944e-05,0.003952482742503311
16min_1227C,16.363636363636363,1227.2727272727273,cathode,0.005431566847977217,0.004331627820496413,1.8463385853230422e-05,0.004973772674902929
16min_1227C,16.363636363636363,1227.2727272727273,interface_ae,0.007807184004530781,0.007136051275468449,-0.0001236950710878082,0.007497251891540104
16min_1227C,16.363636363636363,1227.2727272727273,interface_ec,0.007491116123064241,0.007084075014236366,2.969846732331861e-05,0.007296297486897204
18min_1230C,18.18181818181818,1230.3030303030303,anode,0.0052581336598146785,0.004756521222670348,-6.800247215784909e-05,0.005027515528598836
18min_1230C,18.18181818181818,1230.3030303030303,electrolyte,0.004212878811228603,0.003808399759276499,-7.143514180263678e-05,0.004027808199562789
18min_1230C,18.18181818181818,1230.3030303030303,cathode,0.005581189991974454,0.0047819981649533105,-0.00011913034972026487,0.005231684623228778
18min_1230C,18.18181818181818,1230.3030303030303,interface_ae,0.007943363356345021,0.006835911037110965,7.87084603742452e-05,0.0074528626006389025
18min_1230C,18.18181818181818,1230.3030303030303,interface_ec,0.008043771750419737,0.006866710907486088,9.633761292443219e-05,0.00752645801495599
20min_1233C,20.0,1233.3333333333333,anode,0.005331879404922909,0.004888802929580947,0.00018967929826539475,0.005135246744464403
20min_1233C,20.0,1233.3333333333333,electrolyte,0.004150380952427914,0.0036287654851941418,-8.895144296255234e-05,0.003918747111495009
20min_1233C,20.0,1233.3333333333333,cathode,0.005086161162542522,0.004708970555699228,3.411519748166439e-05,0.0049088030567483705
20min_1233C,20.0,1233.3333333333333,interface_ae,0.007929322989169419,0.007252022996180278,1.300189187790702e-06,0.007613302372399012
20min_1233C,20.0,1233.3333333333333,interface_ec,0.008164691644734878,0.007033654979725482,0.0002720169166589619,0.007676512723323921
21min_1236C,21.818181818181817,1236.3636363636363,anode,0.005419034929729207,0.0045930798028753295,-0.00010708924980611124,0.005060302963327736
21min_1236C,21.818181818181817,1236.3636363636363,electrolyte,0.004331615651189603,0.0037669164942616983,7.14000494092092e-05,0.004080565338561586
21min_1236C,21.818181818181817,1236.3636363636363,cathode,0.005388548985090915,0.004749945531627212,-8.46793718068405e-05,0.0051014351247949345
21min_1236C,21.818181818181817,1236.3636363636363,interface_ae,0.007637882745327136,0.0070574639808244745,8.563987943234724e-05,0.007366340399000129
21min_1236C,21.818181818181817,1236.3636363636363,interface_ec,0.00798367093909035,0.0068976192154954815,1.73180925851182e-05,0.007499915344520777
23min_1239C,23.636363636363637,1239.3939393939395,anode,0.005418735082751517,0.004630732958884947,1.537251059455279e-05,0.005070933980306563
23min_1239C,23.636363636363637,1239.3939393939395,electrolyte,0.0042849790291338,0.0036174094973340154,3.577873603482833e-05,0.003993746770829347
23min_1239C,23.636363636363637,1239.3939393939395,cathode,0.005453828512079396,0.005024114694760229,0.0001053802052034903,0.005255342890619185
23min_1239C,23.636363636363637,1239.3939393939395,interface_ae,0.007736973536617204,0.007023691661204736,5.150352672086598e-05,0.007406675731101366
23min_1239C,23.636363636363637,1239.3939393939395,interface_ec,0.008115264600391064,0.007314266206448971,0.00038527314906547215,0.007774581033618613
25min_1242C,25.454545454545453,1242.4242424242425,anode,0.005506716487968733,0.00508039767528321,9.540017634932024e-05,0.0053089886941782155
25min_1242C,25.454545454545453,1242.4242424242425,electrolyte,0.0044443089589252405,0.003819573788869603,7.589692204932675e-05,0.004169285438799236
25min_1242C,25.454545454545453,1242.4242424242425,cathode,0.005237973342922586,0.004805920825899088,-4.853635478291035e-05,0.005036568463242517
25min_1242C,25.454545454545453,1242.4242424242425,interface_ae,0.008105182406622415,0.007742858534205338,-0.00018672651925917482,0.007936823025361885
25min_1242C,25.454545454545453,1242.4242424242425,interface_ec,0.008226059616820054,0.006957383646632706,-4.719318657894335e-05,0.007671249765338031
27min_1245C,27.272727272727273,1245.4545454545455,anode,0.005664199486822157,0.004914624434504909,-0.00010777447779293062,0.005332365513830926
27min_1245C,27.272727272727273,1245.4545454545455,electrolyte,0.004214066752090954,0.004057334294335588,-7.303666317171367e-05,0.004139860586746108
27min_1245C,27.272727272727273,1245.4545454545455,cathode,0.005489701085345079,0.004910882798666578,-6.516003476058171e-05,0.005225614483410141
27min_1245C,27.272727272727273,1245.4545454545455,interface_ae,0.008598402869008091,0.0074794364504923265,-0.00020251425866576073,0.00810471034369099
27min_1245C,27.272727272727273,1245.4545454545455,interface_ec,0.008206904914096912,0.0072202953530750465,8.52433334796224e-05,0.007762182368251251
29min_1248C,29.09090909090909,1248.4848484848485,anode,0.005344690732985527,0.0049299281043114805,5.0498727898045715e-05,0.005150594087685521
29min_1248C,29.09090909090909,1248.4848484848485,electrolyte,0.004575706943371679,0.003722241032672734,-3.345012358409484e-05,0.004214693930896069
29min_1248C,29.09090909090909,1248.4848484848485,cathode,0.005408205818439877,0.0048222095460901185,0.0001765454240281097,0.005149407559743597
29min_1248C,29.09090909090909,1248.4848484848485,interface_ae,0.008335788663200294,0.007177136298040283,9.178619470547762e-05,0.007822713135949313
29min_1248C,29.09090909090909,1248.4848484848485,interface_ec,0.00867922356041063,0.007635806141017522,-0.00015193699659540134,0.00821162852458291
30min_1251C,30.909090909090907,1251.5151515151515,anode,0.005465961116599976,0.005259909367893228,-7.076694656187808e-05,0.005367302980740563
30min_1251C,30.909090909090907,1251.5151515151515,electrolyte,0.004539010230567827,0.004160148521130591,-9.26930471578083e-05,0.004364890479261223
30min_1251C,30.909090909090907,1251.5151515151515,cathode,0.005550902859960866,0.004358273670042089,-0.00010243876413342899,0.005064207664123446
30min_1251C,30.909090909090907,1251.5151515151515,interface_ae,0.008293698266481209,0.007260234070690886,0.00016324113039316353,0.007833401685747608
30min_1251C,30.909090909090907,1251.5151515151515,interface_ec,0.008058183621167714,0.0074217818097444595,1.3074057728609135e-05,0.00775961343609993
32min_1254C,32.72727272727273,1254.5454545454545,anode,0.005913418779009996,0.004775475278841208,0.00011631637521549596,0.005438279976206062
32min_1254C,32.72727272727273,1254.5454545454545,electrolyte,0.004502177909161336,0.0038538164370520867,4.621034742632708e-05,0.004216319012598811
32min_1254C,32.72727272727273,1254.5454545454545,cathode,0.005664976060311467,0.004942604333645338,6.9802084990018915e-06,0.005340571346505093
32min_1254C,32.72727272727273,1254.5454545454545,interface_ae,0.008360683462422807,0.007616675032665894,6.621306745210468e-05,0.008015441974009422
32min_1254C,32.72727272727273,1254.5454545454545,interface_ec,0.00875494954502423,0.007346408463850275,0.00021330333746562668,0.008150945856575465
34min_1257C,34.54545454545455,1257.5757575757575,anode,0.005299764012248314,0.005090806395930416,5.8831720648457656e-05,0.005199434520210462
34min_1257C,34.54545454545455,1257.5757575757575,electrolyte,0.004608343631269257,0.003972390827985907,-2.0812225035727523e-05,0.004325722758938445
34min_1257C,34.54545454545455,1257.5757575757575,cathode,0.005591581385221047,0.00500329046354869,8.496020970210247e-05,0.005323912728534609
34min_1257C,34.54545454545455,1257.5757575757575,interface_ae,0.00860667545542223,0.007543163203354168,8.995998754332508e-05,0.008128769544459217
34min_1257C,34.54545454545455,1257.5757575757575,interface_ec,0.008596732262404542,0.00784431754617409,6.296288419236123e-05,0.008247030896346786
36min_1260C,36.36363636363636,1260.6060606060605,anode,0.005591981847219829,0.005069966556424425,7.472936051232619e-05,0.0053516739759937705
36min_1260C,36.36363636363636,1260.6060606060605,electrolyte,0.004728298732610088,0.0041414218927782265,1.17327383308782e-05,0.0044639351791221395
36min_1260C,36.36363636363636,1260.6060606060605,cathode,0.0060133138285619284,0.005063688486696654,5.47097381170038e-05,0.005600028192503145
36min_1260C,36.36363636363636,1260.6060606060605,interface_ae,0.008596232743619587,0.0077294679060502846,0.00010987768519871902,0.00819950033267312
36min_1260C,36.36363636363636,1260.6060606060605,interface_ec,0.00880175454390397,0.007935706073895855,0.0001305478807154329,0.008405314104474648
38min_1263C,38.18181818181818,1263.6363636363637,anode,0.00583208565764499,0.005381486994645588,-3.102667565934561e-05,0.00562060674991409
38min_1263C,38.18181818181818,1263.6363636363637,electrolyte,0.00472714118195244,0.004170048509435739,9.69959649927182e-06,0.004474711446784208
38min_1263C,38.18181818181818,1263.6363636363637,cathode,0.005946916294405821,0.0050814522637399,0.00020923872756854604,0.005576678383249313
38min_1263C,38.18181818181818,1263.6363636363637,interface_ae,0.008540623857677718,0.007624806878022347,0.00011581108735000679,0.008124011625835321
38min_1263C,38.18181818181818,1263.6363636363637,interface_ec,0.008900159872770246,0.007992468563990324,6.283455092642799e-05,0.008483513190418773
40min_1266C,40.0,1266.6666666666667,anode,0.005897969573926914,0.0051309261613495015,7.580455819372634e-06,0.005554329335969796
40min_1266C,40.0,1266.6666666666667,electrolyte,0.004584902800494616,0.004443325575200884,-1.4705738150213866e-05,0.004515850834579612
40min_1266C,40.0,1266.6666666666667,cathode,0.005735319489137795,0.005246099867316069,4.1293145427562434e-05,0.005507495803079142
40min_1266C,40.0,1266.6666666666667,interface_ae,0.00873788348218365,0.007801121474356716,2.436872114919123e-05,0.00830930773508293
40min_1266C,40.0,1266.6666666666667,interface_ec,0.00889962170696619,0.007864176918395775,-4.710383056183228e-05,0.008430124662964122
41min_1269C,41.81818181818182,1269.6969696969697,anode,0.006021720422585319,0.005088162523302948,-0.00014074637743765554,0.005618758862916666
41min_1269C,41.81818181818182,1269.6969696969697,electrolyte,0.004636559503840546,0.00425953408293956,3.109075655980046e-05,0.004460339819747155
41min_1269C,41.81818181818182,1269.6969696969697,cathode,0.006270381678503702,0.005549311316242817,-1.5993852996342713e-05,0.00594281161429624
41min_1269C,41.81818181818182,1269.6969696969697,interface_ae,0.008959162411090151,0.007866163214476057,-1.8513135992389932e-06,0.008465748125034147
41min_1269C,41.81818181818182,1269.6969696969697,interface_ec,0.00890523392488666,0.008131212799471238,-8.27230943552323e-05,0.0085457586033033
43min_1272C,43.63636363636363,1272.7272727272727,anode,0.006156358345160999,0.0057537879206820035,-1.087601484568576e-05,0.005965299497220501
43min_1272C,43.63636363636363,1272.7272727272727,electrolyte,0.0049223335782700006,0.004495820908807413,-4.012204718858363e-05,0.004724052562634649
43min_1272C,43.63636363636363,1272.7272727272727,cathode,0.006097307538674848,0.005449758618237847,9.767609854883173e-06,0.005800729275695067
43min_1272C,43.63636363636363,1272.7272727272727,interface_ae,0.008924131606698053,0.008175762241974022,4.9799829124544977e-05,0.0085749096209493
43min_1272C,43.63636363636363,1272.7272727272727,interface_ec,0.009368962285028155,0.008362714372339274,0.00021531824575115563,0.00891636564176012
45min_1275C,45.45454545454545,1275.7575757575758,anode,0.005978416971002354,0.005693161962566103,1.8334200573835174e-05,0.005841102202858658
45min_1275C,45.45454545454545,1275.7575757575758,electrolyte,0.0053434697735075054,0.004253298611106544,-8.397218421807762e-05,0.004892545320448958
45min_1275C,45.45454545454545,1275.7575757575758,cathode,0.0060120079544911595,0.005093918690360006,-5.257550216807611e-05,0.005610335117724529
45min_1275C,45.45454545454545,1275.7575757575758,interface_ae,0.009046003193059206,0.008308125510128193,3.4175597577715945e-05,0.008700764178066965
45min_1275C,45.45454545454545,1275.7575757575758,interface_ec,0.009573063893213123,0.008468131520470162,-5.769036556624031e-05,0.009071759707177308
47min_1278C,47.27272727272727,1278.7878787878788,anode,0.006033753595785236,0.005690476711350718,-0.00013202332070206424,0.005874101106540405
47min_1278C,47.27272727272727,1278.7878787878788,electrolyte,0.005337040977214796,0.004709562325783791,-4.691756521047048e-05,0.005053262347160755
47min_1278C,47.27272727272727,1278.7878787878788,cathode,0.005870809624236732,0.005862867351882499,-1.1453984525261789e-05,0.00586687606278075
47min_1278C,47.27272727272727,1278.7878787878788,interface_ae,0.009567718057477054,0.008069253783815252,-5.993750229537729e-05,0.008914062924938283
47min_1278C,47.27272727272727,1278.7878787878788,interface_ec,0.009321203535025998,0.008397535434327074,-4.500654714792437e-05,0.008895750474471668
49min_1281C,49.090909090909086,1281.8181818181818,anode,0.006421644916178507,0.005453843350861588,-1.423794850212935e-05,0.005996656856537381
49min_1281C,49.090909090909086,1281.8181818181818,electrolyte,0.005061719070109587,0.004636781716202236,7.116148780888898e-05,0.0048647559099736564
49min_1281C,49.090909090909086,1281.8181818181818,cathode,0.006072146511341433,0.005360544602590982,0.0001277676821898509,0.005753726029790327
49min_1281C,49.090909090909086,1281.8181818181818,interface_ae,0.00951207519695943,0.00835135384779585,0.0001551151975522523,0.008992116659640807
49min_1281C,49.090909090909086,1281.8181818181818,interface_ec,0.009468747321422083,0.008736910591919925,6.751848141010896e-06,0.009124873726564899
50min_1284C,50.90909090909091,1284.8484848484848,anode,0.006794888933316515,0.006095533581994747,-2.4896414847907352e-05,0.006473749383533047
50min_1284C,50.90909090909091,1284.8484848484848,electrolyte,0.0053005056688629655,0.004724647520721915,0.00013686315575323486,0.005042898783830041
50min_1284C,50.90909090909091,1284.8484848484848,cathode,0.006189754656224096,0.005881675705505794,0.00010584244868495878,0.006044389968910115
50min_1284C,50.90909090909091,1284.8484848484848,interface_ae,0.009222361125225552,0.008380046417726002,-0.00020392321777601007,0.008838442306941667
50min_1284C,50.90909090909091,1284.8484848484848,interface_ec,0.009520227655621263,0.00876020657141835,0.00015023570520960282,0.009167579027200395
52min_1287C,52.72727272727273,1287.878787878788,anode,0.006485188268412257,0.006149055490209731,-0.00013801014582148915,0.0063283416605423
52min_1287C,52.72727272727273,1287.878787878788,electrolyte,0.004835618961991611,0.004647556365097054,3.840654489393073e-05,0.00474485030474207
52min_1287C,52.72727272727273,1287.878787878788,cathode,0.006463830362709483,0.005409843961087497,-8.91200395127884e-06,0.00600661629034561
52min_1287C,52.72727272727273,1287.878787878788,interface_ae,0.009444660068391482,0.008868933081409215,3.665982460968483e-05,0.009170580762142753
52min_1287C,52.72727272727273,1287.878787878788,interface_ec,0.009517578011226982,0.00863222518817587,-0.00010592135218889516,0.009109082514654013
54min_1290C,54.54545454545455,1290.909090909091,anode,0.00654737033364558,0.0060949440018904415,-9.857260463355438e-05,0.006335589538790111
54min_1290C,54.54545454545455,1290.909090909091,electrolyte,0.005348734225583741,0.004617080906557667,-7.928728322623442e-05,0.0050249094187139595
54min_1290C,54.54545454545455,1290.909090909091,cathode,0.006538500081109303,0.005696867073306319,-5.536493053471821e-05,0.006161696825331893
54min_1290C,54.54545454545455,1290.909090909091,interface_ae,0.009600283651132554,0.009248818333268568,3.5263551971728615e-06,0.009429466825456116
54min_1290C,54.54545454545455,1290.909090909091,interface_ec,0.009699914128051806,0.008898669288832135,-1.1232804969082983e-05,0.00932516486587246
56min_1293C,56.36363636363636,1293.939393939394,anode,0.006607099033344591,0.0061089969979347975,7.575077100473052e-05,0.006374015087475305
56min_1293C,56.36363636363636,1293.939393939394,electrolyte,0.005214934133078883,0.004673767278211954,-2.7505169715164402e-05,0.004966741353956782
56min_1293C,56.36363636363636,1293.939393939394,cathode,0.006190908720304119,0.005683125445486402,0.00013668742674445247,0.0059579866642279974
56min_1293C,56.36363636363636,1293.939393939394,interface_ae,0.01030593297257711,0.008929438278977892,5.765569630557664e-05,0.009691795631634354
56min_1293C,56.36363636363636,1293.939393939394,interface_ec,0.010039189460785561,0.009595021648580216,0.00011195749114345768,0.009826552228289662
58min_1296C,58.18181818181818,1296.969696969697,anode,0.006718890975979523,0.005878918956728024,-0.00016064463202575727,0.006346872348912997
58min_1296C,58.18181818181818,1296.969696969697,electrolyte,0.005436272322593986,0.0047047514868216265,-0.00014222537095976744,0.005115869153339864
58min_1296C,58.18181818181818,1296.969696969697,cathode,0.006615159917427171,0.00585371744412523,0.0001687141635072565,0.006276023028269851
58min_1296C,58.18181818181818,1296.969696969697,interface_ae,0.010293039692803405,0.009103446039008839,0.00014799441388900259,0.00975617607065326
58min_1296C,58.18181818181818,1296.969696969697,interface_ec,0.010132185402943038,0.00893278372700651,0.00015231240772696573,0.009592537853733213
60min_1300C,60.0,1300.0,anode,0.006947179214594143,0.005948008254406199,-1.903386780836082e-05,0.006505482978634198
60min_1300C,60.0,1300.0,electrolyte,0.005296394114008817,0.004647806042024325,9.261775475316414e-05,0.0050062973539971994
60min_1300C,60.0,1300.0,cathode,0.0072212805339512375,0.005875743970507662,5.629692366905709e-05,0.006652095326370157
60min_1300C,60.0,1300.0,interface_ae,0.010128967294961452,0.009135761151154297,-5.923939242388692e-05,0.009671236336454702
60min_1300C,60.0,1300.0,interface_ec,0.010086297654849854,0.0092428905534962,-8.309501164110379e-05,0.009693224189878993
61min_1303C,61.81818181818181,1303.030303030303,anode,0.006990100481828872,0.006232360583115787,-2.3894804686640975e-05,0.006643847481252387
61min_1303C,61.81818181818181,1303.030303030303,electrolyte,0.005367294560930004,0.004878572297890825,7.553912258257561e-05,0.005142052361371381
61min_1303C,61.81818181818181,1303.030303030303,cathode,0.00703619255419778,0.0060468971560459035,9.933230542922588e-06,0.006597433905495488
61min_1303C,61.81818181818181,1303.030303030303,interface_ae,0.010554291099683713,0.009029731251284145,5.4336019237993505e-05,0.009881070393346875
61min_1303C,61.81818181818181,1303.030303030303,interface_ec,0.010271488923220187,0.009477732041227052,-7.632591565425169e-05,0.00989939122383925
63min_1306C,63.63636363636363,1306.060606060606,anode,0.006673283386532753,0.006005325338422459,4.8084946661382e-06,0.006365648052674367
63min_1306C,63.63636363636363,1306.060606060606,electrolyte,0.005679352345676823,0.004883803735778392,6.38592458777374e-05,0.005327473491551299
63min_1306C,63.63636363636363,1306.060606060606,cathode,0.0067019557942118654,0.006317617866269628,-0.00012110161997624567,0.0065216645202279214
63min_1306C,63.63636363636363,1306.060606060606,interface_ae,0.010421022488438052,0.00950573047326192,-8.604133652839525e-05,0.009995969179559996
63min_1306C,63.63636363636363,1306.060606060606,interface_ec,0.010474478601152519,0.009697509300841524,-5.768918695231488e-05,0.01010890790721933
65min_1309C,65.45454545454545,1309.090909090909,anode,0.00730123878315429,0.006194748953735613,5.298041779152828e-05,0.006816309986314736
65min_1309C,65.45454545454545,1309.090909090909,electrolyte,0.00599559401272459,0.004642223359708252,-7.968952554704768e-05,0.005448261187488045
65min_1309C,65.45454545454545,1309.090909090909,cathode,0.00724951478617737,0.006380081247458538,3.7114587337130887e-05,0.0068565691491074745
65min_1309C,65.45454545454545,1309.090909090909,interface_ae,0.01058035350376873,0.009648353444495284,-1.556772353920795e-05,0.010146543319998149
65min_1309C,65.45454545454545,1309.090909090909,interface_ec,0.010934706953443856,0.009681919655660948,3.376026620752022e-05,0.010365416029356945
67min_1312C,67.27272727272727,1312.121212121212,anode,0.007153107930623026,0.006414413746648269,-4.325581878196209e-05,0.0068142700369489845
67min_1312C,67.27272727272727,1312.121212121212,electrolyte,0.005867277087553676,0.005125351097006162,2.8977485689641294e-05,0.005533970393543224
67min_1312C,67.27272727272727,1312.121212121212,cathode,0.0076505634835766076,0.006686159932149107,-3.260235321678411e-05,0.007217073781842942
67min_1312C,67.27272727272727,1312.121212121212,interface_ae,0.01109346777020407,0.009686287412589843,-0.00020381245351778538,0.010467057482023345
67min_1312C,67.27272727272727,1312.121212121212,interface_ec,0.0106516077235878,0.009393744102988983,-3.5151348404130866e-05,0.010081884991444539
69min_1315C,69.0909090909091,1315.1515151515152,anode,0.007342046333232101,0.006939813854109829,3.2692737376416265e-05,0.007149645604739632
69min_1315C,69.0909090909091,1315.1515151515152,electrolyte,0.005826870020153581,0.005449502229560516,-0.00022111353090078852,0.005660620213033692
69min_1315C,69.0909090909091,1315.1515151515152,cathode,0.0073854855690159045,0.0067586994304321656,-0.00014785862457798417,0.007097515374472941
69min_1315C,69.0909090909091,1315.1515151515152,interface_ae,0.011236294794732673,0.00997448886898104,-4.152879139008013e-05,0.010661783409657857
69min_1315C,69.0909090909091,1315.1515151515152,interface_ec,0.011134100359312544,0.010360928159043038,1.8186625505849517e-05,0.010768398276889836
70min_1318C,70.9090909090909,1318.1818181818182,anode,0.007492337814233762,0.006606552147368276,-8.498443694647919e-05,0.007092587947049247
70min_1318C,70.9090909090909,1318.1818181818182,electrolyte,0.006120222120887806,0.005187522696639288,7.156623721939247e-06,0.0057112934636877255
70min_1318C,70.9090909090909,1318.1818181818182,cathode,0.0073471622076206715,0.006794220292425604,3.336621052869483e-05,0.007087123763301555
70min_1318C,70.9090909090909,1318.1818181818182,interface_ae,0.011371548534312123,0.009945633211143539,-2.6987493529337126e-05,0.010729989293948677
70min_1318C,70.9090909090909,1318.1818181818182,interface_ec,0.010968287802304081,0.009958777838899266,3.7730049304485224e-05,0.010500196309228231
72min_1321C,72.72727272727272,1321.2121212121212,anode,0.00769983083467296,0.006609156735373975,8.696059201056602e-05,0.0072181469399555135
72min_1321C,72.72727272727272,1321.2121212121212,electrolyte,0.006309874060836102,0.0055175588208123405,0.0001876795812558066,0.0059622592695903615
72min_1321C,72.72727272727272,1321.2121212121212,cathode,0.007393675271523174,0.0065446588595472165,-0.00017787202489042786,0.007014615214672129
72min_1321C,72.72727272727272,1321.2121212121212,interface_ae,0.01162185852931367,0.010321257831585063,-5.558467091045507e-06,0.011029227227138524
72min_1321C,72.72727272727272,1321.2121212121212,interface_ec,0.011378643392279798,0.009965286890854576,0.00024457519796168266,0.010750277834330135
74min_1324C,74.54545454545455,1324.2424242424242,anode,0.007681383099030083,0.006911863935292512,7.25766623898692e-05,0.00732807182514485
74min_1324C,74.54545454545455,1324.2424242424242,electrolyte,0.006220632936455373,0.005556764785953053,-7.904744554453119e-05,0.005918281884536058
74min_1324C,74.54545454545455,1324.2424242424242,cathode,0.007749832534062236,0.00726638987566654,0.00013454200461549776,0.007523385283274782
74min_1324C,74.54545454545455,1324.2424242424242,interface_ae,0.011801945619280435,0.010232734329271064,-9.896048202585809e-05,0.011102160947054514
74min_1324C,74.54545454545455,1324.2424242424242,interface_ec,0.011458150909932626,0.01034612244701504,0.00010941915184709485,0.010946230277371814
76min_1327C,76.36363636363636,1327.2727272727273,anode,0.007425477241801644,0.007293483214862269,-1.5800789857898943e-05,0.007360418808970733
76min_1327C,76.36363636363636,1327.2727272727273,electrolyte,0.006125799920206202,0.005387637645724084,-0.00016548566718657695,0.00579919221287566
76min_1327C,76.36363636363636,1327.2727272727273,cathode,0.00792860428453699,0.007002236744407827,-0.0001289960899741054,0.007511726901728058
76min_1327C,76.36363636363636,1327.2727272727273,interface_ae,0.011386939497204188,0.010414202786597195,0.00016690215252893932,0.01093689547981128
76min_1327C,76.36363636363636,1327.2727272727273,interface_ec,0.01159403698134419,0.010180731135831598,-2.4574306408594432e-05,0.010956049396955101
78min_1330C,78.18181818181817,1330.3030303030303,anode,0.007819142746934815,0.0065469413862075995,-5.429486651781221e-06,0.007267052634650763
78min_1330C,78.18181818181817,1330.3030303030303,electrolyte,0.006252763062665744,0.005808296244799415,0.00018489560949453454,0.006051281692990107
78min_1330C,78.18181818181817,1330.3030303030303,cathode,0.0080990004667939,0.007032540976684948,-0.00011065259087416704,0.0076243439379768
78min_1330C,78.18181818181817,1330.3030303030303,interface_ae,0.012325203151976495,0.01064132175899677,1.3929291912946204e-06,0.011575487672299668
78min_1330C,78.18181818181817,1330.3030303030303,interface_ec,0.011805706173904522,0.010669095024347442,-1.4436041192394248e-05,0.011280457043137303
80min_1333C,80.0,1333.3333333333333,anode,0.007869919955869248,0.007076815333272688,-3.275327021599839e-06,0.007504866244045229
80min_1333C,80.0,1333.3333333333333,electrolyte,0.006279036931569485,0.0056063805406811815,1.0643022769189684e-05,0.005971220721877019
80min_1333C,80.0,1333.3333333333333,cathode,0.007933656913761125,0.007486985719237304,-0.0002650969808393012,0.0077336615130496585
80min_1333C,80.0,1333.3333333333333,interface_ae,0.012195279906252436,0.011028497720780675,-0.00020733902324081497,0.011661302059821492
80min_1333C,80.0,1333.3333333333333,interface_ec,0.011908441017051873,0.01070499250908199,-0.00014075116947178214,0.01135726608250608
81min_1336C,81.81818181818181,1336.3636363636365,anode,0.007941264280229152,0.00706502968687943,0.00017522704434236227,0.007547527310647097
81min_1336C,81.81818181818181,1336.3636363636365,electrolyte,0.0066645977728273555,0.0060840269037769085,7.216720640432351e-05,0.0063953325952419305
81min_1336C,81.81818181818181,1336.3636363636365,cathode,0.007871017263503883,0.007182240802716641,4.893745612279181e-05,0.0075507045357102
81min_1336C,81.81818181818181,1336.3636363636365,interface_ae,0.011900815864842604,0.011073316969993372,-2.4032539815813506e-05,0.011509474070643481
81min_1336C,81.81818181818181,1336.3636363636365,interface_ec,0.012070277265111073,0.011072909277599593,4.442633114860398e-05,0.011604040206378919
83min_1339C,83.63636363636364,1339.3939393939395,anode,0.00813798388167701,0.007621025364029594,-0.00010810633275998974,0.007894434027898464
83min_1339C,83.63636363636364,1339.3939393939395,electrolyte,0.006691328813261514,0.006029947774279073,-3.095464393139903e-05,0.0063866002484235665
83min_1339C,83.63636363636364,1339.3939393939395,cathode,0.00827540371928925,0.007138936688079684,9.240270192069011e-05,0.007771406263431227
83min_1339C,83.63636363636364,1339.3939393939395,interface_ae,0.012278285244972643,0.010979194500931308,0.00010490092258368893,0.011684448263157326
83min_1339C,83.63636363636364,1339.3939393939395,interface_ec,0.012174396934152688,0.010802046845762404,-0.00015566291735239038,0.0115526812298377
85min_1342C,85.45454545454545,1342.4242424242425,anode,0.008445867789598376,0.007236113348897066,0.00017547941819843647,0.007916510692266062
85min_1342C,85.45454545454545,1342.4242424242425,electrolyte,0.006243346757886653,0.006333050649175066,2.1101746720261843e-05,0.006288784769517504
85min_1342C,85.45454545454545,1342.4242424242425,cathode,0.00830532317695517,0.007383215402034533,3.991361143520709e-05,0.007885115854359546
85min_1342C,85.45454545454545,1342.4242424242425,interface_ae,0.0124794717585089,0.011458959205497787,1.1422764866203966e-05,0.01200181632489183
85min_1342C,85.45454545454545,1342.4242424242425,interface_ec,0.012517059051286247,0.011165576386651712,-5.694562372106746e-06,0.011899024399096604
87min_1345C,87.27272727272727,1345.4545454545455,anode,0.008501820021960253,0.007254200022832333,-0.00013481854221057132,0.007955186156062959
87min_1345C,87.27272727272727,1345.4545454545455,electrolyte,0.006900860553350017,0.006111160048716514,-1.8398333635267914e-05,0.006541934400347993
87min_1345C,87.27272727272727,1345.4545454545455,cathode,0.00844394645479492,0.007665750042435992,-5.3975968030936156e-05,0.008083533433205699
87min_1345C,87.27272727272727,1345.4545454545455,interface_ae,0.0125047285571923,0.011433519603065023,-9.783727776150322e-05,0.012006217727154002
87min_1345C,87.27272727272727,1345.4545454545455,interface_ec,0.012742040053415657,0.011053833831197919,0.00010291556373256437,0.011988753417659186
89min_1348C,89.0909090909091,1348.4848484848485,anode,0.00865144522978981,0.007752439106839257,9.82690983945514e-05,0.008240569445511693
89min_1348C,89.0909090909091,1348.4848484848485,electrolyte,0.007178635475538276,0.0063638605409848115,-0.00018408742313316453,0.006815376568681719
89min_1348C,89.0909090909091,1348.4848484848485,cathode,0.008301010339960061,0.007576269444437346,2.6091050210833786e-06,0.007963413890068001
89min_1348C,89.0909090909091,1348.4848484848485,interface_ae,0.012938920404054628,0.01140670097733403,1.8676676447707834e-05,0.012244963815582573
89min_1348C,89.0909090909091,1348.4848484848485,interface_ec,0.01268431201349014,0.011429546179366333,-0.00014066610968482224,0.012108250413391801
90min_1351C,90.9090909090909,1351.5151515151515,anode,0.008489985342036661,0.007536831871009692,-9.758732529773328e-05,0.008057584222816046
90min_1351C,90.9090909090909,1351.5151515151515,electrolyte,0.0071504339523286425,0.006055855255939978,0.00026323820648373907,0.006686402516683191
90min_1351C,90.9090909090909,1351.5151515151515,cathode,0.008773295571435021,0.007844136016871934,-8.583577801812136e-05,0.008348913977204239
90min_1351C,90.9090909090909,1351.5151515151515,interface_ae,0.013152009962770063,0.011595625622951885,1.2200981464536145e-05,0.012447030269212508
90min_1351C,90.9090909090909,1351.5151515151515,interface_ec,0.013523964894542023,0.011691541208254509,0.00011492733262856759,0.012708792008092204
92min_1354C,92.72727272727272,1354.5454545454545,anode,0.00865271210881986,0.00790701495636114,0.000177080063563551,0.008310671473921095
92min_1354C,92.72727272727272,1354.5454545454545,electrolyte,0.006909284503518476,0.0066936998351678125,7.077519354554755e-05,0.006805158387254571
92min_1354C,92.72727272727272,1354.5454545454545,cathode,0.008680854038666183,0.008040494202271637,9.725544496267299e-05,0.008380739415675307
92min_1354C,92.72727272727272,1354.5454545454545,interface_ae,0.013314383083210994,0.011556974037712707,-7.271371758248686e-05,0.012529099250473033
92min_1354C,92.72727272727272,1354.5454545454545,interface_ec,0.013140517363657254,0.01185613229587079,6.206720975506781e-05,0.012548183705924967
94min_1357C,94.54545454545455,1357.5757575757575,anode,0.008948582019802536,0.0077546687659122765,3.801978510059632e-05,0.008415643460731866
94min_1357C,94.54545454545455,1357.5757575757575,electrolyte,0.0072525506047494736,0.0065293481997096454,0.00010807807255546219,0.006921885044002203
94min_1357C,94.54545454545455,1357.5757575757575,cathode,0.009079826250525667,0.008113573653499984,-7.0165711458647035e-06,0.008637339337011914
94min_1357C,94.54545454545455,1357.5757575757575,interface_ae,0.01303737054272063,0.012118530100307962,2.0768768716311114e-05,0.01260314758838852
94min_1357C,94.54545454545455,1357.5757575757575,interface_ec,0.013423878496862903,0.011777256741317384,-0.00010810565404082624,0.012682384918655745
96min_1360C,96.36363636363636,1360.6060606060605,anode,0.009244316616868066,0.008122406410810004,6.815006973726245e-05,0.008738347232679612
96min_1360C,96.36363636363636,1360.6060606060605,electrolyte,0.007232612512187281,0.006510205181164219,9.382838059759978e-05,0.006901744351765527
96min_1360C,96.36363636363636,1360.6060606060605,cathode,0.008930477100558009,0.008149541596969533,-4.622752887050425e-05,0.008567121209941107
96min_1360C,96.36363636363636,1360.6060606060605,interface_ae,0.013463629823815763,0.012133641737678275,2.2213377163371283e-05,0.012850416700735568
96min_1360C,96.36363636363636,1360.6060606060605,interface_ec,0.01345477934496953,0.012446627387486708,-8.94607302219504e-05,0.012981024810230515
98min_1363C,98.18181818181817,1363.6363636363635,anode,0.009117877394643455,0.00815178033947332,0.0001446977884353733,0.00867888757579711
98min_1363C,98.18181818181817,1363.6363636363635,electrolyte,0.007363512334082897,0.0067981501487962516,-0.0001485560373036972,0.007102401253014286
98min_1363C,98.18181818181817,1363.6363636363635,cathode,0.009208661776649578,0.008417652710252842,8.22839892754242e-06,0.008839751988873027
98min_1363C,98.18181818181817,1363.6363636363635,interface_ae,0.01394597366022666,0.012256132136672156,0.000140934744018558,0.013184796097597835
98min_1363C,98.18181818181817,1363.6363636363635,interface_ec,0.01419265720993744,0.0122870221146043,-4.455025214007718e-05,0.01334252196156941
100min_1366C,100.0,1366.6666666666667,anode,0.009568388242944688,0.008665854641915174,-5.228600271532683e-05,0.0091510125150169
100min_1366C,100.0,1366.6666666666667,electrolyte,0.007338131714597746,0.006623595248443124,-0.00013444505110342771,0.0070121040447231504
100min_1366C,100.0,1366.6666666666667,cathode,0.009093980958224307,0.008149112059418618,-7.677975651041284e-05,0.008661312401925511
100min_1366C,100.0,1366.6666666666667,interface_ae,0.013909630043804364,0.012571753265660854,0.0001550500492814077,0.013294001382359413
100min_1366C,100.0,1366.6666666666667,interface_ec,0.013716896213133963,0.012721774798848865,-2.1398884422550896e-05,0.013247448997018463
101min_1369C,101.81818181818181,1369.6969696969697,anode,0.00939114549344034,0.008595898310267067,-0.00011227220215622986,0.009021949063423716
101min_1369C,101.81818181818181,1369.6969696969697,electrolyte,0.007597312537533473,0.006802037971109608,4.924512640081491e-05,0.007233045364306319
101min_1369C,101.81818181818181,1369.6969696969697,cathode,0.00945887196415239,0.008951994439815925,-6.37739984251316e-05,0.009216555507526973
101min_1369C,101.81818181818181,1369.6969696969697,interface_ae,0.013995357962055878,0.012566773512465665,-5.554771191602547e-05,0.013338913145738205
101min_1369C,101.81818181818181,1369.6969696969697,interface_ec,0.013974079927594937,0.012929204923972128,0.0001420504247989855,0.01348428870020933
103min_1372C,103.63636363636363,1372.7272727272727,anode,0.00941105724175443,0.008406214735833048,4.714155563864041e-05,0.008951410140637892
103min_1372C,103.63636363636363,1372.7272727272727,electrolyte,0.007509720591547266,0.006984735043914217,2.0292302085129973e-05,0.0072615600075727335
103min_1372C,103.63636363636363,1372.7272727272727,cathode,0.009222057677504879,0.008882186890719906,0.00017958776730955217,0.009062246259002689
103min_1372C,103.63636363636363,1372.7272727272727,interface_ae,0.01416525201265961,0.012781488463693641,2.8586539072490497e-05,0.013526649929499071
103min_1372C,103.63636363636363,1372.7272727272727,interface_ec,0.014354701108753892,0.012990737630215405,0.00020102045387663498,0.013728065410078767
105min_1375C,105.45454545454545,1375.7575757575758,anode,0.009614801583576086,0.008525512477259717,-0.00013793192280145273,0.00912221120509041
105min_1375C,105.45454545454545,1375.7575757575758,electrolyte,0.007573966815271533,0.006941512146359166,0.00017945578635177877,0.007285011646546836
105min_1375C,105.45454545454545,1375.7575757575758,cathode,0.009546668769267661,0.008729929516495186,-1.6422896072752076e-06,0.009165632360693796
105min_1375C,105.45454545454545,1375.7575757575758,interface_ae,0.01471296519830196,0.013533144374425835,-5.308687729203207e-05,0.014160265323453401
105min_1375C,105.45454545454545,1375.7575757575758,interface_ec,0.014377398655108698,0.013236590064664924,6.818914896263115e-05,0.013842800501129736
107min_1378C,107.27272727272727,1378.7878787878788,anode,0.010145308921993558,0.008915156348226911,-3.5929209078705955e-05,0.00958979474856338
107min_1378C,107.27272727272727,1378.7878787878788,electrolyte,0.007938904931615543,0.007260437285045955,8.204821811973641e-05,0.007623675979845172
107min_1378C,107.27272727272727,1378.7878787878788,cathode,0.009877422263067813,0.009011705649079549,0.00011692955904456728,0.009476439459390994
107min_1378C,107.27272727272727,1378.7878787878788,interface_ae,0.014940382983477035,0.013327298044260505,-1.6711808031685436e-05,0.014202739798746814
107min_1378C,107.27272727272727,1378.7878787878788,interface_ec,0.014693293922556193,0.013438857860044248,-8.169356709872362e-05,0.014108675340822436
109min_1381C,109.0909090909091,1381.8181818181818,anode,0.009976246808592907,0.008833593169671023,2.874482293481749e-06,0.009456838149922278
109min_1381C,109.0909090909091,1381.8181818181818,electrolyte,0.008177700089976122,0.007168028559313177,4.643654815614881e-06,0.0077225312615015135
109min_1381C,109.0909090909091,1381.8181818181818,cathode,0.009630540918622343,0.00906151164534194,6.454841811410755e-05,0.009359676943876403
109min_1381C,109.0909090909091,1381.8181818181818,interface_ae,0.015286419164888583,0.013306835751214142,2.1915032766393896e-05,0.01439909928950637
109min_1381C,109.0909090909091,1381.8181818181818,interface_ec,0.014903644956969641,0.013683882054157437,-9.52955323869521e-06,0.014332753180894537
110min_1384C,110.9090909090909,1384.8484848484848,anode,0.010085606472673436,0.009148401252710738,1.8660912315635812e-05,0.009651247235576543
110min_1384C,110.9090909090909,1384.8484848484848,electrolyte,0.007934555011105389,0.007260275559193607,0.00010736317498597721,0.0076220921769226384
110min_1384C,110.9090909090909,1384.8484848484848,cathode,0.009824499107637155,0.009053415885596806,-7.001208149391732e-05,0.009463326619064318
110min_1384C,110.9090909090909,1384.8484848484848,interface_ae,0.01528371257706402,0.01323559554519439,-5.5892184727158835e-05,0.014369871025315267
110min_1384C,110.9090909090909,1384.8484848484848,interface_ec,0.015120145626291956,0.013853337731998015,-6.57502610729878e-06,0.014528228242010981
112min_1387C,112.72727272727272,1387.878787878788,anode,0.010046775366609332,0.009518265158641293,-0.00014480139004162442,0.009796432886326206
112min_1387C,112.72727272727272,1387.878787878788,electrolyte,0.007686491026234362,0.0074016298858132065,-5.020542243526112e-05,0.0075485938637244905
112min_1387C,112.72727272727272,1387.878787878788,cathode,0.00995356870852183,0.009283705034213045,2.4380071377119883e-05,0.009636207575259527
112min_1387C,112.72727272727272,1387.878787878788,interface_ae,0.015123907181774612,0.013456989737395583,8.724573282801447e-05,0.014363972742752246
112min_1387C,112.72727272727272,1387.878787878788,interface_ec,0.015366763143513689,0.013693215444373885,0.0001846636996047666,0.014605596953015934
114min_1390C,114.54545454545455,1390.909090909091,anode,0.01007251292387692,0.008952771855242988,-6.919080698812444e-05,0.0095626927369103
114min_1390C,114.54545454545455,1390.909090909091,electrolyte,0.008220106698442621,0.0074549694014068866,-2.4123605785632987e-05,0.007865610265044473
114min_1390C,114.54545454545455,1390.909090909091,cathode,0.010356940956445009,0.009007569004589848,0.00014437646040732594,0.009755726456448737
114min_1390C,114.54545454545455,1390.909090909091,interface_ae,0.01541336458003471,0.014110274500459527,3.4272534637770416e-05,0.014805011745193873
114min_1390C,114.54545454545455,1390.909090909091,interface_ec,0.015521145459543981,0.014000768790188342,4.47708560017315e-05,0.014819768130551815
116min_1393C,116.36363636363636,1393.939393939394,anode,0.010544469596332411,0.0096401630459495,1.9652116970147013e-05,0.010122713820703982
116min_1393C,116.36363636363636,1393.939393939394,electrolyte,0.008474540787004827,0.007481518893080966,0.00014401172154494729,0.008028122297137792
116min_1393C,116.36363636363636,1393.939393939394,cathode,0.01028064658394705,0.009734520626505176,-4.015795064434341e-06,0.010018755819285364
116min_1393C,116.36363636363636,1393.939393939394,interface_ae,0.015337732546114743,0.014087119692866678,-6.810516574748808e-05,0.014752708959503298
116min_1393C,116.36363636363636,1393.939393939394,interface_ec,0.0157920162763361,0.013930974014024041,-4.4618343321477976e-05,0.01494883336807514
118min_1396C,118.18181818181817,1396.969696969697,anode,0.010168072313656113,0.009400921150010882,-0.00024238793266289567,0.009816008491534318
118min_1396C,118.18181818181817,1396.969696969697,electrolyte,0.00812000380317903,0.007745188862317417,7.858001586508322e-05,0.007940401357294886
118min_1396C,118.18181818181817,1396.969696969697,cathode,0.010631071972202212,0.009297987185234854,-4.771135614197986e-06,0.01003118907723778
118min_1396C,118.18181818181817,1396.969696969697,interface_ae,0.015818250181949715,0.014005400682952536,0.00015033983017671506,0.014996504972860165
118min_1396C,118.18181818181817,1396.969696969697,interface_ec,0.015994443147882963,0.014192880786025111,2.688583899453078e-06,0.015174085589117788
120min_1400C,120.0,1400.0,anode,0.010718352977772572,0.009200661800879896,-2.4717738252059695e-05,0.010045952429665897
120min_1400C,120.0,1400.0,electrolyte,0.00840494428334689,0.007486883017672822,-2.8110029288595492e-05,0.007985739892348548
120min_1400C,120.0,1400.0,cathode,0.011036213721552966,0.009737177346818157,-5.7117898978279685e-05,0.010447911423350817
120min_1400C,120.0,1400.0,interface_ae,0.016129531180545824,0.014693384249164332,9.246336829127688e-05,0.01546239198269727
120min_1400C,120.0,1400.0,interface_ec,0.016026940698258628,0.014284125806306017,6.982233136135899e-05,0.015230983764866084
121min_1403C,121.81818181818181,1403.030303030303,anode,0.010886690871275546,0.009906233058777622,6.351718016819695e-05,0.010431658440935465
121min_1403C,121.81818181818181,1403.030303030303,electrolyte,0.008856305578416823,0.007674708489505547,0.00013173940656343257,0.008331734579460603
121min_1403C,121.81818181818181,1403.030303030303,cathode,0.010847513715129676,0.010142246589297129,-6.891878180895679e-05,0.010513315846766232
121min_1403C,121.81818181818181,1403.030303030303,interface_ae,0.016559183451919843,0.014630373778850646,-6.514180036144484e-05,0.01568438970733429
121min_1403C,121.81818181818181,1403.030303030303,interface_ec,0.01611521352447593,0.014526722160519251,4.241659464019164e-05,0.015382780364530063
123min_1406C,123.63636363636363,1406.060606060606,anode,0.011044481142974287,0.009731182640042753,-2.435459226098284e-06,0.010449910713445261
123min_1406C,123.63636363636363,1406.060606060606,electrolyte,0.009180385308016124,0.008222246746684517,4.3632366967403206e-05,0.008741117439160628
123min_1406C,123.63636363636363,1406.060606060606,cathode,0.010947514741000827,0.00986992890617412,6.135179727304167e-05,0.010451013135264753
123min_1406C,123.63636363636363,1406.060606060606,interface_ae,0.0162053125550111,0.014717408653761034,-0.00016685840738775895,0.015517654153825113
123min_1406C,123.63636363636363,1406.060606060606,interface_ec,0.016489715692571835,0.014898323149186252,-4.83186462299374e-05,0.015754638914554867
125min_1409C,125.45454545454545,1409.090909090909,anode,0.011387216527511526,0.009720024124767699,-0.00014643748802098202,0.010654946348190867
125min_1409C,125.45454545454545,1409.090909090909,electrolyte,0.00890282570359481,0.008181561466416964,0.00016839276914578687,0.008569965355396213
125min_1409C,125.45454545454545,1409.090909090909,cathode,0.010980642322279731,0.010180913424054427,-3.850846950070721e-06,0.010603423014355377
125min_1409C,125.45454545454545,1409.090909090909,interface_ae,0.016574103302292115,0.015124497873549586,6.523228784134196e-05,0.015899343124943215
125min_1409C,125.45454545454545,1409.090909090909,interface_ec,0.016293350330883426,0.01524307395599743,0.00013800913541474517,0.01579623259238255
127min_1412C,127.27272727272727,1412.121212121212,anode,0.0110803791846102,0.010164103259108376,4.9403018628273885e-05,0.010652182956035637
127min_1412C,127.27272727272727,1412.121212121212,electrolyte,0.009016528133094465,0.007957893011167633,-6.716233679380516e-05,0.0085373770489054
127min_1412C,127.27272727272727,1412.121212121212,cathode,0.011200380910713816,0.010319488356272768,5.4360015459443236e-05,0.010787355427547704
127min_1412C,127.27272727272727,1412.121212121212,interface_ae,0.016734114720950936,0.01528175357076101,-0.00028485426206300755,0.01606484970838021
127min_1412C,127.27272727272727,1412.121212121212,interface_ec,0.017037990727442578,0.014779471072875722,-3.6244094140313214e-05,0.016028641334477085
129min_1415C,129.0909090909091,1415.1515151515152,anode,0.011115180779966873,0.00994626698785871,0.00011608267873785195,0.010581178605153382
129min_1415C,129.0909090909091,1415.1515151515152,electrolyte,0.008977751566851303,0.008233463402748458,-4.692057887918407e-06,0.008629717253889788
129min_1415C,129.0909090909091,1415.1515151515152,cathode,0.011434522924336726,0.010220567661214942,-0.00012829922241885697,0.010880734565008824
129min_1415C,129.0909090909091,1415.1515151515152,interface_ae,0.01720792550222758,0.015209053607872074,-0.0001556581898659751,0.01630289663556479
129min_1415C,129.0909090909091,1415.1515151515152,interface_ec,0.01692304910614497,0.0156079568826312,8.50221742113493e-05,0.016305991985709745
130min_1418C,130.9090909090909,1418.1818181818182,anode,0.011403541418794624,0.01025609312024489,-3.2163505121738264e-05,0.010875455106006232
130min_1418C,130.9090909090909,1418.1818181818182,electrolyte,0.009593967073253126,0.008337142819333173,4.300416471910696e-05,0.009031690261157221
130min_1418C,130.9090909090909,1418.1818181818182,cathode,0.011679328536482564,0.010373702492913878,-2.5904214582070315e-05,0.011084428357164547
130min_1418C,130.9090909090909,1418.1818181818182,interface_ae,0.0171706377986973,0.015474596739780052,-3.7222236509841593e-06,0.01638857201033834
130min_1418C,130.9090909090909,1418.1818181818182,interface_ec,0.01735543367724169,0.015499306168824325,7.326400772155793e-05,0.016506316743243463
132min_1421C,132.72727272727272,1421.2121212121212,anode,0.01159180372856953,0.010462879378195341,-0.00019982006845321079,0.011076005532495718
132min_1421C,132.72727272727272,1421.2121212121212,electrolyte,0.009469623170613495,0.008427019567285298,9.980101098596523e-05,0.00899542121040658
132min_1421C,132.72727272727272,1421.2121212121212,cathode,0.01102869596895251,0.01086482728108827,-1.3958962815517376e-05,0.010947708177655014
132min_1421C,132.72727272727272,1421.2121212121212,interface_ae,0.017633557130234376,0.015462747324773077,6.127739050625697e-05,0.01665493675487882
132min_1421C,132.72727272727272,1421.2121212121212,interface_ec,0.01720123745425214,0.015545974718059023,0.00019140313538667863,0.016439580371459327
134min_1424C,134.54545454545453,1424.2424242424242,anode,0.011704988410616565,0.010612298976328255,8.700677306887542e-05,0.011199710588377057
134min_1424C,134.54545454545453,1424.2424242424242,electrolyte,0.009493636290209908,0.008485133702382564,3.6496100246622544e-05,0.009031934820949295
134min_1424C,134.54545454545453,1424.2424242424242,cathode,0.012223808007816889,0.010557288642285593,2.0109904671496753e-05,0.011481671022411915
134min_1424C,134.54545454545453,1424.2424242424242,interface_ae,0.017824818215355375,0.01607432378913006,0.00011870303055603802,0.017018472359193737
134min_1424C,134.54545454545453,1424.2424242424242,interface_ec,0.01774243338055969,0.015624617619992369,0.0001633431532301096,0.016786420814821203
136min_1427C,136.36363636363635,1427.2727272727273,anode,0.011649521302341447,0.010751438435898472,-7.542758500193579e-05,0.011228211428653628
136min_1427C,136.36363636363635,1427.2727272727273,electrolyte,0.009490204635437548,0.008618481556341229,3.213572154502731e-05,0.00908593158992788
136min_1427C,136.36363636363635,1427.2727272727273,cathode,0.01196317453179224,0.011013653596662395,4.5353430151397985e-05,0.011518073667792846
136min_1427C,136.36363636363635,1427.2727272727273,interface_ae,0.017769354244359645,0.016229184447933667,0.00011894704889246406,0.01705276211513927
136min_1427C,136.36363636363635,1427.2727272727273,interface_ec,0.017572664008390377,0.01615584702824597,7.011727423108984e-05,0.01690926938841477
138min_1430C,138.1818181818182,1430.3030303030303,anode,0.011955416259007026,0.011088577426373446,-1.5005558703252673e-05,0.01154645590277211
138min_1430C,138.1818181818182,1430.3030303030303,electrolyte,0.009637058458437528,0.008616134486112124,1.5579047581467536e-06,0.0091693230266412
138min_1430C,138.1818181818182,1430.3030303030303,cathode,0.011795673942299984,0.010525425887192264,0.00015945050632249722,0.01121803438141317
138min_1430C,138.1818181818182,1430.3030303030303,interface_ae,0.01785300116985487,0.016021875625675423,-0.00021533901136037148,0.017015601597253033
138min_1430C,138.1818181818182,1430.3030303030303,interface_ec,0.017894601089980637,0.015955536136885183,0.00016420151601363693,0.01701055006906707
140min_1433C,140.0,1433.3333333333333,anode,0.012353489923857217,0.010798743786354276,0.00022524358053443088,0.01166068660580669
140min_1433C,140.0,1433.3333333333333,electrolyte,0.00991757430218927,0.008684132807610134,-0.0002499405714873573,0.009371996647349428
140min_1433C,140.0,1433.3333333333333,cathode,0.012609715020506838,0.010658459362037102,-0.0001645398746956892,0.011759623882962658
140min_1433C,140.0,1433.3333333333333,interface_ae,0.01843180384538496,0.016892511264352587,0.00013842728185105182,0.01771401597796519
140min_1433C,140.0,1433.3333333333333,interface_ec,0.018340071582993504,0.01652351165141779,8.534155587803078e-05,0.01750326043964138
141min_1436C,141.8181818181818,1436.3636363636365,anode,0.012440355038339545,0.011115950673137847,1.0420110395187607e-05,0.011833881257692743
141min_1436C,141.8181818181818,1436.3636363636365,electrolyte,0.00981833683072585,0.008696976992901844,-2.8067507686677407e-05,0.009308579954334142
141min_1436C,141.8181818181818,1436.3636363636365,cathode,0.011949977957543115,0.011040044462985022,-9.885911071509175e-05,0.01152326283301738
141min_1436C,141.8181818181818,1436.3636363636365,interface_ae,0.018212136117130136,0.016625547412746657,0.00013920022863445994,0.017474613767708164
141min_1436C,141.8181818181818,1436.3636363636365,interface_ec,0.01861651730177375,0.016275468461791325,-9.896281365703376e-05,0.01756423726781368
143min_1439C,143.63636363636363,1439.3939393939395,anode,0.012614198349874407,0.010986942222341426,-2.246331499970246e-05,0.011884483360978745
143min_1439C,143.63636363636363,1439.3939393939395,electrolyte,0.010050845709626322,0.008753082869866544,1.053755061459599e-05,0.009468917938010767
143min_1439C,143.63636363636363,1439.3939393939395,cathode,0.012159239013293124,0.011063166172258845,3.19781934142537e-05,0.011650069751709197
143min_1439C,143.63636363636363,1439.3939393939395,interface_ae,0.01832046742170881,0.01686325449916571,-1.963779892668122e-06,0.017637068513414324
143min_1439C,143.63636363636363,1439.3939393939395,interface_ec,0.018749564159298574,0.016819942378386563,0.00013641404299738442,0.017864653799332764
145min_1442C,145.45454545454544,1442.4242424242425,anode,0.01258898288832315,0.011221663080789162,1.2229750303228379e-05,0.011964085283005743
145min_1442C,145.45454545454544,1442.4242424242425,electrolyte,0.010159809996042133,0.009055807365276511,4.059169120388238e-06,0.00965526558056626
145min_1442C,145.45454545454544,1442.4242424242425,cathode,0.012423539650232218,0.011174964005504022,-0.00014026052717996937,0.011851184269909902
145min_1442C,145.45454545454544,1442.4242424242425,interface_ae,0.019195822330327742,0.01671254363644306,-6.929051977959073e-05,0.018082922743099528
145min_1442C,145.45454545454544,1442.4242424242425,interface_ec,0.018702225528576515,0.017140301158910208,-2.949496782920278e-05,0.017972311912984353
147min_1445C,147.27272727272728,1445.4545454545455,anode,0.012951786852451404,0.011297316469276217,2.78994162223802e-05,0.012209014796282084
147min_1445C,147.27272727272728,1445.4545454545455,electrolyte,0.009994721339681375,0.009574641500854672,-0.00011875984190295129,0.009793602631285701
147min_1445C,147.27272727272728,1445.4545454545455,cathode,0.012764202579962063,0.011558769970311411,4.137990974514982e-05,0.012206419874125159
147min_1445C,147.27272727272728,1445.4545454545455,interface_ae,0.019016300125099445,0.017122057751240802,4.38114719791096e-06,0.018143494721556658
147min_1445C,147.27272727272728,1445.4545454545455,interface_ec,0.019023957256549286,0.01734079771454647,0.00022105230015913513,0.018244731100184833
149min_1448C,149.0909090909091,1448.4848484848485,anode,0.012729434970003827,0.01128287939838904,-8.828204835125482e-06,0.012071347746194738
149min_1448C,149.0909090909091,1448.4848484848485,electrolyte,0.01078868852913518,0.009084737081849939,0.00016391168054440675,0.010049699020215758
149min_1448C,149.0909090909091,1448.4848484848485,cathode,0.013176473489820682,0.011446122345963256,5.689830791852754e-05,0.012402554373442981
149min_1448C,149.0909090909091,1448.4848484848485,interface_ae,0.019587079315133798,0.017259434443259787,-2.035803601023618e-05,0.018533242710678927
149min_1448C,149.0909090909091,1448.4848484848485,interface_ec,0.01914506380771836,0.01713230864531871,-6.492775450660071e-05,0.018222595105303576
150min_1451C,150.9090909090909,1451.5151515151515,anode,0.012735222828297326,0.011688826487136646,-7.699732310586419e-05,0.012246327652854955
150min_1451C,150.9090909090909,1451.5151515151515,electrolyte,0.010430765887677973,0.009034428705547116,3.308802322144571e-05,0.009807601783031505
150min_1451C,150.9090909090909,1451.5151515151515,cathode,0.013146716673971562,0.01128326266497051,3.740565698475722e-05,0.012321303332340865
150min_1451C,150.9090909090909,1451.5151515151515,interface_ae,0.019715550120969323,0.017281086486488958,0.00016725723868377034,0.0186203293447904
150min_1451C,150.9090909090909,1451.5151515151515,interface_ec,0.019553820124347875,0.017382012319075515,-5.576907765770601e-06,0.018563447544439154
152min_1454C,152.72727272727272,1454.5454545454545,anode,0.013231125062362724,0.011822714790155025,5.387559924463692e-05,0.012586506473228726
152min_1454C,152.72727272727272,1454.5454545454545,electrolyte,0.010311433025270832,0.00947988313430525,-0.00014137144969049803,0.009924848256185621
152min_1454C,152.72727272727272,1454.5454545454545,cathode,0.013097214467588639,0.011626732183579585,-7.355299425897665e-05,0.012428047040546428
152min_1454C,152.72727272727272,1454.5454545454545,interface_ae,0.01992640815482966,0.017929532591927668,6.09138120907177e-05,0.019007099408991816
152min_1454C,152.72727272727272,1454.5454545454545,interface_ec,0.019460726966853054,0.017647988877869853,0.00012130976999791835,0.018621838271943667
154min_1457C,154.54545454545453,1457.5757575757575,anode,0.013287612023297026,0.01239720768450848,3.933178393943719e-05,0.012865719829772535
154min_1457C,154.54545454545453,1457.5757575757575,electrolyte,0.010645824735753243,0.009484850128369212,1.3354090478228231e-05,0.010115455953425593
154min_1457C,154.54545454545453,1457.5757575757575,cathode,0.013228774673292936,0.012074963511849859,9.567023167945841e-05,0.012692348484912285
154min_1457C,154.54545454545453,1457.5757575757575,interface_ae,0.01973170506875198,0.017633766074056652,-0.00018362053731032967,0.018773565696352943
154min_1457C,154.54545454545453,1457.5757575757575,interface_ec,0.019990501226236076,0.017679339343533433,-0.0002152890592952483,0.01894463966960478
156min_1460C,156.36363636363635,1460.6060606060605,anode,0.01347714273437886,0.01255808421561196,-6.070911539893324e-07,0.013041923290326071
156min_1460C,156.36363636363635,1460.6060606060605,electrolyte,0.010887239765668464,0.009663953321409836,-9.888965319114266e-06,0.010330077443757583
156min_1460C,156.36363636363635,1460.6060606060605,cathode,0.013583242310070222,0.01200142940328767,2.6739231407190298e-05,0.012865558700795334
156min_1460C,156.36363636363635,1460.6060606060605,interface_ae,0.020163480081448203,0.017955608377459492,9.920423495365229e-05,0.019155985324988144
156min_1460C,156.36363636363635,1460.6060606060605,interface_ec,0.02006414856886992,0.017938077436289532,5.365098435704036e-05,0.019090339558707838
158min_1463C,158.1818181818182,1463.6363636363635,anode,0.013360230772782485,0.012191568163700449,-9.118996644203545e-07,0.012815925208025186
158min_1463C,158.1818181818182,1463.6363636363635,electrolyte,0.01104911860847887,0.00984368519235729,-2.502695874514392e-06,0.010498434823631822
158min_1463C,158.1818181818182,1463.6363636363635,cathode,0.01370347762898075,0.012463973442030086,5.578103063518623e-05,0.013128041987694657
158min_1463C,158.1818181818182,1463.6363636363635,interface_ae,0.020311957077679715,0.018016530651869905,-0.00010651136630753726,0.019267953025146358
158min_1463C,158.1818181818182,1463.6363636363635,interface_ec,0.020248841612840105,0.018156995457908078,-1.8697130298544602e-05,0.019288208685001983
160min_1466C,160.0,1466.6666666666667,anode,0.013692080574426767,0.012418614081373958,-7.049877805909122e-06,0.013101852183418288
160min_1466C,160.0,1466.6666666666667,electrolyte,0.011041900800323117,0.009863035307364112,-0.00019754665663538715,0.010507780705226573
160min_1466C,160.0,1466.6666666666667,cathode,0.013492883510683595,0.012283858019358287,-0.00012096947428411076,0.012932529095145234
160min_1466C,160.0,1466.6666666666667,interface_ae,0.02064111163017026,0.018775163462222657,0.00012187618516973168,0.019775403128063748
160min_1466C,160.0,1466.6666666666667,interface_ec,0.020478437309984977,0.018767158523123908,1.4866745720211155e-05,0.019678699587347963
161min_1469C,161.8181818181818,1469.6969696969697,anode,0.013754478664054041,0.012317025739741696,-3.0246968648812834e-05,0.013095162591156822
161min_1469C,161.8181818181818,1469.6969696969697,electrolyte,0.010979881322913875,0.009985848262435006,1.605739810498646e-05,0.010518189201359175
161min_1469C,161.8181818181818,1469.6969696969697,cathode,0.013822505062308333,0.012527093906399153,0.00011906462747863414,0.013224085531960915
161min_1469C,161.8181818181818,1469.6969696969697,interface_ae,0.020922754614504737,0.018362579814984844,-0.0002553921134901955,0.019772352463912363
161min_1469C,161.8181818181818,1469.6969696969697,interface_ec,0.020919707769664328,0.01838618366899174,-2.2476540189268357e-05,0.019775081524685236
163min_1472C,163.63636363636363,1472.7272727272727,anode,0.013729328047301067,0.01220661949974564,5.414627282047881e-05,0.01303518777148873
163min_1472C,163.63636363636363,1472.7272727272727,electrolyte,0.011322511554070882,0.009938310389663972,-0.000259104229214491,0.010707196275554538
163min_1472C,163.63636363636363,1472.7272727272727,cathode,0.013854101762862442,0.012645376388342153,-0.00014789115687741287,0.013293493285350054
163min_1472C,163.63636363636363,1472.7272727272727,interface_ae,0.02098169796272524,0.018847461411057868,5.792914996010884e-05,0.02000041938831918
163min_1472C,163.63636363636363,1472.7272727272727,interface_ec,0.020968942052452238,0.018655909592716156,0.00011965715016644914,0.019914511288153757
165min_1475C,165.45454545454544,1475.7575757575758,anode,0.01407339981867991,0.012689134252054788,-9.33267959073196e-05,0.013435831962090023
165min_1475C,165.45454545454544,1475.7575757575758,electrolyte,0.011195428136389943,0.009978715585160041,-1.72946059923423e-05,0.01063942103545316
165min_1475C,165.45454545454544,1475.7575757575758,cathode,0.014447447429313774,0.012420214931370504,-0.00016135613978767412,0.013550947616089888
165min_1475C,165.45454545454544,1475.7575757575758,interface_ae,0.02145189266542668,0.01900002800450479,-6.690727386599165e-05,0.02033744407387772
165min_1475C,165.45454545454544,1475.7575757575758,interface_ec,0.021365639537407173,0.01892076963198779,0.00018260097135469364,0.020256647351573644
167min_1478C,167.27272727272728,1478.7878787878788,anode,0.014382737311761014,0.012724854642114704,0.00021573082132655036,0.013634751041218272
167min_1478C,167.27272727272728,1478.7878787878788,electrolyte,0.01127657872539386,0.010406368613396937,2.9929258040649192e-05,0.010867759099047079
167min_1478C,167.27272727272728,1478.7878787878788,cathode,0.01450750039537292,0.013134739163089215,3.2004149065766625e-06,0.013872156924230087
167min_1478C,167.27272727272728,1478.7878787878788,interface_ae,0.021220044632170504,0.01932564981420359,-6.777153697521062e-05,0.02033946071736194
167min_1478C,167.27272727272728,1478.7878787878788,interface_ec,0.021773405655745065,0.019260962451832314,-3.653215513121087e-05,0.020632331992089067
169min_1481C,169.0909090909091,1481.8181818181818,anode,0.014426417230742996,0.012681107794707073,-9.716140385106515e-05,0.013638818791859594
169min_1481C,169.0909090909091,1481.8181818181818,electrolyte,0.011751667717244898,0.010229047586296133,-0.00010469109826819396,0.01107066488696042
169min_1481C,169.0909090909091,1481.8181818181818,cathode,0.014496811720075472,0.013187673883545612,7.189533106650668e-05,0.013889153106163055
169min_1481C,169.0909090909091,1481.8181818181818,interface_ae,0.021783431291516185,0.019274440561205627,-0.0001421810666741844,0.02064507526020144
169min_1481C,169.0909090909091,1481.8181818181818,interface_ec,0.021884488484746122,0.01936126361115109,-2.5083301645504738e-05,0.020738367867967893
170min_1484C,170.9090909090909,1484.848484848485,anode,0.014797723221868788,0.01319012195602921,4.558877720816076e-05,0.014063228320971179
170min_1484C,170.9090909090909,1484.848484848485,electrolyte,0.012058667983779399,0.010334397117243235,9.278401280812373e-05,0.011296813722888715
170min_1484C,170.9090909090909,1484.848484848485,cathode,0.014543487018478391,0.01313259440992173,0.00015284684264125318,0.013894402496848672
170min_1484C,170.9090909090909,1484.848484848485,interface_ae,0.021899693741506385,0.019725973147033542,0.00010725073373098022,0.020898620529970546
170min_1484C,170.9090909090909,1484.848484848485,interface_ec,0.021725136044339885,0.019450471997755816,-0.00010448091940210336,0.02068262545206116
172min_1487C,172.72727272727272,1487.878787878788,anode,0.014281682307190338,0.013618699688547049,-0.00011032083657216832,0.013963309077809242
172min_1487C,172.72727272727272,1487.878787878788,electrolyte,0.011695712175335276,0.010510603950069405,3.0740669780910076e-05,0.011150619492247164
172min_1487C,172.72727272727272,1487.878787878788,cathode,0.014838101067573398,0.013379552960230934,-5.830774385689385e-05,0.014165617565897744
172min_1487C,172.72727272727272,1487.878787878788,interface_ae,0.021979006094841026,0.019867703383936137,-2.486911261835471e-05,0.021003138535023464
172min_1487C,172.72727272727272,1487.878787878788,interface_ec,0.022333899552802305,0.019909382384166126,7.348777860498175e-05,0.021226130857698075
174min_1490C,174.54545454545453,1490.909090909091,anode,0.014950657178075208,0.013570967603404618,1.8102155870370695e-05,0.014310814463190541
174min_1490C,174.54545454545453,1490.909090909091,electrolyte,0.011595098349882212,0.01074895585587657,-6.513568937918291e-05,0.011196601511248221
174min_1490C,174.54545454545453,1490.909090909091,cathode,0.014712357587991774,0.013453545635658572,0.00012382830714336357,0.014126711651989712
174min_1490C,174.54545454545453,1490.909090909091,interface_ae,0.0222313757018598,0.020066175850381122,0.0001702214944635238,0.0212337870079217
174min_1490C,174.54545454545453,1490.909090909091,interface_ec,0.0222752720224103,0.020524745870697407,5.655096456315442e-05,0.02145386289932974
176min_1493C,176.36363636363635,1493.939393939394,anode,0.014609306036563297,0.01361598105377592,3.8115838488277776e-05,0.01413899173122046
176min_1493C,176.36363636363635,1493.939393939394,electrolyte,0.012227117421532117,0.010906886453898004,-1.3845598398377382e-05,0.011623397364145048
176min_1493C,176.36363636363635,1493.939393939394,cathode,0.014716598941136588,0.013423508078097808,-8.505204542093001e-05,0.014115316868559413
176min_1493C,176.36363636363635,1493.939393939394,interface_ae,0.022326083192630745,0.02031568477521664,0.00016699045043514063,0.021393808161126886
176min_1493C,176.36363636363635,1493.939393939394,interface_ec,0.022521122188556286,0.019958792481925485,4.446026682201407e-05,0.02135569872172163
178min_1496C,178.1818181818182,1496.969696969697,anode,0.015344405441540764,0.013472614648926594,-1.340171666729177e-05,0.014499427613534099
178min_1496C,178.1818181818182,1496.969696969697,electrolyte,0.012087000954315147,0.01071867732121593,6.482804338438591e-05,0.011464797451375146
178min_1496C,178.1818181818182,1496.969696969697,cathode,0.015080889514490077,0.013678477718571877,-8.874921778021002e-05,0.014431701192738752
178min_1496C,178.1818181818182,1496.969696969697,interface_ae,0.02257012705625277,0.020536333116251262,-3.72833152091767e-05,0.021625173655499007
178min_1496C,178.1818181818182,1496.969696969697,interface_ec,0.023003011486564133,0.020311929607562788,2.2468472575188592e-05,0.021782538563108706
180min_1500C,180.0,1500.0,anode,0.015435453508213936,0.013440368661068782,-0.0001760808811980776,0.014544124675574721
180min_1500C,180.0,1500.0,electrolyte,0.011894017010557437,0.011231750266809747,-5.518581458924468e-05,0.011577493787259743
180min_1500C,180.0,1500.0,cathode,0.01576057519897297,0.01361119228792391,1.8455130319703696e-05,0.014803414750499993
180min_1500C,180.0,1500.0,interface_ae,0.023181825003272552,0.020987281289114906,0.0002061503576636398,0.02216905496772385
180min_1500C,180.0,1500.0,interface_ec,0.023115076258877605,0.020790875216645372,5.925269492011831e-05,0.022045296760348804
