cycle,phase,time_hours,cycle_time_hours,temperature_C,region,strain_xx,strain_yy,strain_xy,von_mises_strain
1,startup,0.0,0.0,25.0,anode,0.00015308043120266992,0.00021468254048208905,4.986899121355445e-05,0.0002100458630640676
1,startup,0.0,0.0,25.0,electrolyte,-0.000388499538192354,-3.108448650555194e-05,-0.00011557075749169153,0.00042413633160369896
1,startup,0.0,0.0,25.0,cathode,-4.0521154583614776e-05,0.0001960008472267788,3.0515083587497267e-05,0.0002253752153420067
1,startup,0.0,0.0,25.0,interface_ae,0.00022961817327948655,6.835078414270787e-05,-0.00012983259396689027,0.0003037618481056771
1,startup,0.0,0.0,25.0,interface_ec,-0.000504169401314547,2.976175233591807e-05,-2.139264663511654e-05,0.000521009067072167
1,startup,0.04081632653061224,0.04081632653061224,85.7519033442633,anode,0.0005885063791463759,0.00034970261384974644,-7.347432134727093e-05,0.0005282280616049391
1,startup,0.04081632653061224,0.04081632653061224,85.7519033442633,electrolyte,0.00047063379559183376,0.0005815638061982924,1.8863108156798007e-05,0.000535795202751098
1,startup,0.04081632653061224,0.04081632653061224,85.7519033442633,cathode,0.001105508976457298,0.0004827072525709432,8.810588920574334e-05,0.0009720118986577466
1,startup,0.04081632653061224,0.04081632653061224,85.7519033442633,interface_ae,0.0015772508026712503,0.001518589952383761,-4.365148632655436e-05,0.001550598166340263
1,startup,0.04081632653061224,0.04081632653061224,85.7519033442633,interface_ec,0.0017821271288236227,0.0014387010792290926,-6.794449849177494e-05,0.001641870591650874
1,startup,0.08163265306122448,0.08163265306122448,141.74149215955785,anode,0.001503937028534238,0.0012776696424114306,4.891783506377937e-05,0.001407092917771061
1,startup,0.08163265306122448,0.08163265306122448,141.74149215955785,electrolyte,0.0007431668424310674,0.0008557571888061139,3.953072526493309e-05,0.0008082914008632619
1,startup,0.08163265306122448,0.08163265306122448,141.74149215955785,cathode,0.0015129464957554823,0.0015949690630766497,7.740227740710525e-05,0.0015613468205410343
1,startup,0.08163265306122448,0.08163265306122448,141.74149215955785,interface_ae,0.0030111875092856018,0.0026944994478972357,2.956655514819996e-05,0.002866453724214124
1,startup,0.08163265306122448,0.08163265306122448,141.74149215955785,interface_ec,0.003093343589467116,0.0022860300292647795,-3.0152629576934716e-05,0.0027795609480731503
1,startup,0.12244897959183673,0.12244897959183673,193.34208215163724,anode,0.0018752680850921178,0.002167153380375004,-6.084952000292773e-06,0.002036983474464547
1,startup,0.12244897959183673,0.12244897959183673,193.34208215163724,electrolyte,0.0013732331442390976,0.0014218326404806666,4.223247974498747e-05,0.0014000786997666278
1,startup,0.12244897959183673,0.12244897959183673,193.34208215163724,cathode,0.0019464289958549617,0.001897316118377633,-3.3516697322638484e-05,0.0019232195113521402
1,startup,0.12244897959183673,0.12244897959183673,193.34208215163724,interface_ae,0.003995405219740396,0.0036849391351187724,-1.835403220164656e-05,0.0038497045154237044
1,startup,0.12244897959183673,0.12244897959183673,193.34208215163724,interface_ec,0.004321321611163238,0.0035265480970307515,0.00011516655830474757,0.003988834848891009
1,startup,0.16326530612244897,0.16326530612244897,240.897724975064,anode,0.0027653564846741507,0.0024589944602102587,4.006416383398367e-05,0.002626531815536415
1,startup,0.16326530612244897,0.16326530612244897,240.897724975064,electrolyte,0.0016531398619133509,0.0016847356937973342,-3.67074646018183e-05,0.001670372516138104
1,startup,0.16326530612244897,0.16326530612244897,240.897724975064,cathode,0.0026064599883230005,0.002566173343549226,0.00014916738588018077,0.0025994237599591603
1,startup,0.16326530612244897,0.16326530612244897,240.897724975064,interface_ae,0.005716520067602044,0.0050875632027843785,-5.20630606562299e-05,0.005430181909343974
1,startup,0.16326530612244897,0.16326530612244897,240.897724975064,interface_ec,0.005252030247071186,0.005200995194176261,0.000205451488940476,0.005238799442070021
1,startup,0.2040816326530612,0.2040816326530612,284.7255022290931,anode,0.0036598581577099764,0.0028819839988053655,-0.00011546343387288443,0.0033455547027651704
1,startup,0.2040816326530612,0.2040816326530612,284.7255022290931,electrolyte,0.001965206382357513,0.0015801952577680454,-1.0737861841004537e-05,0.001803881724788306
1,startup,0.2040816326530612,0.2040816326530612,284.7255022290931,cathode,0.0036724323945725307,0.0029208086602268667,3.0232290034827492e-05,0.0033606773951510294
1,startup,0.2040816326530612,0.2040816326530612,284.7255022290931,interface_ae,0.006977712998772922,0.00581746331083615,0.0002035531456719595,0.00648560485626454
1,startup,0.2040816326530612,0.2040816326530612,284.7255022290931,interface_ec,0.007101012487411571,0.005872060105466534,-5.775342640192129e-05,0.006574032435851
1,startup,0.24489795918367346,0.24489795918367346,325.117639628244,anode,0.004011933281900566,0.0033382824034040312,-0.00011565552170673364,0.0037265131669970745
1,startup,0.24489795918367346,0.24489795918367346,325.117639628244,electrolyte,0.0027733634179092233,0.002458351282195488,1.5551160376356083e-05,0.002630182441547598
1,startup,0.24489795918367346,0.24489795918367346,325.117639628244,cathode,0.0036199127218768676,0.0031618821416643256,1.0722928841915274e-05,0.003414070055769895
1,startup,0.24489795918367346,0.24489795918367346,325.117639628244,interface_ae,0.007644997138344,0.006747356197387284,0.00010219631550600035,0.007240207893424339
1,startup,0.24489795918367346,0.24489795918367346,325.117639628244,interface_ec,0.007891607208729518,0.007091203319915128,-9.906232233772576e-05,0.007525362293893826
1,startup,0.2857142857142857,0.2857142857142857,362.34345544398667,anode,0.0042841804661850665,0.003982276865423743,4.480783410128918e-05,0.0041422170112069565
1,startup,0.2857142857142857,0.2857142857142857,362.34345544398667,electrolyte,0.0031358082834670904,0.002573919683296432,0.00018481091041055525,0.0029136751158428797
1,startup,0.2857142857142857,0.2857142857142857,362.34345544398667,cathode,0.004460822340267037,0.004042914015849452,-3.235149467844572e-05,0.004267611555298967
1,startup,0.2857142857142857,0.2857142857142857,362.34345544398667,interface_ae,0.008708495002221617,0.007843149933431336,0.00016129781705930544,0.008314379414147848
1,startup,0.2857142857142857,0.2857142857142857,362.34345544398667,interface_ec,0.008851484949706969,0.007644326698276516,0.00013773350295283418,0.008317318397052104
1,startup,0.32653061224489793,0.32653061224489793,396.65115620895585,anode,0.004357103058537003,0.003935592034716447,6.816342236683891e-05,0.004164059364522249
1,startup,0.32653061224489793,0.32653061224489793,396.65115620895585,electrolyte,0.0031198958846160615,0.002864128037986417,6.440752243194205e-06,0.0030002204785590735
1,startup,0.32653061224489793,0.32653061224489793,396.65115620895585,cathode,0.004909687928713754,0.0040571583708191835,5.7048608607969075e-05,0.004544881929864309
1,startup,0.32653061224489793,0.32653061224489793,396.65115620895585,interface_ae,0.009789880485227475,0.00868418799082189,0.00020135542946486998,0.009293080784137401
1,startup,0.32653061224489793,0.32653061224489793,396.65115620895585,interface_ec,0.009639817268286435,0.00849486008740508,-0.00015231724641738477,0.009125208355920702
1,startup,0.36734693877551017,0.36734693877551017,428.2694916567157,anode,0.0050971950314718725,0.004540443619494288,0.00010503195522763552,0.004846296929363729
1,startup,0.36734693877551017,0.36734693877551017,428.2694916567157,electrolyte,0.0032600600277867867,0.0031356570262419136,-1.6217169633801238e-07,0.003199672845431607
1,startup,0.36734693877551017,0.36734693877551017,428.2694916567157,cathode,0.005168043688676605,0.004628838828122262,-3.911563722528426e-05,0.004921115043610597
1,startup,0.36734693877551017,0.36734693877551017,428.2694916567157,interface_ae,0.010321147173780581,0.008817162887433198,-2.4795420732788963e-05,0.009657486680738524
1,startup,0.36734693877551017,0.36734693877551017,428.2694916567157,interface_ec,0.01031096099416937,0.009054923870721406,4.168730625900404e-05,0.009744116665258599
1,startup,0.4081632653061224,0.4081632653061224,457.4092799315351,anode,0.005711200970319845,0.004956376531118799,9.954151904494745e-05,0.005376462399185239
1,startup,0.4081632653061224,0.4081632653061224,457.4092799315351,electrolyte,0.003741770862011206,0.0031324482216625884,-4.628562857143798e-05,0.0034783048516273075
1,startup,0.4081632653061224,0.4081632653061224,457.4092799315351,cathode,0.005642039027115112,0.0050246910521707135,0.00013978443070314985,0.005365560604346225
1,startup,0.4081632653061224,0.4081632653061224,457.4092799315351,interface_ae,0.011397183768511504,0.009711580659079233,-1.020062801272617e-05,0.010654869283816268
1,startup,0.4081632653061224,0.4081632653061224,457.4092799315351,interface_ec,0.01129315272050704,0.010033474815992462,9.389694687047922e-05,0.010720205303415657
1,startup,0.44897959183673464,0.44897959183673464,484.2648132376524,anode,0.005913222023596987,0.004964073348857963,-9.989363762455914e-05,0.005503134313869706
1,startup,0.44897959183673464,0.44897959183673464,484.2648132376524,electrolyte,0.00390642513647,0.0034581157374582523,-0.0001098679373434385,0.0037075685360947797
1,startup,0.44897959183673464,0.44897959183673464,484.2648132376524,cathode,0.005934911512341111,0.005341122750738023,-0.00011512266575071442,0.005664930333207718
1,startup,0.44897959183673464,0.44897959183673464,484.2648132376524,interface_ae,0.012072994620687396,0.010354249528975368,0.0001257613112576651,0.011314076686901433
1,startup,0.44897959183673464,0.44897959183673464,484.2648132376524,interface_ec,0.011745304691171334,0.010224430662110496,-4.581369898417196e-05,0.011063833328352249
1,startup,0.4897959183673469,0.4897959183673469,509.01515330032225,anode,0.006226327192162887,0.005418218017410653,-2.1600142157311337e-05,0.0058643020310701266
1,startup,0.4897959183673469,0.4897959183673469,509.01515330032225,electrolyte,0.004126274960841166,0.0035381082252379367,-6.611239395200704e-06,0.0038659123907396893
1,startup,0.4897959183673469,0.4897959183673469,509.01515330032225,cathode,0.005903511536937832,0.005574253601967043,-8.920329769166798e-06,0.005745982940596022
1,startup,0.4897959183673469,0.4897959183673469,509.01515330032225,interface_ae,0.012812772229653277,0.010803914964079106,-0.00018082953284995144,0.011939920732424926
1,startup,0.4897959183673469,0.4897959183673469,509.01515330032225,interface_ec,0.01261432733234271,0.011061133401192498,-0.00010084330205311459,0.011915186817327717
1,startup,0.5306122448979591,0.5306122448979591,531.8253252762499,anode,0.006233731825466922,0.00606239916862847,0.00014141103906067817,0.0061547312501333065
1,startup,0.5306122448979591,0.5306122448979591,531.8253252762499,electrolyte,0.0037533016989628057,0.0036490532787682474,0.00016641920547838995,0.00371348241678561
1,startup,0.5306122448979591,0.5306122448979591,531.8253252762499,cathode,0.006444469104912168,0.005656797375686281,-2.8275932762936835e-05,0.006089160965067438
1,startup,0.5306122448979591,0.5306122448979591,531.8253252762499,interface_ae,0.01285518383818185,0.011168884496137616,0.00010525473107347488,0.012101855420202598
1,startup,0.5306122448979591,0.5306122448979591,531.8253252762499,interface_ec,0.012710775851685946,0.011559293935404976,8.865794927576496e-05,0.012176907879922427
1,startup,0.5714285714285714,0.5714285714285714,552.8474180739229,anode,0.006520689166980064,0.005808768615030047,0.00012131791883915899,0.006199045052756386
1,startup,0.5714285714285714,0.5714285714285714,552.8474180739229,electrolyte,0.004533685721439601,0.0037723973507311124,0.00012022490033611711,0.0042102002408394654
1,startup,0.5714285714285714,0.5714285714285714,552.8474180739229,cathode,0.007052241571451156,0.006047432834152202,-9.00160227873663e-05,0.006609228887335839
1,startup,0.5714285714285714,0.5714285714285714,552.8474180739229,interface_ae,0.013539179112826233,0.012044521939889198,-1.8859482914748825e-05,0.012857216144151296
1,startup,0.5714285714285714,0.5714285714285714,552.8474180739229,interface_ec,0.013809660289167561,0.011681289775076254,-0.00014942635290662388,0.012880667268554523
1,startup,0.6122448979591836,0.6122448979591836,572.2215984203204,anode,0.0070970980728812675,0.006115304105753227,-6.270486146977408e-05,0.006661578497388512
1,startup,0.6122448979591836,0.6122448979591836,572.2215984203204,electrolyte,0.004235989159045228,0.004042757611494131,-5.275510800076567e-06,0.004142764697511592
1,startup,0.6122448979591836,0.6122448979591836,572.2215984203204,cathode,0.007191619646975129,0.0062273942151388016,-1.3260407824049676e-05,0.006761309694556107
1,startup,0.6122448979591836,0.6122448979591836,572.2215984203204,interface_ae,0.014357247828527629,0.012164732516339505,5.363892188475762e-05,0.013396560539960883
1,startup,0.6122448979591836,0.6122448979591836,572.2215984203204,interface_ec,0.013787618268210492,0.012259553601029052,-0.00012126571326233138,0.01309233145533603
1,startup,0.6530612244897959,0.6530612244897959,590.0770454353908,anode,0.007447705222385749,0.006403276662740843,-1.3503244592976752e-06,0.006984307662739818
1,startup,0.6530612244897959,0.6530612244897959,590.0770454353908,electrolyte,0.004518009267396097,0.004110694461962371,-7.634653033091117e-05,0.0043307675305176594
1,startup,0.6530612244897959,0.6530612244897959,590.0770454353908,cathode,0.007368007718266209,0.0062181404823935995,0.0001329794365205076,0.006869537998969426
1,startup,0.6530612244897959,0.6530612244897959,590.0770454353908,interface_ae,0.014247517340665912,0.012671413452428532,0.00016772005099660963,0.013531617656705302
1,startup,0.6530612244897959,0.6530612244897959,590.0770454353908,interface_ec,0.014495605680998324,0.01256974168603896,2.1907156253766865e-05,0.013635116827163382
1,startup,0.6938775510204082,0.6938775510204082,606.5328119456506,anode,0.0074085707379525825,0.0064360372329043715,-0.00010958708107987175,0.006975936246521238
1,startup,0.6938775510204082,0.6938775510204082,606.5328119456506,electrolyte,0.0054310466922822586,0.004241776954581394,-0.0001925567360332877,0.0049560957917866005
1,startup,0.6938775510204082,0.6938775510204082,606.5328119456506,cathode,0.007802391138196598,0.006725425465050146,-7.664664310197877e-05,0.007324744311847424
1,startup,0.6938775510204082,0.6938775510204082,606.5328119456506,interface_ae,0.014820674555053754,0.013341117127287711,-2.4691832748945465e-05,0.014139139803618039
1,startup,0.6938775510204082,0.6938775510204082,606.5328119456506,interface_ec,0.014622102809101962,0.013563870560976998,-4.33990462215957e-05,0.014122953506776394
1,startup,0.7346938775510203,0.7346938775510203,621.6986182797979,anode,0.007998451357358393,0.007031103560447623,-0.00010010095444828143,0.007563316876888222
1,startup,0.7346938775510203,0.7346938775510203,621.6986182797979,electrolyte,0.00521120702941287,0.004273732259782676,-0.0001866700586803942,0.0048223126889620545
1,startup,0.7346938775510203,0.7346938775510203,621.6986182797979,cathode,0.00761441737685748,0.006854944069209735,-4.6273664799633795e-05,0.007264958960597651
1,startup,0.7346938775510203,0.7346938775510203,621.6986182797979,interface_ae,0.015337264351938797,0.013779546346694682,1.0649398029009184e-05,0.014620785566512686
1,startup,0.7346938775510203,0.7346938775510203,621.6986182797979,interface_ec,0.015230014357866827,0.013691239202442425,1.9767556695424516e-05,0.014521941016201374
1,startup,0.7755102040816326,0.7755102040816326,635.6755838390422,anode,0.007375363992469427,0.007019793341184705,3.9182870771610164e-05,0.007204482453534818
1,startup,0.7755102040816326,0.7755102040816326,635.6755838390422,electrolyte,0.005125819445211365,0.004685519909193686,-6.723935843265023e-05,0.00492184479000046
1,startup,0.7755102040816326,0.7755102040816326,635.6755838390422,cathode,0.007946984910526016,0.006620730884196945,4.070903833988318e-05,0.007374196217427933
1,startup,0.7755102040816326,0.7755102040816326,635.6755838390422,interface_ae,0.01614998184463165,0.013669274246367323,-7.598021319877752e-05,0.015064187999178809
1,startup,0.7755102040816326,0.7755102040816326,635.6755838390422,interface_ec,0.015617366816945361,0.013894245162021151,-0.00010630362728537181,0.01483221402761717
1,startup,0.8163265306122448,0.8163265306122448,648.5569013199622,anode,0.008130144976640935,0.007249756029888243,5.343472134537843e-05,0.007728209241096435
1,startup,0.8163265306122448,0.8163265306122448,648.5569013199622,electrolyte,0.0048761489904591655,0.004801285759548088,9.373674142536798e-05,0.0048418745277782615
1,startup,0.8163265306122448,0.8163265306122448,648.5569013199622,cathode,0.008211927775372,0.0071549564905255755,2.201893142051328e-05,0.007737869780058187
1,startup,0.8163265306122448,0.8163265306122448,648.5569013199622,interface_ae,0.016298268881430756,0.014545478779109512,-9.530404633648499e-05,0.01549727866038459
1,startup,0.8163265306122448,0.8163265306122448,648.5569013199622,interface_ec,0.01630741608096443,0.01414353266198733,-1.296730520286007e-05,0.015340383563577364
1,startup,0.8571428571428571,0.8571428571428571,660.4284580853368,anode,0.007891770740444067,0.007158229771194939,-9.972649579684154e-05,0.007553742564924392
1,startup,0.8571428571428571,0.8571428571428571,660.4284580853368,electrolyte,0.00523662908513712,0.004470234697758082,-4.489083873130064e-05,0.0048992210559313625
1,startup,0.8571428571428571,0.8571428571428571,660.4284580853368,cathode,0.008117854807115793,0.007234538636785778,-0.0001614749862291331,0.007719287805244467
1,startup,0.8571428571428571,0.8571428571428571,660.4284580853368,interface_ae,0.016109050127491885,0.014502758160342142,-7.97438117070099e-05,0.015369609926803285
1,startup,0.8571428571428571,0.8571428571428571,660.4284580853368,interface_ec,0.016613059715086937,0.014475429250599045,6.067621502064074e-05,0.015654445993187764
1,startup,0.8979591836734693,0.8979591836734693,671.3694088259941,anode,0.008622388900548618,0.007277478221727393,-5.744867054162757e-05,0.008035417427007445
1,startup,0.8979591836734693,0.8979591836734693,671.3694088259941,electrolyte,0.005595503300821649,0.004872525962443597,-1.8733030982130088e-05,0.005271430936410898
1,startup,0.8979591836734693,0.8979591836734693,671.3694088259941,cathode,0.008618542029855628,0.007296971522120721,3.2773637555781433e-06,0.008039641570636797
1,startup,0.8979591836734693,0.8979591836734693,671.3694088259941,interface_ae,0.01668474540309573,0.01449192198919772,7.758538948639097e-06,0.015703588249206223
1,startup,0.8979591836734693,0.8979591836734693,671.3694088259941,interface_ec,0.01695985290840858,0.014767834431252649,3.106342639893144e-06,0.015977023304798155
1,startup,0.9387755102040816,0.9387755102040816,681.4527033319537,anode,0.008438004006114656,0.007520087972547325,7.497666284891852e-05,0.008019598916609536
1,startup,0.9387755102040816,0.9387755102040816,681.4527033319537,electrolyte,0.005627580116704014,0.00477867149609854,3.247815941101145e-05,0.0052551086605662906
1,startup,0.9387755102040816,0.9387755102040816,681.4527033319537,cathode,0.008566345410577445,0.007252475569360659,1.6823054118369438e-05,0.007990889425716413
1,startup,0.9387755102040816,0.9387755102040816,681.4527033319537,interface_ae,0.016508454147435108,0.015004335875696346,6.603430545626816e-05,0.015810561159570472
1,startup,0.9387755102040816,0.9387755102040816,681.4527033319537,interface_ec,0.01709022414985287,0.014828819763298196,3.090468350240348e-05,0.01607932426224592
1,startup,0.9795918367346939,0.9795918367346939,690.7455728918258,anode,0.008875056225776954,0.007842187531526726,-2.917269922656063e-06,0.00840634870477904
1,startup,0.9795918367346939,0.9795918367346939,690.7455728918258,electrolyte,0.00561153647298058,0.005135814070161395,-0.00015008020152621748,0.005395710516546641
1,startup,0.9795918367346939,0.9795918367346939,690.7455728918258,cathode,0.008525650308133315,0.007826547692975824,9.752005416847662e-05,0.008200224612756319
1,startup,0.9795918367346939,0.9795918367346939,690.7455728918258,interface_ae,0.01725438366886742,0.014817700722670822,-4.991023304116202e-06,0.016174294169163696
1,startup,0.9795918367346939,0.9795918367346939,690.7455728918258,interface_ec,0.017062547834087453,0.01518507498430039,-8.093466847948803e-05,0.016206190911105648
1,startup,1.0204081632653061,1.0204081632653061,699.3099785635789,anode,0.008495629237954484,0.0072437079913787485,0.00012218046849767016,0.007946820018789685
1,startup,1.0204081632653061,1.0204081632653061,699.3099785635789,electrolyte,0.005575548943728502,0.005008271837235567,-2.2381164741810934e-07,0.005314665390956417
1,startup,1.0204081632653061,1.0204081632653061,699.3099785635789,cathode,0.008487287130357306,0.007404868064625838,-0.00010053151259972355,0.008003073922926644
1,startup,1.0204081632653061,1.0204081632653061,699.3099785635789,interface_ae,0.017256914146132934,0.015386683343233716,-7.957176635206116e-05,0.01640254345222204
1,startup,1.0204081632653061,1.0204081632653061,699.3099785635789,interface_ec,0.017750845960217736,0.015518792301009584,8.083595496657084e-05,0.016747338848792207
1,startup,1.0612244897959182,1.0612244897959182,707.2030243055624,anode,0.008778687887964239,0.008049161455387902,-2.1800563112112405e-05,0.008437695822093017
1,startup,1.0612244897959182,1.0612244897959182,707.2030243055624,electrolyte,0.005715450501667416,0.005069093358308328,7.01823040543344e-05,0.005422610662948314
1,startup,1.0612244897959182,1.0612244897959182,707.2030243055624,cathode,0.008930001284259467,0.007651280252554884,-5.3299371942595374e-05,0.00836478286793006
1,startup,1.0612244897959182,1.0612244897959182,707.2030243055624,interface_ae,0.017733219928348157,0.015635657933265858,-3.933511248228729e-05,0.01678317517430658
1,startup,1.0612244897959182,1.0612244897959182,707.2030243055624,interface_ec,0.017287801722982048,0.015451147397285961,6.235257988258587e-05,0.016446924795888197
1,startup,1.1020408163265305,1.1020408163265305,714.4773377223732,anode,0.009257565146346836,0.007589312371347202,-4.265712528305736e-05,0.008546758444347713
1,startup,1.1020408163265305,1.1020408163265305,714.4773377223732,electrolyte,0.005704832442785798,0.0053599486443662685,-3.494150045863278e-06,0.005540450376974091
1,startup,1.1020408163265305,1.1020408163265305,714.4773377223732,cathode,0.008715016465188427,0.007940643020399698,-4.046385200409464e-05,0.008355082337650414
1,startup,1.1020408163265305,1.1020408163265305,714.4773377223732,interface_ae,0.01754808609945417,0.01547925326617544,0.00017340419544226192,0.016613294237060476
1,startup,1.1020408163265305,1.1020408163265305,714.4773377223732,interface_ec,0.017869805398455653,0.015679359938721178,-2.4989373581204614e-05,0.016881559039251565
1,startup,1.1428571428571428,1.1428571428571428,721.1814209642242,anode,0.009041415845381491,0.007961074936923303,2.921688282073261e-05,0.008552723919207339
1,startup,1.1428571428571428,1.1428571428571428,721.1814209642242,electrolyte,0.005861909968078076,0.0053120277036809325,2.3104346000731033e-06,0.005607228786658951
1,startup,1.1428571428571428,1.1428571428571428,721.1814209642242,cathode,0.008787398309847204,0.00778254316954263,-0.00019790186934897123,0.008337597735380604
1,startup,1.1428571428571428,1.1428571428571428,721.1814209642242,interface_ae,0.01837133557712394,0.015982606413836146,-8.30070495129237e-05,0.01730169134368156
1,startup,1.1428571428571428,1.1428571428571428,721.1814209642242,interface_ec,0.017909603184036043,0.015682680200604322,0.0001542547211374117,0.016908611675299605
1,startup,1.183673469387755,1.183673469387755,727.3599741194676,anode,0.008778733910622815,0.007998079434023517,-1.0852784256484785e-05,0.008415627481532796
1,startup,1.183673469387755,1.183673469387755,727.3599741194676,electrolyte,0.006056128799401873,0.005163067898923905,-0.0001758208876655435,0.005670846578908779
1,startup,1.183673469387755,1.183673469387755,727.3599741194676,cathode,0.009012485776548512,0.007780751778671095,7.957954655656065e-06,0.008464116809495352
1,startup,1.183673469387755,1.183673469387755,727.3599741194676,interface_ae,0.018412254094258066,0.015602483395673066,-8.002227353999038e-05,0.01718112076827322
1,startup,1.183673469387755,1.183673469387755,727.3599741194676,interface_ec,0.0180148800961973,0.01587404222543688,7.401256641052444e-05,0.017046072500786224
1,startup,1.2244897959183672,1.2244897959183672,733.0541932565242,anode,0.009101474255281584,0.008123001707282687,-6.257730437317763e-05,0.008654504445587687
1,startup,1.2244897959183672,1.2244897959183672,733.0541932565242,electrolyte,0.005984503909299598,0.005381456281565632,-7.322995497370885e-05,0.005708336051336354
1,startup,1.2244897959183672,1.2244897959183672,733.0541932565242,cathode,0.009292454762755163,0.008050315715884111,0.00010454602404822527,0.008739730753343873
1,startup,1.2244897959183672,1.2244897959183672,733.0541932565242,interface_ae,0.018232082297572328,0.016155931255309616,-4.060623167853001e-06,0.017287762170304057
1,startup,1.2244897959183672,1.2244897959183672,733.0541932565242,interface_ec,0.018253123825179605,0.016131468409922335,5.368074692249038e-05,0.01729045276842531
1,startup,1.2653061224489794,1.2653061224489794,738.3020451024382,anode,0.00895398437377569,0.008386156395184809,-0.00018596630405497984,0.008689976543727036
1,startup,1.2653061224489794,1.2653061224489794,738.3020451024382,electrolyte,0.005845570859556542,0.005245775473570822,4.123559690859481e-05,0.005570404641719396
1,startup,1.2653061224489794,1.2653061224489794,738.3020451024382,cathode,0.009519131861708769,0.007727771375776212,-5.0769412838971066e-05,0.008762327300070052
1,startup,1.2653061224489794,1.2653061224489794,738.3020451024382,interface_ae,0.01798242801476113,0.016205183741624517,2.7168358450003066e-05,0.017163023092253874
1,startup,1.2653061224489794,1.2653061224489794,738.3020451024382,interface_ec,0.018725953860755234,0.016222986299021157,0.00010440251294423797,0.017609328186741106
1,startup,1.3061224489795917,1.3061224489795917,743.1385201895032,anode,0.009383070902623981,0.008067297428557194,-0.00014089607467920393,0.008802660888126163
1,startup,1.3061224489795917,1.3061224489795917,743.1385201895032,electrolyte,0.006078097725763873,0.005001905190743777,0.00012952070726696442,0.005622329212845158
1,startup,1.3061224489795917,1.3061224489795917,743.1385201895032,cathode,0.009233891065908805,0.008393382550260512,-4.802144341323995e-05,0.008844034875867756
1,startup,1.3061224489795917,1.3061224489795917,743.1385201895032,interface_ae,0.018586377129912537,0.016350563907383396,-4.5044118010923956e-06,0.017575456429480777
1,startup,1.3061224489795917,1.3061224489795917,743.1385201895032,interface_ec,0.018446075069953022,0.01638718533961056,-9.261632634832084e-05,0.017508398305759395
1,startup,1.346938775510204,1.346938775510204,747.5958661578376,anode,0.009081930562051255,0.008453524891167264,7.271679888921006e-05,0.00878550413760498
1,startup,1.346938775510204,1.346938775510204,747.5958661578376,electrolyte,0.006073659779818441,0.00566625215963499,-2.6776551872484485e-05,0.005880732927489438
1,startup,1.346938775510204,1.346938775510204,747.5958661578376,cathode,0.009588358271840862,0.008240074329487063,-0.00010247507500763903,0.00899211642884607
1,startup,1.346938775510204,1.346938775510204,747.5958661578376,interface_ae,0.019017243294040302,0.016608061194328613,-1.210210310095643e-05,0.017934440000934693
1,startup,1.346938775510204,1.346938775510204,747.5958661578376,interface_ec,0.01879306950759292,0.016329178338204214,8.29149035059542e-05,0.017690866791935732
1,startup,1.3877551020408163,1.3877551020408163,751.7038027694748,anode,0.00889860754848482,0.008047644203417699,9.792597442869628e-05,0.00850680519114574
1,startup,1.3877551020408163,1.3877551020408163,751.7038027694748,electrolyte,0.006045004012358263,0.00540505136457955,-0.00013467856621154347,0.005756519045905717
1,startup,1.3877551020408163,1.3877551020408163,751.7038027694748,cathode,0.00974639666068203,0.008489710398900153,-2.0068521837532978e-05,0.009182840174981567
1,startup,1.3877551020408163,1.3877551020408163,751.7038027694748,interface_ae,0.018672707351710557,0.016709129812597173,0.00019824704501689278,0.017775776593922796
1,startup,1.3877551020408163,1.3877551020408163,751.7038027694748,interface_ec,0.018944398574245493,0.016937569473792557,-9.22351329061918e-05,0.018025674799800176
1,startup,1.4285714285714284,1.4285714285714284,755.4897200675965,anode,0.009261796441224069,0.008056804726834298,4.4176064964947937e-05,0.008722290120864274
1,startup,1.4285714285714284,1.4285714285714284,755.4897200675965,electrolyte,0.006161808684721362,0.0053610951930948315,8.092586281232987e-05,0.005804724972116955
1,startup,1.4285714285714284,1.4285714285714284,755.4897200675965,cathode,0.00967213952836676,0.0079894604685876,-5.969720279011155e-05,0.00895082546443801
1,startup,1.4285714285714284,1.4285714285714284,755.4897200675965,interface_ae,0.019015376333472264,0.01649563816411822,-7.982060763581542e-05,0.017889632807349766
1,startup,1.4285714285714284,1.4285714285714284,755.4897200675965,interface_ec,0.019055055100177732,0.01633128588694514,-3.01579807791105e-05,0.017849795507816398
1,startup,1.4693877551020407,1.4693877551020407,758.9788610021507,anode,0.009536423785833872,0.008219447600210136,7.831556560131749e-05,0.008951925036438
1,startup,1.4693877551020407,1.4693877551020407,758.9788610021507,electrolyte,0.006042176342397918,0.005698961427634089,-1.2574629749577262e-05,0.005878129018314017
1,startup,1.4693877551020407,1.4693877551020407,758.9788610021507,cathode,0.009604949008013982,0.008483416373588725,-6.275400027440728e-05,0.009096836336100741
1,startup,1.4693877551020407,1.4693877551020407,758.9788610021507,interface_ae,0.018530692651614646,0.016740574316917087,7.228834712486951e-06,0.017703647022539695
1,startup,1.4693877551020407,1.4693877551020407,758.9788610021507,interface_ec,0.019052555166860847,0.016623117671507755,-4.3042769880071585e-05,0.017961642215164105
1,startup,1.510204081632653,1.510204081632653,762.19448973953,anode,0.009913881566577373,0.008076253716353152,7.339504783642385e-05,0.009135647730764139
1,startup,1.510204081632653,1.510204081632653,762.19448973953,electrolyte,0.006068001155210993,0.005373815220077866,-3.1710283257396576e-05,0.00575267135355848
1,startup,1.510204081632653,1.510204081632653,762.19448973953,cathode,0.00935150010954678,0.008484969370702556,0.00013906435959499573,0.008952993030786779
1,startup,1.510204081632653,1.510204081632653,762.19448973953,interface_ae,0.019118376661011398,0.016762125456553034,-9.864404990992466e-05,0.018056736687501646
1,startup,1.510204081632653,1.510204081632653,762.19448973953,interface_ec,0.019127738981926955,0.017172718983656476,-3.806946237950925e-05,0.018229145272746553
1,startup,1.5510204081632653,1.5510204081632653,765.1580467785295,anode,0.00947522969417517,0.008292157414643878,-4.894142344944204e-05,0.00894298283412149
1,startup,1.5510204081632653,1.5510204081632653,765.1580467785295,electrolyte,0.005658717255795127,0.005543850983717194,-8.455521763546138e-05,0.005604081391277833
1,startup,1.5510204081632653,1.5510204081632653,765.1580467785295,cathode,0.009228373786287183,0.008555013230786588,-0.00010820177850419362,0.008912765965324651
1,startup,1.5510204081632653,1.5510204081632653,765.1580467785295,interface_ae,0.019033119009314335,0.01710203895991787,-0.00014092157980245135,0.018146453914144944
1,startup,1.5510204081632653,1.5510204081632653,765.1580467785295,interface_ec,0.018794333173171536,0.01686261171959262,0.00011494873640103685,0.01790789575126202
1,startup,1.5918367346938773,1.5918367346938773,767.8892919068342,anode,0.009270799939122436,0.008516926036116004,5.809995399616921e-05,0.00891836139953589
1,startup,1.5918367346938773,1.5918367346938773,767.8892919068342,electrolyte,0.005818852286996274,0.005642702525268014,8.766058798421794e-05,0.005734817727583814
1,startup,1.5918367346938773,1.5918367346938773,767.8892919068342,cathode,0.009523311168017624,0.00868585736120817,0.00011364555743248453,0.009135545809009656
1,startup,1.5918367346938773,1.5918367346938773,767.8892919068342,interface_ae,0.019191960150481097,0.01678048709943215,-9.728278925829572e-05,0.018107844538132
1,startup,1.5918367346938773,1.5918367346938773,767.8892919068342,interface_ec,0.019163823863464418,0.016984727961437972,-3.2417686104064125e-05,0.018172615295856613
1,startup,1.6326530612244896,1.6326530612244896,770.4064359512107,anode,0.009178647359608378,0.008717712632296804,1.9022322184489376e-05,0.008957139967831325
1,startup,1.6326530612244896,1.6326530612244896,770.4064359512107,electrolyte,0.006175871015094143,0.005673012082382627,0.00015246385964827564,0.005946292431386977
1,startup,1.6326530612244896,1.6326530612244896,770.4064359512107,cathode,0.009057765246763206,0.008550822583365906,-0.00014266492108103474,0.008818695727257133
1,startup,1.6326530612244896,1.6326530612244896,770.4064359512107,interface_ae,0.019336117222681356,0.016953525147237896,6.3572652644055e-05,0.018262097881380623
1,startup,1.6326530612244896,1.6326530612244896,770.4064359512107,interface_ec,0.019136445598422636,0.01655329168439915,-4.503681912566681e-05,0.017984713922720365
1,startup,1.673469387755102,1.673469387755102,772.7262621998615,anode,0.009729450329606815,0.00869338957200444,-0.00011718313004725251,0.009257241467526147
1,startup,1.673469387755102,1.673469387755102,772.7262621998615,electrolyte,0.006476664607050861,0.005389127761145802,3.6244988159452655e-05,0.0060075161691159375
1,startup,1.673469387755102,1.673469387755102,772.7262621998615,cathode,0.00954610201200573,0.008526745231811815,8.918776345702747e-05,0.009080756104534344
1,startup,1.673469387755102,1.673469387755102,772.7262621998615,interface_ae,0.019050758789700008,0.016844641033189424,1.8496258734208663e-05,0.018049132253732524
1,startup,1.673469387755102,1.673469387755102,772.7262621998615,interface_ec,0.019776478337363786,0.016807984270105422,0.0002040133885996919,0.01847537707945424
1,startup,1.7142857142857142,1.7142857142857142,774.8642383065335,anode,0.01007655225178708,0.008495125249985481,-2.981525261999003e-05,0.009386434449611208
1,startup,1.7142857142857142,1.7142857142857142,774.8642383065335,electrolyte,0.006150770894450891,0.005520841356015236,-0.0001406719432559558,0.00586631122049549
1,startup,1.7142857142857142,1.7142857142857142,774.8642383065335,cathode,0.009660419787587925,0.00881396353489597,-6.110850624767177e-05,0.009266837576860632
1,startup,1.7142857142857142,1.7142857142857142,774.8642383065335,interface_ae,0.019303190321306278,0.01668894686539815,3.7406208813104354e-05,0.018138036942433437
1,startup,1.7142857142857142,1.7142857142857142,774.8642383065335,interface_ec,0.019404231519094366,0.017041915432204752,-2.168270502221434e-05,0.01833759036211674
1,startup,1.7551020408163265,1.7551020408163265,776.8346194225153,anode,0.009642540279761835,0.008637340886634502,-2.881660158862331e-06,0.009181304816922612
1,startup,1.7551020408163265,1.7551020408163265,776.8346194225153,electrolyte,0.006368704085596679,0.005592021109422248,0.00011234272870957618,0.006021214727767251
1,startup,1.7551020408163265,1.7551020408163265,776.8346194225153,cathode,0.009836490682991337,0.008575533208524406,0.000151842203065218,0.009274283499205869
1,startup,1.7551020408163265,1.7551020408163265,776.8346194225153,interface_ae,0.019486237432843966,0.017334914217546817,6.0694260838663784e-05,0.01850490468166947
1,startup,1.7551020408163265,1.7551020408163265,776.8346194225153,interface_ec,0.019033799911246343,0.0173348886324526,1.3517624134266909e-05,0.018243783857126262
1,startup,1.7959183673469385,1.7959183673469385,778.6505432441623,anode,0.009714132184454197,0.008613850031496145,-3.4498316195706744e-05,0.009213591538623661
1,startup,1.7959183673469385,1.7959183673469385,778.6505432441623,electrolyte,0.006366345812190119,0.005444052022030232,0.000127427225873437,0.005963057665396687
1,startup,1.7959183673469385,1.7959183673469385,778.6505432441623,cathode,0.009701805515910144,0.008481063593453743,-9.24925815719274e-05,0.00915409771774009
1,startup,1.7959183673469385,1.7959183673469385,778.6505432441623,interface_ae,0.019502801435098433,0.01715258214402148,3.884246136775064e-05,0.01844048428270341
1,startup,1.7959183673469385,1.7959183673469385,778.6505432441623,interface_ec,0.01924359589976768,0.016794924484234145,6.255913025065599e-05,0.01814393762603091
1,startup,1.8367346938775508,1.8367346938775508,780.324117609689,anode,0.010043046018951934,0.008371312804509458,0.00015894412835616985,0.009324374584003847
1,startup,1.8367346938775508,1.8367346938775508,780.324117609689,electrolyte,0.006391758682022087,0.005573366712931668,-3.97548696545778e-05,0.006024792265259388
1,startup,1.8367346938775508,1.8367346938775508,780.324117609689,cathode,0.009469214042691633,0.008774129232172358,-7.756063614376032e-05,0.00914249952629637
1,startup,1.8367346938775508,1.8367346938775508,780.324117609689,interface_ae,0.019336273958005745,0.017351552319952265,-0.00018829834466717267,0.018427150024776975
1,startup,1.8367346938775508,1.8367346938775508,780.324117609689,interface_ec,0.019187515731019632,0.01714954020927326,2.932844290048521e-05,0.018254122746522515
1,startup,1.8775510204081631,1.8775510204081631,781.866501229288,anode,0.009862966300294275,0.008533737347537181,0.00025303696686416896,0.009280457779817172
1,startup,1.8775510204081631,1.8775510204081631,781.866501229288,electrolyte,0.006302334079202152,0.005540005849620136,-7.969866688138775e-05,0.005959460346974878
1,startup,1.8775510204081631,1.8775510204081631,781.866501229288,cathode,0.009790800734004705,0.008717089292625787,0.000120357805453346,0.009302881193908355
1,startup,1.8775510204081631,1.8775510204081631,781.866501229288,interface_ae,0.019234181888512936,0.017138995024761725,4.467036108091442e-05,0.018277044126720772
1,startup,1.8775510204081631,1.8775510204081631,781.866501229288,interface_ec,0.019649450248319888,0.01718950382399377,5.4242396953210184e-05,0.018542504235035423
1,startup,1.9183673469387754,1.9183673469387754,783.2879780868515,anode,0.009622568228987115,0.008921818773127274,9.926281029794296e-05,0.009293622490045951
1,startup,1.9183673469387754,1.9183673469387754,783.2879780868515,electrolyte,0.006090849097508945,0.005381633886707991,-0.00010469217501069062,0.0057718790243503695
1,startup,1.9183673469387754,1.9183673469387754,783.2879780868515,cathode,0.009919955001751583,0.008353292133380109,-3.310243342080806e-05,0.00923699095680218
1,startup,1.9183673469387754,1.9183673469387754,783.2879780868515,interface_ae,0.019659662894427908,0.017207242186417917,2.588875157127058e-05,0.018555456306413077
1,startup,1.9183673469387754,1.9183673469387754,783.2879780868515,interface_ec,0.019355561472874802,0.017339446248006655,-6.132118924759965e-05,0.018430700453959923
1,startup,1.9591836734693877,1.9591836734693877,784.5980260093738,anode,0.009736340916854267,0.008672659415106991,1.0307822153084817e-05,0.009250497598075443
1,startup,1.9591836734693877,1.9591836734693877,784.5980260093738,electrolyte,0.006375618157430126,0.005456198130796415,-2.9954941119919217e-05,0.005969477443973598
1,startup,1.9591836734693877,1.9591836734693877,784.5980260093738,cathode,0.009801701569901263,0.008350096022892377,-4.6253296631337886e-05,0.009162899435378808
1,startup,1.9591836734693877,1.9591836734693877,784.5980260093738,interface_ae,0.01968006567927428,0.016994738818282517,0.00011565816515942398,0.01848536412759511
1,startup,1.9591836734693877,1.9591836734693877,784.5980260093738,interface_ec,0.01985645235598768,0.01700119602385957,0.00013576196330501394,0.018595462389969595
1,startup,2.0,2.0,785.805379861231,anode,0.00978812729337023,0.00872252528961055,-4.966510521282467e-05,0.00930161788899077
1,startup,2.0,2.0,785.805379861231,electrolyte,0.00656555731266858,0.005696453349326174,-8.141532565976035e-05,0.006178642084535906
1,startup,2.0,2.0,785.805379861231,cathode,0.0095838032111196,0.008346761890737294,1.8794177643275646e-05,0.009029122565486186
1,startup,2.0,2.0,785.805379861231,interface_ae,0.019748181504581262,0.017407837891314167,-1.1798109460737784e-05,0.018688252141233538
1,startup,2.0,2.0,785.805379861231,interface_ec,0.019402287931092443,0.01714122979595352,0.00011523486389619258,0.01837746710257321
1,operation,4.0,2.0,800.0,anode,0.009903074287079984,0.008828683526136296,-0.00010756504835748875,0.009413826801175631
1,operation,4.0,2.0,800.0,electrolyte,0.0065673166090918075,0.005628463087664184,0.00010467127137757638,0.006154527868092693
1,operation,4.0,2.0,800.0,cathode,0.010154711541241363,0.008700858810685021,-1.2666402734766338e-05,0.00951151304782765
1,operation,4.0,2.0,800.0,interface_ae,0.019889776751991876,0.017316113360691,-8.574424295472166e-05,0.018736579955628233
1,operation,4.0,2.0,800.0,interface_ec,0.020039643465544165,0.017665051899645918,1.485479035926389e-05,0.018964194920124158
1,operation,4.122448979591837,2.122448979591837,800.0,anode,0.009939653389208273,0.008986613321144197,6.35419045609374e-06,0.009499064588345516
1,operation,4.122448979591837,2.122448979591837,800.0,electrolyte,0.00664065076561919,0.005365244973559497,-0.00039224002516183423,0.0061414114654400635
1,operation,4.122448979591837,2.122448979591837,800.0,cathode,0.010056757605567616,0.008515046869255702,-2.1245170271305604e-05,0.009381470483372584
1,operation,4.122448979591837,2.122448979591837,800.0,interface_ae,0.01993958059179508,0.01791748012048311,3.9999655294360645e-05,0.019009490500737
1,operation,4.122448979591837,2.122448979591837,800.0,interface_ec,0.020033171805359736,0.017767398230926736,3.684975868390388e-05,0.019001977394448824
1,operation,4.244897959183673,2.2448979591836733,800.0,anode,0.009908464601402314,0.009014295186050913,-0.00011097501278882742,0.009494962351758804
1,operation,4.244897959183673,2.2448979591836733,800.0,electrolyte,0.006564649437506713,0.005410486041172738,2.0394385751599505e-05,0.006070525931512876
1,operation,4.244897959183673,2.2448979591836733,800.0,cathode,0.010038597928354586,0.009135290992382934,-0.00015649738934417795,0.009622627029571536
1,operation,4.244897959183673,2.2448979591836733,800.0,interface_ae,0.019879822564829237,0.01776453648531483,3.353172563973078e-05,0.01891120412883734
1,operation,4.244897959183673,2.2448979591836733,800.0,interface_ec,0.0200360610102675,0.017408772859408294,-5.908183480914292e-05,0.018860444060049383
1,operation,4.36734693877551,2.36734693877551,800.0,anode,0.010249008201644651,0.008789698161249216,3.753596961444733e-05,0.009603098520043816
1,operation,4.36734693877551,2.36734693877551,800.0,electrolyte,0.006476962334244705,0.005483382896950047,9.338104260749967e-05,0.006043924606028538
1,operation,4.36734693877551,2.36734693877551,800.0,cathode,0.0101006464769065,0.009261127367473438,-0.00010155813796505451,0.00970974294292681
1,operation,4.36734693877551,2.36734693877551,800.0,interface_ae,0.020164514584240095,0.0173376912067926,1.5734656767307767e-05,0.0189102564853567
1,operation,4.36734693877551,2.36734693877551,800.0,interface_ec,0.020195301317812633,0.017185572976780705,-2.049324742416079e-05,0.018871342008233684
1,operation,4.4897959183673475,2.489795918367347,800.0,anode,0.009887358053191476,0.008659608540340976,3.8521265225935425e-05,0.009334477530572049
1,operation,4.4897959183673475,2.489795918367347,800.0,electrolyte,0.0067241371412845195,0.005693344256954169,2.0548642756002018e-05,0.0062726890794019005
1,operation,4.4897959183673475,2.489795918367347,800.0,cathode,0.01002286175061185,0.008800360701271284,-0.00010893426377121063,0.00947285107565133
1,operation,4.4897959183673475,2.489795918367347,800.0,interface_ae,0.02022168892034458,0.01765903907363177,3.948814900025777e-05,0.019070066779059352
1,operation,4.4897959183673475,2.489795918367347,800.0,interface_ec,0.019838698074194885,0.01750815592040215,-1.7613419771077838e-05,0.018782209043907986
1,operation,4.612244897959184,2.612244897959184,800.0,anode,0.00969317506131023,0.008462393134960465,-6.007479306385678e-05,0.009140738984749314
1,operation,4.612244897959184,2.612244897959184,800.0,electrolyte,0.006604504153288479,0.005589372522014012,-0.00010188051975907136,0.0061625210089419685
1,operation,4.612244897959184,2.612244897959184,800.0,cathode,0.009837062869352466,0.008708931515370938,-3.5385896282010375e-05,0.009324523777565919
1,operation,4.612244897959184,2.612244897959184,800.0,interface_ae,0.02043310429044131,0.017810924125697465,0.0001024774112281728,0.019257201350282593
1,operation,4.612244897959184,2.612244897959184,800.0,interface_ec,0.020233716072854676,0.01740023582613319,-0.0001222364614987239,0.01897748315432826
1,operation,4.73469387755102,2.7346938775510203,800.0,anode,0.00977862594169319,0.009066901226667569,-5.47191788882491e-05,0.009443377053864482
1,operation,4.73469387755102,2.7346938775510203,800.0,electrolyte,0.006249728763552143,0.005633800759956038,-2.3860553171462743e-05,0.005965802707199259
1,operation,4.73469387755102,2.7346938775510203,800.0,cathode,0.010053682654738912,0.008850190204142409,-8.281805638735082e-05,0.009510308844436172
1,operation,4.73469387755102,2.7346938775510203,800.0,interface_ae,0.020137131278502744,0.01747216129324997,-1.5627633670504304e-05,0.018945764787214305
1,operation,4.73469387755102,2.7346938775510203,800.0,interface_ec,0.020137354814100672,0.017471635719211134,-5.693514235811376e-05,0.018945931246170885
1,operation,4.857142857142858,2.857142857142857,800.0,anode,0.010118333609938626,0.008628453364678997,-3.8479202360407065e-05,0.009462016422194441
1,operation,4.857142857142858,2.857142857142857,800.0,electrolyte,0.0066111484356085794,0.006130818488287195,6.054045047627467e-05,0.00638541019469896
1,operation,4.857142857142858,2.857142857142857,800.0,cathode,0.010094527952598003,0.008906160316734546,-0.00010731902740670494,0.00955773268230987
1,operation,4.857142857142858,2.857142857142857,800.0,interface_ae,0.02002311934773598,0.017594046702332722,3.215845403727562e-05,0.018925939695180086
1,operation,4.857142857142858,2.857142857142857,800.0,interface_ec,0.020023301610495176,0.017675939935483425,-3.114671948992015e-05,0.018959000336644865
1,operation,4.979591836734694,2.979591836734694,800.0,anode,0.01001172178347436,0.008554434286788603,-3.1990727800291385e-05,0.009368637743147806
1,operation,4.979591836734694,2.979591836734694,800.0,electrolyte,0.006778166709635329,0.0057837616679256515,-2.092103738307688e-06,0.006339728331062013
1,operation,4.979591836734694,2.979591836734694,800.0,cathode,0.01037922465525087,0.008527833004339784,-0.00011094555554462199,0.009590457359712007
1,operation,4.979591836734694,2.979591836734694,800.0,interface_ae,0.020342542282255256,0.01760919218720979,-2.4258303628979378e-05,0.019122988907664094
1,operation,4.979591836734694,2.979591836734694,800.0,interface_ec,0.019760159134980873,0.017689539253279003,5.444598695274623e-05,0.018810754117266765
1,operation,5.1020408163265305,3.1020408163265305,800.0,anode,0.00978110112783302,0.008771944882889914,-3.355158320330661e-05,0.009317781572898007
1,operation,5.1020408163265305,3.1020408163265305,800.0,electrolyte,0.0065511954292837545,0.005496149951555871,0.00012519474545131574,0.006096432938549464
1,operation,5.1020408163265305,3.1020408163265305,800.0,cathode,0.01018316475631952,0.008727364888253437,-2.1641871163837122e-05,0.009539022639307788
1,operation,5.1020408163265305,3.1020408163265305,800.0,interface_ae,0.019972715569944476,0.0174443382893987,-4.434294182350357e-05,0.018836384937728917
1,operation,5.1020408163265305,3.1020408163265305,800.0,interface_ec,0.019945945926465078,0.017922573674141427,9.466183083304367e-05,0.01901587766119762
1,operation,5.224489795918368,3.2244897959183674,800.0,anode,0.010186930941467325,0.008873985122600878,-0.00011173270089312347,0.009599997548550161
1,operation,5.224489795918368,3.2244897959183674,800.0,electrolyte,0.006491701779084525,0.005914097691922676,-0.0001258264629367288,0.006226851683328077
1,operation,5.224489795918368,3.2244897959183674,800.0,cathode,0.010127310641374654,0.009264521845052553,0.00010618166459897319,0.009726403179665062
1,operation,5.224489795918368,3.2244897959183674,800.0,interface_ae,0.020282805827112397,0.017643667750088434,9.679319487649898e-05,0.01910121052735794
1,operation,5.224489795918368,3.2244897959183674,800.0,interface_ec,0.019856429357129193,0.017759172762468245,6.543881340607633e-05,0.018895636833347332
1,operation,5.346938775510204,3.3469387755102042,800.0,anode,0.010057982234807533,0.009063201483943701,-5.387848378473887e-05,0.009599782129367365
1,operation,5.346938775510204,3.3469387755102042,800.0,electrolyte,0.006462588496705268,0.00573909240827166,-0.00010296109710894006,0.006135522971333196
1,operation,5.346938775510204,3.3469387755102042,800.0,cathode,0.01004538638876005,0.00845621391740923,0.00010469545344282093,0.009354372707135421
1,operation,5.346938775510204,3.3469387755102042,800.0,interface_ae,0.020009327473313195,0.017495821419219248,-8.343736122951216e-05,0.018879041772703373
1,operation,5.346938775510204,3.3469387755102042,800.0,interface_ec,0.019953084194076164,0.017737651942154483,5.4773897873756064e-05,0.018943019907331212
1,operation,5.469387755102041,3.4693877551020407,800.0,anode,0.009858892410544308,0.008630792065474473,6.568987063196474e-05,0.009306515262232362
1,operation,5.469387755102041,3.4693877551020407,800.0,electrolyte,0.006355530519076995,0.005731981954815901,1.2375464252427707e-05,0.0060678710036527255
1,operation,5.469387755102041,3.4693877551020407,800.0,cathode,0.010062412426345348,0.008971654086036375,-0.0001262962936867323,0.009566299680574252
1,operation,5.469387755102041,3.4693877551020407,800.0,interface_ae,0.019617768134947904,0.01748651054375433,0.00018015284078321862,0.018646338337454924
1,operation,5.469387755102041,3.4693877551020407,800.0,interface_ec,0.020404434820017477,0.01796623542711318,-1.9298136776068963e-05,0.019301212740846823
1,operation,5.591836734693878,3.5918367346938775,800.0,anode,0.009643576983603035,0.008331392179669632,-6.140381615494112e-05,0.009059666777030007
1,operation,5.591836734693878,3.5918367346938775,800.0,electrolyte,0.006460385273970129,0.005980125080211192,8.678054595424457e-05,0.006235956578414697
1,operation,5.591836734693878,3.5918367346938775,800.0,cathode,0.010045481015798325,0.008622031045811772,-9.607795582448902e-05,0.009416281215329482
1,operation,5.591836734693878,3.5918367346938775,800.0,interface_ae,0.020050825537414288,0.017739410195767948,3.918812622455846e-05,0.0190009754218377
1,operation,5.591836734693878,3.5918367346938775,800.0,interface_ec,0.01979308040807867,0.017730133525758418,4.259109671014114e-05,0.018846621722874886
1,operation,5.714285714285714,3.7142857142857144,800.0,anode,0.009785866718761964,0.00864313580593995,6.884959745615666e-05,0.009268259263174303
1,operation,5.714285714285714,3.7142857142857144,800.0,electrolyte,0.006453098492970822,0.006037829460327292,5.011292760645764e-05,0.006256411949133899
1,operation,5.714285714285714,3.7142857142857144,800.0,cathode,0.009902673762362146,0.008797958879921814,6.338339263771817e-06,0.009399139963723373
1,operation,5.714285714285714,3.7142857142857144,800.0,interface_ae,0.01985432193735166,0.017417482360364476,7.013898938094994e-05,0.018755405825475628
1,operation,5.714285714285714,3.7142857142857144,800.0,interface_ec,0.02016905465940842,0.017720756293910594,0.0001515318094323802,0.019064992862633006
1,operation,5.836734693877551,3.836734693877551,800.0,anode,0.00989164535279768,0.009134854153214227,-9.009211185541529e-05,0.009537076088547723
1,operation,5.836734693877551,3.836734693877551,800.0,electrolyte,0.006297462887326302,0.00536800822357015,-4.457953138268171e-05,0.0058885210828041
1,operation,5.836734693877551,3.836734693877551,800.0,cathode,0.00989925553263411,0.00890518745605093,2.4389094162045094e-05,0.009441646149802477
1,operation,5.836734693877551,3.836734693877551,800.0,interface_ae,0.019761405325796174,0.017521454752314838,-3.714620210876854e-05,0.018742200707246835
1,operation,5.836734693877551,3.836734693877551,800.0,interface_ec,0.01964480355060762,0.017403810654597326,-7.708136306140894e-05,0.018626172851960197
1,operation,5.959183673469388,3.9591836734693877,800.0,anode,0.01028672500396419,0.008838290143191471,6.621687539474997e-05,0.009645111600076008
1,operation,5.959183673469388,3.9591836734693877,800.0,electrolyte,0.006200272900570158,0.005958842896602799,0.00013011020630240928,0.006087325075493271
1,operation,5.959183673469388,3.9591836734693877,800.0,cathode,0.009600331006571075,0.008658936655216831,4.957655730155103e-05,0.009166365413012745
1,operation,5.959183673469388,3.9591836734693877,800.0,interface_ae,0.020128877690707637,0.017464301053902558,-3.054994630536529e-05,0.018937780979269094
1,operation,5.959183673469388,3.9591836734693877,800.0,interface_ec,0.019880523787790972,0.017622083609389223,0.00011971785314619129,0.01885417199241083
1,operation,6.081632653061225,4.081632653061225,800.0,anode,0.009845791568571759,0.009000164099553683,-7.816720723468877e-05,0.009452362453924754
1,operation,6.081632653061225,4.081632653061225,800.0,electrolyte,0.006330474557500624,0.005883718923668643,9.219363780076168e-05,0.006121423245184303
1,operation,6.081632653061225,4.081632653061225,800.0,cathode,0.010170281987352531,0.008536840518356372,-4.659509780720508e-05,0.00946027059310654
1,operation,6.081632653061225,4.081632653061225,800.0,interface_ae,0.020164597718400665,0.01760830836811278,-0.00010736928461974643,0.019016667806868184
1,operation,6.081632653061225,4.081632653061225,800.0,interface_ec,0.02009166358782509,0.017457038548201707,0.0001794524848392212,0.018915041750747437
1,operation,6.204081632653061,4.204081632653061,800.0,anode,0.010308968292483652,0.008920819485271113,0.00013610067047697738,0.009692624644806414
1,operation,6.204081632653061,4.204081632653061,800.0,electrolyte,0.006512958270024677,0.005873087498875004,0.0001477720295302075,0.006223031264446822
1,operation,6.204081632653061,4.204081632653061,800.0,cathode,0.010049099736358863,0.008748962565697144,-0.0001704621958177116,0.009470835557410233
1,operation,6.204081632653061,4.204081632653061,800.0,interface_ae,0.0199833732948557,0.017764684636912463,9.456334275676298e-05,0.018972288491457108
1,operation,6.204081632653061,4.204081632653061,800.0,interface_ec,0.020100873013143682,0.01749174018100755,-0.00019768215689475906,0.018934731500566095
1,operation,6.326530612244898,4.326530612244898,800.0,anode,0.009900956980399053,0.00873913102578921,-3.129289671900141e-05,0.009374355317426895
1,operation,6.326530612244898,4.326530612244898,800.0,electrolyte,0.006623711271395586,0.0061171352822029686,1.2352920184109302e-05,0.00638554734804442
1,operation,6.326530612244898,4.326530612244898,800.0,cathode,0.009956653642168708,0.008748155637399183,1.243847669077142e-05,0.009410806940109246
1,operation,6.326530612244898,4.326530612244898,800.0,interface_ae,0.01983434124793032,0.017624039711749213,4.508123363317998e-05,0.01882691551060958
1,operation,6.326530612244898,4.326530612244898,800.0,interface_ec,0.020041937212714897,0.017691508386800957,4.3374760934853534e-05,0.018976360558911963
1,operation,6.448979591836735,4.448979591836735,800.0,anode,0.009645620663550711,0.008927374031679081,-6.710148456624537e-05,0.009308031450478545
1,operation,6.448979591836735,4.448979591836735,800.0,electrolyte,0.006280832167399209,0.005499109634429001,4.335416104725293e-05,0.0059292253754069995
1,operation,6.448979591836735,4.448979591836735,800.0,cathode,0.009955485014555029,0.008463606243202918,4.780378151922835e-05,0.009300100160551755
1,operation,6.448979591836735,4.448979591836735,800.0,interface_ae,0.019712078373840234,0.01762796427170364,2.3849892567305414e-05,0.018757106688877385
1,operation,6.448979591836735,4.448979591836735,800.0,interface_ec,0.02017711541633901,0.017956336957293373,-0.00013646763259005418,0.01916493700616773
1,operation,6.571428571428571,4.571428571428571,800.0,anode,0.009989505228787391,0.008744732940991156,4.337496859609623e-05,0.009429244808071752
1,operation,6.571428571428571,4.571428571428571,800.0,electrolyte,0.006543133754186724,0.005649490751452676,-4.409021886108555e-05,0.0061457142211730695
1,operation,6.571428571428571,4.571428571428571,800.0,cathode,0.009776709828963191,0.008997572316481302,4.592041815995293e-05,0.009411696713192488
1,operation,6.571428571428571,4.571428571428571,800.0,interface_ae,0.020183553639559027,0.0175379207727049,-6.568354686944304e-05,0.01899973370585474
1,operation,6.571428571428571,4.571428571428571,800.0,interface_ec,0.019784336986674155,0.017671783516748134,-0.00010397932245282346,0.01881807209872171
1,operation,6.6938775510204085,4.6938775510204085,800.0,anode,0.010369732613793311,0.008538471483781312,2.736601192125019e-05,0.009586314737135929
1,operation,6.6938775510204085,4.6938775510204085,800.0,electrolyte,0.006813370941442758,0.005839817951852762,1.7567371249177934e-05,0.006382599564253331
1,operation,6.6938775510204085,4.6938775510204085,800.0,cathode,0.00980630327060762,0.00852364616228646,7.700501089175859e-05,0.009233009141735209
1,operation,6.6938775510204085,4.6938775510204085,800.0,interface_ae,0.02030122944815499,0.017512230001904366,-0.00011390615076163511,0.01906140711391094
1,operation,6.6938775510204085,4.6938775510204085,800.0,interface_ec,0.019508366113890195,0.017403847031267492,-1.136568424990402e-05,0.018545889242135728
1,operation,6.816326530612245,4.816326530612245,800.0,anode,0.010319824648167348,0.008934626738446595,3.05085404706753e-05,0.009701821828904915
1,operation,6.816326530612245,4.816326530612245,800.0,electrolyte,0.006419976067739775,0.005603366856548809,0.00014056475975079638,0.006058020062418326
1,operation,6.816326530612245,4.816326530612245,800.0,cathode,0.010040147708151679,0.008379479861615797,-6.735396478972428e-05,0.009322158703559052
1,operation,6.816326530612245,4.816326530612245,800.0,interface_ae,0.019828356793645675,0.017490747198164507,5.629106602850852e-05,0.01876930208361232
1,operation,6.816326530612245,4.816326530612245,800.0,interface_ec,0.01997851102364115,0.01758462691859927,0.00013134731613252367,0.018897012996783123
1,operation,6.938775510204081,4.938775510204081,800.0,anode,0.009860707782042663,0.00917283990517747,-6.71307591371086e-05,0.009536109042418976
1,operation,6.938775510204081,4.938775510204081,800.0,electrolyte,0.006517839639322515,0.0056637592809194465,1.2341913350096105e-05,0.00613558350736447
1,operation,6.938775510204081,4.938775510204081,800.0,cathode,0.010088918399014626,0.008886767048017776,-7.5311733062058e-05,0.009545682323470512
1,operation,6.938775510204081,4.938775510204081,800.0,interface_ae,0.019775417064510487,0.018100634358181142,-4.839843396005531e-05,0.018993670469498236
1,operation,6.938775510204081,4.938775510204081,800.0,interface_ec,0.020139842487734396,0.017278471737895363,-2.796127199046768e-05,0.018872612095208532
1,operation,7.061224489795919,5.061224489795919,800.0,anode,0.009974560123203512,0.008894563013985567,-0.0002722454140991939,0.009492528641254369
1,operation,7.061224489795919,5.061224489795919,800.0,electrolyte,0.006533228122615667,0.005490051708926422,3.2434571119492385e-05,0.00607940237635748
1,operation,7.061224489795919,5.061224489795919,800.0,cathode,0.009792734160632368,0.008628903460814885,-2.7362761039326816e-05,0.009265921743109723
1,operation,7.061224489795919,5.061224489795919,800.0,interface_ae,0.01978953410607936,0.017504893110652932,-0.00011933757685433154,0.018753026104772298
1,operation,7.061224489795919,5.061224489795919,800.0,interface_ec,0.019633365909660253,0.01780359141048587,-0.00012960486928239283,0.018786774381261074
1,operation,7.183673469387755,5.183673469387755,800.0,anode,0.009964263822478404,0.008950578216298757,-6.149441025160431e-05,0.00949867495530726
1,operation,7.183673469387755,5.183673469387755,800.0,electrolyte,0.006334966820050893,0.005765247617733484,0.00011179338227271521,0.0060732796426780965
1,operation,7.183673469387755,5.183673469387755,800.0,cathode,0.009766136946982706,0.008769970433596513,-0.00017324945949673276,0.009312954747207385
1,operation,7.183673469387755,5.183673469387755,800.0,interface_ae,0.01992135979926356,0.017606840936907616,-8.546246417550657e-05,0.018871436678088126
1,operation,7.183673469387755,5.183673469387755,800.0,interface_ec,0.019908601633234956,0.01731835464633851,7.707861138149362e-06,0.018748167411337384
1,operation,7.3061224489795915,5.3061224489795915,800.0,anode,0.01021113884977663,0.008580571226045908,-6.22671766552383e-05,0.009501988559189996
1,operation,7.3061224489795915,5.3061224489795915,800.0,electrolyte,0.006600509249290837,0.005962418143864548,-0.00014931898122089315,0.00631102565673759
1,operation,7.3061224489795915,5.3061224489795915,800.0,cathode,0.00996624305251681,0.008856626164463905,-1.0205639062884798e-05,0.009460383241908609
1,operation,7.3061224489795915,5.3061224489795915,800.0,interface_ae,0.019504641586624582,0.017700218001861754,0.00015193363510906442,0.018669804607791548
1,operation,7.3061224489795915,5.3061224489795915,800.0,interface_ec,0.020023332350233902,0.01739377878934115,-5.131272463642831e-05,0.01884685290551607
1,operation,7.428571428571429,5.428571428571429,800.0,anode,0.01035398261353112,0.008981992508172111,6.400266183843294e-05,0.00974135720194322
1,operation,7.428571428571429,5.428571428571429,800.0,electrolyte,0.0065712825167068755,0.005587772577561806,-2.0057118065576858e-05,0.006139000807185028
1,operation,7.428571428571429,5.428571428571429,800.0,cathode,0.009984415452864296,0.00890991486321289,0.00015089188942669034,0.009496480834920561
1,operation,7.428571428571429,5.428571428571429,800.0,interface_ae,0.020223667627358628,0.01731612312884079,2.2399496890104874e-05,0.018938079073003617
1,operation,7.428571428571429,5.428571428571429,800.0,interface_ec,0.02014735266903358,0.017723772066028928,-6.292337633874194e-05,0.019051842625661716
1,operation,7.551020408163265,5.551020408163265,800.0,anode,0.010582821843153673,0.008544583087533777,-0.000108318844666605,0.009727045629616146
1,operation,7.551020408163265,5.551020408163265,800.0,electrolyte,0.006546719016252316,0.006143360610992771,-8.361948507041709e-05,0.006356298482106206
1,operation,7.551020408163265,5.551020408163265,800.0,cathode,0.009946834326870602,0.00901545873460314,-1.78621548877335e-06,0.009515395129967267
1,operation,7.551020408163265,5.551020408163265,800.0,interface_ae,0.01993307922909394,0.017713126580377346,2.7251799022959312e-05,0.018921088057134168
1,operation,7.551020408163265,5.551020408163265,800.0,interface_ec,0.02020608775712736,0.017858293777813075,3.070030600053617e-05,0.019140564656318852
1,operation,7.673469387755102,5.673469387755102,800.0,anode,0.010058346545075663,0.008842822196457227,4.8913055664928766e-05,0.009509408340773975
1,operation,7.673469387755102,5.673469387755102,800.0,electrolyte,0.006511034127574294,0.0057198783035355425,0.00011966271208272424,0.006157207798327995
1,operation,7.673469387755102,5.673469387755102,800.0,cathode,0.010303223236071008,0.008498489411073316,1.0021151740569072e-06,0.009529895107684516
1,operation,7.673469387755102,5.673469387755102,800.0,interface_ae,0.019862261113310953,0.017537805706702787,4.025162097353214e-05,0.018808201131882033
1,operation,7.673469387755102,5.673469387755102,800.0,interface_ec,0.020133887674308494,0.017577574711277733,-0.0001913340334722803,0.018988140428322222
1,operation,7.795918367346939,5.795918367346939,800.0,anode,0.009806990883884764,0.008979299934040034,-0.00027404264220349313,0.009432406003480245
1,operation,7.795918367346939,5.795918367346939,800.0,electrolyte,0.006737485430336401,0.005824245998128908,0.0001316176081530022,0.0063345677358407826
1,operation,7.795918367346939,5.795918367346939,800.0,cathode,0.009960286162623807,0.00838771891519542,4.3036264150649805e-05,0.009274837182116975
1,operation,7.795918367346939,5.795918367346939,800.0,interface_ae,0.020254930624807668,0.017784944361102686,-6.626914834880355e-05,0.019140188639173834
1,operation,7.795918367346939,5.795918367346939,800.0,interface_ec,0.02001735221509253,0.017493432746244018,-8.192664641893722e-05,0.018882862869385373
1,operation,7.918367346938775,5.918367346938775,800.0,anode,0.01019107771423597,0.008560493537746967,-8.938164305816126e-05,0.009482796365332212
1,operation,7.918367346938775,5.918367346938775,800.0,electrolyte,0.0062791948733055235,0.005421950495340191,1.4641429184260343e-05,0.005897541419231858
1,operation,7.918367346938775,5.918367346938775,800.0,cathode,0.010232300609696396,0.008763024648750948,-0.00015057478005641665,0.009586067629574608
1,operation,7.918367346938775,5.918367346938775,800.0,interface_ae,0.020167988907948405,0.017937140350806995,-6.462423241465945e-05,0.01915059429350783
1,operation,7.918367346938775,5.918367346938775,800.0,interface_ec,0.019904289146656456,0.01770313212601668,0.00016218737477850513,0.018902176253035613
1,operation,8.040816326530612,6.040816326530612,800.0,anode,0.009896033170854955,0.00853351004380036,6.314186062724064e-05,0.009290658125919895
1,operation,8.040816326530612,6.040816326530612,800.0,electrolyte,0.006659813614628461,0.005721226290087046,-5.581332596574507e-05,0.006244404878525084
1,operation,8.040816326530612,6.040816326530612,800.0,cathode,0.01019887574619841,0.008905607200909594,-7.68435516903493e-05,0.009618598630313535
1,operation,8.040816326530612,6.040816326530612,800.0,interface_ae,0.020009818946261134,0.017329658493595072,6.858904564379201e-05,0.01881384336814134
1,operation,8.040816326530612,6.040816326530612,800.0,interface_ec,0.01994755328612343,0.017512857833523052,-3.287448515243416e-06,0.018848512917346325
1,operation,8.16326530612245,6.163265306122449,800.0,anode,0.01000806153986605,0.008978986012313112,5.910905313252215e-05,0.00953581263756378
1,operation,8.16326530612245,6.163265306122449,800.0,electrolyte,0.00646871814424144,0.005872733629943799,4.007372536916131e-05,0.006192662903791214
1,operation,8.16326530612245,6.163265306122449,800.0,cathode,0.009914680072742793,0.008775056368352704,-1.482228888431208e-05,0.009396875959639587
1,operation,8.16326530612245,6.163265306122449,800.0,interface_ae,0.02010105226863484,0.01752659547705567,-3.9040918642163335e-05,0.01894559083605493
1,operation,8.16326530612245,6.163265306122449,800.0,interface_ec,0.02039375146188679,0.017787947096349423,-7.606006644251391e-05,0.019224217640588556
1,operation,8.285714285714285,6.285714285714286,800.0,anode,0.01011418819878844,0.008823670013131037,3.9155117526009385e-05,0.009534898828724471
1,operation,8.285714285714285,6.285714285714286,800.0,electrolyte,0.006527468264913022,0.005957928529097048,3.456203446514459e-05,0.006262439501636191
1,operation,8.285714285714285,6.285714285714286,800.0,cathode,0.009987582260357142,0.009008438115396604,2.3328504108787202e-05,0.009535872934806892
1,operation,8.285714285714285,6.285714285714286,800.0,interface_ae,0.020024295715865812,0.017662804520497222,-9.36090233663665e-06,0.01895421125858971
1,operation,8.285714285714285,6.285714285714286,800.0,interface_ec,0.020001845398599095,0.017482661082247625,-7.511672196238788e-05,0.018869252802077997
1,operation,8.408163265306122,6.408163265306122,800.0,anode,0.009800285922703513,0.008521603342640585,-8.797173613845566e-05,0.009228889180035577
1,operation,8.408163265306122,6.408163265306122,800.0,electrolyte,0.006465146593106616,0.005740623516489128,-2.7129656314764052e-05,0.006135235473333028
1,operation,8.408163265306122,6.408163265306122,800.0,cathode,0.00952885930197453,0.009114917271552468,0.00010864801228903818,0.009330676578149842
1,operation,8.408163265306122,6.408163265306122,800.0,interface_ae,0.020089151970243427,0.017981498134510655,-9.773641174837108e-05,0.019123386483221445
1,operation,8.408163265306122,6.408163265306122,800.0,interface_ec,0.020377525024125202,0.01740695718464989,2.3873792529135658e-05,0.01906663810919254
1,operation,8.53061224489796,6.530612244897959,800.0,anode,0.009745232534973159,0.008802938819108874,3.861664979983887e-05,0.009310159878715328
1,operation,8.53061224489796,6.530612244897959,800.0,electrolyte,0.00646906193377309,0.0058627754888180275,9.90144494872573e-06,0.006188257841278359
1,operation,8.53061224489796,6.530612244897959,800.0,cathode,0.009895517054324498,0.008686637336439533,8.109137726156964e-05,0.009350929660423155
1,operation,8.53061224489796,6.530612244897959,800.0,interface_ae,0.019869251594038607,0.01778308059409699,0.0001222711792831931,0.018913843147441663
1,operation,8.53061224489796,6.530612244897959,800.0,interface_ec,0.019666257227530775,0.017826585277460207,0.0002060422698444699,0.01881738464000271
1,operation,8.653061224489797,6.653061224489796,800.0,anode,0.010050400752240386,0.008919816837058964,0.00010370053243691586,0.009537201646162985
1,operation,8.653061224489797,6.653061224489796,800.0,electrolyte,0.006444903536964196,0.0057564560447075745,-0.00013141995296231092,0.006133969146043943
1,operation,8.653061224489797,6.653061224489796,800.0,cathode,0.01002772700570609,0.008899622399128908,5.161630229264694e-05,0.009514388924345038
1,operation,8.653061224489797,6.653061224489796,800.0,interface_ae,0.020213084944719517,0.017445039564372895,-5.326067566734965e-05,0.018981271082439077
1,operation,8.653061224489797,6.653061224489796,800.0,interface_ec,0.02037910146919827,0.01756993432524726,2.00033787312328e-05,0.0191298744080953
1,operation,8.775510204081632,6.775510204081632,800.0,anode,0.009986597991654956,0.008635663834738997,0.00016235292108918064,0.009388556950772179
1,operation,8.775510204081632,6.775510204081632,800.0,electrolyte,0.00639445971761588,0.0054945428952586145,-4.5074027730275164e-05,0.005995880127348514
1,operation,8.775510204081632,6.775510204081632,800.0,cathode,0.009599658799654893,0.008669742507003364,-9.681285978523267e-05,0.009171664649827481
1,operation,8.775510204081632,6.775510204081632,800.0,interface_ae,0.020123485726185466,0.017465317152088027,8.878039355788485e-05,0.01893548432062158
1,operation,8.775510204081632,6.775510204081632,800.0,interface_ec,0.020279696798613866,0.01775623506725752,-2.1538828886007662e-05,0.019143153196951826
1,operation,8.89795918367347,6.8979591836734695,800.0,anode,0.010028222899341119,0.008495003011971189,-1.3377937252123967e-05,0.009356339234191078
1,operation,8.89795918367347,6.8979591836734695,800.0,electrolyte,0.006327912306386634,0.00585886527622986,0.0002572752389244474,0.006123149716045333
1,operation,8.89795918367347,6.8979591836734695,800.0,cathode,0.010099964327194762,0.008401771970209066,-3.6123019291437296e-05,0.009367249814285368
1,operation,8.89795918367347,6.8979591836734695,800.0,interface_ae,0.02002449818507489,0.017617471485052053,-7.308131256087532e-05,0.01893649455277806
1,operation,8.89795918367347,6.8979591836734695,800.0,interface_ec,0.02004905834852739,0.017351499832616125,-9.44908722685067e-05,0.018846348190038713
1,operation,9.020408163265305,7.020408163265306,800.0,anode,0.010129159528320742,0.008596867353824035,5.382116054922573e-05,0.009457042366971223
1,operation,9.020408163265305,7.020408163265306,800.0,electrolyte,0.006226107245068789,0.006072965176758347,-7.742699224040547e-05,0.006152427959475364
1,operation,9.020408163265305,7.020408163265306,800.0,cathode,0.009955266685639312,0.008866122652218082,-5.6534995250109435e-05,0.009458352859405255
1,operation,9.020408163265305,7.020408163265306,800.0,interface_ae,0.02002868119221426,0.017715071344904028,9.606132325034854e-05,0.0189786719799742
1,operation,9.020408163265305,7.020408163265306,800.0,interface_ec,0.02015829948719459,0.017565637907239466,-1.4663177404360228e-05,0.018995155401107973
1,operation,9.142857142857142,7.142857142857142,800.0,anode,0.010469821711605007,0.008989977813649859,-9.218236563202137e-05,0.009815237930285452
1,operation,9.142857142857142,7.142857142857142,800.0,electrolyte,0.006519997632753111,0.005652971372244362,-1.3533423392310971e-05,0.006132670214687258
1,operation,9.142857142857142,7.142857142857142,800.0,cathode,0.009754100968458383,0.00871761535312281,0.00018115557731939133,0.00928467849841459
1,operation,9.142857142857142,7.142857142857142,800.0,interface_ae,0.020115815260175102,0.017101767718369708,0.00012167234924979469,0.01879214982675293
1,operation,9.142857142857142,7.142857142857142,800.0,interface_ec,0.020217925904581834,0.017528142939138718,7.172635437832151e-05,0.01901665221849921
1,operation,9.26530612244898,7.26530612244898,800.0,anode,0.00982812015783656,0.008705948856746729,0.00014985463606698537,0.009321467111830016
1,operation,9.26530612244898,7.26530612244898,800.0,electrolyte,0.0064456539920260585,0.005346053667609002,-6.330322278133675e-06,0.005972273709116825
1,operation,9.26530612244898,7.26530612244898,800.0,cathode,0.00998428232141713,0.009039673713874692,1.4336422175760024e-06,0.009547090972660285
1,operation,9.26530612244898,7.26530612244898,800.0,interface_ae,0.01991568353771194,0.017809011229046243,1.2079023250111028e-05,0.018950386214580176
1,operation,9.26530612244898,7.26530612244898,800.0,interface_ec,0.01984999546368686,0.017830999512108325,1.9366176451679925e-05,0.018921488557384018
1,operation,9.387755102040817,7.387755102040816,800.0,anode,0.010000585193335888,0.008835581678282332,-0.0001070668371416597,0.009473785432406302
1,operation,9.387755102040817,7.387755102040816,800.0,electrolyte,0.006394469244764333,0.005720716520366557,-1.9466369502467997e-05,0.006085723079450578
1,operation,9.387755102040817,7.387755102040816,800.0,cathode,0.01025448567656332,0.008843481170545401,8.549039226364025e-05,0.009627990991469939
1,operation,9.387755102040817,7.387755102040816,800.0,interface_ae,0.02000187907091517,0.017811257696749225,3.97527756573154e-05,0.019001636387578708
1,operation,9.387755102040817,7.387755102040816,800.0,interface_ec,0.020002684097077693,0.017597343382208197,-9.544386262909634e-05,0.01891578952011945
1,operation,9.510204081632653,7.5102040816326525,800.0,anode,0.010101383144027263,0.008791959053092725,-5.019919601812046e-05,0.009514888244727371
1,operation,9.510204081632653,7.5102040816326525,800.0,electrolyte,0.006721292354162415,0.00546995679482104,-4.22495895432434e-05,0.006191637469050599
1,operation,9.510204081632653,7.5102040816326525,800.0,cathode,0.010205543749755908,0.008863104588184052,-4.785892765275731e-06,0.009604947331984965
1,operation,9.510204081632653,7.5102040816326525,800.0,interface_ae,0.02005020070863003,0.01763588283420977,-0.00015166625462859214,0.018960509730935857
1,operation,9.510204081632653,7.5102040816326525,800.0,interface_ec,0.019930147622930407,0.01792330433090275,-6.593241347771676e-05,0.019006697831390834
1,operation,9.63265306122449,7.63265306122449,800.0,anode,0.009936339797179134,0.008691675847338163,-8.70152233181374e-06,0.009376185798265373
1,operation,9.63265306122449,7.63265306122449,800.0,electrolyte,0.006383375433735141,0.005817348300431612,1.9731341229026658e-05,0.006120120335710068
1,operation,9.63265306122449,7.63265306122449,800.0,cathode,0.010154709523021404,0.008589811766762209,-3.4034048288290324e-05,0.009469922031662945
1,operation,9.63265306122449,7.63265306122449,800.0,interface_ae,0.019954855473677573,0.01769112938201772,-7.932211972070344e-05,0.018925307442638466
1,operation,9.63265306122449,7.63265306122449,800.0,interface_ec,0.02018313076085167,0.017837283118103522,-9.88872347635584e-05,0.01911921951360986
1,operation,9.755102040816325,7.755102040816326,800.0,anode,0.009901825421021287,0.008693613698341582,0.00026323862046774983,0.009367513245227653
1,operation,9.755102040816325,7.755102040816326,800.0,electrolyte,0.006414019978958423,0.006055525088431227,-0.00012666319951066098,0.006246351589940067
1,operation,9.755102040816325,7.755102040816326,800.0,cathode,0.009802069806767127,0.00866267909363036,-8.456893114465224e-05,0.00928611070895206
1,operation,9.755102040816325,7.755102040816326,800.0,interface_ae,0.0199464202531683,0.017458244359455703,-8.193415927345736e-05,0.01882659389729402
1,operation,9.755102040816325,7.755102040816326,800.0,interface_ec,0.020231694399294665,0.017844758724502634,9.492964983753158e-05,0.01915082770989636
1,operation,9.877551020408163,7.877551020408163,800.0,anode,0.010104799791116866,0.00881854861315591,-4.9703069066590875e-05,0.009527408958484024
1,operation,9.877551020408163,7.877551020408163,800.0,electrolyte,0.006309368499048982,0.005792599140686538,-0.0001173630392546798,0.006070915529354486
1,operation,9.877551020408163,7.877551020408163,800.0,cathode,0.009801215814164922,0.009030582651240963,0.0001900649041722087,0.009445260132344608
1,operation,9.877551020408163,7.877551020408163,800.0,interface_ae,0.020078659027633297,0.01782129143045893,-2.4584831744398338e-05,0.01905059463048061
1,operation,9.877551020408163,7.877551020408163,800.0,interface_ec,0.019732465162782462,0.017722434323723717,5.692893232700639e-05,0.01880843599496123
1,operation,10.0,8.0,800.0,anode,0.01001433371077605,0.008751524908378978,9.62210578581098e-05,0.00944791789009692
1,operation,10.0,8.0,800.0,electrolyte,0.006302853393314506,0.005565243884221869,-0.00010081065067604281,0.0059708853991735315
1,operation,10.0,8.0,800.0,cathode,0.010016994592527166,0.008582421397578149,-6.842421805152435e-05,0.009383075967018697
1,operation,10.0,8.0,800.0,interface_ae,0.01985884888755456,0.01754787833353321,-0.00014873744464039768,0.01881190095409544
1,operation,10.0,8.0,800.0,interface_ec,0.020017440998407455,0.017849460730132938,1.3549137231676193e-05,0.01902632955143513
1,shutdown,16.0,8.0,800.0,anode,0.010308264228960265,0.009066799637175386,7.777350472478546e-05,0.009747940647019353
1,shutdown,16.0,8.0,800.0,electrolyte,0.006514937168527378,0.005724500077649088,7.6379977236326e-05,0.006159306034328698
1,shutdown,16.0,8.0,800.0,cathode,0.009921665878099194,0.008423495849706508,4.920040541029599e-05,0.009264280156601213
1,shutdown,16.0,8.0,800.0,interface_ae,0.019773786274013005,0.017407571754361924,2.2394799578804667e-08,0.01870327710789771
1,shutdown,16.0,8.0,800.0,interface_ec,0.019980975024489308,0.017317584878736875,1.6549156413314033e-05,0.01879139961894112
1,shutdown,16.04081632653061,8.040816326530612,739.2480966557373,anode,0.009409332405149465,0.007884503622166828,0.00012724833308487595,0.008749948266292985
1,shutdown,16.04081632653061,8.040816326530612,739.2480966557373,electrolyte,0.005678433742409228,0.005695076587417181,-4.112604304834833e-05,0.00568721954017382
1,shutdown,16.04081632653061,8.040816326530612,739.2480966557373,cathode,0.009245227872342634,0.007731765221722851,-6.213606646930853e-06,0.00858909869263506
1,shutdown,16.04081632653061,8.040816326530612,739.2480966557373,interface_ae,0.01847790538149815,0.01620311145162007,-5.6308107705237365e-05,0.01745232819773038
1,shutdown,16.04081632653061,8.040816326530612,739.2480966557373,interface_ec,0.01824289604224895,0.01644644919634743,3.080713499795014e-06,0.01741430770072791
1,shutdown,16.081632653061224,8.081632653061224,683.2585078404431,anode,0.008801808640986493,0.007369122714842177,-4.34794693372217e-05,0.008180456487490247
1,shutdown,16.081632653061224,8.081632653061224,683.2585078404431,electrolyte,0.0056839966566132735,0.0045337774783700425,-0.0001213463360152923,0.005209333449365228
1,shutdown,16.081632653061224,8.081632653061224,683.2585078404431,cathode,0.008713155159953771,0.007240032399956523,-0.00018190510153025477,0.008084113107065225
1,shutdown,16.081632653061224,8.081632653061224,683.2585078404431,interface_ae,0.017361021768980894,0.014670074842027482,1.8411939832816962e-05,0.016184242368652395
1,shutdown,16.081632653061224,8.081632653061224,683.2585078404431,interface_ec,0.01700113336991113,0.014386712708278708,-2.6731702316780892e-05,0.015856473777474563
1,shutdown,16.122448979591837,8.122448979591837,631.6579178483621,anode,0.00791752675116501,0.006959364685420658,9.035206838035016e-05,0.007486222084666232
1,shutdown,16.122448979591837,8.122448979591837,631.6579178483621,electrolyte,0.0050106004028438855,0.004620027714344408,-6.89329068080072e-05,0.0048286556088179165
1,shutdown,16.122448979591837,8.122448979591837,631.6579178483621,cathode,0.007545750617986633,0.0066289571339806395,-0.0001462110455195415,0.0071361825013204995
1,shutdown,16.122448979591837,8.122448979591837,631.6579178483621,interface_ae,0.015857605396116616,0.01347409091642206,2.7403884064930324e-05,0.01481047639400973
1,shutdown,16.122448979591837,8.122448979591837,631.6579178483621,interface_ec,0.01560250336372389,0.013756475903543645,0.00013636072951997,0.01476817733125627
1,shutdown,16.163265306122447,8.16326530612245,584.1022750249358,anode,0.007126537430104505,0.006470836467431789,3.7563351381111707e-06,0.006822363547323522
1,shutdown,16.163265306122447,8.16326530612245,584.1022750249358,electrolyte,0.004658841106179374,0.004586529325706498,-0.00014413417457153697,0.004629844957634327
1,shutdown,16.163265306122447,8.16326530612245,584.1022750249358,cathode,0.007472049270635048,0.006479797468219846,-4.795249946317841e-05,0.007029141335347117
1,shutdown,16.163265306122447,8.16326530612245,584.1022750249358,interface_ae,0.01475430951058344,0.012327410287765997,-5.217666572990717e-05,0.013703300109853173
1,shutdown,16.163265306122447,8.16326530612245,584.1022750249358,interface_ec,0.014186749366241303,0.012779449003217997,-0.00011130641011871776,0.013539442444572156
1,shutdown,16.20408163265306,8.204081632653061,540.2744977709071,anode,0.006735315986392227,0.005813571530234376,-4.7935394265608436e-05,0.006325563019538281
1,shutdown,16.20408163265306,8.204081632653061,540.2744977709071,electrolyte,0.004399386527285238,0.003749333903921534,-0.00010886348430590387,0.004117388887510368
1,shutdown,16.20408163265306,8.204081632653061,540.2744977709071,cathode,0.007208977794970959,0.005753425376792859,-0.00022176090801520149,0.006613809970762498
1,shutdown,16.20408163265306,8.204081632653061,540.2744977709071,interface_ae,0.013128986656143649,0.011448262289122829,8.261456160405157e-05,0.012375354246452534
1,shutdown,16.20408163265306,8.204081632653061,540.2744977709071,interface_ec,0.013361736926006245,0.011781460187155444,-3.700224658372443e-05,0.012646033120907797
1,shutdown,16.244897959183675,8.244897959183673,499.8823603717566,anode,0.006071644277966121,0.005318026387370671,-8.119318413546972e-06,0.005732128939580129
1,shutdown,16.244897959183675,8.244897959183673,499.8823603717566,electrolyte,0.004149950999868345,0.003572153277761002,5.001128296208667e-05,0.0038943054142773948
1,shutdown,16.244897959183675,8.244897959183673,499.8823603717566,cathode,0.006227426109027346,0.005569101095568552,2.8815004154025466e-05,0.005925963913414856
1,shutdown,16.244897959183675,8.244897959183673,499.8823603717566,interface_ae,0.012326798269290794,0.01102218646442304,-6.650459180031122e-05,0.011729601424474842
1,shutdown,16.244897959183675,8.244897959183673,499.8823603717566,interface_ec,0.012083880138764708,0.010547240896347038,1.8291456362025594e-05,0.011393588490006138
1,shutdown,16.285714285714285,8.285714285714286,462.65654455601276,anode,0.005276434771833759,0.00506195029288021,-1.0919309450055268e-05,0.005172563370739482
1,shutdown,16.285714285714285,8.285714285714286,462.65654455601276,electrolyte,0.0038975957330146414,0.0030958041957913802,-2.0331828541750676e-05,0.0035651511949261984
1,shutdown,16.285714285714285,8.285714285714286,462.65654455601276,cathode,0.005871621886736258,0.005246146603023904,-6.8015236575182e-05,0.005586455653014388
1,shutdown,16.285714285714285,8.285714285714286,462.65654455601276,interface_ae,0.0113307186866726,0.009997922742873358,3.736534056211483e-05,0.010726797452381481
1,shutdown,16.285714285714285,8.285714285714286,462.65654455601276,interface_ec,0.011241847308292044,0.010195315626961276,-0.00018897034836215455,0.010761809303079654
1,shutdown,16.3265306122449,8.326530612244898,428.34884379104386,anode,0.005120275163246801,0.004669547211536765,4.5722481194934356e-05,0.004911088874491342
1,shutdown,16.3265306122449,8.326530612244898,428.34884379104386,electrolyte,0.0036534775927575145,0.0032166197708786716,-2.855416253072238e-05,0.003456174045741368
1,shutdown,16.3265306122449,8.326530612244898,428.34884379104386,cathode,0.005464475458913139,0.0044371527162266845,9.308873827918375e-05,0.005032703118851195
1,shutdown,16.3265306122449,8.326530612244898,428.34884379104386,interface_ae,0.010771106916098235,0.009402910951335344,1.0577038352412323e-05,0.010156380014483424
1,shutdown,16.3265306122449,8.326530612244898,428.34884379104386,interface_ec,0.01034264666605961,0.008854203870712493,3.1053963791420406e-05,0.00968474352500152
1,shutdown,16.367346938775512,8.36734693877551,396.7305083432843,anode,0.004573479242706259,0.004062313032981602,-0.00011907458007366717,0.004345426503180085
1,shutdown,16.367346938775512,8.36734693877551,396.7305083432843,electrolyte,0.003025661280863957,0.002738017094810457,2.7361458116570515e-05,0.002892973804937195
1,shutdown,16.367346938775512,8.36734693877551,396.7305083432843,cathode,0.0046764213612176505,0.004434796706983426,-2.0820525798996594e-05,0.004560554901501838
1,shutdown,16.367346938775512,8.36734693877551,396.7305083432843,interface_ae,0.009435500889947782,0.008487138384857467,0.0001963552833543816,0.009005301739330967
1,shutdown,16.367346938775512,8.36734693877551,396.7305083432843,interface_ec,0.009660077489907909,0.008369308805934058,-0.0001527461356118704,0.009087587663602056
1,shutdown,16.408163265306122,8.408163265306122,367.5907200684652,anode,0.0043766429560438466,0.0039370479948272925,-3.875808912555701e-05,0.00417478187124937
1,shutdown,16.408163265306122,8.408163265306122,367.5907200684652,electrolyte,0.0025402645955066696,0.0023584274624755984,0.00014545384608877576,0.0024672991287990214
1,shutdown,16.408163265306122,8.408163265306122,367.5907200684652,cathode,0.0047073256209843525,0.00371273453596875,6.72756787199422e-05,0.004298818428628191
1,shutdown,16.408163265306122,8.408163265306122,367.5907200684652,interface_ae,0.008605336283522487,0.008060987996018329,2.4523584789423638e-05,0.008346594021510645
1,shutdown,16.408163265306122,8.408163265306122,367.5907200684652,interface_ec,0.009030979140199829,0.0074371060701828315,6.776371019248881e-05,0.00834976388335965
1,shutdown,16.448979591836732,8.448979591836734,340.7351867623481,anode,0.004072467597099849,0.0037555079348145087,9.148677980978497e-05,0.003926799879716229
1,shutdown,16.448979591836732,8.448979591836734,340.7351867623481,electrolyte,0.0026612585042888374,0.0022101634506074383,7.796961821794943e-05,0.002470534519157421
1,shutdown,16.448979591836732,8.448979591836734,340.7351867623481,cathode,0.0040619715099557245,0.0034105651299508113,-9.201522314576858e-05,0.0037819768728128735
1,shutdown,16.448979591836732,8.448979591836734,340.7351867623481,interface_ae,0.007852571936411023,0.007068186009400067,0.00011026920460743784,0.0074936758852845444
1,shutdown,16.448979591836732,8.448979591836734,340.7351867623481,interface_ec,0.008183570779614586,0.007064290700128072,8.048559381800798e-05,0.007686569107283378
1,shutdown,16.48979591836735,8.489795918367347,315.9848466996775,anode,0.0035881478588769677,0.0033231560561016037,-1.7963037272551535e-05,0.00346340352183763
1,shutdown,16.48979591836735,8.489795918367347,315.9848466996775,electrolyte,0.00259634419421174,0.0018322102266188807,-8.501977458146558e-05,0.002315736209307131
1,shutdown,16.48979591836735,8.489795918367347,315.9848466996775,cathode,0.003426994051402739,0.003252166656873194,0.00012114275036324306,0.0033495890946576524
1,shutdown,16.48979591836735,8.489795918367347,315.9848466996775,interface_ae,0.007408196924512586,0.006506035214830966,8.717244241841364e-05,0.007002476913482014
1,shutdown,16.48979591836735,8.489795918367347,315.9848466996775,interface_ec,0.007722996278134351,0.006590457789016338,6.847148540498922e-05,0.007224596143595096
1,shutdown,16.53061224489796,8.53061224489796,293.17467472374994,anode,0.0032449274753566684,0.0033206750442934694,0.00021487062939370516,0.003304481130871695
1,shutdown,16.53061224489796,8.53061224489796,293.17467472374994,electrolyte,0.0023534501075337124,0.0015624357911118913,-5.5823026239778434e-05,0.0020765757776124577
1,shutdown,16.53061224489796,8.53061224489796,293.17467472374994,cathode,0.003582883447866122,0.002960783578075114,0.00012721985542500975,0.0033232070951772215
1,shutdown,16.53061224489796,8.53061224489796,293.17467472374994,interface_ae,0.007038268219951688,0.005948865254863614,3.2264810771252798e-06,0.006561748190761703
1,shutdown,16.53061224489796,8.53061224489796,293.17467472374994,interface_ec,0.006741870122936697,0.006053643379334285,-5.545932404325518e-05,0.006426177767112186
1,shutdown,16.57142857142857,8.571428571428571,272.15258192607723,anode,0.003424017933286314,0.0032295801158171403,-0.0001431188333235752,0.003340268746637111
1,shutdown,16.57142857142857,8.571428571428571,272.15258192607723,electrolyte,0.0016882493653638587,0.001775111023522835,-0.00015184156988286827,0.0017531521878047054
1,shutdown,16.57142857142857,8.571428571428571,272.15258192607723,cathode,0.0031983078939738898,0.002956164927212127,0.0001494141897266825,0.0030952112430686417
1,shutdown,16.57142857142857,8.571428571428571,272.15258192607723,interface_ae,0.006418410058222469,0.005574124363931967,-0.00019783849165730844,0.006050392914775963
1,shutdown,16.57142857142857,8.571428571428571,272.15258192607723,interface_ec,0.006383368176316572,0.005627012861011775,6.389568142127453e-05,0.006041822255082429
1,shutdown,16.612244897959183,8.612244897959183,252.77840157967978,anode,0.002797378529109405,0.0024993764914382245,-0.00014780022553041844,0.0026732081976095297
1,shutdown,16.612244897959183,8.612244897959183,252.77840157967978,electrolyte,0.001452140935743082,0.001459452139306151,-0.00015703258142530166,0.0014810001160800426
1,shutdown,16.612244897959183,8.612244897959183,252.77840157967978,cathode,0.003006418608499345,0.002482760200152025,-5.3823713007478915e-05,0.0027833658708580136
1,shutdown,16.612244897959183,8.612244897959183,252.77840157967978,interface_ae,0.005681269689595403,0.0045262609364683055,0.00015083107487475506,0.005207418201450785
1,shutdown,16.612244897959183,8.612244897959183,252.77840157967978,interface_ec,0.0056780981942750886,0.005090290009000811,-0.00014548921652893107,0.005414072986901643
1,shutdown,16.653061224489797,8.653061224489797,234.92295456460886,anode,0.002903069353392757,0.0024123270779475396,-8.263652852658686e-05,0.002695267552358936
1,shutdown,16.653061224489797,8.653061224489797,234.92295456460886,electrolyte,0.001682198212789205,0.0018850028232760226,-7.296943188127829e-06,0.001792271694412405
1,shutdown,16.653061224489797,8.653061224489797,234.92295456460886,cathode,0.0026723365771814493,0.0021953649933122215,-0.0001894581150472303,0.002490369289037758
1,shutdown,16.653061224489797,8.653061224489797,234.92295456460886,interface_ae,0.005385358834693392,0.004832379603545073,0.00010995844643276695,0.00513479861342689
1,shutdown,16.653061224489797,8.653061224489797,234.92295456460886,interface_ec,0.00496766726250933,0.004542263315675543,-5.8074109055645035e-05,0.004770276626715485
1,shutdown,16.693877551020407,8.693877551020408,218.46718805434932,anode,0.002495654643889867,0.0021677819776662823,-1.2168868568726956e-05,0.0023490380773514316
1,shutdown,16.693877551020407,8.693877551020408,218.46718805434932,electrolyte,0.0017042472405569189,0.0012472540432259566,9.341414422336946e-05,0.0015364409038004117
1,shutdown,16.693877551020407,8.693877551020408,218.46718805434932,cathode,0.002583041301944404,0.002132822263146351,0.00016009079918889154,0.0024059826205242254
1,shutdown,16.693877551020407,8.693877551020408,218.46718805434932,interface_ae,0.0053039848343233685,0.004580156502982696,-0.00030185567705677926,0.005009027713360489
1,shutdown,16.693877551020407,8.693877551020408,218.46718805434932,interface_ec,0.00530849064575261,0.00455252913643832,0.00020064086377129367,0.004985910790167474
1,shutdown,16.73469387755102,8.73469387755102,203.30138172020213,anode,0.0025481559082847997,0.0023402519666449783,8.786548501803791e-05,0.0024555471803659698
1,shutdown,16.73469387755102,8.73469387755102,203.30138172020213,electrolyte,0.0017651695831888625,0.001714803978391477,2.1655473837820582e-05,0.0017409375050747554
1,shutdown,16.73469387755102,8.73469387755102,203.30138172020213,cathode,0.001986216881122466,0.001963091251142493,3.899455993834367e-05,0.001975910297579161
1,shutdown,16.73469387755102,8.73469387755102,203.30138172020213,interface_ae,0.004616303496750496,0.003799854469059157,-0.0001631067625194979,0.004276409935380108
1,shutdown,16.73469387755102,8.73469387755102,203.30138172020213,interface_ec,0.004453093446149218,0.004210714773487873,0.00015803397708229696,0.00434561595129171
1,shutdown,16.775510204081634,8.775510204081632,189.32441616095798,anode,0.002303628569993708,0.0020773626989924144,-8.081557316355767e-06,0.002199287212422269
1,shutdown,16.775510204081634,8.775510204081632,189.32441616095798,electrolyte,0.0010297882891636162,0.001121776090843691,-2.5876441187237877e-05,0.0010796584680805574
1,shutdown,16.775510204081634,8.775510204081632,189.32441616095798,cathode,0.002020904549871031,0.0018768162146445126,4.4141975989295055e-05,0.0019543473125132826
1,shutdown,16.775510204081634,8.775510204081632,189.32441616095798,interface_ae,0.0044112331321250345,0.003676130510265908,-0.00019037594056445936,0.004106747321884103
1,shutdown,16.775510204081634,8.775510204081632,189.32441616095798,interface_ec,0.004144054550618108,0.0037404965625375715,0.00012228079221334083,0.003963399882390343
1,shutdown,16.816326530612244,8.816326530612244,176.44309868003802,anode,0.0018405429306604436,0.0018221206848854734,2.9008789963543236e-05,0.0018320904055752721
1,shutdown,16.816326530612244,8.816326530612244,176.44309868003802,electrolyte,0.0012789480310379,0.0013038544373485538,-6.608411967525808e-05,0.0012966432535983189
1,shutdown,16.816326530612244,8.816326530612244,176.44309868003802,cathode,0.0018390672091685614,0.0017172317945867474,-6.401465050936998e-05,0.0017847246786695146
1,shutdown,16.816326530612244,8.816326530612244,176.44309868003802,interface_ae,0.004009811456405449,0.0032965854575379592,2.2630420774513443e-05,0.003705254899186982
1,shutdown,16.816326530612244,8.816326530612244,176.44309868003802,interface_ec,0.0038881744444371783,0.003482209111366527,-4.597413950630392e-05,0.0037027807379274875
1,shutdown,16.857142857142858,8.857142857142858,164.57154191466293,anode,0.0017331054625741563,0.001604014200501389,2.0207450616131267e-05,0.0016726671366593612
1,shutdown,16.857142857142858,8.857142857142858,164.57154191466293,electrolyte,0.0011697596458834579,0.0013712004967889034,-9.907369187412843e-05,0.0012938316015761976
1,shutdown,16.857142857142858,8.857142857142858,164.57154191466293,cathode,0.0017880823624889788,0.0012700865424785822,3.720814786673863e-05,0.0015948330175262313
1,shutdown,16.857142857142858,8.857142857142858,164.57154191466293,interface_ae,0.0033787969356836806,0.0031139626426286426,-3.720643253313259e-05,0.0032551094595098654
1,shutdown,16.857142857142858,8.857142857142858,164.57154191466293,interface_ec,0.0036580244682792775,0.0030590665102949222,-5.9530569769398235e-05,0.0033999297708035858
1,shutdown,16.89795918367347,8.89795918367347,153.63059117400576,anode,0.0019469208563527378,0.0015174929740061967,-5.6105085202226804e-05,0.0017743422354085723
1,shutdown,16.89795918367347,8.89795918367347,153.63059117400576,electrolyte,0.0010286704819358668,0.0012784477407964884,-2.35164878251097e-05,0.001174371835620114
1,shutdown,16.89795918367347,8.89795918367347,153.63059117400576,cathode,0.0015218942389050808,0.0013235803858860128,-5.491264809895774e-05,0.001436218627184133
1,shutdown,16.89795918367347,8.89795918367347,153.63059117400576,interface_ae,0.0032005995825857723,0.0026652296621527344,-0.00011242000969469781,0.0029757131366489288
1,shutdown,16.89795918367347,8.89795918367347,153.63059117400576,interface_ec,0.0031536350521988426,0.0030394734355132023,-3.812372872728735e-05,0.00309883576480945
1,shutdown,16.93877551020408,8.938775510204081,143.54729666804633,anode,0.0014882101998334029,0.001600103038184925,0.00012950071499384183,0.001563368470654737
1,shutdown,16.93877551020408,8.938775510204081,143.54729666804633,electrolyte,0.0009378426608463901,0.0007487828294003828,-8.644303136735378e-05,0.0008720099162298948
1,shutdown,16.93877551020408,8.938775510204081,143.54729666804633,cathode,0.0016681976915938583,0.001305143986429488,-3.864948903227902e-05,0.0015210284439155712
1,shutdown,16.93877551020408,8.938775510204081,143.54729666804633,interface_ae,0.0028965521602769113,0.002538237584465613,3.200581914932446e-05,0.002735616934294165
1,shutdown,16.93877551020408,8.938775510204081,143.54729666804633,interface_ec,0.002796197422126969,0.0028911446050254785,-5.338446438149185e-05,0.002846361846677403
1,shutdown,16.97959183673469,8.979591836734693,134.25442710817435,anode,0.0013798073544809234,0.0009731708065034171,-1.2365938242364537e-06,0.0012280660021446192
1,shutdown,16.97959183673469,8.979591836734693,134.25442710817435,electrolyte,0.0008506632646272213,0.0007963520390141999,0.00014717088983618904,0.0008633394158576794
1,shutdown,16.97959183673469,8.979591836734693,134.25442710817435,cathode,0.0014452741524893298,0.0010816345613023672,-7.113199105465682e-05,0.0013079264148346678
1,shutdown,16.97959183673469,8.979591836734693,134.25442710817435,interface_ae,0.0029384953238453175,0.0027408714544617406,2.8191802075105008e-05,0.002845255257276542
1,shutdown,16.97959183673469,8.979591836734693,134.25442710817435,interface_ec,0.0029572116355735174,0.002603080340930397,0.00014190644133575212,0.002807789301328608
1,shutdown,17.02040816326531,9.020408163265307,125.69002143642092,anode,0.0009093080485053861,0.001276762740945427,9.83736043903564e-05,0.0011510976003327998
1,shutdown,17.02040816326531,9.020408163265307,125.69002143642092,electrolyte,0.0005767522127557705,0.0005660236827036559,-8.507827486281534e-05,0.0005901571412678839
1,shutdown,17.02040816326531,9.020408163265307,125.69002143642092,cathode,0.0011534680437751159,0.0010469755428974162,2.426028130549415e-05,0.0011048797074055276
1,shutdown,17.02040816326531,9.020408163265307,125.69002143642092,interface_ae,0.0027715870963346593,0.00250290129772275,-8.378230611677818e-05,0.0026514636378796716
1,shutdown,17.02040816326531,9.020408163265307,125.69002143642092,interface_ec,0.0024295115663605887,0.0025498022741722876,6.467439354186446e-05,0.0024943520807937216
1,shutdown,17.06122448979592,9.061224489795919,117.79697569443749,anode,0.0012139532999149282,0.001148362026867187,-2.9803781851440636e-06,0.001182534031254416
1,shutdown,17.06122448979592,9.061224489795919,117.79697569443749,electrolyte,0.0008832141521112569,0.0006176882103403778,2.688049344392308e-05,0.0007862713764989636
1,shutdown,17.06122448979592,9.061224489795919,117.79697569443749,cathode,0.0008952711214672297,0.0009161378327911074,-6.770111767903436e-05,0.0009134426575477507
1,shutdown,17.06122448979592,9.061224489795919,117.79697569443749,interface_ae,0.0023198826564408753,0.0019220867325564375,-5.335436258230818e-05,0.0021507666856522487
1,shutdown,17.06122448979592,9.061224489795919,117.79697569443749,interface_ec,0.002091877850602634,0.002217129478791367,-8.251351891139448e-06,0.0021572798319619653
1,shutdown,17.10204081632653,9.10204081632653,110.52266227762675,anode,0.0007624767013819161,0.0008041300540753305,3.366014275621669e-05,0.0007862979387834667
1,shutdown,17.10204081632653,9.10204081632653,110.52266227762675,electrolyte,0.0006086824556319698,0.0004918241314924131,-7.459267700807634e-06,0.0005596315842055962
1,shutdown,17.10204081632653,9.10204081632653,110.52266227762675,cathode,0.0011722377299727626,0.000683825544776833,5.501284812178794e-05,0.001024320168370153
1,shutdown,17.10204081632653,9.10204081632653,110.52266227762675,interface_ae,0.0020469777895527636,0.0019386064787193706,-3.542014069150953e-06,0.0019950103717084754
1,shutdown,17.10204081632653,9.10204081632653,110.52266227762675,interface_ec,0.002101623222226284,0.0017374601231431874,-2.8568654809226357e-05,0.0019459059096822984
1,shutdown,17.142857142857142,9.142857142857142,103.81857903577588,anode,0.0013420799848573085,0.000622637246184471,0.00016923130191048757,0.0011996435057127928
1,shutdown,17.142857142857142,9.142857142857142,103.81857903577588,electrolyte,0.0006091148157621688,0.0005888062473979061,-0.00010867108113847273,0.0006280853910733866
1,shutdown,17.142857142857142,9.142857142857142,103.81857903577588,cathode,0.0008627600397067734,0.0007943903222695935,-0.00010456949708779123,0.0008502040833882248
1,shutdown,17.142857142857142,9.142857142857142,103.81857903577588,interface_ae,0.0019922442546103647,0.0017085413261930403,0.00018507811424357335,0.001893959006309507
1,shutdown,17.142857142857142,9.142857142857142,103.81857903577588,interface_ec,0.001800833008948447,0.001810482607904112,2.4784628190182478e-05,0.0018061873630895483
1,shutdown,17.183673469387756,9.183673469387756,97.64002588053233,anode,0.0007232265467926304,0.0009621812768308058,-3.983270128816281e-05,0.0008704793722508425
1,shutdown,17.183673469387756,9.183673469387756,97.64002588053233,electrolyte,0.00011076099642333523,0.0006681001779520678,-0.00011169408841023639,0.0006496561497015765
1,shutdown,17.183673469387756,9.183673469387756,97.64002588053233,cathode,0.0007277356672951781,0.0009623961943187177,-3.471614824184498e-05,0.0008712354632727519
1,shutdown,17.183673469387756,9.183673469387756,97.64002588053233,interface_ae,0.002058135743156296,0.00189166477455354,-6.449284603222979e-05,0.0019833036710332303
1,shutdown,17.183673469387756,9.183673469387756,97.64002588053233,interface_ec,0.002033233812237002,0.0014985393952018998,0.00022331159171321767,0.0018661144894895033
1,shutdown,17.224489795918366,9.224489795918368,91.94580674347571,anode,0.0007252254602998953,0.0009653763260534026,8.437900258815757e-05,0.0008826932519172085
1,shutdown,17.224489795918366,9.224489795918368,91.94580674347571,electrolyte,0.0006246985242057767,0.0003599946123265745,-1.513974919414092e-05,0.0005437314594757037
1,shutdown,17.224489795918366,9.224489795918368,91.94580674347571,cathode,0.00043309923861722786,0.0008050428455378518,3.4961533102838525e-05,0.0007004801328920874
1,shutdown,17.224489795918366,9.224489795918368,91.94580674347571,interface_ae,0.0017543336062245509,0.000925656441464292,-0.0001265636445089811,0.0015357965733808381
1,shutdown,17.224489795918366,9.224489795918368,91.94580674347571,interface_ec,0.001578015525842544,0.0015786494623606126,2.893389056429845e-05,0.001579128010458019
1,shutdown,17.26530612244898,9.26530612244898,86.69795489756177,anode,0.0007620578854452709,0.0008276194338995573,-0.00010262423753029,0.0008164480600581109
1,shutdown,17.26530612244898,9.26530612244898,86.69795489756177,electrolyte,0.0006395137196344787,0.0005503191332441762,3.775547328379105e-05,0.0006034639487301555
1,shutdown,17.26530612244898,9.26530612244898,86.69795489756177,cathode,0.0007596945576223757,0.0010667190915450184,4.9319568848987866e-05,0.0009549565500081149
1,shutdown,17.26530612244898,9.26530612244898,86.69795489756177,interface_ae,0.0013985381150283017,0.0014508017483047288,7.524833770742185e-05,0.0014313350295092704
1,shutdown,17.26530612244898,9.26530612244898,86.69795489756177,interface_ec,0.0014745835678941516,0.0016189951025437517,3.8203370571601074e-05,0.0015532471659787663
1,shutdown,17.306122448979593,9.306122448979592,81.8614798104968,anode,0.00026520084615076024,0.0007055873275093554,-4.0602915441271536e-05,0.0006212957423635962
1,shutdown,17.306122448979593,9.306122448979592,81.8614798104968,electrolyte,0.0005843386968028366,0.0006085173738775135,1.95162047141818e-05,0.0005977520425710729
1,shutdown,17.306122448979593,9.306122448979592,81.8614798104968,cathode,0.0010667469604727687,0.000609911555129071,6.248178230538753e-05,0.0009332908466961787
1,shutdown,17.306122448979593,9.306122448979592,81.8614798104968,interface_ae,0.001628381542095129,0.0012718366703049935,7.787743079777823e-05,0.001488742518626781
1,shutdown,17.306122448979593,9.306122448979592,81.8614798104968,interface_ec,0.0013484584299352255,0.0012067921802792964,-0.00013124886903363126,0.0013034788881439259
1,shutdown,17.346938775510203,9.346938775510203,77.40413384216254,anode,0.0007244641954309454,0.0006600908226689724,0.00011792631585792293,0.0007239308984926999
1,shutdown,17.346938775510203,9.346938775510203,77.40413384216254,electrolyte,0.0005977465427731851,0.0003298172055442808,-0.00011781796873342769,0.0005572938590892059
1,shutdown,17.346938775510203,9.346938775510203,77.40413384216254,cathode,0.0007627524526609308,0.000817191121981032,7.551849738039434e-05,0.0008021142260556729
1,shutdown,17.346938775510203,9.346938775510203,77.40413384216254,interface_ae,0.0015692602492853296,0.0011477030687565587,-4.666189681756455e-05,0.0014090022207511458
1,shutdown,17.346938775510203,9.346938775510203,77.40413384216254,interface_ec,0.0012049844738675122,0.0011789016816734883,-7.85907959688194e-06,0.0011922348049263705
1,shutdown,17.387755102040817,9.387755102040817,73.29619723052508,anode,0.0006645122641662114,0.00052253603843628,-1.3362772972677126e-05,0.0006065678410423761
1,shutdown,17.387755102040817,9.387755102040817,73.29619723052508,electrolyte,0.00024972606940352354,0.0005447808971084961,7.65180622437113e-06,0.00047252406699397557
1,shutdown,17.387755102040817,9.387755102040817,73.29619723052508,cathode,0.0005882879516013316,0.00039890967919354063,-0.0001331913110391086,0.0005689970686355261
1,shutdown,17.387755102040817,9.387755102040817,73.29619723052508,interface_ae,0.001507946315426645,0.0012077188013131246,-0.00016239178425699673,0.0014108242100009864
1,shutdown,17.387755102040817,9.387755102040817,73.29619723052508,interface_ec,0.0013989819370587076,0.001281287293733385,1.2437612230092952e-05,0.0013441777753620513
1,shutdown,17.42857142857143,9.428571428571429,69.51027993240348,anode,0.0008939483718265258,0.0005487509779796097,-0.000141682352794919,0.000818497374035067
1,shutdown,17.42857142857143,9.428571428571429,69.51027993240348,electrolyte,0.00044634582544917734,0.0003774940425533174,-6.0329684877815496e-05,0.0004291298995245094
1,shutdown,17.42857142857143,9.428571428571429,69.51027993240348,cathode,0.0006890379600516589,0.00017187399631686068,9.905668274427895e-05,0.0006444555472512328
1,shutdown,17.42857142857143,9.428571428571429,69.51027993240348,interface_ae,0.0009730280446312574,0.0008138248740866597,-1.138247723074769e-05,0.0009042172071908383
1,shutdown,17.42857142857143,9.428571428571429,69.51027993240348,interface_ec,0.001235246970961075,0.001043598911828752,-7.426591657723782e-05,0.0011586102245358869
1,shutdown,17.46938775510204,9.46938775510204,66.02113899784933,anode,0.00042808716108871047,0.0002391799475323452,-2.2467990162987013e-05,0.0003736177616334518
1,shutdown,17.46938775510204,9.46938775510204,66.02113899784933,electrolyte,0.0005590525054647894,0.00030190988352631927,8.594142547594531e-05,0.000507014389012654
1,shutdown,17.46938775510204,9.46938775510204,66.02113899784933,cathode,0.0008203852868723265,0.0003481847132004442,-1.865732530553647e-05,0.000713907056249082
1,shutdown,17.46938775510204,9.46938775510204,66.02113899784933,interface_ae,0.0014928486108666756,0.0012204455164116644,-0.00016724045258123527,0.0014071431862539827
1,shutdown,17.46938775510204,9.46938775510204,66.02113899784933,interface_ec,0.0011360397018663577,0.0009316888324836143,8.264531108587625e-05,0.0010586243543570246
1,shutdown,17.51020408163265,9.510204081632653,62.8055102604701,anode,0.00033881728212195795,0.0002613537969365583,-6.760707152936096e-05,0.00032903483561728806
1,shutdown,17.51020408163265,9.510204081632653,62.8055102604701,electrolyte,0.0002026927639126433,0.0004420938897358531,-0.00011812011731488802,0.0004344873045421701
1,shutdown,17.51020408163265,9.510204081632653,62.8055102604701,cathode,0.00036329025562710526,7.147299324440447e-05,0.0001007117823412373,0.00037623310050788247
1,shutdown,17.51020408163265,9.510204081632653,62.8055102604701,interface_ae,0.001229832091124166,0.0007931362565166281,-2.9794936481322298e-05,0.0010811063257522777
1,shutdown,17.51020408163265,9.510204081632653,62.8055102604701,interface_ec,0.0010662704516945175,0.0011534473441650365,4.0861074756391724e-05,0.0011146728280263469
1,shutdown,17.551020408163264,9.551020408163264,59.84195322147059,anode,0.0003100652014594363,7.186024476263603e-05,-0.00011151262626634877,0.00034106914271835086
1,shutdown,17.551020408163264,9.551020408163264,59.84195322147059,electrolyte,0.0003068667235328915,0.00012609058881379184,1.949677059907586e-05,0.00026928310183332784
1,shutdown,17.551020408163264,9.551020408163264,59.84195322147059,cathode,0.0003389887867072124,0.00018399547290104181,-0.00011770316314530711,0.0003577113826623279
1,shutdown,17.551020408163264,9.551020408163264,59.84195322147059,interface_ae,0.0012116180817835645,0.0009690470681565769,0.00017305179518279585,0.0011501288701610127
1,shutdown,17.551020408163264,9.551020408163264,59.84195322147059,interface_ec,0.001007137360059939,0.0007052512365968804,0.0001323340922489938,0.0009240979580427814
1,shutdown,17.591836734693878,9.591836734693878,57.11070809316573,anode,0.00040771811705881707,0.00040878026530950063,-4.2824379075519e-06,0.0004083176043780084
1,shutdown,17.591836734693878,9.591836734693878,57.11070809316573,electrolyte,-0.000320065227591542,0.0005579447447724003,4.910039459577535e-05,0.0007743095931859751
1,shutdown,17.591836734693878,9.591836734693878,57.11070809316573,cathode,0.00048029632950487267,0.000352256698797318,1.63427820386131e-05,0.000431720981748475
1,shutdown,17.591836734693878,9.591836734693878,57.11070809316573,interface_ae,0.0007092076474930917,0.0008525396929643145,-0.00013070983443991326,0.0008224517783788892
1,shutdown,17.591836734693878,9.591836734693878,57.11070809316573,interface_ec,0.0008658771211564507,0.0008415385166170812,-1.98669133822903e-05,0.0008546609845568067
1,shutdown,17.632653061224488,9.63265306122449,54.59356404878929,anode,0.0004560259978334216,0.00013776326817166058,-9.658267708959642e-05,0.0004382914982815771
1,shutdown,17.632653061224488,9.63265306122449,54.59356404878929,electrolyte,0.00029554750977576946,0.0003541295262262423,-0.0001874865655501711,0.0004621120957636125
1,shutdown,17.632653061224488,9.63265306122449,54.59356404878929,cathode,0.00048625656636137,0.0002273898465432432,-1.9280608730741248e-05,0.00042272569149986213
1,shutdown,17.632653061224488,9.63265306122449,54.59356404878929,interface_ae,0.0004958012939654259,0.0005017368451996797,9.661253255303114e-05,0.0005261168617213458
1,shutdown,17.632653061224488,9.63265306122449,54.59356404878929,interface_ec,0.000770277553474476,0.0005955046128951096,-1.1648835263103477e-05,0.0006997546020937121
1,shutdown,17.6734693877551,9.673469387755102,52.27373780013852,anode,0.00044976156235400247,0.0003977877929632727,-7.502700039680087e-06,0.00042635642774191754
1,shutdown,17.6734693877551,9.673469387755102,52.27373780013852,electrolyte,0.00044733930050307614,0.0003953903083062266,4.1337202913039575e-05,0.00042976576732877737
1,shutdown,17.6734693877551,9.673469387755102,52.27373780013852,cathode,0.0003628415540031563,0.000441153112754513,3.142674218011834e-05,0.00041129588083448055
1,shutdown,17.6734693877551,9.673469387755102,52.27373780013852,interface_ae,0.000915998409203474,0.0007992900628088718,-0.00010182539014177286,0.000881404841361679
1,shutdown,17.6734693877551,9.673469387755102,52.27373780013852,interface_ec,0.0004866457606939431,0.00047912787858039505,9.761386900669212e-05,0.0005116712535996836
1,shutdown,17.714285714285715,9.714285714285714,50.135761693466634,anode,9.070609593707455e-06,0.00036436399769580047,3.625430910929614e-05,0.0003653512282573343
1,shutdown,17.714285714285715,9.714285714285714,50.135761693466634,electrolyte,0.00044334567755341034,0.00022158587605100867,-0.00013432093905839008,0.00044893528924007327
1,shutdown,17.714285714285715,9.714285714285714,50.135761693466634,cathode,0.000132461416818332,4.9013415494636865e-05,-5.3794396633314036e-05,0.00014878664829839918
1,shutdown,17.714285714285715,9.714285714285714,50.135761693466634,interface_ae,0.0006120845044111278,0.0003377367345041922,0.00014706619906522893,0.000588961392058784
1,shutdown,17.714285714285715,9.714285714285714,50.135761693466634,interface_ec,0.000383608543505425,0.0008400457245208997,0.00011851630314393404,0.0007567839582123089
1,shutdown,17.755102040816325,9.755102040816327,48.16538057748471,anode,0.00047856864642148076,0.00012428583860628277,3.4245087917690145e-05,0.0004341817495059631
1,shutdown,17.755102040816325,9.755102040816327,48.16538057748471,electrolyte,-6.118393799573569e-05,0.00035315686107541126,-7.398478153626888e-06,0.0003876015772943642
1,shutdown,17.755102040816325,9.755102040816327,48.16538057748471,cathode,0.00021704409356633668,1.8290190774379004e-05,-0.0002477506118629017,0.0004770890784624418
1,shutdown,17.755102040816325,9.755102040816327,48.16538057748471,interface_ae,0.00039010810156019625,0.0007486379593338471,-4.028334284748041e-05,0.0006522742024024281
1,shutdown,17.755102040816325,9.755102040816327,48.16538057748471,interface_ec,0.000563950501544338,0.0006571891918689564,0.00018056688781162652,0.0006907451271340217
1,shutdown,17.79591836734694,9.795918367346939,46.34945675583765,anode,0.0005404777923547748,4.79526372385318e-05,-0.00019425705714374065,0.0006178234186925823
1,shutdown,17.79591836734694,9.795918367346939,46.34945675583765,electrolyte,0.0006509828117076913,0.0006113710870330408,1.8845359642928272e-05,0.0006329507095386424
1,shutdown,17.79591836734694,9.795918367346939,46.34945675583765,cathode,2.1379212249282738e-05,0.00043506494478055726,-1.0798368601261019e-05,0.00042519059889650583
1,shutdown,17.79591836734694,9.795918367346939,46.34945675583765,interface_ae,0.000528357498109972,0.0006637310446245647,3.343747468732986e-05,0.0006102191945457707
1,shutdown,17.79591836734694,9.795918367346939,46.34945675583765,interface_ec,0.0003137907405283051,0.00041989088898714406,6.611529286613466e-05,0.00039513138365824125
1,shutdown,17.836734693877553,9.83673469387755,44.67588239031102,anode,0.0003559327979043717,0.000275819785884259,9.334229544758643e-05,0.00036156569964582825
1,shutdown,17.836734693877553,9.83673469387755,44.67588239031102,electrolyte,9.268013216173625e-05,0.00018095466120198088,-0.00033755791001776003,0.0006053092781706169
1,shutdown,17.836734693877553,9.83673469387755,44.67588239031102,cathode,0.00016395231465480517,0.0003761970527276927,-3.9039446711714254e-05,0.0003336142107274808
1,shutdown,17.836734693877553,9.83673469387755,44.67588239031102,interface_ae,0.0004145192285033135,0.00023854235167016392,0.00010033658927291456,0.0004000631777612089
1,shutdown,17.836734693877553,9.83673469387755,44.67588239031102,interface_ec,0.00061745736155485,0.0006119158615897446,-0.00017262139619578896,0.0006835620680570129
1,shutdown,17.877551020408163,9.877551020408163,43.13349877071198,anode,0.00020189062064638263,0.00014988075223356704,-2.8057170659855252e-05,0.00018795254448931696
1,shutdown,17.877551020408163,9.877551020408163,43.13349877071198,electrolyte,2.8881900301089942e-05,6.461606560331634e-05,8.496447827066519e-05,0.0001574803258755503
1,shutdown,17.877551020408163,9.877551020408163,43.13349877071198,cathode,-0.00014858964137005643,0.0005613619073896591,4.838411250264615e-05,0.0006539431963989568
1,shutdown,17.877551020408163,9.877551020408163,43.13349877071198,interface_ae,0.0004594948794669763,0.0005931727368417219,-0.0001451834745168435,0.0005946968375473633
1,shutdown,17.877551020408163,9.877551020408163,43.13349877071198,interface_ec,0.0003350210775688161,0.0003875908210890258,0.00013655603704321775,0.000434231880715424
1,shutdown,17.918367346938776,9.918367346938776,41.71202191314853,anode,0.0002063396762024114,0.0002797732475734255,-5.8957899593612776e-05,0.0002711990274543239
1,shutdown,17.918367346938776,9.918367346938776,41.71202191314853,electrolyte,0.00023753375887151815,0.000458793422263549,9.955266916741142e-05,0.0004332054554079524
1,shutdown,17.918367346938776,9.918367346938776,41.71202191314853,cathode,0.0001993477948721471,0.0003248604827894902,5.775169546072118e-05,0.00030086447231134815
1,shutdown,17.918367346938776,9.918367346938776,41.71202191314853,interface_ae,0.0005325955191949011,0.0006019152988448743,0.00011044777038374664,0.0006016467010618302
1,shutdown,17.918367346938776,9.918367346938776,41.71202191314853,interface_ec,0.0004058462654804691,0.0005079004389683463,-3.830949211597938e-05,0.0004700504252482289
1,shutdown,17.95918367346939,9.959183673469388,40.401973990626175,anode,1.4120669003028655e-05,0.00012098817933340959,-7.627815173958268e-06,0.00011534144741091308
1,shutdown,17.95918367346939,9.959183673469388,40.401973990626175,electrolyte,-0.0002031383514626047,0.00028574301669157854,-0.0002767325422602398,0.0006408606140285683
1,shutdown,17.95918367346939,9.959183673469388,40.401973990626175,cathode,0.0007416985361634085,0.00047526275723347065,-2.610087241723136e-05,0.000652329274408159
1,shutdown,17.95918367346939,9.959183673469388,40.401973990626175,interface_ae,0.000399355568645043,0.0004103682356658704,-5.89160387988942e-05,0.00041763311390067805
1,shutdown,17.95918367346939,9.959183673469388,40.401973990626175,interface_ec,0.0004359941260496756,0.0003209738654080815,-9.427271723096599e-06,0.000391712905899035
1,shutdown,18.0,10.0,39.19462013876898,anode,0.00021944860158346947,-0.00010152793744993814,3.956972413364814e-06,0.00028424065086975534
1,shutdown,18.0,10.0,39.19462013876898,electrolyte,0.00015174120210026756,0.00013053537871474233,-2.1583075543615447e-05,0.00014715559682870034
1,shutdown,18.0,10.0,39.19462013876898,cathode,0.0004107279440812161,9.044711124455049e-05,2.273259068231903e-05,0.000375871360932829
1,shutdown,18.0,10.0,39.19462013876898,interface_ae,0.0006257722845597925,0.000306480016437659,2.1446326746755132e-05,0.0005432440403110546
1,shutdown,18.0,10.0,39.19462013876898,interface_ec,0.000347035850511704,0.0005698292031544413,-2.5772456158629526e-05,0.0004993803146242798
2,startup,4.0,0.0,25.0,anode,0.00025667091545764114,-2.071757892941294e-05,-8.594597234480169e-05,0.00030624648137622516
2,startup,4.0,0.0,25.0,electrolyte,0.00013587463411482423,-6.093356675113121e-05,6.205008990991628e-05,0.00020495068385823742
2,startup,4.0,0.0,25.0,cathode,-0.0005458808769847469,1.0410523789892762e-06,-4.596052987574804e-05,0.0005521706413353579
2,startup,4.0,0.0,25.0,interface_ae,-0.00021265173730625563,-0.00011064820036795988,-5.737031442926516e-05,0.00020930435379876326
2,startup,4.0,0.0,25.0,interface_ec,-9.597158970116227e-06,-0.0002734652922569912,3.162737802597137e-05,0.0002743205328977267
2,startup,4.040816326530612,0.04081632653061224,85.7519033442633,anode,0.0011198501262257303,0.0008012000082719892,8.08988609229009e-05,0.0010091559369905352
2,startup,4.040816326530612,0.04081632653061224,85.7519033442633,electrolyte,0.0007284445834875482,0.0006956861438938497,0.00018701386928213055,0.0007827927443474738
2,startup,4.040816326530612,0.04081632653061224,85.7519033442633,cathode,0.0007467667695293866,0.0006013175118502005,7.834656483247346e-05,0.0006990092810602703
2,startup,4.040816326530612,0.04081632653061224,85.7519033442633,interface_ae,0.001834867582300625,0.0016451636776879856,0.0001889282454250252,0.0017781244942218124
2,startup,4.040816326530612,0.04081632653061224,85.7519033442633,interface_ec,0.001695488320128844,0.0015752599296940848,-9.803882514834749e-05,0.0016474600181914105
2,startup,4.081632653061225,0.08163265306122448,141.74149215955785,anode,0.002053913405857417,0.0013643182950929364,-3.0821592816082995e-05,0.0018112379646775727
2,startup,4.081632653061225,0.08163265306122448,141.74149215955785,electrolyte,0.0009097722141043205,0.0007326483575003853,-7.294370488476493e-05,0.0008449132092636604
2,startup,4.081632653061225,0.08163265306122448,141.74149215955785,cathode,0.0015221083244843206,0.0011584680937245697,-7.853179202632384e-05,0.0013834919130993328
2,startup,4.081632653061225,0.08163265306122448,141.74149215955785,interface_ae,0.003643490984413975,0.003010385587397791,9.25904176727718e-05,0.0033756264822043173
2,startup,4.081632653061225,0.08163265306122448,141.74149215955785,interface_ec,0.0034891401196078344,0.0032300814715419957,-0.0001771422551443844,0.003381043680695312
2,startup,4.122448979591836,0.12244897959183673,193.34208215163724,anode,0.0020999517475719593,0.0019036722339748184,-4.697297964895977e-05,0.0020106627923271647
2,startup,4.122448979591836,0.12244897959183673,193.34208215163724,electrolyte,0.0013517874560579723,0.0011530776635128113,2.193089131320541e-05,0.0012647704910504394
2,startup,4.122448979591836,0.12244897959183673,193.34208215163724,cathode,0.0023529874487783105,0.0019198500071181054,-0.000217554877698757,0.002201586107352007
2,startup,4.122448979591836,0.12244897959183673,193.34208215163724,interface_ae,0.0044932830001827954,0.004018986201644995,-2.470794368077195e-05,0.004276123393725522
2,startup,4.122448979591836,0.12244897959183673,193.34208215163724,interface_ec,0.004465923249396427,0.0040306726390082264,-0.00011309873884855864,0.004269483776439911
2,startup,4.163265306122449,0.16326530612244897,240.897724975064,anode,0.0029834753938589673,0.002432984286795875,-8.489046563704645e-05,0.002753798900741442
2,startup,4.163265306122449,0.16326530612244897,240.897724975064,electrolyte,0.0015490182864962574,0.0015627643600568382,-8.664477699523984e-05,0.0015631575345731027
2,startup,4.163265306122449,0.16326530612244897,240.897724975064,cathode,0.00318999611750372,0.002728772605806978,-6.9851868183643e-06,0.002986243045085464
2,startup,4.163265306122449,0.16326530612244897,240.897724975064,interface_ae,0.00585778142886851,0.005371309166000057,6.90700889348637e-05,0.0056316003387494665
2,startup,4.163265306122449,0.16326530612244897,240.897724975064,interface_ec,0.006045816210777594,0.005615945476030182,4.59637318074816e-05,0.00584329539218613
2,startup,4.204081632653061,0.2040816326530612,284.7255022290931,anode,0.0038021219907061303,0.003211785564636616,6.756644532569766e-05,0.0035459544969279797
2,startup,4.204081632653061,0.2040816326530612,284.7255022290931,electrolyte,0.002018986675387591,0.0018252620986482964,3.4936355348237976e-05,0.0019303809765610453
2,startup,4.204081632653061,0.2040816326530612,284.7255022290931,cathode,0.0036878204435039997,0.00328659484611807,0.00011003928922787292,0.003509655193683294
2,startup,4.204081632653061,0.2040816326530612,284.7255022290931,interface_ae,0.006953806860021965,0.006175254453536782,2.2957264107425312e-05,0.006599185687564416
2,startup,4.204081632653061,0.2040816326530612,284.7255022290931,interface_ec,0.007093928368024355,0.007045698611316714,5.15719619170136e-05,0.007070501139422115
2,startup,4.244897959183674,0.24489795918367346,325.117639628244,anode,0.004166618356646272,0.0035773165286436554,-4.8016228319304444e-05,0.0039063417713781825
2,startup,4.244897959183674,0.24489795918367346,325.117639628244,electrolyte,0.002523143819467663,0.0022374581912643233,-4.5669914469351296e-05,0.0023944315208480537
2,startup,4.244897959183674,0.24489795918367346,325.117639628244,cathode,0.004127654077128323,0.003949267298307346,0.00013845049626510342,0.004048522783452522
2,startup,4.244897959183674,0.24489795918367346,325.117639628244,interface_ae,0.008414975848851583,0.0070925688210735065,5.385031566390435e-05,0.007838447247526734
2,startup,4.244897959183674,0.24489795918367346,325.117639628244,interface_ec,0.008675425541186813,0.00763477698691333,7.344258528096671e-05,0.00820573397856907
2,startup,4.285714285714286,0.2857142857142857,362.34345544398667,anode,0.004985528873373366,0.0041475958229340625,6.28102969833705e-05,0.004625140638679052
2,startup,4.285714285714286,0.2857142857142857,362.34345544398667,electrolyte,0.00269317709368453,0.0025482654333467605,0.00013295342439705244,0.0026338107984811925
2,startup,4.285714285714286,0.2857142857142857,362.34345544398667,cathode,0.004583159600018824,0.003964630282545401,9.748893902369686e-06,0.004307365433689647
2,startup,4.285714285714286,0.2857142857142857,362.34345544398667,interface_ae,0.009356756123887604,0.008403667481090601,-4.532595259470423e-05,0.00891883447843798
2,startup,4.285714285714286,0.2857142857142857,362.34345544398667,interface_ec,0.009745776487752947,0.008015902717284305,0.00012537347862197346,0.009008929737732726
2,startup,4.326530612244898,0.32653061224489793,396.65115620895585,anode,0.005026168847314797,0.004198445502902443,2.378751563488674e-05,0.0046678602663771515
2,startup,4.326530612244898,0.32653061224489793,396.65115620895585,electrolyte,0.00306615261616266,0.002521103434180978,-0.0001681376891715264,0.0028481533225353925
2,startup,4.326530612244898,0.32653061224489793,396.65115620895585,cathode,0.005177466535522126,0.004752809428144011,5.849534930864443e-05,0.0049797701292779205
2,startup,4.326530612244898,0.32653061224489793,396.65115620895585,interface_ae,0.010369618715720688,0.009211053614282042,-2.7214132377857005e-06,0.009841616191597157
2,startup,4.326530612244898,0.32653061224489793,396.65115620895585,interface_ec,0.01007233253734676,0.008831105302593806,-2.031685289846789e-05,0.009512713211901148
2,startup,4.36734693877551,0.36734693877551017,428.2694916567157,anode,0.005587624839362307,0.005115581372740613,7.573042237747472e-05,0.005368796873705059
2,startup,4.36734693877551,0.36734693877551017,428.2694916567157,electrolyte,0.0035032868557565025,0.002920332479676711,-0.00013806521701101396,0.003260028252565565
2,startup,4.36734693877551,0.36734693877551017,428.2694916567157,cathode,0.005702169724048727,0.005050418699691694,-0.0002388531462477686,0.005421648870714456
2,startup,4.36734693877551,0.36734693877551017,428.2694916567157,interface_ae,0.011072643355954512,0.00975255879859974,1.1835020112343629e-05,0.010475192066331808
2,startup,4.36734693877551,0.36734693877551017,428.2694916567157,interface_ec,0.011078838906717906,0.009883142760313591,-2.1053494035299195e-05,0.010532082678984676
2,startup,4.408163265306122,0.4081632653061224,457.4092799315351,anode,0.005994002651835138,0.005159453781865411,-6.389850540666776e-05,0.0056244555757752656
2,startup,4.408163265306122,0.4081632653061224,457.4092799315351,electrolyte,0.0034106050648889945,0.003267472947738483,5.711026285913683e-05,0.0033428029158591075
2,startup,4.408163265306122,0.4081632653061224,457.4092799315351,cathode,0.005871708956117615,0.00560686065980897,-3.146014474420489e-05,0.005744124632533962
2,startup,4.408163265306122,0.4081632653061224,457.4092799315351,interface_ae,0.012357702217044679,0.010477039846444802,-0.00020265777765994357,0.01153829450201393
2,startup,4.408163265306122,0.4081632653061224,457.4092799315351,interface_ec,0.012132104657267837,0.01065517430223492,3.4393795307583076e-06,0.01146521035732695
2,startup,4.448979591836735,0.44897959183673464,484.2648132376524,anode,0.006271630901687519,0.005625153664593995,-5.112594578695273e-05,0.0059753378109263745
2,startup,4.448979591836735,0.44897959183673464,484.2648132376524,electrolyte,0.003791428520339767,0.003557997072726398,1.842172295300935e-05,0.0036804075721562166
2,startup,4.448979591836735,0.44897959183673464,484.2648132376524,cathode,0.006522067674842712,0.005585694408366001,-3.420173458047751e-05,0.006108238789738888
2,startup,4.448979591836735,0.44897959183673464,484.2648132376524,interface_ae,0.012569458288574906,0.011190128896868679,-0.0003321114555589139,0.011953547675921682
2,startup,4.448979591836735,0.44897959183673464,484.2648132376524,interface_ec,0.012682110401491508,0.011247761383944151,5.63673654270156e-05,0.012029640085414326
2,startup,4.489795918367347,0.4897959183673469,509.01515330032225,anode,0.006691249786615629,0.006005121827115145,-0.00021797886613902456,0.006387103105426054
2,startup,4.489795918367347,0.4897959183673469,509.01515330032225,electrolyte,0.004048114560464538,0.003236443540614536,-0.00012083035156593327,0.0037153874612112915
2,startup,4.489795918367347,0.4897959183673469,509.01515330032225,cathode,0.006707552252547848,0.006190839916240857,3.712067634700588e-05,0.006465021863665559
2,startup,4.489795918367347,0.4897959183673469,509.01515330032225,interface_ae,0.013493616923668664,0.01186726815943887,-7.136288932044674e-05,0.012759022641360383
2,startup,4.489795918367347,0.4897959183673469,509.01515330032225,interface_ec,0.013381174041566704,0.011956649446426451,-0.00013853605184444945,0.012731097919338142
2,startup,4.530612244897959,0.5306122448979591,531.8253252762499,anode,0.007181466955841765,0.0061376119948671716,8.255570748695654e-05,0.0067221378476630435
2,startup,4.530612244897959,0.5306122448979591,531.8253252762499,electrolyte,0.004443011742150448,0.0034060810821184,-5.815807632272181e-05,0.004027236089653515
2,startup,4.530612244897959,0.5306122448979591,531.8253252762499,cathode,0.0068917506081970364,0.0058527678152763135,-0.00010325332762094106,0.006437956596898298
2,startup,4.530612244897959,0.5306122448979591,531.8253252762499,interface_ae,0.01461396346062339,0.012552528795824372,0.00019172879686057541,0.013704086610660055
2,startup,4.530612244897959,0.5306122448979591,531.8253252762499,interface_ec,0.01429153197957399,0.012282258184380189,-3.8177119667404306e-05,0.01340051638127817
2,startup,4.571428571428571,0.5714285714285714,552.8474180739229,anode,0.007473496416949181,0.006560613319887593,-5.773420157083338e-05,0.0070621579847921
2,startup,4.571428571428571,0.5714285714285714,552.8474180739229,electrolyte,0.004125108743278351,0.004553406729584638,-1.4114967234280568e-05,0.004355150373280601
2,startup,4.571428571428571,0.5714285714285714,552.8474180739229,cathode,0.007290661402264596,0.006495778971974046,-2.4272858931102862e-05,0.0069276352835321705
2,startup,4.571428571428571,0.5714285714285714,552.8474180739229,interface_ae,0.014736164143343337,0.013203613615609256,-1.2454847968642379e-05,0.01403281133681604
2,startup,4.571428571428571,0.5714285714285714,552.8474180739229,interface_ec,0.014479076273936688,0.01291389539949025,-4.644017814099108e-05,0.01376363097888888
2,startup,4.612244897959184,0.6122448979591836,572.2215984203204,anode,0.007910577546080934,0.006944925840543291,1.0752500043079883e-05,0.007474704307099934
2,startup,4.612244897959184,0.6122448979591836,572.2215984203204,electrolyte,0.004333853331916256,0.0037936699898465055,1.512326158455364e-06,0.0040906007175142214
2,startup,4.612244897959184,0.6122448979591836,572.2215984203204,cathode,0.00769306235249582,0.006635777463730565,-4.8016958420723416e-05,0.007223172295236014
2,startup,4.612244897959184,0.6122448979591836,572.2215984203204,interface_ae,0.015133035670627399,0.013416725263142764,-0.0002382762352073065,0.014357988372253999
2,startup,4.612244897959184,0.6122448979591836,572.2215984203204,interface_ec,0.015031330191509186,0.013295993886102083,0.00012075031949519207,0.014244704571809357
2,startup,4.653061224489796,0.6530612244897959,590.0770454353908,anode,0.00771185932413321,0.006965761034582957,2.2654275093099606e-05,0.007367304221385334
2,startup,4.653061224489796,0.6530612244897959,590.0770454353908,electrolyte,0.00499893916607414,0.004423148642541779,-5.7502968794916374e-06,0.004737371097064493
2,startup,4.653061224489796,0.6530612244897959,590.0770454353908,cathode,0.007779525104281107,0.006796900785651578,-2.410632224657809e-05,0.007337843974163211
2,startup,4.653061224489796,0.6530612244897959,590.0770454353908,interface_ae,0.01566243743417327,0.013970060294305078,4.203098174852043e-05,0.014888741904708073
2,startup,4.653061224489796,0.6530612244897959,590.0770454353908,interface_ec,0.015867604343266995,0.014111191554720666,0.0001862869121400177,0.01506983406434959
2,startup,4.6938775510204085,0.6938775510204082,606.5328119456506,anode,0.008128873799988643,0.007351360941029406,-3.5166018383421516e-05,0.007769589534858814
2,startup,4.6938775510204085,0.6938775510204082,606.5328119456506,electrolyte,0.005114373367873673,0.00450438916605339,0.00010084159699429913,0.004841458024079685
2,startup,4.6938775510204085,0.6938775510204082,606.5328119456506,cathode,0.008122755089545436,0.0069977965539520974,-0.00013945284378654766,0.0076266152759886015
2,startup,4.6938775510204085,0.6938775510204082,606.5328119456506,interface_ae,0.016199874801110042,0.014569538881950388,-3.098449013640731e-05,0.015449452453815
2,startup,4.6938775510204085,0.6938775510204082,606.5328119456506,interface_ec,0.016364907559706272,0.014431726653604336,-2.836862209271728e-05,0.015489140562505704
2,startup,4.73469387755102,0.7346938775510203,621.6986182797979,anode,0.008578552938370766,0.006735717745466738,-0.00012227502787381752,0.007824551511296993
2,startup,4.73469387755102,0.7346938775510203,621.6986182797979,electrolyte,0.004821442597268548,0.004240077765181934,3.362629511858955e-05,0.00455902059700729
2,startup,4.73469387755102,0.7346938775510203,621.6986182797979,cathode,0.008373291531477643,0.007396248008797841,5.96081494132487e-05,0.00793071335104323
2,startup,4.73469387755102,0.7346938775510203,621.6986182797979,interface_ae,0.016440547027904595,0.014391264575364214,3.9631968200786296e-05,0.015517877841099701
2,startup,4.73469387755102,0.7346938775510203,621.6986182797979,interface_ec,0.016504521527004438,0.014320804779652084,9.713442845414815e-05,0.01552916465538428
2,startup,4.775510204081632,0.7755102040816326,635.6755838390422,anode,0.008789080130283244,0.007800284757044582,1.870077214747203e-05,0.00833883044649948
2,startup,4.775510204081632,0.7755102040816326,635.6755838390422,electrolyte,0.005246981638489774,0.004781153437652152,-6.414157900234342e-05,0.005031497057271271
2,startup,4.775510204081632,0.7755102040816326,635.6755838390422,cathode,0.008732195285793602,0.007543931825933492,9.13711652342591e-05,0.008204395288277636
2,startup,4.775510204081632,0.7755102040816326,635.6755838390422,interface_ae,0.017057338102140756,0.0152369565001593,2.2352376254153687e-05,0.016223970128603965
2,startup,4.775510204081632,0.7755102040816326,635.6755838390422,interface_ec,0.016723323686072086,0.015268090484672644,-9.47530740972112e-05,0.01604611658156034
2,startup,4.816326530612245,0.8163265306122448,648.5569013199622,anode,0.008940178783023741,0.007628770507769898,0.00011760109851977066,0.008364439846973923
2,startup,4.816326530612245,0.8163265306122448,648.5569013199622,electrolyte,0.005456785798560133,0.0046882808213794406,5.085353176271308e-05,0.0051167667868288556
2,startup,4.816326530612245,0.8163265306122448,648.5569013199622,cathode,0.00877409286441347,0.007244054132801748,1.183302188982022e-05,0.008117970328690162
2,startup,4.816326530612245,0.8163265306122448,648.5569013199622,interface_ae,0.017155921446735535,0.015327875596865059,-0.00011429425463832155,0.01632007263599982
2,startup,4.816326530612245,0.8163265306122448,648.5569013199622,interface_ec,0.0171421438937047,0.015614625068466706,0.00010694473881241897,0.01643276528959263
2,startup,4.857142857142857,0.8571428571428571,660.4284580853368,anode,0.008854174511813282,0.007829356395395665,-2.4791602574300888e-05,0.008388956066306878
2,startup,4.857142857142857,0.8571428571428571,660.4284580853368,electrolyte,0.005443375246234214,0.004554661101203951,9.937402628679574e-05,0.005060846561214603
2,startup,4.857142857142857,0.8571428571428571,660.4284580853368,cathode,0.008804385660599292,0.007708433266179615,2.17130184848427e-06,0.008310784867202839
2,startup,4.857142857142857,0.8571428571428571,660.4284580853368,interface_ae,0.017591776691619106,0.015650541800591018,-5.373625893133998e-05,0.016706223155386266
2,startup,4.857142857142857,0.8571428571428571,660.4284580853368,interface_ec,0.017803710778167996,0.015828006638474015,-7.193216868081736e-05,0.016903141185726153
2,startup,4.8979591836734695,0.8979591836734693,671.3694088259941,anode,0.00898135537992256,0.008018840157422888,-4.358573549814069e-05,0.008541205294990249
2,startup,4.8979591836734695,0.8979591836734693,671.3694088259941,electrolyte,0.005514026895867219,0.004881703021788008,0.0001083261776294304,0.0052299979850651285
2,startup,4.8979591836734695,0.8979591836734693,671.3694088259941,cathode,0.008886272462164613,0.007738018966769709,-3.075773895637438e-05,0.00837158700972025
2,startup,4.8979591836734695,0.8979591836734693,671.3694088259941,interface_ae,0.01782139047485377,0.015966047670441106,-0.00011617513001764114,0.01697115072054485
2,startup,4.8979591836734695,0.8979591836734693,671.3694088259941,interface_ec,0.018481544226413727,0.016112333601946357,1.257576960031424e-06,0.01741820799573516
2,startup,4.938775510204081,0.9387755102040816,681.4527033319537,anode,0.009321464957935208,0.0077228673593531805,0.00025233733313995583,0.008644939221086119
2,startup,4.938775510204081,0.9387755102040816,681.4527033319537,electrolyte,0.005387689428085965,0.0048209449856830636,-0.00018559332871884369,0.005137926454002439
2,startup,4.938775510204081,0.9387755102040816,681.4527033319537,cathode,0.009245243520283792,0.007828958900799918,1.0165576156602921e-05,0.008624778471844417
2,startup,4.938775510204081,0.9387755102040816,681.4527033319537,interface_ae,0.018187117232086318,0.015884906677444608,-8.043615017626171e-05,0.017152849422883216
2,startup,4.938775510204081,0.9387755102040816,681.4527033319537,interface_ec,0.01834112972548833,0.015844157269856912,-7.488116710235771e-05,0.017229377147454476
2,startup,4.979591836734694,0.9795918367346939,690.7455728918258,anode,0.009410141369455113,0.008684684264992814,4.775888195530049e-05,0.009069577577015174
2,startup,4.979591836734694,0.9795918367346939,690.7455728918258,electrolyte,0.005400220218399211,0.004840209007200046,3.1589006152578294e-06,0.005143134942288382
2,startup,4.979591836734694,0.9795918367346939,690.7455728918258,cathode,0.009207601703075077,0.008344799923365339,2.1747348301422457e-05,0.008808032682656449
2,startup,4.979591836734694,0.9795918367346939,690.7455728918258,interface_ae,0.01873654386338641,0.016265487821976378,0.00013255002197212567,0.01763286285662658
2,startup,4.979591836734694,0.9795918367346939,690.7455728918258,interface_ec,0.018521676269548128,0.016134138606208305,0.00021773203810422214,0.01745490905067471
2,startup,5.020408163265306,1.0204081632653061,699.3099785635789,anode,0.009031840280913136,0.00812146778560773,-6.270278518303946e-05,0.008613499456330628
2,startup,5.020408163265306,1.0204081632653061,699.3099785635789,electrolyte,0.006157164300628426,0.005338214457324362,0.00014939281436421976,0.005797059338193362
2,startup,5.020408163265306,1.0204081632653061,699.3099785635789,cathode,0.009330704097830092,0.008754451131437071,3.683520038409712e-05,0.009056562870294223
2,startup,5.020408163265306,1.0204081632653061,699.3099785635789,interface_ae,0.018989124334671342,0.01657437013755867,-4.946657132325152e-06,0.01790429799103246
2,startup,5.020408163265306,1.0204081632653061,699.3099785635789,interface_ec,0.01874331592582544,0.016496503062653597,6.084916486780788e-05,0.017727336079608046
2,startup,5.061224489795919,1.0612244897959182,707.2030243055624,anode,0.009580269201690656,0.008359715458862573,0.00015095239926988545,0.009035841735284322
2,startup,5.061224489795919,1.0612244897959182,707.2030243055624,electrolyte,0.005128352170750119,0.005137075899942713,7.177387066589793e-05,0.005134224859875291
2,startup,5.061224489795919,1.0612244897959182,707.2030243055624,cathode,0.009736221815586612,0.008353035444692637,2.079200673839576e-05,0.00912367839099144
2,startup,5.061224489795919,1.0612244897959182,707.2030243055624,interface_ae,0.019210848160534102,0.017030252746662655,-3.005359851787682e-05,0.01821876246255502
2,startup,5.061224489795919,1.0612244897959182,707.2030243055624,interface_ec,0.01906705364049667,0.01706773425867637,-0.0002124027075878851,0.01815389840648612
2,startup,5.1020408163265305,1.1020408163265305,714.4773377223732,anode,0.009470197799264996,0.008748383476641156,0.00010925378336083032,0.009132674692087428
2,startup,5.1020408163265305,1.1020408163265305,714.4773377223732,electrolyte,0.005887202197276211,0.004999068201858144,-8.818184989854194e-05,0.005499330451253566
2,startup,5.1020408163265305,1.1020408163265305,714.4773377223732,cathode,0.009489957195379437,0.008764817925084302,-6.284426891553463e-05,0.00914961322144686
2,startup,5.1020408163265305,1.1020408163265305,714.4773377223732,interface_ae,0.019236685231303757,0.016759691032868777,8.42774030099027e-05,0.018126160908318555
2,startup,5.1020408163265305,1.1020408163265305,714.4773377223732,interface_ec,0.019108655382386538,0.016890913783810243,-0.00016833821330428258,0.01810431002962178
2,startup,5.142857142857142,1.1428571428571428,721.1814209642242,anode,0.009378951315873364,0.00853896460620493,-0.0001325157155197762,0.00899137321250545
2,startup,5.142857142857142,1.1428571428571428,721.1814209642242,electrolyte,0.006259958277889426,0.004725963413597373,-8.001752986641041e-05,0.005653024186299189
2,startup,5.142857142857142,1.1428571428571428,721.1814209642242,cathode,0.00970496513656786,0.008464403379981472,-0.00011041454566639192,0.009149989469510672
2,startup,5.142857142857142,1.1428571428571428,721.1814209642242,interface_ae,0.019211664358329647,0.016876729119581407,-2.867216948200629e-05,0.018157214658666758
2,startup,5.142857142857142,1.1428571428571428,721.1814209642242,interface_ec,0.019793635744132187,0.0170904473943929,0.00011829004893875239,0.018591161752027928
2,startup,5.183673469387755,1.183673469387755,727.3599741194676,anode,0.00988912136012079,0.008835971439636986,-0.0002799964302593586,0.00941935839954189
2,startup,5.183673469387755,1.183673469387755,727.3599741194676,electrolyte,0.0058298694690304045,0.005445296829098987,-5.717358227493337e-05,0.005648280473266755
2,startup,5.183673469387755,1.183673469387755,727.3599741194676,cathode,0.010140220723929083,0.008909976990794094,-4.691307161274624e-05,0.009584844051082099
2,startup,5.183673469387755,1.183673469387755,727.3599741194676,interface_ae,0.019474819478101053,0.017023676751610192,-6.295942318637977e-05,0.018372616142609825
2,startup,5.183673469387755,1.183673469387755,727.3599741194676,interface_ec,0.01932893436907654,0.017312160156167686,-0.00014560464933464334,0.018405341284884802
2,startup,5.224489795918367,1.2244897959183672,733.0541932565242,anode,0.009987824393135414,0.008808644194489734,-0.00016612044051839226,0.009457930286237436
2,startup,5.224489795918367,1.2244897959183672,733.0541932565242,electrolyte,0.006248482761481678,0.0053286186142731335,7.49698021444869e-05,0.005844552422283209
2,startup,5.224489795918367,1.2244897959183672,733.0541932565242,cathode,0.009715344749588815,0.008807504278804308,0.00011263934497220657,0.009296783187671099
2,startup,5.224489795918367,1.2244897959183672,733.0541932565242,interface_ae,0.019714433899993805,0.017766441402069042,4.406463491293769e-06,0.01881621820882018
2,startup,5.224489795918367,1.2244897959183672,733.0541932565242,interface_ec,0.019962312739885236,0.0174246586716711,5.8552153285686774e-05,0.01882249874547847
2,startup,5.26530612244898,1.2653061224489794,738.3020451024382,anode,0.009605942691126378,0.008821594794938005,-7.34975101257266e-05,0.009239650497651544
2,startup,5.26530612244898,1.2653061224489794,738.3020451024382,electrolyte,0.005813253620348783,0.005613449924616998,-2.137702480623489e-05,0.005716091369574418
2,startup,5.26530612244898,1.2653061224489794,738.3020451024382,cathode,0.009739548778458234,0.008675557721673157,-0.0001300450228921914,0.009256285956225716
2,startup,5.26530612244898,1.2653061224489794,738.3020451024382,interface_ae,0.02016719518294592,0.017355631945756563,5.292999339436693e-05,0.01891897749781317
2,startup,5.26530612244898,1.2653061224489794,738.3020451024382,interface_ec,0.02015163963214873,0.017394737558346918,5.3202243227278606e-05,0.01892462637021391
2,startup,5.3061224489795915,1.3061224489795917,743.1385201895032,anode,0.009801590554240578,0.009295848747217625,9.363801346166222e-05,0.00956013505565917
2,startup,5.3061224489795915,1.3061224489795917,743.1385201895032,electrolyte,0.0059845759783533495,0.005145758847995057,-1.1399655283962636e-05,0.005612413814635796
2,startup,5.3061224489795915,1.3061224489795917,743.1385201895032,cathode,0.00993961102075116,0.00919728374419479,-0.00012255347222149023,0.009592368357759945
2,startup,5.3061224489795915,1.3061224489795917,743.1385201895032,interface_ae,0.020042175815100968,0.017609722053463034,-1.1741030034486948e-05,0.018943452438994122
2,startup,5.3061224489795915,1.3061224489795917,743.1385201895032,interface_ec,0.01999349219945526,0.01759017550476568,8.730660663320998e-05,0.018907348709093
2,startup,5.346938775510204,1.346938775510204,747.5958661578376,anode,0.010191519927368999,0.008945138595776607,-0.0003033989362145269,0.009643348869514427
2,startup,5.346938775510204,1.346938775510204,747.5958661578376,electrolyte,0.006120440432930626,0.0050020958110922175,6.463201631358254e-05,0.005646083247472967
2,startup,5.346938775510204,1.346938775510204,747.5958661578376,cathode,0.010364622511584614,0.00867610845098434,-2.6178072234270678e-05,0.009632119422601879
2,startup,5.346938775510204,1.346938775510204,747.5958661578376,interface_ae,0.020019574935130423,0.01796979890215546,9.502788527207305e-06,0.01907746283930999
2,startup,5.346938775510204,1.346938775510204,747.5958661578376,interface_ec,0.02048511195225429,0.017805463387593576,2.424501806358194e-05,0.019285465790315003
2,startup,5.387755102040816,1.3877551020408163,751.7038027694748,anode,0.010140610478985507,0.009075331247620614,-0.00017376861982453434,0.009656852778745815
2,startup,5.387755102040816,1.3877551020408163,751.7038027694748,electrolyte,0.006112003911106149,0.0053495336168562085,7.254188271577661e-05,0.00577005357970586
2,startup,5.387755102040816,1.3877551020408163,751.7038027694748,cathode,0.010089428801290132,0.008703985940936613,7.35067491969915e-07,0.009472998468214141
2,startup,5.387755102040816,1.3877551020408163,751.7038027694748,interface_ae,0.020037370139156213,0.017438413213020795,7.27122481485493e-05,0.018873006610125736
2,startup,5.387755102040816,1.3877551020408163,751.7038027694748,interface_ec,0.020369750559468814,0.017916883844337008,0.00013029284219458112,0.019262137433537965
2,startup,5.428571428571429,1.4285714285714284,755.4897200675965,anode,0.010046721333848948,0.008671937557926316,-7.002977680804457e-06,0.009434761132358018
2,startup,5.428571428571429,1.4285714285714284,755.4897200675965,electrolyte,0.006057187914819305,0.005223026274435215,-7.984915348779597e-06,0.0056861998335619845
2,startup,5.428571428571429,1.4285714285714284,755.4897200675965,cathode,0.010057406682668817,0.0085909593298092,-4.4117669079376035e-05,0.009410583335747206
2,startup,5.428571428571429,1.4285714285714284,755.4897200675965,interface_ae,0.020132180390478698,0.017962650387283317,-6.56034758240655e-05,0.019140195656543728
2,startup,5.428571428571429,1.4285714285714284,755.4897200675965,interface_ec,0.020581781718647676,0.018237093986414706,6.793813730119061e-05,0.01951571917568075
2,startup,5.469387755102041,1.4693877551020407,758.9788610021507,anode,0.00991814534273008,0.009301987709407343,0.0001575720450373765,0.009628738398950535
2,startup,5.469387755102041,1.4693877551020407,758.9788610021507,electrolyte,0.006159709839698981,0.005681822761012012,-5.5167513804667814e-05,0.005935982310632794
2,startup,5.469387755102041,1.4693877551020407,758.9788610021507,cathode,0.009855101392156826,0.008848891621907216,0.00017293008660447564,0.009397281345602436
2,startup,5.469387755102041,1.4693877551020407,758.9788610021507,interface_ae,0.020158485173531193,0.01800180127564937,3.4143893340212215e-06,0.01917134227229745
2,startup,5.469387755102041,1.4693877551020407,758.9788610021507,interface_ec,0.020354106309459927,0.017913192699295647,7.224913423620272e-06,0.019250071282821583
2,startup,5.5102040816326525,1.510204081632653,762.19448973953,anode,0.01016072945314457,0.008755970791514148,2.15031942943456e-05,0.00953634019798642
2,startup,5.5102040816326525,1.510204081632653,762.19448973953,electrolyte,0.006397594843336666,0.005614885447356635,-8.097354673898115e-05,0.006045995892183916
2,startup,5.5102040816326525,1.510204081632653,762.19448973953,cathode,0.01002291633845598,0.008983544914516778,0.00015677915097956643,0.009549625708079367
2,startup,5.5102040816326525,1.510204081632653,762.19448973953,interface_ae,0.02067544345885494,0.018221557917254314,8.898569517854947e-05,0.01956486902750841
2,startup,5.5102040816326525,1.510204081632653,762.19448973953,interface_ec,0.020630477155566748,0.018104886691418184,6.62306896647968e-05,0.01949113177824176
2,startup,5.551020408163265,1.5510204081632653,765.1580467785295,anode,0.010205227302005583,0.00879383265783402,7.229969346243233e-05,0.009578662626255114
2,startup,5.551020408163265,1.5510204081632653,765.1580467785295,electrolyte,0.006455324787679449,0.0052391975186748445,8.219214824159003e-05,0.0059430592956796835
2,startup,5.551020408163265,1.5510204081632653,765.1580467785295,cathode,0.010650613665526824,0.00907627601975586,-8.180021847417463e-05,0.009958238913493896
2,startup,5.551020408163265,1.5510204081632653,765.1580467785295,interface_ae,0.020653524780403724,0.018043343726574426,-6.167301099564017e-05,0.019480326039180457
2,startup,5.551020408163265,1.5510204081632653,765.1580467785295,interface_ec,0.020715557859152682,0.017832704625208588,-0.00014439289224922272,0.019436764523426898
2,startup,5.591836734693877,1.5918367346938773,767.8892919068342,anode,0.010356379921357123,0.009105757428065967,3.4355457703993574e-05,0.009791337033823256
2,startup,5.591836734693877,1.5918367346938773,767.8892919068342,electrolyte,0.006605729461431417,0.005503905064901734,5.981721503347946e-05,0.006130420796207554
2,startup,5.591836734693877,1.5918367346938773,767.8892919068342,cathode,0.010157415158159407,0.00926380666855176,-5.263908651106778e-05,0.00974182626771751
2,startup,5.591836734693877,1.5918367346938773,767.8892919068342,interface_ae,0.020719327657080885,0.018198668546683075,0.0001032974234914031,0.019581877079720166
2,startup,5.591836734693877,1.5918367346938773,767.8892919068342,interface_ec,0.020443048179689668,0.017763790544773898,-2.1343269708792452e-05,0.01924385133076195
2,startup,5.63265306122449,1.6326530612244896,770.4064359512107,anode,0.010481305616894672,0.009171541316813511,0.00012322042374139113,0.009893975937900147
2,startup,5.63265306122449,1.6326530612244896,770.4064359512107,electrolyte,0.006339270449265444,0.005388810738325997,-0.00023254201541396806,0.005935211007122809
2,startup,5.63265306122449,1.6326530612244896,770.4064359512107,cathode,0.010340136918674605,0.00934667924210357,-3.920477826671146e-05,0.009881169581448314
2,startup,5.63265306122449,1.6326530612244896,770.4064359512107,interface_ae,0.02078086278376285,0.018366446934165365,-0.0001015292374249816,0.019685805597361165
2,startup,5.63265306122449,1.6326530612244896,770.4064359512107,interface_ec,0.02089984591035506,0.018609599241304363,-1.7281335189340635e-05,0.0198540646300816
2,startup,5.673469387755102,1.673469387755102,772.7262621998615,anode,0.010194114382418705,0.00915621578936655,-0.00022243841086088688,0.009724463023542707
2,startup,5.673469387755102,1.673469387755102,772.7262621998615,electrolyte,0.006338633174471581,0.005609157094604822,0.00016756362938455624,0.006014212941147005
2,startup,5.673469387755102,1.673469387755102,772.7262621998615,cathode,0.01038112830827184,0.00925123306240024,-8.612881023859011e-05,0.009865959416752437
2,startup,5.673469387755102,1.673469387755102,772.7262621998615,interface_ae,0.020768569109465316,0.01803403490220945,-1.947896212832356e-05,0.01954532976978377
2,startup,5.673469387755102,1.673469387755102,772.7262621998615,interface_ec,0.02077879270286662,0.01839891194275967,-6.235968803326392e-05,0.019697275848230947
2,startup,5.714285714285714,1.7142857142857142,774.8642383065335,anode,0.010466390068531228,0.009129078467414332,-3.3149938829951427e-05,0.009866113484042375
2,startup,5.714285714285714,1.7142857142857142,774.8642383065335,electrolyte,0.006305256399376436,0.005542586450545172,7.611740390516385e-05,0.005962086523590474
2,startup,5.714285714285714,1.7142857142857142,774.8642383065335,cathode,0.010425592391510244,0.009125777408711264,-1.808074450872262e-05,0.00984033207002441
2,startup,5.714285714285714,1.7142857142857142,774.8642383065335,interface_ae,0.02075650917330422,0.018319526738358394,0.00020311587130732314,0.019654823233880618
2,startup,5.714285714285714,1.7142857142857142,774.8642383065335,interface_ec,0.020716906244533245,0.018335777690295867,-3.874886632696904e-05,0.019635041760744827
2,startup,5.755102040816326,1.7551020408163265,776.8346194225153,anode,0.010427744890148754,0.009153669845310238,2.7924010122099975e-05,0.009852803683543418
2,startup,5.755102040816326,1.7551020408163265,776.8346194225153,electrolyte,0.0059636746910072536,0.00575645884043774,6.325827996421973e-05,0.00586383757749333
2,startup,5.755102040816326,1.7551020408163265,776.8346194225153,cathode,0.010228604895385006,0.008766102252495437,-9.770721461414012e-05,0.009582930162175988
2,startup,5.755102040816326,1.7551020408163265,776.8346194225153,interface_ae,0.020905825132909842,0.018955893793909988,5.432569649742734e-05,0.02000249201885122
2,startup,5.755102040816326,1.7551020408163265,776.8346194225153,interface_ec,0.020592840495358977,0.018301904313191644,-5.321243627298323e-06,0.01954831629119354
2,startup,5.795918367346939,1.7959183673469385,778.6505432441623,anode,0.01055322170058472,0.008979237018896006,-1.349902279770614e-05,0.009860925585945124
2,startup,5.795918367346939,1.7959183673469385,778.6505432441623,electrolyte,0.006177412212590222,0.005341675522778387,2.5959564669895393e-05,0.005805015858875551
2,startup,5.795918367346939,1.7959183673469385,778.6505432441623,cathode,0.010657260424413666,0.009410395046350413,5.743863511338761e-05,0.010092254533402956
2,startup,5.795918367346939,1.7959183673469385,778.6505432441623,interface_ae,0.02090549607282215,0.01862728353420888,3.090544381042879e-05,0.01986468526260143
2,startup,5.795918367346939,1.7959183673469385,778.6505432441623,interface_ec,0.021031758356040604,0.01836203495757582,-4.9687612734152825e-05,0.01983231483598909
2,startup,5.836734693877551,1.8367346938775508,780.324117609689,anode,0.010540584445527674,0.009750685104703533,3.0124248009139018e-05,0.010168804409932624
2,startup,5.836734693877551,1.8367346938775508,780.324117609689,electrolyte,0.006212738769824754,0.005408301404847945,-4.917666126562028e-05,0.005852754763614058
2,startup,5.836734693877551,1.8367346938775508,780.324117609689,cathode,0.010961265747812577,0.00918285888211724,9.06870534610285e-05,0.010190346409052876
2,startup,5.836734693877551,1.8367346938775508,780.324117609689,interface_ae,0.020976428467511257,0.01857765733086879,7.917452740087224e-05,0.01988632215564914
2,startup,5.836734693877551,1.8367346938775508,780.324117609689,interface_ec,0.020937233546643542,0.01839719809178231,0.00016588696944553298,0.019791936959867237
2,startup,5.877551020408163,1.8775510204081631,781.866501229288,anode,0.010744219499335688,0.009439759273651892,7.872762931229141e-05,0.010155936995484364
2,startup,5.877551020408163,1.8775510204081631,781.866501229288,electrolyte,0.006439827688617532,0.0059897182426756936,4.39083018771568e-06,0.00622699042376779
2,startup,5.877551020408163,1.8775510204081631,781.866501229288,cathode,0.010662753393796713,0.008991442224194943,-8.24960686591241e-05,0.00993414459935177
2,startup,5.877551020408163,1.8775510204081631,781.866501229288,interface_ae,0.020854438040746052,0.018818062336530723,-0.000255254015202075,0.019919397703987582
2,startup,5.877551020408163,1.8775510204081631,781.866501229288,interface_ec,0.021014139836162515,0.017964508299295367,-8.312878954818902e-05,0.019667985997221596
2,startup,5.918367346938775,1.9183673469387754,783.2879780868515,anode,0.010468920098231686,0.009576030920355501,3.966279392214572e-05,0.010052495862174295
2,startup,5.918367346938775,1.9183673469387754,783.2879780868515,electrolyte,0.006193206350256187,0.005809847240277707,1.7832254529757529e-06,0.0060107035003723825
2,startup,5.918367346938775,1.9183673469387754,783.2879780868515,cathode,0.01057462325991951,0.009058522400042294,-9.900137139031394e-05,0.009905474612754357
2,startup,5.918367346938775,1.9183673469387754,783.2879780868515,interface_ae,0.020969200316367013,0.018607405657824223,7.788572698067479e-06,0.019893734506158774
2,startup,5.918367346938775,1.9183673469387754,783.2879780868515,interface_ec,0.021443038309060927,0.018675124436780953,-0.0002707565693672108,0.020207243337187295
2,startup,5.959183673469388,1.9591836734693877,784.5980260093738,anode,0.010637894437446902,0.00902511884385435,-9.659709246115365e-05,0.009931631268650636
2,startup,5.959183673469388,1.9591836734693877,784.5980260093738,electrolyte,0.006208388259281741,0.005473655830489306,-0.00013751493920403032,0.005880403337424308
2,startup,5.959183673469388,1.9591836734693877,784.5980260093738,cathode,0.010626062440563022,0.009032961658069664,3.5666760724984694e-05,0.009926056672138375
2,startup,5.959183673469388,1.9591836734693877,784.5980260093738,interface_ae,0.021618126295157455,0.0183643724183889,-2.8451030433922217e-05,0.020188924313742473
2,startup,5.959183673469388,1.9591836734693877,784.5980260093738,interface_ec,0.020666040607242635,0.018570057171581687,6.427171526314837e-05,0.01970215964582152
2,startup,6.0,2.0,785.805379861231,anode,0.010746318946273124,0.00934540091405829,8.892634247589758e-05,0.010120027367522573
2,startup,6.0,2.0,785.805379861231,electrolyte,0.006890159254411786,0.0059576954830439606,-5.2252092940963696e-05,0.006475117774683814
2,startup,6.0,2.0,785.805379861231,cathode,0.010311970302708322,0.00924869788468671,-9.469827656173482e-05,0.009824955442712575
2,startup,6.0,2.0,785.805379861231,interface_ae,0.021294651709576267,0.01842361762811704,-7.282243259034208e-06,0.020014182881428436
2,startup,6.0,2.0,785.805379861231,interface_ec,0.021371985010910602,0.018639717161439504,-9.463138227477964e-05,0.02014596507191168
2,operation,8.0,2.0,800.0,anode,0.011034962811517139,0.009128203811049234,-3.277950558774631e-05,0.010216082564501053
2,operation,8.0,2.0,800.0,electrolyte,0.006491667995323734,0.005723181731679927,1.804960560780812e-05,0.006143658859439141
2,operation,8.0,2.0,800.0,cathode,0.010922087963961899,0.00949691851219093,-3.680582821436807e-05,0.010284033807313173
2,operation,8.0,2.0,800.0,interface_ae,0.02151848213106806,0.01888569683959233,7.875433243268653e-05,0.020330806553139447
2,operation,8.0,2.0,800.0,interface_ec,0.021470694304104698,0.01917735422180165,1.8999082259871005e-06,0.020420835673886764
2,operation,8.122448979591837,2.122448979591837,800.0,anode,0.010695749038628775,0.009627681443148827,-7.274539247231182e-05,0.010204504329200677
2,operation,8.122448979591837,2.122448979591837,800.0,electrolyte,0.006627636808145643,0.005762545224238357,-5.9632468909192075e-05,0.006241082308330654
2,operation,8.122448979591837,2.122448979591837,800.0,cathode,0.010905726963066912,0.009613317945137728,0.00011575196058099578,0.010322341659603369
2,operation,8.122448979591837,2.122448979591837,800.0,interface_ae,0.02179322940248186,0.019106254804145257,-0.00011275909512087633,0.0205826375934114
2,operation,8.122448979591837,2.122448979591837,800.0,interface_ec,0.022089717397634812,0.018727276757785637,9.492631742823091e-05,0.0206158504864706
2,operation,8.244897959183673,2.2448979591836733,800.0,anode,0.010886256763377261,0.009269171525503777,-1.2430093887849919e-05,0.01017457662011889
2,operation,8.244897959183673,2.2448979591836733,800.0,electrolyte,0.006484249422751072,0.0059811165431621054,-7.133109002802116e-05,0.00624911662238296
2,operation,8.244897959183673,2.2448979591836733,800.0,cathode,0.01074761099871513,0.009036786078995747,0.00017347627931235774,0.01000705078532309
2,operation,8.244897959183673,2.2448979591836733,800.0,interface_ae,0.02138590635139599,0.019073382172847837,-1.0140782972186396e-05,0.02032854253348521
2,operation,8.244897959183673,2.2448979591836733,800.0,interface_ec,0.021580399806643332,0.019169972396974176,0.00016712624603036345,0.020483886898063085
2,operation,8.36734693877551,2.36734693877551,800.0,anode,0.010850298733988399,0.009635015603526106,3.288915367270409e-05,0.010296744911930757
2,operation,8.36734693877551,2.36734693877551,800.0,electrolyte,0.006703506284786126,0.005627416724102735,0.0001075390554416414,0.006238275888823839
2,operation,8.36734693877551,2.36734693877551,800.0,cathode,0.011022099973129477,0.009720507401736583,-6.601478673364761e-05,0.010433006347625468
2,operation,8.36734693877551,2.36734693877551,800.0,interface_ae,0.021566332473152563,0.01905589339775609,-0.00013708420448290057,0.020428519603182073
2,operation,8.36734693877551,2.36734693877551,800.0,interface_ec,0.021918984041617205,0.019005544693299566,2.839278876047216e-05,0.02061729318126805
2,operation,8.489795918367347,2.489795918367347,800.0,anode,0.01068459911205456,0.009238624488126596,-6.04029885474771e-05,0.010040557114949496
2,operation,8.489795918367347,2.489795918367347,800.0,electrolyte,0.0065438408375267185,0.005854685762550739,1.617915406027202e-05,0.00622798938633563
2,operation,8.489795918367347,2.489795918367347,800.0,cathode,0.010869344803248391,0.009436594725063726,4.9624856624542816e-05,0.010228869072431994
2,operation,8.489795918367347,2.489795918367347,800.0,interface_ae,0.021896566573277182,0.0191489578884878,8.095418882529404e-05,0.02066072228749396
2,operation,8.489795918367347,2.489795918367347,800.0,interface_ec,0.021658803279861326,0.01870736898608008,-0.00010446665306312433,0.020345095944443267
2,operation,8.612244897959183,2.612244897959184,800.0,anode,0.010890975160132769,0.009501812189607984,4.3984288647282804e-05,0.01026740367107907
2,operation,8.612244897959183,2.612244897959184,800.0,electrolyte,0.006835284683568815,0.005865207199845867,0.00012588862057428217,0.006409286629404284
2,operation,8.612244897959183,2.612244897959184,800.0,cathode,0.010818936277894146,0.009342556864503112,-5.786615921434102e-06,0.010161511896205112
2,operation,8.612244897959183,2.612244897959184,800.0,interface_ae,0.021439049637256173,0.01931965899135449,7.903910765354697e-05,0.020462299146040825
2,operation,8.612244897959183,2.612244897959184,800.0,interface_ec,0.021704102499325657,0.01925518864044562,-0.00020200564145232255,0.020592138932656635
2,operation,8.73469387755102,2.7346938775510203,800.0,anode,0.010917627590268533,0.009241870843139125,-7.255698465661166e-07,0.010183686285312335
2,operation,8.73469387755102,2.7346938775510203,800.0,electrolyte,0.0064376584815065575,0.00585234732241939,2.2818728896095544e-05,0.006166000698427842
2,operation,8.73469387755102,2.7346938775510203,800.0,cathode,0.011069023434722358,0.009383620567813477,7.091143896332839e-05,0.010330691365440278
2,operation,8.73469387755102,2.7346938775510203,800.0,interface_ae,0.021632444643379767,0.01868094194598569,-9.186164585230327e-05,0.020318738307074754
2,operation,8.73469387755102,2.7346938775510203,800.0,interface_ec,0.021570024393295566,0.019230458489978345,4.6372305755711456e-05,0.020500767754191025
2,operation,8.857142857142858,2.857142857142857,800.0,anode,0.010566499835223857,0.009475936754390568,0.00020178064487930302,0.010071690934152017
2,operation,8.857142857142858,2.857142857142857,800.0,electrolyte,0.0065222446669681725,0.005654534884985521,4.917396407562205e-05,0.0061351800706873644
2,operation,8.857142857142858,2.857142857142857,800.0,cathode,0.010952678615916395,0.009412766330503988,5.025747743714371e-05,0.010270049259551191
2,operation,8.857142857142858,2.857142857142857,800.0,interface_ae,0.02153422210066584,0.01915186552036589,1.6969315797128373e-05,0.020447420681014454
2,operation,8.857142857142858,2.857142857142857,800.0,interface_ec,0.02169639356541058,0.0188561632907665,-8.212863840728594e-05,0.02042542247403618
2,operation,8.979591836734695,2.979591836734694,800.0,anode,0.01098909946093188,0.009488120723722902,2.8503474209936155e-05,0.01032091453525314
2,operation,8.979591836734695,2.979591836734694,800.0,electrolyte,0.006438720914582696,0.005899745354802729,-6.0780998002965775e-05,0.0061877614247702935
2,operation,8.979591836734695,2.979591836734694,800.0,cathode,0.010772879752019824,0.009661198562540626,0.0001172967699164266,0.010264309087239009
2,operation,8.979591836734695,2.979591836734694,800.0,interface_ae,0.021495248141794664,0.01939993679639118,3.1324169369361635e-05,0.02052802300803704
2,operation,8.979591836734695,2.979591836734694,800.0,interface_ec,0.021391414347638252,0.019081810409717993,-3.8299921448345774e-05,0.0203353284699156
2,operation,9.10204081632653,3.1020408163265305,800.0,anode,0.010886813697436637,0.009495428750467933,7.42736901901448e-06,0.01026211875548664
2,operation,9.10204081632653,3.1020408163265305,800.0,electrolyte,0.0063176813246827715,0.005918012246143273,-0.00011561273671510322,0.006130901217090043
2,operation,9.10204081632653,3.1020408163265305,800.0,cathode,0.010578247020919002,0.009577472069829498,0.00016028442471779697,0.010118867979362038
2,operation,9.10204081632653,3.1020408163265305,800.0,interface_ae,0.02152948138058712,0.019148194464540795,0.00010733401768635454,0.020443966966975462
2,operation,9.10204081632653,3.1020408163265305,800.0,interface_ec,0.021762936887458815,0.018945758342165265,-0.00010910467171940746,0.02050091582173402
2,operation,9.224489795918368,3.2244897959183674,800.0,anode,0.01035849048686573,0.009451431900107521,0.00011780873685621748,0.009938156740551731
2,operation,9.224489795918368,3.2244897959183674,800.0,electrolyte,0.006275166803047614,0.005860041969503753,-9.501525300518722e-05,0.006080473102796479
2,operation,9.224489795918368,3.2244897959183674,800.0,cathode,0.010821214515277369,0.009645558322831004,-6.594954368384278e-05,0.010284545261738465
2,operation,9.224489795918368,3.2244897959183674,800.0,interface_ae,0.021634096936139383,0.018924981732654934,7.051486589381768e-05,0.020415168663119355
2,operation,9.224489795918368,3.2244897959183674,800.0,interface_ec,0.02164706343369693,0.019019301534885853,0.00015583499601419778,0.020461916162106495
2,operation,9.346938775510203,3.3469387755102042,800.0,anode,0.010932461228473661,0.009365929626774742,-8.586390079776186e-06,0.010239477767480765
2,operation,9.346938775510203,3.3469387755102042,800.0,electrolyte,0.006484820242984068,0.005736063914525043,0.00025245092766074947,0.006160290077585648
2,operation,9.346938775510203,3.3469387755102042,800.0,cathode,0.0108741703785422,0.009096819485979044,-5.427989717169651e-05,0.010103869561231715
2,operation,9.346938775510203,3.3469387755102042,800.0,interface_ae,0.02121352558250084,0.018942040348590834,-0.00019873102297264286,0.020176857652913677
2,operation,9.346938775510203,3.3469387755102042,800.0,interface_ec,0.021425681905786316,0.018703855694073176,3.841601779674776e-05,0.020202861871798778
2,operation,9.46938775510204,3.4693877551020407,800.0,anode,0.010800107872525777,0.009564592461499747,-1.045513885685264e-05,0.010238430377827085
2,operation,9.46938775510204,3.4693877551020407,800.0,electrolyte,0.006221140449959117,0.005822704273850948,0.0001922224560269453,0.006040981781998581
2,operation,9.46938775510204,3.4693877551020407,800.0,cathode,0.01088184251572131,0.009418815080136487,-0.00014280671761054452,0.010232091327768936
2,operation,9.46938775510204,3.4693877551020407,800.0,interface_ae,0.021418386605848008,0.01909860793131441,0.0001073118026799375,0.02035871530510241
2,operation,9.46938775510204,3.4693877551020407,800.0,interface_ec,0.021652173234944398,0.019167977457941198,7.076782440272429e-05,0.020523513865716186
2,operation,9.591836734693878,3.5918367346938775,800.0,anode,0.010901306878277185,0.009372305280947749,1.7392351197515248e-05,0.010222970673477733
2,operation,9.591836734693878,3.5918367346938775,800.0,electrolyte,0.006330324439223573,0.00572348579059162,3.308635310669119e-05,0.006050046218293721
2,operation,9.591836734693878,3.5918367346938775,800.0,cathode,0.011135756761477371,0.009242053605126473,4.815076309913054e-05,0.01032038410407083
2,operation,9.591836734693878,3.5918367346938775,800.0,interface_ae,0.02189624731832472,0.019159769553167758,8.329454428250415e-05,0.020664853669958308
2,operation,9.591836734693878,3.5918367346938775,800.0,interface_ec,0.021717538980373565,0.019267666897955085,-0.0001087478168112368,0.02060300119886397
2,operation,9.714285714285715,3.7142857142857144,800.0,anode,0.01052281466680595,0.00950273317190695,-0.000216116210357171,0.010058637328259665
2,operation,9.714285714285715,3.7142857142857144,800.0,electrolyte,0.006746129160835603,0.005964143039099088,-4.333505550845262e-05,0.006391558131720097
2,operation,9.714285714285715,3.7142857142857144,800.0,cathode,0.0107258458806679,0.009489530504969866,5.202065043961975e-06,0.010164241170339917
2,operation,9.714285714285715,3.7142857142857144,800.0,interface_ae,0.021625434783838857,0.01911964642137566,-1.7262635300847812e-05,0.020487814331663246
2,operation,9.714285714285715,3.7142857142857144,800.0,interface_ec,0.02178863866069556,0.01909718955542506,-6.069634458726355e-05,0.02057563396551771
2,operation,9.83673469387755,3.836734693877551,800.0,anode,0.01106702253356082,0.009232348602775503,-9.21658108214765e-06,0.010273309753580344
2,operation,9.83673469387755,3.836734693877551,800.0,electrolyte,0.006693383480215094,0.005575385379017571,3.095556467671515e-05,0.006210554475003308
2,operation,9.83673469387755,3.836734693877551,800.0,cathode,0.01090866791939981,0.009331895226403753,-7.247771959403507e-06,0.01021199861924413
2,operation,9.83673469387755,3.836734693877551,800.0,interface_ae,0.02156869923395816,0.01889765242963354,0.00023016748520507746,0.020368878312937953
2,operation,9.83673469387755,3.836734693877551,800.0,interface_ec,0.021447378729310906,0.019208986058813576,-3.92801016881142e-05,0.020420514918481614
2,operation,9.959183673469388,3.9591836734693877,800.0,anode,0.010582672762222944,0.009524562848631015,6.490933843875007e-05,0.010095918387456349
2,operation,9.959183673469388,3.9591836734693877,800.0,electrolyte,0.006684101915013136,0.006032453022131014,0.00029452462899351,0.006403624860053755
2,operation,9.959183673469388,3.9591836734693877,800.0,cathode,0.01085010284075112,0.009371381565234923,4.528743267948912e-05,0.010191821388155234
2,operation,9.959183673469388,3.9591836734693877,800.0,interface_ae,0.021546757409918703,0.019193193225970448,-0.00012971642963657219,0.020472928998704537
2,operation,9.959183673469388,3.9591836734693877,800.0,interface_ec,0.02207366690848009,0.0191792096189551,-0.00016840040177961647,0.020780241668074392
2,operation,10.081632653061224,4.081632653061225,800.0,anode,0.010658194219537006,0.009667216208822788,0.00011763440561714547,0.010200912650040842
2,operation,10.081632653061224,4.081632653061225,800.0,electrolyte,0.006245552474553608,0.00586260517008659,-0.00019473398726619235,0.0060725300199137265
2,operation,10.081632653061224,4.081632653061225,800.0,cathode,0.010782132826905792,0.009726409368420641,-5.515157301029805e-05,0.010295392894299111
2,operation,10.081632653061224,4.081632653061225,800.0,interface_ae,0.0212986155401724,0.019037242959275513,-6.047188666354782e-05,0.02026306233596801
2,operation,10.081632653061224,4.081632653061225,800.0,interface_ec,0.02172591167321317,0.018830934713556388,-7.726368896531004e-05,0.020433257815155446
2,operation,10.204081632653061,4.204081632653061,800.0,anode,0.010395799535824752,0.009537988942210297,-1.6090493827659876e-05,0.009994580368610952
2,operation,10.204081632653061,4.204081632653061,800.0,electrolyte,0.006262323065851986,0.005758759742753418,0.00010270703006441391,0.0060289664280197
2,operation,10.204081632653061,4.204081632653061,800.0,cathode,0.01075688641131621,0.009557633389964395,2.7331124958516417e-05,0.010210329354004503
2,operation,10.204081632653061,4.204081632653061,800.0,interface_ae,0.021359134034564208,0.019419317164141518,-4.708498301222839e-05,0.020458478404961213
2,operation,10.204081632653061,4.204081632653061,800.0,interface_ec,0.021731223240372056,0.01916184305544581,-1.3959512711575176e-05,0.020567269830328548
2,operation,10.326530612244898,4.326530612244898,800.0,anode,0.010921359005011927,0.009553163844363279,-0.0001417639757227406,0.01030852952898966
2,operation,10.326530612244898,4.326530612244898,800.0,electrolyte,0.006433545459749983,0.005597489819529188,-4.617450413461271e-05,0.006059462888942386
2,operation,10.326530612244898,4.326530612244898,800.0,cathode,0.010539199364432672,0.009729286743349207,0.0001601992654613413,0.010162275460232444
2,operation,10.326530612244898,4.326530612244898,800.0,interface_ae,0.021795600595199683,0.01926210584482943,-3.446348370081562e-05,0.020645854897815293
2,operation,10.326530612244898,4.326530612244898,800.0,interface_ec,0.021472748633002792,0.01885228259063766,6.440649229572226e-05,0.020290135832345613
2,operation,10.448979591836736,4.448979591836735,800.0,anode,0.010845412610628831,0.009488555657680316,0.0001295148544195343,0.01023712285116137
2,operation,10.448979591836736,4.448979591836735,800.0,electrolyte,0.006580988270763069,0.0055522684724958835,-6.809088291356948e-05,0.006132828647694123
2,operation,10.448979591836736,4.448979591836735,800.0,cathode,0.01093639865985083,0.00971234657053092,5.516802322559695e-05,0.0103790909075742
2,operation,10.448979591836736,4.448979591836735,800.0,interface_ae,0.021979377749574418,0.019335001433146284,4.410358348507629e-05,0.020783884665018702
2,operation,10.448979591836736,4.448979591836735,800.0,interface_ec,0.0214322838681037,0.01874600249765365,-3.873817450147149e-05,0.020223507521239043
2,operation,10.571428571428571,4.571428571428571,800.0,anode,0.010950642689283231,0.009869329415862388,4.174470344107999e-05,0.01045227086675492
2,operation,10.571428571428571,4.571428571428571,800.0,electrolyte,0.006733744558846248,0.00567093850276244,6.227691252275502e-05,0.0062711915327852
2,operation,10.571428571428571,4.571428571428571,800.0,cathode,0.010964671365895434,0.009108081144829494,-4.1343880237651025e-05,0.010164603864648196
2,operation,10.571428571428571,4.571428571428571,800.0,interface_ae,0.021789940076855575,0.019062893667127313,-0.0001196515048150933,0.020563536715915362
2,operation,10.571428571428571,4.571428571428571,800.0,interface_ec,0.02111397552485453,0.0189348438509396,-7.158569289387905e-06,0.020113144911308205
2,operation,10.693877551020408,4.6938775510204085,800.0,anode,0.010623215410034331,0.009532616987405599,5.063867472328947e-05,0.010122457281912118
2,operation,10.693877551020408,4.6938775510204085,800.0,electrolyte,0.0066341374341452475,0.0052488162150135355,-0.00013142850978081202,0.006065665946678572
2,operation,10.693877551020408,4.6938775510204085,800.0,cathode,0.010739075470329054,0.009618434626207492,4.892340135500356e-05,0.010225268297525616
2,operation,10.693877551020408,4.6938775510204085,800.0,interface_ae,0.021694373989575338,0.018931316411606215,-3.276334373099608e-05,0.020453380303451566
2,operation,10.693877551020408,4.6938775510204085,800.0,interface_ec,0.021454334146315653,0.01916163882562117,-9.204887877395783e-05,0.020405442239208565
2,operation,10.816326530612244,4.816326530612245,800.0,anode,0.010970007279037915,0.00954557064762753,-4.504447845515359e-06,0.010331701702725432
2,operation,10.816326530612244,4.816326530612245,800.0,electrolyte,0.006368657920044707,0.005448891627767175,-6.476527563780457e-05,0.005963277662145206
2,operation,10.816326530612244,4.816326530612245,800.0,cathode,0.010733998626275023,0.00903019513768375,-1.9735515533466428e-05,0.009991707411766452
2,operation,10.816326530612244,4.816326530612245,800.0,interface_ae,0.0217848714736052,0.019121443581086774,-4.962058757415075e-05,0.020582988741933164
2,operation,10.816326530612244,4.816326530612245,800.0,interface_ec,0.021609387259683047,0.0188967670861156,1.4876073333569612e-05,0.020388882510295234
2,operation,10.938775510204081,4.938775510204081,800.0,anode,0.011108021564748808,0.009697699760524975,5.2079430569275276e-05,0.010474702977225903
2,operation,10.938775510204081,4.938775510204081,800.0,electrolyte,0.006401423017523257,0.005869987678588968,-0.00016868769513730532,0.0061598753537095005
2,operation,10.938775510204081,4.938775510204081,800.0,cathode,0.010749529303601823,0.00962074228396479,7.404212140477514e-05,0.010232744399563983
2,operation,10.938775510204081,4.938775510204081,800.0,interface_ae,0.02173397689804315,0.01906696613784194,-1.957249790838829e-05,0.02053083284230525
2,operation,10.938775510204081,4.938775510204081,800.0,interface_ec,0.0217075951939653,0.01881742779188274,-8.446772632932499e-05,0.020417041340514967
2,operation,11.061224489795919,5.061224489795919,800.0,anode,0.01081234693529206,0.00953863952854175,-0.00018256151785646464,0.010239990066142684
2,operation,11.061224489795919,5.061224489795919,800.0,electrolyte,0.006591029276189904,0.005874545675583879,-7.728523746629531e-06,0.006263611615694529
2,operation,11.061224489795919,5.061224489795919,800.0,cathode,0.0112748932566568,0.009367412978736963,-3.6108716338686957e-05,0.010452701753858701
2,operation,11.061224489795919,5.061224489795919,800.0,interface_ae,0.021520986618774558,0.018992762477741797,-3.287248129662911e-05,0.02037493917155154
2,operation,11.061224489795919,5.061224489795919,800.0,interface_ec,0.021318637891079028,0.018898690340752707,-9.76206957740761e-06,0.020217585613284232
2,operation,11.183673469387756,5.183673469387755,800.0,anode,0.0110457144164124,0.009944448654674583,0.00013354738978506547,0.010540864806179003
2,operation,11.183673469387756,5.183673469387755,800.0,electrolyte,0.006344924194065479,0.005580838077874767,-1.5932857750935098e-05,0.005999548625046157
2,operation,11.183673469387756,5.183673469387755,800.0,cathode,0.011156911777770718,0.009470915189563622,-0.00013275074905374308,0.010419290667040578
2,operation,11.183673469387756,5.183673469387755,800.0,interface_ae,0.021499764572609395,0.019159411200363883,6.899402768960869e-05,0.020430721098194028
2,operation,11.183673469387756,5.183673469387755,800.0,interface_ec,0.02155995666670167,0.019144682934712005,-0.00022731722025468322,0.020463311096360872
2,operation,11.306122448979592,5.3061224489795915,800.0,anode,0.01082076584700654,0.009676137084273726,-8.328632751545352e-05,0.0102972908346803
2,operation,11.306122448979592,5.3061224489795915,800.0,electrolyte,0.006332732292700743,0.005346710369447305,0.00015898955948106942,0.005908244890788231
2,operation,11.306122448979592,5.3061224489795915,800.0,cathode,0.010655969204595687,0.009552208655572422,6.0391704148337455e-05,0.010149742365844665
2,operation,11.306122448979592,5.3061224489795915,800.0,interface_ae,0.021902413589828293,0.018977220445202874,-5.394297937784186e-05,0.020596417539091954
2,operation,11.306122448979592,5.3061224489795915,800.0,interface_ec,0.021634613529714113,0.019264816055308456,-1.7017253140078377e-05,0.020552461139922946
2,operation,11.428571428571429,5.428571428571429,800.0,anode,0.010609026183683186,0.009195848438336927,-0.00012212973846052253,0.009980020802708272
2,operation,11.428571428571429,5.428571428571429,800.0,electrolyte,0.006672878299481334,0.005655875104738638,-6.075209099207104e-05,0.006227867548269131
2,operation,11.428571428571429,5.428571428571429,800.0,cathode,0.010656806555363212,0.009521009172040037,-2.3945509376558377e-05,0.010136829327580258
2,operation,11.428571428571429,5.428571428571429,800.0,interface_ae,0.02154537357125615,0.01927786478556215,0.00015380162818616334,0.02050759272505669
2,operation,11.428571428571429,5.428571428571429,800.0,interface_ec,0.0212779956654182,0.01907351854622859,-7.768620986213922e-05,0.020266328472655436
2,operation,11.551020408163264,5.551020408163265,800.0,anode,0.010750349777227781,0.009565855677025338,-2.1271991693091937e-05,0.010209832428243307
2,operation,11.551020408163264,5.551020408163265,800.0,electrolyte,0.006546091976125527,0.005854594041206384,2.9457680054031987e-05,0.006229404765734314
2,operation,11.551020408163264,5.551020408163265,800.0,cathode,0.010670632739166476,0.009378160078605936,-0.00014397052966180356,0.010089775522103864
2,operation,11.551020408163264,5.551020408163265,800.0,interface_ae,0.021429215940495856,0.019400413672379706,-7.920035740952445e-05,0.02049074207180715
2,operation,11.551020408163264,5.551020408163265,800.0,interface_ec,0.021361324237511237,0.019071985572368954,-1.1036475929185985e-05,0.020313648234613787
2,operation,11.673469387755102,5.673469387755102,800.0,anode,0.010760881352630156,0.009785809193282419,5.4912667555836515e-05,0.010308430704403989
2,operation,11.673469387755102,5.673469387755102,800.0,electrolyte,0.0063940014136593054,0.005635104816481645,-5.025865139056851e-05,0.006050980912548695
2,operation,11.673469387755102,5.673469387755102,800.0,cathode,0.010974947924316051,0.009442370474109374,-0.00017931535024541507,0.010299261131791578
2,operation,11.673469387755102,5.673469387755102,800.0,interface_ae,0.021590336064253132,0.018700594799774414,0.0002184230601754902,0.020303838474629236
2,operation,11.673469387755102,5.673469387755102,800.0,interface_ec,0.021406866417230556,0.018975627046928456,2.5820273470113694e-05,0.020300779253813333
2,operation,11.795918367346939,5.795918367346939,800.0,anode,0.010742268367864155,0.009445993919706762,4.2182728616087715e-05,0.010156626766768057
2,operation,11.795918367346939,5.795918367346939,800.0,electrolyte,0.006805243191759256,0.00587350181636346,0.00014785138785735428,0.006395649328793093
2,operation,11.795918367346939,5.795918367346939,800.0,cathode,0.0105906761783813,0.009567472526651072,1.5524605205827926e-05,0.010117987553280323
2,operation,11.795918367346939,5.795918367346939,800.0,interface_ae,0.021670218258335348,0.019283246394127117,-2.2078914979205406e-05,0.020580846804880853
2,operation,11.795918367346939,5.795918367346939,800.0,interface_ec,0.021518899326689184,0.01911479615948373,-0.00017782027275658476,0.020425570895152293
2,operation,11.918367346938776,5.918367346938775,800.0,anode,0.010752629590175564,0.009477160462142909,-9.203586163069253e-05,0.01017627777294441
2,operation,11.918367346938776,5.918367346938775,800.0,electrolyte,0.006711411802271316,0.005507551936531343,-1.3587304836379621e-05,0.006197844906849179
2,operation,11.918367346938776,5.918367346938775,800.0,cathode,0.010858631445064595,0.009774690312295223,-1.0556434880853317e-06,0.010359280443800915
2,operation,11.918367346938776,5.918367346938775,800.0,interface_ae,0.021787230718825643,0.019148119079455427,1.2345755616914253e-05,0.020594898778914822
2,operation,11.918367346938776,5.918367346938775,800.0,interface_ec,0.02138209731834531,0.018721083827819132,1.0650540141918648e-05,0.020183591588468778
2,operation,12.040816326530612,6.040816326530612,800.0,anode,0.010691460625219478,0.009687852218336259,7.458565180985776e-05,0.010227473267040188
2,operation,12.040816326530612,6.040816326530612,800.0,electrolyte,0.0064630778011125906,0.0054884574152117465,5.1073554960727346e-05,0.006035730088669416
2,operation,12.040816326530612,6.040816326530612,800.0,cathode,0.010596410110772971,0.009352307215413828,-9.794157382151545e-05,0.01003381544609801
2,operation,12.040816326530612,6.040816326530612,800.0,interface_ae,0.02157229979561201,0.01924203846681411,-5.040870223528701e-07,0.02050670966068459
2,operation,12.040816326530612,6.040816326530612,800.0,interface_ec,0.02151135626151446,0.01870287701399095,5.5212458472984294e-05,0.020253912004690136
2,operation,12.16326530612245,6.163265306122449,800.0,anode,0.010643919078814275,0.00952750352383162,-3.542186159166406e-05,0.010132133257464822
2,operation,12.16326530612245,6.163265306122449,800.0,electrolyte,0.006667635443919888,0.00568855272159429,-5.892635452305161e-06,0.006236016588955104
2,operation,12.16326530612245,6.163265306122449,800.0,cathode,0.010897149429491092,0.009925388036452638,8.884469303585545e-05,0.010446359984336627
2,operation,12.16326530612245,6.163265306122449,800.0,interface_ae,0.021582278778730278,0.01900863959812306,-5.248594603244347e-05,0.02041767964208109
2,operation,12.16326530612245,6.163265306122449,800.0,interface_ec,0.021410000859296063,0.018897449842586737,-7.721489637119425e-05,0.020271290447342473
2,operation,12.285714285714285,6.285714285714286,800.0,anode,0.010930673676759178,0.009289761028426203,0.00013332105613800442,0.010212211521912871
2,operation,12.285714285714285,6.285714285714286,800.0,electrolyte,0.006650409276723767,0.005724100345873534,3.1861146506831445e-08,0.006239043057994821
2,operation,12.285714285714285,6.285714285714286,800.0,cathode,0.010688543738077089,0.009558016882269553,0.00010880924632085891,0.010172260851127156
2,operation,12.285714285714285,6.285714285714286,800.0,interface_ae,0.02145936870754884,0.018701321582216254,7.03218254856744e-05,0.02022227026261378
2,operation,12.285714285714285,6.285714285714286,800.0,interface_ec,0.02166487319484876,0.018783960239711763,-7.33391370914118e-05,0.020378123368764857
2,operation,12.408163265306122,6.408163265306122,800.0,anode,0.010628179145189973,0.00935909354619315,-3.2368275404118773e-05,0.010054046161564564
2,operation,12.408163265306122,6.408163265306122,800.0,electrolyte,0.006446690539143851,0.005589841268986308,-7.581638194999283e-05,0.006065262720375381
2,operation,12.408163265306122,6.408163265306122,800.0,cathode,0.010754243131216125,0.009537538306971913,-3.162965363648446e-05,0.010200606734933466
2,operation,12.408163265306122,6.408163265306122,800.0,interface_ae,0.021831733404668263,0.019109617542884157,-0.0001590845856858696,0.02060781196882881
2,operation,12.408163265306122,6.408163265306122,800.0,interface_ec,0.02170474555308277,0.01912910879651712,-4.347349681241913e-05,0.020538549452728854
2,operation,12.53061224489796,6.530612244897959,800.0,anode,0.01050096048253937,0.009505613351882228,-7.708651482244079e-07,0.01004035795495462
2,operation,12.53061224489796,6.530612244897959,800.0,electrolyte,0.006275670752693361,0.005429756156748013,-8.755354645343943e-06,0.005898403460216884
2,operation,12.53061224489796,6.530612244897959,800.0,cathode,0.010753384561589837,0.009420546926935522,-8.341073474656137e-06,0.010152803985437326
2,operation,12.53061224489796,6.530612244897959,800.0,interface_ae,0.021379444725235938,0.018921035877426776,5.333250306143476e-05,0.020262614535550113
2,operation,12.53061224489796,6.530612244897959,800.0,interface_ec,0.021530005983929745,0.01867360550564149,-4.7269227772357166e-05,0.020253606224819636
2,operation,12.653061224489797,6.653061224489796,800.0,anode,0.010585968307298629,0.009557427259292347,3.188374033804253e-05,0.010111160589779417
2,operation,12.653061224489797,6.653061224489796,800.0,electrolyte,0.006168245074982794,0.005871802594116438,-0.00011121863012785585,0.0060285739879307005
2,operation,12.653061224489797,6.653061224489796,800.0,cathode,0.01111183645809647,0.009494244747099877,-0.00012463934985391622,0.010400081863571857
2,operation,12.653061224489797,6.653061224489796,800.0,interface_ae,0.021371602785861466,0.01907761905835747,-3.912998898983776e-05,0.020322063168521164
2,operation,12.653061224489797,6.653061224489796,800.0,interface_ec,0.021580669218076373,0.01933055604653941,-6.992440642290753e-05,0.02054857691896006
2,operation,12.775510204081632,6.775510204081632,800.0,anode,0.010811992571539142,0.009787968897474611,2.7051347546640016e-05,0.010338194562940307
2,operation,12.775510204081632,6.775510204081632,800.0,electrolyte,0.006178679452928399,0.005821077802346428,-0.00011630028577834442,0.0060112419699402215
2,operation,12.775510204081632,6.775510204081632,800.0,cathode,0.011081361505746594,0.009339426479000405,0.0002969509507745665,0.010334042689530972
2,operation,12.775510204081632,6.775510204081632,800.0,interface_ae,0.021893475197665536,0.018848677486074404,2.0013805001610485e-06,0.020541028654165523
2,operation,12.775510204081632,6.775510204081632,800.0,interface_ec,0.021750728856326694,0.019164732094845344,4.423362599761972e-05,0.020580090876634188
2,operation,12.89795918367347,6.8979591836734695,800.0,anode,0.011050431807393223,0.009479406210673126,-3.667176685760332e-05,0.010354887145045392
2,operation,12.89795918367347,6.8979591836734695,800.0,electrolyte,0.006430627202415078,0.005891674646394425,3.651810403026461e-05,0.0061791288886290695
2,operation,12.89795918367347,6.8979591836734695,800.0,cathode,0.010858256733138052,0.009663046849851437,-0.00020510524078538552,0.010318845607165885
2,operation,12.89795918367347,6.8979591836734695,800.0,interface_ae,0.021662013764775032,0.019051713777774745,0.0001668808081300705,0.020484035240430798
2,operation,12.89795918367347,6.8979591836734695,800.0,interface_ec,0.021294282403547266,0.019319437326475352,7.540912892466581e-06,0.020378757027408104
2,operation,13.020408163265305,7.020408163265306,800.0,anode,0.01089779790613201,0.009839183757521876,5.607612680055731e-05,0.010409396412011525
2,operation,13.020408163265305,7.020408163265306,800.0,electrolyte,0.006580073657892513,0.005768458237160464,-4.83478134994377e-05,0.006214709342951867
2,operation,13.020408163265305,7.020408163265306,800.0,cathode,0.010794302175097923,0.00936089744677545,-4.4566899425482e-06,0.010153770943449028
2,operation,13.020408163265305,7.020408163265306,800.0,interface_ae,0.021132813860588982,0.01909380791351351,-1.217372537836255e-05,0.020190687912428833
2,operation,13.020408163265305,7.020408163265306,800.0,interface_ec,0.021532759252666647,0.019051951616788028,-0.00014335639229654407,0.020407281718779213
2,operation,13.142857142857142,7.142857142857142,800.0,anode,0.011185853999324258,0.00948344650770248,-1.4584443297218958e-05,0.010439314030675113
2,operation,13.142857142857142,7.142857142857142,800.0,electrolyte,0.006306920757973416,0.005724789276489853,0.00013869598902732807,0.006041719880693619
2,operation,13.142857142857142,7.142857142857142,800.0,cathode,0.011007183241886407,0.009674887550228111,5.4639895166727165e-05,0.010405634458044788
2,operation,13.142857142857142,7.142857142857142,800.0,interface_ae,0.02152829149448748,0.01871796736659266,-2.0103877186663506e-05,0.020269804928853472
2,operation,13.142857142857142,7.142857142857142,800.0,interface_ec,0.021552825707093267,0.01921775888793425,3.0939044245982024e-05,0.020485419608001768
2,operation,13.26530612244898,7.26530612244898,800.0,anode,0.01112246230558071,0.009743497708007635,-4.564956095040957e-05,0.010501403762851504
2,operation,13.26530612244898,7.26530612244898,800.0,electrolyte,0.006140974160676027,0.005997115046788296,0.0001359385223230744,0.006074887803995317
2,operation,13.26530612244898,7.26530612244898,800.0,cathode,0.010526757681819555,0.0098058480039655,3.821171705925179e-05,0.010185670177856942
2,operation,13.26530612244898,7.26530612244898,800.0,interface_ae,0.02163213709962513,0.019330956650849464,0.0001344685173230615,0.02057959137938279
2,operation,13.26530612244898,7.26530612244898,800.0,interface_ec,0.021730266190399042,0.019102643413162396,6.163942905303591e-05,0.020543157644952896
2,operation,13.387755102040817,7.387755102040816,800.0,anode,0.010719988513223495,0.009492979710053535,-9.023171545945427e-05,0.01016339556145083
2,operation,13.387755102040817,7.387755102040816,800.0,electrolyte,0.006433392044852217,0.005646673224266214,-6.353053696216646e-05,0.0060793336387237875
2,operation,13.387755102040817,7.387755102040816,800.0,cathode,0.010827349300529693,0.009439203829859884,5.022347203519739e-05,0.010204708326256147
2,operation,13.387755102040817,7.387755102040816,800.0,interface_ae,0.021275535877341246,0.018985329041178542,1.315516401774957e-05,0.020227916741131554
2,operation,13.387755102040817,7.387755102040816,800.0,interface_ec,0.021537874152032625,0.018973521460038154,-0.00015852460107298574,0.020378925690614003
2,operation,13.510204081632653,7.5102040816326525,800.0,anode,0.010871295420933898,0.009633521196513414,4.9353729420376686e-05,0.010308649148825889
2,operation,13.510204081632653,7.5102040816326525,800.0,electrolyte,0.006707745411888437,0.0057603059211565,4.786811806509371e-05,0.006288336924218596
2,operation,13.510204081632653,7.5102040816326525,800.0,cathode,0.010831218147691371,0.0096415101439185,-0.0001577229636132122,0.010291711926397596
2,operation,13.510204081632653,7.5102040816326525,800.0,interface_ae,0.021421283806404397,0.01932537993140662,-0.00024604358220962056,0.02045846703845436
2,operation,13.510204081632653,7.5102040816326525,800.0,interface_ec,0.021571964414034934,0.019242454991921613,-9.326066554176463e-06,0.020506692307602138
2,operation,13.63265306122449,7.63265306122449,800.0,anode,0.010718997785709861,0.00952988433536306,-3.5312018000244656e-05,0.01017686300892712
2,operation,13.63265306122449,7.63265306122449,800.0,electrolyte,0.006506169898551389,0.005583323792695974,0.00011086744199557242,0.0061003748161961935
2,operation,13.63265306122449,7.63265306122449,800.0,cathode,0.011084652984213133,0.009477321935577676,-0.00013864894206912432,0.010377572382925975
2,operation,13.63265306122449,7.63265306122449,800.0,interface_ae,0.021495231365937322,0.01897120226797941,5.055388769032081e-05,0.020351136872770334
2,operation,13.63265306122449,7.63265306122449,800.0,interface_ec,0.021398397355365865,0.01885416753627157,5.106761378588074e-05,0.020246725607408235
2,operation,13.755102040816325,7.755102040816326,800.0,anode,0.010987781766407911,0.009379681190965864,-0.0001333217053950996,0.010281108960464302
2,operation,13.755102040816325,7.755102040816326,800.0,electrolyte,0.0071568236402575775,0.005876660847417743,-2.6700376176703162e-05,0.006610535589875518
2,operation,13.755102040816325,7.755102040816326,800.0,cathode,0.010973806255106168,0.009479108674057116,8.671568891001863e-05,0.010309150389392058
2,operation,13.755102040816325,7.755102040816326,800.0,interface_ae,0.021631878639555246,0.019026254379633515,-1.1358186823078863e-05,0.020453930930621995
2,operation,13.755102040816325,7.755102040816326,800.0,interface_ec,0.021310523733307385,0.01939561897987863,-9.415339202677434e-05,0.02042117169486818
2,operation,13.877551020408163,7.877551020408163,800.0,anode,0.010527995284737881,0.009461428023448726,-9.614718135105067e-05,0.01003868358810328
2,operation,13.877551020408163,7.877551020408163,800.0,electrolyte,0.006489657441887947,0.005857552769712354,9.95302900529223e-05,0.006200224679454399
2,operation,13.877551020408163,7.877551020408163,800.0,cathode,0.010962946144324337,0.009442873589042864,4.959182766158588e-06,0.010287487980947568
2,operation,13.877551020408163,7.877551020408163,800.0,interface_ae,0.021681575810179498,0.018656442515211587,5.7058470011985964e-05,0.0203386890236598
2,operation,13.877551020408163,7.877551020408163,800.0,interface_ec,0.021308540142483234,0.0194160693197813,-4.0451508464169534e-05,0.02042827568098165
2,operation,14.0,8.0,800.0,anode,0.010763024964561082,0.00935005858015243,-6.299700318556898e-05,0.010131302669893398
2,operation,14.0,8.0,800.0,electrolyte,0.006954818713828649,0.00590807393772466,-0.00015492024451478384,0.0065005583342935495
2,operation,14.0,8.0,800.0,cathode,0.011100842580137046,0.009742648455028287,-2.8121246228828844e-05,0.010488025100457795
2,operation,14.0,8.0,800.0,interface_ae,0.02166133938840597,0.019005011184115787,0.00019725799044469325,0.020465747213646357
2,operation,14.0,8.0,800.0,interface_ec,0.02144074196220158,0.019037202121955147,-4.281453309928047e-05,0.02034586546194342
2,shutdown,20.0,8.0,800.0,anode,0.01051339191907643,0.009942327651010998,-0.00011815665791024125,0.010241854547328615
2,shutdown,20.0,8.0,800.0,electrolyte,0.006544025837497556,0.0053718598787239336,-3.990705392430933e-05,0.00604419892091188
2,shutdown,20.0,8.0,800.0,cathode,0.010884393764286692,0.009339053204099527,5.868018507356551e-05,0.010200408815256521
2,shutdown,20.0,8.0,800.0,interface_ae,0.021546191781622384,0.019240016502479723,0.00013617609133402233,0.02049202678228021
2,shutdown,20.0,8.0,800.0,interface_ec,0.021482651047854,0.019023346571878593,1.834542264722327e-05,0.02036470241214456
2,shutdown,20.04081632653061,8.040816326530612,739.2480966557373,anode,0.010077262689902377,0.008761862090366439,1.902109593428422e-05,0.009488253268165374
2,shutdown,20.04081632653061,8.040816326530612,739.2480966557373,electrolyte,0.005941786612476192,0.005294659731937394,0.00012979401935351326,0.005650579702538323
2,shutdown,20.04081632653061,8.040816326530612,739.2480966557373,cathode,0.010082609479057808,0.00889923681900626,7.230703241355782e-05,0.009546914961444856
2,shutdown,20.04081632653061,8.040816326530612,739.2480966557373,interface_ae,0.01987602390605467,0.017581736790951076,-0.00010851736783357446,0.018834917100714818
2,shutdown,20.04081632653061,8.040816326530612,739.2480966557373,interface_ec,0.020160547192894267,0.016961379295766528,-8.714839233542518e-06,0.018766608399712562
2,shutdown,20.081632653061224,8.081632653061224,683.2585078404431,anode,0.009401330014367845,0.007799599133939388,3.997799176168511e-05,0.008711885098572859
2,shutdown,20.081632653061224,8.081632653061224,683.2585078404431,electrolyte,0.005384724518378235,0.004784611817732981,9.459409606394378e-05,0.0051137848946133085
2,shutdown,20.081632653061224,8.081632653061224,683.2585078404431,cathode,0.00921276220411482,0.007665501547088383,-9.764255397315985e-05,0.008546523309183719
2,shutdown,20.081632653061224,8.081632653061224,683.2585078404431,interface_ae,0.018541368784853334,0.016234533984969112,0.00017481355725242845,0.017504960662592235
2,shutdown,20.081632653061224,8.081632653061224,683.2585078404431,interface_ec,0.01868283115667824,0.016076296415301155,0.00025032378050694883,0.017530908159449434
2,shutdown,20.122448979591837,8.122448979591837,631.6579178483621,anode,0.008458967563341104,0.007247049326964431,-6.336398659105773e-05,0.007923594259095905
2,shutdown,20.122448979591837,8.122448979591837,631.6579178483621,electrolyte,0.004636753644767089,0.004798930627575832,0.00015947619890438637,0.004728007870784542
2,shutdown,20.122448979591837,8.122448979591837,631.6579178483621,cathode,0.008250970141608058,0.007394006176169855,9.560754411257761e-06,0.007857632318235396
2,shutdown,20.122448979591837,8.122448979591837,631.6579178483621,interface_ae,0.016716072648313023,0.01452814566143824,-2.103576037769118e-05,0.015736641647169012
2,shutdown,20.122448979591837,8.122448979591837,631.6579178483621,interface_ec,0.016843927372849597,0.014801483819494718,2.2271606260096464e-05,0.01592131220119606
2,shutdown,20.163265306122447,8.16326530612245,584.1022750249358,anode,0.008077264667536563,0.0067957789035932555,1.7044299872136286e-05,0.0075189349055599574
2,shutdown,20.163265306122447,8.16326530612245,584.1022750249358,electrolyte,0.004834618992054901,0.004237364086131753,-6.14423524447842e-05,0.004566626741669943
2,shutdown,20.163265306122447,8.16326530612245,584.1022750249358,cathode,0.007810636160454172,0.006965905411565411,-0.00011283513375107777,0.007426972333206865
2,shutdown,20.163265306122447,8.16326530612245,584.1022750249358,interface_ae,0.01583542927382203,0.013999112676106023,-7.227802554444938e-05,0.015002322808975932
2,shutdown,20.163265306122447,8.16326530612245,584.1022750249358,interface_ec,0.015621455475332363,0.013841250546397408,-5.4561415632875266e-05,0.014812107870478758
2,shutdown,20.20408163265306,8.204081632653061,540.2744977709071,anode,0.0072769222219451,0.006351578643729016,-0.0001467918177638801,0.00686591931412077
2,shutdown,20.20408163265306,8.204081632653061,540.2744977709071,electrolyte,0.004413489341274288,0.0035830297454549397,9.392028516620472e-05,0.004065684418547466
2,shutdown,20.20408163265306,8.204081632653061,540.2744977709071,cathode,0.007046357237780703,0.0062866704317383545,0.0001372278913446575,0.00670311451669931
2,shutdown,20.20408163265306,8.204081632653061,540.2744977709071,interface_ae,0.01446047523492073,0.012421960253026257,-0.00010149165707990838,0.013557798258155139
2,shutdown,20.20408163265306,8.204081632653061,540.2744977709071,interface_ec,0.014241338347890218,0.0127167838536125,3.5829981493276815e-05,0.01354371216930671
2,shutdown,20.244897959183675,8.244897959183673,499.8823603717566,anode,0.006449095012635132,0.005590147719616709,2.8158340508583424e-05,0.006065604908587275
2,shutdown,20.244897959183675,8.244897959183673,499.8823603717566,electrolyte,0.003946512299637345,0.003936381372749481,3.6603656563078953e-06,0.003941461700198162
2,shutdown,20.244897959183675,8.244897959183673,499.8823603717566,cathode,0.006980566039107761,0.005589512897118713,-0.00015732129395617072,0.006405251182991612
2,shutdown,20.244897959183675,8.244897959183673,499.8823603717566,interface_ae,0.013011413920630304,0.011885005189769855,0.0001756101589693534,0.012490077477169357
2,shutdown,20.244897959183675,8.244897959183673,499.8823603717566,interface_ec,0.013078995056344885,0.01155506602752725,-0.00011689809102124998,0.012389189102830496
2,shutdown,20.285714285714285,8.285714285714286,462.65654455601276,anode,0.005736627748260114,0.0055107633711170625,2.2302030296216315e-05,0.005627228885283928
2,shutdown,20.285714285714285,8.285714285714286,462.65654455601276,electrolyte,0.003672765389585205,0.0029501763504517025,0.00016399566818286606,0.003382029605153674
2,shutdown,20.285714285714285,8.285714285714286,462.65654455601276,cathode,0.0059982843700738964,0.005473806316525032,-0.00014545614052447245,0.005759513570461232
2,shutdown,20.285714285714285,8.285714285714286,462.65654455601276,interface_ae,0.012159806397443575,0.01079243695437119,3.270752180533076e-05,0.01153719430631058
2,shutdown,20.285714285714285,8.285714285714286,462.65654455601276,interface_ec,0.012228841144014908,0.010833066561533228,-0.00011305204560329612,0.011595791437572377
2,shutdown,20.3265306122449,8.326530612244898,428.34884379104386,anode,0.0056603358281115115,0.0049691094868768056,2.3167268419506084e-05,0.005348479455337972
2,shutdown,20.3265306122449,8.326530612244898,428.34884379104386,electrolyte,0.003397394830098398,0.0027223321374557348,-0.0001317799752108974,0.0031235628141916007
2,shutdown,20.3265306122449,8.326530612244898,428.34884379104386,cathode,0.0051780076698466695,0.0051098648521498095,8.276575097351987e-05,0.005146271791162796
2,shutdown,20.3265306122449,8.326530612244898,428.34884379104386,interface_ae,0.011410432672291583,0.009954073892853792,-0.0002133119217718111,0.010762795956059888
2,shutdown,20.3265306122449,8.326530612244898,428.34884379104386,interface_ec,0.011036380515690107,0.009926798983880122,1.3551800279179543e-05,0.010525571386792887
2,shutdown,20.367346938775512,8.36734693877551,396.7305083432843,anode,0.005135694860734074,0.00463239860354239,1.1651707685245566e-06,0.0049034576470544
2,shutdown,20.367346938775512,8.36734693877551,396.7305083432843,electrolyte,0.0031418938405055603,0.0026157979111414505,9.820109861215902e-05,0.00291963467564386
2,shutdown,20.367346938775512,8.36734693877551,396.7305083432843,cathode,0.0050940901816284015,0.004292485346356616,-7.709990128187287e-05,0.004746231236878704
2,shutdown,20.367346938775512,8.36734693877551,396.7305083432843,interface_ae,0.01029079576845656,0.00931603088359525,-4.226799843479304e-06,0.009839694678900463
2,shutdown,20.367346938775512,8.36734693877551,396.7305083432843,interface_ec,0.010323259362935827,0.008867497640968955,7.854825898295763e-05,0.00967880311433474
2,shutdown,20.408163265306122,8.408163265306122,367.5907200684652,anode,0.004643777023052645,0.004181261787606176,0.00014801830768818648,0.004438073457921389
2,shutdown,20.408163265306122,8.408163265306122,367.5907200684652,electrolyte,0.0029750941893647302,0.0022028897308332502,-0.00017695102363524722,0.0026914752753993154
2,shutdown,20.408163265306122,8.408163265306122,367.5907200684652,cathode,0.004761305363833472,0.0039587192364194815,6.485467476329979e-05,0.004416495671084504
2,shutdown,20.408163265306122,8.408163265306122,367.5907200684652,interface_ae,0.009556787520707639,0.008435611672593659,-7.067431816423531e-05,0.009049274458337355
2,shutdown,20.408163265306122,8.408163265306122,367.5907200684652,interface_ec,0.009896611638771985,0.008971053464390978,-2.7858472375671473e-05,0.00946794689176858
2,shutdown,20.448979591836732,8.448979591836734,340.7351867623481,anode,0.004470530452306691,0.0038914153589217097,-2.596868634410687e-05,0.004211186088744012
2,shutdown,20.448979591836732,8.448979591836734,340.7351867623481,electrolyte,0.002481687472847328,0.0021133357809305256,-0.00011355972655255243,0.0023278765725178287
2,shutdown,20.448979591836732,8.448979591836734,340.7351867623481,cathode,0.00448097060773352,0.0037679969946681205,-0.00025782928501405305,0.004194286944964089
2,shutdown,20.448979591836732,8.448979591836734,340.7351867623481,interface_ae,0.008888816849367044,0.007736211524124864,0.00013466730014011463,0.008375480417675532
2,shutdown,20.448979591836732,8.448979591836734,340.7351867623481,interface_ec,0.008874469684665582,0.007448129061355635,-0.0002229676640729981,0.008263279426102449
2,shutdown,20.48979591836735,8.489795918367347,315.9848466996775,anode,0.00391112016101179,0.003443391397195122,9.431592010001668e-05,0.0037031033189311377
2,shutdown,20.48979591836735,8.489795918367347,315.9848466996775,electrolyte,0.002438743882636155,0.002374393600422483,-0.00013248330557026348,0.0024181261972002653
2,shutdown,20.48979591836735,8.489795918367347,315.9848466996775,cathode,0.004248067514755468,0.0037126107120200365,-0.00020182341114311964,0.004022478466830801
2,shutdown,20.48979591836735,8.489795918367347,315.9848466996775,interface_ae,0.00837455284401091,0.007155517461020976,3.920445038685057e-05,0.007836767020610907
2,shutdown,20.48979591836735,8.489795918367347,315.9848466996775,interface_ec,0.007937050053273071,0.0073918751652521,-0.000118585232923887,0.007681737186670967
2,shutdown,20.53061224489796,8.53061224489796,293.17467472374994,anode,0.0039035622578896274,0.003452808086890792,-9.741674281722222e-05,0.003702688309828304
2,shutdown,20.53061224489796,8.53061224489796,293.17467472374994,electrolyte,0.0026458816691804824,0.0020256078114239554,6.538926102710242e-05,0.0023993927361281677
2,shutdown,20.53061224489796,8.53061224489796,293.17467472374994,cathode,0.003431719695147687,0.0037122325923107705,-0.00012245569402250897,0.0035865046182142935
2,shutdown,20.53061224489796,8.53061224489796,293.17467472374994,interface_ae,0.0076792649949828625,0.006378418839831776,-6.189888028476827e-05,0.007119358373728088
2,shutdown,20.53061224489796,8.53061224489796,293.17467472374994,interface_ec,0.007632038517206766,0.006782883726153146,-0.0001271284249114102,0.007248225894946049
2,shutdown,20.57142857142857,8.571428571428571,272.15258192607723,anode,0.003662285252910282,0.003239884019833656,-9.379534088448925e-05,0.0034742186123783362
2,shutdown,20.57142857142857,8.571428571428571,272.15258192607723,electrolyte,0.002392622141324031,0.0015327739822435043,-6.247725827776154e-05,0.002101998584119672
2,shutdown,20.57142857142857,8.571428571428571,272.15258192607723,cathode,0.0035399913439172806,0.002860174663866496,2.6381908567934098e-05,0.0032541100605162766
2,shutdown,20.57142857142857,8.571428571428571,272.15258192607723,interface_ae,0.006936596853958425,0.006024360987629491,8.324005385905596e-05,0.006530047815247364
2,shutdown,20.57142857142857,8.571428571428571,272.15258192607723,interface_ec,0.006842709479666238,0.006108084055376796,0.00011464718774879026,0.0065096045283345415
2,shutdown,20.612244897959183,8.612244897959183,252.77840157967978,anode,0.003332339483373609,0.0029505014305670698,-0.00011491796022167802,0.0031650420414497792
2,shutdown,20.612244897959183,8.612244897959183,252.77840157967978,electrolyte,0.0020153580122201594,0.0015054517992716067,-0.00012814149797780265,0.0018284664126499038
2,shutdown,20.612244897959183,8.612244897959183,252.77840157967978,cathode,0.0031598609721114473,0.00261243893507391,7.906177188399773e-05,0.0029280312516978156
2,shutdown,20.612244897959183,8.612244897959183,252.77840157967978,interface_ae,0.006511311574675947,0.005206070697522168,-8.2830253957689e-05,0.005968465857459739
2,shutdown,20.612244897959183,8.612244897959183,252.77840157967978,interface_ec,0.006056447148353282,0.0054940700894898775,4.551756698688244e-05,0.005796294387744044
2,shutdown,20.653061224489797,8.653061224489797,234.92295456460886,anode,0.002876920327845323,0.002456380745649854,0.00013001765268131393,0.002700810806092743
2,shutdown,20.653061224489797,8.653061224489797,234.92295456460886,electrolyte,0.0012996727005387522,0.0017967412175546936,-5.442882931554857e-05,0.001609701870962137
2,shutdown,20.653061224489797,8.653061224489797,234.92295456460886,cathode,0.0029097561454584434,0.0024688599262392592,0.00015428881055391184,0.0027293927767836853
2,shutdown,20.653061224489797,8.653061224489797,234.92295456460886,interface_ae,0.00560456019560095,0.005151012461510949,5.274386518599967e-05,0.005392885192721165
2,shutdown,20.653061224489797,8.653061224489797,234.92295456460886,interface_ec,0.005528555341384968,0.004964685553477332,-1.4817853349822914e-05,0.005269359228504219
2,shutdown,20.693877551020407,8.693877551020408,218.46718805434932,anode,0.0025187258717559932,0.0022094134590058944,-3.498626630764374e-05,0.0023799691438705214
2,shutdown,20.693877551020407,8.693877551020408,218.46718805434932,electrolyte,0.0017525442951721647,0.0013593691100061496,0.00010784261944729466,0.0016036930494058494
2,shutdown,20.693877551020407,8.693877551020408,218.46718805434932,cathode,0.0024965073221609973,0.002122147361155034,0.0001926345405721134,0.0023557219710519436
2,shutdown,20.693877551020407,8.693877551020408,218.46718805434932,interface_ae,0.0052605261318526345,0.004482881225085017,-0.00017420539417718306,0.004927279978817338
2,shutdown,20.693877551020407,8.693877551020408,218.46718805434932,interface_ec,0.0056071384481475245,0.004676802723567437,-2.537097350663985e-05,0.005204895386560235
2,shutdown,20.73469387755102,8.73469387755102,203.30138172020213,anode,0.0024528756868158114,0.0023891386825711193,-1.795298339759204e-05,0.0024218359815352006
2,shutdown,20.73469387755102,8.73469387755102,203.30138172020213,electrolyte,0.001964241699226285,0.0013427313450554347,0.00010617847669583211,0.0017485838915814135
2,shutdown,20.73469387755102,8.73469387755102,203.30138172020213,cathode,0.002645764000714021,0.0021792606415855552,-5.869709860204633e-05,0.002448217879583237
2,shutdown,20.73469387755102,8.73469387755102,203.30138172020213,interface_ae,0.00503582484397959,0.004475119957515781,-5.7258604812652725e-05,0.004781228490150467
2,shutdown,20.73469387755102,8.73469387755102,203.30138172020213,interface_ec,0.00500269983145641,0.004620341206926245,0.0002069947739069679,0.004836209135695852
2,shutdown,20.775510204081634,8.775510204081632,189.32441616095798,anode,0.0024608141150871056,0.002387699358171211,-6.293742112064558e-05,0.0024275323700793283
2,shutdown,20.775510204081634,8.775510204081632,189.32441616095798,electrolyte,0.0015185812311166679,0.0014805241087364864,-8.96333332971996e-05,0.001507928006113263
2,shutdown,20.775510204081634,8.775510204081632,189.32441616095798,cathode,0.0021928222286082192,0.0023627283732622047,-9.7509885578694e-05,0.0022887629690294693
2,shutdown,20.775510204081634,8.775510204081632,189.32441616095798,interface_ae,0.0043116544955033006,0.004335891156518212,0.00011967632249804385,0.004328789585929521
2,shutdown,20.775510204081634,8.775510204081632,189.32441616095798,interface_ec,0.004666304550831196,0.004021152690861144,-4.38524505604982e-05,0.004380172728972656
2,shutdown,20.816326530612244,8.816326530612244,176.44309868003802,anode,0.0021668226337868564,0.002173142307422351,2.3856612614207602e-05,0.0021703827520356124
2,shutdown,20.816326530612244,8.816326530612244,176.44309868003802,electrolyte,0.0017035597778626154,0.0009381593763555894,-1.968075432826937e-06,0.0014778565469536961
2,shutdown,20.816326530612244,8.816326530612244,176.44309868003802,cathode,0.002035821125492263,0.0016401526073095741,-1.5308373300965545e-05,0.0018698432934746954
2,shutdown,20.816326530612244,8.816326530612244,176.44309868003802,interface_ae,0.0043043315783821805,0.0038192078678744874,0.00021704521789445562,0.004100708222298576
2,shutdown,20.816326530612244,8.816326530612244,176.44309868003802,interface_ec,0.004313759211994804,0.0039443891926200046,6.6094246298975916e-06,0.004141462360091185
2,shutdown,20.857142857142858,8.857142857142858,164.57154191466293,anode,0.0022806080912884026,0.0021912871917717514,5.3108513097594984e-05,0.0022391755325280047
2,shutdown,20.857142857142858,8.857142857142858,164.57154191466293,electrolyte,0.0009720682258713728,0.0009203670209308527,2.8193430320516212e-05,0.0009485342167359013
2,shutdown,20.857142857142858,8.857142857142858,164.57154191466293,cathode,0.0020362965782480128,0.0018512823615310118,4.60197681230041e-05,0.0019520101576882714
2,shutdown,20.857142857142858,8.857142857142858,164.57154191466293,interface_ae,0.0038913909256469547,0.003295954981067849,4.011382612642295e-05,0.003631145910853022
2,shutdown,20.857142857142858,8.857142857142858,164.57154191466293,interface_ec,0.004260991413891899,0.003627180390393826,5.347039496361981e-05,0.0039831743827035155
2,shutdown,20.89795918367347,8.89795918367347,153.63059117400576,anode,0.0019984429133829535,0.0015032131794040242,-5.0826514608332046e-05,0.0018047404851840511
2,shutdown,20.89795918367347,8.89795918367347,153.63059117400576,electrolyte,0.0009292801954249165,0.0009243194257884519,-4.220058967090802e-05,0.0009296875900929529
2,shutdown,20.89795918367347,8.89795918367347,153.63059117400576,cathode,0.002034184476748831,0.001482361301647757,-8.027217162249164e-05,0.0018273576633857595
2,shutdown,20.89795918367347,8.89795918367347,153.63059117400576,interface_ae,0.003973574493002932,0.003064576924152121,1.5352845725035096e-05,0.003606148694583808
2,shutdown,20.89795918367347,8.89795918367347,153.63059117400576,interface_ec,0.0036753236221854888,0.0029275133465842267,0.00012354837695030692,0.003371138052587034
2,shutdown,20.93877551020408,8.938775510204081,143.54729666804633,anode,0.0017794377487466333,0.0017654490701608176,-6.792219372181003e-05,0.001776384720510264
2,shutdown,20.93877551020408,8.938775510204081,143.54729666804633,electrolyte,0.001014092807969169,0.0008828266825359037,2.6388849435002184e-05,0.0009563409952797758
2,shutdown,20.93877551020408,8.938775510204081,143.54729666804633,cathode,0.0013610909909489556,0.0014759395435231058,-0.00014264639114237453,0.0014433025270610524
2,shutdown,20.93877551020408,8.938775510204081,143.54729666804633,interface_ae,0.00337569469556816,0.0024818147106656185,-0.00018515868342905867,0.003046263513836889
2,shutdown,20.93877551020408,8.938775510204081,143.54729666804633,interface_ec,0.0034677376246167752,0.002798176844530366,-9.87858073632241e-05,0.0031907570684006213
2,shutdown,20.97959183673469,8.979591836734693,134.25442710817435,anode,0.0017766824310128941,0.0014053369534477334,8.720901955337838e-05,0.0016301997355619513
2,shutdown,20.97959183673469,8.979591836734693,134.25442710817435,electrolyte,0.0008830790387011672,0.0013422938975654938,-6.045138605597951e-05,0.001186251660292465
2,shutdown,20.97959183673469,8.979591836734693,134.25442710817435,cathode,0.001871412416669762,0.0013275385019620677,-0.00016545103949127462,0.001691831259518718
2,shutdown,20.97959183673469,8.979591836734693,134.25442710817435,interface_ae,0.0031415963627451906,0.0027425759322551335,-0.00010513218142392299,0.0029679019869238536
2,shutdown,20.97959183673469,8.979591836734693,134.25442710817435,interface_ec,0.002860582758168626,0.002674683891347102,3.497478152479816e-05,0.002772973623721029
2,shutdown,21.02040816326531,9.020408163265307,125.69002143642092,anode,0.0009090315131187598,0.001445408759836044,-4.944979738149775e-05,0.0012684472831805418
2,shutdown,21.02040816326531,9.020408163265307,125.69002143642092,electrolyte,0.00057814745710325,0.0009313706297953252,-2.3617979418456324e-06,0.0008144034044820967
2,shutdown,21.02040816326531,9.020408163265307,125.69002143642092,cathode,0.0016463973250510908,0.0013223749219272345,-1.5145029480460544e-07,0.001510677040506467
2,shutdown,21.02040816326531,9.020408163265307,125.69002143642092,interface_ae,0.0027757823503932488,0.0025661114907737943,-4.1353125880933026e-05,0.0026780700322555306
2,shutdown,21.02040816326531,9.020408163265307,125.69002143642092,interface_ec,0.00263581382163998,0.0025915507631934956,-1.4448784144442942e-05,0.0026140831741816952
2,shutdown,21.06122448979592,9.061224489795919,117.79697569443749,anode,0.0012998842876782205,0.0013558662343276108,-1.1387660773574096e-05,0.00132890640340102
2,shutdown,21.06122448979592,9.061224489795919,117.79697569443749,electrolyte,0.0007813040006100921,0.0005649716473513395,4.307399339818508e-05,0.0007026950989548356
2,shutdown,21.06122448979592,9.061224489795919,117.79697569443749,cathode,0.001363136340600437,0.0013181452934548008,-5.7912883700687615e-05,0.0013449526580212835
2,shutdown,21.06122448979592,9.061224489795919,117.79697569443749,interface_ae,0.0024947781222108014,0.0024344080140224723,2.522130033628634e-05,0.0024655345760813295
2,shutdown,21.06122448979592,9.061224489795919,117.79697569443749,interface_ec,0.0024050978908902996,0.0025372913477402785,-0.0001698450568400251,0.002491275016744894
2,shutdown,21.10204081632653,9.10204081632653,110.52266227762675,anode,0.0013486566314248394,0.000795741311879799,0.00018857885164855271,0.0012188449850658808
2,shutdown,21.10204081632653,9.10204081632653,110.52266227762675,electrolyte,0.00040836689952800304,0.0008616625538945821,-8.163436001124398e-06,0.0007466936057734589
2,shutdown,21.10204081632653,9.10204081632653,110.52266227762675,cathode,0.0011184791668043402,0.0010858630503729906,6.31900339157813e-05,0.001107952143395507
2,shutdown,21.10204081632653,9.10204081632653,110.52266227762675,interface_ae,0.002202719261078004,0.0019344098931251621,6.496048651128859e-05,0.002084613019666058
2,shutdown,21.10204081632653,9.10204081632653,110.52266227762675,interface_ec,0.002042130770814258,0.0019807216195204596,0.00030406869541594407,0.002079912730404396
2,shutdown,21.142857142857142,9.142857142857142,103.81857903577588,anode,0.000904772443967795,0.0011961305908113236,-5.859507687138121e-05,0.0010850878843604273
2,shutdown,21.142857142857142,9.142857142857142,103.81857903577588,electrolyte,0.000762868078936904,0.0007126031020994218,0.00011289567351829475,0.0007644508007301616
2,shutdown,21.142857142857142,9.142857142857142,103.81857903577588,cathode,0.0010583242715230961,0.0013643469602103438,-5.893365645851804e-05,0.0012441828307573797
2,shutdown,21.142857142857142,9.142857142857142,103.81857903577588,interface_ae,0.0022435941564912143,0.0019821954513622674,-0.00011219681199494154,0.0021338546784184773
2,shutdown,21.142857142857142,9.142857142857142,103.81857903577588,interface_ec,0.0021395756227754782,0.0019654427647664277,-4.321210431294198e-05,0.0020594022282134556
2,shutdown,21.183673469387756,9.183673469387756,97.64002588053233,anode,0.0015004587021361449,0.0007230763052395511,0.00011794244681404279,0.0013156750312259022
2,shutdown,21.183673469387756,9.183673469387756,97.64002588053233,electrolyte,0.000780530889369706,0.0005333578286303006,-8.65209053852247e-05,0.000707003807270107
2,shutdown,21.183673469387756,9.183673469387756,97.64002588053233,cathode,0.0008586228449664838,0.0007872075801161554,-0.0001785741281946263,0.0008812949051557995
2,shutdown,21.183673469387756,9.183673469387756,97.64002588053233,interface_ae,0.0018238547329298175,0.001485106776846186,0.00013458750031777167,0.0016963816160679354
2,shutdown,21.183673469387756,9.183673469387756,97.64002588053233,interface_ec,0.0021482402965673194,0.0019387968996920067,5.888319515419477e-05,0.0020540861362872607
2,shutdown,21.224489795918366,9.224489795918368,91.94580674347571,anode,0.000966315734769462,0.0011131076113161413,-6.107626557317373e-05,0.0010527830664365891
2,shutdown,21.224489795918366,9.224489795918368,91.94580674347571,electrolyte,0.000582814890857399,0.0006435150101747358,-0.00013212092318561292,0.0006565839245180173
2,shutdown,21.224489795918366,9.224489795918368,91.94580674347571,cathode,0.0015522399893311391,0.0008266846974458311,1.4198945057559274e-05,0.001345454702934495
2,shutdown,21.224489795918366,9.224489795918368,91.94580674347571,interface_ae,0.002117220026540243,0.0018249341563826725,3.8078019396459127e-06,0.0019872749359289266
2,shutdown,21.224489795918366,9.224489795918368,91.94580674347571,interface_ec,0.0018918703078248673,0.0013411133835910319,-5.5646577784997624e-05,0.001688145551867929
2,shutdown,21.26530612244898,9.26530612244898,86.69795489756177,anode,0.0009632328985784595,0.0008453945205136447,0.0001221165750004087,0.0009343099439967139
2,shutdown,21.26530612244898,9.26530612244898,86.69795489756177,electrolyte,0.0004933665068510146,0.0001779134095900247,0.0001056730430775678,0.00046988035720037957
2,shutdown,21.26530612244898,9.26530612244898,86.69795489756177,cathode,0.0011470087245830708,0.0009362648672763133,-1.636336708574914e-05,0.0010578847876901445
2,shutdown,21.26530612244898,9.26530612244898,86.69795489756177,interface_ae,0.0019284589210686507,0.0021990140010117775,1.1515231444047567e-05,0.002077090758911293
2,shutdown,21.26530612244898,9.26530612244898,86.69795489756177,interface_ec,0.00145723437224431,0.0013959748954997043,6.254760003040509e-05,0.0014316954741885725
2,shutdown,21.306122448979593,9.306122448979592,81.8614798104968,anode,0.0004714313725989235,0.0007311857815875256,3.8033665031588284e-05,0.0006453804681386375
2,shutdown,21.306122448979593,9.306122448979592,81.8614798104968,electrolyte,0.0007839270818570197,0.0006817133770380106,8.645847917517711e-05,0.0007531841910455788
2,shutdown,21.306122448979593,9.306122448979592,81.8614798104968,cathode,0.00035985643267563017,0.0008815157922146968,7.055133860602464e-05,0.0007773545457933772
2,shutdown,21.306122448979593,9.306122448979592,81.8614798104968,interface_ae,0.0016359733449727415,0.0010485659079811263,-7.767739091870604e-05,0.0014417262930657587
2,shutdown,21.306122448979593,9.306122448979592,81.8614798104968,interface_ec,0.001351419915650259,0.0009916086453088052,-2.915151414794514e-07,0.0012122475312448596
2,shutdown,21.346938775510203,9.346938775510203,77.40413384216254,anode,0.0005707125376409349,0.0011677048425517344,-1.6877193943790957e-05,0.0010117697984508467
2,shutdown,21.346938775510203,9.346938775510203,77.40413384216254,electrolyte,0.0006982691730752005,7.295651193512249e-05,-5.300895860048698e-05,0.0006711103162053162
2,shutdown,21.346938775510203,9.346938775510203,77.40413384216254,cathode,0.0007496565371363539,0.00046101293677641795,-4.222006848047444e-05,0.0006589871716013178
2,shutdown,21.346938775510203,9.346938775510203,77.40413384216254,interface_ae,0.001416963742610274,0.0012385058559069252,0.00018551185730353463,0.0013747760027574907
2,shutdown,21.346938775510203,9.346938775510203,77.40413384216254,interface_ec,0.0015361991809452837,0.0013811895655841647,5.396547743450705e-05,0.0014678375518084998
2,shutdown,21.387755102040817,9.387755102040817,73.29619723052508,anode,0.0007955561530024817,0.0005756897754558791,-3.207463714788462e-05,0.0007137374265824319
2,shutdown,21.387755102040817,9.387755102040817,73.29619723052508,electrolyte,0.0004384280919016078,0.0005878178841808926,0.00011262381884363837,0.000563990742031366
2,shutdown,21.387755102040817,9.387755102040817,73.29619723052508,cathode,0.0006249511823973769,0.0007458359111644744,-1.9458466303966783e-05,0.0006941613990553391
2,shutdown,21.387755102040817,9.387755102040817,73.29619723052508,interface_ae,0.0013528358649571672,0.0010898296681508648,-1.816451389062335e-05,0.0012427883045885255
2,shutdown,21.387755102040817,9.387755102040817,73.29619723052508,interface_ec,0.0016143277689800544,0.0012030185739295516,1.3528250855231791e-05,0.0014532001187517012
2,shutdown,21.42857142857143,9.428571428571429,69.51027993240348,anode,0.00033082873223867624,0.00048399083199288984,-2.413149037447287e-05,0.00043049237931414
2,shutdown,21.42857142857143,9.428571428571429,69.51027993240348,electrolyte,0.0002074833281508321,0.00033284766455148426,-4.291822902276543e-05,0.000300503712451113
2,shutdown,21.42857142857143,9.428571428571429,69.51027993240348,cathode,0.0006362714591389844,0.0005701402154832226,-9.557543578226445e-05,0.0006281252104331525
2,shutdown,21.42857142857143,9.428571428571429,69.51027993240348,interface_ae,0.0011608042196838981,0.0011071540835910383,0.00011842994311567255,0.0011533188732760177
2,shutdown,21.42857142857143,9.428571428571429,69.51027993240348,interface_ec,0.001291888410739684,0.000959292191055386,3.9900475924385236e-05,0.0011639135936240264
2,shutdown,21.46938775510204,9.46938775510204,66.02113899784933,anode,0.0009131591987376075,0.0006863927848862685,5.475265304356202e-05,0.0008289767493500302
2,shutdown,21.46938775510204,9.46938775510204,66.02113899784933,electrolyte,0.0004891662976590716,0.0005907532793408207,0.000107562679401766,0.0005779322618893792
2,shutdown,21.46938775510204,9.46938775510204,66.02113899784933,cathode,0.0006850014970967869,0.0007167799342864817,-0.00010816510962640609,0.0007260194694130958
2,shutdown,21.46938775510204,9.46938775510204,66.02113899784933,interface_ae,0.0008428457912784545,0.0010375227108656954,6.8680709650538365e-06,0.0009552550781991605
2,shutdown,21.46938775510204,9.46938775510204,66.02113899784933,interface_ec,0.0010345168310438592,0.0011712735147024714,-0.0001862863586451236,0.001155210966660499
2,shutdown,21.51020408163265,9.510204081632653,62.8055102604701,anode,0.0004198836272569258,0.00036662640007674517,-0.00016363017850994595,0.00048693044772008697
2,shutdown,21.51020408163265,9.510204081632653,62.8055102604701,electrolyte,0.0006160246746061907,7.188802641385633e-06,-5.8834005730768595e-05,0.0006208815663957955
2,shutdown,21.51020408163265,9.510204081632653,62.8055102604701,cathode,0.0007084340300295134,0.0005928265777380144,-0.00011081746964847466,0.0006857004734858721
2,shutdown,21.51020408163265,9.510204081632653,62.8055102604701,interface_ae,0.0011901739987891004,0.0009851919138361806,0.00023330355621114675,0.001173822432414308
2,shutdown,21.51020408163265,9.510204081632653,62.8055102604701,interface_ec,0.001134464240150634,0.00089898665389083,-8.565019571194227e-05,0.0010475331846385807
2,shutdown,21.551020408163264,9.551020408163264,59.84195322147059,anode,0.00033669080375970176,0.0002621209207990865,0.00013710988139119221,0.0003875715800676796
2,shutdown,21.551020408163264,9.551020408163264,59.84195322147059,electrolyte,0.00029581681647369265,0.00037020551824889673,0.0001514247599980887,0.00042875992189408133
2,shutdown,21.551020408163264,9.551020408163264,59.84195322147059,cathode,1.3846648709322997e-05,0.000683049492832793,5.539691178333415e-06,0.0006763005674227489
2,shutdown,21.551020408163264,9.551020408163264,59.84195322147059,interface_ae,0.001058088628629721,0.000688868835435786,-7.551243984485184e-05,0.0009393156672770571
2,shutdown,21.551020408163264,9.551020408163264,59.84195322147059,interface_ec,0.0010688481322642296,0.00133146903985173,0.00010033133128149015,0.0012338180844943876
2,shutdown,21.591836734693878,9.591836734693878,57.11070809316573,anode,0.0007005828390013724,0.0003553806100992606,-6.002042245856282e-05,0.0006155854846604806
2,shutdown,21.591836734693878,9.591836734693878,57.11070809316573,electrolyte,0.00011315462594946226,0.00013934299737409204,-0.00020527824331705255,0.00037798228408540756
2,shutdown,21.591836734693878,9.591836734693878,57.11070809316573,cathode,0.0003024943861393439,0.00028171023293957595,-1.7535817439484104e-05,0.00029422824420213773
2,shutdown,21.591836734693878,9.591836734693878,57.11070809316573,interface_ae,0.000921306531384787,0.0008600519020282113,-1.4925372442960091e-06,0.0008922613111013993
2,shutdown,21.591836734693878,9.591836734693878,57.11070809316573,interface_ec,0.0007786678921667772,0.000394889999649985,-5.753086084017933e-05,0.0006816913042549832
2,shutdown,21.632653061224488,9.63265306122449,54.59356404878929,anode,0.00021791050694895298,0.0004561259080037123,9.09287396693694e-05,0.0004253766710092364
2,shutdown,21.632653061224488,9.63265306122449,54.59356404878929,electrolyte,0.0004359182989824787,0.00036981014252759594,-1.3352573545248823e-05,0.00040756860807452376
2,shutdown,21.632653061224488,9.63265306122449,54.59356404878929,cathode,0.0003080095213911747,0.0002134920076145783,-0.00015074989166017505,0.00037797846632232885
2,shutdown,21.632653061224488,9.63265306122449,54.59356404878929,interface_ae,0.0010231720090742797,0.0006908829091099882,-0.0001246340293620874,0.0009294670644672233
2,shutdown,21.632653061224488,9.63265306122449,54.59356404878929,interface_ec,0.0006595029938306611,0.0005524304254094726,4.302448501512677e-06,0.000613065728562874
2,shutdown,21.6734693877551,9.673469387755102,52.27373780013852,anode,0.0005935663034289708,0.00026486609530993697,-0.00022525335147836493,0.0006461243169630658
2,shutdown,21.6734693877551,9.673469387755102,52.27373780013852,electrolyte,0.00019091141129195843,0.0001700590009054542,-2.2492023093552174e-05,0.00018552277540294224
2,shutdown,21.6734693877551,9.673469387755102,52.27373780013852,cathode,0.00025458049991969333,0.00037795182137422207,6.614111514900175e-06,0.0003340222836905337
2,shutdown,21.6734693877551,9.673469387755102,52.27373780013852,interface_ae,0.0007551794036043379,0.0007514562827467004,-4.298328231478536e-05,0.0007569946213441441
2,shutdown,21.6734693877551,9.673469387755102,52.27373780013852,interface_ec,0.0006628283324895366,0.0009449526683751872,5.593554097154361e-05,0.0008457670462904786
2,shutdown,21.714285714285715,9.714285714285714,50.135761693466634,anode,0.0005156682138523531,0.0005534664385309516,5.259441806248001e-05,0.0005432607790070305
2,shutdown,21.714285714285715,9.714285714285714,50.135761693466634,electrolyte,0.000396493801643406,-0.00013035089449582086,2.0415387199602713e-05,0.0004765840704926014
2,shutdown,21.714285714285715,9.714285714285714,50.135761693466634,cathode,0.00031373530930092763,0.0006437823396440998,9.276455318033e-05,0.0005802793126325478
2,shutdown,21.714285714285715,9.714285714285714,50.135761693466634,interface_ae,0.0005744689651689503,0.0006910498746341171,1.676813334492398e-05,0.0006414213324333226
2,shutdown,21.714285714285715,9.714285714285714,50.135761693466634,interface_ec,0.000791424289958032,0.0004127225490533455,3.600164652382253e-05,0.0006884344664205389
2,shutdown,21.755102040816325,9.755102040816327,48.16538057748471,anode,0.00027719051754472075,0.0003405722457252036,-7.243851651221698e-05,0.0003378796480176837
2,shutdown,21.755102040816325,9.755102040816327,48.16538057748471,electrolyte,7.727765443506801e-05,0.00040574385814200187,-0.0001051547558340161,0.0004152319215328085
2,shutdown,21.755102040816325,9.755102040816327,48.16538057748471,cathode,0.00012726990719395793,0.00027376604147096793,-7.718903751859546e-05,0.0002723559042652031
2,shutdown,21.755102040816325,9.755102040816327,48.16538057748471,interface_ae,0.0004686358483521755,0.000589179780069826,-0.00015050658569037048,0.0005988307795591665
2,shutdown,21.755102040816325,9.755102040816327,48.16538057748471,interface_ec,0.00044404912782200766,0.0009789837024128958,4.594750589690091e-05,0.0008527633776116197
2,shutdown,21.79591836734694,9.795918367346939,46.34945675583765,anode,0.00014820233982091663,0.00034545622469515046,5.673304769866296e-05,0.0003158519146800212
2,shutdown,21.79591836734694,9.795918367346939,46.34945675583765,electrolyte,0.00037794284390571834,0.00013214155880980405,9.764977027728893e-05,0.0003727823241452536
2,shutdown,21.79591836734694,9.795918367346939,46.34945675583765,cathode,-0.00011017429470153574,5.055158294676039e-05,1.6387140173645573e-05,0.0001451514307122795
2,shutdown,21.79591836734694,9.795918367346939,46.34945675583765,interface_ae,0.000660956727111356,0.0003412699605500937,2.5941999126315913e-05,0.0005742675916826718
2,shutdown,21.79591836734694,9.795918367346939,46.34945675583765,interface_ec,0.00047026197081234564,0.0004682345992383889,0.0001024773800665011,0.0005016989893868183
2,shutdown,21.836734693877553,9.83673469387755,44.67588239031102,anode,0.0004559804410749574,4.187772322091643e-05,-0.00010572514620201035,0.00047340247491738075
2,shutdown,21.836734693877553,9.83673469387755,44.67588239031102,electrolyte,8.278885061452591e-05,0.00013987144592358144,-6.578984885747409e-05,0.00016680267254181027
2,shutdown,21.836734693877553,9.83673469387755,44.67588239031102,cathode,0.000482321430257171,0.00031076775703528,4.0608510987442905e-05,0.0004292642139065921
2,shutdown,21.836734693877553,9.83673469387755,44.67588239031102,interface_ae,0.00029507811760548047,0.0007160377208638938,-0.0002820168822240691,0.0007918930584117216
2,shutdown,21.836734693877553,9.83673469387755,44.67588239031102,interface_ec,0.0007151969737643486,0.0006694419249212921,-4.3240118727796155e-05,0.0006974851159072146
2,shutdown,21.877551020408163,9.877551020408163,43.13349877071198,anode,0.0005072811230929549,0.0002097556794953845,6.243170332744294e-06,0.00044163720154091025
2,shutdown,21.877551020408163,9.877551020408163,43.13349877071198,electrolyte,0.0002199931665255244,0.0007711519023215304,0.00013444339080830045,0.0007263946426731457
2,shutdown,21.877551020408163,9.877551020408163,43.13349877071198,cathode,0.0003929253197860538,3.9814292766014795e-05,1.4358982547949219e-05,0.0003754330596254485
2,shutdown,21.877551020408163,9.877551020408163,43.13349877071198,interface_ae,0.0003427733405176631,0.0006091725496290702,1.4046697573485675e-05,0.0005294984207165914
2,shutdown,21.877551020408163,9.877551020408163,43.13349877071198,interface_ec,0.00028049382336416134,0.00046097529685620815,-8.494174697163056e-05,0.0004283918613854201
2,shutdown,21.918367346938776,9.918367346938776,41.71202191314853,anode,0.0002631333560894503,3.3127835130256626e-05,2.74876333608128e-06,0.00024827856373264655
2,shutdown,21.918367346938776,9.918367346938776,41.71202191314853,electrolyte,0.0002902593174650389,0.00011273510528363634,-3.908882671723887e-05,0.00026233770172622196
2,shutdown,21.918367346938776,9.918367346938776,41.71202191314853,cathode,0.00027354535603343335,0.00034437982256187855,-0.00011071832698817606,0.00036877725880939447
2,shutdown,21.918367346938776,9.918367346938776,41.71202191314853,interface_ae,0.0005179114545849222,0.0006733947606100959,5.7365696327671525e-05,0.0006187134940951539
2,shutdown,21.918367346938776,9.918367346938776,41.71202191314853,interface_ec,0.0004773310529773273,0.0005378340981463948,4.524964561026824e-05,0.0005162636207923474
2,shutdown,21.95918367346939,9.959183673469388,40.401973990626175,anode,0.00036535418195939853,-0.00021590843728444545,-0.00015534561336632654,0.0005756561133389482
2,shutdown,21.95918367346939,9.959183673469388,40.401973990626175,electrolyte,0.00033014367626964117,-0.00018737933042405367,4.015386357192051e-05,0.0004591350125326955
2,shutdown,21.95918367346939,9.959183673469388,40.401973990626175,cathode,0.00014422402892097738,-1.0359964207055954e-05,3.496497571474736e-05,0.0001614611523995408
2,shutdown,21.95918367346939,9.959183673469388,40.401973990626175,interface_ae,0.00046947462099818554,0.0007998243002435624,-6.248112045358893e-05,0.000704513869302029
2,shutdown,21.95918367346939,9.959183673469388,40.401973990626175,interface_ec,0.0007172899442687062,0.0004482403527011498,-6.610218815427124e-05,0.0006379768633477314
2,shutdown,22.0,10.0,39.19462013876898,anode,0.00035765819150177815,0.0002872195328893198,3.5843294858049234e-06,0.00032821725362614695
2,shutdown,22.0,10.0,39.19462013876898,electrolyte,0.0001723107240648968,-1.4631951765546857e-05,-8.257871252545069e-05,0.00022996533027942582
2,shutdown,22.0,10.0,39.19462013876898,cathode,0.0003496973347628457,0.00012928394713587478,-8.00829982490925e-06,0.0003065692609908735
2,shutdown,22.0,10.0,39.19462013876898,interface_ae,0.00045158211918551363,0.00040120133295382083,-0.00014293264709740647,0.0004949775718105599
2,shutdown,22.0,10.0,39.19462013876898,interface_ec,0.00065286821728763,0.00037238009437719487,-2.0265326282214937e-05,0.0005683491583623854
3,startup,8.0,0.0,25.0,anode,8.616920103394934e-05,4.730843872297261e-05,7.670626894897021e-05,0.00015244095349520607
3,startup,8.0,0.0,25.0,electrolyte,0.00010759673443018823,0.00014356924579925334,0.0001350993905727516,0.0002673894904183574
3,startup,8.0,0.0,25.0,cathode,0.0001767249097941944,-3.209724406571253e-05,-0.00011229011560768328,0.0002752481054795763
3,startup,8.0,0.0,25.0,interface_ae,0.00033355958660090303,-4.754467466942254e-05,-4.731074133605223e-05,0.0003689124485130504
3,startup,8.0,0.0,25.0,interface_ec,-0.00034734536355288787,6.76946210624223e-05,1.4888660395377017e-05,0.0003865356292647308
3,startup,8.040816326530612,0.04081632653061224,85.7519033442633,anode,0.0006062958240964965,0.0008908553624114607,-4.981919207014391e-05,0.0007928063273244172
3,startup,8.040816326530612,0.04081632653061224,85.7519033442633,electrolyte,0.0010475950940225277,0.00033451600303884064,-4.3519333219779326e-05,0.0009298391854214999
3,startup,8.040816326530612,0.04081632653061224,85.7519033442633,cathode,0.000734363566495519,0.00105577585819322,-3.7277579446475315e-05,0.0009395733285301223
3,startup,8.040816326530612,0.04081632653061224,85.7519033442633,interface_ae,0.0016736547919396858,0.0017417921099537595,-0.00013803529354131853,0.0017253876759389785
3,startup,8.040816326530612,0.04081632653061224,85.7519033442633,interface_ec,0.0019436597319425746,0.0019566810512898227,5.66607832835089e-05,0.001952670749381866
3,startup,8.081632653061224,0.08163265306122448,141.74149215955785,anode,0.0018749361910595603,0.0017116857878521632,0.00017097080286755187,0.0018230867702370122
3,startup,8.081632653061224,0.08163265306122448,141.74149215955785,electrolyte,0.00122110098430979,0.0009495614736838576,9.038914006360014e-05,0.0011214966544458773
3,startup,8.081632653061224,0.08163265306122448,141.74149215955785,cathode,0.0015701695427145534,0.0016929324626201309,-0.00010055559711837477,0.0016442615392686516
3,startup,8.081632653061224,0.08163265306122448,141.74149215955785,interface_ae,0.0034213085718888254,0.0024588350539126854,4.014296593674621e-05,0.003056734056597033
3,startup,8.081632653061224,0.08163265306122448,141.74149215955785,interface_ec,0.0033659386533934806,0.003297576531982225,3.901926106054028e-05,0.0033329688266419736
3,startup,8.122448979591837,0.12244897959183673,193.34208215163724,anode,0.0027445200214680564,0.002000617432489896,0.00010383860371596328,0.0024650503093283896
3,startup,8.122448979591837,0.12244897959183673,193.34208215163724,electrolyte,0.0018330726030476876,0.0013953048340603984,7.90349008692289e-05,0.0016637533562540007
3,startup,8.122448979591837,0.12244897959183673,193.34208215163724,cathode,0.002553620377806718,0.0021124029853113306,7.611923727015087e-05,0.0023677691001698113
3,startup,8.122448979591837,0.12244897959183673,193.34208215163724,interface_ae,0.004738185102975049,0.004351122457864644,-0.00017710568023371822,0.004567312160147086
3,startup,8.122448979591837,0.12244897959183673,193.34208215163724,interface_ec,0.004898670409592446,0.004563082501227519,5.0539337622046326e-05,0.004740603246789895
3,startup,8.16326530612245,0.16326530612244897,240.897724975064,anode,0.003241684170991923,0.002877801458871051,-0.00018858646178642095,0.0030932230157826564
3,startup,8.16326530612245,0.16326530612244897,240.897724975064,electrolyte,0.0017362426565799022,0.0014571941778837528,-6.590596905145408e-05,0.0016189322204138512
3,startup,8.16326530612245,0.16326530612244897,240.897724975064,cathode,0.003351417157447579,0.002671619794757587,-6.0468085012741094e-05,0.0030703104143657445
3,startup,8.16326530612245,0.16326530612244897,240.897724975064,interface_ae,0.0060455890146277535,0.005628617884042064,-0.00010878375477136198,0.0058512970431307265
3,startup,8.16326530612245,0.16326530612244897,240.897724975064,interface_ec,0.006478843449507586,0.005497220910768806,1.045422455492162e-05,0.00604810254288266
3,startup,8.204081632653061,0.2040816326530612,284.7255022290931,anode,0.0038585671392805374,0.0037554121310659893,4.9721798045319376e-05,0.003809011363951156
3,startup,8.204081632653061,0.2040816326530612,284.7255022290931,electrolyte,0.0018104153474089654,0.0016639640024703134,5.520800899233323e-06,0.001741839660178385
3,startup,8.204081632653061,0.2040816326530612,284.7255022290931,cathode,0.0037015347017504757,0.002827330090410355,0.00013495463138337433,0.003359216039947571
3,startup,8.204081632653061,0.2040816326530612,284.7255022290931,interface_ae,0.007919053386239093,0.006946202927613405,-6.073230454709151e-05,0.007480966185508116
3,startup,8.204081632653061,0.2040816326530612,284.7255022290931,interface_ec,0.007860543937059998,0.006701135488070874,2.0485730021769077e-05,0.007349833799424586
3,startup,8.244897959183673,0.24489795918367346,325.117639628244,anode,0.004307966735074808,0.004256291064724254,-0.00015702366540818448,0.004290990560584941
3,startup,8.244897959183673,0.24489795918367346,325.117639628244,electrolyte,0.0027635724531067936,0.002222844970343538,-4.894669953419908e-05,0.002538221163801482
3,startup,8.244897959183673,0.24489795918367346,325.117639628244,cathode,0.004525483964581251,0.004099702976048687,0.00013667467366943972,0.004334797507048982
3,startup,8.244897959183673,0.24489795918367346,325.117639628244,interface_ae,0.009046795365110914,0.007727927532173647,5.563012376578855e-06,0.008464779039175111
3,startup,8.244897959183673,0.24489795918367346,325.117639628244,interface_ec,0.009347525407816682,0.008175602366328628,9.087634781243586e-05,0.008821554851068421
3,startup,8.285714285714286,0.2857142857142857,362.34345544398667,anode,0.005208407188734472,0.004583247428666104,0.000115875483450987,0.004929759118234587
3,startup,8.285714285714286,0.2857142857142857,362.34345544398667,electrolyte,0.0027380064498051847,0.002218795128960617,6.900350073706138e-06,0.002518888368720828
3,startup,8.285714285714286,0.2857142857142857,362.34345544398667,cathode,0.004885753467354456,0.004232353259469359,-7.202785765879318e-05,0.00459572959180829
3,startup,8.285714285714286,0.2857142857142857,362.34345544398667,interface_ae,0.010595602354326727,0.00891393974790476,3.619078363609882e-05,0.009863086708506863
3,startup,8.285714285714286,0.2857142857142857,362.34345544398667,interface_ec,0.009854067008019139,0.008517964229331066,-8.190526431188059e-05,0.009259691481897354
3,startup,8.326530612244898,0.32653061224489793,396.65115620895585,anode,0.005850417713201605,0.004962100257835977,5.985950914443922e-05,0.0054617045532634
3,startup,8.326530612244898,0.32653061224489793,396.65115620895585,electrolyte,0.0032647874212058487,0.0026247554318019287,0.00013879655839733676,0.0030061109292269703
3,startup,8.326530612244898,0.32653061224489793,396.65115620895585,cathode,0.0054362170763154185,0.005176491636473183,4.423021561353407e-05,0.005311671909071602
3,startup,8.326530612244898,0.32653061224489793,396.65115620895585,interface_ae,0.010767748161470445,0.009640888431921239,-0.00017849385328721048,0.010255537611691807
3,startup,8.326530612244898,0.32653061224489793,396.65115620895585,interface_ec,0.011358213618878552,0.009785543245080864,-0.00022283424399497802,0.010666234010179687
3,startup,8.36734693877551,0.36734693877551017,428.2694916567157,anode,0.006111183057915418,0.005204276787305244,-0.00014838058550333233,0.00571776333100779
3,startup,8.36734693877551,0.36734693877551017,428.2694916567157,electrolyte,0.003717853419998452,0.0029978461955114627,-2.9343140231331257e-05,0.0034156326198174483
3,startup,8.36734693877551,0.36734693877551017,428.2694916567157,cathode,0.005956148725374283,0.005009053745951354,-0.00013045488995841096,0.00554821713879961
3,startup,8.36734693877551,0.36734693877551017,428.2694916567157,interface_ae,0.012329050720117989,0.010528642705608673,2.20677009368635e-06,0.011534715148613846
3,startup,8.36734693877551,0.36734693877551017,428.2694916567157,interface_ec,0.011663201267902757,0.010359800872406715,6.0981251987475283e-05,0.011069708731513002
3,startup,8.408163265306122,0.4081632653061224,457.4092799315351,anode,0.006547732864546388,0.00604620269076565,0.00013429563316312264,0.006316213939577066
3,startup,8.408163265306122,0.4081632653061224,457.4092799315351,electrolyte,0.0035805162823481685,0.003286050172566371,-3.1660344290307396e-05,0.0034431778300719044
3,startup,8.408163265306122,0.4081632653061224,457.4092799315351,cathode,0.006883152476251352,0.005925330590231267,1.6968509085775127e-05,0.006457804617747357
3,startup,8.408163265306122,0.4081632653061224,457.4092799315351,interface_ae,0.012984459982022514,0.011680025359493536,5.795778471138472e-05,0.012384282331577805
3,startup,8.408163265306122,0.4081632653061224,457.4092799315351,interface_ec,0.01325610662846126,0.0109523257167898,4.612282614987982e-05,0.012267802817361466
3,startup,8.448979591836734,0.44897959183673464,484.2648132376524,anode,0.0067710702316531,0.00640053393756425,0.00015463986871898293,0.006599053145986632
3,startup,8.448979591836734,0.44897959183673464,484.2648132376524,electrolyte,0.0038584655954263785,0.0036967968173355894,0.00017831145199925062,0.0037928201972309093
3,startup,8.448979591836734,0.44897959183673464,484.2648132376524,cathode,0.006889038538974606,0.006543645094525023,-3.134115266972247e-06,0.006723001512796148
3,startup,8.448979591836734,0.44897959183673464,484.2648132376524,interface_ae,0.013705410219111572,0.012271691197794173,-3.5379073114231386e-05,0.01304790662200494
3,startup,8.448979591836734,0.44897959183673464,484.2648132376524,interface_ec,0.013765382364337733,0.012380403564887486,1.9218852217270328e-06,0.013127801272541465
3,startup,8.489795918367347,0.4897959183673469,509.01515330032225,anode,0.006905610348867825,0.006448724116137179,-6.962935790523948e-05,0.006689967545922485
3,startup,8.489795918367347,0.4897959183673469,509.01515330032225,electrolyte,0.004232536162364837,0.0037115820423624657,0.00014714003481665222,0.004005714540324617
3,startup,8.489795918367347,0.4897959183673469,509.01515330032225,cathode,0.007426120367621426,0.006593309095298953,-6.690967601377133e-05,0.00704767424702386
3,startup,8.489795918367347,0.4897959183673469,509.01515330032225,interface_ae,0.014650025114103873,0.013144210735006738,-6.886499086367672e-05,0.013958679073541237
3,startup,8.489795918367347,0.4897959183673469,509.01515330032225,interface_ec,0.014849175473271192,0.012640650458894414,-8.519712450499742e-05,0.013878133705567506
3,startup,8.53061224489796,0.5306122448979591,531.8253252762499,anode,0.007645270763773546,0.006818889077316031,9.11750123972265e-05,0.007269119523339006
3,startup,8.53061224489796,0.5306122448979591,531.8253252762499,electrolyte,0.004058440566549391,0.0038276059040704058,-6.855545714835052e-05,0.003949872816605559
3,startup,8.53061224489796,0.5306122448979591,531.8253252762499,cathode,0.007288246223888463,0.006489959730983713,-7.509003659558183e-05,0.006924926091163152
3,startup,8.53061224489796,0.5306122448979591,531.8253252762499,interface_ae,0.015276380382275658,0.013581856720794273,-0.00014732066298752666,0.014505796432356617
3,startup,8.53061224489796,0.5306122448979591,531.8253252762499,interface_ec,0.015242453565046768,0.013116074351026357,6.290854090140003e-05,0.014298759221225917
3,startup,8.571428571428571,0.5714285714285714,552.8474180739229,anode,0.007776137818841193,0.006742336059232253,7.996645153475749e-05,0.0073155494937712185
3,startup,8.571428571428571,0.5714285714285714,552.8474180739229,electrolyte,0.004309722856305174,0.00383266170183635,-0.00022199890875563766,0.004110127446741623
3,startup,8.571428571428571,0.5714285714285714,552.8474180739229,cathode,0.008089994207326636,0.0071167835670707304,5.457844281313952e-07,0.007649959325143425
3,startup,8.571428571428571,0.5714285714285714,552.8474180739229,interface_ae,0.015495851681812731,0.01414707756134077,-6.662633863607912e-05,0.01486786886062332
3,startup,8.571428571428571,0.5714285714285714,552.8474180739229,interface_ec,0.015710697180063765,0.014367612536945724,-7.036364441092297e-05,0.015084559630774305
3,startup,8.612244897959183,0.6122448979591836,572.2215984203204,anode,0.008339113659163644,0.007320209519093467,3.901721928800852e-05,0.007879517235558733
3,startup,8.612244897959183,0.6122448979591836,572.2215984203204,electrolyte,0.00464600061139101,0.004114126154912335,2.7194059094054036e-05,0.004404468369629526
3,startup,8.612244897959183,0.6122448979591836,572.2215984203204,cathode,0.008180287994923133,0.007510047691499092,-0.00013126605607992784,0.007869896274338088
3,startup,8.612244897959183,0.6122448979591836,572.2215984203204,interface_ae,0.016585634954159763,0.014580050593091398,6.983991213294012e-05,0.01567980861552642
3,startup,8.612244897959183,0.6122448979591836,572.2215984203204,interface_ec,0.016604739218884716,0.014397062254300208,-0.00018689740758268768,0.015621718655562321
3,startup,8.653061224489797,0.6530612244897959,590.0770454353908,anode,0.008443468857799726,0.007244737259448598,-7.318592098580639e-05,0.007913516248487308
3,startup,8.653061224489797,0.6530612244897959,590.0770454353908,electrolyte,0.004490871930175505,0.004075164189460182,-5.966236939834492e-05,0.0042993641611243465
3,startup,8.653061224489797,0.6530612244897959,590.0770454353908,cathode,0.007982413423757204,0.0075830204852299675,0.0002220321858004882,0.007799885518894814
3,startup,8.653061224489797,0.6530612244897959,590.0770454353908,interface_ae,0.017037102218184507,0.014845367414640173,-5.4746395676215554e-06,0.016053841704521468
3,startup,8.653061224489797,0.6530612244897959,590.0770454353908,interface_ec,0.01683165760588261,0.014903960522720411,-3.7008094073233626e-06,0.015955388356991628
3,startup,8.693877551020408,0.6938775510204082,606.5328119456506,anode,0.00853602337013911,0.007996302767262084,-0.0001487154235709771,0.008283373374226882
3,startup,8.693877551020408,0.6938775510204082,606.5328119456506,electrolyte,0.005021038279795919,0.004271847809154715,0.0001900831815065745,0.004703062043414134
3,startup,8.693877551020408,0.6938775510204082,606.5328119456506,cathode,0.008772405976068414,0.007587743982035868,-2.4770719843449732e-05,0.008244272888416445
3,startup,8.693877551020408,0.6938775510204082,606.5328119456506,interface_ae,0.01741644745134149,0.015090892039945755,-7.668695251179118e-05,0.016378509664957658
3,startup,8.693877551020408,0.6938775510204082,606.5328119456506,interface_ec,0.017051477318599167,0.015134854799270216,9.390648166044979e-06,0.01617854566283588
3,startup,8.73469387755102,0.7346938775510203,621.6986182797979,anode,0.008991265941528716,0.007463617280871914,-1.3721170304420048e-05,0.008333165250975098
3,startup,8.73469387755102,0.7346938775510203,621.6986182797979,electrolyte,0.005117251046704668,0.004371438331080165,-6.337886457778004e-05,0.004789366829084778
3,startup,8.73469387755102,0.7346938775510203,621.6986182797979,cathode,0.00884879870266217,0.00775133054887575,-6.367305591080573e-05,0.008355032185905678
3,startup,8.73469387755102,0.7346938775510203,621.6986182797979,interface_ae,0.017897226568392596,0.01618050408528948,-7.436999169051834e-05,0.017104089463523382
3,startup,8.73469387755102,0.7346938775510203,621.6986182797979,interface_ec,0.01779883333681134,0.015708626851867344,-6.873544343582935e-05,0.016851657726164544
3,startup,8.775510204081632,0.7755102040816326,635.6755838390422,anode,0.009360081705908414,0.007569405325117994,-5.310591703786757e-05,0.008606116134717021
3,startup,8.775510204081632,0.7755102040816326,635.6755838390422,electrolyte,0.0052854579665591855,0.0044483609313020435,-8.208389588502913e-05,0.0049226587802536454
3,startup,8.775510204081632,0.7755102040816326,635.6755838390422,cathode,0.009228585896091481,0.008224851046858711,2.106354452150584e-05,0.008769980560684346
3,startup,8.775510204081632,0.7755102040816326,635.6755838390422,interface_ae,0.018120625018444882,0.01617840546338891,-4.0204930027478996e-05,0.017231943735622743
3,startup,8.775510204081632,0.7755102040816326,635.6755838390422,interface_ec,0.018429906466786224,0.016383816576529882,-0.00026055767556885327,0.017502638710215387
3,startup,8.816326530612244,0.8163265306122448,648.5569013199622,anode,0.009355452275686302,0.00786610333993199,0.0002441788585329771,0.008717108728795706
3,startup,8.816326530612244,0.8163265306122448,648.5569013199622,electrolyte,0.005136207168827542,0.0047515268748814414,-3.5316859594895715e-06,0.004955082516427995
3,startup,8.816326530612244,0.8163265306122448,648.5569013199622,cathode,0.009172621864903363,0.008028839517886029,0.0001585679173100759,0.00866193848524164
3,startup,8.816326530612244,0.8163265306122448,648.5569013199622,interface_ae,0.01885766517413001,0.01681521707211854,5.545333515769916e-06,0.017923934274536597
3,startup,8.816326530612244,0.8163265306122448,648.5569013199622,interface_ec,0.018724061486343552,0.01637306194151197,-2.8708220311500922e-05,0.01766634908118031
3,startup,8.857142857142858,0.8571428571428571,660.4284580853368,anode,0.009302551792588277,0.008386419715778571,-7.892465948861971e-05,0.008881052248928585
3,startup,8.857142857142858,0.8571428571428571,660.4284580853368,electrolyte,0.00541778175547115,0.004723874018309754,2.8768204367572222e-05,0.005106555516978428
3,startup,8.857142857142858,0.8571428571428571,660.4284580853368,cathode,0.009845955167021796,0.008362074087640583,7.567270028534282e-05,0.009195199220282007
3,startup,8.857142857142858,0.8571428571428571,660.4284580853368,interface_ae,0.01943216025098462,0.017000558769046412,0.00011531696984548449,0.01833876119409266
3,startup,8.857142857142858,0.8571428571428571,660.4284580853368,interface_ec,0.018960520715063402,0.01678516396630096,-0.00013182762920299417,0.017973306920114486
3,startup,8.89795918367347,0.8979591836734693,671.3694088259941,anode,0.009774473386491633,0.008568619681065667,2.33851251561811e-06,0.009230809530932629
3,startup,8.89795918367347,0.8979591836734693,671.3694088259941,electrolyte,0.005626601741350458,0.00452906828517278,0.00016348628511603472,0.00517378260885986
3,startup,8.89795918367347,0.8979591836734693,671.3694088259941,cathode,0.009855043443886807,0.008499600849612505,-1.487295878173936e-05,0.009252125370405996
3,startup,8.89795918367347,0.8979591836734693,671.3694088259941,interface_ae,0.019445503255647218,0.017331625537498552,1.0160771869001077e-05,0.01847947427678144
3,startup,8.89795918367347,0.8979591836734693,671.3694088259941,interface_ec,0.019378187192993345,0.01703107898661097,0.00017820241127014728,0.018320360857030565
3,startup,8.938775510204081,0.9387755102040816,681.4527033319537,anode,0.00975183803573603,0.00864063937784081,0.00014634356542609947,0.009249925811196514
3,startup,8.938775510204081,0.9387755102040816,681.4527033319537,electrolyte,0.005535134517248636,0.00507245624047204,-9.112800569029586e-05,0.005321250957428551
3,startup,8.938775510204081,0.9387755102040816,681.4527033319537,cathode,0.009784556151997732,0.008943427705252669,-6.763397157635455e-05,0.009393012865935737
3,startup,8.938775510204081,0.9387755102040816,681.4527033319537,interface_ae,0.01962096950469293,0.01734441884130754,-9.891545179929868e-05,0.018588339056642235
3,startup,8.938775510204081,0.9387755102040816,681.4527033319537,interface_ec,0.01956846728892249,0.017315609131494374,4.668173416196121e-06,0.0185449552744253
3,startup,8.979591836734693,0.9795918367346939,690.7455728918258,anode,0.010220778333903143,0.00907723441713388,-8.560848720009114e-05,0.00970082883011673
3,startup,8.979591836734693,0.9795918367346939,690.7455728918258,electrolyte,0.005605926250668167,0.005048481502899461,0.00015163474657991973,0.005355477468820381
3,startup,8.979591836734693,0.9795918367346939,690.7455728918258,cathode,0.010108405989199142,0.008827125658485896,6.665425319826307e-05,0.009533266886431595
3,startup,8.979591836734693,0.9795918367346939,690.7455728918258,interface_ae,0.020064169626338682,0.017352343097877983,1.9279879250626882e-05,0.01885511796812595
3,startup,8.979591836734693,0.9795918367346939,690.7455728918258,interface_ec,0.020221248058309167,0.017496414602596058,1.2944664254744423e-05,0.01900590855140814
3,startup,9.020408163265307,1.0204081632653061,699.3099785635789,anode,0.010044394453756105,0.008418978115300577,2.0590177234679143e-06,0.009338390015393407
3,startup,9.020408163265307,1.0204081632653061,699.3099785635789,electrolyte,0.005715861432147688,0.0048743440023188795,-0.00011546369488847282,0.005348758927928279
3,startup,9.020408163265307,1.0204081632653061,699.3099785635789,cathode,0.00991677645170498,0.009034587537649064,0.0001972524773046905,0.009512568940287224
3,startup,9.020408163265307,1.0204081632653061,699.3099785635789,interface_ae,0.020462282155503705,0.017494630827877795,8.546273105507028e-05,0.019152256740237347
3,startup,9.020408163265307,1.0204081632653061,699.3099785635789,interface_ec,0.02005316301216076,0.01764704661634215,-4.61975597971284e-05,0.01896509692130599
3,startup,9.061224489795919,1.0612244897959182,707.2030243055624,anode,0.010352252205383375,0.009177564832852621,-9.8031071279788e-06,0.009817771870789154
3,startup,9.061224489795919,1.0612244897959182,707.2030243055624,electrolyte,0.00570548863629666,0.005127951199005632,5.6799453952424183e-05,0.005440652104186688
3,startup,9.061224489795919,1.0612244897959182,707.2030243055624,cathode,0.010446283956763995,0.008728839762460975,2.002733980403e-06,0.009702245377495616
3,startup,9.061224489795919,1.0612244897959182,707.2030243055624,interface_ae,0.020208472755646342,0.017961239859312948,-2.2617528768076095e-05,0.019183868658399966
3,startup,9.061224489795919,1.0612244897959182,707.2030243055624,interface_ec,0.020412727740044035,0.01781147973750352,-0.00014872897932074287,0.01924613568037908
3,startup,9.10204081632653,1.1020408163265305,714.4773377223732,anode,0.00990103135604996,0.009055292567172819,-4.310011058329391e-05,0.00950671250240547
3,startup,9.10204081632653,1.1020408163265305,714.4773377223732,electrolyte,0.0056475256221301074,0.0053532972690463,-8.59438186795311e-05,0.005508322143219674
3,startup,9.10204081632653,1.1020408163265305,714.4773377223732,cathode,0.010603285677820701,0.009406297346879639,-0.00019509004667893812,0.010064026002690988
3,startup,9.10204081632653,1.1020408163265305,714.4773377223732,interface_ae,0.020658314014585673,0.018083117897884377,-0.0002911803944717266,0.01950519728183023
3,startup,9.10204081632653,1.1020408163265305,714.4773377223732,interface_ec,0.020350909472172198,0.01831804441747327,0.00020191992527112643,0.0194176136264606
3,startup,9.142857142857142,1.1428571428571428,721.1814209642242,anode,0.010600799477810818,0.009234558681861049,-2.1332381631087508e-06,0.009988009432170085
3,startup,9.142857142857142,1.1428571428571428,721.1814209642242,electrolyte,0.0061754735329521485,0.005567915876411351,-5.868426795241862e-05,0.005896098283137675
3,startup,9.142857142857142,1.1428571428571428,721.1814209642242,cathode,0.010020266537208911,0.008750194694704212,0.0001321880992159802,0.009452237124578173
3,startup,9.142857142857142,1.1428571428571428,721.1814209642242,interface_ae,0.02083111599038706,0.01837631275680865,-0.00017906509929567133,0.019721089076358198
3,startup,9.142857142857142,1.1428571428571428,721.1814209642242,interface_ec,0.020689889915984243,0.01828056821193675,2.0783838336407063e-05,0.019596659686895994
3,startup,9.183673469387756,1.183673469387755,727.3599741194676,anode,0.010433024430650568,0.009043748458161053,-7.84566992602523e-05,0.009813368570341471
3,startup,9.183673469387756,1.183673469387755,727.3599741194676,electrolyte,0.006132425730449497,0.005232826668389544,6.121568069555517e-05,0.00573676227983717
3,startup,9.183673469387756,1.183673469387755,727.3599741194676,cathode,0.010332968076257854,0.008660449000741196,-5.231043068844964e-05,0.009606959573775749
3,startup,9.183673469387756,1.183673469387755,727.3599741194676,interface_ae,0.02085217156598154,0.01857222984936826,0.0003285723713681842,0.01981901452703195
3,startup,9.183673469387756,1.183673469387755,727.3599741194676,interface_ec,0.02116451888039029,0.01904961942751934,5.687696953394487e-05,0.020190555581824057
3,startup,9.224489795918368,1.2244897959183672,733.0541932565242,anode,0.010471995193486334,0.009395798963704948,0.00017806385994777082,0.009982288321148426
3,startup,9.224489795918368,1.2244897959183672,733.0541932565242,electrolyte,0.006304431559480258,0.005110829281781473,2.5318369569929896e-05,0.0058006450396503074
3,startup,9.224489795918368,1.2244897959183672,733.0541932565242,cathode,0.010312119065066648,0.009491149473019057,0.00015533546990558945,0.00993077246873657
3,startup,9.224489795918368,1.2244897959183672,733.0541932565242,interface_ae,0.021203904772824956,0.018518954685289517,3.601309512775627e-05,0.019997174786473164
3,startup,9.224489795918368,1.2244897959183672,733.0541932565242,interface_ec,0.021279436688274388,0.018668660262531465,1.7871512433595294e-05,0.02010163390944943
3,startup,9.26530612244898,1.2653061224489794,738.3020451024382,anode,0.010641757963052296,0.00959452940681391,7.36227445165127e-05,0.010159508270149343
3,startup,9.26530612244898,1.2653061224489794,738.3020451024382,electrolyte,0.005785912652075491,0.005062511167092083,-2.5437441702656202e-05,0.0054604485449227394
3,startup,9.26530612244898,1.2653061224489794,738.3020451024382,cathode,0.010823888357967206,0.009424949903946793,-6.431504101226553e-05,0.010197256670859672
3,startup,9.26530612244898,1.2653061224489794,738.3020451024382,interface_ae,0.021405345585637506,0.018724514738432802,8.804864602241314e-05,0.02019937673847984
3,startup,9.26530612244898,1.2653061224489794,738.3020451024382,interface_ec,0.02141965355330575,0.01872762120484683,2.3151877204646157e-05,0.02020860718304864
3,startup,9.306122448979592,1.3061224489795917,743.1385201895032,anode,0.011011921656031596,0.00934511658352227,4.02656981647161e-05,0.010280602842893883
3,startup,9.306122448979592,1.3061224489795917,743.1385201895032,electrolyte,0.006009005198012312,0.005385722330945269,-6.545649415957305e-05,0.005723999359884958
3,startup,9.306122448979592,1.3061224489795917,743.1385201895032,cathode,0.010770979130758631,0.009680607255314904,-9.370069812461075e-05,0.010270582700573187
3,startup,9.306122448979592,1.3061224489795917,743.1385201895032,interface_ae,0.021231943067588493,0.018659794084765695,-0.0001170662530200189,0.02007089309356449
3,startup,9.306122448979592,1.3061224489795917,743.1385201895032,interface_ec,0.021616888745832043,0.018636913260489996,-2.9789534474353077e-05,0.020291747008576326
3,startup,9.346938775510203,1.346938775510204,747.5958661578376,anode,0.010939286308960097,0.009601084846611919,-3.8555897996248514e-05,0.010335582172250758
3,startup,9.346938775510203,1.346938775510204,747.5958661578376,electrolyte,0.006098666204449014,0.005354652749073748,-2.242409555481863e-05,0.005762924977760848
3,startup,9.346938775510203,1.346938775510204,747.5958661578376,cathode,0.010773461504567039,0.009964838521453592,8.093109039313008e-05,0.010393715642786412
3,startup,9.346938775510203,1.346938775510204,747.5958661578376,interface_ae,0.02212738708009834,0.0189361134424203,-8.49665968881474e-06,0.02071692921123456
3,startup,9.346938775510203,1.346938775510204,747.5958661578376,interface_ec,0.02136483174354058,0.018873592708586486,0.0001901913148662501,0.02023724098668332
3,startup,9.387755102040817,1.3877551020408163,751.7038027694748,anode,0.010772708125419916,0.009955717445410567,-0.00012433622606798905,0.010390567380134727
3,startup,9.387755102040817,1.3877551020408163,751.7038027694748,electrolyte,0.005884241313187392,0.005295296661397117,-6.374992167917787e-06,0.0056130010783024065
3,startup,9.387755102040817,1.3877551020408163,751.7038027694748,cathode,0.011061732441878292,0.009662015268818928,-4.163152573440278e-05,0.010432786563012778
3,startup,9.387755102040817,1.3877551020408163,751.7038027694748,interface_ae,0.02172756680547291,0.019079909786806407,-9.146537353257299e-05,0.020532783541629056
3,startup,9.387755102040817,1.3877551020408163,751.7038027694748,interface_ec,0.02157663737945621,0.01934929914905003,-0.000182816492792714,0.02055612104674452
3,startup,9.428571428571429,1.4285714285714284,755.4897200675965,anode,0.011257253355984648,0.009553128977395714,-7.725086063921602e-05,0.010510182501985953
3,startup,9.428571428571429,1.4285714285714284,755.4897200675965,electrolyte,0.006274639832899941,0.005688528734618652,0.00011176324416039574,0.006006202483816073
3,startup,9.428571428571429,1.4285714285714284,755.4897200675965,cathode,0.011034152026367615,0.009839100520460529,-0.0001716497577143866,0.010492028877448595
3,startup,9.428571428571429,1.4285714285714284,755.4897200675965,interface_ae,0.021763197124693646,0.019061221633027352,0.00012246387312151753,0.020546989745344066
3,startup,9.428571428571429,1.4285714285714284,755.4897200675965,interface_ec,0.021790867629206498,0.019412536956388733,5.35856942488638e-05,0.020704615288212828
3,startup,9.46938775510204,1.4693877551020407,758.9788610021507,anode,0.01081354479034784,0.00955029379427565,0.00012938176908147258,0.010242975725392017
3,startup,9.46938775510204,1.4693877551020407,758.9788610021507,electrolyte,0.00600085520770051,0.0054422110509840015,-7.825412863264451e-05,0.005743550726378264
3,startup,9.46938775510204,1.4693877551020407,758.9788610021507,cathode,0.010923215740197405,0.009658453047476912,-7.828665102974914e-05,0.010349849149733699
3,startup,9.46938775510204,1.4693877551020407,758.9788610021507,interface_ae,0.021779922964364377,0.019392625539897304,-8.447374087911762e-05,0.020690347671493824
3,startup,9.46938775510204,1.4693877551020407,758.9788610021507,interface_ec,0.02180988084402142,0.01914756024380142,-7.790804633131842e-06,0.020608108608974694
3,startup,9.510204081632653,1.510204081632653,762.19448973953,anode,0.011222877205561966,0.01001134618050261,-7.259180859937787e-05,0.0106695700467667
3,startup,9.510204081632653,1.510204081632653,762.19448973953,electrolyte,0.006612983685513914,0.005240029971484592,0.00010835485233278698,0.00604751659245104
3,startup,9.510204081632653,1.510204081632653,762.19448973953,cathode,0.010889797587878908,0.009535855799266154,-7.447561567843888e-05,0.010280726516163807
3,startup,9.510204081632653,1.510204081632653,762.19448973953,interface_ae,0.02205778421743417,0.019536075340687034,6.69868037904822e-05,0.020911599931022082
3,startup,9.510204081632653,1.510204081632653,762.19448973953,interface_ec,0.021879476754294417,0.01922214904897806,-9.166386933635471e-05,0.020679873321975767
3,startup,9.551020408163264,1.5510204081632653,765.1580467785295,anode,0.011056223755175728,0.009707044158536316,-9.50175462069795e-05,0.010448474664007118
3,startup,9.551020408163264,1.5510204081632653,765.1580467785295,electrolyte,0.006261697905342253,0.005915357668213115,-5.047154618351514e-05,0.006096538067721502
3,startup,9.551020408163264,1.5510204081632653,765.1580467785295,cathode,0.010991792271412124,0.009861007593439363,-5.5881629173679494e-05,0.010472735521881488
3,startup,9.551020408163264,1.5510204081632653,765.1580467785295,interface_ae,0.022290782167649296,0.019354442017393173,0.00018321196075773012,0.0209797150679367
3,startup,9.551020408163264,1.5510204081632653,765.1580467785295,interface_ec,0.02222594426582412,0.019374145968933637,-5.88691699469274e-05,0.0209464039578902
3,startup,9.591836734693878,1.5918367346938773,767.8892919068342,anode,0.011016615257354234,0.010059600116198114,-0.00012687510076012833,0.010572933082970462
3,startup,9.591836734693878,1.5918367346938773,767.8892919068342,electrolyte,0.006097096049642837,0.005370670146301485,-1.5687966756937952e-06,0.005768292096397671
3,startup,9.591836734693878,1.5918367346938773,767.8892919068342,cathode,0.011065153269366482,0.009486804616670246,-3.998226835954676e-05,0.010366722111391207
3,startup,9.591836734693878,1.5918367346938773,767.8892919068342,interface_ae,0.022218840279154686,0.019444480798880722,6.867754890476648e-05,0.02097009855781268
3,startup,9.591836734693878,1.5918367346938773,767.8892919068342,interface_ec,0.02242263210154241,0.0195544230259508,2.305415868507293e-05,0.021135038472944134
3,startup,9.63265306122449,1.6326530612244896,770.4064359512107,anode,0.010724839970896655,0.009733984475490162,0.00010048216917579127,0.010266815981138868
3,startup,9.63265306122449,1.6326530612244896,770.4064359512107,electrolyte,0.006167108597793654,0.0053541280694195765,0.0002277688926030931,0.005816877392161032
3,startup,9.63265306122449,1.6326530612244896,770.4064359512107,cathode,0.011520866608405669,0.009911720012418959,0.00011389106114800476,0.010808324125957162
3,startup,9.63265306122449,1.6326530612244896,770.4064359512107,interface_ae,0.0218689152571414,0.019478899771719314,-4.699578731731515e-05,0.020777420634975716
3,startup,9.63265306122449,1.6326530612244896,770.4064359512107,interface_ec,0.022266906320959626,0.019538421255650265,-0.00025500262915163465,0.02104043501292808
3,startup,9.673469387755102,1.673469387755102,772.7262621998615,anode,0.011268978654733187,0.009957491708928618,0.00016018987915899816,0.010677440794674068
3,startup,9.673469387755102,1.673469387755102,772.7262621998615,electrolyte,0.0061135906687212645,0.005344669587519126,-0.0002679984485964469,0.0057863486977646475
3,startup,9.673469387755102,1.673469387755102,772.7262621998615,cathode,0.011133060363673297,0.01002898323948493,-6.117678621927194e-05,0.010624664224582624
3,startup,9.673469387755102,1.673469387755102,772.7262621998615,interface_ae,0.02281223642569168,0.01964620279938709,1.4699228428855561e-05,0.021405565637271643
3,startup,9.673469387755102,1.673469387755102,772.7262621998615,interface_ec,0.02211092684586663,0.01975496583558005,-0.00019793197948526954,0.021034939693771515
3,startup,9.714285714285714,1.7142857142857142,774.8642383065335,anode,0.011362513996623,0.01002180711219301,0.00013592914243365102,0.010757594932371977
3,startup,9.714285714285714,1.7142857142857142,774.8642383065335,electrolyte,0.006085190190430292,0.005566594285741254,5.6381655938650416e-05,0.0058439937822894195
3,startup,9.714285714285714,1.7142857142857142,774.8642383065335,cathode,0.011312230733286433,0.009703861621918957,-0.00023919818895561402,0.010608054496005869
3,startup,9.714285714285714,1.7142857142857142,774.8642383065335,interface_ae,0.02251694087061764,0.01972334301822987,-5.666705929614403e-05,0.021258484681182823
3,startup,9.714285714285714,1.7142857142857142,774.8642383065335,interface_ec,0.022600337883983836,0.019744859046260967,-0.00013191950527677995,0.021317749730621973
3,startup,9.755102040816327,1.7551020408163265,776.8346194225153,anode,0.010866976103859694,0.009677081921250831,0.00023930122947667869,0.010331905022522177
3,startup,9.755102040816327,1.7551020408163265,776.8346194225153,electrolyte,0.006450265066072167,0.005586747014326341,-1.8166092718580476e-05,0.006064870365140303
3,startup,9.755102040816327,1.7551020408163265,776.8346194225153,cathode,0.01120378797368945,0.010136313770949285,-4.905957419034316e-05,0.010710360966068292
3,startup,9.755102040816327,1.7551020408163265,776.8346194225153,interface_ae,0.022621917205494734,0.01973606355849661,0.00019401566318350626,0.02132858816910454
3,startup,9.755102040816327,1.7551020408163265,776.8346194225153,interface_ec,0.022654990824873534,0.020054860511491655,-5.8440977468823875e-05,0.021473555936827787
3,startup,9.795918367346939,1.7959183673469385,778.6505432441623,anode,0.011492074063329333,0.009864277734839009,1.1003482393284926e-05,0.01077084464779533
3,startup,9.795918367346939,1.7959183673469385,778.6505432441623,electrolyte,0.006647949574236221,0.005353872223947567,2.0324773130540037e-05,0.006104764372966895
3,startup,9.795918367346939,1.7959183673469385,778.6505432441623,cathode,0.011368047892519594,0.010030794096078108,-4.507844930934654e-05,0.010762197340696382
3,startup,9.795918367346939,1.7959183673469385,778.6505432441623,interface_ae,0.022978146501793313,0.01959460006276784,0.00014588853886324693,0.02148859762266223
3,startup,9.795918367346939,1.7959183673469385,778.6505432441623,interface_ec,0.022803906802750025,0.02023376419775663,-0.00015882270987078203,0.021635391838466356
3,startup,9.83673469387755,1.8367346938775508,780.324117609689,anode,0.01113173017245095,0.010247225505457754,-0.0001877039154630309,0.010721818695006283
3,startup,9.83673469387755,1.8367346938775508,780.324117609689,electrolyte,0.006013684690066729,0.005477117736499536,1.9199378862226754e-05,0.005764257889944434
3,startup,9.83673469387755,1.8367346938775508,780.324117609689,cathode,0.011623941484758647,0.009911783710639355,-6.082391480645393e-05,0.010869985131147607
3,startup,9.83673469387755,1.8367346938775508,780.324117609689,interface_ae,0.02267327092759707,0.019991593083909732,4.4123982217027124e-05,0.02145861232933073
3,startup,9.83673469387755,1.8367346938775508,780.324117609689,interface_ec,0.022575395698467515,0.019506656564467224,-9.176159891063322e-05,0.021208793250503555
3,startup,9.877551020408163,1.8775510204081631,781.866501229288,anode,0.01161263668706606,0.01000656636120638,-3.2252211910705674e-05,0.010898862424346532
3,startup,9.877551020408163,1.8775510204081631,781.866501229288,electrolyte,0.006571546300630114,0.005360139753566891,-2.253481337130077e-05,0.006057510696987797
3,startup,9.877551020408163,1.8775510204081631,781.866501229288,cathode,0.011356134151047375,0.009880877072952134,1.0076282290159877e-05,0.010695104188894898
3,startup,9.877551020408163,1.8775510204081631,781.866501229288,interface_ae,0.02261962615374078,0.019658436537664945,1.8147788187905596e-05,0.02129403947629531
3,startup,9.877551020408163,1.8775510204081631,781.866501229288,interface_ec,0.02239149458172256,0.019971428172241464,0.00013741358241501093,0.02128622781547264
3,startup,9.918367346938776,1.9183673469387754,783.2879780868515,anode,0.011293654129328628,0.00975357909053558,-1.2698781320498045e-05,0.010607820873007566
3,startup,9.918367346938776,1.9183673469387754,783.2879780868515,electrolyte,0.006193440433306273,0.005715556296857636,-1.4798874752285358e-05,0.005968918472868215
3,startup,9.918367346938776,1.9183673469387754,783.2879780868515,cathode,0.011691811419116755,0.010220473635665247,-1.5308050448140274e-05,0.011030022132547614
3,startup,9.918367346938776,1.9183673469387754,783.2879780868515,interface_ae,0.022842839351162297,0.019897104151226988,3.3956885165168263e-06,0.02152170402500838
3,startup,9.918367346938776,1.9183673469387754,783.2879780868515,interface_ec,0.022627430698297618,0.0201290426250295,0.00014329882767095782,0.021488882326626896
3,startup,9.959183673469388,1.9591836734693877,784.5980260093738,anode,0.0115291968694495,0.010189518480906991,9.230334372357293e-05,0.010922328619748914
3,startup,9.959183673469388,1.9591836734693877,784.5980260093738,electrolyte,0.006481073338093949,0.005378466263349712,0.00017009715194164998,0.0060133830564671024
3,startup,9.959183673469388,1.9591836734693877,784.5980260093738,cathode,0.011730349393350957,0.009958355239987246,-3.7069791521618194e-05,0.010952582897930664
3,startup,9.959183673469388,1.9591836734693877,784.5980260093738,interface_ae,0.02286141678660562,0.020120424888336538,-2.019460687530188e-05,0.021621648395732267
3,startup,9.959183673469388,1.9591836734693877,784.5980260093738,interface_ec,0.022488929324905024,0.020071402559449794,5.514365381755453e-05,0.021383122123313652
3,startup,10.0,2.0,785.805379861231,anode,0.011532702818498441,0.01009089251269464,-2.7111514836190937e-05,0.010883762519595441
3,startup,10.0,2.0,785.805379861231,electrolyte,0.006579748755124484,0.005628404245069624,-4.6492301436472064e-05,0.006159953474168803
3,startup,10.0,2.0,785.805379861231,cathode,0.011351407912481537,0.009671840151728802,-1.8224182417853887e-05,0.01061183052314846
3,startup,10.0,2.0,785.805379861231,interface_ae,0.022912764481756297,0.020110024520875444,0.0001520664172981186,0.02164950298374748
3,startup,10.0,2.0,785.805379861231,interface_ec,0.022722482194978223,0.020139530549058263,7.92740176305772e-05,0.021547868029830025
3,operation,12.0,2.0,800.0,anode,0.01206857140165748,0.010236953098223528,-0.00010441871788640234,0.011266451740310202
3,operation,12.0,2.0,800.0,electrolyte,0.006669585750671057,0.006093145471193692,-3.225487102266215e-05,0.006401106212004089
3,operation,12.0,2.0,800.0,cathode,0.011768216307721282,0.010453745611045784,0.00010170655439701535,0.01117053290844798
3,operation,12.0,2.0,800.0,interface_ae,0.023225111704494716,0.02027630524835737,-8.127954801358576e-06,0.021900116713256063
3,operation,12.0,2.0,800.0,interface_ec,0.023291720090775524,0.020597644504818345,3.339450479990393e-05,0.022068438077427057
3,operation,12.122448979591837,2.122448979591837,800.0,anode,0.011524018406691884,0.010319075931229953,8.600850677428204e-05,0.010972296921357446
3,operation,12.122448979591837,2.122448979591837,800.0,electrolyte,0.006575922011282897,0.005552762577092335,-1.8140603471718996e-05,0.006128815230237044
3,operation,12.122448979591837,2.122448979591837,800.0,cathode,0.011789564155282492,0.009931396438251106,-0.00020931780223911592,0.010985038213494103
3,operation,12.122448979591837,2.122448979591837,800.0,interface_ae,0.0235016165700288,0.020518283051004376,6.0673000252010645e-05,0.022161320887181767
3,operation,12.122448979591837,2.122448979591837,800.0,interface_ec,0.022984636605274587,0.02056350561269331,2.7524868756836424e-05,0.02187484518749145
3,operation,12.244897959183673,2.2448979591836733,800.0,anode,0.011283134484430319,0.010492856682854771,1.586833236187289e-05,0.010909519122953253
3,operation,12.244897959183673,2.2448979591836733,800.0,electrolyte,0.0064207832067841464,0.005644402050802957,-0.00020152219054323767,0.0060799739456136115
3,operation,12.244897959183673,2.2448979591836733,800.0,cathode,0.011718667319926272,0.010260371441449145,-1.9408013233309493e-05,0.01106190021575549
3,operation,12.244897959183673,2.2448979591836733,800.0,interface_ae,0.023455697041490333,0.020139228196200832,-5.9677247636761525e-05,0.021986115731137207
3,operation,12.244897959183673,2.2448979591836733,800.0,interface_ec,0.023029998349047922,0.02036024100404569,6.7470025257223e-06,0.021817975560457312
3,operation,12.36734693877551,2.36734693877551,800.0,anode,0.01168600270476227,0.010138605309378976,-8.773557351548937e-05,0.010995330843578066
3,operation,12.36734693877551,2.36734693877551,800.0,electrolyte,0.006837201389954089,0.006202328038357714,1.4328667188202532e-05,0.006542953919254512
3,operation,12.36734693877551,2.36734693877551,800.0,cathode,0.011448643926595826,0.010503090826208459,-0.00014467571063284652,0.011009223898502079
3,operation,12.36734693877551,2.36734693877551,800.0,interface_ae,0.023133045335059034,0.02027677658973074,-0.00011595355504504888,0.021846331475225467
3,operation,12.36734693877551,2.36734693877551,800.0,interface_ec,0.023143995153415645,0.020243165584165206,1.265446414865449e-06,0.021838556343394395
3,operation,12.489795918367347,2.489795918367347,800.0,anode,0.011605435433534492,0.010083733655295603,-3.7051335659386965e-05,0.010924551000924921
3,operation,12.489795918367347,2.489795918367347,800.0,electrolyte,0.006453830206419258,0.005881969212223886,-1.4842940106418566e-05,0.0061878038519634524
3,operation,12.489795918367347,2.489795918367347,800.0,cathode,0.011764940348157218,0.010325162596710931,5.71530696900742e-05,0.01111565029267352
3,operation,12.489795918367347,2.489795918367347,800.0,interface_ae,0.02347756919406919,0.020192121824050818,-4.731831063071136e-05,0.022019600786298357
3,operation,12.489795918367347,2.489795918367347,800.0,interface_ec,0.02355265976005991,0.020364536699882148,-0.000281512368990585,0.022136866994949822
3,operation,12.612244897959183,2.612244897959184,800.0,anode,0.011559406331370422,0.01023498790603265,-0.0002617113117431211,0.010966765548690763
3,operation,12.612244897959183,2.612244897959184,800.0,electrolyte,0.00676678712797759,0.00557725750722688,3.2856311518751555e-05,0.0062576619946736025
3,operation,12.612244897959183,2.612244897959184,800.0,cathode,0.011554803690931186,0.009950329716159192,-0.000107050813463542,0.010843561356674695
3,operation,12.612244897959183,2.612244897959184,800.0,interface_ae,0.02301298343271449,0.020633134381836726,-1.4753818810015182e-05,0.021920180524454002
3,operation,12.612244897959183,2.612244897959184,800.0,interface_ec,0.02309562689668965,0.020229078217481954,0.00011961502215261264,0.02180512021443028
3,operation,12.73469387755102,2.7346938775510203,800.0,anode,0.011892840254504716,0.010444948779741337,4.924373391541667e-05,0.011239384852501045
3,operation,12.73469387755102,2.7346938775510203,800.0,electrolyte,0.006557966008374143,0.00547681243640482,-2.4581912671105755e-05,0.0060899470974432384
3,operation,12.73469387755102,2.7346938775510203,800.0,cathode,0.011463227959330712,0.009842897578203058,0.00010570434191653658,0.010746644568747547
3,operation,12.73469387755102,2.7346938775510203,800.0,interface_ae,0.023060834010721544,0.020655188381487062,8.817464007600121e-05,0.021957602918364516
3,operation,12.73469387755102,2.7346938775510203,800.0,interface_ec,0.023311343595326682,0.020538576814352637,-6.153138820737077e-05,0.022056323697190832
3,operation,12.857142857142858,2.857142857142857,800.0,anode,0.011971570030258132,0.01021662508619061,3.019316851187039e-05,0.011197839493902628
3,operation,12.857142857142858,2.857142857142857,800.0,electrolyte,0.006370184733286673,0.005533766947844608,4.7729600880942323e-05,0.005996461188478641
3,operation,12.857142857142858,2.857142857142857,800.0,cathode,0.011643502699187756,0.010050129526819485,-0.0001438426718775404,0.010937075499505833
3,operation,12.857142857142858,2.857142857142857,800.0,interface_ae,0.02294601538253449,0.02065522674341822,-6.132538146500716e-05,0.021890960362226045
3,operation,12.857142857142858,2.857142857142857,800.0,interface_ec,0.023132218290864832,0.020706068051751812,-0.00011221505614864148,0.0220204738313655
3,operation,12.979591836734695,2.979591836734694,800.0,anode,0.011454601034856588,0.010054246634287861,0.00016180684811660395,0.010826214514653845
3,operation,12.979591836734695,2.979591836734694,800.0,electrolyte,0.006898676700116483,0.005870312645080434,7.8338472415424e-05,0.006447738552817327
3,operation,12.979591836734695,2.979591836734694,800.0,cathode,0.011483928999429453,0.010597465697380857,2.676962543586619e-05,0.011067452763261642
3,operation,12.979591836734695,2.979591836734694,800.0,interface_ae,0.023370622052889947,0.020394895012245808,-2.680325873276106e-05,0.022034030266930828
3,operation,12.979591836734695,2.979591836734694,800.0,interface_ec,0.02353260845191922,0.020523944735947663,0.0001451375461070382,0.02218326412946388
3,operation,13.10204081632653,3.1020408163265305,800.0,anode,0.011651065634349008,0.010038326692715382,-5.8334293287848795e-05,0.010934730848038568
3,operation,13.10204081632653,3.1020408163265305,800.0,electrolyte,0.006520593048492923,0.005594699956791335,-0.00011074614086276907,0.006113496036398973
3,operation,13.10204081632653,3.1020408163265305,800.0,cathode,0.011840283406357404,0.010099025985835298,1.381927477913204e-05,0.011072844265230478
3,operation,13.10204081632653,3.1020408163265305,800.0,interface_ae,0.02325922671797712,0.020298369374935888,0.00014507994663087395,0.02193066793500512
3,operation,13.10204081632653,3.1020408163265305,800.0,interface_ec,0.022976571647759077,0.020468325052716153,2.4611770637658364e-05,0.021830828094295027
3,operation,13.224489795918368,3.2244897959183674,800.0,anode,0.01158914907942717,0.009948617477345604,8.708175518634643e-05,0.010863245588351583
3,operation,13.224489795918368,3.2244897959183674,800.0,electrolyte,0.00664870213406692,0.005584886294281757,7.074872072053618e-05,0.006186999734018162
3,operation,13.224489795918368,3.2244897959183674,800.0,cathode,0.011674981537260154,0.009951877570927779,-8.539289145713574e-05,0.010916911194022778
3,operation,13.224489795918368,3.2244897959183674,800.0,interface_ae,0.023427656288977913,0.02047788323702841,-5.6430294581062614e-05,0.022101120428507037
3,operation,13.224489795918368,3.2244897959183674,800.0,interface_ec,0.02302830482176547,0.020312921240376917,-4.444795298777046e-05,0.02179796726760463
3,operation,13.346938775510203,3.3469387755102042,800.0,anode,0.011430807393474149,0.009859647177523339,0.00011400132864007855,0.010733650878748667
3,operation,13.346938775510203,3.3469387755102042,800.0,electrolyte,0.006694126734522289,0.005465348909638628,1.3631129556366768e-05,0.00617221116096241
3,operation,13.346938775510203,3.3469387755102042,800.0,cathode,0.011419552359457045,0.010155686555354693,-3.447665798736565e-05,0.010843169142631877
3,operation,13.346938775510203,3.3469387755102042,800.0,interface_ae,0.023114433156856424,0.020816589416815256,-4.403256846761905e-05,0.022055601716652506
3,operation,13.346938775510203,3.3469387755102042,800.0,interface_ec,0.023038347234986614,0.02026348371410059,0.00010437769564017552,0.02178462131104259
3,operation,13.46938775510204,3.4693877551020407,800.0,anode,0.011269579533661412,0.010055475416712896,0.0001446822840111534,0.010717174424918841
3,operation,13.46938775510204,3.4693877551020407,800.0,electrolyte,0.00654879723759953,0.005758384401007223,0.00021321464601437015,0.006202549940663704
3,operation,13.46938775510204,3.4693877551020407,800.0,cathode,0.011649269590589699,0.010066362767728083,-2.8207705687634867e-05,0.010944119640783422
3,operation,13.46938775510204,3.4693877551020407,800.0,interface_ae,0.022972913538193886,0.02066718740800314,5.745617175367154e-05,0.02191145330698463
3,operation,13.46938775510204,3.4693877551020407,800.0,interface_ec,0.023424882829994175,0.020658596785709873,-4.142107809275326e-05,0.02217166423012222
3,operation,13.591836734693878,3.5918367346938775,800.0,anode,0.011411049429598221,0.010197657377738392,-8.727610707885384e-05,0.010856387245838133
3,operation,13.591836734693878,3.5918367346938775,800.0,electrolyte,0.006532991375081805,0.005946419376166938,-1.681396460491672e-05,0.006260417025665793
3,operation,13.591836734693878,3.5918367346938775,800.0,cathode,0.011629999017981547,0.010189230876755327,8.027275724376978e-05,0.010981615959142385
3,operation,13.591836734693878,3.5918367346938775,800.0,interface_ae,0.02306644352114234,0.01997671074767138,4.708688593753808e-05,0.021687433465841493
3,operation,13.591836734693878,3.5918367346938775,800.0,interface_ec,0.023397566884261596,0.020505274848951708,-6.402304954680139e-05,0.022094143790349775
3,operation,13.714285714285715,3.7142857142857144,800.0,anode,0.011372997580362785,0.010306899506356064,1.4147895293467363e-05,0.010879223719505653
3,operation,13.714285714285715,3.7142857142857144,800.0,electrolyte,0.006474841474468335,0.006084492668598758,-9.468000941813318e-05,0.006290897438723335
3,operation,13.714285714285715,3.7142857142857144,800.0,cathode,0.011955007404225492,0.010214356780974128,-0.00018355704768708748,0.011191231170315388
3,operation,13.714285714285715,3.7142857142857144,800.0,interface_ae,0.02316415946913617,0.02060789921531989,-3.6505503280497074e-05,0.02199779825773721
3,operation,13.714285714285715,3.7142857142857144,800.0,interface_ec,0.02290504429175232,0.020383097093640765,-8.571723738917058e-05,0.021754493828571357
3,operation,13.83673469387755,3.836734693877551,800.0,anode,0.011698362880217592,0.010362679963213522,-0.00010562704077481062,0.01109251597660498
3,operation,13.83673469387755,3.836734693877551,800.0,electrolyte,0.00635883918897687,0.005871328493021388,-8.588442782989592e-05,0.006131445897688646
3,operation,13.83673469387755,3.836734693877551,800.0,cathode,0.0113835683728344,0.009972261773640748,3.5203861295812044e-05,0.010747810380934354
3,operation,13.83673469387755,3.836734693877551,800.0,interface_ae,0.023261831543903492,0.020279190793924193,5.085396128234085e-07,0.02192321296512484
3,operation,13.83673469387755,3.836734693877551,800.0,interface_ec,0.023505426476831025,0.020221187968616355,-0.00019517426090104496,0.022050128086378247
3,operation,13.959183673469388,3.9591836734693877,800.0,anode,0.011691015115144074,0.010185919767219682,-7.100250868151014e-05,0.011016541110315477
3,operation,13.959183673469388,3.9591836734693877,800.0,electrolyte,0.006630416047470982,0.005887845028933758,-0.00022082780198800928,0.006303694840078207
3,operation,13.959183673469388,3.9591836734693877,800.0,cathode,0.011469480418133702,0.010671503246239371,5.834049157981909e-05,0.01109250088665899
3,operation,13.959183673469388,3.9591836734693877,800.0,interface_ae,0.02333522072765943,0.020650578855726295,1.7068825199726119e-06,0.022115449949598364
3,operation,13.959183673469388,3.9591836734693877,800.0,interface_ec,0.023359336832018324,0.02055961240876744,5.3904149675275894e-05,0.022093123029810573
3,operation,14.081632653061224,4.081632653061225,800.0,anode,0.011535597605876519,0.010242411784473252,-5.883615643067782e-05,0.010946919909634862
3,operation,14.081632653061224,4.081632653061225,800.0,electrolyte,0.0065025628609133,0.005486301821580147,-7.906239912729526e-05,0.006060244348019462
3,operation,14.081632653061224,4.081632653061225,800.0,cathode,0.011543537591615013,0.010019258913713984,-5.050172707451765e-05,0.010862263515114953
3,operation,14.081632653061224,4.081632653061225,800.0,interface_ae,0.023167214804648895,0.020496452468932877,9.492573018529092e-05,0.02195462869687568
3,operation,14.081632653061224,4.081632653061225,800.0,interface_ec,0.02310724312572438,0.020683020923453727,9.386110786254934e-05,0.021996155938285654
3,operation,14.204081632653061,4.204081632653061,800.0,anode,0.011700818766388787,0.010238729825859324,3.191208418685414e-05,0.011042747905470331
3,operation,14.204081632653061,4.204081632653061,800.0,electrolyte,0.006737410230133277,0.005964715931951855,0.00013349467283836432,0.0063904035163080365
3,operation,14.204081632653061,4.204081632653061,800.0,cathode,0.0116082653663754,0.010318993432999723,0.00013435465066220513,0.011022794097632406
3,operation,14.204081632653061,4.204081632653061,800.0,interface_ae,0.02307525679301672,0.02035231662925634,1.6036663013478343e-06,0.02184145927825178
3,operation,14.204081632653061,4.204081632653061,800.0,interface_ec,0.02337991974759588,0.020599034430143725,-2.3086411119793532e-05,0.0221210011968419
3,operation,14.326530612244898,4.326530612244898,800.0,anode,0.011298278109124057,0.010257236788859193,-9.183161373284012e-05,0.010816569698292101
3,operation,14.326530612244898,4.326530612244898,800.0,electrolyte,0.006202012759071956,0.005467225687853257,3.263810078455605e-05,0.005869489862815207
3,operation,14.326530612244898,4.326530612244898,800.0,cathode,0.01187220747218656,0.01021577890324725,2.113806546459647e-05,0.011136828214836166
3,operation,14.326530612244898,4.326530612244898,800.0,interface_ae,0.023436578987775583,0.02010710901818329,5.201764216002716e-05,0.02196213415185719
3,operation,14.326530612244898,4.326530612244898,800.0,interface_ec,0.023197682043136235,0.020529211491766414,-4.834839084038161e-05,0.021985401260075157
3,operation,14.448979591836736,4.448979591836735,800.0,anode,0.011436412541914702,0.010236101780857121,0.00016491913233344617,0.010889748558651356
3,operation,14.448979591836736,4.448979591836735,800.0,electrolyte,0.006672182020908293,0.005618461445963982,-0.00013409720359812798,0.006217046780829847
3,operation,14.448979591836736,4.448979591836735,800.0,cathode,0.011263586543260443,0.010471219890370096,-9.550822881358275e-05,0.010890303109951517
3,operation,14.448979591836736,4.448979591836735,800.0,interface_ae,0.02313489731740101,0.020680242225215514,-0.00016139014554789917,0.022012240965839293
3,operation,14.448979591836736,4.448979591836735,800.0,interface_ec,0.02349845290189501,0.0203652719092215,-0.00011485833152387388,0.02209997247136156
3,operation,14.571428571428571,4.571428571428571,800.0,anode,0.011550529814570217,0.010063480643719704,4.408197989057157e-05,0.010883734566453517
3,operation,14.571428571428571,4.571428571428571,800.0,electrolyte,0.006370373513222445,0.005337671557816191,-2.2056253440898947e-05,0.005922068412120929
3,operation,14.571428571428571,4.571428571428571,800.0,cathode,0.011328690989542691,0.010248863976797664,-0.00011871303322833243,0.010831182655519434
3,operation,14.571428571428571,4.571428571428571,800.0,interface_ae,0.023102397439365582,0.02045251756084287,-2.124587250342695e-05,0.02189806856455817
3,operation,14.571428571428571,4.571428571428571,800.0,interface_ec,0.023250086056600207,0.02055205743314355,-0.00011579336997313062,0.02202627264716748
3,operation,14.693877551020408,4.6938775510204085,800.0,anode,0.011587120491875057,0.009542099240498375,2.4733330168252383e-05,0.010712114673421397
3,operation,14.693877551020408,4.6938775510204085,800.0,electrolyte,0.006439837173925032,0.005523310047304406,3.157194222965241e-05,0.006034254693181624
3,operation,14.693877551020408,4.6938775510204085,800.0,cathode,0.011834539515437012,0.01011279645048021,-9.448144902417202e-05,0.011075715264448395
3,operation,14.693877551020408,4.6938775510204085,800.0,interface_ae,0.02323300505248774,0.020148878666670728,-6.603813705355391e-05,0.02185506619836812
3,operation,14.693877551020408,4.6938775510204085,800.0,interface_ec,0.0234444804323301,0.020428435845962458,-0.00018794669639461665,0.022093812737569586
3,operation,14.816326530612244,4.816326530612245,800.0,anode,0.01124060167054412,0.010240417138529355,8.623905759176877e-05,0.010776415480931785
3,operation,14.816326530612244,4.816326530612245,800.0,electrolyte,0.00617647570827477,0.005809942521499302,0.0001330343507489719,0.006006031122376781
3,operation,14.816326530612244,4.816326530612245,800.0,cathode,0.011977571797591726,0.010274244551971975,5.068025945524742e-05,0.011223614879308088
3,operation,14.816326530612244,4.816326530612245,800.0,interface_ae,0.02277336311447437,0.0208359505095992,-5.7549021309612136e-05,0.021869343155691945
3,operation,14.816326530612244,4.816326530612245,800.0,interface_ec,0.02301330576831499,0.020364958773112077,0.0001511673414185431,0.021811632669451683
3,operation,14.938775510204081,4.938775510204081,800.0,anode,0.012041609209508709,0.01023308173589517,9.980841726036553e-05,0.011248263335106165
3,operation,14.938775510204081,4.938775510204081,800.0,electrolyte,0.006508640809737102,0.005512440905396363,0.0001476743670788291,0.0060775270664647635
3,operation,14.938775510204081,4.938775510204081,800.0,cathode,0.011475574503928722,0.010515106154674377,0.0001298541329769084,0.011029051175516332
3,operation,14.938775510204081,4.938775510204081,800.0,interface_ae,0.02332280725279144,0.02078179495125087,0.00022323460331857384,0.022165198907205756
3,operation,14.938775510204081,4.938775510204081,800.0,interface_ec,0.023164951327407136,0.020254241176316714,-0.00018642698372564725,0.02185783634460159
3,operation,15.061224489795919,5.061224489795919,800.0,anode,0.01204893645108605,0.01012006359821631,0.00011350368571017396,0.011211387198665686
3,operation,15.061224489795919,5.061224489795919,800.0,electrolyte,0.006351748926498104,0.006027653128182407,-7.001175918154134e-05,0.006197247962764805
3,operation,15.061224489795919,5.061224489795919,800.0,cathode,0.01136165617327653,0.01016629871380925,-5.3177570096163734e-05,0.010814035026710066
3,operation,15.061224489795919,5.061224489795919,800.0,interface_ae,0.02331925995709224,0.020405721014561496,6.277023945519215e-05,0.022007881370749584
3,operation,15.061224489795919,5.061224489795919,800.0,interface_ec,0.02314179570538294,0.02028297852579624,-5.835605478960735e-05,0.021853320051981522
3,operation,15.183673469387756,5.183673469387755,800.0,anode,0.012008987759606205,0.010253034186445388,-0.00019837622094530445,0.011239661666173607
3,operation,15.183673469387756,5.183673469387755,800.0,electrolyte,0.006395958197309184,0.005739373206495175,0.00018453996812503788,0.006102627299546361
3,operation,15.183673469387756,5.183673469387755,800.0,cathode,0.011805739743177978,0.010023656432703617,0.00024183557535724511,0.011031226286389337
3,operation,15.183673469387756,5.183673469387755,800.0,interface_ae,0.023193767927039702,0.02066526596221499,-0.00011550084973999027,0.022039481082892172
3,operation,15.183673469387756,5.183673469387755,800.0,interface_ec,0.02272036738094982,0.020134313701926327,-0.0003250333476195706,0.021551418002837847
3,operation,15.306122448979592,5.3061224489795915,800.0,anode,0.012022417865450582,0.010250906583777284,-9.246440184480313e-05,0.011242979305672956
3,operation,15.306122448979592,5.3061224489795915,800.0,electrolyte,0.006590524805996025,0.005757866807236034,6.209333956139913e-05,0.006217093381481644
3,operation,15.306122448979592,5.3061224489795915,800.0,cathode,0.011841906280227252,0.010150015769394997,-8.798393061009868e-05,0.011094199047285267
3,operation,15.306122448979592,5.3061224489795915,800.0,interface_ae,0.02336555504287438,0.02057646655557689,1.0073580812134493e-05,0.02210339071077698
3,operation,15.306122448979592,5.3061224489795915,800.0,interface_ec,0.023635510837736153,0.02032843557542767,-8.998579716352683e-05,0.02216831068166648
3,operation,15.428571428571429,5.428571428571429,800.0,anode,0.01168361828550132,0.0100730124286173,4.9551652414489566e-05,0.010967709401970645
3,operation,15.428571428571429,5.428571428571429,800.0,electrolyte,0.006333398348832113,0.005639951543413623,0.00018908404200391655,0.006025627485110218
3,operation,15.428571428571429,5.428571428571429,800.0,cathode,0.011518882528650463,0.010048229691196542,0.00011706787887065003,0.010860401091437268
3,operation,15.428571428571429,5.428571428571429,800.0,interface_ae,0.02298979160994266,0.020277411353970588,5.7656112050899455e-05,0.02176098437000557
3,operation,15.428571428571429,5.428571428571429,800.0,interface_ec,0.023387682284774655,0.020660095278216214,-7.472218322204848e-05,0.022150580701923748
3,operation,15.551020408163264,5.551020408163265,800.0,anode,0.011719201734597224,0.010114778360091165,-6.0565563351063234e-05,0.011005558006284841
3,operation,15.551020408163264,5.551020408163265,800.0,electrolyte,0.006740642556458457,0.005610089120828083,2.7820459602097985e-05,0.006252685701209636
3,operation,15.551020408163264,5.551020408163265,800.0,cathode,0.011631115893846126,0.0099938491247323,9.660928553563208e-05,0.010906340354618209
3,operation,15.551020408163264,5.551020408163265,800.0,interface_ae,0.023312056178735788,0.020018741877625916,2.7742111123734322e-05,0.02185237431582458
3,operation,15.551020408163264,5.551020408163265,800.0,interface_ec,0.023045405313166675,0.020635415061282525,-0.00014453998367807582,0.021941336156385313
3,operation,15.673469387755102,5.673469387755102,800.0,anode,0.01152870460627409,0.010280404910197693,5.434029414187519e-06,0.010958014973516433
3,operation,15.673469387755102,5.673469387755102,800.0,electrolyte,0.006652591651342795,0.005416315602798143,0.0001651914336867378,0.006135371142621143
3,operation,15.673469387755102,5.673469387755102,800.0,cathode,0.011705028931757653,0.01047994364260018,8.742401692332417e-05,0.011144137758558976
3,operation,15.673469387755102,5.673469387755102,800.0,interface_ae,0.02319767797710899,0.020159160357817767,-5.635531812487009e-05,0.02183776150061961
3,operation,15.673469387755102,5.673469387755102,800.0,interface_ec,0.023517912666572514,0.020693087556331275,-6.1959998010369e-05,0.022240714466469982
3,operation,15.795918367346939,5.795918367346939,800.0,anode,0.011036339142759564,0.010165462053138976,-2.877028881291165e-05,0.010627812420958315
3,operation,15.795918367346939,5.795918367346939,800.0,electrolyte,0.006450045477591924,0.00582570784036628,8.762125793216633e-05,0.006163514455998922
3,operation,15.795918367346939,5.795918367346939,800.0,cathode,0.011798059909419904,0.010297141828027073,-0.0001800770701922636,0.011128177502337747
3,operation,15.795918367346939,5.795918367346939,800.0,interface_ae,0.02313176005346134,0.02087681795670984,3.7421673480247834e-05,0.02209086935045892
3,operation,15.795918367346939,5.795918367346939,800.0,interface_ec,0.02327356391368877,0.02048789718795477,4.1537962250598984e-05,0.022013439076499046
3,operation,15.918367346938776,5.918367346938775,800.0,anode,0.011123377563782814,0.010160095136617786,-3.7892831794689445e-06,0.01067438665212382
3,operation,15.918367346938776,5.918367346938775,800.0,electrolyte,0.006756299079850683,0.005729534578924459,-0.00016465113866019412,0.006312370754028043
3,operation,15.918367346938776,5.918367346938775,800.0,cathode,0.01168601783123435,0.01004723507035145,-0.00012167856410814177,0.010960939473557339
3,operation,15.918367346938776,5.918367346938775,800.0,interface_ae,0.02303316819065668,0.020524500845932905,0.00012587612397600684,0.021888015585152826
3,operation,15.918367346938776,5.918367346938775,800.0,interface_ec,0.023296585989035515,0.020542404644723403,4.730452728380012e-05,0.022049039077919535
3,operation,16.04081632653061,6.040816326530612,800.0,anode,0.011620265435372094,0.010347386126992552,-0.00024187754670694208,0.011046950227752634
3,operation,16.04081632653061,6.040816326530612,800.0,electrolyte,0.006522217670260967,0.00551101499307555,0.00011629025725441394,0.00608334944706075
3,operation,16.04081632653061,6.040816326530612,800.0,cathode,0.011570568938956628,0.010214189617653566,-0.00015050718742538034,0.010958636193901786
3,operation,16.04081632653061,6.040816326530612,800.0,interface_ae,0.02340336617780257,0.02054146562405476,5.569478823405032e-05,0.02211197011431475
3,operation,16.04081632653061,6.040816326530612,800.0,interface_ec,0.023037395429566235,0.020261272031012374,2.235994544459053e-05,0.021782453872553516
3,operation,16.163265306122447,6.163265306122449,800.0,anode,0.011461100317950388,0.010294978592535468,-0.00021609126027667222,0.010931226308012713
3,operation,16.163265306122447,6.163265306122449,800.0,electrolyte,0.006402491088718682,0.006079350693085298,4.394858279957648e-05,0.00624765578331223
3,operation,16.163265306122447,6.163265306122449,800.0,cathode,0.011633358732906197,0.010605045307134272,-0.0002335953618801436,0.01116214250569822
3,operation,16.163265306122447,6.163265306122449,800.0,interface_ae,0.023036937777042375,0.020335765365650522,8.583512330053902e-05,0.02181266138687036
3,operation,16.163265306122447,6.163265306122449,800.0,interface_ec,0.023375131272645646,0.020242798658203474,9.979543221425498e-05,0.021977703723401406
3,operation,16.285714285714285,6.285714285714286,800.0,anode,0.011519337046535658,0.010450327925129833,-0.00010326426981220579,0.011025226557595205
3,operation,16.285714285714285,6.285714285714286,800.0,electrolyte,0.006475337680186768,0.005621966536924688,0.00010560303715657138,0.006096378438533821
3,operation,16.285714285714285,6.285714285714286,800.0,cathode,0.011495443756686765,0.010199510294197649,5.068113976630492e-05,0.010905734555988415
3,operation,16.285714285714285,6.285714285714286,800.0,interface_ae,0.023309051696605222,0.020593390521494635,2.1112477684466676e-05,0.022076878336894538
3,operation,16.285714285714285,6.285714285714286,800.0,interface_ec,0.023116350216944033,0.02034606025092825,2.5672315207612033e-06,0.021863238107913987
3,operation,16.408163265306122,6.408163265306122,800.0,anode,0.011649918495214876,0.010178565670430312,1.920342096554723e-06,0.010988373430897229
3,operation,16.408163265306122,6.408163265306122,800.0,electrolyte,0.006196549227885579,0.005853471056890936,1.811122888894299e-05,0.006032413135659455
3,operation,16.408163265306122,6.408163265306122,800.0,cathode,0.011800374082708218,0.010208032101481418,-0.00017383975785217862,0.011094359432395475
3,operation,16.408163265306122,6.408163265306122,800.0,interface_ae,0.023128310762138664,0.020376014015376316,7.429033054335989e-05,0.021882743858647885
3,operation,16.408163265306122,6.408163265306122,800.0,interface_ec,0.02278594529109732,0.020424235903389786,5.1367521579330613e-05,0.021701868790634387
3,operation,16.53061224489796,6.530612244897959,800.0,anode,0.011467702422943695,0.010222925601963369,-6.270365091498446e-05,0.010899299668913252
3,operation,16.53061224489796,6.530612244897959,800.0,electrolyte,0.006354085413355922,0.005638316029973737,-7.106919924670108e-05,0.006029412902213531
3,operation,16.53061224489796,6.530612244897959,800.0,cathode,0.011736723662387266,0.010061009624632924,-9.029100070479274e-05,0.010996170454284849
3,operation,16.53061224489796,6.530612244897959,800.0,interface_ae,0.023553585733367906,0.020608148002364806,-0.00018615133606592003,0.022230054906963413
3,operation,16.53061224489796,6.530612244897959,800.0,interface_ec,0.023047046342029493,0.020464492594344543,3.237550672314934e-05,0.021870501539012918
3,operation,16.653061224489797,6.653061224489796,800.0,anode,0.01130190142685262,0.010439713098564464,8.25224419181626e-05,0.010897357796195113
3,operation,16.653061224489797,6.653061224489796,800.0,electrolyte,0.006596380326408068,0.005991345698142424,4.522899925709181e-05,0.006316122131534367
3,operation,16.653061224489797,6.653061224489796,800.0,cathode,0.011689716175850368,0.010519535854364449,0.00011012195807277088,0.011152402923179573
3,operation,16.653061224489797,6.653061224489796,800.0,interface_ae,0.023031698508217693,0.020542639035734382,-6.64267864958582e-05,0.021893846702798245
3,operation,16.653061224489797,6.653061224489796,800.0,interface_ec,0.023300830910190053,0.020511322701403965,-0.0001383467312455986,0.022040182338419537
3,operation,16.775510204081634,6.775510204081632,800.0,anode,0.011575630877737792,0.01026105140471608,-4.36290190994157e-05,0.010977794548236863
3,operation,16.775510204081634,6.775510204081632,800.0,electrolyte,0.006562941988478153,0.005881179555400214,-3.059306423075562e-06,0.006250013467116616
3,operation,16.775510204081634,6.775510204081632,800.0,cathode,0.011644919895341652,0.010484684815711196,4.731965832252261e-05,0.011110633541659908
3,operation,16.775510204081634,6.775510204081632,800.0,interface_ae,0.023240164857934894,0.020224384124071727,6.710260113888488e-05,0.021888957556393755
3,operation,16.775510204081634,6.775510204081632,800.0,interface_ec,0.023266029989878385,0.02067274788674028,4.687854330331131e-06,0.022083884402443455
3,operation,16.89795918367347,6.8979591836734695,800.0,anode,0.0112367466999732,0.009867975826234348,7.356807637597333e-05,0.01061949694153329
3,operation,16.89795918367347,6.8979591836734695,800.0,electrolyte,0.00638596128046037,0.0058073535502221,1.142326445023561e-05,0.00611724719886862
3,operation,16.89795918367347,6.8979591836734695,800.0,cathode,0.011566632066461215,0.010188727742882356,-8.653895050452268e-05,0.010943964195942284
3,operation,16.89795918367347,6.8979591836734695,800.0,interface_ae,0.023196844462220065,0.02029910131344112,-3.7225652012570484e-05,0.02189237694939815
3,operation,16.89795918367347,6.8979591836734695,800.0,interface_ec,0.023135270191058165,0.020370661346020256,9.221734565070863e-05,0.021884910975219926
3,operation,17.020408163265305,7.020408163265306,800.0,anode,0.01157404183415906,0.01041274046731802,0.00015378549513264818,0.01104251169694405
3,operation,17.020408163265305,7.020408163265306,800.0,electrolyte,0.00667098893021123,0.0058268937070137024,3.268322094835203e-05,0.006291807748304573
3,operation,17.020408163265305,7.020408163265306,800.0,cathode,0.011773071741810014,0.010225872147719249,9.845698459571986e-05,0.011082095214131542
3,operation,17.020408163265305,7.020408163265306,800.0,interface_ae,0.023322821161057935,0.020344031907843924,8.95850880102806e-05,0.0219858472604661
3,operation,17.020408163265305,7.020408163265306,800.0,interface_ec,0.023218296001195512,0.020394773598477536,-4.761991603989872e-05,0.02194335826656166
3,operation,17.142857142857142,7.142857142857142,800.0,anode,0.011633203769574914,0.010407292523082597,8.889400055930374e-05,0.011072340286717887
3,operation,17.142857142857142,7.142857142857142,800.0,electrolyte,0.006570678759491792,0.005839928728145007,0.00012716967915225578,0.00624137866510026
3,operation,17.142857142857142,7.142857142857142,800.0,cathode,0.011570006741765827,0.009984915999293959,0.00013011298521785727,0.010866869202140675
3,operation,17.142857142857142,7.142857142857142,800.0,interface_ae,0.023094044349593855,0.02027793237533122,-0.00017961977553345514,0.021824911134683638
3,operation,17.142857142857142,7.142857142857142,800.0,interface_ec,0.02331425661063286,0.020091709475089557,-7.502588076917368e-05,0.021882069535070842
3,operation,17.26530612244898,7.26530612244898,800.0,anode,0.011717647358903011,0.010352384250481675,-6.517041482182336e-05,0.011098750960136286
3,operation,17.26530612244898,7.26530612244898,800.0,electrolyte,0.006473169334601519,0.00554548109471877,-5.4839678781118276e-05,0.006063535751479429
3,operation,17.26530612244898,7.26530612244898,800.0,cathode,0.01165324305203058,0.010107670664240708,-2.442150401756692e-05,0.01096256020169332
3,operation,17.26530612244898,7.26530612244898,800.0,interface_ae,0.022907058663676486,0.02064259123296123,5.100665931710657e-05,0.02186313486502773
3,operation,17.26530612244898,7.26530612244898,800.0,interface_ec,0.02335858107436744,0.020674085064923374,-8.252128755457164e-05,0.022139201436384325
3,operation,17.387755102040817,7.387755102040816,800.0,anode,0.011528321103394395,0.009829033126483557,0.00031404229101022373,0.010793317253194476
3,operation,17.387755102040817,7.387755102040816,800.0,electrolyte,0.006470082936936525,0.0059277455799829825,-0.00012381611443354587,0.006220379942646302
3,operation,17.387755102040817,7.387755102040816,800.0,cathode,0.011799277685128602,0.010579518175329932,-6.0280749027981445e-06,0.011239154550071297
3,operation,17.387755102040817,7.387755102040816,800.0,interface_ae,0.02299782370068208,0.020388240719810893,-0.00022267615249572264,0.021813845213121
3,operation,17.387755102040817,7.387755102040816,800.0,interface_ec,0.02319242265979563,0.0205801934278626,-3.5757644373514227e-06,0.022002916268480797
3,operation,17.51020408163265,7.5102040816326525,800.0,anode,0.011543172089062206,0.010313513623222406,6.040248469495526e-05,0.010980604169116889
3,operation,17.51020408163265,7.5102040816326525,800.0,electrolyte,0.006168018887498964,0.005737764592455758,0.00024359851242292436,0.005979446449501577
3,operation,17.51020408163265,7.5102040816326525,800.0,cathode,0.011332996750870395,0.010190916233433387,0.0001941746122051703,0.010812542707905352
3,operation,17.51020408163265,7.5102040816326525,800.0,interface_ae,0.023420835031308734,0.020313320663844787,2.061353796226038e-05,0.02203208688490086
3,operation,17.51020408163265,7.5102040816326525,800.0,interface_ec,0.023199577664003032,0.020266385639135666,-7.425210749308241e-06,0.021880936187918767
3,operation,17.632653061224488,7.63265306122449,800.0,anode,0.011544006773438694,0.01023054978761535,-7.483831806910334e-05,0.010947305952580104
3,operation,17.632653061224488,7.63265306122449,800.0,electrolyte,0.006244676359951068,0.005711743845321526,0.00017151182181787802,0.006003353874726574
3,operation,17.632653061224488,7.63265306122449,800.0,cathode,0.011616440585252559,0.01014168124421369,7.540858050384984e-05,0.01095455211699688
3,operation,17.632653061224488,7.63265306122449,800.0,interface_ae,0.023168336077480922,0.02078960658499182,-3.9125092950785226e-07,0.022075301736043617
3,operation,17.632653061224488,7.63265306122449,800.0,interface_ec,0.02334009941263163,0.020265079123521344,5.0308925333666245e-05,0.02196479692804326
3,operation,17.755102040816325,7.755102040816326,800.0,anode,0.01165501869538875,0.010196698775068158,-5.017577611697203e-05,0.010998952889716258
3,operation,17.755102040816325,7.755102040816326,800.0,electrolyte,0.006372393966869526,0.005776470532795931,6.289391096964737e-05,0.006097289368594673
3,operation,17.755102040816325,7.755102040816326,800.0,cathode,0.011574567440741174,0.010265453585824159,-3.7914678132769595e-06,0.010978706984419445
3,operation,17.755102040816325,7.755102040816326,800.0,interface_ae,0.023219705204981077,0.020375911003464555,1.7972579368308248e-06,0.0219364952062622
3,operation,17.755102040816325,7.755102040816326,800.0,interface_ec,0.023739608091363485,0.020478326859761486,6.452969584310429e-05,0.02228891880585768
3,operation,17.877551020408163,7.877551020408163,800.0,anode,0.01168760472106562,0.010155436635340588,0.0001293989213291668,0.011004112887876385
3,operation,17.877551020408163,7.877551020408163,800.0,electrolyte,0.006441767245914732,0.005931010909788511,-3.342069980664488e-05,0.006202452311647253
3,operation,17.877551020408163,7.877551020408163,800.0,cathode,0.011408005496171192,0.010281079241647239,-0.00011046683561021067,0.010890049588671662
3,operation,17.877551020408163,7.877551020408163,800.0,interface_ae,0.02330712804500332,0.020177168268781735,-3.1900803047285336e-05,0.021910535037067084
3,operation,17.877551020408163,7.877551020408163,800.0,interface_ec,0.02291365406069505,0.020980833401880547,-0.00016539595596163145,0.022012846740974965
3,operation,18.0,8.0,800.0,anode,0.01160196274807928,0.010436660854866003,0.00010363859085870253,0.011066883112573502
3,operation,18.0,8.0,800.0,electrolyte,0.006670268424434628,0.005656554322355705,0.0001351088946337002,0.006230017271925462
3,operation,18.0,8.0,800.0,cathode,0.011782678218160435,0.010250459923532096,2.405807577265921e-05,0.011096274155884557
3,operation,18.0,8.0,800.0,interface_ae,0.023139215470476922,0.02023406959483339,0.00012371509754787165,0.02183314647581351
3,operation,18.0,8.0,800.0,interface_ec,0.023462441598720303,0.020239178171794017,-1.5378516514619176e-05,0.022028406035786683
3,shutdown,24.0,8.0,800.0,anode,0.011571315356708214,0.010201468819251939,6.429487858758168e-06,0.010950845463265075
3,shutdown,24.0,8.0,800.0,electrolyte,0.006689372292329236,0.0055705565383026515,-8.463469915126599e-05,0.006207798671714038
3,shutdown,24.0,8.0,800.0,cathode,0.011847323948428594,0.010115471051623741,-0.00012630353535770663,0.011085505610699093
3,shutdown,24.0,8.0,800.0,interface_ae,0.023102974011580023,0.0203499894529512,0.0001554962727725765,0.02185856213752511
3,shutdown,24.0,8.0,800.0,interface_ec,0.023384965242475346,0.02064550412332645,8.199736423467861e-05,0.022143152762511557
3,shutdown,24.04081632653061,8.040816326530612,739.2480966557373,anode,0.01087992992297668,0.009270183020699119,-1.9860215535348436e-05,0.010171106626727017
3,shutdown,24.04081632653061,8.040816326530612,739.2480966557373,electrolyte,0.005792484844830506,0.0052295141524355835,6.84104990934741e-05,0.005533792322039565
3,shutdown,24.04081632653061,8.040816326530612,739.2480966557373,cathode,0.010717597845616066,0.009670095609807241,-0.00011414157922272193,0.01023604131043434
3,shutdown,24.04081632653061,8.040816326530612,739.2480966557373,interface_ae,0.02148141004744688,0.0185659383316565,9.417646917364228e-06,0.020182239113134083
3,shutdown,24.04081632653061,8.040816326530612,739.2480966557373,interface_ec,0.02152942906181853,0.018772698378665523,5.5112660408695595e-05,0.020292219058492454
3,shutdown,24.081632653061224,8.081632653061224,683.2585078404431,anode,0.009660697005225852,0.00833758825989007,5.5702962248780313e-05,0.009072311675924727
3,shutdown,24.081632653061224,8.081632653061224,683.2585078404431,electrolyte,0.005869679854509187,0.004659163482736777,0.00012221941801067953,0.005371960599095136
3,shutdown,24.081632653061224,8.081632653061224,683.2585078404431,cathode,0.00986132815395572,0.008403187951190732,-0.00011315053013521626,0.009221235053092825
3,shutdown,24.081632653061224,8.081632653061224,683.2585078404431,interface_ae,0.01970844389905701,0.017259760053473874,-0.00013129129767582392,0.018606740109842753
3,shutdown,24.081632653061224,8.081632653061224,683.2585078404431,interface_ec,0.019366479088139796,0.017171308645473393,1.9380900833111825e-05,0.018367571693853876
3,shutdown,24.122448979591837,8.122448979591837,631.6579178483621,anode,0.00907901900695163,0.007890415667075571,2.0188719429148278e-05,0.008547001489813202
3,shutdown,24.122448979591837,8.122448979591837,631.6579178483621,electrolyte,0.00529610400979751,0.004556352128012806,-1.2130867138958066e-05,0.004967754935142702
3,shutdown,24.122448979591837,8.122448979591837,631.6579178483621,cathode,0.009265913558804396,0.007798693198132327,-2.249195395553516e-05,0.008626486555735124
3,shutdown,24.122448979591837,8.122448979591837,631.6579178483621,interface_ae,0.01812038072782444,0.015733935865462605,-4.1987416228435774e-05,0.017053014869512436
3,shutdown,24.122448979591837,8.122448979591837,631.6579178483621,interface_ec,0.017745606378765454,0.016363762126683765,-9.374137884363131e-05,0.017097389784736548
3,shutdown,24.163265306122447,8.16326530612245,584.1022750249358,anode,0.00868572139439943,0.007371895641085246,5.648641321559589e-05,0.008109620332775111
3,shutdown,24.163265306122447,8.16326530612245,584.1022750249358,electrolyte,0.004591484927635727,0.004168121439221538,6.50489639988436e-05,0.004396566559397824
3,shutdown,24.163265306122447,8.16326530612245,584.1022750249358,cathode,0.008501409050994004,0.007519233417956219,-3.6833271003917635e-05,0.008055607865309811
3,shutdown,24.163265306122447,8.16326530612245,584.1022750249358,interface_ae,0.016640925201732066,0.014409722214829175,5.232190111769367e-05,0.015645369572735678
3,shutdown,24.163265306122447,8.16326530612245,584.1022750249358,interface_ec,0.016953472878495024,0.015051753815866282,3.0517263458050778e-05,0.016087225658712734
3,shutdown,24.20408163265306,8.204081632653061,540.2744977709071,anode,0.007559199753989283,0.006447576994884586,0.00010416667330833505,0.007071547191357945
3,shutdown,24.20408163265306,8.204081632653061,540.2744977709071,electrolyte,0.003962401764723069,0.0037349374131603937,-2.243068279436459e-05,0.003853903480221144
3,shutdown,24.20408163265306,8.204081632653061,540.2744977709071,cathode,0.007698604681000793,0.0067941567435496454,1.3814755636757507e-05,0.007288629879704685
3,shutdown,24.20408163265306,8.204081632653061,540.2744977709071,interface_ae,0.014941918764726288,0.01357692362905898,-0.00022295755741118774,0.014313547145201562
3,shutdown,24.20408163265306,8.204081632653061,540.2744977709071,interface_ec,0.015571435031760193,0.013462967415924232,-0.00021570367252233505,0.014636356867807523
3,shutdown,24.244897959183675,8.244897959183673,499.8823603717566,anode,0.00694507568428083,0.006140951557550026,0.00011906996175550047,0.006583199975639136
3,shutdown,24.244897959183675,8.244897959183673,499.8823603717566,electrolyte,0.004022211861145427,0.003573827184130049,0.00011812216342206011,0.003823296672342934
3,shutdown,24.244897959183675,8.244897959183673,499.8823603717566,cathode,0.007088687762173008,0.006405804217593437,6.83861113931992e-05,0.0067741498271209535
3,shutdown,24.244897959183675,8.244897959183673,499.8823603717566,interface_ae,0.013958539340801927,0.012804529966299879,-0.00014203017800706945,0.013421057731263463
3,shutdown,24.244897959183675,8.244897959183673,499.8823603717566,interface_ec,0.01439930656941138,0.012206518643392786,6.0123678815167325e-05,0.013438175752318614
3,shutdown,24.285714285714285,8.285714285714286,462.65654455601276,anode,0.006923113190920031,0.005722046858145155,-2.5635564285314633e-05,0.006407722681646048
3,shutdown,24.285714285714285,8.285714285714286,462.65654455601276,electrolyte,0.0037927557929138,0.00316430836669187,0.00018182787037428216,0.003534908652171326
3,shutdown,24.285714285714285,8.285714285714286,462.65654455601276,cathode,0.006589168665181736,0.005700608687811052,-5.402855278956832e-05,0.0061935908990763955
3,shutdown,24.285714285714285,8.285714285714286,462.65654455601276,interface_ae,0.012914870736545389,0.011403734181558897,-3.506733936585965e-05,0.012229676026430316
3,shutdown,24.285714285714285,8.285714285714286,462.65654455601276,interface_ec,0.013003932615880278,0.011397650124082975,0.00020988412303524396,0.01228521760782917
3,shutdown,24.3265306122449,8.326530612244898,428.34884379104386,anode,0.0058312023885422415,0.0053420813529085585,5.92521009760872e-05,0.005603617525025861
3,shutdown,24.3265306122449,8.326530612244898,428.34884379104386,electrolyte,0.0035089473857513086,0.00296525327708192,-2.407025718473096e-05,0.003271430749741116
3,shutdown,24.3265306122449,8.326530612244898,428.34884379104386,cathode,0.006127530902088041,0.005366059165374963,-2.5895883476751336e-05,0.005784681871496808
3,shutdown,24.3265306122449,8.326530612244898,428.34884379104386,interface_ae,0.011762067093335394,0.010531924926291998,-0.00011465501637074579,0.011199548860310982
3,shutdown,24.3265306122449,8.326530612244898,428.34884379104386,interface_ec,0.011941010897667014,0.01063215431846204,3.587361439966162e-05,0.011343528413857438
3,shutdown,24.367346938775512,8.36734693877551,396.7305083432843,anode,0.005920056868686995,0.00478880908443633,7.746256352751507e-05,0.005444974289082068
3,shutdown,24.367346938775512,8.36734693877551,396.7305083432843,electrolyte,0.0031789317522828552,0.0030028105118358114,5.762287195956261e-05,0.0030962411985533045
3,shutdown,24.367346938775512,8.36734693877551,396.7305083432843,cathode,0.0053622700329712504,0.004551681154358846,3.1126169966750486e-05,0.0050067259061345615
3,shutdown,24.367346938775512,8.36734693877551,396.7305083432843,interface_ae,0.011022242437276949,0.009596517971244065,-0.00012675777045330778,0.010385376280274724
3,shutdown,24.367346938775512,8.36734693877551,396.7305083432843,interface_ec,0.011160127736374459,0.010094122260296857,-4.0867234570604165e-05,0.010667383553576087
3,shutdown,24.408163265306122,8.408163265306122,367.5907200684652,anode,0.005245863549691446,0.004492019078935697,-0.0001289382089103393,0.004917588415264879
3,shutdown,24.408163265306122,8.408163265306122,367.5907200684652,electrolyte,0.003020303791856953,0.0023096021315708107,2.1626630593564704e-06,0.002735107119827709
3,shutdown,24.408163265306122,8.408163265306122,367.5907200684652,cathode,0.005059505404475321,0.0046910878358923545,-0.00010581509924706867,0.0048891621234207795
3,shutdown,24.408163265306122,8.408163265306122,367.5907200684652,interface_ae,0.010333792956513157,0.008856985216488693,-5.111052123287852e-05,0.00968065335621673
3,shutdown,24.408163265306122,8.408163265306122,367.5907200684652,interface_ec,0.009528578929444743,0.009443364412282013,5.505569328262319e-05,0.00948673800966183
3,shutdown,24.448979591836732,8.448979591836734,340.7351867623481,anode,0.004572373298222997,0.0039338105222947554,-4.956487528793405e-05,0.00428975321455644
3,shutdown,24.448979591836732,8.448979591836734,340.7351867623481,electrolyte,0.0027914774733577776,0.001951912393309636,-1.4158441929433814e-05,0.0024807640726118166
3,shutdown,24.448979591836732,8.448979591836734,340.7351867623481,cathode,0.005079971169903164,0.003931952392767794,8.038503876365498e-06,0.004614362985503119
3,shutdown,24.448979591836732,8.448979591836734,340.7351867623481,interface_ae,0.009892347553872811,0.008443913645860864,1.2592382048545514e-05,0.009253570391469484
3,shutdown,24.448979591836732,8.448979591836734,340.7351867623481,interface_ec,0.00955301288180306,0.008237310252920769,0.000129963128530344,0.008970667511926886
3,shutdown,24.48979591836735,8.489795918367347,315.9848466996775,anode,0.004275520087957066,0.00344090343968546,-3.913031039404599e-05,0.003925917761523091
3,shutdown,24.48979591836735,8.489795918367347,315.9848466996775,electrolyte,0.0022471711631187287,0.002091417098363295,-2.590840590806309e-05,0.002173946930969883
3,shutdown,24.48979591836735,8.489795918367347,315.9848466996775,cathode,0.00459487073249809,0.003971798306765533,2.6326548757539658e-05,0.004317429594603613
3,shutdown,24.48979591836735,8.489795918367347,315.9848466996775,interface_ae,0.008710183102807698,0.007453707921093711,-0.00021811752376656775,0.00816361540203602
3,shutdown,24.48979591836735,8.489795918367347,315.9848466996775,interface_ec,0.008733404187352774,0.007824407763580041,-1.0833388324458919e-05,0.0083162697233402
3,shutdown,24.53061224489796,8.53061224489796,293.17467472374994,anode,0.003906998460340079,0.003625193438952571,-8.3332200624347e-06,0.0037740227320687525
3,shutdown,24.53061224489796,8.53061224489796,293.17467472374994,electrolyte,0.0025863557876907597,0.002225847783794108,9.595080570233296e-05,0.00243195805686547
3,shutdown,24.53061224489796,8.53061224489796,293.17467472374994,cathode,0.0041655161477394,0.003274259523019437,6.629937020525997e-05,0.003800855970120814
3,shutdown,24.53061224489796,8.53061224489796,293.17467472374994,interface_ae,0.008103203841324153,0.00718587095749769,4.926094868130526e-05,0.007686179589952298
3,shutdown,24.53061224489796,8.53061224489796,293.17467472374994,interface_ec,0.00811849116736445,0.007604759305729376,-7.618566995191905e-06,0.00787421525022302
3,shutdown,24.57142857142857,8.571428571428571,272.15258192607723,anode,0.0038865835411239246,0.003161200175110291,7.906415838876719e-05,0.0035820668645205615
3,shutdown,24.57142857142857,8.571428571428571,272.15258192607723,electrolyte,0.0022607566006523,0.0018970307233201816,0.00016692469423765,0.0021224073133746797
3,shutdown,24.57142857142857,8.571428571428571,272.15258192607723,cathode,0.003522460857685975,0.003157953948829447,2.1238008602348962e-05,0.003355292479167637
3,shutdown,24.57142857142857,8.571428571428571,272.15258192607723,interface_ae,0.0075747935006129615,0.00654668217858517,0.00012857590365105662,0.007120138607949036
3,shutdown,24.57142857142857,8.571428571428571,272.15258192607723,interface_ec,0.007266294155722853,0.006282680576428472,3.081283365365046e-05,0.006828041382439132
3,shutdown,24.612244897959183,8.612244897959183,252.77840157967978,anode,0.003393892278098919,0.0031087816773947034,-2.7402290866503937e-06,0.0032607024872572396
3,shutdown,24.612244897959183,8.612244897959183,252.77840157967978,electrolyte,0.0018423955389952036,0.001666164043120763,2.8848894793184943e-06,0.0017609133164866386
3,shutdown,24.612244897959183,8.612244897959183,252.77840157967978,cathode,0.003348332073351992,0.0029595825240583736,-4.035933369869101e-05,0.0031726452572833435
3,shutdown,24.612244897959183,8.612244897959183,252.77840157967978,interface_ae,0.006989989690617197,0.006039222067547279,0.00022567524721687666,0.006578057997327218
3,shutdown,24.612244897959183,8.612244897959183,252.77840157967978,interface_ec,0.006850797576899008,0.005890246372580387,0.0002670675374863065,0.006441235859791725
3,shutdown,24.653061224489797,8.653061224489797,234.92295456460886,anode,0.0032247978858002384,0.00296304885440505,5.921029832024916e-05,0.0031039110513875973
3,shutdown,24.653061224489797,8.653061224489797,234.92295456460886,electrolyte,0.0018852463409175597,0.0016564976491215435,-0.00011020845647760654,0.0017921132239289035
3,shutdown,24.653061224489797,8.653061224489797,234.92295456460886,cathode,0.0032155784197696537,0.0025000516362564387,-1.7436283641253426e-05,0.0029243807446607288
3,shutdown,24.653061224489797,8.653061224489797,234.92295456460886,interface_ae,0.006139021729202085,0.005601541831222718,3.341262473382347e-05,0.005888991498560463
3,shutdown,24.653061224489797,8.653061224489797,234.92295456460886,interface_ec,0.00638037439866778,0.005587507108602791,-6.0682534178639886e-05,0.006024124248189234
3,shutdown,24.693877551020407,8.693877551020408,218.46718805434932,anode,0.002843566245910893,0.0027323541427783783,0.00010678566772943999,0.0027957481432811172
3,shutdown,24.693877551020407,8.693877551020408,218.46718805434932,electrolyte,0.0013932714091176202,0.0011217271388792491,-7.268893832047121e-05,0.0012854795554163936
3,shutdown,24.693877551020407,8.693877551020408,218.46718805434932,cathode,0.003104808460187679,0.0027912517165640882,-9.247118804011716e-05,0.002964839378014608
3,shutdown,24.693877551020407,8.693877551020408,218.46718805434932,interface_ae,0.005852995758309725,0.00546343608768298,4.1531147724033384e-05,0.0056687211514306664
3,shutdown,24.693877551020407,8.693877551020408,218.46718805434932,interface_ec,0.006075834544609076,0.005296295135071582,-9.101987062279108e-05,0.005728171478026783
3,shutdown,24.73469387755102,8.73469387755102,203.30138172020213,anode,0.0026307727836287712,0.002355467675787174,1.0413338802134002e-05,0.0025045595360176434
3,shutdown,24.73469387755102,8.73469387755102,203.30138172020213,electrolyte,0.0016786967341474743,0.0013977161826996705,-0.0002936200943778115,0.0016382704114163288
3,shutdown,24.73469387755102,8.73469387755102,203.30138172020213,cathode,0.0024062010137096417,0.001911040597133596,1.7536524065533417e-05,0.0022010120965673505
3,shutdown,24.73469387755102,8.73469387755102,203.30138172020213,interface_ae,0.005385635666549926,0.004753678551979753,-9.589282677146163e-05,0.005101817014965363
3,shutdown,24.73469387755102,8.73469387755102,203.30138172020213,interface_ec,0.005472366937680372,0.004840286059551315,-0.00012551490672051577,0.005189856415463476
3,shutdown,24.775510204081634,8.775510204081632,189.32441616095798,anode,0.0021663578145065,0.0021643912629753337,0.00017917822736133592,0.0021875018411425815
3,shutdown,24.775510204081634,8.775510204081632,189.32441616095798,electrolyte,0.0017181533291445376,0.0013255010791098426,-7.299966715800764e-05,0.0015644733093057553
3,shutdown,24.775510204081634,8.775510204081632,189.32441616095798,cathode,0.0026369339866939914,0.002073932747258913,-7.675070366738105e-05,0.0024090384294382723
3,shutdown,24.775510204081634,8.775510204081632,189.32441616095798,interface_ae,0.00449033754326815,0.004349311640110974,-6.298673491373753e-05,0.004422857406321173
3,shutdown,24.775510204081634,8.775510204081632,189.32441616095798,interface_ec,0.00493841698549825,0.0038689636611940305,1.6982667258368724e-05,0.004500127943352619
3,shutdown,24.816326530612244,8.816326530612244,176.44309868003802,anode,0.001780536986158501,0.002212337923332198,5.218912341350845e-05,0.0020331681341015954
3,shutdown,24.816326530612244,8.816326530612244,176.44309868003802,electrolyte,0.0012144349701283046,0.0012302917455000513,-9.780742626635524e-05,0.0012341230224005996
3,shutdown,24.816326530612244,8.816326530612244,176.44309868003802,cathode,0.002281236322075805,0.002153704680370555,-0.00030942892490913896,0.0022839904645670667
3,shutdown,24.816326530612244,8.816326530612244,176.44309868003802,interface_ae,0.004444077565970149,0.003984970919329701,-1.9629361774576657e-05,0.00423337391593951
3,shutdown,24.816326530612244,8.816326530612244,176.44309868003802,interface_ec,0.004824942803151135,0.0037647195203723985,-6.21159243445229e-05,0.004393199850817287
3,shutdown,24.857142857142858,8.857142857142858,164.57154191466293,anode,0.0017058970156545552,0.0021404396526609245,-2.462901426088e-05,0.001960106294074324
3,shutdown,24.857142857142858,8.857142857142858,164.57154191466293,electrolyte,0.0010829182513543477,0.0010196314890241437,6.362358284303242e-05,0.0010584548380953474
3,shutdown,24.857142857142858,8.857142857142858,164.57154191466293,cathode,0.0021585435016194697,0.002367959165117713,4.539358884037746e-05,0.0022718669683339603
3,shutdown,24.857142857142858,8.857142857142858,164.57154191466293,interface_ae,0.0040850925559986736,0.0035644932973078014,-3.9275895241680917e-05,0.003851874402252735
3,shutdown,24.857142857142858,8.857142857142858,164.57154191466293,interface_ec,0.003877774256906522,0.003684737486310908,7.834681062089173e-05,0.0037873814213622943
3,shutdown,24.89795918367347,8.89795918367347,153.63059117400576,anode,0.0018026367735766002,0.0015327963432002754,0.00015159451462942337,0.0017043566537316734
3,shutdown,24.89795918367347,8.89795918367347,153.63059117400576,electrolyte,0.0007935405849738798,0.0005358130750468791,-0.00011529019436473827,0.0007290324938797333
3,shutdown,24.89795918367347,8.89795918367347,153.63059117400576,cathode,0.0016172229502763882,0.001771517567278014,-3.6070450044957354e-05,0.0017007789178946264
3,shutdown,24.89795918367347,8.89795918367347,153.63059117400576,interface_ae,0.003806681578397727,0.00361913154430915,-6.913348611627765e-05,0.003718386035837881
3,shutdown,24.89795918367347,8.89795918367347,153.63059117400576,interface_ec,0.004005636869751623,0.003690809268754836,-4.5566249801366065e-05,0.003858676839780402
3,shutdown,24.93877551020408,8.938775510204081,143.54729666804633,anode,0.0019217899147878272,0.0015130955199295806,9.24098128840789e-05,0.0017608241079823026
3,shutdown,24.93877551020408,8.938775510204081,143.54729666804633,electrolyte,0.0006799698119586825,0.0005458530825119953,-3.912677149075408e-05,0.0006274899423354079
3,shutdown,24.93877551020408,8.938775510204081,143.54729666804633,cathode,0.0015966003818646103,0.0014581172805493996,-2.1952658244713987e-05,0.0015325318704322156
3,shutdown,24.93877551020408,8.938775510204081,143.54729666804633,interface_ae,0.003692773393720379,0.0030413860891575664,-8.238613106230866e-05,0.00341698953384294
3,shutdown,24.93877551020408,8.938775510204081,143.54729666804633,interface_ec,0.0034784680120013493,0.0029690891489094298,-9.340055020627145e-05,0.0032578396896966984
3,shutdown,24.97959183673469,8.979591836734693,134.25442710817435,anode,0.001312688707548893,0.001452952645076788,-5.6870570659705345e-05,0.0013916361907437965
3,shutdown,24.97959183673469,8.979591836734693,134.25442710817435,electrolyte,0.0011095832010122675,0.0005168889403737051,-5.420835550478789e-05,0.0009662470745317615
3,shutdown,24.97959183673469,8.979591836734693,134.25442710817435,cathode,0.0019978735143960365,0.0012511351184130025,-2.36533252096124e-05,0.0017489729521704492
3,shutdown,24.97959183673469,8.979591836734693,134.25442710817435,interface_ae,0.0030274153439635,0.0026084285411089483,0.00015473109830876783,0.0028537995143848747
3,shutdown,24.97959183673469,8.979591836734693,134.25442710817435,interface_ec,0.003304792039056003,0.002904849811312669,-0.00016963162351162222,0.003137865991354205
3,shutdown,25.02040816326531,9.020408163265307,125.69002143642092,anode,0.0015788505339603479,0.00155773437477681,0.00011494770608285296,0.0015809853152273584
3,shutdown,25.02040816326531,9.020408163265307,125.69002143642092,electrolyte,0.0009781635999041175,0.0005172602039858582,3.1312341719299166e-05,0.0008493164497516619
3,shutdown,25.02040816326531,9.020408163265307,125.69002143642092,cathode,0.0016406192484340087,0.0009673612685602644,-0.00011212795914817849,0.0014415498127090137
3,shutdown,25.02040816326531,9.020408163265307,125.69002143642092,interface_ae,0.003191835977026063,0.0028277091264904755,-0.00015485830336213924,0.003038110493076051
3,shutdown,25.02040816326531,9.020408163265307,125.69002143642092,interface_ec,0.003173208804531209,0.002671560650986813,7.810089546071515e-05,0.0029575952899476093
3,shutdown,25.06122448979592,9.061224489795919,117.79697569443749,anode,0.0012620569199009214,0.0013513225417333648,8.438287744856246e-05,0.0013171088512622352
3,shutdown,25.06122448979592,9.061224489795919,117.79697569443749,electrolyte,0.0007080302284105916,0.0006884520588761831,-6.485216295046536e-05,0.0007074217853135605
3,shutdown,25.06122448979592,9.061224489795919,117.79697569443749,cathode,0.0017192889743248856,0.0011982314545720314,-9.22024325177182e-05,0.001535288550440116
3,shutdown,25.06122448979592,9.061224489795919,117.79697569443749,interface_ae,0.0026347571864004694,0.0024699258051027917,7.533311717782118e-05,0.002559658060124873
3,shutdown,25.06122448979592,9.061224489795919,117.79697569443749,interface_ec,0.002510757000145315,0.002814103685462859,3.086752940556164e-05,0.0026758938977505353
3,shutdown,25.10204081632653,9.10204081632653,110.52266227762675,anode,0.001373372333200941,0.0011070334932095241,1.9258967351125548e-06,0.0012614740094125715
3,shutdown,25.10204081632653,9.10204081632653,110.52266227762675,electrolyte,0.0006876302173236471,0.0008347716173272245,-7.928587453370405e-07,0.0007717944455023725
3,shutdown,25.10204081632653,9.10204081632653,110.52266227762675,cathode,0.0014334911823056006,0.0010397018973036971,1.9564052831231578e-05,0.0012832076057610914
3,shutdown,25.10204081632653,9.10204081632653,110.52266227762675,interface_ae,0.002399378208366233,0.0024962484504583303,-8.337472407191158e-05,0.002453504027374497
3,shutdown,25.10204081632653,9.10204081632653,110.52266227762675,interface_ec,0.002495166388361852,0.002189950721457474,-3.539513876737684e-05,0.002358221042060826
3,shutdown,25.142857142857142,9.142857142857142,103.81857903577588,anode,0.00132423530461762,0.0009748362596942199,0.0001393924530541073,0.0012129645715383385
3,shutdown,25.142857142857142,9.142857142857142,103.81857903577588,electrolyte,0.0004973640327514417,0.0006156074579687197,-7.757859893126e-05,0.0005815649856471003
3,shutdown,25.142857142857142,9.142857142857142,103.81857903577588,cathode,0.001263930707235326,0.0010349778672461946,-1.5506204469847846e-05,0.00116673949011408
3,shutdown,25.142857142857142,9.142857142857142,103.81857903577588,interface_ae,0.00259716729475877,0.0019454672510720765,5.865151576180001e-05,0.002342591911826162
3,shutdown,25.142857142857142,9.142857142857142,103.81857903577588,interface_ec,0.0022056803189231065,0.002098872665315172,-0.00011955753282234455,0.0021641931558075613
3,shutdown,25.183673469387756,9.183673469387756,97.64002588053233,anode,0.0009547537323053294,0.0009403576930641031,0.0001814649167323078,0.0009984016281611358
3,shutdown,25.183673469387756,9.183673469387756,97.64002588053233,electrolyte,0.0006293997008319035,0.0008670639187044961,2.2032329169091803e-05,0.0007769622398016422
3,shutdown,25.183673469387756,9.183673469387756,97.64002588053233,cathode,0.0010098403126716897,0.0012646576066988149,4.370176220734189e-05,0.0011609322195402923
3,shutdown,25.183673469387756,9.183673469387756,97.64002588053233,interface_ae,0.002045970004356812,0.002007686896237412,-2.925947499076102e-05,0.002027732998902829
3,shutdown,25.183673469387756,9.183673469387756,97.64002588053233,interface_ec,0.0017767074838990957,0.0021007672362104756,0.0001094934055641929,0.0019681031505384616
3,shutdown,25.224489795918366,9.224489795918368,91.94580674347571,anode,0.0013696159649975756,0.0009662129903582785,-2.4872342408253256e-05,0.0012198076067073858
3,shutdown,25.224489795918366,9.224489795918368,91.94580674347571,electrolyte,0.0007284788452597071,0.0006640673176736924,0.0001638281183136422,0.0007539408429646008
3,shutdown,25.224489795918366,9.224489795918368,91.94580674347571,cathode,0.000993102034385832,0.0008486684574057071,-7.155444197585275e-05,0.0009375689543854329
3,shutdown,25.224489795918366,9.224489795918368,91.94580674347571,interface_ae,0.002111547535343281,0.001453916170192285,7.760873728625647e-05,0.0018763159292893954
3,shutdown,25.224489795918366,9.224489795918368,91.94580674347571,interface_ec,0.0021216221423713986,0.0018805825443301263,1.3822523650184044e-05,0.0020121030890369452
3,shutdown,25.26530612244898,9.26530612244898,86.69795489756177,anode,0.001230074716360045,0.0009870602719167412,-6.0707719137569975e-05,0.001133256451870008
3,shutdown,25.26530612244898,9.26530612244898,86.69795489756177,electrolyte,0.0003996309085561501,0.0002794359495932706,5.5128333277558754e-05,0.00036774375585342354
3,shutdown,25.26530612244898,9.26530612244898,86.69795489756177,cathode,0.0007234512826058365,0.001029340007548039,0.00013229733083455433,0.0009437971243772357
3,shutdown,25.26530612244898,9.26530612244898,86.69795489756177,interface_ae,0.0016711548799175655,0.0015882134507441662,1.6620981362413705e-06,0.0016312689008700554
3,shutdown,25.26530612244898,9.26530612244898,86.69795489756177,interface_ec,0.0020237547658015892,0.0019471918327847123,-0.00016854923928685776,0.002007916126842124
3,shutdown,25.306122448979593,9.306122448979592,81.8614798104968,anode,0.0007874518123679058,0.0006957540620563838,-0.0001400669854886548,0.0007843070545471736
3,shutdown,25.306122448979593,9.306122448979592,81.8614798104968,electrolyte,0.000379880730033677,0.0005052281946972729,-2.7867890283955717e-05,0.0004582229809376914
3,shutdown,25.306122448979593,9.306122448979592,81.8614798104968,cathode,0.0005421637221517596,0.0013237739407704358,2.661778652041803e-05,0.001153578025337895
3,shutdown,25.306122448979593,9.306122448979592,81.8614798104968,interface_ae,0.0017245147377678198,0.0012783295297234972,2.6070616197127533e-05,0.001551005604340689
3,shutdown,25.306122448979593,9.306122448979592,81.8614798104968,interface_ec,0.0016693331549381858,0.0011202101197938252,-0.00010702554400144163,0.0014852284007524491
3,shutdown,25.346938775510203,9.346938775510203,77.40413384216254,anode,0.0009433567552368348,0.0010790504954978886,3.6716540504304466e-05,0.0010199934697611717
3,shutdown,25.346938775510203,9.346938775510203,77.40413384216254,electrolyte,0.0006601351975606819,0.00035562525515712545,-8.65461606806029e-06,0.0005724611429880553
3,shutdown,25.346938775510203,9.346938775510203,77.40413384216254,cathode,0.0010025673572259387,0.0010228024233336942,0.00013010966934656217,0.0010376046253745923
3,shutdown,25.346938775510203,9.346938775510203,77.40413384216254,interface_ae,0.0013554704883271278,0.0013671021529325514,2.775246844762952e-05,0.0013621719850903026
3,shutdown,25.346938775510203,9.346938775510203,77.40413384216254,interface_ec,0.0015168075107025857,0.0014580654396787196,8.205768116689474e-05,0.0014950771317976158
3,shutdown,25.387755102040817,9.387755102040817,73.29619723052508,anode,0.0009234469670027582,0.0009733128450626271,-3.294411047248347e-05,0.000951075887485883
3,shutdown,25.387755102040817,9.387755102040817,73.29619723052508,electrolyte,0.00013225824703008948,0.00042810401320108856,0.00018838110311848022,0.000500606955335455
3,shutdown,25.387755102040817,9.387755102040817,73.29619723052508,cathode,0.0006274898446209183,0.0007735082100310664,6.957457924726428e-05,0.0007219499815047796
3,shutdown,25.387755102040817,9.387755102040817,73.29619723052508,interface_ae,0.001484058442692382,0.0012736625734453878,-9.234292057213926e-05,0.0014000134863630812
3,shutdown,25.387755102040817,9.387755102040817,73.29619723052508,interface_ec,0.0009894376187393448,0.0010499074879038392,-3.9030414911169926e-05,0.001023252016694503
3,shutdown,25.42857142857143,9.428571428571429,69.51027993240348,anode,0.0008857029209889031,0.0005656465650135632,-5.1902571891814855e-05,0.0007819926577577446
3,shutdown,25.42857142857143,9.428571428571429,69.51027993240348,electrolyte,0.000195114936848827,0.0004598757479126676,0.00013583571664306052,0.00046387599672247695
3,shutdown,25.42857142857143,9.428571428571429,69.51027993240348,cathode,0.0008789055278778537,0.0007075021174355323,-0.000147561274638294,0.000846480738368729
3,shutdown,25.42857142857143,9.428571428571429,69.51027993240348,interface_ae,0.001262101918439969,0.0015620052007456117,0.00011219504919152248,0.0014488322630315793
3,shutdown,25.42857142857143,9.428571428571429,69.51027993240348,interface_ec,0.0010249361233617784,0.0011614262503278224,3.630984326610388e-05,0.0011013503018998264
3,shutdown,25.46938775510204,9.46938775510204,66.02113899784933,anode,0.0004615621298141783,7.847375944732184e-05,9.882404501643172e-06,0.00042810069003864905
3,shutdown,25.46938775510204,9.46938775510204,66.02113899784933,electrolyte,0.0001864966110385195,0.00014599412323815765,-3.546803599307581e-05,0.00018067043328971454
3,shutdown,25.46938775510204,9.46938775510204,66.02113899784933,cathode,0.0005872586394884599,0.0005384980049099543,-8.839898989220014e-05,0.0005848575462940118
3,shutdown,25.46938775510204,9.46938775510204,66.02113899784933,interface_ae,0.001183945738912029,0.0007291444533776321,3.1103906536807823e-05,0.0010358639085116732
3,shutdown,25.46938775510204,9.46938775510204,66.02113899784933,interface_ec,0.0006567325621706129,0.0010227311113714592,9.191861536769534e-05,0.0009115716410425701
3,shutdown,25.51020408163265,9.510204081632653,62.8055102604701,anode,0.00035399498386303873,0.0006412455874913235,0.00011557327121208923,0.0005912547452131266
3,shutdown,25.51020408163265,9.510204081632653,62.8055102604701,electrolyte,-0.00034450151734714786,0.0002487564756589018,-0.0002875773427628275,0.0007171891292837141
3,shutdown,25.51020408163265,9.510204081632653,62.8055102604701,cathode,0.0005422214322038148,0.0004965253045635782,-0.00024825439859108386,0.0006754298905931493
3,shutdown,25.51020408163265,9.510204081632653,62.8055102604701,interface_ae,0.0015166939150519812,0.001053122255046612,-8.490234320820354e-05,0.001354174295887306
3,shutdown,25.51020408163265,9.510204081632653,62.8055102604701,interface_ec,0.0014248021281357119,0.0006367964493912237,-0.00012291710335183173,0.0012544272513400913
3,shutdown,25.551020408163264,9.551020408163264,59.84195322147059,anode,6.161425961319296e-05,0.0008191337599333787,3.323463714720035e-05,0.0007922245494976334
3,shutdown,25.551020408163264,9.551020408163264,59.84195322147059,electrolyte,0.0004241031914400975,0.00031735634023764587,5.737677611445846e-05,0.00039479489646149105
3,shutdown,25.551020408163264,9.551020408163264,59.84195322147059,cathode,0.0005371209071263705,0.0005131089891670002,1.0760343622295078e-05,0.0005258569129571002
3,shutdown,25.551020408163264,9.551020408163264,59.84195322147059,interface_ae,0.0009212923675804897,0.00090852448820809,2.7359457326167763e-05,0.0009162015690912668
3,shutdown,25.551020408163264,9.551020408163264,59.84195322147059,interface_ec,0.0010651205526047715,0.0006222950197003604,-0.00013449866686084095,0.0009556062693497523
3,shutdown,25.591836734693878,9.591836734693878,57.11070809316573,anode,0.0006971930788874361,0.0003615510078749786,5.847253470359405e-05,0.0006123590222514342
3,shutdown,25.591836734693878,9.591836734693878,57.11070809316573,electrolyte,5.089163432078165e-05,-5.7631433015876374e-05,-8.43596612531713e-05,0.00017376408049415634
3,shutdown,25.591836734693878,9.591836734693878,57.11070809316573,cathode,0.00043611177794987524,0.0002899217571947765,0.0001293933523105714,0.00044501430767048954
3,shutdown,25.591836734693878,9.591836734693878,57.11070809316573,interface_ae,0.000997154244515808,0.0012156873578156896,4.044081540714172e-05,0.0011246736900590525
3,shutdown,25.591836734693878,9.591836734693878,57.11070809316573,interface_ec,0.0004787394206243536,0.0010571079553950288,-0.0001509551622469955,0.0009533896344847886
3,shutdown,25.632653061224488,9.63265306122449,54.59356404878929,anode,0.0004890555630757592,0.00023485815854470336,0.00021427110344641865,0.0005632151691465515
3,shutdown,25.632653061224488,9.63265306122449,54.59356404878929,electrolyte,0.000536123671056518,7.005546696168028e-05,-1.2735766812111178e-05,0.0005052371366617257
3,shutdown,25.632653061224488,9.63265306122449,54.59356404878929,cathode,0.0004918684435633347,0.0005624777843897945,2.915191232501268e-06,0.0005307318026823665
3,shutdown,25.632653061224488,9.63265306122449,54.59356404878929,interface_ae,0.0006809186793908092,0.0006360782123149341,-4.4817963767913306e-07,0.0006596429385669926
3,shutdown,25.632653061224488,9.63265306122449,54.59356404878929,interface_ec,0.0011327890550199208,0.0008651575122621535,-7.734149266150159e-05,0.0010342208288847505
3,shutdown,25.6734693877551,9.673469387755102,52.27373780013852,anode,0.000537900824550483,0.00028184214895187,8.904080051868412e-05,0.0004908706164913836
3,shutdown,25.6734693877551,9.673469387755102,52.27373780013852,electrolyte,0.0007341495619894636,0.00012953250673618344,8.01605159726371e-05,0.0006927735138917426
3,shutdown,25.6734693877551,9.673469387755102,52.27373780013852,cathode,0.00025914760260097904,0.0003367863632892425,2.9562286872101295e-06,0.0003055018390459741
3,shutdown,25.6734693877551,9.673469387755102,52.27373780013852,interface_ae,0.0007777158060081738,0.0012110809712100087,-3.065930746783824e-05,0.0010641908473010796
3,shutdown,25.6734693877551,9.673469387755102,52.27373780013852,interface_ec,0.0009338228457740235,0.00033246085959031746,4.319965633696103e-05,0.0008232219721076538
3,shutdown,25.714285714285715,9.714285714285714,50.135761693466634,anode,0.000604636512850079,0.0002255590545382639,-0.0002510222141040413,0.0006849214666653456
3,shutdown,25.714285714285715,9.714285714285714,50.135761693466634,electrolyte,0.0002030857120507068,0.00018895490799533682,7.240750507443041e-05,0.0002330284575588806
3,shutdown,25.714285714285715,9.714285714285714,50.135761693466634,cathode,0.0007784062014623164,0.0002550677929340127,-8.562881236602804e-05,0.0007031545507039889
3,shutdown,25.714285714285715,9.714285714285714,50.135761693466634,interface_ae,0.0005190676284849706,0.000701772769514468,4.793542588185019e-05,0.0006360362496974811
3,shutdown,25.714285714285715,9.714285714285714,50.135761693466634,interface_ec,0.0006433201098867424,0.000817893595253306,4.653840768191757e-05,0.0007504270581047532
3,shutdown,25.755102040816325,9.755102040816327,48.16538057748471,anode,0.0003553797762500395,0.000124642481573709,-4.8186431548472314e-05,0.00032326600953950136
3,shutdown,25.755102040816325,9.755102040816327,48.16538057748471,electrolyte,-0.0002916607708221211,0.0002181328669082681,2.634128874743523e-06,0.00044304578642739053
3,shutdown,25.755102040816325,9.755102040816327,48.16538057748471,cathode,0.00038442923653895876,0.0004059892288354462,3.85821486432223e-05,0.00040125392101991844
3,shutdown,25.755102040816325,9.755102040816327,48.16538057748471,interface_ae,0.0006713902405129159,0.0006199844600776187,-0.00014043164166961696,0.0006914168120417784
3,shutdown,25.755102040816325,9.755102040816327,48.16538057748471,interface_ec,0.0005767227475042378,0.0006203450621817605,-7.358535759123606e-05,0.0006131186096959276
3,shutdown,25.79591836734694,9.795918367346939,46.34945675583765,anode,0.0004915833183586598,0.00014948036389104646,2.163054112483163e-05,0.00043808689285865384
3,shutdown,25.79591836734694,9.795918367346939,46.34945675583765,electrolyte,0.00020237309125073778,0.0003068282834232321,9.00791174028302e-05,0.00031200547679091834
3,shutdown,25.79591836734694,9.795918367346939,46.34945675583765,cathode,0.0004583596813777385,-0.00013999446019457418,0.00011941481480131266,0.00058020647751417
3,shutdown,25.79591836734694,9.795918367346939,46.34945675583765,interface_ae,0.0009445679632072208,0.0004659887032998112,2.366469126728498e-05,0.0008190703029687552
3,shutdown,25.79591836734694,9.795918367346939,46.34945675583765,interface_ec,0.0004609399823421448,0.0001727378588176748,-7.387152655423863e-05,0.0004231468502820428
3,shutdown,25.836734693877553,9.83673469387755,44.67588239031102,anode,0.00018647572207838473,0.0001881929601042109,-9.58914090005988e-05,0.00025036344380180404
3,shutdown,25.836734693877553,9.83673469387755,44.67588239031102,electrolyte,1.833849636174138e-05,0.00014301944183248494,-7.70226983110142e-05,0.0001896459539312937
3,shutdown,25.836734693877553,9.83673469387755,44.67588239031102,cathode,0.0004032083964811124,0.0003954952366540619,0.00023803877461644896,0.0005740329848400889
3,shutdown,25.836734693877553,9.83673469387755,44.67588239031102,interface_ae,0.000814143046366906,0.0005669468244148309,-6.202642966676787e-05,0.0007309060273633901
3,shutdown,25.836734693877553,9.83673469387755,44.67588239031102,interface_ec,0.0006477565302770134,0.0005836454047324192,-5.133130890056609e-05,0.0006245598998659182
3,shutdown,25.877551020408163,9.877551020408163,43.13349877071198,anode,0.00042816380933800646,-4.077217654743586e-05,-2.4439983553751055e-05,0.0004519244702614838
3,shutdown,25.877551020408163,9.877551020408163,43.13349877071198,electrolyte,0.0002632591009081625,7.632009044089998e-05,-2.0675440342927124e-05,0.00023731955992985928
3,shutdown,25.877551020408163,9.877551020408163,43.13349877071198,cathode,0.00024386035774897483,7.17271782513901e-05,0.00011739009315742082,0.0002974265434475881
3,shutdown,25.877551020408163,9.877551020408163,43.13349877071198,interface_ae,0.0003392275255902988,0.0005413267182598555,4.136478982823736e-05,0.00047917652734821744
3,shutdown,25.877551020408163,9.877551020408163,43.13349877071198,interface_ec,0.00035311067973306846,0.0004923157036540271,-9.096321727447023e-05,0.0004669506313692482
3,shutdown,25.918367346938776,9.918367346938776,41.71202191314853,anode,0.0005283497262273478,-7.632303925023018e-06,-6.538970942319644e-05,0.0005441246670133026
3,shutdown,25.918367346938776,9.918367346938776,41.71202191314853,electrolyte,-0.00010467965659309618,-0.00014819424170485287,0.00015912152908822936,0.00030555756332696995
3,shutdown,25.918367346938776,9.918367346938776,41.71202191314853,cathode,0.00035869616599867106,0.0002481829686103284,-6.565769633469216e-05,0.00033788791835107697
3,shutdown,25.918367346938776,9.918367346938776,41.71202191314853,interface_ae,0.000681804824641671,0.0002754040790669486,7.93639294330103e-05,0.0006097780708771638
3,shutdown,25.918367346938776,9.918367346938776,41.71202191314853,interface_ec,0.00032578020711119003,0.0003113470265653049,7.582823861179212e-05,0.00034480252436933946
3,shutdown,25.95918367346939,9.959183673469388,40.401973990626175,anode,0.00040329824081988065,0.0003223634261294322,-0.00010496741157567949,0.00041184161927899064
3,shutdown,25.95918367346939,9.959183673469388,40.401973990626175,electrolyte,3.983247322842794e-05,0.00014505625304793714,-8.492809619100916e-05,0.00019618444822039409
3,shutdown,25.95918367346939,9.959183673469388,40.401973990626175,cathode,0.0005047253240145859,-0.00027752054944002924,-7.787395153691529e-05,0.0007000214384459026
3,shutdown,25.95918367346939,9.959183673469388,40.401973990626175,interface_ae,0.00035915224340348807,-0.00016305105425419363,-0.00013962291302361908,0.0005221300658681352
3,shutdown,25.95918367346939,9.959183673469388,40.401973990626175,interface_ec,0.000586123446485868,0.0004117944060107527,0.00015731360220429028,0.0005882139739610635
3,shutdown,26.0,10.0,39.19462013876898,anode,0.0005215067002862803,0.00027357531749698776,3.132382490007116e-05,0.0004550657949116229
3,shutdown,26.0,10.0,39.19462013876898,electrolyte,0.0001322378744925522,-0.0004262509491323385,-0.00013945595133260752,0.0005602563107065093
3,shutdown,26.0,10.0,39.19462013876898,cathode,0.00023259651172910322,0.00031017118352573273,2.896698121381407e-05,0.00028404193886335177
3,shutdown,26.0,10.0,39.19462013876898,interface_ae,0.00024642982867550126,0.000561413340046296,0.00014824440287546366,0.0005509018193752255
3,shutdown,26.0,10.0,39.19462013876898,interface_ec,0.0006125207422769008,0.000571851949470491,-5.592257979552109e-05,0.0006010882930680383
4,startup,12.0,0.0,25.0,anode,0.00021518682454015986,2.9151727865531454e-05,5.115555285220048e-05,0.00022075506043310486
4,startup,12.0,0.0,25.0,electrolyte,7.308636856494182e-05,-2.4297421088082207e-05,-8.60002475122302e-05,0.0001729043664308621
4,startup,12.0,0.0,25.0,cathode,-1.642733271080927e-05,0.00019735232349656455,-4.414758053129096e-05,0.0002197880700336442
4,startup,12.0,0.0,25.0,interface_ae,0.0001786694525216292,0.00014741413412353436,-2.9893739701983032e-05,0.00017319412399408342
4,startup,12.0,0.0,25.0,interface_ec,0.00027776002072391536,-7.11093342381412e-05,0.00015095468626126317,0.0004126989806053568
4,startup,12.040816326530612,0.04081632653061224,85.7519033442633,anode,0.0010588558498164074,0.0008522136153965246,-8.878013803376538e-05,0.0009842347909567743
4,startup,12.040816326530612,0.04081632653061224,85.7519033442633,electrolyte,0.0004918800465377808,0.00040763633875813023,-0.00012582963852509057,0.000505078684338755
4,startup,12.040816326530612,0.04081632653061224,85.7519033442633,cathode,0.0009285073689646794,0.0006946261630678102,5.859917689787818e-05,0.00084259570385519
4,startup,12.040816326530612,0.04081632653061224,85.7519033442633,interface_ae,0.0022053170021620666,0.0014653904629154065,0.00017123077283669226,0.0019664947797677418
4,startup,12.040816326530612,0.04081632653061224,85.7519033442633,interface_ec,0.0019183507001393999,0.0015157693211867518,7.577547802081833e-05,0.0017570073063125531
4,startup,12.081632653061224,0.08163265306122448,141.74149215955785,anode,0.001778572978901916,0.001627372874400276,-4.0427824421207894e-05,0.0017094344443616069
4,startup,12.081632653061224,0.08163265306122448,141.74149215955785,electrolyte,0.0008157746059329891,0.0010064269357096336,-2.8630140289418722e-05,0.0009272674385133505
4,startup,12.081632653061224,0.08163265306122448,141.74149215955785,cathode,0.0015805335161170764,0.0017539322344497612,-0.00012055823510237554,0.0016869554413849756
4,startup,12.081632653061224,0.08163265306122448,141.74149215955785,interface_ae,0.0035050757145707995,0.003525961660208613,-0.0001196339899210212,0.00352166660589321
4,startup,12.081632653061224,0.08163265306122448,141.74149215955785,interface_ec,0.0032724387777203533,0.0034120127162054485,-3.0386342948113033e-05,0.0033448248977193383
4,startup,12.122448979591837,0.12244897959183673,193.34208215163724,anode,0.002649942290198573,0.0023073564380250125,2.316699390187268e-05,0.0024966650954049196
4,startup,12.122448979591837,0.12244897959183673,193.34208215163724,electrolyte,0.0012613574857944087,0.0015376961489871725,-0.00014762304803093984,0.0014426799014705944
4,startup,12.122448979591837,0.12244897959183673,193.34208215163724,cathode,0.0027824482977616208,0.0024986807174703692,-7.596517608333779e-05,0.002655237479498149
4,startup,12.122448979591837,0.12244897959183673,193.34208215163724,interface_ae,0.005182199739796828,0.004943947876224136,-9.90860754016715e-05,0.005070181801400141
4,startup,12.122448979591837,0.12244897959183673,193.34208215163724,interface_ec,0.005265613840702278,0.004917974825882054,3.474123353902422e-06,0.005100690679174178
4,startup,12.16326530612245,0.16326530612244897,240.897724975064,anode,0.003094934866075203,0.003389251796559604,-5.30010758779966e-05,0.003253392591247293
4,startup,12.16326530612245,0.16326530612244897,240.897724975064,electrolyte,0.0017302036547128018,0.001644621349636068,6.250767970040729e-05,0.0016925057845590538
4,startup,12.16326530612245,0.16326530612244897,240.897724975064,cathode,0.0038465844578593174,0.0027078263377677617,8.259522089259458e-05,0.0034253640205176633
4,startup,12.16326530612245,0.16326530612244897,240.897724975064,interface_ae,0.007057329138012064,0.006052246953122979,7.872736948162224e-05,0.006613734419162705
4,startup,12.16326530612245,0.16326530612244897,240.897724975064,interface_ec,0.007095582002729357,0.005803287378300401,0.00017497665058808303,0.006552829721518469
4,startup,12.204081632653061,0.2040816326530612,284.7255022290931,anode,0.0038438555850378612,0.003429871815137876,-2.617876736240963e-05,0.003654773656179562
4,startup,12.204081632653061,0.2040816326530612,284.7255022290931,electrolyte,0.0025633310245588375,0.0018552904453401778,-3.193389005081067e-06,0.0022928313529626135
4,startup,12.204081632653061,0.2040816326530612,284.7255022290931,cathode,0.004442023756446402,0.0035968714428725366,-0.00011784367129306756,0.004090639586159382
4,startup,12.204081632653061,0.2040816326530612,284.7255022290931,interface_ae,0.008227769104283316,0.007588028509532417,7.086499705513648e-06,0.007927292426620722
4,startup,12.204081632653061,0.2040816326530612,284.7255022290931,interface_ec,0.008697347723142231,0.007461457128023693,-6.448089363934834e-05,0.008150753712619236
4,startup,12.244897959183673,0.24489795918367346,325.117639628244,anode,0.00481209749494492,0.0040550127423372995,-6.684330306487701e-05,0.004483268680716766
4,startup,12.244897959183673,0.24489795918367346,325.117639628244,electrolyte,0.0034129325374097786,0.002418786706746834,8.610979890066731e-05,0.0030439655841574768
4,startup,12.244897959183673,0.24489795918367346,325.117639628244,cathode,0.004677246170990291,0.0045395731792218915,0.00010994156017929371,0.004613883024424465
4,startup,12.244897959183673,0.24489795918367346,325.117639628244,interface_ae,0.009980088725975363,0.008817935561611041,-0.0001479089288097522,0.009456215438319844
4,startup,12.244897959183673,0.24489795918367346,325.117639628244,interface_ec,0.009381796570249826,0.008250555168838623,-9.43940643332437e-05,0.008871948377446637
4,startup,12.285714285714286,0.2857142857142857,362.34345544398667,anode,0.005462185759955865,0.004636435162232169,0.00020725985407625186,0.0051123188585102345
4,startup,12.285714285714286,0.2857142857142857,362.34345544398667,electrolyte,0.0032102681833658933,0.00248852002329981,0.00019553262161497902,0.0029367390213251823
4,startup,12.285714285714286,0.2857142857142857,362.34345544398667,cathode,0.005695122212551828,0.004659654540815881,-0.00020092153440255618,0.005265985545592469
4,startup,12.285714285714286,0.2857142857142857,362.34345544398667,interface_ae,0.010751396897215429,0.00937066727908697,2.0650562514583037e-05,0.010131902917260285
4,startup,12.285714285714286,0.2857142857142857,362.34345544398667,interface_ec,0.010812836231582525,0.009512195237082511,5.236847413791646e-05,0.010225150545064707
4,startup,12.326530612244898,0.32653061224489793,396.65115620895585,anode,0.0057039141099265575,0.00531512033493604,-4.396161530170061e-05,0.005520321398680555
4,startup,12.326530612244898,0.32653061224489793,396.65115620895585,electrolyte,0.003157070653338174,0.002934507276808022,-0.00012243997732210298,0.003059241067050836
4,startup,12.326530612244898,0.32653061224489793,396.65115620895585,cathode,0.00589015976880938,0.005209141432616325,-5.142689715706409e-05,0.005581612262413029
4,startup,12.326530612244898,0.32653061224489793,396.65115620895585,interface_ae,0.012072802897913178,0.010321618887084102,-5.554003994423388e-05,0.011299857076044756
4,startup,12.326530612244898,0.32653061224489793,396.65115620895585,interface_ec,0.011750853172096174,0.010684107641131957,-4.924441124122168e-05,0.011255780791653685
4,startup,12.36734693877551,0.36734693877551017,428.2694916567157,anode,0.006544320944684163,0.006073175462772572,-7.481842035058533e-06,0.00632194237404699
4,startup,12.36734693877551,0.36734693877551017,428.2694916567157,electrolyte,0.0036046723886113442,0.0033106598391107727,0.00010271915600404138,0.0034715905813360896
4,startup,12.36734693877551,0.36734693877551017,428.2694916567157,cathode,0.0064489516033119035,0.00580645599432628,-0.00012873785931353455,0.006156953354622575
4,startup,12.36734693877551,0.36734693877551017,428.2694916567157,interface_ae,0.012748615101384912,0.01123513384872673,0.00022406121201742823,0.01206953324831985
4,startup,12.36734693877551,0.36734693877551017,428.2694916567157,interface_ec,0.012742106830163849,0.01119057353480075,-0.00010439209802489835,0.012042899657816877
4,startup,12.408163265306122,0.4081632653061224,457.4092799315351,anode,0.007030510831290714,0.00611684693996979,0.0001086758977026565,0.006623803418228321
4,startup,12.408163265306122,0.4081632653061224,457.4092799315351,electrolyte,0.0037609104100606036,0.0029153814902789033,-8.072777700103708e-05,0.0034203740544293867
4,startup,12.408163265306122,0.4081632653061224,457.4092799315351,cathode,0.007191614228559726,0.006047663012520653,0.00011875918180180128,0.006696521110609737
4,startup,12.408163265306122,0.4081632653061224,457.4092799315351,interface_ae,0.013807160768226058,0.011983114037214323,-3.0326077766670613e-05,0.01299163913852664
4,startup,12.408163265306122,0.4081632653061224,457.4092799315351,interface_ec,0.013643486998699182,0.012063534770391543,2.0092570656524598e-05,0.012926180409390609
4,startup,12.448979591836734,0.44897959183673464,484.2648132376524,anode,0.0074505580298762425,0.006148410305735285,-1.7368007509098172e-06,0.006892364290958936
4,startup,12.448979591836734,0.44897959183673464,484.2648132376524,electrolyte,0.0037345752864941665,0.0032599876597816206,1.3268461913307683e-05,0.0035214245583527243
4,startup,12.448979591836734,0.44897959183673464,484.2648132376524,cathode,0.007238146637264595,0.00674287616935548,0.00011880618762510603,0.0070066799582790195
4,startup,12.448979591836734,0.44897959183673464,484.2648132376524,interface_ae,0.014932839682393284,0.01283391510167423,-9.624988349193223e-05,0.014002859466070158
4,startup,12.448979591836734,0.44897959183673464,484.2648132376524,interface_ec,0.0147128800094825,0.012902827467515037,-6.088231624233649e-05,0.013896947955813163
4,startup,12.489795918367347,0.4897959183673469,509.01515330032225,anode,0.0075090955634717635,0.006806629764614922,-4.040694502524733e-05,0.007184009307472198
4,startup,12.489795918367347,0.4897959183673469,509.01515330032225,electrolyte,0.004197151338313532,0.0037053653095015125,0.00011007998054227171,0.0039787165357936805
4,startup,12.489795918367347,0.4897959183673469,509.01515330032225,cathode,0.007492383342429148,0.006895145020007263,-7.274657062336721e-05,0.007213434653195203
4,startup,12.489795918367347,0.4897959183673469,509.01515330032225,interface_ae,0.015244402063448095,0.01354414626954733,0.00010687049801346178,0.014470575144542811
4,startup,12.489795918367347,0.4897959183673469,509.01515330032225,interface_ec,0.015414021234896214,0.013942957648928896,5.488785155203335e-05,0.014733978124747967
4,startup,12.53061224489796,0.5306122448979591,531.8253252762499,anode,0.008030387108623882,0.00736811026567088,4.453967721142857e-05,0.007720967533775338
4,startup,12.53061224489796,0.5306122448979591,531.8253252762499,electrolyte,0.0040642811730146906,0.004112458411735651,2.594788230864766e-05,0.004088829688522474
4,startup,12.53061224489796,0.5306122448979591,531.8253252762499,cathode,0.008112964442817096,0.006964994045908475,0.00011795382676077382,0.007606991809303419
4,startup,12.53061224489796,0.5306122448979591,531.8253252762499,interface_ae,0.016321865494312256,0.014398048795838244,-5.075313435257685e-05,0.015450301426104401
4,startup,12.53061224489796,0.5306122448979591,531.8253252762499,interface_ec,0.016385230523222008,0.014454563878493356,-6.687782387811226e-05,0.01551071413200564
4,startup,12.571428571428571,0.5714285714285714,552.8474180739229,anode,0.00816216066124657,0.00754836625834862,-0.00015733469496057397,0.007877942898899301
4,startup,12.571428571428571,0.5714285714285714,552.8474180739229,electrolyte,0.004457510532961749,0.003806405471149428,0.00012186652107889211,0.004175593925272074
4,startup,12.571428571428571,0.5714285714285714,552.8474180739229,cathode,0.008366989911029325,0.007653546240881596,-5.142094443630262e-05,0.008034555270337416
4,startup,12.571428571428571,0.5714285714285714,552.8474180739229,interface_ae,0.017091115579377456,0.015276251601729036,-0.00010680471383662405,0.0162608774284434
4,startup,12.571428571428571,0.5714285714285714,552.8474180739229,interface_ec,0.016949524522711715,0.015413939776143684,6.658882690292169e-06,0.016236289716662404
4,startup,12.612244897959183,0.6122448979591836,572.2215984203204,anode,0.008767903228771058,0.007862579895228317,4.108086409475417e-06,0.0083521255149346
4,startup,12.612244897959183,0.6122448979591836,572.2215984203204,electrolyte,0.004248155303965997,0.004265305917502282,-0.00020029484138651927,0.004270869954760704
4,startup,12.612244897959183,0.6122448979591836,572.2215984203204,cathode,0.00867218724449746,0.007946365255589442,-3.5654242864278575e-05,0.008333246584874686
4,startup,12.612244897959183,0.6122448979591836,572.2215984203204,interface_ae,0.017372351850957375,0.015585612992549538,-8.511147868343866e-05,0.016552127366564664
4,startup,12.612244897959183,0.6122448979591836,572.2215984203204,interface_ec,0.017266646005531867,0.015464663009014883,-1.8292329841259093e-05,0.016439921177403276
4,startup,12.653061224489797,0.6530612244897959,590.0770454353908,anode,0.008792498104128485,0.008083675307729276,4.644876055772338e-05,0.008460768406969143
4,startup,12.653061224489797,0.6530612244897959,590.0770454353908,electrolyte,0.0046674048616208615,0.00411236675992396,4.703927420091566e-05,0.0044168751377330635
4,startup,12.653061224489797,0.6530612244897959,590.0770454353908,cathode,0.009279305010916665,0.007899726157708438,6.546884930081445e-05,0.00867295018105137
4,startup,12.653061224489797,0.6530612244897959,590.0770454353908,interface_ae,0.018195505497349426,0.0160884310580024,3.930919874346531e-06,0.017238820864808376
4,startup,12.653061224489797,0.6530612244897959,590.0770454353908,interface_ec,0.017900000351119234,0.01582006976882061,3.4285346578164796e-05,0.01695608716947311
4,startup,12.693877551020408,0.6938775510204082,606.5328119456506,anode,0.009668217866806727,0.008091178067555504,8.047874435273991e-05,0.00898519656822014
4,startup,12.693877551020408,0.6938775510204082,606.5328119456506,electrolyte,0.004811760681021718,0.004314181085795448,0.00015153967492635925,0.0045907826339583995
4,startup,12.693877551020408,0.6938775510204082,606.5328119456506,cathode,0.009457383507414496,0.007939722137646568,-5.724750238115909e-05,0.008797847751632493
4,startup,12.693877551020408,0.6938775510204082,606.5328119456506,interface_ae,0.018860294251149087,0.016404339592915217,-0.00011488401196158636,0.01776124939327383
4,startup,12.693877551020408,0.6938775510204082,606.5328119456506,interface_ec,0.018445259493266072,0.016516662688931753,9.944102812176303e-05,0.01756141453437058
4,startup,12.73469387755102,0.7346938775510203,621.6986182797979,anode,0.009550748952773202,0.008896579305566775,8.241523634556386e-05,0.009242148571992202
4,startup,12.73469387755102,0.7346938775510203,621.6986182797979,electrolyte,0.00495587284261366,0.004240879560135543,-9.748843046390414e-05,0.00464295027079581
4,startup,12.73469387755102,0.7346938775510203,621.6986182797979,cathode,0.00961426215657284,0.008303761136396874,0.00016737437539834248,0.009035263799103098
4,startup,12.73469387755102,0.7346938775510203,621.6986182797979,interface_ae,0.019387618145537105,0.016929646400258555,-0.00011789961729568957,0.018284114575418817
4,startup,12.73469387755102,0.7346938775510203,621.6986182797979,interface_ec,0.01895991201044305,0.017054168595907332,-5.63066199795102e-05,0.018082779245958597
4,startup,12.775510204081632,0.7755102040816326,635.6755838390422,anode,0.009995237688208581,0.008693233005060669,5.171788481318731e-06,0.009412025637538846
4,startup,12.775510204081632,0.7755102040816326,635.6755838390422,electrolyte,0.004981228656708105,0.00448833102427482,1.8964795487489794e-05,0.004754096148099212
4,startup,12.775510204081632,0.7755102040816326,635.6755838390422,cathode,0.009977317121084902,0.008421165100326965,-2.6281684252611516e-05,0.009297543548027368
4,startup,12.775510204081632,0.7755102040816326,635.6755838390422,interface_ae,0.01955058330923581,0.017329160112444664,-9.08464337522777e-05,0.01854062212279442
4,startup,12.775510204081632,0.7755102040816326,635.6755838390422,interface_ec,0.01927830472427191,0.017331417471249444,-0.00015179491149467034,0.018384228087569118
4,startup,12.816326530612244,0.8163265306122448,648.5569013199622,anode,0.01023390636407183,0.008748495951088486,-0.00015475310822744465,0.009581731474969366
4,startup,12.816326530612244,0.8163265306122448,648.5569013199622,electrolyte,0.005133748031706081,0.004678076953130214,-5.3270108755497775e-05,0.004922623040170025
4,startup,12.816326530612244,0.8163265306122448,648.5569013199622,cathode,0.009980916370884264,0.008927696843726126,-2.0219033538761958e-05,0.009498267914845149
4,startup,12.816326530612244,0.8163265306122448,648.5569013199622,interface_ae,0.01976640930694556,0.017499565541695766,0.000141484013645926,0.018737721553734408
4,startup,12.816326530612244,0.8163265306122448,648.5569013199622,interface_ec,0.020290833711305425,0.01715537710638168,0.00010910279091914771,0.01891992871283203
4,startup,12.857142857142858,0.8571428571428571,660.4284580853368,anode,0.01021688487257246,0.009131629225665572,-5.504882602676295e-05,0.009720271366403676
4,startup,12.857142857142858,0.8571428571428571,660.4284580853368,electrolyte,0.004975747269138012,0.004806769732243204,-9.40977261282717e-05,0.004896160528694596
4,startup,12.857142857142858,0.8571428571428571,660.4284580853368,cathode,0.009889196843068418,0.008683152413346848,6.009137824153345e-05,0.0093453078880062
4,startup,12.857142857142858,0.8571428571428571,660.4284580853368,interface_ae,0.020361601151936616,0.018050158584058017,6.69075254496365e-05,0.01931026479397113
4,startup,12.857142857142858,0.8571428571428571,660.4284580853368,interface_ec,0.020249523945814023,0.01787957066490759,-5.114375287825396e-05,0.01917491381790215
4,startup,12.89795918367347,0.8979591836734693,671.3694088259941,anode,0.010299844986642806,0.008907430328673784,3.904842938743351e-05,0.009679284298640092
4,startup,12.89795918367347,0.8979591836734693,671.3694088259941,electrolyte,0.005636186933498237,0.004607300643693462,0.00012812696454013426,0.00520340890581916
4,startup,12.89795918367347,0.8979591836734693,671.3694088259941,cathode,0.010364614840511493,0.00914909707155116,-0.00016994295196075184,0.00981789145145235
4,startup,12.89795918367347,0.8979591836734693,671.3694088259941,interface_ae,0.02032236862051866,0.01823058582509593,7.897321246320076e-05,0.0193618942997241
4,startup,12.89795918367347,0.8979591836734693,671.3694088259941,interface_ec,0.020549544993702817,0.018535781332656612,7.349359742543155e-05,0.019620737001906977
4,startup,12.938775510204081,0.9387755102040816,681.4527033319537,anode,0.010321575002969662,0.00924902379632461,0.00024769291337234123,0.009838643923168277
4,startup,12.938775510204081,0.9387755102040816,681.4527033319537,electrolyte,0.005257219549966122,0.004950698456245957,-3.227445527233424e-05,0.005111163156508324
4,startup,12.938775510204081,0.9387755102040816,681.4527033319537,cathode,0.010644622511494962,0.009496308792177584,-3.862370887113674e-05,0.010119670059639022
4,startup,12.938775510204081,0.9387755102040816,681.4527033319537,interface_ae,0.021230268960963954,0.01892994880468221,6.627473734423479e-06,0.020178689480050523
4,startup,12.938775510204081,0.9387755102040816,681.4527033319537,interface_ec,0.021163464244121355,0.018367619971787163,1.925930903121242e-06,0.019913292667093012
4,startup,12.979591836734693,0.9795918367346939,690.7455728918258,anode,0.010616594147727565,0.009533084851448628,0.00012046759357569256,0.01012059398267258
4,startup,12.979591836734693,0.9795918367346939,690.7455728918258,electrolyte,0.005561741577011176,0.005220356410361093,0.0001530047441561629,0.005405649681725009
4,startup,12.979591836734693,0.9795918367346939,690.7455728918258,cathode,0.010821299914905193,0.009270492359972562,-6.118288167399028e-05,0.010135828150356845
4,startup,12.979591836734693,0.9795918367346939,690.7455728918258,interface_ae,0.02114138206160042,0.018937228546681447,-0.00012117682074893643,0.020131108466158256
4,startup,12.979591836734693,0.9795918367346939,690.7455728918258,interface_ec,0.02143922586336063,0.018531173463068994,8.235461198419735e-05,0.0201437615404134
4,startup,13.020408163265307,1.0204081632653061,699.3099785635789,anode,0.010792403573563375,0.009761012210547156,0.00011414545783212711,0.010317346498157383
4,startup,13.020408163265307,1.0204081632653061,699.3099785635789,electrolyte,0.005942516128417536,0.005269006424152883,1.4363083398819771e-05,0.005636079299699122
4,startup,13.020408163265307,1.0204081632653061,699.3099785635789,cathode,0.010557201043732341,0.009283779887175716,-0.00020868485293159376,0.009988141982379307
4,startup,13.020408163265307,1.0204081632653061,699.3099785635789,interface_ae,0.021361186147348905,0.019002333727891313,-5.596541808251622e-05,0.020285116936226352
4,startup,13.020408163265307,1.0204081632653061,699.3099785635789,interface_ec,0.021541892193152556,0.019087112080242663,-3.0406525806575804e-05,0.020425504394858403
4,startup,13.061224489795919,1.0612244897959182,707.2030243055624,anode,0.010690882628806481,0.009594771848709632,-8.984904867728449e-05,0.010188339270048894
4,startup,13.061224489795919,1.0612244897959182,707.2030243055624,electrolyte,0.0056675454851024525,0.0053036538432430745,-2.705053040961747e-05,0.005494844102831308
4,startup,13.061224489795919,1.0612244897959182,707.2030243055624,cathode,0.011269439899558547,0.009891745779609912,-5.7930530857904316e-05,0.010648123942384558
4,startup,13.061224489795919,1.0612244897959182,707.2030243055624,interface_ae,0.02160827202449484,0.019200326332060598,0.0001153327763396889,0.02051155727261692
4,startup,13.061224489795919,1.0612244897959182,707.2030243055624,interface_ec,0.021732458596532257,0.019392455224097063,0.00012084399891360882,0.02066313518907582
4,startup,13.10204081632653,1.1020408163265305,714.4773377223732,anode,0.01087683227348545,0.009572630697473298,7.126620321270069e-05,0.010287666250344088
4,startup,13.10204081632653,1.1020408163265305,714.4773377223732,electrolyte,0.005813082665019186,0.004951575271171232,-3.521804481195874e-05,0.005434135837010241
4,startup,13.10204081632653,1.1020408163265305,714.4773377223732,cathode,0.011017533493012488,0.009394870030139923,7.656431064826953e-05,0.010303345001226667
4,startup,13.10204081632653,1.1020408163265305,714.4773377223732,interface_ae,0.021967536369328106,0.01885893858550241,-2.3870968309452715e-06,0.020589993116566337
4,startup,13.10204081632653,1.1020408163265305,714.4773377223732,interface_ec,0.021914960555337242,0.019753446268722566,-5.8544502091996825e-05,0.020918375228455095
4,startup,13.142857142857142,1.1428571428571428,721.1814209642242,anode,0.010919374062711866,0.00990382094116868,-6.604473680075832e-05,0.010449304252972694
4,startup,13.142857142857142,1.1428571428571428,721.1814209642242,electrolyte,0.0056830497097720796,0.0052401683125847046,-0.00010404673078895661,0.00547802501879369
4,startup,13.142857142857142,1.1428571428571428,721.1814209642242,cathode,0.010847448003787697,0.010147434007595144,5.794987376006449e-05,0.010515410449798297
4,startup,13.142857142857142,1.1428571428571428,721.1814209642242,interface_ae,0.022224963613856303,0.01960377337241217,5.058643581161561e-05,0.0210373825639135
4,startup,13.142857142857142,1.1428571428571428,721.1814209642242,interface_ec,0.02247247296077786,0.019453273756089552,3.661465259656824e-05,0.02112540542139433
4,startup,13.183673469387756,1.183673469387755,727.3599741194676,anode,0.011136418750669433,0.009851432186699578,1.6069286746490462e-05,0.010552802436339943
4,startup,13.183673469387756,1.183673469387755,727.3599741194676,electrolyte,0.005889425358649516,0.005330983124129359,4.8708655911559396e-05,0.005631642968668917
4,startup,13.183673469387756,1.183673469387755,727.3599741194676,cathode,0.010936125744037045,0.009617663794189015,-3.697166847592929e-05,0.01034032993879452
4,startup,13.183673469387756,1.183673469387755,727.3599741194676,interface_ae,0.022841244224311327,0.019608138504703887,-2.082227096127529e-05,0.02140860933515128
4,startup,13.183673469387756,1.183673469387755,727.3599741194676,interface_ec,0.022368249966431657,0.01966764799438659,1.7823974390505556e-05,0.021147696581042354
4,startup,13.224489795918368,1.2244897959183672,733.0541932565242,anode,0.011609022547343518,0.01006059672102798,-8.035309614270923e-05,0.010918364647415116
4,startup,13.224489795918368,1.2244897959183672,733.0541932565242,electrolyte,0.006489164942376651,0.005241611399582314,-5.772209563821134e-05,0.005964902874217205
4,startup,13.224489795918368,1.2244897959183672,733.0541932565242,cathode,0.011611286367039906,0.009875588917463098,0.00016629136549874428,0.010851907438557306
4,startup,13.224489795918368,1.2244897959183672,733.0541932565242,interface_ae,0.02248360562601544,0.020224812159887997,2.0104766428169444e-05,0.021443648499979723
4,startup,13.224489795918368,1.2244897959183672,733.0541932565242,interface_ec,0.022915944630749262,0.020319159223844033,-0.00011326072905212539,0.02173509848481806
4,startup,13.26530612244898,1.2653061224489794,738.3020451024382,anode,0.011667987085790674,0.009761512014157248,-0.00010471843552482284,0.010842727570586345
4,startup,13.26530612244898,1.2653061224489794,738.3020451024382,electrolyte,0.005821851389545833,0.005365356614959374,3.3015876934859636e-06,0.005607559990305838
4,startup,13.26530612244898,1.2653061224489794,738.3020451024382,cathode,0.011379405504806444,0.010072539850846801,5.912895892934729e-05,0.01078600491215167
4,startup,13.26530612244898,1.2653061224489794,738.3020451024382,interface_ae,0.02295931506806629,0.020305418957207683,0.00018200348127674396,0.02175640254721442
4,startup,13.26530612244898,1.2653061224489794,738.3020451024382,interface_ec,0.022821392968789725,0.019982367797658475,6.135361291851883e-05,0.021542906597695324
4,startup,13.306122448979592,1.3061224489795917,743.1385201895032,anode,0.011261365359779126,0.009975649537845882,9.993809463927899e-05,0.010678130088636498
4,startup,13.306122448979592,1.3061224489795917,743.1385201895032,electrolyte,0.00599827159114197,0.005058687102501242,-0.00014898030653651741,0.005593995311216384
4,startup,13.306122448979592,1.3061224489795917,743.1385201895032,cathode,0.011499959658910812,0.010339769671661806,0.00011285457775311865,0.01096773373948386
4,startup,13.306122448979592,1.3061224489795917,743.1385201895032,interface_ae,0.02300260874664267,0.020624562612355634,-1.048203659404627e-05,0.02191059509412563
4,startup,13.306122448979592,1.3061224489795917,743.1385201895032,interface_ec,0.022952719121384618,0.019709293546588607,-4.4736294916121567e-05,0.021515289733658155
4,startup,13.346938775510203,1.346938775510204,747.5958661578376,anode,0.0117319368655071,0.010486942062874293,-8.302346336672846e-05,0.01116256390525326
4,startup,13.346938775510203,1.346938775510204,747.5958661578376,electrolyte,0.006152931923956603,0.005542599489590892,1.1208153195899086e-06,0.005871605128951459
4,startup,13.346938775510203,1.346938775510204,747.5958661578376,cathode,0.011104877767019955,0.010223607795417202,7.614306240608932e-05,0.010692331128746756
4,startup,13.346938775510203,1.346938775510204,747.5958661578376,interface_ae,0.02293358313804711,0.020297468684829827,-0.00011554960421287642,0.021736670400938015
4,startup,13.346938775510203,1.346938775510204,747.5958661578376,interface_ec,0.02260903820733473,0.020553700473362236,-3.748533801851623e-07,0.02165464876017612
4,startup,13.387755102040817,1.3877551020408163,751.7038027694748,anode,0.011946795843652594,0.010403453981375441,-3.542097616654489e-05,0.011254937086667433
4,startup,13.387755102040817,1.3877551020408163,751.7038027694748,electrolyte,0.006078298987981166,0.005476778383755836,9.668834167557434e-05,0.0058033929257750375
4,startup,13.387755102040817,1.3877551020408163,751.7038027694748,cathode,0.011691794970459999,0.010453108172052103,-2.9666873667447155e-05,0.011124413823047158
4,startup,13.387755102040817,1.3877551020408163,751.7038027694748,interface_ae,0.023055092979266056,0.020451017235276186,2.051848907361836e-05,0.021869672548657033
4,startup,13.387755102040817,1.3877551020408163,751.7038027694748,interface_ec,0.023014214609675336,0.020196634669159087,4.473862964734275e-05,0.021742917146173928
4,startup,13.428571428571429,1.4285714285714284,755.4897200675965,anode,0.01160656415080746,0.010252127077419359,-3.596926657008235e-05,0.010992286011402673
4,startup,13.428571428571429,1.4285714285714284,755.4897200675965,electrolyte,0.0064308081551131295,0.005643837649868229,-0.0001237353690039168,0.00607944825503599
4,startup,13.428571428571429,1.4285714285714284,755.4897200675965,cathode,0.011581276878465455,0.010455296112145678,6.0193623710324224e-05,0.011061843500259383
4,startup,13.428571428571429,1.4285714285714284,755.4897200675965,interface_ae,0.02336737944969713,0.020343070476110673,-6.825400461535457e-05,0.022011921033439193
4,startup,13.428571428571429,1.4285714285714284,755.4897200675965,interface_ec,0.023272317528653833,0.02062598938332734,0.00017037271546972376,0.022070448738317792
4,startup,13.46938775510204,1.4693877551020407,758.9788610021507,anode,0.011606285729076784,0.010129215313399232,-1.0858647682794331e-05,0.010942790223805348
4,startup,13.46938775510204,1.4693877551020407,758.9788610021507,electrolyte,0.006362299533540204,0.005127860935592764,0.00014536341508749478,0.0058491210842331704
4,startup,13.46938775510204,1.4693877551020407,758.9788610021507,cathode,0.011709255503611276,0.010187558362447606,-0.00016001892867621595,0.011030915836225043
4,startup,13.46938775510204,1.4693877551020407,758.9788610021507,interface_ae,0.023628627706752944,0.020634610486772256,1.7070548275450683e-05,0.022283010173452734
4,startup,13.46938775510204,1.4693877551020407,758.9788610021507,interface_ec,0.023307161203866545,0.02060502551897036,-4.865812463547379e-05,0.022080608947202852
4,startup,13.510204081632653,1.510204081632653,762.19448973953,anode,0.011774993214756838,0.01024578795025742,-0.00015341809606872215,0.011092933050897553
4,startup,13.510204081632653,1.510204081632653,762.19448973953,electrolyte,0.006728621475906993,0.005168290094158447,1.8145900694253898e-05,0.0061000893078115865
4,startup,13.510204081632653,1.510204081632653,762.19448973953,cathode,0.011440706270147672,0.009980288928208987,9.782649185226753e-06,0.010784927446772946
4,startup,13.510204081632653,1.510204081632653,762.19448973953,interface_ae,0.02362509718921862,0.02101169662922564,3.995468410157058e-05,0.022432967404985675
4,startup,13.510204081632653,1.510204081632653,762.19448973953,interface_ec,0.0235602615279158,0.020569476782252162,0.00014990120682335486,0.0222178859703746
4,startup,13.551020408163264,1.5510204081632653,765.1580467785295,anode,0.012028298997666519,0.010172159403092011,3.796372821063529e-06,0.011216018553132064
4,startup,13.551020408163264,1.5510204081632653,765.1580467785295,electrolyte,0.0062365876128349035,0.0053937131752249175,7.718504858067949e-05,0.005862309671839393
4,startup,13.551020408163264,1.5510204081632653,765.1580467785295,cathode,0.01200887537612611,0.010383328159080675,-2.8086924579765846e-05,0.011284363705263223
4,startup,13.551020408163264,1.5510204081632653,765.1580467785295,interface_ae,0.023984849189446454,0.02102941837575584,7.236038990838448e-06,0.02265219981943411
4,startup,13.551020408163264,1.5510204081632653,765.1580467785295,interface_ec,0.023359215689096935,0.0209116506185444,6.980834649176682e-05,0.022237017596879412
4,startup,13.591836734693878,1.5918367346938773,767.8892919068342,anode,0.011335324344829673,0.010510255119711829,-4.166919867957354e-05,0.01094637377954145
4,startup,13.591836734693878,1.5918367346938773,767.8892919068342,electrolyte,0.006186513527708828,0.005301526067133906,-1.4818929040364195e-05,0.005794982686701786
4,startup,13.591836734693878,1.5918367346938773,767.8892919068342,cathode,0.012164626985745613,0.010370601530285121,9.655735587931838e-05,0.011375455882622223
4,startup,13.591836734693878,1.5918367346938773,767.8892919068342,interface_ae,0.02361119109724277,0.021071513698627656,1.6558556219512323e-07,0.02244935406682692
4,startup,13.591836734693878,1.5918367346938773,767.8892919068342,interface_ec,0.023842862306776548,0.020921193111315947,6.416252324412086e-05,0.022524866881348235
4,startup,13.63265306122449,1.6326530612244896,770.4064359512107,anode,0.01141298595163262,0.010211357555501534,4.170804980086447e-05,0.010862375882590317
4,startup,13.63265306122449,1.6326530612244896,770.4064359512107,electrolyte,0.005843088243650263,0.005395464333568527,-5.434084103664975e-06,0.005632639698151796
4,startup,13.63265306122449,1.6326530612244896,770.4064359512107,cathode,0.011760874947696794,0.010357010337654293,2.7158220015359237e-05,0.011125670854525045
4,startup,13.63265306122449,1.6326530612244896,770.4064359512107,interface_ae,0.024054864941594707,0.020798955360135134,-5.750581961873702e-05,0.02260369284154291
4,startup,13.63265306122449,1.6326530612244896,770.4064359512107,interface_ec,0.023706753755773337,0.020506369286010642,1.4171179031750872e-05,0.022279643406249827
4,startup,13.673469387755102,1.673469387755102,772.7262621998615,anode,0.012150563744363482,0.010731314413237226,-8.707663764407389e-05,0.011507759796120965
4,startup,13.673469387755102,1.673469387755102,772.7262621998615,electrolyte,0.006020912911972229,0.005523023328593443,8.292736865664673e-05,0.005789833102508754
4,startup,13.673469387755102,1.673469387755102,772.7262621998615,cathode,0.011994590284859859,0.010585846698948801,0.00011418309277362335,0.011357665508329548
4,startup,13.673469387755102,1.673469387755102,772.7262621998615,interface_ae,0.023779413078549423,0.021011977526213494,0.00016346055117612016,0.02252534907131814
4,startup,13.673469387755102,1.673469387755102,772.7262621998615,interface_ec,0.02388787816577604,0.020802504150354784,-6.693560962502949e-05,0.022504680815982923
4,startup,13.714285714285714,1.7142857142857142,774.8642383065335,anode,0.011810191842660288,0.010629520992496247,-8.959470035887789e-05,0.011267419731437616
4,startup,13.714285714285714,1.7142857142857142,774.8642383065335,electrolyte,0.006343390784756079,0.005387268818373639,-0.00021233785383982282,0.005934895338975578
4,startup,13.714285714285714,1.7142857142857142,774.8642383065335,cathode,0.01205915177030092,0.01058778121166537,5.1775781570884073e-05,0.01139528999445405
4,startup,13.714285714285714,1.7142857142857142,774.8642383065335,interface_ae,0.023861058181976022,0.02096026805564011,4.0146685848154567e-05,0.022551132880891903
4,startup,13.714285714285714,1.7142857142857142,774.8642383065335,interface_ec,0.024299459540315267,0.02111841055261325,4.24585096047145e-05,0.022875542476983278
4,startup,13.755102040816327,1.7551020408163265,776.8346194225153,anode,0.011965036373875103,0.010277105337094278,9.67429419154058e-05,0.011217982347634459
4,startup,13.755102040816327,1.7551020408163265,776.8346194225153,electrolyte,0.0064873925591028446,0.005691179350966378,-1.8194543834241863e-05,0.006128283868348952
4,startup,13.755102040816327,1.7551020408163265,776.8346194225153,cathode,0.012148765130707952,0.010764583800946581,0.00016201586849567075,0.011522634495032665
4,startup,13.755102040816327,1.7551020408163265,776.8346194225153,interface_ae,0.02425641304244998,0.021184427127944758,-0.00013082532554243716,0.022876771138852586
4,startup,13.755102040816327,1.7551020408163265,776.8346194225153,interface_ec,0.024089839481054837,0.021222978362107892,7.09029775318304e-05,0.022792369697446503
4,startup,13.795918367346939,1.7959183673469385,778.6505432441623,anode,0.012329187063771284,0.010592369546466451,0.00021009871898131115,0.011564785561805664
4,startup,13.795918367346939,1.7959183673469385,778.6505432441623,electrolyte,0.005969082636104214,0.005646295609791176,-7.985203921840282e-05,0.0058160575643277455
4,startup,13.795918367346939,1.7959183673469385,778.6505432441623,cathode,0.011676964291968838,0.010571044773617975,-0.00014571726984209565,0.011168011053880678
4,startup,13.795918367346939,1.7959183673469385,778.6505432441623,interface_ae,0.02408453180420663,0.021229753147374502,0.00011185414093359494,0.022792454016613332
4,startup,13.795918367346939,1.7959183673469385,778.6505432441623,interface_ec,0.023815300356860407,0.021404488330884767,9.808045027979402e-06,0.022706092173748544
4,startup,13.83673469387755,1.8367346938775508,780.324117609689,anode,0.012290955712476943,0.010548613340938196,-0.00013322445867634456,0.011521351596507369
4,startup,13.83673469387755,1.8367346938775508,780.324117609689,electrolyte,0.006091476605031638,0.005316417803108411,4.7781415292065516e-05,0.005743901114015559
4,startup,13.83673469387755,1.8367346938775508,780.324117609689,cathode,0.012380570286197965,0.010521973270613378,6.291352982577836e-05,0.011564354146659924
4,startup,13.83673469387755,1.8367346938775508,780.324117609689,interface_ae,0.023865683351882924,0.021305991401724303,6.685626163371267e-05,0.022694657442895193
4,startup,13.83673469387755,1.8367346938775508,780.324117609689,interface_ec,0.023880746808454676,0.02122915045809287,7.159171404855653e-05,0.02267188360886935
4,startup,13.877551020408163,1.8775510204081631,781.866501229288,anode,0.011523109890222713,0.010923770949648724,3.536793758910481e-05,0.011235602916939574
4,startup,13.877551020408163,1.8775510204081631,781.866501229288,electrolyte,0.006491258120498788,0.005503619224201728,-0.00017227224815653556,0.00606546591393986
4,startup,13.877551020408163,1.8775510204081631,781.866501229288,cathode,0.012216676610931999,0.010640162272225074,3.2115455432320614e-06,0.011509685050853303
4,startup,13.877551020408163,1.8775510204081631,781.866501229288,interface_ae,0.02443724943637701,0.02146577344938927,0.00019212374170896127,0.023097724222639643
4,startup,13.877551020408163,1.8775510204081631,781.866501229288,interface_ec,0.024250498885111917,0.021175118187058528,-1.8841684690872627e-05,0.02286845450511646
4,startup,13.918367346938776,1.9183673469387754,783.2879780868515,anode,0.012215740323897344,0.010879866035261464,-0.00014670339514387187,0.011608391103810348
4,startup,13.918367346938776,1.9183673469387754,783.2879780868515,electrolyte,0.006361542177957813,0.005918562827739016,-2.402088710025202e-05,0.006152166185607028
4,startup,13.918367346938776,1.9183673469387754,783.2879780868515,cathode,0.012318810020363443,0.010775318236906068,9.5586060652498e-05,0.011625354843615614
4,startup,13.918367346938776,1.9183673469387754,783.2879780868515,interface_ae,0.02410326319045926,0.02119230912891262,2.0271892122288066e-06,0.022787660485988386
4,startup,13.918367346938776,1.9183673469387754,783.2879780868515,interface_ec,0.02395877094133118,0.021299441341603404,2.528766575156671e-05,0.022746041163242046
4,startup,13.959183673469388,1.9591836734693877,784.5980260093738,anode,0.012510495537539936,0.010775683844065949,6.252284708731023e-05,0.011740121105685666
4,startup,13.959183673469388,1.9591836734693877,784.5980260093738,electrolyte,0.006603717323037008,0.005413391977412755,-1.6508266237098575e-05,0.006096408973701497
4,startup,13.959183673469388,1.9591836734693877,784.5980260093738,cathode,0.01263865093451076,0.010679315761735081,0.00011164307487822072,0.011783400654300493
4,startup,13.959183673469388,1.9591836734693877,784.5980260093738,interface_ae,0.024499884407734582,0.021094657669546428,3.104792770059333e-05,0.022987282039957098
4,startup,13.959183673469388,1.9591836734693877,784.5980260093738,interface_ec,0.024336486326741007,0.021456272169992054,-7.5411247979106e-05,0.02303221588222782
4,startup,14.0,2.0,785.805379861231,anode,0.011949502175397263,0.010616937748441961,-9.779499708420289e-06,0.011342095731781446
4,startup,14.0,2.0,785.805379861231,electrolyte,0.006617945236743291,0.005978696709501562,0.0001396597846223178,0.006327230093530787
4,startup,14.0,2.0,785.805379861231,cathode,0.012344923119936064,0.010511271695986214,-4.088961749894955e-05,0.011538116588365743
4,startup,14.0,2.0,785.805379861231,interface_ae,0.024387757366041988,0.021297791689277028,5.772056525279509e-05,0.022999201269286257
4,startup,14.0,2.0,785.805379861231,interface_ec,0.024489869377210247,0.021531537509405358,0.00010251346045575814,0.02315356982334763
4,operation,16.0,2.0,800.0,anode,0.012219081757257385,0.011098565740818439,-6.956454501201963e-05,0.0116997588007711
4,operation,16.0,2.0,800.0,electrolyte,0.006311812809471424,0.005826423226837276,0.00012158735621989807,0.006087302050913913
4,operation,16.0,2.0,800.0,cathode,0.012497602697275201,0.010916160804754509,3.101538261015071e-05,0.011786843726744007
4,operation,16.0,2.0,800.0,interface_ae,0.024827285383613455,0.021598809820772922,-0.00012426201449449153,0.023381813295194183
4,operation,16.0,2.0,800.0,interface_ec,0.024784234824105307,0.02183997136715386,1.1332378367734082e-06,0.02345113366282963
4,operation,16.122448979591837,2.122448979591837,800.0,anode,0.012535220322729983,0.010868904656767132,5.62979181904856e-05,0.011791108124545922
4,operation,16.122448979591837,2.122448979591837,800.0,electrolyte,0.006471082646534711,0.006084671792407293,8.071372672644668e-06,0.00628680545548087
4,operation,16.122448979591837,2.122448979591837,800.0,cathode,0.012868144522305135,0.010982402318218173,-2.1367717058821568e-05,0.012036632985648523
4,operation,16.122448979591837,2.122448979591837,800.0,interface_ae,0.024620110404748066,0.02153542228518846,-9.914422843961568e-05,0.02323250446687276
4,operation,16.122448979591837,2.122448979591837,800.0,interface_ec,0.0246240787381672,0.021902964004082436,-5.261653710601875e-05,0.02338275178698504
4,operation,16.244897959183675,2.2448979591836733,800.0,anode,0.012437385410510898,0.011168395672475337,-8.78083516348536e-06,0.011853953250291475
4,operation,16.244897959183675,2.2448979591836733,800.0,electrolyte,0.006915831339693361,0.005484837803932161,-1.5058354837492784e-05,0.006323024271589548
4,operation,16.244897959183675,2.2448979591836733,800.0,cathode,0.012292137415277803,0.011099301321211402,-0.00022397916303661212,0.011747659128423687
4,operation,16.244897959183675,2.2448979591836733,800.0,interface_ae,0.024511376942164438,0.02180253063550981,0.00015513777210094933,0.023277029410948096
4,operation,16.244897959183675,2.2448979591836733,800.0,interface_ec,0.02484516836680746,0.021553690509147152,-0.00011971665926902303,0.023374813204575746
4,operation,16.367346938775512,2.36734693877551,800.0,anode,0.01273459794056899,0.010787773040240752,-9.42963372449764e-05,0.01188253991921622
4,operation,16.367346938775512,2.36734693877551,800.0,electrolyte,0.006795474512126172,0.005922219401117398,0.0001274059643266796,0.006407461457055625
4,operation,16.367346938775512,2.36734693877551,800.0,cathode,0.012209991623946837,0.010606978871797127,1.3316648936270559e-05,0.01149266309708047
4,operation,16.367346938775512,2.36734693877551,800.0,interface_ae,0.02486702522661473,0.021896920360740965,0.0001478183935639002,0.02352442017866612
4,operation,16.367346938775512,2.36734693877551,800.0,interface_ec,0.02445324658199835,0.021995939010259553,-0.00010966250441473178,0.023322661908907867
4,operation,16.489795918367346,2.489795918367347,800.0,anode,0.012571147064172167,0.010817008659095724,-8.139717958905117e-05,0.011793179583751593
4,operation,16.489795918367346,2.489795918367347,800.0,electrolyte,0.00637801945861016,0.005430877959844688,4.042893983346719e-06,0.005961155203388472
4,operation,16.489795918367346,2.489795918367347,800.0,cathode,0.012245465321867908,0.011069259646180055,6.400560810329174e-05,0.011702306827338619
4,operation,16.489795918367346,2.489795918367347,800.0,interface_ae,0.025137631410580556,0.021897265496708215,5.2067776708007374e-05,0.023684456788615058
4,operation,16.489795918367346,2.489795918367347,800.0,interface_ec,0.02508001996236556,0.021698467460794662,-0.00014882582128230326,0.023573276008344517
4,operation,16.612244897959183,2.612244897959184,800.0,anode,0.012440018811825678,0.010627473306157119,0.000245393867292539,0.011647829991513588
4,operation,16.612244897959183,2.612244897959184,800.0,electrolyte,0.006791099658415789,0.006152795266660316,6.24469766631293e-06,0.006495521173778153
4,operation,16.612244897959183,2.612244897959184,800.0,cathode,0.01251011471874032,0.010820104913609472,8.829248055867521e-05,0.011757562398978297
4,operation,16.612244897959183,2.612244897959184,800.0,interface_ae,0.02455689135758979,0.021315381362105045,-7.907106194885668e-05,0.02310769672866918
4,operation,16.612244897959183,2.612244897959184,800.0,interface_ec,0.024508905304876535,0.022119585347231907,0.00018156774550803163,0.02340800232948269
4,operation,16.73469387755102,2.7346938775510203,800.0,anode,0.012119414185517378,0.011170343121504247,9.513849835007705e-05,0.011675011981578732
4,operation,16.73469387755102,2.7346938775510203,800.0,electrolyte,0.006186044663056225,0.005641946493813677,-5.8016372212451976e-05,0.005933588586463681
4,operation,16.73469387755102,2.7346938775510203,800.0,cathode,0.01254959907972544,0.010666244129818998,-9.887262565948247e-06,0.011721962577014295
4,operation,16.73469387755102,2.7346938775510203,800.0,interface_ae,0.024662813099210076,0.021918668236677027,-2.1679203168792927e-05,0.0234117013284997
4,operation,16.73469387755102,2.7346938775510203,800.0,interface_ec,0.02469295085921192,0.021781340684873585,0.0002036042832840112,0.02337621468713791
4,operation,16.857142857142858,2.857142857142857,800.0,anode,0.012316620072776122,0.010703798956343243,5.8343356915596525e-05,0.011595086410896542
4,operation,16.857142857142858,2.857142857142857,800.0,electrolyte,0.006471295066115409,0.005436953213826706,0.00022314963352024664,0.006033521264697238
4,operation,16.857142857142858,2.857142857142857,800.0,cathode,0.01232950421088267,0.01083642610920773,1.5983535190809746e-05,0.011654947875571491
4,operation,16.857142857142858,2.857142857142857,800.0,interface_ae,0.02514602335384177,0.0214880509346962,2.7598584942053974e-05,0.023531299961908485
4,operation,16.857142857142858,2.857142857142857,800.0,interface_ec,0.025217454432358725,0.021849745736147928,-0.00012353339793034796,0.023714599107378588
4,operation,16.979591836734695,2.979591836734694,800.0,anode,0.01227632062940787,0.010953376505951358,0.0001330803915639862,0.011673494519094389
4,operation,16.979591836734695,2.979591836734694,800.0,electrolyte,0.006432132831116788,0.005885330359486487,-0.00014353688270468893,0.006181911361406936
4,operation,16.979591836734695,2.979591836734694,800.0,cathode,0.01211125632608099,0.01081543986226301,0.00014380287218732622,0.011520839490125322
4,operation,16.979591836734695,2.979591836734694,800.0,interface_ae,0.02481377492790275,0.021881962239113324,2.780795955735272e-05,0.02348556857885744
4,operation,16.979591836734695,2.979591836734694,800.0,interface_ec,0.025021841596517345,0.021701955861492428,6.882851084882323e-05,0.02353845269524345
4,operation,17.10204081632653,3.1020408163265305,800.0,anode,0.012233823467228974,0.011308654531184152,-8.003911042966899e-05,0.01179928978897473
4,operation,17.10204081632653,3.1020408163265305,800.0,electrolyte,0.0063235221393842765,0.00582993396269761,7.978843143232382e-06,0.006091759742327765
4,operation,17.10204081632653,3.1020408163265305,800.0,cathode,0.012465370481252186,0.010957462759098464,-0.00010903921988074389,0.011785511748737666
4,operation,17.10204081632653,3.1020408163265305,800.0,interface_ae,0.025122671785815898,0.022002708441177823,0.0001358949951267116,0.023718271357493534
4,operation,17.10204081632653,3.1020408163265305,800.0,interface_ec,0.024694333822177915,0.021907304708943035,1.973684622346911e-05,0.023425520176382955
4,operation,17.224489795918366,3.2244897959183674,800.0,anode,0.012625600525240302,0.011144049626365924,1.9305080295811482e-05,0.011953929476966173
4,operation,17.224489795918366,3.2244897959183674,800.0,electrolyte,0.00619640977363135,0.006075932377417538,5.559874336901389e-05,0.006137813554609189
4,operation,17.224489795918366,3.2244897959183674,800.0,cathode,0.012278312591721772,0.010993308427653338,-0.00015110935484525235,0.011691835403604325
4,operation,17.224489795918366,3.2244897959183674,800.0,interface_ae,0.025011070613494207,0.02152975765114417,-2.208344920370826e-05,0.023464937500070112
4,operation,17.224489795918366,3.2244897959183674,800.0,interface_ec,0.024848890889921108,0.02203176794239642,1.0654467643437403e-05,0.023566958224751505
4,operation,17.346938775510203,3.3469387755102042,800.0,anode,0.01252699257472251,0.01090636661831009,-3.2185950944282664e-06,0.011800442077033926
4,operation,17.346938775510203,3.3469387755102042,800.0,electrolyte,0.00651709545006966,0.005682188415829526,-0.00016865702430814356,0.006149290170630284
4,operation,17.346938775510203,3.3469387755102042,800.0,cathode,0.012246335301260673,0.01096095496822234,-2.4912100348871893e-05,0.011656997649552088
4,operation,17.346938775510203,3.3469387755102042,800.0,interface_ae,0.024768838183563617,0.021759329266112258,-8.635983927318179e-05,0.02341010088754322
4,operation,17.346938775510203,3.3469387755102042,800.0,interface_ec,0.02470138010780474,0.02176263365112228,5.143140541849398e-07,0.023370993078889363
4,operation,17.46938775510204,3.4693877551020407,800.0,anode,0.012478675668893942,0.010875889941822852,-0.00010296552556924195,0.011760843123682216
4,operation,17.46938775510204,3.4693877551020407,800.0,electrolyte,0.006220383592016244,0.006239487441475045,-0.00011298150302645631,0.0062330301395617585
4,operation,17.46938775510204,3.4693877551020407,800.0,cathode,0.012296274999747123,0.011015400060502787,3.608606095656809e-05,0.011708669249643344
4,operation,17.46938775510204,3.4693877551020407,800.0,interface_ae,0.024904173138512314,0.021735456586093566,2.3855807063954727e-05,0.023480759058276977
4,operation,17.46938775510204,3.4693877551020407,800.0,interface_ec,0.024812268732848173,0.02176157372649174,2.454097417713399e-05,0.023436351297747907
4,operation,17.591836734693878,3.5918367346938775,800.0,anode,0.01261107310935014,0.010907559955312935,-1.5547153643574597e-06,0.01185149781076083
4,operation,17.591836734693878,3.5918367346938775,800.0,electrolyte,0.006713632206975197,0.005912272071963763,0.00015839364409634833,0.006356906787439297
4,operation,17.591836734693878,3.5918367346938775,800.0,cathode,0.012048753953104084,0.011093023836633877,6.015800454021793e-05,0.011600922024372856
4,operation,17.591836734693878,3.5918367346938775,800.0,interface_ae,0.024622869520449345,0.02187431758359977,0.00010511217477579984,0.023370839761704454
4,operation,17.591836734693878,3.5918367346938775,800.0,interface_ec,0.02463416821550292,0.021912512485804562,8.713536757310174e-05,0.02339287725414434
4,operation,17.714285714285715,3.7142857142857144,800.0,anode,0.012185796087493702,0.01088354286151097,3.0096837664241117e-05,0.011589789253621698
4,operation,17.714285714285715,3.7142857142857144,800.0,electrolyte,0.006340773698891409,0.005544169360181291,-1.350446018627742e-05,0.005982428340149483
4,operation,17.714285714285715,3.7142857142857144,800.0,cathode,0.012560327943380738,0.011040746800238421,-8.614127291863423e-05,0.011874627925039166
4,operation,17.714285714285715,3.7142857142857144,800.0,interface_ae,0.024930433577023136,0.0216568120447667,-0.00016101697979934346,0.023467170505025416
4,operation,17.714285714285715,3.7142857142857144,800.0,interface_ec,0.024726571285790554,0.022048593874317148,6.559605521413735e-05,0.02350256581159786
4,operation,17.836734693877553,3.836734693877551,800.0,anode,0.01239968563852536,0.010828658903281788,-3.897621361164312e-05,0.011693786757335947
4,operation,17.836734693877553,3.836734693877551,800.0,electrolyte,0.00652175698117216,0.0055063125028308344,-3.4810734520129724e-05,0.006078288809867455
4,operation,17.836734693877553,3.836734693877551,800.0,cathode,0.012356886107728046,0.0106417851083097,-8.38448250897575e-05,0.011595774569583014
4,operation,17.836734693877553,3.836734693877551,800.0,interface_ae,0.024882101358297274,0.0218259023679882,-3.08761791193383e-05,0.02350356413908878
4,operation,17.836734693877553,3.836734693877551,800.0,interface_ec,0.024617714512492405,0.022139369965117842,-8.379792146793185e-05,0.02347730706998033
4,operation,17.959183673469386,3.9591836734693877,800.0,anode,0.012450318561452347,0.01081442618238524,3.6279292638335156e-06,0.011718328993141866
4,operation,17.959183673469386,3.9591836734693877,800.0,electrolyte,0.006591521948388075,0.005445948682158423,-6.616244153488004e-07,0.006099953253081784
4,operation,17.959183673469386,3.9591836734693877,800.0,cathode,0.012638145729795968,0.0112643003786984,-1.3001397325513104e-05,0.012010321722914667
4,operation,17.959183673469386,3.9591836734693877,800.0,interface_ae,0.02480833624144338,0.022266266605720307,0.00011349242815991982,0.023640849993664476
4,operation,17.959183673469386,3.9591836734693877,800.0,interface_ec,0.024676543086148955,0.021700203309822776,9.565494617872687e-05,0.023331781972737546
4,operation,18.081632653061224,4.081632653061225,800.0,anode,0.012197792573990854,0.01112954535026777,3.3429996375100835e-05,0.011700444027914309
4,operation,18.081632653061224,4.081632653061225,800.0,electrolyte,0.006603544152805415,0.00566865323930399,-6.298248042464099e-05,0.006190244207731727
4,operation,18.081632653061224,4.081632653061225,800.0,cathode,0.012692398566173664,0.010862652543889306,-4.1093507657386175e-05,0.011883860993300263
4,operation,18.081632653061224,4.081632653061225,800.0,interface_ae,0.024783972586424036,0.02186260442654359,-0.00010308251267194487,0.023460785551939832
4,operation,18.081632653061224,4.081632653061225,800.0,interface_ec,0.024687025701158615,0.02170039358521879,8.452803046068484e-05,0.023337942936842517
4,operation,18.20408163265306,4.204081632653061,800.0,anode,0.012222807486400021,0.010560846428448388,-0.00019670945629061542,0.011487444936846926
4,operation,18.20408163265306,4.204081632653061,800.0,electrolyte,0.006205923973064857,0.005992307640569622,1.620659948405166e-06,0.006101921456206681
4,operation,18.20408163265306,4.204081632653061,800.0,cathode,0.01250024981736144,0.011019297545424266,5.618391839232033e-06,0.011829509138606618
4,operation,18.20408163265306,4.204081632653061,800.0,interface_ae,0.024785043740669737,0.022032905285963626,1.4599591431263995e-05,0.023530011193467888
4,operation,18.20408163265306,4.204081632653061,800.0,interface_ec,0.02507981949585268,0.021948165989057973,-6.17796273481028e-05,0.023670123470828627
4,operation,18.3265306122449,4.326530612244898,800.0,anode,0.012300573195226013,0.010766507038709143,0.00012175480219507156,0.011611719922332824
4,operation,18.3265306122449,4.326530612244898,800.0,electrolyte,0.00641898980941089,0.005560305440640074,3.197780411268201e-05,0.0060358885464958266
4,operation,18.3265306122449,4.326530612244898,800.0,cathode,0.012380566578725499,0.010970913702515033,0.00018898139038938435,0.011743951236810726
4,operation,18.3265306122449,4.326530612244898,800.0,interface_ae,0.02498261416118577,0.02182940211086038,-0.00014084233842060086,0.023566030345227675
4,operation,18.3265306122449,4.326530612244898,800.0,interface_ec,0.02470000750055827,0.02196620922050906,-0.00011710410396618163,0.023453791285310423
4,operation,18.448979591836736,4.448979591836735,800.0,anode,0.01282819405926607,0.01091488331252711,4.884839320948488e-06,0.011986620493946368
4,operation,18.448979591836736,4.448979591836735,800.0,electrolyte,0.006366670961408405,0.005819347551355144,-0.0001158001806522232,0.006114708744516414
4,operation,18.448979591836736,4.448979591836735,800.0,cathode,0.012832978517820292,0.011175470260930402,9.842964451970458e-05,0.012090945727753408
4,operation,18.448979591836736,4.448979591836735,800.0,interface_ae,0.02452191419884204,0.02186508265409155,0.00012090863980140046,0.02330828803985697
4,operation,18.448979591836736,4.448979591836735,800.0,interface_ec,0.024918621079871545,0.021623578179073243,-6.500937553086553e-05,0.02344567630524074
4,operation,18.57142857142857,4.571428571428571,800.0,anode,0.012309612772398802,0.010791312433102279,0.00015287788357103073,0.011628079300539072
4,operation,18.57142857142857,4.571428571428571,800.0,electrolyte,0.006115797372235349,0.005851183827931768,-0.00012923033749284512,0.005992059449600406
4,operation,18.57142857142857,4.571428571428571,800.0,cathode,0.012207749702509787,0.010510053326626256,-5.490544311588659e-05,0.011454052434803281
4,operation,18.57142857142857,4.571428571428571,800.0,interface_ae,0.025102146330307842,0.021876964848492955,-0.0001198361546999097,0.023655943240387448
4,operation,18.57142857142857,4.571428571428571,800.0,interface_ec,0.025003429534875863,0.022070260852713738,1.0404648103908559e-05,0.02367352984527826
4,operation,18.693877551020407,4.6938775510204085,800.0,anode,0.012806949831630518,0.011076312824924923,6.826525072925882e-05,0.012035899116834165
4,operation,18.693877551020407,4.6938775510204085,800.0,electrolyte,0.006339324258566742,0.005845479697124269,2.1679127760449332e-05,0.006107510429917162
4,operation,18.693877551020407,4.6938775510204085,800.0,cathode,0.012503965800534205,0.010775082876171734,1.2809888435898667e-05,0.01173545040581956
4,operation,18.693877551020407,4.6938775510204085,800.0,interface_ae,0.024636627699957007,0.021394573580006793,9.983045685783836e-05,0.023186870365941997
4,operation,18.693877551020407,4.6938775510204085,800.0,interface_ec,0.024499522203662097,0.021845437292956484,3.330021294490398e-05,0.023286267829630346
4,operation,18.816326530612244,4.816326530612245,800.0,anode,0.01246531260317261,0.01085538418528035,2.7121147527997343e-05,0.011743501755342082
4,operation,18.816326530612244,4.816326530612245,800.0,electrolyte,0.006594193413957033,0.005866992963150398,0.0001733441339384263,0.006269533588657498
4,operation,18.816326530612244,4.816326530612245,800.0,cathode,0.01244683883029964,0.01092480976900354,-9.067289653500941e-05,0.011760977154658455
4,operation,18.816326530612244,4.816326530612245,800.0,interface_ae,0.024887189264779865,0.021957476620628115,-1.923031842816272e-05,0.02355937609588365
4,operation,18.816326530612244,4.816326530612245,800.0,interface_ec,0.024908922500836806,0.02176549676129013,6.709926520889239e-05,0.02349573800359141
4,operation,18.93877551020408,4.938775510204081,800.0,anode,0.012582520462805948,0.011091725573346096,1.1784432614130065e-05,0.011907340173836095
4,operation,18.93877551020408,4.938775510204081,800.0,electrolyte,0.006292006369676591,0.005597617389471636,5.951573238847285e-05,0.005976039381781487
4,operation,18.93877551020408,4.938775510204081,800.0,cathode,0.012889762461148046,0.010843855845693584,4.5583767838814e-05,0.011998612150276106
4,operation,18.93877551020408,4.938775510204081,800.0,interface_ae,0.02468878948850412,0.02162920659115018,-6.763158635773625e-05,0.023310377472972703
4,operation,18.93877551020408,4.938775510204081,800.0,interface_ec,0.024383505604659465,0.02209468701258155,-0.00022301302529146138,0.023326676136566683
4,operation,19.06122448979592,5.061224489795919,800.0,anode,0.012347234353919873,0.01067637442092999,-8.843802153622045e-05,0.011603401819813395
4,operation,19.06122448979592,5.061224489795919,800.0,electrolyte,0.006775304531947734,0.005760213398006278,-9.653961591817005e-05,0.006331316580540688
4,operation,19.06122448979592,5.061224489795919,800.0,cathode,0.012282096573500698,0.010758903755911584,-4.354567207888061e-06,0.01159577803346663
4,operation,19.06122448979592,5.061224489795919,800.0,interface_ae,0.024834578336957538,0.022203114954645713,-0.0001916300765997707,0.02363133012457918
4,operation,19.06122448979592,5.061224489795919,800.0,interface_ec,0.02479303753704841,0.021760886461493094,9.465485277167824e-05,0.023425185029102708
4,operation,19.183673469387756,5.183673469387755,800.0,anode,0.012470963623635678,0.011030072441622988,3.4508618601508256e-05,0.011816741180131768
4,operation,19.183673469387756,5.183673469387755,800.0,electrolyte,0.006313601774943293,0.005962253099298603,7.98504904615669e-05,0.006147020899976748
4,operation,19.183673469387756,5.183673469387755,800.0,cathode,0.012583105958344947,0.011164810034101432,4.176751006519598e-05,0.011937536788102814
4,operation,19.183673469387756,5.183673469387755,800.0,interface_ae,0.0250961984808235,0.021899527914357328,-2.1905858802460866e-05,0.023660410847774958
4,operation,19.183673469387756,5.183673469387755,800.0,interface_ec,0.024798679217903328,0.021819231246372778,-5.19391322090543e-05,0.023451509966214815
4,operation,19.306122448979593,5.3061224489795915,800.0,anode,0.012726377769674044,0.010971259073100733,9.473847583290661e-06,0.011945923927167337
4,operation,19.306122448979593,5.3061224489795915,800.0,electrolyte,0.006577654850985287,0.00631597090334743,-0.00011317241885996595,0.006453772472647942
4,operation,19.306122448979593,5.3061224489795915,800.0,cathode,0.012230992297656744,0.0106358857965106,-2.325992384354861e-05,0.011516658589975142
4,operation,19.306122448979593,5.3061224489795915,800.0,interface_ae,0.024849103688665473,0.021730935496331785,-5.397267981517701e-05,0.02344623597565781
4,operation,19.306122448979593,5.3061224489795915,800.0,interface_ec,0.024828480973325625,0.02172357843503406,3.1017582718283814e-05,0.023430893279821677
4,operation,19.42857142857143,5.428571428571429,800.0,anode,0.01262284686934852,0.011047406093960162,8.810133471652024e-05,0.011914487592836698
4,operation,19.42857142857143,5.428571428571429,800.0,electrolyte,0.006717183682301345,0.005776565632023741,-1.5864102604310115e-05,0.006299822991873263
4,operation,19.42857142857143,5.428571428571429,800.0,cathode,0.01224554938582336,0.010833764367272855,-5.2368553267689445e-05,0.01160460085175405
4,operation,19.42857142857143,5.428571428571429,800.0,interface_ae,0.024946334465324183,0.021893356510918838,6.967578627143014e-05,0.02356892514786423
4,operation,19.42857142857143,5.428571428571429,800.0,interface_ec,0.02456793262877997,0.022110349896848215,-4.269803715067624e-05,0.02343609969504179
4,operation,19.551020408163264,5.551020408163265,800.0,anode,0.012179996671585067,0.010824156447035637,0.0002483765992587508,0.011569855877118538
4,operation,19.551020408163264,5.551020408163265,800.0,electrolyte,0.006422456626701687,0.005654980705705815,-1.921046806296761e-05,0.006075277337108862
4,operation,19.551020408163264,5.551020408163265,800.0,cathode,0.012370275923313708,0.01075570478683975,1.4321308320613041e-05,0.01164725251796597
4,operation,19.551020408163264,5.551020408163265,800.0,interface_ae,0.025015118981639665,0.02188685786309574,-0.00011111652988999856,0.023607740507194108
4,operation,19.551020408163264,5.551020408163265,800.0,interface_ec,0.024731130819013257,0.021713694519979673,5.2939468234801105e-06,0.02336897998702667
4,operation,19.6734693877551,5.673469387755102,800.0,anode,0.012666090334312463,0.010882223440795823,-8.81548688703908e-06,0.0118750848153394
4,operation,19.6734693877551,5.673469387755102,800.0,electrolyte,0.006855528963763886,0.005895241198334332,5.740812821065351e-05,0.006430166129700132
4,operation,19.6734693877551,5.673469387755102,800.0,cathode,0.012791626323060355,0.011009962250958802,-0.00019865271419775224,0.012005333752697477
4,operation,19.6734693877551,5.673469387755102,800.0,interface_ae,0.02496653315157607,0.02150559830857627,4.520053685824478e-05,0.02342870957540416
4,operation,19.6734693877551,5.673469387755102,800.0,interface_ec,0.02445725128517415,0.021730628917920016,-3.637845296098712e-05,0.023214432832605925
4,operation,19.79591836734694,5.795918367346939,800.0,anode,0.01224597617855365,0.01084222960056176,0.00010325617203605524,0.011609314164811937
4,operation,19.79591836734694,5.795918367346939,800.0,electrolyte,0.00635720941756809,0.005829028175902109,-9.656496396073002e-05,0.006112552872242224
4,operation,19.79591836734694,5.795918367346939,800.0,cathode,0.012362100084721574,0.01097676785326549,-9.965284166185597e-05,0.011732213783719053
4,operation,19.79591836734694,5.795918367346939,800.0,interface_ae,0.02453765591341786,0.021922375630115776,0.00011230803993406389,0.02334097770583332
4,operation,19.79591836734694,5.795918367346939,800.0,interface_ec,0.024784186996102523,0.02173253741868866,1.5567538768838684e-05,0.023408044845153023
4,operation,19.918367346938776,5.918367346938775,800.0,anode,0.012411095983753076,0.01096058050814225,-0.00025282451003137143,0.011761316787154865
4,operation,19.918367346938776,5.918367346938775,800.0,electrolyte,0.006286179141766808,0.00555095397891263,1.5086762851156253e-05,0.005952774982349154
4,operation,19.918367346938776,5.918367346938775,800.0,cathode,0.012437175576724453,0.011039236097736807,2.5758174921043683e-05,0.011800556885931495
4,operation,19.918367346938776,5.918367346938775,800.0,interface_ae,0.024539852985922532,0.02211340092351701,0.00012719183034223664,0.02342212224752788
4,operation,19.918367346938776,5.918367346938775,800.0,interface_ec,0.024548360541994614,0.021890541058874835,-5.954243852430158e-05,0.023333485266530663
4,operation,20.04081632653061,6.040816326530612,800.0,anode,0.01242777279784011,0.011122662055928373,0.00021301042663209588,0.01183508983119479
4,operation,20.04081632653061,6.040816326530612,800.0,electrolyte,0.006650255541028522,0.0057789869470220275,-3.398211683082972e-05,0.006260536181642888
4,operation,20.04081632653061,6.040816326530612,800.0,cathode,0.012436426974202235,0.011183954378665662,-4.470875675958535e-06,0.011859897954107483
4,operation,20.04081632653061,6.040816326530612,800.0,interface_ae,0.02462277746973047,0.021500062026896673,5.130478674102508e-05,0.023219614362732628
4,operation,20.04081632653061,6.040816326530612,800.0,interface_ec,0.024849457625125547,0.02169481836534754,0.00010260141257072977,0.023432622551976905
4,operation,20.163265306122447,6.163265306122449,800.0,anode,0.012315644627122473,0.01088507118163504,-1.666413329794352e-06,0.01166632834818578
4,operation,20.163265306122447,6.163265306122449,800.0,electrolyte,0.006429809451572383,0.005767173013149915,0.00011515151459330011,0.006128677688724469
4,operation,20.163265306122447,6.163265306122449,800.0,cathode,0.012171503620376315,0.011009704027694802,1.7215866960644107e-05,0.01163423052393838
4,operation,20.163265306122447,6.163265306122449,800.0,interface_ae,0.02483075276590894,0.021998368913974817,4.92974252171587e-06,0.023542695915037996
4,operation,20.163265306122447,6.163265306122449,800.0,interface_ec,0.02489604585238114,0.02196717292591423,-5.0436520038060665e-05,0.023568658692377842
4,operation,20.285714285714285,6.285714285714286,800.0,anode,0.01245983669216276,0.010861842478557874,-1.3268177971989551e-05,0.011742695478431785
4,operation,20.285714285714285,6.285714285714286,800.0,electrolyte,0.006435587720704334,0.005814216080819378,8.164470901825371e-06,0.006148512039985895
4,operation,20.285714285714285,6.285714285714286,800.0,cathode,0.012478908806863335,0.01090849652742085,-0.0001604121012470325,0.011775802488143784
4,operation,20.285714285714285,6.285714285714286,800.0,interface_ae,0.02480627368321994,0.021836707591031363,2.425959371534602e-05,0.023462894817202505
4,operation,20.285714285714285,6.285714285714286,800.0,interface_ec,0.02468125416126285,0.021584906056666898,6.24606644894278e-05,0.023288229387831053
4,operation,20.408163265306122,6.408163265306122,800.0,anode,0.012345278688693166,0.010946248809536999,-2.8146007988829563e-05,0.011708721251510726
4,operation,20.408163265306122,6.408163265306122,800.0,electrolyte,0.006498787634845282,0.005630142930412838,-9.680835891538282e-05,0.006113244838560348
4,operation,20.408163265306122,6.408163265306122,800.0,cathode,0.012494746332153731,0.010791375982354776,1.6395148089481065e-05,0.011736174096597067
4,operation,20.408163265306122,6.408163265306122,800.0,interface_ae,0.024882092044380414,0.021706637456879382,-0.0001203885634372985,0.02345705742909731
4,operation,20.408163265306122,6.408163265306122,800.0,interface_ec,0.02528521712277061,0.021718445624810914,6.234171586011585e-05,0.023704200715900507
4,operation,20.53061224489796,6.530612244897959,800.0,anode,0.012787892709914024,0.011069981549370778,-3.0044280882755154e-05,0.012021466761008893
4,operation,20.53061224489796,6.530612244897959,800.0,electrolyte,0.006486576722492979,0.005553478556052231,8.816964269577422e-05,0.006075940962225251
4,operation,20.53061224489796,6.530612244897959,800.0,cathode,0.012513254141611738,0.01080911483634765,-0.00010421748070984446,0.011755589122399891
4,operation,20.53061224489796,6.530612244897959,800.0,interface_ae,0.02453575325246726,0.02202130280076084,1.2037312895556077e-05,0.023380165687653415
4,operation,20.53061224489796,6.530612244897959,800.0,interface_ec,0.02484299690726655,0.02165941027482753,-0.00014635031033044063,0.02341546799782152
4,operation,20.653061224489797,6.653061224489796,800.0,anode,0.012592522714942326,0.010920407807399446,9.072346600576203e-05,0.01184635572135965
4,operation,20.653061224489797,6.653061224489796,800.0,electrolyte,0.0064228133746968875,0.005672636431392628,7.132981766206321e-05,0.0060837746848703906
4,operation,20.653061224489797,6.653061224489796,800.0,cathode,0.012546469615930105,0.011071513124537191,-2.952012531026962e-05,0.011877984424315195
4,operation,20.653061224489797,6.653061224489796,800.0,interface_ae,0.024922909447530173,0.022045819893095342,-1.0477201168153433e-05,0.023616179761164705
4,operation,20.653061224489797,6.653061224489796,800.0,interface_ec,0.02469730232724519,0.022092549520663352,-6.544457335513071e-05,0.023503701003276048
4,operation,20.775510204081634,6.775510204081632,800.0,anode,0.012525895299422895,0.010900315537896027,-0.00018415656164845606,0.011801714351611738
4,operation,20.775510204081634,6.775510204081632,800.0,electrolyte,0.006725718813495716,0.005168429274090527,-0.0001984128066757609,0.006107753731125081
4,operation,20.775510204081634,6.775510204081632,800.0,cathode,0.012505466015896133,0.011017414239735623,-6.375798578775357e-05,0.01183234518972691
4,operation,20.775510204081634,6.775510204081632,800.0,interface_ae,0.024829564418060647,0.021317713990844398,7.069754644705993e-05,0.023273539495182585
4,operation,20.775510204081634,6.775510204081632,800.0,interface_ec,0.02484994509741072,0.021814871429333242,2.0841482137772022e-06,0.023479992387726266
4,operation,20.89795918367347,6.8979591836734695,800.0,anode,0.012498650835238606,0.010906219695300428,-0.00018740555027312204,0.011787884940065657
4,operation,20.89795918367347,6.8979591836734695,800.0,electrolyte,0.006939266446904505,0.0059601601638856905,-0.00012849446619548282,0.006509018439089287
4,operation,20.89795918367347,6.8979591836734695,800.0,cathode,0.012330972553904682,0.010864793161968792,0.00010788495665089636,0.01166867883631393
4,operation,20.89795918367347,6.8979591836734695,800.0,interface_ae,0.024368146212936044,0.021724198347114042,-0.00017606364433375037,0.023161647118006345
4,operation,20.89795918367347,6.8979591836734695,800.0,interface_ec,0.02474298089683433,0.02172949982138302,7.969406738271223e-06,0.02338234072338951
4,operation,21.020408163265305,7.020408163265306,800.0,anode,0.012279025120198163,0.010761795321721895,6.196566917631479e-05,0.011595596603353703
4,operation,21.020408163265305,7.020408163265306,800.0,electrolyte,0.006590934548188517,0.005830279668555649,-1.7690009049084265e-05,0.0062455205025885785
4,operation,21.020408163265305,7.020408163265306,800.0,cathode,0.012285652283554962,0.010888229503595845,5.011620700684522e-05,0.011650293000319164
4,operation,21.020408163265305,7.020408163265306,800.0,interface_ae,0.02436464405980563,0.02190282238607417,3.0913818733479796e-05,0.023231829551020294
4,operation,21.020408163265305,7.020408163265306,800.0,interface_ec,0.024812430181217145,0.021794137315625666,-0.0002566119385932414,0.02345363834008249
4,operation,21.142857142857142,7.142857142857142,800.0,anode,0.012312029347379919,0.011269887742215474,1.2901295568305681e-06,0.011825449367459643
4,operation,21.142857142857142,7.142857142857142,800.0,electrolyte,0.006438542032265057,0.005723381239118023,3.547728686280086e-05,0.006112729467958057
4,operation,21.142857142857142,7.142857142857142,800.0,cathode,0.012531764048937893,0.010866223967368412,4.249196023936837e-05,0.011787807061762766
4,operation,21.142857142857142,7.142857142857142,800.0,interface_ae,0.02513533016055227,0.02202525015988654,0.00023403002158569794,0.023737077376986746
4,operation,21.142857142857142,7.142857142857142,800.0,interface_ec,0.024668645928329656,0.022159237901500404,-7.906736399225946e-05,0.023514979851639195
4,operation,21.26530612244898,7.26530612244898,800.0,anode,0.012470713229348092,0.01105849530584762,-5.1077719190447246e-05,0.011828335046445326
4,operation,21.26530612244898,7.26530612244898,800.0,electrolyte,0.0065175928554948555,0.005902092220490368,-7.10270898311908e-05,0.006233892015659269
4,operation,21.26530612244898,7.26530612244898,800.0,cathode,0.01273387669190953,0.01063508067505453,0.00019396914427283844,0.011829776951904484
4,operation,21.26530612244898,7.26530612244898,800.0,interface_ae,0.025000265226959917,0.021806054884734444,-4.026682112367315e-05,0.02356618339131384
4,operation,21.26530612244898,7.26530612244898,800.0,interface_ec,0.024698594347441795,0.021796840871948598,-4.849586154882626e-06,0.023383147233424172
4,operation,21.387755102040817,7.387755102040816,800.0,anode,0.012651045249326916,0.011305730820076916,1.9937992065400772e-05,0.012034964713933897
4,operation,21.387755102040817,7.387755102040816,800.0,electrolyte,0.00633087430240212,0.005610854791872761,-1.8309078461128447e-05,0.006003419873620558
4,operation,21.387755102040817,7.387755102040816,800.0,cathode,0.012193975578940645,0.010676211719578523,0.0002097127212373027,0.011516119589222426
4,operation,21.387755102040817,7.387755102040816,800.0,interface_ae,0.02486052270518925,0.02165737337326393,8.166035703577127e-05,0.02342421382597794
4,operation,21.387755102040817,7.387755102040816,800.0,interface_ec,0.02456433077503863,0.02160479759042579,-8.030424010642451e-05,0.02322682882622461
4,operation,21.51020408163265,7.5102040816326525,800.0,anode,0.012730902656173007,0.010861423986844325,-0.0002441706986902487,0.01191425784383187
4,operation,21.51020408163265,7.5102040816326525,800.0,electrolyte,0.0067420131866351195,0.0056587237271675285,-0.00018494080058784057,0.0062791174013748395
4,operation,21.51020408163265,7.5102040816326525,800.0,cathode,0.012336663302407317,0.01101620077932098,4.040491665329693e-05,0.0117325052240749
4,operation,21.51020408163265,7.5102040816326525,800.0,interface_ae,0.025159682995832964,0.021653446427486015,4.67201202649723e-06,0.02360270340954829
4,operation,21.51020408163265,7.5102040816326525,800.0,interface_ec,0.024660086144284315,0.021515561421162555,8.855273723059549e-05,0.023248379698048764
4,operation,21.632653061224488,7.63265306122449,800.0,anode,0.012492653913829503,0.01096873568993977,4.267901932586446e-05,0.011804931600643121
4,operation,21.632653061224488,7.63265306122449,800.0,electrolyte,0.006362905429462317,0.005518860982536362,3.7647372169360278e-06,0.0059856865987415195
4,operation,21.632653061224488,7.63265306122449,800.0,cathode,0.012632242280482323,0.011233615427090709,7.95432706807433e-05,0.011995036066287323
4,operation,21.632653061224488,7.63265306122449,800.0,interface_ae,0.02480583488535362,0.021877956785879987,1.1593859325371441e-06,0.02347921331427749
4,operation,21.632653061224488,7.63265306122449,800.0,interface_ec,0.024594811332060113,0.02182892947564211,-0.00013348268175884933,0.023336279852558216
4,operation,21.755102040816325,7.755102040816326,800.0,anode,0.012375184554779392,0.011239221022119264,8.228592227833518e-05,0.01184897297098915
4,operation,21.755102040816325,7.755102040816326,800.0,electrolyte,0.006315376163152695,0.005705514186071544,-8.343763117547379e-05,0.0060353363978508795
4,operation,21.755102040816325,7.755102040816326,800.0,cathode,0.012387497246364558,0.011120221563304913,6.530079383099038e-05,0.011805528121702245
4,operation,21.755102040816325,7.755102040816326,800.0,interface_ae,0.025296828816149065,0.022062495480501515,2.040003810776915e-05,0.023844775780829955
4,operation,21.755102040816325,7.755102040816326,800.0,interface_ec,0.024935429994826657,0.021783511365163332,-0.00011275042470864963,0.023519225151147644
4,operation,21.877551020408163,7.877551020408163,800.0,anode,0.012661155315657504,0.01111379829538633,-2.4105421459396425e-05,0.011962841774720154
4,operation,21.877551020408163,7.877551020408163,800.0,electrolyte,0.006554787147386268,0.005968187837476962,8.463514262060202e-05,0.006283771877046966
4,operation,21.877551020408163,7.877551020408163,800.0,cathode,0.01210737974975006,0.010960724004297965,-1.6763152548836402e-05,0.011576757329263882
4,operation,21.877551020408163,7.877551020408163,800.0,interface_ae,0.025022600139827735,0.022030208547756534,0.0001318607828178045,0.023669804999745164
4,operation,21.877551020408163,7.877551020408163,800.0,interface_ec,0.024576421132255957,0.021667177693188752,0.00011140824361354388,0.02325946294550284
4,operation,22.0,8.0,800.0,anode,0.01228167083693151,0.010607713403817139,5.3259648761406534e-05,0.011536511067763334
4,operation,22.0,8.0,800.0,electrolyte,0.006390556311946806,0.006077958154061681,2.9618455398846356e-05,0.006240343196668052
4,operation,22.0,8.0,800.0,cathode,0.012432051857328333,0.010838151221676848,0.00015908353339269714,0.011719936005523806
4,operation,22.0,8.0,800.0,interface_ae,0.024871710891977962,0.02174230009636876,-7.940837066054469e-05,0.02346444823811497
4,operation,22.0,8.0,800.0,interface_ec,0.024785305389087155,0.02162847063256904,0.00010288774416789441,0.023368046839023313
4,shutdown,28.0,8.0,800.0,anode,0.012038331589195152,0.010884097194333385,6.101335450879344e-05,0.011505207342807041
4,shutdown,28.0,8.0,800.0,electrolyte,0.006568423884021932,0.005576543405396867,6.602587067065492e-05,0.006134004077677544
4,shutdown,28.0,8.0,800.0,cathode,0.012222792122322818,0.010907523068700638,6.518415719803557e-05,0.011621663678003836
4,shutdown,28.0,8.0,800.0,interface_ae,0.024892582555898622,0.021688992197716105,0.00011974945165643634,0.023456364590712802
4,shutdown,28.0,8.0,800.0,interface_ec,0.024817338914297105,0.02197259908218783,0.00015291010066732473,0.023525818316472567
4,shutdown,28.04081632653061,8.040816326530612,739.2480966557373,anode,0.01165147365624672,0.01028063908217899,1.9267992984947225e-05,0.011030181169478107
4,shutdown,28.04081632653061,8.040816326530612,739.2480966557373,electrolyte,0.006149254931617319,0.005314331073455854,-0.00012093244677784134,0.005781016206574223
4,shutdown,28.04081632653061,8.040816326530612,739.2480966557373,cathode,0.011488518304992807,0.010107885397660474,5.837293615218192e-05,0.010864667313803303
4,shutdown,28.04081632653061,8.040816326530612,739.2480966557373,interface_ae,0.022830339697940915,0.019960935290472794,6.565060831752271e-05,0.02153976195390343
4,shutdown,28.04081632653061,8.040816326530612,739.2480966557373,interface_ec,0.022593284635533145,0.020404990228996858,-2.314180612049924e-05,0.021582539036643675
4,shutdown,28.081632653061224,8.081632653061224,683.2585078404431,anode,0.010581241759858325,0.009379991421049755,5.9068804484419095e-05,0.010035209349037113
4,shutdown,28.081632653061224,8.081632653061224,683.2585078404431,electrolyte,0.005239080947703693,0.005023189786879608,3.0315382837627336e-05,0.005134809049007809
4,shutdown,28.081632653061224,8.081632653061224,683.2585078404431,cathode,0.01040508384853537,0.009118346400204258,-3.340530820568455e-05,0.00982528370373612
4,shutdown,28.081632653061224,8.081632653061224,683.2585078404431,interface_ae,0.020804523913572084,0.018881013058984288,0.00014861513251433444,0.01991423212375158
4,shutdown,28.081632653061224,8.081632653061224,683.2585078404431,interface_ec,0.02115461229108937,0.01849187989751846,-1.9710798793739534e-05,0.019956950145549088
4,shutdown,28.122448979591837,8.122448979591837,631.6579178483621,anode,0.009858139826808585,0.008893308863205327,-5.7039673959674324e-05,0.00941340223606843
4,shutdown,28.122448979591837,8.122448979591837,631.6579178483621,electrolyte,0.004864581457300308,0.00478705498064503,-0.00017871385875844515,0.004836201523762474
4,shutdown,28.122448979591837,8.122448979591837,631.6579178483621,cathode,0.009504820523923263,0.008492371904802766,-0.00015604334678050313,0.009045251326643224
4,shutdown,28.122448979591837,8.122448979591837,631.6579178483621,interface_ae,0.019635483183708904,0.017254868020710894,-5.747932272153171e-05,0.018560304712738496
4,shutdown,28.122448979591837,8.122448979591837,631.6579178483621,interface_ec,0.019668976194983135,0.01737334545229064,-1.1317064829006355e-05,0.018627566208793543
4,shutdown,28.163265306122447,8.16326530612245,584.1022750249358,anode,0.008855502764885372,0.008324080437899591,7.211618220841551e-05,0.00860301861289257
4,shutdown,28.163265306122447,8.16326530612245,584.1022750249358,electrolyte,0.004740509817899684,0.004399244690157126,3.0193063500302137e-05,0.004579722633052863
4,shutdown,28.163265306122447,8.16326530612245,584.1022750249358,cathode,0.008844512283215134,0.007888191984448605,0.00010386542873197352,0.008409169013315454
4,shutdown,28.163265306122447,8.16326530612245,584.1022750249358,interface_ae,0.017492835687528102,0.015686713916814348,0.00013830573985816052,0.016665070366121262
4,shutdown,28.163265306122447,8.16326530612245,584.1022750249358,interface_ec,0.01778889912057924,0.01605354177678847,0.0001414743819359813,0.016989595207307785
4,shutdown,28.20408163265306,8.204081632653061,540.2744977709071,anode,0.008231286141236725,0.007141357067636573,-2.873588741496345e-05,0.007744222110684541
4,shutdown,28.20408163265306,8.204081632653061,540.2744977709071,electrolyte,0.004854579976478863,0.004177943118095795,1.2539097180673832e-05,0.004554170410620615
4,shutdown,28.20408163265306,8.204081632653061,540.2744977709071,cathode,0.008122761254010433,0.007278473135730626,2.438269266167647e-05,0.007735367189024791
4,shutdown,28.20408163265306,8.204081632653061,540.2744977709071,interface_ae,0.01624011218114716,0.014526138111071799,0.00013224043248117302,0.015456269996072216
4,shutdown,28.20408163265306,8.204081632653061,540.2744977709071,interface_ec,0.016128912592425736,0.014675446650256196,0.00013747979700547798,0.015455363522272456
4,shutdown,28.244897959183675,8.244897959183673,499.8823603717566,anode,0.007486006296929232,0.007025178785672544,-6.903370624483453e-05,0.0072675437101900565
4,shutdown,28.244897959183675,8.244897959183673,499.8823603717566,electrolyte,0.004071100845167459,0.0034435836583272066,-3.069963571626035e-05,0.0037968120264901153
4,shutdown,28.244897959183675,8.244897959183673,499.8823603717566,cathode,0.007474657951996496,0.0068260587302067365,8.488054577314491e-05,0.007173893589968658
4,shutdown,28.244897959183675,8.244897959183673,499.8823603717566,interface_ae,0.015183351091980775,0.013100693625334212,4.031701666343898e-05,0.014256744697538789
4,shutdown,28.244897959183675,8.244897959183673,499.8823603717566,interface_ec,0.01528063840377835,0.01332934426579138,0.00018672312871808087,0.014408089230649969
4,shutdown,28.285714285714285,8.285714285714286,462.65654455601276,anode,0.006689718859916074,0.005718747405297947,-7.308348996976709e-05,0.006262237741216754
4,shutdown,28.285714285714285,8.285714285714286,462.65654455601276,electrolyte,0.00381275269986872,0.00301901873039761,-9.809709185260753e-05,0.0034885031959079387
4,shutdown,28.285714285714285,8.285714285714286,462.65654455601276,cathode,0.007192708980131835,0.0062547137319082105,3.7706090962839984e-05,0.006772919308631048
4,shutdown,28.285714285714285,8.285714285714286,462.65654455601276,interface_ae,0.014161295209685515,0.012239369704042744,-3.789840740581913e-05,0.013305015373028414
4,shutdown,28.285714285714285,8.285714285714286,462.65654455601276,interface_ec,0.014166965280304694,0.01205543093854108,-0.00021427198463985466,0.013243307225616799
4,shutdown,28.3265306122449,8.326530612244898,428.34884379104386,anode,0.006366924665931131,0.005865326378391035,2.5555969898680326e-05,0.006131692373005183
4,shutdown,28.3265306122449,8.326530612244898,428.34884379104386,electrolyte,0.003554384087459165,0.0025737158301537815,3.1549680832349176e-05,0.0031800426051090264
4,shutdown,28.3265306122449,8.326530612244898,428.34884379104386,cathode,0.006584354401585177,0.0054089922360557605,8.620575905465449e-05,0.006084282402753372
4,shutdown,28.3265306122449,8.326530612244898,428.34884379104386,interface_ae,0.012884859222012246,0.011972570781476994,-0.00021772360688967357,0.012459509217887903
4,shutdown,28.3265306122449,8.326530612244898,428.34884379104386,interface_ec,0.013180985874848354,0.01127947182185058,-0.00016171517144400436,0.01234377453793353
4,shutdown,28.367346938775512,8.36734693877551,396.7305083432843,anode,0.00584229710477955,0.005289461405740937,0.00010374666695650433,0.005589322184258902
4,shutdown,28.367346938775512,8.36734693877551,396.7305083432843,electrolyte,0.003462132605021723,0.003027989595448722,-9.653820207044945e-05,0.003271045785709464
4,shutdown,28.367346938775512,8.36734693877551,396.7305083432843,cathode,0.006173721071945772,0.0053122225488976185,-6.546030209289879e-05,0.005792341076599266
4,shutdown,28.367346938775512,8.36734693877551,396.7305083432843,interface_ae,0.011852994148289601,0.010325962583057941,3.7092341936455838e-06,0.011168054474657255
4,shutdown,28.367346938775512,8.36734693877551,396.7305083432843,interface_ec,0.011749444690526275,0.0102623323003034,4.791191277827721e-05,0.011081294855454785
4,shutdown,28.408163265306122,8.408163265306122,367.5907200684652,anode,0.0056071976307473705,0.0047861579385456675,0.00013676513039359724,0.005250443193887673
4,shutdown,28.408163265306122,8.408163265306122,367.5907200684652,electrolyte,0.0028212554058558467,0.0024679856313511773,6.604889823456973e-05,0.0026647147518030225
4,shutdown,28.408163265306122,8.408163265306122,367.5907200684652,cathode,0.005454966404106775,0.004840636884369218,-0.00025204384706190654,0.005193600931921941
4,shutdown,28.408163265306122,8.408163265306122,367.5907200684652,interface_ae,0.01096624451913848,0.009281915489633728,-0.00012209505709988706,0.010230808411549868
4,shutdown,28.408163265306122,8.408163265306122,367.5907200684652,interface_ec,0.010695838534439785,0.009438838046421214,-5.48853859632253e-05,0.01012646903618948
4,shutdown,28.448979591836732,8.448979591836734,340.7351867623481,anode,0.0049544644650884725,0.004578406470465286,2.2238781413469703e-05,0.004777703995662318
4,shutdown,28.448979591836732,8.448979591836734,340.7351867623481,electrolyte,0.00226788668063029,0.0023469883059359826,3.182552465834273e-05,0.002309112205548401
4,shutdown,28.448979591836732,8.448979591836734,340.7351867623481,cathode,0.004986049684946978,0.00443337423423252,1.903101253970567e-05,0.004734085011486844
4,shutdown,28.448979591836732,8.448979591836734,340.7351867623481,interface_ae,0.010256445895922254,0.008576126861735174,-2.44317038639649e-05,0.009528160574584416
4,shutdown,28.448979591836732,8.448979591836734,340.7351867623481,interface_ec,0.010405193196006685,0.009174435120887312,8.5093692777578e-05,0.009848769372169526
4,shutdown,28.48979591836735,8.489795918367347,315.9848466996775,anode,0.004763122483985976,0.004427993591211878,0.00019178480016066659,0.004616679698304519
4,shutdown,28.48979591836735,8.489795918367347,315.9848466996775,electrolyte,0.002414702071484699,0.001953769412145117,-2.7029231762449518e-05,0.002220905603861884
4,shutdown,28.48979591836735,8.489795918367347,315.9848466996775,cathode,0.0052750966499492515,0.003783195372986421,-4.705391395294173e-05,0.004710534244733009
4,shutdown,28.48979591836735,8.489795918367347,315.9848466996775,interface_ae,0.009028976863891154,0.008219086055638397,-0.00012026910288948676,0.00865501328313893
4,shutdown,28.48979591836735,8.489795918367347,315.9848466996775,interface_ec,0.009289764889822957,0.007804114251059167,6.176206650846505e-05,0.008643898891396978
4,shutdown,28.53061224489796,8.53061224489796,293.17467472374994,anode,0.004535263846873594,0.0036991106956977076,-1.3513000707570208e-05,0.004180447691284628
4,shutdown,28.53061224489796,8.53061224489796,293.17467472374994,electrolyte,0.002216525503149705,0.0020154842504254565,-3.816958696642825e-06,0.0021231659226453787
4,shutdown,28.53061224489796,8.53061224489796,293.17467472374994,cathode,0.004444418186066138,0.0040225072468005885,-8.140712224921829e-05,0.004251540257435416
4,shutdown,28.53061224489796,8.53061224489796,293.17467472374994,interface_ae,0.008519723892605139,0.007732122730005748,-0.00014216690480590324,0.008158216756202267
4,shutdown,28.53061224489796,8.53061224489796,293.17467472374994,interface_ec,0.008187445334790884,0.007597062030800494,4.963464110704922e-05,0.007909265030369038
4,shutdown,28.57142857142857,8.571428571428571,272.15258192607723,anode,0.0038099812732265174,0.003364178142695077,-7.601923217408988e-05,0.003610198460699752
4,shutdown,28.57142857142857,8.571428571428571,272.15258192607723,electrolyte,0.0018995075747369223,0.001962844672014032,-0.00011804984869976388,0.0019427447621209186
4,shutdown,28.57142857142857,8.571428571428571,272.15258192607723,cathode,0.003901336738530566,0.0032988411200161973,-0.00014552889759012155,0.003646426607862129
4,shutdown,28.57142857142857,8.571428571428571,272.15258192607723,interface_ae,0.008082918256583827,0.006855851662603628,1.8844008042075687e-05,0.007544670057999149
4,shutdown,28.57142857142857,8.571428571428571,272.15258192607723,interface_ec,0.00760726744567427,0.00681142881628704,7.560878806950055e-05,0.007243401817046531
4,shutdown,28.612244897959183,8.612244897959183,252.77840157967978,anode,0.004161908716443938,0.0028118766813638287,-2.0110779528942633e-05,0.0036778490855166827
4,shutdown,28.612244897959183,8.612244897959183,252.77840157967978,electrolyte,0.001992855616748595,0.001557931526817651,8.49521986994124e-05,0.0018208630332680498
4,shutdown,28.612244897959183,8.612244897959183,252.77840157967978,cathode,0.0034711078911428134,0.0032378894262852192,-5.2207190449835986e-05,0.003361789874870384
4,shutdown,28.612244897959183,8.612244897959183,252.77840157967978,interface_ae,0.007532795067140707,0.006278966887876661,-3.518737962865159e-05,0.006990992086814942
4,shutdown,28.612244897959183,8.612244897959183,252.77840157967978,interface_ec,0.007478046658049183,0.006208632056665209,6.875005676357227e-06,0.006931089050771046
4,shutdown,28.653061224489797,8.653061224489797,234.92295456460886,anode,0.0029942604042964213,0.002738128508543878,3.8213127589080355e-05,0.002875526743466379
4,shutdown,28.653061224489797,8.653061224489797,234.92295456460886,electrolyte,0.0015625046331507635,0.0014404522524862904,4.930864020479377e-05,0.0015076153779942298
4,shutdown,28.653061224489797,8.653061224489797,234.92295456460886,cathode,0.0032429300448043557,0.0031202836149129645,2.156627874860643e-05,0.003183598426782858
4,shutdown,28.653061224489797,8.653061224489797,234.92295456460886,interface_ae,0.006804671168452384,0.006159623520287092,3.1982306261406575e-05,0.006506409735727048
4,shutdown,28.653061224489797,8.653061224489797,234.92295456460886,interface_ec,0.007025304004161352,0.006093682857146951,-5.2345242983445675e-05,0.006609547080652144
4,shutdown,28.693877551020407,8.693877551020408,218.46718805434932,anode,0.0033541046238738438,0.0027767912119858276,-3.946797086605034e-05,0.0031067043923380527
4,shutdown,28.693877551020407,8.693877551020408,218.46718805434932,electrolyte,0.0016783051679071066,0.001650378030259831,4.550450942422218e-05,0.0016663822740705127
4,shutdown,28.693877551020407,8.693877551020408,218.46718805434932,cathode,0.0034599535753798687,0.002941324119385003,5.2316003340216245e-05,0.0032332696003363527
4,shutdown,28.693877551020407,8.693877551020408,218.46718805434932,interface_ae,0.005985736401190947,0.005412089512808453,7.166413975085133e-06,0.005720538963099548
4,shutdown,28.693877551020407,8.693877551020408,218.46718805434932,interface_ec,0.006330276317982728,0.005575502623864916,1.6954041021828618e-05,0.0059887409251491094
4,shutdown,28.73469387755102,8.73469387755102,203.30138172020213,anode,0.0028768920905986686,0.0026545748336356603,-8.58586225629986e-05,0.002776412327940054
4,shutdown,28.73469387755102,8.73469387755102,203.30138172020213,electrolyte,0.0018345341073097313,0.0009065458532118947,0.0001455409482172029,0.0016086634172892912
4,shutdown,28.73469387755102,8.73469387755102,203.30138172020213,cathode,0.002843785001838202,0.0027109994174747652,3.6384043429261275e-05,0.0027804860889186923
4,shutdown,28.73469387755102,8.73469387755102,203.30138172020213,interface_ae,0.005774851097228629,0.005131817804446197,8.090542890877786e-05,0.005483485438996888
4,shutdown,28.73469387755102,8.73469387755102,203.30138172020213,interface_ec,0.0056398780497290205,0.00522792673534614,-0.00010844706235787836,0.005448839823457297
4,shutdown,28.775510204081634,8.775510204081632,189.32441616095798,anode,0.002628124543910103,0.002480881764400744,9.950175796158894e-05,0.0025634836631409567
4,shutdown,28.775510204081634,8.775510204081632,189.32441616095798,electrolyte,0.0014703625503570891,0.0011341417194290849,8.967077783687035e-05,0.0013434159830036448
4,shutdown,28.775510204081634,8.775510204081632,189.32441616095798,cathode,0.002495317410751577,0.002663969594296071,-8.46708974996642e-06,0.0025838166235630246
4,shutdown,28.775510204081634,8.775510204081632,189.32441616095798,interface_ae,0.004950456178309463,0.004388438865489267,4.3643636879587525e-06,0.004694751846233787
4,shutdown,28.775510204081634,8.775510204081632,189.32441616095798,interface_ec,0.005286346371415867,0.005021306896082796,-0.00010384993376142265,0.005162070111843149
4,shutdown,28.816326530612244,8.816326530612244,176.44309868003802,anode,0.0024309820187413942,0.001920434547998524,-4.926548532134034e-05,0.002221819488250104
4,shutdown,28.816326530612244,8.816326530612244,176.44309868003802,electrolyte,0.0016069623304270897,0.0008904805288524373,5.8704242406783386e-05,0.001398089196747469
4,shutdown,28.816326530612244,8.816326530612244,176.44309868003802,cathode,0.0025016710506834865,0.0021274845441432936,5.1943662319173756e-05,0.0023388835945172583
4,shutdown,28.816326530612244,8.816326530612244,176.44309868003802,interface_ae,0.004614175081372559,0.0045959021603905826,0.0001924845495123521,0.0046171183686304455
4,shutdown,28.816326530612244,8.816326530612244,176.44309868003802,interface_ec,0.004855600097313079,0.004749258884952582,-3.990279315499205e-05,0.004803809639868317
4,shutdown,28.857142857142858,8.857142857142858,164.57154191466293,anode,0.002313231069405863,0.0022515451229133568,-4.590044602229096e-05,0.0022843970410859477
4,shutdown,28.857142857142858,8.857142857142858,164.57154191466293,electrolyte,0.0008942902171858014,0.0007077846123625157,0.00020608265639026588,0.0008917170959085326
4,shutdown,28.857142857142858,8.857142857142858,164.57154191466293,cathode,0.0021273397405068514,0.0019280199574747542,-0.00011127640783210544,0.002044120634589453
4,shutdown,28.857142857142858,8.857142857142858,164.57154191466293,interface_ae,0.004655957197135051,0.0037740226484719907,-4.912630276613219e-05,0.004284476238853446
4,shutdown,28.857142857142858,8.857142857142858,164.57154191466293,interface_ec,0.004526193425152446,0.0037175254348677934,-1.7858226951422537e-05,0.0041810453057167605
4,shutdown,28.89795918367347,8.89795918367347,153.63059117400576,anode,0.0023385313766847464,0.0018967696032333738,1.3054229242835844e-05,0.002152050170114395
4,shutdown,28.89795918367347,8.89795918367347,153.63059117400576,electrolyte,0.001121810158190886,0.0008715497311470267,0.00019961523197549257,0.0010769783403687067
4,shutdown,28.89795918367347,8.89795918367347,153.63059117400576,cathode,0.0018956580326772788,0.001853303956122787,1.1502556634280714e-05,0.0018749456860519716
4,shutdown,28.89795918367347,8.89795918367347,153.63059117400576,interface_ae,0.004317931418994812,0.00384287223521873,-3.2018804487070807e-06,0.0041010938477239215
4,shutdown,28.89795918367347,8.89795918367347,153.63059117400576,interface_ec,0.004174312216190795,0.003687944398242792,-0.00022721416555706073,0.003973167985328857
4,shutdown,28.93877551020408,8.938775510204081,143.54729666804633,anode,0.0015789588261931864,0.0015481331989416983,-5.615986763768689e-05,0.0015667962822544551
4,shutdown,28.93877551020408,8.938775510204081,143.54729666804633,electrolyte,0.0007544111650811106,0.0010248720458117906,2.1184210174724717e-07,0.0009199587690634715
4,shutdown,28.93877551020408,8.938775510204081,143.54729666804633,cathode,0.001853817837211374,0.001417914882184615,-4.454486424478854e-06,0.0016788766523453359
4,shutdown,28.93877551020408,8.938775510204081,143.54729666804633,interface_ae,0.003268176542177761,0.0033057006120110165,6.318366880775604e-06,0.003287117432756859
4,shutdown,28.93877551020408,8.938775510204081,143.54729666804633,interface_ec,0.003841896490241783,0.0030254715214763288,2.2481673669147478e-05,0.003505939877730784
4,shutdown,28.97959183673469,8.979591836734693,134.25442710817435,anode,0.001539784579757881,0.001375808367224628,7.179313858226648e-05,0.0014699658060899165
4,shutdown,28.97959183673469,8.979591836734693,134.25442710817435,electrolyte,0.001319150197837282,0.0008166399105460293,-8.170954586402323e-05,0.001161816094762018
4,shutdown,28.97959183673469,8.979591836734693,134.25442710817435,cathode,0.0017858049232327893,0.0017261081651829238,6.209975658727353e-05,0.0017600071879518681
4,shutdown,28.97959183673469,8.979591836734693,134.25442710817435,interface_ae,0.004044764241954328,0.002933537153547256,2.5223147991929806e-05,0.003619696181270736
4,shutdown,28.97959183673469,8.979591836734693,134.25442710817435,interface_ec,0.0038059252581452195,0.003373836514769896,-0.00019500779265243807,0.0036251006066249495
4,shutdown,29.02040816326531,9.020408163265307,125.69002143642092,anode,0.0016103688189747383,0.0017146196549945464,0.00028906429903991377,0.001738595057094544
4,shutdown,29.02040816326531,9.020408163265307,125.69002143642092,electrolyte,0.0009852561307330488,0.0006695846607656423,-0.000100920315243739,0.0008887719612489066
4,shutdown,29.02040816326531,9.020408163265307,125.69002143642092,cathode,0.0020547890144889044,0.0015634638191179583,-8.480669268854175e-05,0.0018642867947435162
4,shutdown,29.02040816326531,9.020408163265307,125.69002143642092,interface_ae,0.003181449412698713,0.002897468307015354,5.438066538881178e-05,0.0030508467484219306
4,shutdown,29.02040816326531,9.020408163265307,125.69002143642092,interface_ec,0.003042156954456311,0.0027125929200245143,-0.000165293456237296,0.002905634465839966
4,shutdown,29.06122448979592,9.061224489795919,117.79697569443749,anode,0.0016927040690319563,0.0012382577244236168,4.6632164918329213e-05,0.0015195555419874917
4,shutdown,29.06122448979592,9.061224489795919,117.79697569443749,electrolyte,0.0010627489172169993,0.000728875578116315,-1.1297047594906803e-05,0.0009415232380798434
4,shutdown,29.06122448979592,9.061224489795919,117.79697569443749,cathode,0.0015235359064877869,0.0013192201385477254,0.00012461649978779448,0.0014485206241977619
4,shutdown,29.06122448979592,9.061224489795919,117.79697569443749,interface_ae,0.003031670901729758,0.0025042826316395775,0.00010478490568897503,0.0028112699622872194
4,shutdown,29.06122448979592,9.061224489795919,117.79697569443749,interface_ec,0.0032156000934936706,0.0023454967101912676,0.00015327838847681055,0.002893050661730031
4,shutdown,29.10204081632653,9.10204081632653,110.52266227762675,anode,0.0014413049510837253,0.0012608130748983043,0.0001006624631596515,0.0013712010206673052
4,shutdown,29.10204081632653,9.10204081632653,110.52266227762675,electrolyte,0.000603891566708272,0.0008220453263582172,-3.767754697378553e-05,0.000740456680385131
4,shutdown,29.10204081632653,9.10204081632653,110.52266227762675,cathode,0.0010733724604999604,0.0010046078290475977,5.6702183290322664e-05,0.0010453192644406736
4,shutdown,29.10204081632653,9.10204081632653,110.52266227762675,interface_ae,0.0025476315248851244,0.0027303333943758993,0.00011892834534396429,0.00265173438640691
4,shutdown,29.10204081632653,9.10204081632653,110.52266227762675,interface_ec,0.003003413026090649,0.002433273885673452,2.578616172949595e-05,0.002763182929544067
4,shutdown,29.142857142857142,9.142857142857142,103.81857903577588,anode,0.0010223548937235588,0.0013089222948552226,3.798334550370854e-05,0.0011935795711419603
4,shutdown,29.142857142857142,9.142857142857142,103.81857903577588,electrolyte,0.0007745201750359273,0.0009193943262707547,-6.059629839475101e-05,0.0008626086646583792
4,shutdown,29.142857142857142,9.142857142857142,103.81857903577588,cathode,0.0012358689545969505,0.001175099777132158,-9.354354054587067e-05,0.0012174618712611693
4,shutdown,29.142857142857142,9.142857142857142,103.81857903577588,interface_ae,0.0024846747648894604,0.002318121147740843,-3.2542127137283104e-05,0.0024063861276298554
4,shutdown,29.142857142857142,9.142857142857142,103.81857903577588,interface_ec,0.002783992411090651,0.0019173462732840502,0.00011227712402333419,0.0024752315972788666
4,shutdown,29.183673469387756,9.183673469387756,97.64002588053233,anode,0.0012944775090517184,0.000909005846886577,-9.244085682299981e-05,0.0011622873838918032
4,shutdown,29.183673469387756,9.183673469387756,97.64002588053233,electrolyte,0.0001931824032914583,0.00037709525304838805,0.00010471766550029969,0.0003735899784026617
4,shutdown,29.183673469387756,9.183673469387756,97.64002588053233,cathode,0.0011510232688327824,0.0012553677404762635,-6.19871070624552e-05,0.0012113514986653077
4,shutdown,29.183673469387756,9.183673469387756,97.64002588053233,interface_ae,0.002465902060198347,0.001902043408378906,-9.65575006209839e-05,0.002244138897510219
4,shutdown,29.183673469387756,9.183673469387756,97.64002588053233,interface_ec,0.0023030553847428995,0.001912549826531791,-0.00015428221490372125,0.002151420873070563
4,shutdown,29.224489795918366,9.224489795918368,91.94580674347571,anode,0.001034669967752213,0.000963884042234396,0.00012683586114960676,0.001024975377834822
4,shutdown,29.224489795918366,9.224489795918368,91.94580674347571,electrolyte,0.000748842095210602,0.0007380918844564774,7.203574983935085e-05,0.0007539212744115533
4,shutdown,29.224489795918366,9.224489795918368,91.94580674347571,cathode,0.0011376554596856066,0.0006968079776537596,1.4987219793527455e-05,0.0009938549958698824
4,shutdown,29.224489795918366,9.224489795918368,91.94580674347571,interface_ae,0.002261624571257386,0.0021766815077703637,6.862885417318137e-05,0.002223551543069097
4,shutdown,29.224489795918366,9.224489795918368,91.94580674347571,interface_ec,0.0023903425027123077,0.0016787943396232286,-3.2641762614809506e-05,0.0021265913349088708
4,shutdown,29.26530612244898,9.26530612244898,86.69795489756177,anode,0.0010730374210932427,0.0011008977431061823,-1.4522864583891965e-05,0.0010875262817421287
4,shutdown,29.26530612244898,9.26530612244898,86.69795489756177,electrolyte,0.0005009775266658487,0.0005927987734767937,-0.00011258708271451244,0.0005860354582236152
4,shutdown,29.26530612244898,9.26530612244898,86.69795489756177,cathode,0.0013086481883256744,0.000692879986336133,-0.00019185894235593031,0.0011816666952711918
4,shutdown,29.26530612244898,9.26530612244898,86.69795489756177,interface_ae,0.001976347958426493,0.0020771061503904527,5.864531303336102e-05,0.0020311461127229305
4,shutdown,29.26530612244898,9.26530612244898,86.69795489756177,interface_ec,0.0021245526653227037,0.0017456915623767627,-1.5237749727117704e-05,0.0019629177170871325
4,shutdown,29.306122448979593,9.306122448979592,81.8614798104968,anode,0.0006008018030493256,0.0003487323841509576,1.962723384408633e-05,0.0005236542008314816
4,shutdown,29.306122448979593,9.306122448979592,81.8614798104968,electrolyte,0.0007394125727625345,0.0004885011467927637,6.235995270520134e-05,0.000660171738666428
4,shutdown,29.306122448979593,9.306122448979592,81.8614798104968,cathode,0.0012265271860958569,0.0008663630060200065,-1.2265510030761952e-05,0.0010921480415813237
4,shutdown,29.306122448979593,9.306122448979592,81.8614798104968,interface_ae,0.0016558623928058845,0.002005661784058007,5.2654777915368035e-05,0.0018578958829659742
4,shutdown,29.306122448979593,9.306122448979592,81.8614798104968,interface_ec,0.0016308470107520314,0.0013669857379033424,0.00012530637269289127,0.001531689406120577
4,shutdown,29.346938775510203,9.346938775510203,77.40413384216254,anode,0.0006309778021929356,0.0011086170359980929,-0.0002756462797090711,0.0010749858571488535
4,shutdown,29.346938775510203,9.346938775510203,77.40413384216254,electrolyte,0.0007240375814600037,0.0004841552791061603,1.1859442305687404e-05,0.0006391494938064989
4,shutdown,29.346938775510203,9.346938775510203,77.40413384216254,cathode,0.0008033744544662481,0.0011159961742164546,7.070588584012034e-05,0.0010046358166940143
4,shutdown,29.346938775510203,9.346938775510203,77.40413384216254,interface_ae,0.001496291561170111,0.0011319184177895208,1.772972131473084e-05,0.0013518101912407046
4,shutdown,29.346938775510203,9.346938775510203,77.40413384216254,interface_ec,0.0016767180562417185,0.0011717268015201954,-5.539352548233571e-06,0.0014898871452953904
4,shutdown,29.387755102040817,9.387755102040817,73.29619723052508,anode,0.0006579522290735612,0.0006818684706671321,7.25923611648402e-05,0.0006819221506307311
4,shutdown,29.387755102040817,9.387755102040817,73.29619723052508,electrolyte,0.0007035868694907594,0.0005382349016720554,-7.214407498302056e-05,0.0006493462754533154
4,shutdown,29.387755102040817,9.387755102040817,73.29619723052508,cathode,0.0008465221814542401,0.0006926318813041979,-0.0001332128954630901,0.0008144000872664703
4,shutdown,29.387755102040817,9.387755102040817,73.29619723052508,interface_ae,0.0016251248683152569,0.0017313553815951292,3.242660418700401e-06,0.0016807692146791522
4,shutdown,29.387755102040817,9.387755102040817,73.29619723052508,interface_ec,0.0012266417754317224,0.00136607464823331,-0.00012137121989732503,0.0013188323157084724
4,shutdown,29.42857142857143,9.428571428571429,69.51027993240348,anode,0.0008848855802957133,0.0007316777397932668,-1.7091005347474328e-05,0.0008196340836917448
4,shutdown,29.42857142857143,9.428571428571429,69.51027993240348,electrolyte,0.00030707917206834886,0.0002860677218876622,8.274494342320364e-07,0.0002971346062799419
4,shutdown,29.42857142857143,9.428571428571429,69.51027993240348,cathode,0.0005577174746501473,0.0003491541252479537,0.0001138698946694648,0.000526428614768362
4,shutdown,29.42857142857143,9.428571428571429,69.51027993240348,interface_ae,0.0013472487625375198,0.001286818103730311,2.852819511674943e-05,0.001318998686934627
4,shutdown,29.42857142857143,9.428571428571429,69.51027993240348,interface_ec,0.0014887330537679542,0.0010186458834767972,-0.0001675840164551848,0.0013497136556331756
4,shutdown,29.46938775510204,9.46938775510204,66.02113899784933,anode,0.0005385997190271909,0.0006567199435731093,-7.27949867474313e-05,0.0006193213179129907
4,shutdown,29.46938775510204,9.46938775510204,66.02113899784933,electrolyte,0.0002730639918227606,0.0007282219538050082,-0.00018454238848045359,0.0007128728101372717
4,shutdown,29.46938775510204,9.46938775510204,66.02113899784933,cathode,0.0005053314247834897,0.0009568984508045043,-4.459867199522342e-06,0.0008291702525741803
4,shutdown,29.46938775510204,9.46938775510204,66.02113899784933,interface_ae,0.0011714794148313967,0.0013889090575816615,5.523043648111129e-06,0.0012940036829969673
4,shutdown,29.46938775510204,9.46938775510204,66.02113899784933,interface_ec,0.0012430147689223776,0.0011936290595869396,-6.581088093827663e-05,0.001224389935485291
4,shutdown,29.51020408163265,9.510204081632653,62.8055102604701,anode,0.0004013899515899058,0.0005095821989404692,-0.00010109969600760072,0.0004969005757181672
4,shutdown,29.51020408163265,9.510204081632653,62.8055102604701,electrolyte,0.0003192171355116259,0.00034991036986891803,8.530604560516109e-05,0.00036670263817029005
4,shutdown,29.51020408163265,9.510204081632653,62.8055102604701,cathode,0.000830473161270887,0.00045115428414096856,4.994146079390693e-05,0.0007252839331167101
4,shutdown,29.51020408163265,9.510204081632653,62.8055102604701,interface_ae,0.0013082810175763144,0.0011301669120980346,-4.794594109504585e-05,0.0012317455062485492
4,shutdown,29.51020408163265,9.510204081632653,62.8055102604701,interface_ec,0.0010041627658422209,0.0011650035467481498,-0.000170686256219305,0.0011327507822586286
4,shutdown,29.551020408163264,9.551020408163264,59.84195322147059,anode,0.0005039033650298672,-2.0151501771413743e-05,-0.00013364024233582635,0.0005639665211515865
4,shutdown,29.551020408163264,9.551020408163264,59.84195322147059,electrolyte,0.0001167960457809136,0.0004765009349798076,6.881080244042689e-05,0.0004463695911771149
4,shutdown,29.551020408163264,9.551020408163264,59.84195322147059,cathode,0.00044668431477508093,0.000636448660384256,8.876229633803968e-05,0.0005864625958842933
4,shutdown,29.551020408163264,9.551020408163264,59.84195322147059,interface_ae,0.0010828095334121145,0.0007042737738738737,-2.0791231006611424e-05,0.000952460237276214
4,shutdown,29.551020408163264,9.551020408163264,59.84195322147059,interface_ec,0.0010953640220526316,0.0007346585245505666,3.670467929299679e-05,0.0009689523583031202
4,shutdown,29.591836734693878,9.591836734693878,57.11070809316573,anode,0.0005697337003511226,0.0005411273099306108,2.7892309716744347e-05,0.0005580777123705182
4,shutdown,29.591836734693878,9.591836734693878,57.11070809316573,electrolyte,0.0004152842232882576,0.0002011321367388233,2.017851073709533e-05,0.00036139955208061266
4,shutdown,29.591836734693878,9.591836734693878,57.11070809316573,cathode,0.00043422327264154516,0.0003352189268273833,0.00013382496307620757,0.00045726259651923
4,shutdown,29.591836734693878,9.591836734693878,57.11070809316573,interface_ae,0.0006187889186760039,0.0010795895377343997,-6.205408754456606e-05,0.0009444190714593616
4,shutdown,29.591836734693878,9.591836734693878,57.11070809316573,interface_ec,0.0008775350234526789,0.0009565530367166282,-0.0001489609612351003,0.0009551024771433139
4,shutdown,29.632653061224488,9.63265306122449,54.59356404878929,anode,0.000310292410391388,0.0002468494525043548,-2.2139825818509488e-05,0.0002865153332522509
4,shutdown,29.632653061224488,9.63265306122449,54.59356404878929,electrolyte,8.73765479383531e-05,0.0005386433324298858,0.00017970165164979542,0.0005895630217034094
4,shutdown,29.632653061224488,9.63265306122449,54.59356404878929,cathode,6.909832023101599e-05,0.0005255419227601005,8.586634390775748e-05,0.0005165016102701771
4,shutdown,29.632653061224488,9.63265306122449,54.59356404878929,interface_ae,0.0010555910900394783,0.0007017320649955675,-2.440955621585415e-05,0.0009315287458330617
4,shutdown,29.632653061224488,9.63265306122449,54.59356404878929,interface_ec,0.0007973391186057181,0.0007493019573821406,-0.00012099650286671762,0.0008022940808986204
4,shutdown,29.6734693877551,9.673469387755102,52.27373780013852,anode,0.00041342204047530625,8.345388596493639e-05,-2.0013455422813766e-05,0.00038023975858145047
4,shutdown,29.6734693877551,9.673469387755102,52.27373780013852,electrolyte,-2.0968859496210484e-05,0.00024266105328317412,-6.794195609428907e-05,0.00027975119941534395
4,shutdown,29.6734693877551,9.673469387755102,52.27373780013852,cathode,0.0004944958743771238,0.0006003303738989068,0.00015894469361047082,0.0006195579725304898
4,shutdown,29.6734693877551,9.673469387755102,52.27373780013852,interface_ae,0.0003671586918003346,0.0006011896376771442,-3.0308607711201398e-05,0.0005275019617268034
4,shutdown,29.6734693877551,9.673469387755102,52.27373780013852,interface_ec,0.0009648251732807293,0.00043795755562099485,-9.820924068002156e-05,0.0008538601325128807
4,shutdown,29.714285714285715,9.714285714285714,50.135761693466634,anode,0.0004282436276268882,0.00037088917294934365,3.77618406420093e-05,0.00040791951187549156
4,shutdown,29.714285714285715,9.714285714285714,50.135761693466634,electrolyte,0.00029955121119379504,0.0002532370245414037,1.9365531663149268e-05,0.0002812961655542999
4,shutdown,29.714285714285715,9.714285714285714,50.135761693466634,cathode,0.00041332014176073976,0.0004868641425888828,-0.00022393226665642254,0.0005975587474387078
4,shutdown,29.714285714285715,9.714285714285714,50.135761693466634,interface_ae,0.0011132110715851794,0.0002669266391119557,-0.00010791618169044921,0.0010238558186673138
4,shutdown,29.714285714285715,9.714285714285714,50.135761693466634,interface_ec,0.0007589922148609035,0.000842345627505989,-0.00029952668907996165,0.0009567812066049177
4,shutdown,29.755102040816325,9.755102040816327,48.16538057748471,anode,0.00036502122445138856,0.0004846475664141317,9.94518116028477e-05,0.0004699884023085294
4,shutdown,29.755102040816325,9.755102040816327,48.16538057748471,electrolyte,5.4824357014896164e-05,0.0001108083966776549,-6.161481288926279e-05,0.00014352131304723323
4,shutdown,29.755102040816325,9.755102040816327,48.16538057748471,cathode,0.00029211115853453853,0.00011980324838529774,-8.89252162470918e-05,0.00029733644888544253
4,shutdown,29.755102040816325,9.755102040816327,48.16538057748471,interface_ae,0.0008281675628851844,0.0006786601917165179,4.9158650759047357e-05,0.0007691856277051567
4,shutdown,29.755102040816325,9.755102040816327,48.16538057748471,interface_ec,0.0007840950564196782,0.0007932048372914886,8.782139981549947e-05,0.0008032239877846187
4,shutdown,29.79591836734694,9.795918367346939,46.34945675583765,anode,-6.752015879818462e-06,0.00012973842103932155,-2.313759574900389e-05,0.0001391390976772188
4,shutdown,29.79591836734694,9.795918367346939,46.34945675583765,electrolyte,0.00017452445479020242,2.355464993754344e-05,9.120236709883058e-05,0.00022771991504623248
4,shutdown,29.79591836734694,9.795918367346939,46.34945675583765,cathode,0.0007375809817515221,0.0003378327422385409,8.434103219821126e-06,0.0006396804381667517
4,shutdown,29.79591836734694,9.795918367346939,46.34945675583765,interface_ae,0.000853073867207671,0.00022803275120370094,2.8468940438410426e-06,0.0007650029359629444
4,shutdown,29.79591836734694,9.795918367346939,46.34945675583765,interface_ec,0.0008789897812803082,0.0004725699028041658,-0.00012265605799019656,0.0007910086970515153
4,shutdown,29.836734693877553,9.83673469387755,44.67588239031102,anode,0.0002776529962250206,0.000264899337415195,-9.086522819154585e-05,0.00031381876876199443
4,shutdown,29.836734693877553,9.83673469387755,44.67588239031102,electrolyte,0.0005842557849353794,4.9481429956577336e-05,-0.00011536593514265688,0.000595668800102891
4,shutdown,29.836734693877553,9.83673469387755,44.67588239031102,cathode,0.00029608985443085395,0.00045860855159647737,1.7414248998230968e-06,0.000402753974398022
4,shutdown,29.836734693877553,9.83673469387755,44.67588239031102,interface_ae,0.000726747020498753,0.0003797707292445267,0.00014876884464035136,0.0006802839848552302
4,shutdown,29.836734693877553,9.83673469387755,44.67588239031102,interface_ec,0.0007419704420736411,0.0007636131618866802,3.651606324751693e-05,0.0007556765652344305
4,shutdown,29.877551020408163,9.877551020408163,43.13349877071198,anode,0.00045511278787714853,8.070915075617923e-05,-4.914104166895625e-05,0.0004291321195461633
4,shutdown,29.877551020408163,9.877551020408163,43.13349877071198,electrolyte,0.00042138352815588714,0.00044578530941611217,-0.00011470655997190769,0.00047740425020339274
4,shutdown,29.877551020408163,9.877551020408163,43.13349877071198,cathode,0.00034008319390415416,0.00016913090259457924,-6.970314693648616e-05,0.0003183062197394182
4,shutdown,29.877551020408163,9.877551020408163,43.13349877071198,interface_ae,0.0006372398997338734,0.000738831911856331,4.516624732841938e-05,0.000698035873040777
4,shutdown,29.877551020408163,9.877551020408163,43.13349877071198,interface_ec,0.0005163694706789764,0.0006136115613702814,-3.5997617358090106e-05,0.0005746249095850847
4,shutdown,29.918367346938776,9.918367346938776,41.71202191314853,anode,0.00034981521075649685,0.0005145984086282779,-0.00020771596593008277,0.00058017723203941
4,shutdown,29.918367346938776,9.918367346938776,41.71202191314853,electrolyte,0.00029961580478602665,-0.00018446548064543616,0.00012283277105444614,0.0004736344438497856
4,shutdown,29.918367346938776,9.918367346938776,41.71202191314853,cathode,0.00013998722863580433,-8.229006984165503e-06,6.952692270887475e-05,0.00018793103938230624
4,shutdown,29.918367346938776,9.918367346938776,41.71202191314853,interface_ae,0.0006076187138492351,0.00027077315648193096,-0.00012529997571683938,0.0005701684122682175
4,shutdown,29.918367346938776,9.918367346938776,41.71202191314853,interface_ec,0.0004972884037224965,0.00022979314704002328,-0.00010614729729236276,0.00046864584260712704
4,shutdown,29.95918367346939,9.959183673469388,40.401973990626175,anode,0.0002695557419343055,2.3685466936997166e-05,4.265392900265429e-05,0.00026887695832593237
4,shutdown,29.95918367346939,9.959183673469388,40.401973990626175,electrolyte,0.00042720656554968907,8.396542182811798e-05,1.3015106198558458e-05,0.0003926744722992477
4,shutdown,29.95918367346939,9.959183673469388,40.401973990626175,cathode,0.0006500509304171161,-2.0660429687452864e-05,0.0001191235195180742,0.0006920943835484389
4,shutdown,29.95918367346939,9.959183673469388,40.401973990626175,interface_ae,0.000707034687282534,0.0006045830554107897,0.00012917478507326312,0.0006985813508017812
4,shutdown,29.95918367346939,9.959183673469388,40.401973990626175,interface_ec,0.0005489781608917613,0.00031713368845617953,0.00010945732912205675,0.0005136088483856467
4,shutdown,30.0,10.0,39.19462013876898,anode,0.0004536823645628827,0.00042092303185252487,4.450208231923649e-06,0.000438289793777338
4,shutdown,30.0,10.0,39.19462013876898,electrolyte,-2.4187249945893197e-05,0.0001430379052658817,9.422300175678358e-05,0.00022613819038228784
4,shutdown,30.0,10.0,39.19462013876898,cathode,0.00043198428019229683,0.00011392502613894828,3.153728961273901e-05,0.00039161117375510117
4,shutdown,30.0,10.0,39.19462013876898,interface_ae,0.00019247218354341626,0.0005967105237089048,-7.833087567250635e-05,0.0005446705346833097
4,shutdown,30.0,10.0,39.19462013876898,interface_ec,0.0006112789163549169,0.0001698595876297022,0.00010314159064340079,0.0005749758008754361
5,startup,16.0,0.0,25.0,anode,6.43670380045541e-05,-0.00015627153912338925,6.913563810805253e-05,0.00023013442808298123
5,startup,16.0,0.0,25.0,electrolyte,-0.00011807233836106615,0.00014991100748902567,-2.7411147538072145e-05,0.0002374212363727795
5,startup,16.0,0.0,25.0,cathode,-0.0003442094251259326,-0.0001964832480961874,-4.304147086872844e-05,0.0003082403508587399
5,startup,16.0,0.0,25.0,interface_ae,0.00027363780474971557,0.000180228726105845,0.0001623861412322142,0.000370338258259127
5,startup,16.0,0.0,25.0,interface_ec,0.00033072704320597163,-0.00010695016091818299,-1.8848685975882942e-05,0.000396554968961575
5,startup,16.040816326530614,0.04081632653061224,85.7519033442633,anode,0.0009524861108039254,0.0007762709231294138,-0.00018414947093364585,0.0009339015728674499
5,startup,16.040816326530614,0.04081632653061224,85.7519033442633,electrolyte,0.0005065825489614205,0.00019127512271479219,-3.4171881534327396e-06,0.00044311448158311045
5,startup,16.040816326530614,0.04081632653061224,85.7519033442633,cathode,0.00145789625758263,0.0008087040249234874,1.9477400562806726e-05,0.0012655414784869664
5,startup,16.040816326530614,0.04081632653061224,85.7519033442633,interface_ae,0.0022508138685019227,0.0018772043467724395,2.9248418794229586e-05,0.002089829673073938
5,startup,16.040816326530614,0.04081632653061224,85.7519033442633,interface_ec,0.00199700370460245,0.0017747704933670117,-9.600105221878282e-05,0.0019029607080363997
5,startup,16.081632653061224,0.08163265306122448,141.74149215955785,anode,0.0021575802230761575,0.0014014683434196635,9.710883383822022e-05,0.0019036217934283858
5,startup,16.081632653061224,0.08163265306122448,141.74149215955785,electrolyte,0.0006983825153569207,0.0010541489840445834,-3.538175262121811e-05,0.0009308730335207565
5,startup,16.081632653061224,0.08163265306122448,141.74149215955785,cathode,0.0017419974836716597,0.00186562640375841,9.287675350757748e-05,0.0018141330945459033
5,startup,16.081632653061224,0.08163265306122448,141.74149215955785,interface_ae,0.0038891267129758443,0.0036436554592207517,-0.00022850844946693504,0.0037930913843709506
5,startup,16.081632653061224,0.08163265306122448,141.74149215955785,interface_ec,0.0037126231846472315,0.003758015135578711,-2.2366927419791617e-05,0.0037357268888585397
5,startup,16.122448979591837,0.12244897959183673,193.34208215163724,anode,0.0024948031210348907,0.0023834030558773024,-9.234004725250807e-05,0.002446244347971742
5,startup,16.122448979591837,0.12244897959183673,193.34208215163724,electrolyte,0.0013787089878804371,0.0011683229773124901,1.789317289381608e-05,0.0012868566975072564
5,startup,16.122448979591837,0.12244897959183673,193.34208215163724,cathode,0.0028533525760021453,0.0027951241429731047,4.245485997196691e-05,0.002825645496062242
5,startup,16.122448979591837,0.12244897959183673,193.34208215163724,interface_ae,0.005826025894888038,0.005279384008710307,-3.8876875042958176e-05,0.0055732557387731035
5,startup,16.122448979591837,0.12244897959183673,193.34208215163724,interface_ec,0.005482116083977624,0.005287746648857851,1.3584174810811249e-05,0.005387613016766058
5,startup,16.163265306122447,0.16326530612244897,240.897724975064,anode,0.003705096008897005,0.0031092926909331055,-6.168553331035775e-05,0.0034476984857184103
5,startup,16.163265306122447,0.16326530612244897,240.897724975064,electrolyte,0.001980099580448254,0.001790395658798317,7.838234057466585e-05,0.0018972560830457699
5,startup,16.163265306122447,0.16326530612244897,240.897724975064,cathode,0.003835818088406314,0.003349764582691105,1.3152273007815658e-05,0.0036174375648327685
5,startup,16.163265306122447,0.16326530612244897,240.897724975064,interface_ae,0.007319375597770242,0.006713982120466616,-3.737208704904336e-05,0.007036536660704756
5,startup,16.163265306122447,0.16326530612244897,240.897724975064,interface_ec,0.0074284473774105875,0.006311114750887457,-6.592990368504505e-05,0.006938534158931556
5,startup,16.20408163265306,0.2040816326530612,284.7255022290931,anode,0.004376480866330528,0.0037320786909683036,7.978518254783004e-05,0.004094840921493386
5,startup,16.20408163265306,0.2040816326530612,284.7255022290931,electrolyte,0.0019087360716124203,0.0019367876959670697,1.325080968421812e-05,0.0019230523091814875
5,startup,16.20408163265306,0.2040816326530612,284.7255022290931,cathode,0.004061551864238037,0.0038046616022090144,2.5569953804814273e-05,0.003939642686537064
5,startup,16.20408163265306,0.2040816326530612,284.7255022290931,interface_ae,0.00893316915846276,0.007744871290907439,6.768882044807155e-05,0.008403097197074152
5,startup,16.20408163265306,0.2040816326530612,284.7255022290931,interface_ec,0.008825560308356737,0.007788463315042484,2.516538689865537e-05,0.008355538448236968
5,startup,16.244897959183675,0.24489795918367346,325.117639628244,anode,0.005297081013608538,0.004363135756835193,-4.868218725182975e-05,0.0048980860737684595
5,startup,16.244897959183675,0.24489795918367346,325.117639628244,electrolyte,0.0023833363888587844,0.0021486222615116853,0.00014262342580797648,0.0022884502765226898
5,startup,16.244897959183675,0.24489795918367346,325.117639628244,cathode,0.005226226151727669,0.004272061408284532,-6.004469655886747e-05,0.004821618556890166
5,startup,16.244897959183675,0.24489795918367346,325.117639628244,interface_ae,0.01029791562057869,0.008815257158450046,-7.25340040814757e-05,0.009643279216738817
5,startup,16.244897959183675,0.24489795918367346,325.117639628244,interface_ec,0.010492354108958239,0.008873883588941962,9.546668160293868e-05,0.009785433941471522
5,startup,16.285714285714285,0.2857142857142857,362.34345544398667,anode,0.005996785427403768,0.004909541876524078,-8.899625565571414e-05,0.005536002955188863
5,startup,16.285714285714285,0.2857142857142857,362.34345544398667,electrolyte,0.002774105789653333,0.002272086797980893,1.210338785027424e-05,0.002560365537353187
5,startup,16.285714285714285,0.2857142857142857,362.34345544398667,cathode,0.005704590407126903,0.005128350297935131,0.00013969434562328213,0.0054447896293636396
5,startup,16.285714285714285,0.2857142857142857,362.34345544398667,interface_ae,0.011654938575149225,0.010210316544598213,-0.00019660484129679182,0.011009246357591394
5,startup,16.285714285714285,0.2857142857142857,362.34345544398667,interface_ec,0.011580116775415636,0.01045699412165665,-0.00030105225163135166,0.011073685697121912
5,startup,16.3265306122449,0.32653061224489793,396.65115620895585,anode,0.0064679349111218575,0.005538579679272232,-8.497950030229447e-05,0.006058757179403721
5,startup,16.3265306122449,0.32653061224489793,396.65115620895585,electrolyte,0.0032772999301478273,0.00308496648788305,7.752307288377537e-05,0.003188319634031217
5,startup,16.3265306122449,0.32653061224489793,396.65115620895585,cathode,0.006255820012274428,0.005381757429341894,1.4462763378954377e-05,0.0058678717386408475
5,startup,16.3265306122449,0.32653061224489793,396.65115620895585,interface_ae,0.012834750663529784,0.011063492183200305,-2.9038299165079667e-05,0.012047283922606001
5,startup,16.3265306122449,0.32653061224489793,396.65115620895585,interface_ec,0.013224516855021145,0.011356633177638995,0.00011501286783936323,0.012398171646880672
5,startup,16.367346938775512,0.36734693877551017,428.2694916567157,anode,0.006576532870231654,0.005902921509411514,7.4681639454239035e-06,0.006266951166467341
5,startup,16.367346938775512,0.36734693877551017,428.2694916567157,electrolyte,0.003182032741027683,0.003296468482070006,0.00014103123065906453,0.0032499593232230032
5,startup,16.367346938775512,0.36734693877551017,428.2694916567157,cathode,0.006761880983966606,0.006401142966591703,-4.2520967199421345e-07,0.006588922473442633
5,startup,16.367346938775512,0.36734693877551017,428.2694916567157,interface_ae,0.014255058046364642,0.01211765571664542,5.76192750328422e-05,0.013316017959145965
5,startup,16.367346938775512,0.36734693877551017,428.2694916567157,interface_ec,0.014017160791120744,0.012344245160501975,5.107320661358935e-05,0.013260382399623334
5,startup,16.408163265306122,0.4081632653061224,457.4092799315351,anode,0.007336678381396734,0.006583944211849865,-8.16184171876115e-05,0.006992200983344022
5,startup,16.408163265306122,0.4081632653061224,457.4092799315351,electrolyte,0.0036570852206179562,0.002969597953124118,-0.00017808816400803013,0.0033805114570125247
5,startup,16.408163265306122,0.4081632653061224,457.4092799315351,cathode,0.00737499179811339,0.006733573249985575,9.258046415960593e-05,0.007077936046020319
5,startup,16.408163265306122,0.4081632653061224,457.4092799315351,interface_ae,0.01471343043142588,0.013311633283337582,-5.690613908465737e-05,0.014065366700282857
5,startup,16.408163265306122,0.4081632653061224,457.4092799315351,interface_ec,0.014346246358211398,0.01252581508486229,-0.00011811909405957171,0.013529754448140101
5,startup,16.448979591836736,0.44897959183673464,484.2648132376524,anode,0.007985641767667945,0.006756678264040162,4.609586418573021e-05,0.007448029130941112
5,startup,16.448979591836736,0.44897959183673464,484.2648132376524,electrolyte,0.004181155110322913,0.0031696512290578216,4.7849973179588986e-05,0.0037792608266605018
5,startup,16.448979591836736,0.44897959183673464,484.2648132376524,cathode,0.007930109433546642,0.006711491203039019,0.0001354210925245083,0.007400196396786518
5,startup,16.448979591836736,0.44897959183673464,484.2648132376524,interface_ae,0.015587092226921102,0.013690527005284676,0.0002111613218417973,0.014735203901472588
5,startup,16.448979591836736,0.44897959183673464,484.2648132376524,interface_ec,0.015749186986504342,0.013952335711404378,0.00013548929315218387,0.014933910759338781
5,startup,16.489795918367346,0.4897959183673469,509.01515330032225,anode,0.008113776198255582,0.00750457069778047,-5.0189411499767004e-05,0.00782745778517308
5,startup,16.489795918367346,0.4897959183673469,509.01515330032225,electrolyte,0.003950557253038269,0.0035179441047355894,-6.220648349449548e-05,0.003754544269894418
5,startup,16.489795918367346,0.4897959183673469,509.01515330032225,cathode,0.008408302284678856,0.007308048609398745,-4.912244146171129e-05,0.007916190940830348
5,startup,16.489795918367346,0.4897959183673469,509.01515330032225,interface_ae,0.016622643002925812,0.014454176469262198,-3.280703703646766e-05,0.01565158430838529
5,startup,16.489795918367346,0.4897959183673469,509.01515330032225,interface_ec,0.01649747877327516,0.014601905027872711,3.8984764937741964e-05,0.01563625202875231
5,startup,16.53061224489796,0.5306122448979591,531.8253252762499,anode,0.008559729897286853,0.007765916407176809,-2.2239415107965608e-05,0.00819181118448024
5,startup,16.53061224489796,0.5306122448979591,531.8253252762499,electrolyte,0.004119796152982288,0.003447093554866077,9.831784809990213e-05,0.0038318208138670307
5,startup,16.53061224489796,0.5306122448979591,531.8253252762499,cathode,0.00863485774897622,0.007638668637391031,0.00010458029156995155,0.008184376636838814
5,startup,16.53061224489796,0.5306122448979591,531.8253252762499,interface_ae,0.017169278221155274,0.014918108481683031,6.9780702215218515e-06,0.016161716070136233
5,startup,16.53061224489796,0.5306122448979591,531.8253252762499,interface_ec,0.017326351777890898,0.015140418518145782,0.0001473737578076169,0.016345387074016275
5,startup,16.571428571428573,0.5714285714285714,552.8474180739229,anode,0.008493200129779319,0.008135592757704715,7.911536503642259e-05,0.008321290658370612
5,startup,16.571428571428573,0.5714285714285714,552.8474180739229,electrolyte,0.004518461532934285,0.0032286741822130705,0.00012838887832702684,0.004037529271351786
5,startup,16.571428571428573,0.5714285714285714,552.8474180739229,cathode,0.008785146621196413,0.007810043034448082,-1.7059266479006884e-05,0.008340507972305285
5,startup,16.571428571428573,0.5714285714285714,552.8474180739229,interface_ae,0.018062350493577576,0.01595104846868803,8.928405543192964e-05,0.017105406728559626
5,startup,16.571428571428573,0.5714285714285714,552.8474180739229,interface_ec,0.018144037588662884,0.015873748301092144,4.159226590575908e-05,0.01712230384752582
5,startup,16.612244897959183,0.6122448979591836,572.2215984203204,anode,0.009102268739607462,0.008051763783475477,8.954602236748323e-05,0.008626525019859138
5,startup,16.612244897959183,0.6122448979591836,572.2215984203204,electrolyte,0.004757042400225843,0.004183608325823379,-5.144167616565275e-05,0.004498707321854321
5,startup,16.612244897959183,0.6122448979591836,572.2215984203204,cathode,0.00950251790916065,0.00796972025434321,0.0001077359809862273,0.008838365189519368
5,startup,16.612244897959183,0.6122448979591836,572.2215984203204,interface_ae,0.018588664805294645,0.016740772370946688,-0.00015214420920654851,0.017739017904477447
5,startup,16.612244897959183,0.6122448979591836,572.2215984203204,interface_ec,0.018993519774727526,0.01633164542384587,-3.794792560117442e-05,0.017812504751064877
5,startup,16.653061224489797,0.6530612244897959,590.0770454353908,anode,0.009663505827987003,0.008330177713926959,-7.2329001302306895e-06,0.009070647258656705
5,startup,16.653061224489797,0.6530612244897959,590.0770454353908,electrolyte,0.004591830611887816,0.0040304204549531115,4.868859503005719e-05,0.004339274262592763
5,startup,16.653061224489797,0.6530612244897959,590.0770454353908,cathode,0.009444224965129179,0.008315954649486,-0.0001372791249746409,0.008936849393896079
5,startup,16.653061224489797,0.6530612244897959,590.0770454353908,interface_ae,0.019148289992387497,0.01720150739891898,-8.459336401029685e-05,0.01825351699149059
5,startup,16.653061224489797,0.6530612244897959,590.0770454353908,interface_ec,0.019102749475342316,0.0169779713822705,-3.707964337995265e-05,0.018134076777153618
5,startup,16.693877551020407,0.6938775510204082,606.5328119456506,anode,0.01035044781271198,0.008683733301981751,3.3521834621737174e-05,0.009626101846653148
5,startup,16.693877551020407,0.6938775510204082,606.5328119456506,electrolyte,0.005066125728116934,0.004477002907790791,2.3328758155737935e-05,0.004798933007066628
5,startup,16.693877551020407,0.6938775510204082,606.5328119456506,cathode,0.00987259142870485,0.009121044602192855,-9.976027531426665e-06,0.009519110670449207
5,startup,16.693877551020407,0.6938775510204082,606.5328119456506,interface_ae,0.0197212958311984,0.017303307992175204,-0.0001726803202706756,0.018632760837855384
5,startup,16.693877551020407,0.6938775510204082,606.5328119456506,interface_ec,0.01997395700253153,0.01696286411041384,-5.722840904920714e-07,0.018651600461319133
5,startup,16.73469387755102,0.7346938775510203,621.6986182797979,anode,0.010122152726427443,0.009391542909334204,-0.00018316512287136266,0.009782487963530546
5,startup,16.73469387755102,0.7346938775510203,621.6986182797979,electrolyte,0.004824348399143369,0.004376801478019082,-1.975293374691683e-05,0.004616999456966868
5,startup,16.73469387755102,0.7346938775510203,621.6986182797979,cathode,0.010053215935119712,0.00892735228900748,-0.00012595627288697412,0.00954273358047647
5,startup,16.73469387755102,0.7346938775510203,621.6986182797979,interface_ae,0.02039768828236243,0.017422802673360313,-2.576935587725707e-06,0.0190849380990548
5,startup,16.73469387755102,0.7346938775510203,621.6986182797979,interface_ec,0.020206178367710725,0.018090357330327156,0.00017553110706333046,0.019238142299169356
5,startup,16.775510204081634,0.7755102040816326,635.6755838390422,anode,0.010334973703895554,0.009431187226956435,-3.1611628063041075e-05,0.009914176711562831
5,startup,16.775510204081634,0.7755102040816326,635.6755838390422,electrolyte,0.004928569914669376,0.004856360519416895,5.2077644473400674e-05,0.004893696229917696
5,startup,16.775510204081634,0.7755102040816326,635.6755838390422,cathode,0.010402071842167588,0.00929047753614788,2.7421503513016733e-05,0.009893336772636143
5,startup,16.775510204081634,0.7755102040816326,635.6755838390422,interface_ae,0.020788524393702944,0.0180407971167947,-2.705367371612667e-05,0.01956000388129774
5,startup,16.775510204081634,0.7755102040816326,635.6755838390422,interface_ec,0.020927019359982944,0.018281529797118938,9.02325761130386e-05,0.01973831220684817
5,startup,16.816326530612244,0.8163265306122448,648.5569013199622,anode,0.010697313065964973,0.00917048495023154,-0.00013191719578321237,0.01002411886471679
5,startup,16.816326530612244,0.8163265306122448,648.5569013199622,electrolyte,0.005198396375600747,0.004497406536895449,3.3632180962168616e-05,0.004886111129083876
5,startup,16.816326530612244,0.8163265306122448,648.5569013199622,cathode,0.010476954529439069,0.009223033748697646,0.00010530697175949125,0.009911351633751364
5,startup,16.816326530612244,0.8163265306122448,648.5569013199622,interface_ae,0.021270804716108812,0.018551679014611785,1.7641808735019673e-06,0.02005000736641474
5,startup,16.816326530612244,0.8163265306122448,648.5569013199622,interface_ec,0.02151694637098357,0.018750981765352188,5.929508094251296e-05,0.020276217028031913
5,startup,16.857142857142858,0.8571428571428571,660.4284580853368,anode,0.010672334572341539,0.009729331577516305,0.00023181022604638017,0.010241344850723946
5,startup,16.857142857142858,0.8571428571428571,660.4284580853368,electrolyte,0.005171106442535738,0.004453493179639314,1.7554224383514822e-05,0.0048523582432140975
5,startup,16.857142857142858,0.8571428571428571,660.4284580853368,cathode,0.010997882489615909,0.009505769767679332,-0.00010532063960426628,0.010334554492798699
5,startup,16.857142857142858,0.8571428571428571,660.4284580853368,interface_ae,0.021623846126937976,0.01916771385873426,-4.070318269460594e-05,0.020506517282381283
5,startup,16.857142857142858,0.8571428571428571,660.4284580853368,interface_ec,0.021767013962845038,0.01928103756122675,2.4023062577044763e-05,0.02063667666571757
5,startup,16.897959183673468,0.8979591836734693,671.3694088259941,anode,0.011003541021877401,0.00985390369204235,-8.561008274372305e-05,0.010477188876314563
5,startup,16.897959183673468,0.8979591836734693,671.3694088259941,electrolyte,0.0052302208169633015,0.004717308792671863,-4.9187945481446724e-05,0.0049942871116988455
5,startup,16.897959183673468,0.8979591836734693,671.3694088259941,cathode,0.010848462181074965,0.010054128601996849,0.00021719932094942915,0.010480664405100502
5,startup,16.897959183673468,0.8979591836734693,671.3694088259941,interface_ae,0.021947520143815003,0.01939441360394386,-1.8784282006379096e-05,0.020788907975209325
5,startup,16.897959183673468,0.8979591836734693,671.3694088259941,interface_ec,0.02223976100028975,0.019637198926362197,-0.00017772637986896467,0.021061687970919896
5,startup,16.93877551020408,0.9387755102040816,681.4527033319537,anode,0.011276074010312208,0.009577802960030963,0.00017582721578752783,0.010534556716974598
5,startup,16.93877551020408,0.9387755102040816,681.4527033319537,electrolyte,0.005593781956568143,0.004680374560790408,-2.4132138793785318e-05,0.005197793273992309
5,startup,16.93877551020408,0.9387755102040816,681.4527033319537,cathode,0.011123076398645852,0.009944189816840355,0.00010419126041774782,0.01058453230352455
5,startup,16.93877551020408,0.9387755102040816,681.4527033319537,interface_ae,0.022132102242203824,0.020046085356708807,0.00016056901078208435,0.02116815590312168
5,startup,16.93877551020408,0.9387755102040816,681.4527033319537,interface_ec,0.022186678987079957,0.019692894815398848,0.0001710808544114316,0.02105294993740191
5,startup,16.979591836734695,0.9795918367346939,690.7455728918258,anode,0.011585734120138207,0.009911103748456806,8.143398145678733e-05,0.01084673657043865
5,startup,16.979591836734695,0.9795918367346939,690.7455728918258,electrolyte,0.006183112205178496,0.004934663837584751,-6.326482514400192e-05,0.005664116069032503
5,startup,16.979591836734695,0.9795918367346939,690.7455728918258,cathode,0.011373634373220991,0.01002776277356585,-5.245367390000981e-05,0.01076437326993121
5,startup,16.979591836734695,0.9795918367346939,690.7455728918258,interface_ae,0.022766625819168263,0.01970602449698727,-6.655338670086793e-05,0.021401407771907268
5,startup,16.979591836734695,0.9795918367346939,690.7455728918258,interface_ec,0.022829949760836382,0.01960593053862432,9.031675919947765e-05,0.021401429403369553
5,startup,17.020408163265305,1.0204081632653061,699.3099785635789,anode,0.011082625297232074,0.009760554066153166,-4.9897874305588546e-05,0.010484650930869258
5,startup,17.020408163265305,1.0204081632653061,699.3099785635789,electrolyte,0.005712875814580984,0.005241895401120538,5.762276315959556e-06,0.0054925603884684975
5,startup,17.020408163265305,1.0204081632653061,699.3099785635789,cathode,0.011435710848858017,0.01022273523152539,-8.708988204679344e-05,0.010881098656986169
5,startup,17.020408163265305,1.0204081632653061,699.3099785635789,interface_ae,0.022997926172615712,0.019973748712265788,8.259051687541312e-06,0.02164487588836119
5,startup,17.020408163265305,1.0204081632653061,699.3099785635789,interface_ec,0.02294407587557655,0.020052784379566976,1.6504063653773916e-05,0.02164377485533911
5,startup,17.06122448979592,1.0612244897959182,707.2030243055624,anode,0.011651167892997636,0.01046021380934965,-0.00016056334030627878,0.011107178790201132
5,startup,17.06122448979592,1.0612244897959182,707.2030243055624,electrolyte,0.005706493002958857,0.004883045970417778,8.697620581762919e-05,0.005344700857845225
5,startup,17.06122448979592,1.0612244897959182,707.2030243055624,cathode,0.011770240375404134,0.010326698975895547,-7.038332580694632e-05,0.011119640391688952
5,startup,17.06122448979592,1.0612244897959182,707.2030243055624,interface_ae,0.023416010041319435,0.020144219828014977,-0.00017353107035927715,0.021965705180220365
5,startup,17.06122448979592,1.0612244897959182,707.2030243055624,interface_ec,0.022983741724751032,0.020443551051698265,6.751644009882938e-05,0.021825112631404915
5,startup,17.10204081632653,1.1020408163265305,714.4773377223732,anode,0.011148149450921097,0.0105987017986122,1.311121961784342e-05,0.010883855937651067
5,startup,17.10204081632653,1.1020408163265305,714.4773377223732,electrolyte,0.005469158685572918,0.005108976970537884,0.00010925254146784196,0.0053016360676782035
5,startup,17.10204081632653,1.1020408163265305,714.4773377223732,cathode,0.011863244148784254,0.010553967844747034,-0.00013662466293971111,0.011268296260594854
5,startup,17.10204081632653,1.1020408163265305,714.4773377223732,interface_ae,0.023403910844418323,0.020483368018367774,0.0001717580205044318,0.02209092555206565
5,startup,17.10204081632653,1.1020408163265305,714.4773377223732,interface_ec,0.02361458446014333,0.02123770838226401,-4.6760953341722744e-05,0.02252056300323628
5,startup,17.142857142857142,1.1428571428571428,721.1814209642242,anode,0.011712606779247747,0.010406071299275071,0.0001378357221422549,0.011119633638953554
5,startup,17.142857142857142,1.1428571428571428,721.1814209642242,electrolyte,0.005765717012147457,0.005163155555601212,9.669070288681957e-06,0.005489321871139406
5,startup,17.142857142857142,1.1428571428571428,721.1814209642242,cathode,0.011865440973824646,0.010304156934901606,-1.3729106791036658e-05,0.011166984338281154
5,startup,17.142857142857142,1.1428571428571428,721.1814209642242,interface_ae,0.02367906272289814,0.020867760322053272,9.435168181527083e-05,0.022406676091310033
5,startup,17.142857142857142,1.1428571428571428,721.1814209642242,interface_ec,0.02406720885009331,0.02070118630145426,-3.919936247877151e-05,0.022573313707335774
5,startup,17.183673469387756,1.183673469387755,727.3599741194676,anode,0.011797773953708405,0.01056466348082734,-5.383494575109769e-05,0.011232487154957276
5,startup,17.183673469387756,1.183673469387755,727.3599741194676,electrolyte,0.005938720440008448,0.0054045951265578015,-0.00025258316858046086,0.005707281679545706
5,startup,17.183673469387756,1.183673469387755,727.3599741194676,cathode,0.01206113231130978,0.010435205763603309,4.60422267984389e-05,0.0113362425083907
5,startup,17.183673469387756,1.183673469387755,727.3599741194676,interface_ae,0.023746258779229243,0.021293738544427145,9.132806180402842e-05,0.0226204885844658
5,startup,17.183673469387756,1.183673469387755,727.3599741194676,interface_ec,0.024039223096487813,0.02121313149032779,-7.456204671721736e-05,0.022758529669861385
5,startup,17.224489795918366,1.2244897959183672,733.0541932565242,anode,0.011935836992270039,0.010763077574186446,-7.677291427686121e-05,0.011395586266377438
5,startup,17.224489795918366,1.2244897959183672,733.0541932565242,electrolyte,0.006227646049547627,0.005161178541133882,5.01894389860622e-05,0.0057694803092273265
5,startup,17.224489795918366,1.2244897959183672,733.0541932565242,cathode,0.012479611647058915,0.010471345663209335,6.876175084478278e-06,0.011606532703878698
5,startup,17.224489795918366,1.2244897959183672,733.0541932565242,interface_ae,0.024330360119343256,0.021415436145821205,-3.278153102393581e-05,0.02301185084251966
5,startup,17.224489795918366,1.2244897959183672,733.0541932565242,interface_ec,0.02401617739891142,0.02117855348153689,0.00014478577661513638,0.02273197958218134
5,startup,17.26530612244898,1.2653061224489794,738.3020451024382,anode,0.012093323338859862,0.01070687030741272,-4.267864709234251e-05,0.01146339221103168
5,startup,17.26530612244898,1.2653061224489794,738.3020451024382,electrolyte,0.006123642994463518,0.005295734295240533,-0.0001003433810758229,0.0057571542809113745
5,startup,17.26530612244898,1.2653061224489794,738.3020451024382,cathode,0.011955379687324852,0.010291526055604926,-8.313214091256162e-05,0.011217318900838082
5,startup,17.26530612244898,1.2653061224489794,738.3020451024382,interface_ae,0.024457078180990136,0.02164724644543451,6.85558363217184e-05,0.023180544704759845
5,startup,17.26530612244898,1.2653061224489794,738.3020451024382,interface_ec,0.024409215460391837,0.021357189127926324,7.74914554913987e-05,0.02303573551165617
5,startup,17.306122448979593,1.3061224489795917,743.1385201895032,anode,0.012288776246553721,0.011124627924102288,-9.844531417674847e-06,0.011750046614653042
5,startup,17.306122448979593,1.3061224489795917,743.1385201895032,electrolyte,0.006291698882852737,0.005475148410536422,7.354432862041589e-05,0.005927138105079181
5,startup,17.306122448979593,1.3061224489795917,743.1385201895032,cathode,0.011829222336844981,0.010949576042014405,-1.2750797890915334e-05,0.011414869024554299
5,startup,17.306122448979593,1.3061224489795917,743.1385201895032,interface_ae,0.02437425590498771,0.021230893651174143,-5.587133968183114e-07,0.02296449350933914
5,startup,17.306122448979593,1.3061224489795917,743.1385201895032,interface_ec,0.02446975152323834,0.021266875875046765,-0.0001473280172893692,0.023037332688264068
5,startup,17.346938775510203,1.346938775510204,747.5958661578376,anode,0.01240476316477847,0.01100488758271478,1.9028290992242175e-05,0.011767487496973204
5,startup,17.346938775510203,1.346938775510204,747.5958661578376,electrolyte,0.006290648388034866,0.005315946686255934,-5.435127440020238e-06,0.005864374091244247
5,startup,17.346938775510203,1.346938775510204,747.5958661578376,cathode,0.01212403366300469,0.010518498160991763,0.0001854662133859585,0.011410852868443453
5,startup,17.346938775510203,1.346938775510204,747.5958661578376,interface_ae,0.024841138347555646,0.021382590599577315,1.5575190783128047e-05,0.023305153327064655
5,startup,17.346938775510203,1.346938775510204,747.5958661578376,interface_ec,0.024594869275284963,0.021606294618372403,-4.090178478149395e-05,0.02324522723076927
5,startup,17.387755102040817,1.3877551020408163,751.7038027694748,anode,0.012453660534628522,0.01105575300570103,4.0239116902820546e-05,0.011817089231562869
5,startup,17.387755102040817,1.3877551020408163,751.7038027694748,electrolyte,0.006070831445126209,0.005332097562223578,9.368143169226666e-05,0.0057395402194694856
5,startup,17.387755102040817,1.3877551020408163,751.7038027694748,cathode,0.01247009569285814,0.010906655793213822,-3.5901297600107824e-06,0.011766538336203084
5,startup,17.387755102040817,1.3877551020408163,751.7038027694748,interface_ae,0.024823867512392312,0.02169056606350158,8.215388173082104e-05,0.023415412957700044
5,startup,17.387755102040817,1.3877551020408163,751.7038027694748,interface_ec,0.02453964169810228,0.021701944499260172,6.11106095446024e-05,0.023251272461438738
5,startup,17.428571428571427,1.4285714285714284,755.4897200675965,anode,0.012215312862996597,0.010634260986057457,6.307767542924011e-06,0.011506548979290768
5,startup,17.428571428571427,1.4285714285714284,755.4897200675965,electrolyte,0.005787396343871193,0.005131724706978856,7.565941185064322e-05,0.005490574026652654
5,startup,17.428571428571427,1.4285714285714284,755.4897200675965,cathode,0.012400932374146304,0.011205960084529155,-0.0001204814340937455,0.0118505636699891
5,startup,17.428571428571427,1.4285714285714284,755.4897200675965,interface_ae,0.024864988378208448,0.021977642299816268,-0.00011705149301289089,0.023555290083074977
5,startup,17.428571428571427,1.4285714285714284,755.4897200675965,interface_ec,0.02509013123223483,0.021999861165807925,-0.0001609287086687434,0.023698246073757086
5,startup,17.46938775510204,1.4693877551020407,758.9788610021507,anode,0.012493769015246523,0.01107835063680138,-5.900566735280575e-05,0.01185007207229075
5,startup,17.46938775510204,1.4693877551020407,758.9788610021507,electrolyte,0.00585997875633563,0.0054729292868343875,0.00022112429502825614,0.00568926572671492
5,startup,17.46938775510204,1.4693877551020407,758.9788610021507,cathode,0.012423920554656704,0.011315007525806595,-7.522888217614684e-05,0.01190896388589947
5,startup,17.46938775510204,1.4693877551020407,758.9788610021507,interface_ae,0.025045743875978476,0.02215662308527453,-8.413665971365014e-07,0.023733439026347385
5,startup,17.46938775510204,1.4693877551020407,758.9788610021507,interface_ec,0.02494308761920024,0.022147544083369382,0.00018914551152692208,0.023671724152581286
5,startup,17.510204081632654,1.510204081632653,762.19448973953,anode,0.01261620417791079,0.010946144342518938,-1.89751557259683e-05,0.011869666044564839
5,startup,17.510204081632654,1.510204081632653,762.19448973953,electrolyte,0.006686863055976746,0.005467952366893576,-5.944136985779728e-05,0.006169261849794851
5,startup,17.510204081632654,1.510204081632653,762.19448973953,cathode,0.012327073209686455,0.010684176159002487,3.6358427384619e-05,0.011593433409567764
5,startup,17.510204081632654,1.510204081632653,762.19448973953,interface_ae,0.02524310198453083,0.022019373519656972,-1.4970418030954095e-06,0.023795582012861523
5,startup,17.510204081632654,1.510204081632653,762.19448973953,interface_ec,0.024878081244108202,0.022125298448615514,4.814953205671245e-05,0.023622441461590513
5,startup,17.551020408163264,1.5510204081632653,765.1580467785295,anode,0.012499530007826592,0.011431865851826073,-8.371063267469117e-05,0.012002244765893788
5,startup,17.551020408163264,1.5510204081632653,765.1580467785295,electrolyte,0.0062644724873334,0.005632507350486972,-7.728950014938254e-06,0.0059736292549858756
5,startup,17.551020408163264,1.5510204081632653,765.1580467785295,cathode,0.01256886749748122,0.010808002087818971,0.00013573414957162834,0.01178983733659298
5,startup,17.551020408163264,1.5510204081632653,765.1580467785295,interface_ae,0.025179147082186718,0.022295023720804774,6.727204878601409e-05,0.023868419001188534
5,startup,17.551020408163264,1.5510204081632653,765.1580467785295,interface_ec,0.025087466024116687,0.022148044914959565,0.00013344823507435038,0.02375567187128056
5,startup,17.591836734693878,1.5918367346938773,767.8892919068342,anode,0.012429642599974765,0.011560295892099563,-7.44872785276274e-05,0.012019265994695135
5,startup,17.591836734693878,1.5918367346938773,767.8892919068342,electrolyte,0.005994780892406636,0.005509464061824277,0.0002208348264339871,0.005780126847480956
5,startup,17.591836734693878,1.5918367346938773,767.8892919068342,cathode,0.012270888946004413,0.011106509133450173,4.762650172565557e-05,0.011732404926238888
5,startup,17.591836734693878,1.5918367346938773,767.8892919068342,interface_ae,0.025312894257952814,0.022345808888296823,-7.180330821722742e-05,0.02396781509094893
5,startup,17.591836734693878,1.5918367346938773,767.8892919068342,interface_ec,0.025186219897059433,0.022239740024864382,-0.00011298880879027512,0.023850681872216034
5,startup,17.632653061224488,1.6326530612244896,770.4064359512107,anode,0.012687017499784197,0.011094691147729267,-4.700451851548686e-05,0.011970825879264688
5,startup,17.632653061224488,1.6326530612244896,770.4064359512107,electrolyte,0.006315897196949237,0.005137448506058108,-2.2909010338315365e-05,0.005817036393577962
5,startup,17.632653061224488,1.6326530612244896,770.4064359512107,cathode,0.013159425533195207,0.010955218269198442,0.00012855004964844134,0.012209524315953778
5,startup,17.632653061224488,1.6326530612244896,770.4064359512107,interface_ae,0.02540284078432701,0.02222428885115085,-0.00013206416595298065,0.023973226450654556
5,startup,17.632653061224488,1.6326530612244896,770.4064359512107,interface_ec,0.025419845953201518,0.02263555983409007,-3.8921114519676384e-05,0.024148483136619332
5,startup,17.6734693877551,1.673469387755102,772.7262621998615,anode,0.012719274374456739,0.011409284830313669,3.4087079134628084e-05,0.012117647567318611
5,startup,17.6734693877551,1.673469387755102,772.7262621998615,electrolyte,0.005956797365731342,0.005538479662246143,0.00015122349106655984,0.0057649975191689925
5,startup,17.6734693877551,1.673469387755102,772.7262621998615,cathode,0.012728078422110593,0.010658912774380127,3.88214991591073e-05,0.011830192115552706
5,startup,17.6734693877551,1.673469387755102,772.7262621998615,interface_ae,0.02543124203089938,0.022048602437766962,-0.00016792080900537843,0.023921751354138928
5,startup,17.6734693877551,1.673469387755102,772.7262621998615,interface_ec,0.025665954747465948,0.022267944771432187,-9.07496380735992e-05,0.02414744792126708
5,startup,17.714285714285715,1.7142857142857142,774.8642383065335,anode,0.012764753508002366,0.011110414874102068,1.0004862777774516e-05,0.012023262612411354
5,startup,17.714285714285715,1.7142857142857142,774.8642383065335,electrolyte,0.0062486399282964955,0.005294482746063041,-5.111977985613847e-05,0.005831086683527497
5,startup,17.714285714285715,1.7142857142857142,774.8642383065335,cathode,0.01286043188445052,0.011247639081813782,-8.194248239183136e-06,0.01213469399424226
5,startup,17.714285714285715,1.7142857142857142,774.8642383065335,interface_ae,0.025931239288613277,0.02262471845260922,8.524412648213425e-05,0.024446714866303447
5,startup,17.714285714285715,1.7142857142857142,774.8642383065335,interface_ec,0.025510568758818415,0.022522539985602368,-4.310999895256928e-05,0.024155676274771158
5,startup,17.755102040816325,1.7551020408163265,776.8346194225153,anode,0.012960951212946378,0.011246708327840757,2.223777489305565e-05,0.012194595121135169
5,startup,17.755102040816325,1.7551020408163265,776.8346194225153,electrolyte,0.006337831971716646,0.005545391169650248,0.00029381880671557704,0.006002725076913271
5,startup,17.755102040816325,1.7551020408163265,776.8346194225153,cathode,0.012672117404342608,0.011133646002628828,6.94096746811757e-05,0.011977821865698766
5,startup,17.755102040816325,1.7551020408163265,776.8346194225153,interface_ae,0.02549184871986807,0.022479295345051352,-0.00010864109533556181,0.024127778239286565
5,startup,17.755102040816325,1.7551020408163265,776.8346194225153,interface_ec,0.02570919410356362,0.022638428066217964,-3.151920599234445e-05,0.024319710643655172
5,startup,17.79591836734694,1.7959183673469385,778.6505432441623,anode,0.012979333880693361,0.010924381075090946,-7.068534015143437e-05,0.012084246343844678
5,startup,17.79591836734694,1.7959183673469385,778.6505432441623,electrolyte,0.0062869442028701435,0.00532797073591826,-0.00017487130374187223,0.005874353135467593
5,startup,17.79591836734694,1.7959183673469385,778.6505432441623,cathode,0.012774791349989658,0.011434810095249813,0.00012821083914265122,0.01216232613090304
5,startup,17.79591836734694,1.7959183673469385,778.6505432441623,interface_ae,0.025563283509353617,0.022738655323199648,6.365420380756675e-05,0.02427478882732923
5,startup,17.79591836734694,1.7959183673469385,778.6505432441623,interface_ec,0.025916462720861594,0.022521973949604528,-0.00017985004951846743,0.024398964945346907
5,startup,17.836734693877553,1.8367346938775508,780.324117609689,anode,0.012878912463965704,0.011118331510069471,-7.235051090620077e-05,0.01209575823783047
5,startup,17.836734693877553,1.8367346938775508,780.324117609689,electrolyte,0.006274732641464175,0.005506993767572005,1.4155926689579443e-05,0.005928316599085306
5,startup,17.836734693877553,1.8367346938775508,780.324117609689,cathode,0.013005506556765078,0.011247543141608224,3.956975066080047e-05,0.0122219118283604
5,startup,17.836734693877553,1.8367346938775508,780.324117609689,interface_ae,0.02573271378894841,0.022829279395702524,-1.8859185110631664e-05,0.024410864609432054
5,startup,17.836734693877553,1.8367346938775508,780.324117609689,interface_ec,0.0257139652518074,0.02256730042692705,-1.6224853995849544e-05,0.024293971850294496
5,startup,17.877551020408163,1.8775510204081631,781.866501229288,anode,0.012734447943655473,0.011167688643776987,7.75765385282725e-05,0.012028596707300325
5,startup,17.877551020408163,1.8775510204081631,781.866501229288,electrolyte,0.006131272254318399,0.0055223394621011,0.00010153427862709963,0.005853263491211941
5,startup,17.877551020408163,1.8775510204081631,781.866501229288,cathode,0.012820605410323926,0.011509956191742804,-5.9104572072684175e-05,0.012218546887823289
5,startup,17.877551020408163,1.8775510204081631,781.866501229288,interface_ae,0.025572058417379258,0.022369451031031214,0.00013127240692726615,0.024131748795638237
5,startup,17.877551020408163,1.8775510204081631,781.866501229288,interface_ec,0.02555491690232241,0.022837853520036398,-9.999470267933824e-05,0.024311147220503454
5,startup,17.918367346938776,1.9183673469387754,783.2879780868515,anode,0.013178833313583369,0.011806870291318976,-0.00016865300596903367,0.012552624807908516
5,startup,17.918367346938776,1.9183673469387754,783.2879780868515,electrolyte,0.006142883368090216,0.005751280869091987,5.130429233658149e-05,0.005957406860742243
5,startup,17.918367346938776,1.9183673469387754,783.2879780868515,cathode,0.013070740900947442,0.011250762636315081,0.00019875341610233675,0.012267299336133691
5,startup,17.918367346938776,1.9183673469387754,783.2879780868515,interface_ae,0.025854322953328766,0.022487634977423208,-2.5314850004294495e-05,0.024346233540629463
5,startup,17.918367346938776,1.9183673469387754,783.2879780868515,interface_ec,0.025589999680745042,0.023049215764502733,-6.603312628001164e-05,0.02441921555016424
5,startup,17.959183673469386,1.9591836734693877,784.5980260093738,anode,0.013036166301237615,0.011291014622777613,-6.153873097625132e-05,0.012257587844241496
5,startup,17.959183673469386,1.9591836734693877,784.5980260093738,electrolyte,0.005988771317370797,0.00572595841578988,0.0001299181252629184,0.00586610282078257
5,startup,17.959183673469386,1.9591836734693877,784.5980260093738,cathode,0.01275447608801566,0.011076103428774315,8.033160427378291e-05,0.012004423793498573
5,startup,17.959183673469386,1.9591836734693877,784.5980260093738,interface_ae,0.025546090938756132,0.02301420509073775,-9.043951229546205e-05,0.024379457746117314
5,startup,17.959183673469386,1.9591836734693877,784.5980260093738,interface_ec,0.025654680660012457,0.022819990987774354,-0.00010381392850114376,0.024362006875232163
5,startup,18.0,2.0,785.805379861231,anode,0.012816811350410066,0.011474041925202665,-0.00024291123371666463,0.012208221742485169
5,startup,18.0,2.0,785.805379861231,electrolyte,0.006709432196408892,0.005623962572049588,-0.00012929660124035282,0.006241954236534558
5,startup,18.0,2.0,785.805379861231,cathode,0.01275478449281134,0.011601574814320623,6.010529350741034e-05,0.012219505597010656
5,startup,18.0,2.0,785.805379861231,interface_ae,0.02619382326479446,0.02266994250837608,2.9658383715080285e-05,0.024621796074455735
5,startup,18.0,2.0,785.805379861231,interface_ec,0.026001780715694152,0.022945544577387376,0.00011272811234320694,0.02461714282199381
5,operation,20.0,2.0,800.0,anode,0.013056547218831132,0.011593165946447905,-6.101497455801452e-05,0.012390293451943143
5,operation,20.0,2.0,800.0,electrolyte,0.006489477625328725,0.005859686556412595,-0.00016540355002607024,0.006205241058399686
5,operation,20.0,2.0,800.0,cathode,0.013421874313891859,0.01138816357514725,-3.073703196972315e-05,0.01252953765451686
5,operation,20.0,2.0,800.0,interface_ae,0.026648788384993228,0.023297601943596685,3.395299482636599e-05,0.025141335944123735
5,operation,20.0,2.0,800.0,interface_ec,0.02616387479094098,0.023023182812835233,9.41256396668919e-05,0.024744013365123923
5,operation,20.122448979591837,2.122448979591837,800.0,anode,0.013082171290903123,0.01151701762534003,9.639512510547118e-05,0.012375184014482633
5,operation,20.122448979591837,2.122448979591837,800.0,electrolyte,0.006290017290926095,0.005773847026577252,4.290732616769143e-06,0.006048477875076527
5,operation,20.122448979591837,2.122448979591837,800.0,cathode,0.013199462854827353,0.011512312873624501,-5.798551814633284e-05,0.012442383540486695
5,operation,20.122448979591837,2.122448979591837,800.0,interface_ae,0.02618432716724103,0.023328533005208263,-6.681491915167361e-05,0.024879929532382484
5,operation,20.122448979591837,2.122448979591837,800.0,interface_ec,0.026593748924233454,0.023187088991681874,-0.00010584504894210379,0.02506532593739515
5,operation,20.244897959183675,2.2448979591836733,800.0,anode,0.013152437223570318,0.011533828560172706,0.00010091034117280527,0.012423703102585261
5,operation,20.244897959183675,2.2448979591836733,800.0,electrolyte,0.006426199962149694,0.005664757923759935,0.00014115467054924357,0.00608624967086744
5,operation,20.244897959183675,2.2448979591836733,800.0,cathode,0.013301653464292672,0.011948541203200701,0.0001259045004063905,0.012681239021072963
5,operation,20.244897959183675,2.2448979591836733,800.0,interface_ae,0.026222567482327434,0.023429990170880023,0.00015253032920745915,0.024945195587739236
5,operation,20.244897959183675,2.2448979591836733,800.0,interface_ec,0.02670656262646469,0.02342961919671534,9.675229949091758e-05,0.025228773922952447
5,operation,20.367346938775512,2.36734693877551,800.0,anode,0.013139467791264892,0.011448523583130086,-3.522173188974568e-05,0.012381054918878717
5,operation,20.367346938775512,2.36734693877551,800.0,electrolyte,0.006167042199713448,0.005988559063084342,-2.8329295941771207e-05,0.006079963843198756
5,operation,20.367346938775512,2.36734693877551,800.0,cathode,0.013458266145812994,0.011369700084555682,0.00010826249210022106,0.012546462458790765
5,operation,20.367346938775512,2.36734693877551,800.0,interface_ae,0.02630102386836414,0.022975126118338168,0.00016271180521597577,0.024807465845091598
5,operation,20.367346938775512,2.36734693877551,800.0,interface_ec,0.026621462333868157,0.02327435848403716,3.3937885134963128e-06,0.02511574399580261
5,operation,20.489795918367346,2.489795918367347,800.0,anode,0.013287902003763825,0.011654925715583483,-7.922759541714712e-05,0.01255208960146502
5,operation,20.489795918367346,2.489795918367347,800.0,electrolyte,0.006417589546043016,0.006112143566407741,0.0002672156742628014,0.006287506544877939
5,operation,20.489795918367346,2.489795918367347,800.0,cathode,0.013512533701046138,0.011711644788032527,-3.3774903270193504e-05,0.012708289342089238
5,operation,20.489795918367346,2.489795918367347,800.0,interface_ae,0.02624036282122061,0.023085543517913962,-5.532676586867607e-05,0.02481401027292285
5,operation,20.489795918367346,2.489795918367347,800.0,interface_ec,0.026830232808285157,0.023593256459276523,7.462783899353939e-05,0.025367445423910277
5,operation,20.612244897959183,2.612244897959184,800.0,anode,0.013007877364717436,0.011794611185342209,-2.386170285106052e-05,0.012445745410704038
5,operation,20.612244897959183,2.612244897959184,800.0,electrolyte,0.006069398112271176,0.005777420127480252,-8.419130408340553e-05,0.005930596806913997
5,operation,20.612244897959183,2.612244897959184,800.0,cathode,0.013038389314181994,0.0115659184012864,-4.9832297294241295e-05,0.01236836962800344
5,operation,20.612244897959183,2.612244897959184,800.0,interface_ae,0.0263931486361792,0.023215533889996563,-0.00018758090928476314,0.024958642428919816
5,operation,20.612244897959183,2.612244897959184,800.0,interface_ec,0.02670405559777657,0.023035324655410267,-9.523983851304731e-05,0.02507236305015754
5,operation,20.73469387755102,2.7346938775510203,800.0,anode,0.013134289349641943,0.011594333030526142,0.00014589798168318388,0.012438595136389145
5,operation,20.73469387755102,2.7346938775510203,800.0,electrolyte,0.00655388469041098,0.005833293096821907,2.745361875832817e-05,0.006225130012316304
5,operation,20.73469387755102,2.7346938775510203,800.0,cathode,0.013246292316499757,0.011677945900617404,-0.00019327341425689386,0.012540385136591089
5,operation,20.73469387755102,2.7346938775510203,800.0,interface_ae,0.026350016303032096,0.023464452222114233,0.0003942331010806686,0.02504159415599323
5,operation,20.73469387755102,2.7346938775510203,800.0,interface_ec,0.0261591382134921,0.023316615992064874,-5.710465778743417e-05,0.024860255344876805
5,operation,20.857142857142858,2.857142857142857,800.0,anode,0.013609530380779371,0.011345243447841704,6.249394903158797e-05,0.012630999452791088
5,operation,20.857142857142858,2.857142857142857,800.0,electrolyte,0.006218557780099163,0.005656286666387834,-3.4313330749808997e-06,0.005957359279344449
5,operation,20.857142857142858,2.857142857142857,800.0,cathode,0.013413938336347924,0.011400566634768296,6.633830488473855e-05,0.012529699348308963
5,operation,20.857142857142858,2.857142857142857,800.0,interface_ae,0.026403755544677592,0.023286558677257197,9.583327146851412e-05,0.02499194012375003
5,operation,20.857142857142858,2.857142857142857,800.0,interface_ec,0.026143488661398945,0.02339411899462972,-5.689048530894247e-05,0.024883179616480417
5,operation,20.979591836734695,2.979591836734694,800.0,anode,0.013419174690995368,0.011682911526907577,-2.0952838151705547e-05,0.01264084481030695
5,operation,20.979591836734695,2.979591836734694,800.0,electrolyte,0.006381994806181836,0.005884658998871067,0.00012609516854809275,0.0061523090012428104
5,operation,20.979591836734695,2.979591836734694,800.0,cathode,0.013093429691827965,0.011389398686843723,6.942110429452256e-05,0.012330631389896384
5,operation,20.979591836734695,2.979591836734694,800.0,interface_ae,0.026110293811593265,0.022970897512483407,-0.00010627002755278992,0.024691427100232005
5,operation,20.979591836734695,2.979591836734694,800.0,interface_ec,0.026316909903392253,0.022964733622156914,-0.00019387999093815777,0.024813518087180658
5,operation,21.10204081632653,3.1020408163265305,800.0,anode,0.012972911161132576,0.011744494889314524,-0.00012715440721267673,0.01240636127549658
5,operation,21.10204081632653,3.1020408163265305,800.0,electrolyte,0.006431946064409166,0.006109339692473113,-4.917413002709046e-06,0.006276869506784956
5,operation,21.10204081632653,3.1020408163265305,800.0,cathode,0.01326850619794592,0.01142679199634969,0.0002163474853700142,0.012455873728078803
5,operation,21.10204081632653,3.1020408163265305,800.0,interface_ae,0.026291741102172316,0.023186379063109698,0.00013170586779673646,0.024885851163353772
5,operation,21.10204081632653,3.1020408163265305,800.0,interface_ec,0.02636365315102928,0.023241577756535046,-2.8168832078912965e-05,0.02494960179790803
5,operation,21.224489795918366,3.2244897959183674,800.0,anode,0.013145033524388556,0.01169010040216562,5.529431891981056e-05,0.0124816971788772
5,operation,21.224489795918366,3.2244897959183674,800.0,electrolyte,0.0063713503137574875,0.005566783908770614,-6.0913608885756327e-05,0.00601052318080895
5,operation,21.224489795918366,3.2244897959183674,800.0,cathode,0.012919749197160048,0.011297913948296143,2.9716714722490757e-05,0.012190127705932433
5,operation,21.224489795918366,3.2244897959183674,800.0,interface_ae,0.026587719160635025,0.023406209058629047,-0.00023819912731366585,0.025151738231539097
5,operation,21.224489795918366,3.2244897959183674,800.0,interface_ec,0.026350986982591352,0.02301158160888149,1.4373743782085692e-05,0.02485015363107375
5,operation,21.346938775510203,3.3469387755102042,800.0,anode,0.013116435296238125,0.01173438238124892,-1.9153090401341377e-06,0.012482922274452581
5,operation,21.346938775510203,3.3469387755102042,800.0,electrolyte,0.006120799621016423,0.0055265828254400925,5.785114826653559e-07,0.005846383554612304
5,operation,21.346938775510203,3.3469387755102042,800.0,cathode,0.013218022085846218,0.0113348646384592,-0.0001536459703546122,0.012387154409124754
5,operation,21.346938775510203,3.3469387755102042,800.0,interface_ae,0.026411249067514637,0.022951266538789896,-0.0001668629426500786,0.02486416348471962
5,operation,21.346938775510203,3.3469387755102042,800.0,interface_ec,0.026310971897473737,0.02313431078173227,-8.784004773393012e-05,0.024875701483813538
5,operation,21.46938775510204,3.4693877551020407,800.0,anode,0.013059252608655009,0.01161876714464448,-7.201629036798193e-05,0.012402538955928109
5,operation,21.46938775510204,3.4693877551020407,800.0,electrolyte,0.0065141394043329685,0.005643906292776534,1.6765015538665582e-05,0.006125629864905785
5,operation,21.46938775510204,3.4693877551020407,800.0,cathode,0.01337564111308733,0.01178384956907812,0.00012882104710660835,0.012657018909392127
5,operation,21.46938775510204,3.4693877551020407,800.0,interface_ae,0.026567629379379436,0.023279711506308365,-4.334316376401446e-05,0.025085908139592456
5,operation,21.46938775510204,3.4693877551020407,800.0,interface_ec,0.02632244781543676,0.02305644453871284,4.5292910515580213e-07,0.024850932300394413
5,operation,21.591836734693878,3.5918367346938775,800.0,anode,0.013339477495742389,0.011470866479423397,-3.7217858663773945e-06,0.01251028033036482
5,operation,21.591836734693878,3.5918367346938775,800.0,electrolyte,0.006364527554255647,0.0057618708660375235,-5.4938338394995024e-05,0.006086364730928431
5,operation,21.591836734693878,3.5918367346938775,800.0,cathode,0.01305209788574119,0.011480006661013595,5.033287738455666e-05,0.01234168714896846
5,operation,21.591836734693878,3.5918367346938775,800.0,interface_ae,0.02638065011893393,0.023146315653999997,2.6140450254721067e-05,0.024921433028841967
5,operation,21.591836734693878,3.5918367346938775,800.0,interface_ec,0.026317096756506474,0.023457303578737144,-9.738661536932567e-05,0.025010697659332618
5,operation,21.714285714285715,3.7142857142857144,800.0,anode,0.013162605697436545,0.011335046955666601,-3.468743918900939e-05,0.012350802979940217
5,operation,21.714285714285715,3.7142857142857144,800.0,electrolyte,0.006164072900458674,0.005869263304511826,7.665037670055789e-05,0.006023545917448063
5,operation,21.714285714285715,3.7142857142857144,800.0,cathode,0.013356834034744898,0.011621774496034895,-8.79870404710092e-05,0.012580292917635513
5,operation,21.714285714285715,3.7142857142857144,800.0,interface_ae,0.026239931873592814,0.023538034411044108,0.00014356771037997968,0.024999970086874088
5,operation,21.714285714285715,3.7142857142857144,800.0,interface_ec,0.02642451103139016,0.02312887319318394,0.00013686234226985107,0.024941663687487334
5,operation,21.836734693877553,3.836734693877551,800.0,anode,0.01306109936772304,0.011661769841619183,0.00013519573053984586,0.012422901894654026
5,operation,21.836734693877553,3.836734693877551,800.0,electrolyte,0.006332732300067075,0.005885844717127423,5.2056079584386984e-05,0.006122198704010082
5,operation,21.836734693877553,3.836734693877551,800.0,cathode,0.01319209669155369,0.011417313280173378,-7.244397601032758e-05,0.012400963724489258
5,operation,21.836734693877553,3.836734693877551,800.0,interface_ae,0.026457890214570134,0.022947332641023725,1.3074385901824978e-05,0.02488900429967643
5,operation,21.836734693877553,3.836734693877551,800.0,interface_ec,0.026508210196812335,0.02342904403456182,-0.00013983570744602225,0.0251117890702458
5,operation,21.959183673469386,3.9591836734693877,800.0,anode,0.013463249459432256,0.011955072698835988,4.1015156771359396e-05,0.01277629719130447
5,operation,21.959183673469386,3.9591836734693877,800.0,electrolyte,0.006292390283715068,0.005654378142327952,-4.759724511850704e-06,0.005998890025723502
5,operation,21.959183673469386,3.9591836734693877,800.0,cathode,0.013254092701746113,0.011620396310528722,2.8116514289461694e-05,0.012517553492778864
5,operation,21.959183673469386,3.9591836734693877,800.0,interface_ae,0.026381850648532178,0.02328502141890245,-4.605234211613139e-05,0.024977963711109226
5,operation,21.959183673469386,3.9591836734693877,800.0,interface_ec,0.02633236265660351,0.02311679496590467,0.00019172595345040718,0.02488312642329524
5,operation,22.081632653061224,4.081632653061225,800.0,anode,0.013492780157234867,0.011727058838002725,0.00013253089972677386,0.01270437294349733
5,operation,22.081632653061224,4.081632653061225,800.0,electrolyte,0.006659692267795577,0.005756254231902811,-0.00015055713410196836,0.006262514226431226
5,operation,22.081632653061224,4.081632653061225,800.0,cathode,0.013147567215974973,0.011548992421596332,-0.00011330751730921569,0.01242719241395185
5,operation,22.081632653061224,4.081632653061225,800.0,interface_ae,0.02610276754507868,0.023330543869313408,3.2450432237081294e-05,0.024833045454013068
5,operation,22.081632653061224,4.081632653061225,800.0,interface_ec,0.02616652060398648,0.023082824298712765,0.00011612222731541635,0.0247698775456936
5,operation,22.20408163265306,4.204081632653061,800.0,anode,0.013024460697296689,0.011650159780786762,-1.8977829956798103e-05,0.012394629145936293
5,operation,22.20408163265306,4.204081632653061,800.0,electrolyte,0.006601272694212413,0.005548778469468714,9.008347754010703e-06,0.006143043817265524
5,operation,22.20408163265306,4.204081632653061,800.0,cathode,0.013233744515469176,0.011662036161245845,7.90738579626132e-06,0.01252209494529874
5,operation,22.20408163265306,4.204081632653061,800.0,interface_ae,0.026468921864118825,0.023670354066410163,0.0002561297776771106,0.025190425589641168
5,operation,22.20408163265306,4.204081632653061,800.0,interface_ec,0.02627215677184266,0.022768351403929504,5.954953007219736e-05,0.02470750873755289
5,operation,22.3265306122449,4.326530612244898,800.0,anode,0.013237250491980254,0.011828208371836717,2.8488589971531727e-05,0.012592092422824526
5,operation,22.3265306122449,4.326530612244898,800.0,electrolyte,0.006511720787905144,0.0059457813191754446,0.00012687805884138419,0.006251867674873241
5,operation,22.3265306122449,4.326530612244898,800.0,cathode,0.012922687988243801,0.011452678762572084,-1.0559295928867828e-05,0.01225400570825951
5,operation,22.3265306122449,4.326530612244898,800.0,interface_ae,0.02641968752478492,0.023186803359329555,4.3420717786188594e-05,0.024960875296262577
5,operation,22.3265306122449,4.326530612244898,800.0,interface_ec,0.026599220957863424,0.023576541942144147,5.789130237728996e-05,0.02522427979511346
5,operation,22.448979591836736,4.448979591836735,800.0,anode,0.01302953326430938,0.011586524754960437,-7.535224125955695e-06,0.012371315759019426
5,operation,22.448979591836736,4.448979591836735,800.0,electrolyte,0.006602928047996232,0.005797633606686788,0.00020503966511115098,0.0062494784169247536
5,operation,22.448979591836736,4.448979591836735,800.0,cathode,0.01310769737294902,0.011692950106753362,0.0002354711397744092,0.012467377478705098
5,operation,22.448979591836736,4.448979591836735,800.0,interface_ae,0.026282958620619284,0.023261029739234072,-9.448805011240155e-05,0.024910389805225367
5,operation,22.448979591836736,4.448979591836735,800.0,interface_ec,0.026416417379925488,0.023075956570372473,0.00010468009034913463,0.02491536980235492
5,operation,22.57142857142857,4.571428571428571,800.0,anode,0.01322946377180628,0.011428920548003542,8.405676977916716e-05,0.012428259848550172
5,operation,22.57142857142857,4.571428571428571,800.0,electrolyte,0.006535933207774318,0.005910563755444691,-0.00011476626279477487,0.006249932060671774
5,operation,22.57142857142857,4.571428571428571,800.0,cathode,0.013273764882449733,0.011770668338928944,-4.233774902357365e-05,0.012589907097129798
5,operation,22.57142857142857,4.571428571428571,800.0,interface_ae,0.026148199454606374,0.023223678500925923,0.00012281152937809286,0.024816435044857383
5,operation,22.57142857142857,4.571428571428571,800.0,interface_ec,0.026625186066126814,0.023146314313048887,-0.00012830854363764425,0.025068443574571112
5,operation,22.693877551020407,4.6938775510204085,800.0,anode,0.013113764055930087,0.011522304469853618,4.464467833047774e-05,0.012395140388647214
5,operation,22.693877551020407,4.6938775510204085,800.0,electrolyte,0.006478999699419176,0.005569347157652572,0.0001104263067260668,0.0060784741683078646
5,operation,22.693877551020407,4.6938775510204085,800.0,cathode,0.013228085173488969,0.01170308313054619,-0.0001724985434131267,0.012538910595291183
5,operation,22.693877551020407,4.6938775510204085,800.0,interface_ae,0.025915147025860546,0.02294449084371112,-4.8054342560677576e-05,0.024565047923021527
5,operation,22.693877551020407,4.6938775510204085,800.0,interface_ec,0.026515271203522765,0.022763550625918543,0.00015928520643719872,0.024854239900361844
5,operation,22.816326530612244,4.816326530612245,800.0,anode,0.013234113205354028,0.011888058998589983,-8.859700824741288e-05,0.01261599495863984
5,operation,22.816326530612244,4.816326530612245,800.0,electrolyte,0.006600771986834499,0.005737039185994158,8.176863130545543e-05,0.006215704322498475
5,operation,22.816326530612244,4.816326530612245,800.0,cathode,0.013153241726480058,0.011710643041801519,0.00011021953187712002,0.012496017553684652
5,operation,22.816326530612244,4.816326530612245,800.0,interface_ae,0.026269764741221648,0.023280448846497933,-0.00018878622372223483,0.024912142511249315
5,operation,22.816326530612244,4.816326530612245,800.0,interface_ec,0.026540500603812675,0.0236229325086925,-0.00012444360477486955,0.025209583827043847
5,operation,22.93877551020408,4.938775510204081,800.0,anode,0.013181723747914414,0.011792096260182823,3.141747346655047e-06,0.012544769805657378
5,operation,22.93877551020408,4.938775510204081,800.0,electrolyte,0.006533019910298646,0.005641800111695273,-4.281522530879146e-05,0.006136592264409271
5,operation,22.93877551020408,4.938775510204081,800.0,cathode,0.013182661169282926,0.011624334284427872,-0.00011814412615773099,0.012478377978479028
5,operation,22.93877551020408,4.938775510204081,800.0,interface_ae,0.0263867956028108,0.023545706787741868,-4.191337935889047e-05,0.025087303724814214
5,operation,22.93877551020408,4.938775510204081,800.0,interface_ec,0.026152549003425077,0.023201716786402718,-7.146128121242967e-05,0.02480940882280636
5,operation,23.06122448979592,5.061224489795919,800.0,anode,0.012932331634935615,0.011643833692346525,-7.10282037151078e-05,0.012339257707685961
5,operation,23.06122448979592,5.061224489795919,800.0,electrolyte,0.006375057166629346,0.005750685476077078,-0.00015331745953623346,0.006092725777142403
5,operation,23.06122448979592,5.061224489795919,800.0,cathode,0.012851686069949776,0.011750174438900387,-0.0001930833600724083,0.012342395415033649
5,operation,23.06122448979592,5.061224489795919,800.0,interface_ae,0.026204664460938533,0.022872032092922316,-4.861364668488323e-05,0.024707639605901822
5,operation,23.06122448979592,5.061224489795919,800.0,interface_ec,0.026485611749530236,0.023254467589746478,0.00023918733894572842,0.025030396008747045
5,operation,23.183673469387756,5.183673469387755,800.0,anode,0.013417383123557803,0.01142976842996868,-0.00011970550048264107,0.012543969962860415
5,operation,23.183673469387756,5.183673469387755,800.0,electrolyte,0.007041337588195101,0.005932514401146673,5.893696072695719e-05,0.006558410341039835
5,operation,23.183673469387756,5.183673469387755,800.0,cathode,0.013214970362443125,0.011670704313495005,-0.00014820732754824262,0.012517134874939408
5,operation,23.183673469387756,5.183673469387755,800.0,interface_ae,0.026431407834039355,0.023246246279491806,-9.0413884310148e-05,0.024992014607945548
5,operation,23.183673469387756,5.183673469387755,800.0,interface_ec,0.026292294709286308,0.023535035278688714,-1.2517492029486242e-05,0.025027845156368807
5,operation,23.306122448979593,5.3061224489795915,800.0,anode,0.013614234260506624,0.011267864112702525,-5.2213018622574785e-05,0.012606227552853986
5,operation,23.306122448979593,5.3061224489795915,800.0,electrolyte,0.006190544289750617,0.005478115509221633,-8.282057056592972e-05,0.005868615611220323
5,operation,23.306122448979593,5.3061224489795915,800.0,cathode,0.01326306192535412,0.011669365234216078,-6.792903196276054e-05,0.012542935299780384
5,operation,23.306122448979593,5.3061224489795915,800.0,interface_ae,0.025954440088532687,0.023527538574606432,-2.8576471603635618e-05,0.024830150848670855
5,operation,23.306122448979593,5.3061224489795915,800.0,interface_ec,0.026176741965939776,0.02328698615621402,2.0444517052317407e-05,0.02485818517813202
5,operation,23.42857142857143,5.428571428571429,800.0,anode,0.013135464707000008,0.011645706203128303,-0.00011550298404080184,0.01245917999055748
5,operation,23.42857142857143,5.428571428571429,800.0,electrolyte,0.0066519825686352976,0.005520626581048627,-6.055696553034319e-05,0.006165555903075657
5,operation,23.42857142857143,5.428571428571429,800.0,cathode,0.013329760363230317,0.011856791793002048,0.00015857745680463388,0.012660697852635667
5,operation,23.42857142857143,5.428571428571429,800.0,interface_ae,0.026611159647693318,0.023167185563239646,-0.00015410330691004628,0.02506866319916354
5,operation,23.42857142857143,5.428571428571429,800.0,interface_ec,0.02668101111712058,0.023506139197781,-6.719761533534957e-05,0.025244027402918697
5,operation,23.551020408163264,5.551020408163265,800.0,anode,0.013384237807564914,0.011549564441213854,0.0001501276883511729,0.01257043190923163
5,operation,23.551020408163264,5.551020408163265,800.0,electrolyte,0.006397027067519244,0.006115730257509701,7.861205475982458e-05,0.006262600055545477
5,operation,23.551020408163264,5.551020408163265,800.0,cathode,0.0135595089689372,0.011523240546070025,4.05029604444193e-05,0.012664943509350428
5,operation,23.551020408163264,5.551020408163265,800.0,interface_ae,0.02620614416033113,0.023400797850423843,8.990415328371245e-05,0.02492265832779115
5,operation,23.551020408163264,5.551020408163265,800.0,interface_ec,0.026879404783640242,0.023328407959443933,7.240942025060933e-05,0.02529187672589094
5,operation,23.6734693877551,5.673469387755102,800.0,anode,0.013105833924699245,0.011724275874527049,-3.798912086875837e-05,0.012472748079906781
5,operation,23.6734693877551,5.673469387755102,800.0,electrolyte,0.006523172151768401,0.005754903132309159,-3.523048733491704e-05,0.006175288227830202
5,operation,23.6734693877551,5.673469387755102,800.0,cathode,0.0132125890193084,0.011540940966057317,-3.7973112503383925e-05,0.012461317866356394
5,operation,23.6734693877551,5.673469387755102,800.0,interface_ae,0.026615332930300457,0.023267082728365286,3.470662722002771e-05,0.02510927211603243
5,operation,23.6734693877551,5.673469387755102,800.0,interface_ec,0.026108539046202896,0.02331669166636608,5.304234639752379e-05,0.02483077942923718
5,operation,23.79591836734694,5.795918367346939,800.0,anode,0.01312033227546225,0.012033005935252139,-0.00022892272641840652,0.012618103326460942
5,operation,23.79591836734694,5.795918367346939,800.0,electrolyte,0.00665687342715411,0.005862560960990973,5.415829319994119e-05,0.006298099549257778
5,operation,23.79591836734694,5.795918367346939,800.0,cathode,0.013235242541127725,0.01172613586452501,8.681754795558938e-05,0.012549831355778088
5,operation,23.79591836734694,5.795918367346939,800.0,interface_ae,0.026254822483233603,0.023291839124436022,-1.8331684202330393e-05,0.02490589046905473
5,operation,23.79591836734694,5.795918367346939,800.0,interface_ec,0.0261812463199549,0.02337543399492266,-5.643604246840334e-05,0.02489739209517513
5,operation,23.918367346938776,5.918367346938775,800.0,anode,0.012900428265044108,0.011508177867859671,-7.988988980931306e-05,0.012264498823744628
5,operation,23.918367346938776,5.918367346938775,800.0,electrolyte,0.006705695801838022,0.005750638628111615,0.000138238274568994,0.006287407810311761
5,operation,23.918367346938776,5.918367346938775,800.0,cathode,0.013066688753753393,0.011790833974379302,0.0002839622914807913,0.012487468392648537
5,operation,23.918367346938776,5.918367346938775,800.0,interface_ae,0.026471206493425433,0.023404329772464632,6.935176642254062e-05,0.025079095040914556
5,operation,23.918367346938776,5.918367346938775,800.0,interface_ec,0.026115584934514838,0.023349163459493495,3.0645632064956894e-05,0.024848198460210875
5,operation,24.04081632653061,6.040816326530612,800.0,anode,0.01314805052332034,0.011439192725159026,6.93983240327037e-05,0.012382961166573274
5,operation,24.04081632653061,6.040816326530612,800.0,electrolyte,0.006305519252077877,0.00614672912093638,1.1416908348812837e-05,0.006227674056380017
5,operation,24.04081632653061,6.040816326530612,800.0,cathode,0.0129553385904427,0.011513200744334333,-2.7813433828981727e-05,0.01229794682990093
5,operation,24.04081632653061,6.040816326530612,800.0,interface_ae,0.026882475330784774,0.023055082210638102,-1.1621726325138722e-05,0.025187834803063323
5,operation,24.04081632653061,6.040816326530612,800.0,interface_ec,0.026292434326027,0.023331851697116334,-5.218834137050446e-05,0.024944426207523105
5,operation,24.163265306122447,6.163265306122449,800.0,anode,0.01297218866677206,0.01157694108404076,-2.9939384333224313e-05,0.012334004574492491
5,operation,24.163265306122447,6.163265306122449,800.0,electrolyte,0.006381551124475198,0.005612237928220577,0.00011846957978810031,0.006037278458013626
5,operation,24.163265306122447,6.163265306122449,800.0,cathode,0.0131360519571465,0.011389174467504315,-4.621159637998562e-05,0.012355839714599795
5,operation,24.163265306122447,6.163265306122449,800.0,interface_ae,0.02641086713189308,0.02296474607268973,0.00016259779600063986,0.024869135926444037
5,operation,24.163265306122447,6.163265306122449,800.0,interface_ec,0.02657351589550126,0.023518034548723758,3.921281254876826e-05,0.025185262438695528
5,operation,24.285714285714285,6.285714285714286,800.0,anode,0.012781260509973982,0.011923066743327704,-8.635683597098928e-05,0.012375406707447871
5,operation,24.285714285714285,6.285714285714286,800.0,electrolyte,0.006343562651199581,0.005751265028791089,0.00013782298466701495,0.006073821863753313
5,operation,24.285714285714285,6.285714285714286,800.0,cathode,0.01341065742679048,0.011797256224035206,-3.118270528745533e-05,0.012681283149625959
5,operation,24.285714285714285,6.285714285714286,800.0,interface_ae,0.02633447849478158,0.023301188733596014,-1.300708412835327e-05,0.024956482282881075
5,operation,24.285714285714285,6.285714285714286,800.0,interface_ec,0.026577863581465876,0.023398023532899048,5.913413211727056e-05,0.0251394381561031
5,operation,24.408163265306122,6.408163265306122,800.0,anode,0.012694807743646126,0.011641597672735454,-1.0885388073270117e-05,0.012202354330732367
5,operation,24.408163265306122,6.408163265306122,800.0,electrolyte,0.006533605120351907,0.005569135072290719,-0.00013247859103992252,0.006113050272090763
5,operation,24.408163265306122,6.408163265306122,800.0,cathode,0.01329262769599501,0.011544739736453589,5.746929937075994e-05,0.012510993071857145
5,operation,24.408163265306122,6.408163265306122,800.0,interface_ae,0.026265817124463048,0.023515182128098538,0.00010010648425707634,0.025004830138052807
5,operation,24.408163265306122,6.408163265306122,800.0,interface_ec,0.02645936542170918,0.023189342317322812,8.52408877798197e-05,0.024985798594265862
5,operation,24.53061224489796,6.530612244897959,800.0,anode,0.013278509563047483,0.011663716837586123,0.00010428654095596086,0.012550576009197421
5,operation,24.53061224489796,6.530612244897959,800.0,electrolyte,0.006785307230881329,0.005469517763102892,-0.00010503841073498065,0.006235123058458573
5,operation,24.53061224489796,6.530612244897959,800.0,cathode,0.013043947854904241,0.011315515080471291,-6.2748525569151176e-06,0.012271372646860169
5,operation,24.53061224489796,6.530612244897959,800.0,interface_ae,0.026520023291048904,0.023227716341009536,-5.3412164161289566e-05,0.025036921176386062
5,operation,24.53061224489796,6.530612244897959,800.0,interface_ec,0.026625291551425834,0.023260111280641354,3.429829673663184e-05,0.02511245132877393
5,operation,24.653061224489797,6.653061224489796,800.0,anode,0.013430846960979953,0.011591351612229775,0.00020602140726246808,0.012617160820628035
5,operation,24.653061224489797,6.653061224489796,800.0,electrolyte,0.006410436999225647,0.00611958964090258,-9.747351819124207e-05,0.00627234719225659
5,operation,24.653061224489797,6.653061224489796,800.0,cathode,0.01330349698057609,0.011487493566238753,0.00011195661169810925,0.012496371762333184
5,operation,24.653061224489797,6.653061224489796,800.0,interface_ae,0.026304353478428317,0.02329017423812882,-6.505419960415696e-05,0.02493453324955645
5,operation,24.653061224489797,6.653061224489796,800.0,interface_ec,0.026587445034733325,0.023100849747872174,0.00016834148447426685,0.0250286622932136
5,operation,24.775510204081634,6.775510204081632,800.0,anode,0.013000800578607724,0.011346874416334371,9.515520780790864e-05,0.01225891866227361
5,operation,24.775510204081634,6.775510204081632,800.0,electrolyte,0.0063816712719472965,0.005718552537310093,-3.2224115383572083e-05,0.006077562346988859
5,operation,24.775510204081634,6.775510204081632,800.0,cathode,0.012937478346569463,0.011600601267172333,0.00012649158949723022,0.012325492622742766
5,operation,24.775510204081634,6.775510204081632,800.0,interface_ae,0.026600627400661117,0.023278358552525188,0.00011122682930351072,0.025105647310449508
5,operation,24.775510204081634,6.775510204081632,800.0,interface_ec,0.02618809628306117,0.023166909134219,3.958049407302082e-05,0.024815912609104644
5,operation,24.89795918367347,6.8979591836734695,800.0,anode,0.013173917034636579,0.011566635333904689,-0.00012006437323210953,0.01245008012365474
5,operation,24.89795918367347,6.8979591836734695,800.0,electrolyte,0.006083731722271458,0.005883573284989927,2.4322157325222587e-05,0.005986311012320354
5,operation,24.89795918367347,6.8979591836734695,800.0,cathode,0.013380399675642021,0.011528552811568326,-7.12777884827594e-05,0.012557914742420545
5,operation,24.89795918367347,6.8979591836734695,800.0,interface_ae,0.02640130959332733,0.023402839929722564,-2.3145221498765428e-05,0.025037133417687433
5,operation,24.89795918367347,6.8979591836734695,800.0,interface_ec,0.0265603570368657,0.023030738398881385,-1.614471331698672e-05,0.024983266887696108
5,operation,25.020408163265305,7.020408163265306,800.0,anode,0.013185977171184396,0.011861277988784386,2.076273980159083e-05,0.012576114741013075
5,operation,25.020408163265305,7.020408163265306,800.0,electrolyte,0.00684921550365884,0.005450463040010504,1.2991890441127968e-05,0.006268046807257698
5,operation,25.020408163265305,7.020408163265306,800.0,cathode,0.013235879607836091,0.011740018639517374,-8.133599364488911e-05,0.012555752465484881
5,operation,25.020408163265305,7.020408163265306,800.0,interface_ae,0.02673688926788217,0.023234592788294355,-0.00010870675129349181,0.02516986822907946
5,operation,25.020408163265305,7.020408163265306,800.0,interface_ec,0.02639679500191728,0.02316936769542398,0.0002783235142247329,0.02494485374450131
5,operation,25.142857142857142,7.142857142857142,800.0,anode,0.013409988719905005,0.011625932271141644,-1.1191668519920465e-05,0.01261296371940774
5,operation,25.142857142857142,7.142857142857142,800.0,electrolyte,0.006690211372496294,0.005919772432065643,-0.0002911549919320649,0.00636022159177716
5,operation,25.142857142857142,7.142857142857142,800.0,cathode,0.013328598630946669,0.011621593308795726,-0.00013111438217869762,0.012564433643365213
5,operation,25.142857142857142,7.142857142857142,800.0,interface_ae,0.026576042827924837,0.023681237602711656,5.567959468277808e-05,0.02525356970195784
5,operation,25.142857142857142,7.142857142857142,800.0,interface_ec,0.026620085688451377,0.023592823818392884,-8.302621507200518e-05,0.025243375094571505
5,operation,25.26530612244898,7.26530612244898,800.0,anode,0.012828485710966618,0.011747373212661902,-2.4761153644145105e-05,0.012323621747611587
5,operation,25.26530612244898,7.26530612244898,800.0,electrolyte,0.006225165309525692,0.005704366012772842,7.275473737906203e-05,0.005983120680588219
5,operation,25.26530612244898,7.26530612244898,800.0,cathode,0.01317020566704713,0.011458634473852994,-2.2350706029651028e-05,0.012403368385068322
5,operation,25.26530612244898,7.26530612244898,800.0,interface_ae,0.026396104706939733,0.022846103547474787,-1.4277495317069326e-05,0.024812320753157126
5,operation,25.26530612244898,7.26530612244898,800.0,interface_ec,0.026131131905571026,0.02336380519040422,-0.00015610425755867782,0.02486471150069265
5,operation,25.387755102040817,7.387755102040816,800.0,anode,0.013402538440910189,0.011534166986157213,-5.429757067720121e-05,0.012573256260306214
5,operation,25.387755102040817,7.387755102040816,800.0,electrolyte,0.006558890919460395,0.005546793110955322,2.7874575413006408e-05,0.006116165785638457
5,operation,25.387755102040817,7.387755102040816,800.0,cathode,0.013053578245062328,0.011504653097535048,4.053541693291353e-05,0.012352367702739933
5,operation,25.387755102040817,7.387755102040816,800.0,interface_ae,0.026172283853253125,0.02297913253964753,2.4822550741034185e-05,0.02473083992342026
5,operation,25.387755102040817,7.387755102040816,800.0,interface_ec,0.026394620029502127,0.02326573854896188,3.276392367214207e-05,0.02497765898656117
5,operation,25.51020408163265,7.5102040816326525,800.0,anode,0.013211475110761399,0.011737618524793415,9.743628697865849e-06,0.012539688714271257
5,operation,25.51020408163265,7.5102040816326525,800.0,electrolyte,0.00609853922006494,0.005370423081067629,0.00019279491802420829,0.005778702150253911
5,operation,25.51020408163265,7.5102040816326525,800.0,cathode,0.013200014373411775,0.01180604833034342,-3.457039056270759e-05,0.012561318972093092
5,operation,25.51020408163265,7.5102040816326525,800.0,interface_ae,0.026388396981121217,0.023141327069145835,0.0002465927331461365,0.02492766359512989
5,operation,25.51020408163265,7.5102040816326525,800.0,interface_ec,0.02645064848447283,0.023125028418898762,-0.0001651539713430191,0.0249562331737992
5,operation,25.632653061224488,7.63265306122449,800.0,anode,0.013594746688547172,0.011583344322954341,7.442291195615973e-05,0.012709641523763356
5,operation,25.632653061224488,7.63265306122449,800.0,electrolyte,0.006671199458061309,0.0056274338953139266,6.724527753861561e-05,0.006216489868464775
5,operation,25.632653061224488,7.63265306122449,800.0,cathode,0.013079172342649678,0.011417914727592118,0.00011644646925122124,0.012334396244650374
5,operation,25.632653061224488,7.63265306122449,800.0,interface_ae,0.026368362124035562,0.023335702566720535,4.109209938817711e-05,0.0249905251119408
5,operation,25.632653061224488,7.63265306122449,800.0,interface_ec,0.02652758639201106,0.02292069261315968,-5.852905313163699e-05,0.024920887085784514
5,operation,25.755102040816325,7.755102040816326,800.0,anode,0.013135104968500717,0.011449704265419703,4.290068480163878e-05,0.012378980746442477
5,operation,25.755102040816325,7.755102040816326,800.0,electrolyte,0.00673737861551918,0.0059890369310692596,-3.3920476520988366e-05,0.006396395580309916
5,operation,25.755102040816325,7.755102040816326,800.0,cathode,0.013258393172491584,0.01170512870089802,6.212560942035293e-05,0.012554497510608458
5,operation,25.755102040816325,7.755102040816326,800.0,interface_ae,0.026224372985385474,0.023596116053652996,9.265201843464447e-05,0.02501453249785408
5,operation,25.755102040816325,7.755102040816326,800.0,interface_ec,0.026590529868738493,0.02347269201138008,5.341359422659844e-05,0.025176989295172352
5,operation,25.877551020408163,7.877551020408163,800.0,anode,0.012994537315389807,0.01158820545368898,-0.00016510533950619155,0.012354874212674135
5,operation,25.877551020408163,7.877551020408163,800.0,electrolyte,0.006583014501939818,0.005686157268366891,-4.052238352693171e-06,0.006183563529008886
5,operation,25.877551020408163,7.877551020408163,800.0,cathode,0.013440800226017131,0.01152460119228871,-2.521231587720764e-05,0.012592600526878822
5,operation,25.877551020408163,7.877551020408163,800.0,interface_ae,0.026404394659192646,0.022864001550117277,-2.660636557620032e-05,0.0248243152469619
5,operation,25.877551020408163,7.877551020408163,800.0,interface_ec,0.025902841017542765,0.023114895687620856,8.551890533928274e-05,0.024627952569096615
5,operation,26.0,8.0,800.0,anode,0.013289453311650216,0.011497035937909185,4.079821822381236e-06,0.012490081356649994
5,operation,26.0,8.0,800.0,electrolyte,0.0062850020865739195,0.005719531319370096,0.000293032028549251,0.006043560769471511
5,operation,26.0,8.0,800.0,cathode,0.013569160264074388,0.011626524426003454,1.6014416491537442e-05,0.012709711902107798
5,operation,26.0,8.0,800.0,interface_ae,0.026204086937073094,0.023071642178409794,3.621843221046941e-05,0.024786840519006554
5,operation,26.0,8.0,800.0,interface_ec,0.026295021486872707,0.02341282991897032,0.00015696856809777572,0.02498042856750101
5,shutdown,32.0,8.0,800.0,anode,0.01326652415695621,0.011636347441167986,-0.00016807796249106518,0.012534596569340164
5,shutdown,32.0,8.0,800.0,electrolyte,0.00664952204905441,0.005491265739692189,-4.180091286334198e-05,0.006153136780571867
5,shutdown,32.0,8.0,800.0,cathode,0.013391915178477029,0.011821951632861807,-4.665075273501172e-05,0.012680295261708076
5,shutdown,32.0,8.0,800.0,interface_ae,0.026318216893016007,0.02309213622534867,-0.00011978537453259109,0.024863517285049413
5,shutdown,32.0,8.0,800.0,interface_ec,0.026273040903579153,0.022909373996217064,6.83062581508265e-05,0.02476342408424962
5,shutdown,32.04081632653061,8.040816326530612,739.2480966557373,anode,0.012244162625362353,0.010817532812784483,-9.544040505751428e-05,0.011598026995994416
5,shutdown,32.04081632653061,8.040816326530612,739.2480966557373,electrolyte,0.0057514537947322055,0.005282314613405703,6.410256495022532e-06,0.005531835434452322
5,shutdown,32.04081632653061,8.040816326530612,739.2480966557373,cathode,0.012135803938827388,0.010647530301972812,0.00017107757776943866,0.011468177763204941
5,shutdown,32.04081632653061,8.040816326530612,739.2480966557373,interface_ae,0.024415720811018553,0.02180498958991406,0.00012689650254316332,0.023221730421965337
5,shutdown,32.04081632653061,8.040816326530612,739.2480966557373,interface_ec,0.024671169993863425,0.02119596135834956,5.9317099099802984e-05,0.023130430096958626
5,shutdown,32.08163265306122,8.081632653061224,683.2585078404431,anode,0.011125275680903069,0.009533555982985628,0.0001496003169555526,0.010424209844936735
5,shutdown,32.08163265306122,8.081632653061224,683.2585078404431,electrolyte,0.0054621393025529145,0.004647352144717418,-4.145638632486934e-05,0.005104264766931628
5,shutdown,32.08163265306122,8.081632653061224,683.2585078404431,cathode,0.01105238395414698,0.009727493731734201,-2.2160339018264946e-05,0.01045317190990398
5,shutdown,32.08163265306122,8.081632653061224,683.2585078404431,interface_ae,0.022769420596012436,0.019599203207206144,0.00016592706642191906,0.021363412059827815
5,shutdown,32.08163265306122,8.081632653061224,683.2585078404431,interface_ec,0.02259302491659939,0.019811720963232287,7.481200322518749e-05,0.021339145895548788
5,shutdown,32.12244897959184,8.122448979591837,631.6579178483621,anode,0.01033548534644282,0.009350033728806974,5.6698026326710084e-05,0.009880176895283796
5,shutdown,32.12244897959184,8.122448979591837,631.6579178483621,electrolyte,0.00475516546881987,0.004536777212303969,7.839731429926152e-05,0.004651801606574465
5,shutdown,32.12244897959184,8.122448979591837,631.6579178483621,cathode,0.010274953969955085,0.009118074882577076,-6.12857994674407e-05,0.009748714622120432
5,shutdown,32.12244897959184,8.122448979591837,631.6579178483621,interface_ae,0.020389983296137944,0.01787557204188233,-0.00015370679870688636,0.019258134817222685
5,shutdown,32.12244897959184,8.122448979591837,631.6579178483621,interface_ec,0.020799317375844763,0.017687591074393313,-6.664799269634811e-05,0.019431571907861742
5,shutdown,32.16326530612245,8.16326530612245,584.1022750249358,anode,0.009369643575633703,0.008323609417563353,-0.00018564315499362027,0.008898698281669885
5,shutdown,32.16326530612245,8.16326530612245,584.1022750249358,electrolyte,0.004770022506254037,0.0038719032219972234,0.00011324055407092691,0.004394787142624443
5,shutdown,32.16326530612245,8.16326530612245,584.1022750249358,cathode,0.009398421095165012,0.008360918720078462,3.7738565552062714e-07,0.008925012407796166
5,shutdown,32.16326530612245,8.16326530612245,584.1022750249358,interface_ae,0.019094396675937673,0.01676748552502092,-4.271105487326319e-05,0.01804397428727049
5,shutdown,32.16326530612245,8.16326530612245,584.1022750249358,interface_ec,0.019114158171504365,0.016853312075620682,-7.651346671096205e-05,0.018090490892404637
5,shutdown,32.20408163265306,8.204081632653061,540.2744977709071,anode,0.008861561783892743,0.007961477694166608,7.058941961045527e-05,0.00844844520873529
5,shutdown,32.20408163265306,8.204081632653061,540.2744977709071,electrolyte,0.004508132126408013,0.003837442398490636,-9.361504460748793e-05,0.004216137260661745
5,shutdown,32.20408163265306,8.204081632653061,540.2744977709071,cathode,0.008614359328157304,0.007787111227257151,9.427637251523104e-05,0.00823358838925094
5,shutdown,32.20408163265306,8.204081632653061,540.2744977709071,interface_ae,0.018109758822994874,0.01564263165626026,-0.0001170435757497502,0.01701211629117703
5,shutdown,32.20408163265306,8.204081632653061,540.2744977709071,interface_ec,0.017399121925724067,0.015901970730563736,-2.1438893197677835e-05,0.0167009930297563
5,shutdown,32.244897959183675,8.244897959183673,499.8823603717566,anode,0.008097821839090564,0.006925637258599864,0.0001565103405574244,0.007584858587551494
5,shutdown,32.244897959183675,8.244897959183673,499.8823603717566,electrolyte,0.004082950954259503,0.0033500179256828705,-9.938252888572712e-05,0.0037742257976934816
5,shutdown,32.244897959183675,8.244897959183673,499.8823603717566,cathode,0.008149759701317882,0.007126561877657801,8.321102172211273e-05,0.007690739418822788
5,shutdown,32.244897959183675,8.244897959183673,499.8823603717566,interface_ae,0.016286031518902053,0.014182545215609696,-5.438015954613664e-05,0.015343106094695049
5,shutdown,32.244897959183675,8.244897959183673,499.8823603717566,interface_ec,0.016144649394616847,0.014125305116032067,-1.301955328047618e-05,0.015235693569118582
5,shutdown,32.285714285714285,8.285714285714286,462.65654455601276,anode,0.007457567396226287,0.006380179526566111,6.306798620978803e-05,0.006982357492547517
5,shutdown,32.285714285714285,8.285714285714286,462.65654455601276,electrolyte,0.003596582250156496,0.0030618107878273098,-3.51607428281868e-05,0.0033618066100339216
5,shutdown,32.285714285714285,8.285714285714286,462.65654455601276,cathode,0.007502730841826468,0.006576373345204783,4.221181149044621e-05,0.007085495243599317
5,shutdown,32.285714285714285,8.285714285714286,462.65654455601276,interface_ae,0.015088227646019928,0.013380519451285851,2.8548616268805323e-05,0.014311080876433934
5,shutdown,32.285714285714285,8.285714285714286,462.65654455601276,interface_ec,0.014694677943557723,0.013065709249978184,-0.00010043183843830082,0.01395278424543901
5,shutdown,32.326530612244895,8.326530612244898,428.34884379104386,anode,0.00720931241221572,0.006443028782281905,6.503111974963429e-05,0.006859277302564775
5,shutdown,32.326530612244895,8.326530612244898,428.34884379104386,electrolyte,0.003554617555162368,0.003027163330885746,3.660559154607913e-05,0.0033230461605302493
5,shutdown,32.326530612244895,8.326530612244898,428.34884379104386,cathode,0.006550450753807439,0.00603076213272509,-8.811530623462599e-05,0.006308532281188974
5,shutdown,32.326530612244895,8.326530612244898,428.34884379104386,interface_ae,0.013796154502454201,0.012079175242475237,0.00019468219623461144,0.013027198054808184
5,shutdown,32.326530612244895,8.326530612244898,428.34884379104386,interface_ec,0.013923208732691095,0.012147999608057273,-2.66939687139626e-05,0.013126029078427005
5,shutdown,32.36734693877551,8.36734693877551,396.7305083432843,anode,0.00666661424030857,0.005565649825504488,3.316739616352778e-05,0.006190271662411015
5,shutdown,32.36734693877551,8.36734693877551,396.7305083432843,electrolyte,0.003126189668280655,0.002662780196566389,3.650622238552014e-06,0.002922181421303417
5,shutdown,32.36734693877551,8.36734693877551,396.7305083432843,cathode,0.0059390165784209215,0.005262099474481557,3.4963054166962755e-05,0.0056314811575039194
5,shutdown,32.36734693877551,8.36734693877551,396.7305083432843,interface_ae,0.012976459835218666,0.011212925730288422,-7.20368854896654e-05,0.012191378135889433
5,shutdown,32.36734693877551,8.36734693877551,396.7305083432843,interface_ec,0.012374249146299702,0.011300186961554716,-5.67195151015101e-05,0.011874114272185725
5,shutdown,32.40816326530612,8.408163265306122,367.5907200684652,anode,0.005963740638425016,0.005212855359761908,4.783003922546894e-05,0.005626616140355911
5,shutdown,32.40816326530612,8.408163265306122,367.5907200684652,electrolyte,0.0028800618646255805,0.0026052694173702134,-1.194544012563351e-05,0.0027530485040644006
5,shutdown,32.40816326530612,8.408163265306122,367.5907200684652,cathode,0.005708032247840864,0.004942182516045554,-0.00023850087979709788,0.005382128853621607
5,shutdown,32.40816326530612,8.408163265306122,367.5907200684652,interface_ae,0.011633965196948108,0.01057364029288792,7.300800925375975e-05,0.011142425345629295
5,shutdown,32.40816326530612,8.408163265306122,367.5907200684652,interface_ec,0.011715728933124201,0.010122963657439699,9.973392257590772e-05,0.011007481092411403
5,shutdown,32.44897959183673,8.448979591836734,340.7351867623481,anode,0.005353821318623905,0.005047348062024181,-9.810872632946813e-05,0.005210124900665715
5,shutdown,32.44897959183673,8.448979591836734,340.7351867623481,electrolyte,0.002498107660799356,0.0021608753895826956,-0.00014821183704340132,0.002361720816569692
5,shutdown,32.44897959183673,8.448979591836734,340.7351867623481,cathode,0.0051902742439461575,0.004753004451219553,-7.122010248506275e-05,0.004987566377017093
5,shutdown,32.44897959183673,8.448979591836734,340.7351867623481,interface_ae,0.0099840912961209,0.009679577058016763,-0.00016840937293474055,0.009839694869606562
5,shutdown,32.44897959183673,8.448979591836734,340.7351867623481,interface_ec,0.010873212018946346,0.009470965316466651,0.00021173728164203425,0.0102508832670144
5,shutdown,32.48979591836735,8.489795918367347,315.9848466996775,anode,0.005155520498157096,0.0042604726025332685,-7.02063562355312e-05,0.004772929013407304
5,shutdown,32.48979591836735,8.489795918367347,315.9848466996775,electrolyte,0.0027410636052539266,0.0018524816813824986,1.9087993591870806e-05,0.002422486533743027
5,shutdown,32.48979591836735,8.489795918367347,315.9848466996775,cathode,0.004929904909202637,0.004292748307889328,3.5351398444842544e-05,0.00464462685861287
5,shutdown,32.48979591836735,8.489795918367347,315.9848466996775,interface_ae,0.00995016997580688,0.008814267191818876,1.3897565236328389e-05,0.009433679628459193
5,shutdown,32.48979591836735,8.489795918367347,315.9848466996775,interface_ec,0.009995794284708594,0.008741460081846845,-6.594268872163146e-05,0.009432085471049833
5,shutdown,32.53061224489796,8.53061224489796,293.17467472374994,anode,0.0045684205183098995,0.0038766285223702664,-7.803766047308504e-05,0.004266956184268148
5,shutdown,32.53061224489796,8.53061224489796,293.17467472374994,electrolyte,0.0021819769487524173,0.001955417483233283,3.5225306347810822e-06,0.0020779899638075795
5,shutdown,32.53061224489796,8.53061224489796,293.17467472374994,cathode,0.0047508960317352465,0.003919813017802902,1.968519264748205e-05,0.00439482486657882
5,shutdown,32.53061224489796,8.53061224489796,293.17467472374994,interface_ae,0.009158846075313924,0.007917286011128928,7.3740786206544916e-06,0.008605512095991244
5,shutdown,32.53061224489796,8.53061224489796,293.17467472374994,interface_ec,0.009335784815560624,0.00807631291199882,2.2658392902730806e-05,0.008774196779974973
5,shutdown,32.57142857142857,8.571428571428571,272.15258192607723,anode,0.004068500890487879,0.004098190340116218,-6.483563703225011e-05,0.004084970439435152
5,shutdown,32.57142857142857,8.571428571428571,272.15258192607723,electrolyte,0.0017393359304963135,0.0019961823319367272,-1.1481703964842598e-05,0.0018810627890291616
5,shutdown,32.57142857142857,8.571428571428571,272.15258192607723,cathode,0.004148958192486997,0.003595307813792937,0.0001871714624315838,0.0039151513405516186
5,shutdown,32.57142857142857,8.571428571428571,272.15258192607723,interface_ae,0.00849005116907376,0.0075187873840795024,1.6261562358226733e-05,0.008048542493861456
5,shutdown,32.57142857142857,8.571428571428571,272.15258192607723,interface_ec,0.008473143036041863,0.007688562061862368,-2.5085466122769504e-05,0.008109484646913207
5,shutdown,32.61224489795919,8.612244897959183,252.77840157967978,anode,0.0035881930081239485,0.0035876417860062786,4.9670161224239204e-05,0.003588948711084486
5,shutdown,32.61224489795919,8.612244897959183,252.77840157967978,electrolyte,0.0019319954596969035,0.0017753022057750648,-3.707442202941741e-05,0.0018597182892251135
5,shutdown,32.61224489795919,8.612244897959183,252.77840157967978,cathode,0.0038837190337989466,0.0033876908043887414,-5.9148825707091693e-05,0.0036624280215110886
5,shutdown,32.61224489795919,8.612244897959183,252.77840157967978,interface_ae,0.00799699559107719,0.0065456099848378866,0.00023608821718129668,0.00739046326738274
5,shutdown,32.61224489795919,8.612244897959183,252.77840157967978,interface_ec,0.007934633476297484,0.006472466603380976,-2.241663294909295e-05,0.007314102109347184
5,shutdown,32.6530612244898,8.653061224489797,234.92295456460886,anode,0.0035417527526294007,0.0032247838293013214,-9.893782707397202e-05,0.0033987089288870934
5,shutdown,32.6530612244898,8.653061224489797,234.92295456460886,electrolyte,0.0017670492037316534,0.0015251429592265193,-7.376183625734389e-05,0.001664284743748167
5,shutdown,32.6530612244898,8.653061224489797,234.92295456460886,cathode,0.003400111489515866,0.0033301674328533705,-0.00016965825400425935,0.0033784884920588427
5,shutdown,32.6530612244898,8.653061224489797,234.92295456460886,interface_ae,0.007246499658839435,0.006452315068401423,-2.1855833833841644e-05,0.006883956793734427
5,shutdown,32.6530612244898,8.653061224489797,234.92295456460886,interface_ec,0.007161398439565224,0.0065255120069652745,-7.04851510724057e-05,0.006866662036883352
5,shutdown,32.69387755102041,8.693877551020408,218.46718805434932,anode,0.0031748525881801254,0.0028006643688631345,0.00011653255992232815,0.003012051270504995
5,shutdown,32.69387755102041,8.693877551020408,218.46718805434932,electrolyte,0.0018810867782198715,0.0011487346184890547,0.00010062407473116369,0.0016515401301912436
5,shutdown,32.69387755102041,8.693877551020408,218.46718805434932,cathode,0.003458964735227407,0.0032104800671729616,3.851080321263795e-05,0.0033423242229999417
5,shutdown,32.69387755102041,8.693877551020408,218.46718805434932,interface_ae,0.006581514123860185,0.006028565547480324,6.989037915017654e-05,0.006324357312863691
5,shutdown,32.69387755102041,8.693877551020408,218.46718805434932,interface_ec,0.007039345830745646,0.005991263779158358,1.535479764239154e-05,0.00657827948638602
5,shutdown,32.734693877551024,8.73469387755102,203.30138172020213,anode,0.0028020542706430475,0.0025562666936732644,-0.0001435954978028016,0.0026990866121468083
5,shutdown,32.734693877551024,8.73469387755102,203.30138172020213,electrolyte,0.0014524185362475874,0.001501192748891158,-3.671088480515556e-07,0.0014774097275622993
5,shutdown,32.734693877551024,8.73469387755102,203.30138172020213,cathode,0.003241220200470296,0.0027399648757998906,-4.030922897540097e-05,0.003022740628362596
5,shutdown,32.734693877551024,8.73469387755102,203.30138172020213,interface_ae,0.0060912753244705565,0.005439319596435195,1.392233984636159e-05,0.0057929285344835175
5,shutdown,32.734693877551024,8.73469387755102,203.30138172020213,interface_ec,0.006103887139206946,0.0051910902367068345,-4.3297626524221605e-05,0.005703038766561147
5,shutdown,32.775510204081634,8.775510204081632,189.32441616095798,anode,0.0032505080215853104,0.002708651256956564,-0.0001473840896809716,0.0030270889649069857
5,shutdown,32.775510204081634,8.775510204081632,189.32441616095798,electrolyte,0.0009048109892035366,0.0012280586913099765,8.934728944259902e-05,0.0011133727545586396
5,shutdown,32.775510204081634,8.775510204081632,189.32441616095798,cathode,0.00269482749486994,0.0026672897045114433,5.965456500708411e-06,0.002681184574476843
5,shutdown,32.775510204081634,8.775510204081632,189.32441616095798,interface_ae,0.0055650194687633684,0.005077138952978747,-5.3187579290226896e-05,0.005338622600671274
5,shutdown,32.775510204081634,8.775510204081632,189.32441616095798,interface_ec,0.005540290460348032,0.005059949370169804,-3.139593706602425e-06,0.005316422327040557
5,shutdown,32.816326530612244,8.816326530612244,176.44309868003802,anode,0.002961173193483937,0.0024086528687225868,6.288138283327617e-05,0.0027293917310391652
5,shutdown,32.816326530612244,8.816326530612244,176.44309868003802,electrolyte,0.0012602669952002086,0.0012926987088255567,-3.226077728016462e-05,0.001278013930585896
5,shutdown,32.816326530612244,8.816326530612244,176.44309868003802,cathode,0.0026358934890482926,0.002086629176750471,0.00010394413922305917,0.0024154164647230574
5,shutdown,32.816326530612244,8.816326530612244,176.44309868003802,interface_ae,0.005216956817069137,0.004936278185042341,0.0002392298383669758,0.005099296360242069
5,shutdown,32.816326530612244,8.816326530612244,176.44309868003802,interface_ec,0.005311499767903409,0.004553460634544347,-9.460645121255688e-05,0.004978672470958145
5,shutdown,32.85714285714286,8.857142857142858,164.57154191466293,anode,0.0025581684810047334,0.002134009210689658,5.3803483915446193e-05,0.002376499659625183
5,shutdown,32.85714285714286,8.857142857142858,164.57154191466293,electrolyte,0.0015165575064529377,0.0008652433677536171,-9.243041684813366e-05,0.0013274153748624297
5,shutdown,32.85714285714286,8.857142857142858,164.57154191466293,cathode,0.0023299333326788326,0.002256192527860977,5.548672402144881e-05,0.0022959643315015343
5,shutdown,32.85714285714286,8.857142857142858,164.57154191466293,interface_ae,0.004575299338366782,0.004335215175961721,-0.0001201212818893263,0.0044649563153945
5,shutdown,32.85714285714286,8.857142857142858,164.57154191466293,interface_ec,0.0045868887058361655,0.0041608131323833866,-5.534312459752201e-05,0.004390434573323912
5,shutdown,32.89795918367347,8.89795918367347,153.63059117400576,anode,0.002368841321597124,0.0019852407896031234,0.00017655611776272605,0.002223372657031744
5,shutdown,32.89795918367347,8.89795918367347,153.63059117400576,electrolyte,0.00102940014322723,0.0009249363201341908,0.00012103826090617632,0.0010034904347162416
5,shutdown,32.89795918367347,8.89795918367347,153.63059117400576,cathode,0.0021726852632421778,0.002226766142544414,5.4082821038449164e-05,0.002202217423120027
5,shutdown,32.89795918367347,8.89795918367347,153.63059117400576,interface_ae,0.003911181553756802,0.0040914442688357025,9.127268131198088e-05,0.004007476525945403
5,shutdown,32.89795918367347,8.89795918367347,153.63059117400576,interface_ec,0.004572005368955983,0.0034737345102967576,-6.629899612710476e-05,0.004135374031577666
5,shutdown,32.93877551020408,8.938775510204081,143.54729666804633,anode,0.0019013871829895645,0.0016086084982247298,0.00017419225318939384,0.0017987039118317425
5,shutdown,32.93877551020408,8.938775510204081,143.54729666804633,electrolyte,0.0009919140819092103,0.0008676433430112305,5.5200831031577896e-05,0.0009408571952180645
5,shutdown,32.93877551020408,8.938775510204081,143.54729666804633,cathode,0.002132988483278795,0.0011098542296116422,-6.463575371493634e-05,0.0018511194809849062
5,shutdown,32.93877551020408,8.938775510204081,143.54729666804633,interface_ae,0.003755698583843582,0.0036337267621045803,-2.888924143340474e-05,0.00369656101594723
5,shutdown,32.93877551020408,8.938775510204081,143.54729666804633,interface_ec,0.004041333812302091,0.003137961593695512,-3.098522246904981e-05,0.003674304275327721
5,shutdown,32.97959183673469,8.979591836734693,134.25442710817435,anode,0.002083875647563855,0.0019194375421540506,7.188634195406998e-05,0.0020105750371732026
5,shutdown,32.97959183673469,8.979591836734693,134.25442710817435,electrolyte,0.0006492343944757095,0.001058248519383918,7.240022550000159e-05,0.0009327750366614743
5,shutdown,32.97959183673469,8.979591836734693,134.25442710817435,cathode,0.0018374117903843844,0.0012325403826316682,9.53594950662517e-05,0.0016302864628607242
5,shutdown,32.97959183673469,8.979591836734693,134.25442710817435,interface_ae,0.0036032659283979085,0.0033443284552781903,6.839386063666252e-06,0.0034810477909483404
5,shutdown,32.97959183673469,8.979591836734693,134.25442710817435,interface_ec,0.00402937819128224,0.0032500218938677325,-1.5113590085947844e-06,0.003701752346021848
5,shutdown,33.02040816326531,9.020408163265307,125.69002143642092,anode,0.0020307015077225083,0.0013775365693215306,8.14322851407777e-05,0.0018010784758611224
5,shutdown,33.02040816326531,9.020408163265307,125.69002143642092,electrolyte,0.0008047738094071925,0.0005426489271039532,1.1609867208726128e-07,0.0007109283638984778
5,shutdown,33.02040816326531,9.020408163265307,125.69002143642092,cathode,0.0018533194523483799,0.0017799229860668707,0.00014746939853456826,0.0018355910779731962
5,shutdown,33.02040816326531,9.020408163265307,125.69002143642092,interface_ae,0.003371004044408458,0.002820912189736694,-3.187388995774793e-05,0.0031328829029637945
5,shutdown,33.02040816326531,9.020408163265307,125.69002143642092,interface_ec,0.0031936507085875334,0.002974884796259836,-3.416652836197584e-05,0.0030906477503783903
5,shutdown,33.06122448979592,9.061224489795919,117.79697569443749,anode,0.0017260400784656434,0.0009496899571352997,-7.336079460866397e-05,0.0015026868794191055
5,shutdown,33.06122448979592,9.061224489795919,117.79697569443749,electrolyte,0.0006331935546133508,0.000922327000123131,-0.0001113844377401017,0.0008395410293417628
5,shutdown,33.06122448979592,9.061224489795919,117.79697569443749,cathode,0.0016258735095640892,0.0013652513102342192,0.0001043042526836382,0.0015232491593218415
5,shutdown,33.06122448979592,9.061224489795919,117.79697569443749,interface_ae,0.00328025044817069,0.0028060027326004267,-5.5466687458806834e-05,0.003072219438314474
5,shutdown,33.06122448979592,9.061224489795919,117.79697569443749,interface_ec,0.0027906155746466052,0.002831171117373832,5.304897985298728e-05,0.0028126140064838752
5,shutdown,33.10204081632653,9.10204081632653,110.52266227762675,anode,0.0011416705317820672,0.0010351079348980483,2.523299733716759e-05,0.001093168754587054
5,shutdown,33.10204081632653,9.10204081632653,110.52266227762675,electrolyte,0.0007851151821507017,0.00043308296150162056,-5.7406471356803814e-05,0.0006883554324923659
5,shutdown,33.10204081632653,9.10204081632653,110.52266227762675,cathode,0.0010893462865629124,0.0015572995485264047,-0.00012998744073684524,0.0014021800668543097
5,shutdown,33.10204081632653,9.10204081632653,110.52266227762675,interface_ae,0.003021739986803706,0.00255670139629684,0.0001289593619624759,0.002826984132477745
5,shutdown,33.10204081632653,9.10204081632653,110.52266227762675,interface_ec,0.0027548372899990443,0.0025759440775955937,-0.00016984269092373502,0.0026860471333052228
5,shutdown,33.14285714285714,9.142857142857142,103.81857903577588,anode,0.0009547530110278451,0.001300630089778995,-0.0001785025839069702,0.0012070629500733324
5,shutdown,33.14285714285714,9.142857142857142,103.81857903577588,electrolyte,0.0006154155430905691,0.0007839910535747622,7.466848560946794e-05,0.000726377402579747
5,shutdown,33.14285714285714,9.142857142857142,103.81857903577588,cathode,0.001209541280826077,0.0008636627457242658,5.094948616555286e-05,0.001082615007807887
5,shutdown,33.14285714285714,9.142857142857142,103.81857903577588,interface_ae,0.0029533681134036277,0.0022302791302786762,-8.033128584071166e-05,0.0026700285188225536
5,shutdown,33.14285714285714,9.142857142857142,103.81857903577588,interface_ec,0.002579936364257792,0.002477048488173224,0.00012285176064149127,0.0025389941021970145
5,shutdown,33.183673469387756,9.183673469387756,97.64002588053233,anode,0.0009893023043342527,0.0007891004647521837,0.0002339996321932448,0.0009924752733959327
5,shutdown,33.183673469387756,9.183673469387756,97.64002588053233,electrolyte,0.0005737743691619409,0.0005867088146692168,-6.91930840617639e-05,0.0005925949953763495
5,shutdown,33.183673469387756,9.183673469387756,97.64002588053233,cathode,0.0013352161285009004,0.0012807690015574189,2.997961715729297e-05,0.0013098718447735846
5,shutdown,33.183673469387756,9.183673469387756,97.64002588053233,interface_ae,0.0028226189486236014,0.0021121647352460105,-2.6288247303537623e-05,0.0025433549908466945
5,shutdown,33.183673469387756,9.183673469387756,97.64002588053233,interface_ec,0.0025207286034761973,0.002270505982335448,2.2794726206260927e-05,0.0024057222476411917
5,shutdown,33.224489795918366,9.224489795918368,91.94580674347571,anode,0.0008833552514010844,0.0010659126992161624,-3.7417358480343735e-05,0.000989498346783559
5,shutdown,33.224489795918366,9.224489795918368,91.94580674347571,electrolyte,0.00044528555696906084,0.00050059965556056,-9.615226873292144e-05,0.000503691594425853
5,shutdown,33.224489795918366,9.224489795918368,91.94580674347571,cathode,0.0009131599920174562,0.0004803158739762803,0.00017472373285098912,0.0008470799363891417
5,shutdown,33.224489795918366,9.224489795918368,91.94580674347571,interface_ae,0.002391622777404806,0.0019834665076928393,-6.672232368866481e-05,0.0022189301079480156
5,shutdown,33.224489795918366,9.224489795918368,91.94580674347571,interface_ec,0.0017052700571749217,0.0018611135567098037,7.158663371640763e-05,0.0017925853831791021
5,shutdown,33.265306122448976,9.26530612244898,86.69795489756177,anode,0.0012392903505869227,0.0010532112298046313,1.583919557524685e-05,0.001157848260251398
5,shutdown,33.265306122448976,9.26530612244898,86.69795489756177,electrolyte,0.0007782415476819553,0.0003896632678584899,0.00010851889161343614,0.0006996958437168174
5,shutdown,33.265306122448976,9.26530612244898,86.69795489756177,cathode,0.0009739390011241063,0.0007485245693084186,-0.00010057129804225212,0.0009000959367698496
5,shutdown,33.265306122448976,9.26530612244898,86.69795489756177,interface_ae,0.0018888116955017072,0.0019813192679284395,-7.427455710970785e-05,0.0019409911865446309
5,shutdown,33.265306122448976,9.26530612244898,86.69795489756177,interface_ec,0.001895105210729309,0.0019922527061002142,3.2797039047223284e-05,0.0019463280960793118
5,shutdown,33.30612244897959,9.306122448979592,81.8614798104968,anode,0.0011609977946318156,0.0009547817725496962,-7.531115801973118e-05,0.001080758942417339
5,shutdown,33.30612244897959,9.306122448979592,81.8614798104968,electrolyte,0.0004921232171882068,0.00044470100398108606,-9.191586584740024e-05,0.0004964293849631496
5,shutdown,33.30612244897959,9.306122448979592,81.8614798104968,cathode,0.0007475544032438566,0.0007161175484715956,0.00020365823566720806,0.0008128684600249598
5,shutdown,33.30612244897959,9.306122448979592,81.8614798104968,interface_ae,0.0018544099772810005,0.0019510970988676159,-4.68660509479798e-05,0.0019063241084503974
5,shutdown,33.30612244897959,9.306122448979592,81.8614798104968,interface_ec,0.0021147265600333087,0.0018850220717018425,9.525905079520449e-05,0.002016505207905928
5,shutdown,33.3469387755102,9.346938775510203,77.40413384216254,anode,0.0009701261996489473,0.0010609267592537272,3.783539693527279e-05,0.0010206723952713632
5,shutdown,33.3469387755102,9.346938775510203,77.40413384216254,electrolyte,0.0007822244877700643,6.279235623608072e-05,3.482862476668184e-05,0.0007552081897633194
5,shutdown,33.3469387755102,9.346938775510203,77.40413384216254,cathode,0.000949225449754289,0.0005981494743363987,5.7958422176373826e-05,0.0008373234622392991
5,shutdown,33.3469387755102,9.346938775510203,77.40413384216254,interface_ae,0.0014871049273789876,0.0014400700218429282,-0.00019990878128978078,0.00150453915539027
5,shutdown,33.3469387755102,9.346938775510203,77.40413384216254,interface_ec,0.002096846765886874,0.0015245969882059349,0.00021668840348163117,0.0019144653730654472
5,shutdown,33.38775510204081,9.387755102040817,73.29619723052508,anode,0.0009831832800689714,0.0008135017420634685,-5.862276942809993e-05,0.0009159274112777478
5,shutdown,33.38775510204081,9.387755102040817,73.29619723052508,electrolyte,0.00019579487286046826,0.0004610514091775871,-7.151400927298216e-06,0.0004009812460785283
5,shutdown,33.38775510204081,9.387755102040817,73.29619723052508,cathode,0.0005547392316680121,0.0004205104160915999,-9.587037291435838e-05,0.0005280761169285268
5,shutdown,33.38775510204081,9.387755102040817,73.29619723052508,interface_ae,0.0020093800345833907,0.001890419782388788,2.0498914730890984e-05,0.001952942376474827
5,shutdown,33.38775510204081,9.387755102040817,73.29619723052508,interface_ec,0.0016749751487784023,0.001380500124420623,-9.344853483095023e-05,0.0015573107677168052
5,shutdown,33.42857142857143,9.428571428571429,69.51027993240348,anode,0.0010331463858539985,0.0010418525841920708,-8.934190858392856e-05,0.0010490033173105057
5,shutdown,33.42857142857143,9.428571428571429,69.51027993240348,electrolyte,0.0003567443495545928,0.00023854132206873794,-4.202390748649772e-05,0.0003230607541801193
5,shutdown,33.42857142857143,9.428571428571429,69.51027993240348,cathode,0.000995292225418522,0.0004047449963394193,4.6646969093630627e-05,0.000870697075384743
5,shutdown,33.42857142857143,9.428571428571429,69.51027993240348,interface_ae,0.0016618687701262724,0.0013058443761049235,8.930678269867729e-05,0.001523424583213765
5,shutdown,33.42857142857143,9.428571428571429,69.51027993240348,interface_ec,0.0015457515167725893,0.0015777005950565097,-0.0001522205304925854,0.0015840666340577788
5,shutdown,33.46938775510204,9.46938775510204,66.02113899784933,anode,0.0006289275733103826,0.0006004780818801388,-0.0002672207384471349,0.0007698619133288026
5,shutdown,33.46938775510204,9.46938775510204,66.02113899784933,electrolyte,0.0001268577158469004,0.00014004262018333722,9.482059948233497e-05,0.00021192490858462656
5,shutdown,33.46938775510204,9.46938775510204,66.02113899784933,cathode,0.0005573139562488364,0.00045122491298915033,8.174857806561918e-05,0.0005317681041234306
5,shutdown,33.46938775510204,9.46938775510204,66.02113899784933,interface_ae,0.001073783121865502,0.0008154326074119771,-3.6159230006934645e-05,0.0009727616506216944
5,shutdown,33.46938775510204,9.46938775510204,66.02113899784933,interface_ec,0.001107823897407842,0.0009477455619687617,5.7343379168798196e-05,0.0010418373409950591
5,shutdown,33.51020408163265,9.510204081632653,62.8055102604701,anode,0.0008191079745995549,0.0007244164653454194,0.00011087766603072329,0.000799514450209465
5,shutdown,33.51020408163265,9.510204081632653,62.8055102604701,electrolyte,0.0005653053371552902,-0.00014668898539133593,4.504119599294666e-05,0.0006558185549406463
5,shutdown,33.51020408163265,9.510204081632653,62.8055102604701,cathode,0.0005379915671031274,0.00041715877297690714,5.604146322087054e-05,0.0004984479942188775
5,shutdown,33.51020408163265,9.510204081632653,62.8055102604701,interface_ae,0.0009417673180549279,0.0007830655231755247,6.335727440817172e-05,0.0008801671488879452
5,shutdown,33.51020408163265,9.510204081632653,62.8055102604701,interface_ec,0.0013853836175362578,0.0011606337755242907,-8.799134047231369e-05,0.0012967894732952435
5,shutdown,33.55102040816327,9.551020408163264,59.84195322147059,anode,0.0007422030656563111,0.0006582852605031951,8.530451504745419e-06,0.0007041603810583038
5,shutdown,33.55102040816327,9.551020408163264,59.84195322147059,electrolyte,5.6758625216444224e-05,0.00017210642430804936,8.378336775244428e-05,0.0002100775973914024
5,shutdown,33.55102040816327,9.551020408163264,59.84195322147059,cathode,0.0008588753833002436,0.0004569173614158342,-2.496729678082624e-05,0.0007455705352315188
5,shutdown,33.55102040816327,9.551020408163264,59.84195322147059,interface_ae,0.0011545364558747603,0.0010994279659643942,-5.8106730006002386e-05,0.0011324733061711877
5,shutdown,33.55102040816327,9.551020408163264,59.84195322147059,interface_ec,0.0006080372659654558,0.0012830031645116192,0.00017946889471625495,0.0011542616484519117
5,shutdown,33.59183673469388,9.591836734693878,57.11070809316573,anode,0.0004244378949560027,0.00026795704906813295,-1.371005223902222e-05,0.0003725335925417654
5,shutdown,33.59183673469388,9.591836734693878,57.11070809316573,electrolyte,0.00023181483951950635,0.0004361014577460216,5.463944164503786e-06,0.00037804414541894605
5,shutdown,33.59183673469388,9.591836734693878,57.11070809316573,cathode,0.0003883933008029086,0.00021760583274027794,8.656341848196735e-05,0.0003690049906939727
5,shutdown,33.59183673469388,9.591836734693878,57.11070809316573,interface_ae,0.0012137379819871404,0.0011746874213221393,-9.681867507210939e-05,0.0012064034375106937
5,shutdown,33.59183673469388,9.591836734693878,57.11070809316573,interface_ec,0.0014615231136599562,0.0006138365442923282,7.096010214014797e-05,0.0012770336039689286
5,shutdown,33.63265306122449,9.63265306122449,54.59356404878929,anode,0.0001221286664883857,0.00028549351719674057,0.0001561022930447959,0.00036695884602337903
5,shutdown,33.63265306122449,9.63265306122449,54.59356404878929,electrolyte,0.00041447693646568873,0.00010917551220459553,-5.188370428216882e-05,0.00038279948772380017
5,shutdown,33.63265306122449,9.63265306122449,54.59356404878929,cathode,0.0005241696420948545,0.0005463879916885787,0.00012515793826826967,0.0005778297168212186
5,shutdown,33.63265306122449,9.63265306122449,54.59356404878929,interface_ae,0.0009168436389338332,0.000564762574375428,1.5696862704876002e-05,0.0008015604932510797
5,shutdown,33.63265306122449,9.63265306122449,54.59356404878929,interface_ec,0.0009166042723538531,0.0006269928461231788,2.976689153127944e-05,0.0008131649913698191
5,shutdown,33.673469387755105,9.673469387755102,52.27373780013852,anode,0.0004219105897773499,0.00047009178101835774,-8.944442001871804e-05,0.00047398210998496267
5,shutdown,33.673469387755105,9.673469387755102,52.27373780013852,electrolyte,0.00032608958438884217,-6.212185842610233e-05,-8.277313896965832e-05,0.00038859363214224427
5,shutdown,33.673469387755105,9.673469387755102,52.27373780013852,cathode,0.00041595049437845224,0.0007571530227163417,7.848253685484938e-05,0.0006706980432629042
5,shutdown,33.673469387755105,9.673469387755102,52.27373780013852,interface_ae,0.0011445051820453734,0.0011009940861174267,0.00036028321358108737,0.0012850675602459592
5,shutdown,33.673469387755105,9.673469387755102,52.27373780013852,interface_ec,0.0009373844947035023,0.001101658864074769,0.0001012635254401941,0.0010442350840794514
5,shutdown,33.714285714285715,9.714285714285714,50.135761693466634,anode,0.0006273252804728079,0.0007315924498419826,-4.193130309844765e-05,0.0006892697468595094
5,shutdown,33.714285714285715,9.714285714285714,50.135761693466634,electrolyte,0.0001110790610288959,0.0002494712406146035,-1.8269977192188713e-05,0.00021878026129309734
5,shutdown,33.714285714285715,9.714285714285714,50.135761693466634,cathode,0.0004918189504109373,0.0006892942832445487,-4.7814672270627845e-05,0.0006203734573951254
5,shutdown,33.714285714285715,9.714285714285714,50.135761693466634,interface_ae,0.0007953017671038594,0.0007883512531732082,-2.2831842602516926e-05,0.000792836258946936
5,shutdown,33.714285714285715,9.714285714285714,50.135761693466634,interface_ec,0.000473436394019908,0.0006374635239281048,6.873732422375044e-05,0.0005855576749202326
5,shutdown,33.755102040816325,9.755102040816327,48.16538057748471,anode,0.0006820680903449787,0.00011628797783189005,-0.00011592823992308431,0.0006631300966780141
5,shutdown,33.755102040816325,9.755102040816327,48.16538057748471,electrolyte,0.00020033704925785504,-0.00024414355890690605,-4.449702029871274e-05,0.0003931818476153079
5,shutdown,33.755102040816325,9.755102040816327,48.16538057748471,cathode,4.73503282481706e-05,0.0006210239513079284,-7.693311543504045e-05,0.0006134029886547172
5,shutdown,33.755102040816325,9.755102040816327,48.16538057748471,interface_ae,0.001119684317584704,0.0009171276533705387,-6.463172976974168e-05,0.0010394491013988659
5,shutdown,33.755102040816325,9.755102040816327,48.16538057748471,interface_ec,0.0005747255529476832,0.0006557142328453531,-1.0464662425820323e-05,0.0006194702727317412
5,shutdown,33.79591836734694,9.795918367346939,46.34945675583765,anode,0.00043285884579313447,0.00016468526425629987,7.463948735222031e-05,0.00039989461418731226
5,shutdown,33.79591836734694,9.795918367346939,46.34945675583765,electrolyte,0.00023212557088765054,8.949373335797735e-05,-7.120406554180231e-05,0.00023733453577750246
5,shutdown,33.79591836734694,9.795918367346939,46.34945675583765,cathode,0.000326652460382917,0.00015661367179682178,5.843869488358759e-06,0.0002831499307392679
5,shutdown,33.79591836734694,9.795918367346939,46.34945675583765,interface_ae,0.0007443466510492903,0.0006923293010199392,0.0001766242409671854,0.0007820659619451975
5,shutdown,33.79591836734694,9.795918367346939,46.34945675583765,interface_ec,0.0007007699700653939,0.0008409074177495678,2.295873969757017e-05,0.0007813465821215763
5,shutdown,33.83673469387755,9.83673469387755,44.67588239031102,anode,0.0002874758461391549,0.0002710778877463374,-5.88264091680503e-06,0.00027982325596957443
5,shutdown,33.83673469387755,9.83673469387755,44.67588239031102,electrolyte,0.00022097707127083244,-4.6643446885627536e-05,-0.00014653403834449672,0.00035458466215025267
5,shutdown,33.83673469387755,9.83673469387755,44.67588239031102,cathode,0.00046598418521370084,0.00047453450825283607,7.456358328028029e-05,0.00048772724761165587
5,shutdown,33.83673469387755,9.83673469387755,44.67588239031102,interface_ae,0.000701243816748986,0.0007432644089638262,7.134290260171423e-05,0.0007336516410534851
5,shutdown,33.83673469387755,9.83673469387755,44.67588239031102,interface_ec,0.0008277752848286823,0.00041791131920474584,-0.0001096951797154631,0.0007416361836933534
5,shutdown,33.87755102040816,9.877551020408163,43.13349877071198,anode,0.00023114058132489833,0.00026831507708577915,-2.419211271322896e-05,0.0002552571663705181
5,shutdown,33.87755102040816,9.877551020408163,43.13349877071198,electrolyte,-0.00022325065722289398,0.0004781754423863478,-2.740459888857355e-05,0.0006224938775226344
5,shutdown,33.87755102040816,9.877551020408163,43.13349877071198,cathode,0.0003433953139907432,0.0005207016971469219,-0.00023449722695212052,0.0006125446307330665
5,shutdown,33.87755102040816,9.877551020408163,43.13349877071198,interface_ae,0.0005153700869683625,0.0004661603432726595,-3.363100454506446e-05,0.0004960441804198085
5,shutdown,33.87755102040816,9.877551020408163,43.13349877071198,interface_ec,0.0005830115432079144,0.0008330107576775894,6.734588757272226e-05,0.0007495071049007697
5,shutdown,33.91836734693878,9.918367346938776,41.71202191314853,anode,0.0004762505237303603,0.0002599103079662278,-0.00013993730461455014,0.00047888710247516876
5,shutdown,33.91836734693878,9.918367346938776,41.71202191314853,electrolyte,-0.00027577406195118144,-0.00018253604097766868,3.5976570416601956e-05,0.00025082857669089136
5,shutdown,33.91836734693878,9.918367346938776,41.71202191314853,cathode,0.0002909974125441214,0.00020845352409284154,-3.6857690674013665e-05,0.0002674853224998368
5,shutdown,33.91836734693878,9.918367346938776,41.71202191314853,interface_ae,0.0009716312550977382,0.0003363917890127912,9.27819456116059e-05,0.0008695995766612271
5,shutdown,33.91836734693878,9.918367346938776,41.71202191314853,interface_ec,0.0005696695272133876,0.0004887846048508867,0.0001176637548616744,0.0005714213358325182
5,shutdown,33.95918367346939,9.959183673469388,40.401973990626175,anode,0.0005548364722495992,0.0001829408568489854,7.992027192421422e-05,0.000508891302727736
5,shutdown,33.95918367346939,9.959183673469388,40.401973990626175,electrolyte,0.00020195611880300448,0.00011516393257021737,2.0425494265702587e-05,0.00017900432086135116
5,shutdown,33.95918367346939,9.959183673469388,40.401973990626175,cathode,0.00012472863274234276,0.0001696308695597361,-5.8063527975270637e-05,0.00018245042380079845
5,shutdown,33.95918367346939,9.959183673469388,40.401973990626175,interface_ae,0.0007049361347084046,0.0004426612733436936,-0.00012977140246150386,0.0006567784105848479
5,shutdown,33.95918367346939,9.959183673469388,40.401973990626175,interface_ec,0.000379973346790003,-0.00017815143259052951,-4.944926018821485e-05,0.0005011448505983038
5,shutdown,34.0,10.0,39.19462013876898,anode,0.000249295446350721,0.00018552729155814143,0.00019801543515313925,0.00040981437773892086
5,shutdown,34.0,10.0,39.19462013876898,electrolyte,0.0002340328609597795,0.00021085582506138962,-0.0001643269034570278,0.0003617932566833067
5,shutdown,34.0,10.0,39.19462013876898,cathode,0.00016883802250786456,0.00011542189986679705,-7.860811988080079e-05,0.0002021845617726521
5,shutdown,34.0,10.0,39.19462013876898,interface_ae,0.00032355673355991286,6.388433187474763e-05,-0.00012758532046813284,0.00037004594841838365
5,shutdown,34.0,10.0,39.19462013876898,interface_ec,0.0006583515472155721,0.0003969259842644359,-5.06402418274334e-05,0.0005808213693657427
