cycle,time_hours,temperature_C,region,strain_xx,strain_yy,strain_xy,von_mises_strain,delta_T
1,0.0,800.0,anode,0.004233508322849991,0.00323464428510144,-0.00012272983251334607,0.003838855389788694,400
1,0.0,800.0,electrolyte,0.0027989876627767143,0.0023289446132425213,-6.798420739909127e-05,0.002598748403662531,400
1,0.0,800.0,cathode,0.004208916234237014,0.003686591562571153,1.3261032943777101e-05,0.003973651432161858,400
1,0.0,800.0,interface_ae,0.0076432590243165795,0.005777493265759949,-2.9048918891957716e-05,0.006902354013401281,400
1,0.0,800.0,interface_ec,0.006984953303819159,0.005560039014878082,-1.2402102876404885e-05,0.006392765837541041,400
1,0.20040080160320642,850.1332934257217,anode,0.004464808681742232,0.004280167917091274,9.462175268321662e-05,0.00437847952099323,400
1,0.20040080160320642,850.1332934257217,electrolyte,0.0028436770066812903,0.0032345208657833004,0.0001831550543288029,0.003074301360900578,400
1,0.20040080160320642,850.1332934257217,cathode,0.004675962245297802,0.003758187764463685,-0.00014391588550852194,0.004298556669551743,400
1,0.20040080160320642,850.1332934257217,interface_ae,0.007990737248841676,0.007213663975324798,0.0002826879458901913,0.00764761882712026,400
1,0.20040080160320642,850.1332934257217,interface_ec,0.008565372340144648,0.006740384562877661,-0.00016794261499335165,0.00781978887501297,400
1,0.40080160320641284,899.475954865942,anode,0.005037025422732781,0.0037150138066916515,4.8475157127717215e-05,0.004524089215039032,400
1,0.40080160320641284,899.475954865942,electrolyte,0.003452050908171993,0.002832070980891882,-0.0002392054600900193,0.003214418465016068,400
1,0.40080160320641284,899.475954865942,cathode,0.005148839580630334,0.004085735364461934,-0.0001754875253565432,0.004717984119263759,400
1,0.40080160320641284,899.475954865942,interface_ae,0.00812888852360246,0.007633727637933721,0.00026583773950046157,0.007906384407694249,400
1,0.40080160320641284,899.475954865942,interface_ec,0.009488944951951317,0.00750485323247303,-9.033180905426708e-05,0.008670307875381002,400
1,0.6012024048096193,947.2498210738712,anode,0.00561313048756122,0.004352107847371418,4.526878497291989e-05,0.0051014973420540925,400
1,0.6012024048096193,947.2498210738712,electrolyte,0.004060572831032505,0.003624216402554826,-1.5023111471992917e-05,0.0038610204185299496,400
1,0.6012024048096193,947.2498210738712,cathode,0.005411396085685622,0.004388228703100937,-0.000124032053105979,0.004983920843114581,400
1,0.6012024048096193,947.2498210738712,interface_ae,0.009782553111759225,0.008483131914475084,0.0001370376939349874,0.009204972674812274,400
1,0.6012024048096193,947.2498210738712,interface_ec,0.009609543094125579,0.008820728833118087,-4.066854015638531e-05,0.00924069064368505,400
1,0.8016032064128257,992.7014696406861,anode,0.0059206045081023305,0.004813798988201485,-0.0003636360390409412,0.005488379720481746,400
1,0.8016032064128257,992.7014696406861,electrolyte,0.0044141239063931175,0.0037476269134898124,-4.2199133567732e-05,0.004122141445080261,400
1,0.8016032064128257,992.7014696406861,cathode,0.005947111911574323,0.005192744257257062,-0.0002343818785329814,0.005622784575183963,400
1,0.8016032064128257,992.7014696406861,interface_ae,0.010509910650328462,0.009306611889389046,-0.00018814341347538738,0.009968238618479407,400
1,0.8016032064128257,992.7014696406861,interface_ec,0.01075669383318234,0.008661357944115477,6.996449736502895e-05,0.009877889104719595,400
1,1.0020040080160322,1035.1141009169892,anode,0.0063404485644806465,0.004913930313022755,0.0001747109031685757,0.00576914624705974,400
1,1.0020040080160322,1035.1141009169892,electrolyte,0.004225421233379509,0.003535853169351771,3.0085379584641426e-05,0.003926663795770199,400
1,1.0020040080160322,1035.1141009169892,cathode,0.006695732213998506,0.005093723312100889,9.251977477195748e-06,0.00605581510525627,400
1,1.0020040080160322,1035.1141009169892,interface_ae,0.011560698766604977,0.009925177426208878,2.6466233291583775e-05,0.010836005623333422,400
1,1.0020040080160322,1035.1141009169892,interface_ec,0.011321945464780808,0.009468968677835319,1.2921582456956212e-05,0.010518610690248379,400
1,1.2024048096192386,1073.8188423714755,anode,0.006416546720119073,0.0048510550151091595,6.548397062365016e-05,0.005795744117539751,400
1,1.2024048096192386,1073.8188423714755,electrolyte,0.004987912348926186,0.003300342381447727,-0.0001514596057064906,0.004402105286306215,400
1,1.2024048096192386,1073.8188423714755,cathode,0.0069239347020163145,0.006344708801071052,3.119056151311184e-06,0.006653260950224623,400
1,1.2024048096192386,1073.8188423714755,interface_ae,0.011910338280317819,0.010254559355952124,0.00020623146287222771,0.011180539742794026,400
1,1.2024048096192386,1073.8188423714755,interface_ec,0.0119349499089492,0.0100696706862885,-7.241152832730486e-05,0.011120971724955565,400
1,1.402805611222445,1108.2052971103158,anode,0.006796054388625544,0.006056546120236123,0.00024370176877043406,0.006471913239194847,400
1,1.402805611222445,1108.2052971103158,electrolyte,0.005054360861707019,0.004138115467168492,-4.377169033733161e-05,0.004664845374084644,400
1,1.402805611222445,1108.2052971103158,cathode,0.006613095728494161,0.006284677958581832,-1.1675579551920304e-05,0.0064551873831769375,400
1,1.402805611222445,1108.2052971103158,interface_ae,0.012693551373908497,0.01179347331614129,4.481293625485293e-05,0.012268546145452598,400
1,1.402805611222445,1108.2052971103158,interface_ec,0.01252215803295713,0.01070763376692617,0.0001722668563795132,0.011724513128907033,400
1,1.6032064128256514,1137.731170200806,anode,0.007411292825169388,0.00583923155321164,0.00013788434018628052,0.0067679145851152235,400
1,1.6032064128256514,1137.731170200806,electrolyte,0.004963674965743943,0.004951489795560059,0.00016200720985719725,0.004965528514455195,400
1,1.6032064128256514,1137.731170200806,cathode,0.007243115133310434,0.0066550198552273844,1.0178326579110493e-05,0.006967728602419752,400
1,1.6032064128256514,1137.731170200806,interface_ae,0.013534993166151173,0.011432706749260673,-0.000126953498248631,0.01261782736736593,400
1,1.6032064128256514,1137.731170200806,interface_ec,0.013086096113919268,0.01159627514934668,-5.0216299815981126e-05,0.01240875105337301,400
1,1.8036072144288577,1161.9308209864078,anode,0.007498213670891479,0.00618987520457966,6.353985983901915e-05,0.006938073822314637,400
1,1.8036072144288577,1161.9308209864078,electrolyte,0.005952273222677797,0.0042132285105928435,3.63291850091371e-06,0.005301188861901223,400
1,1.8036072144288577,1161.9308209864078,cathode,0.008042974376488706,0.006452519561010751,6.785576943746008e-05,0.0073784015362012186,400
1,1.8036072144288577,1161.9308209864078,interface_ae,0.013396036719311276,0.011786033690254334,-2.8071639750682313e-05,0.012668094327645901,400
1,1.8036072144288577,1161.9308209864078,interface_ec,0.014010473776459299,0.012013757376561464,0.00038843454630279207,0.013143741980614356,400
1,2.0040080160320644,1180.4226065180615,anode,0.007978116017144689,0.006731331050378173,2.9157645236600402e-05,0.00743373145384656,400
1,2.0040080160320644,1180.4226065180615,electrolyte,0.005357008357783224,0.004745059661820972,-4.431021152085441e-05,0.005079340080914051,400
1,2.0040080160320644,1180.4226065180615,cathode,0.007854764358061499,0.007028871416085911,-0.00015098138479194615,0.00748068272042967,400
1,2.0040080160320644,1180.4226065180615,interface_ae,0.01438957048566382,0.012335600399928301,-1.771027904866181e-05,0.013480494260701255,400
1,2.0040080160320644,1180.4226065180615,interface_ec,0.013411050447622528,0.011758119283598012,0.00019454918198416637,0.01267021943247755,400
1,2.2044088176352705,1192.9149002914755,anode,0.00792228858422509,0.0064399859827890685,-7.571623818423261e-05,0.007296152909747556,400
1,2.2044088176352705,1192.9149002914755,electrolyte,0.0058025903099916945,0.004881863727194693,-3.583981487545414e-05,0.005401763237627121,400
1,2.2044088176352705,1192.9149002914755,cathode,0.007819101679370348,0.006622249207764395,-0.00013836152767477536,0.007298625040201087,400
1,2.2044088176352705,1192.9149002914755,interface_ae,0.014757080912087392,0.012034901833696173,0.00018257377812382446,0.013605523827368408,400
1,2.2044088176352705,1192.9149002914755,interface_ec,0.014728863020823295,0.012431091243903963,-6.474304690770725e-05,0.013725457014467425,400
1,2.404809619238477,1199.2106913713087,anode,0.008113225940814069,0.006786032194738848,-0.0001355552791095192,0.007541430990087969,400
1,2.404809619238477,1199.2106913713087,electrolyte,0.005691782624115641,0.004401591676311345,0.00017815190826923454,0.005178099073090144,400
1,2.404809619238477,1199.2106913713087,cathode,0.00785272172452357,0.006853638773417975,4.249318073192132e-05,0.00740427591614956,400
1,2.404809619238477,1199.2106913713087,interface_ae,0.014308120952572334,0.012403931718423605,-7.123554849337866e-05,0.013458013057810901,400
1,2.404809619238477,1199.2106913713087,interface_ec,0.01464718163392073,0.011824129673906997,1.8956936931961773e-05,0.013459601608593717,400
1,2.6052104208416833,1199.2106913713087,anode,0.008573785613430572,0.006493191479274451,-0.00010166174557872772,0.007747974507758815,400
1,2.6052104208416833,1199.2106913713087,electrolyte,0.005748647194496835,0.004809178148241166,5.2594514891033874e-05,0.005342019197605383,400
1,2.6052104208416833,1199.2106913713087,cathode,0.008138863052757385,0.006983707317224654,0.00016645497629343346,0.0076326236646492565,400
1,2.6052104208416833,1199.2106913713087,interface_ae,0.014508738041762111,0.01215554628159546,0.00010088605518040969,0.013488131160494025,400
1,2.6052104208416833,1199.2106913713087,interface_ec,0.014955757025152122,0.01218813345406625,-0.0001461793957005962,0.01378428844763324,400
1,2.80561122244489,1192.9149002914755,anode,0.008261273203700847,0.006703662303291462,-0.0003259004319021054,0.007624012771792643,400
1,2.80561122244489,1192.9149002914755,electrolyte,0.005804630805185455,0.0045572452009481025,-1.3579992345624115e-05,0.005292414380454523,400
1,2.80561122244489,1192.9149002914755,cathode,0.00802874310208546,0.006796926556411262,0.00010641777257085592,0.007491470044945914,400
1,2.80561122244489,1192.9149002914755,interface_ae,0.014141822294075606,0.0122855297139124,-3.893200163758757e-05,0.01331127894862692,400
1,2.80561122244489,1192.9149002914755,interface_ec,0.01449411134951281,0.012316208219663491,-0.0001403158053066893,0.013539380375713343,400
1,3.006012024048096,1180.4226065180615,anode,0.008130020700033125,0.006472803121869309,0.00012120866974217175,0.0074440894738224146,400
1,3.006012024048096,1180.4226065180615,electrolyte,0.005573144439646832,0.0051949696118210025,-3.3519897355777815e-05,0.005394321362063239,400
1,3.006012024048096,1180.4226065180615,cathode,0.007699431026345156,0.006627766273637203,-4.547696742514131e-05,0.007223897776720089,400
1,3.006012024048096,1180.4226065180615,interface_ae,0.014287589487907723,0.011455572697195365,-0.0001580523628719531,0.013106020784262328,400
1,3.006012024048096,1180.4226065180615,interface_ec,0.013727266040851348,0.012225558157318414,0.00025659200588728874,0.013048989779417064,400
1,3.2064128256513027,1161.9308209864078,anode,0.007587973444302836,0.006425765461427463,1.0507824466977206e-05,0.007078813199909592,400
1,3.2064128256513027,1161.9308209864078,electrolyte,0.00568207923768731,0.004255282444611953,3.5755347410217767e-05,0.0051203941696279865,400
1,3.2064128256513027,1161.9308209864078,cathode,0.007911867498798806,0.00662674022936642,2.8437242489811507e-05,0.0073541735614973585,400
1,3.2064128256513027,1161.9308209864078,interface_ae,0.014015068605525483,0.010846571873192268,0.00010168129792963614,0.012731293639666196,400
1,3.2064128256513027,1161.9308209864078,interface_ec,0.013518532072817113,0.011108351692035102,7.66803899287471e-05,0.012489804551689916,400
1,3.4068136272545093,1137.731170200806,anode,0.007789409265556947,0.006229480392318543,0.00014293118208044082,0.007142733254541077,400
1,3.4068136272545093,1137.731170200806,electrolyte,0.005647801668802235,0.004783974798770009,0.0002459946794057089,0.005286461752465303,400
1,3.4068136272545093,1137.731170200806,cathode,0.007599949949329627,0.006293345038377328,-0.00024029487178457525,0.0070504998812192165,400
1,3.4068136272545093,1137.731170200806,interface_ae,0.013205342317175522,0.011034312925477473,0.000325641407624672,0.012277759364577099,400
1,3.4068136272545093,1137.731170200806,interface_ec,0.013226395319884806,0.011324248346107678,8.272280640607012e-05,0.01238618898709851,400
1,3.6072144288577155,1108.2052971103158,anode,0.0070951337050148945,0.0065282603375669095,-9.339740426016778e-05,0.006831280597096881,400
1,3.6072144288577155,1108.2052971103158,electrolyte,0.005015819316343382,0.003991080342096964,-0.00019800337668310586,0.004602851708434853,400
1,3.6072144288577155,1108.2052971103158,cathode,0.006898522243831573,0.0060086339863231605,-6.439533367758899e-05,0.00650038741903453,400
1,3.6072144288577155,1108.2052971103158,interface_ae,0.012539969054023528,0.010413645806686283,-1.2465835894304214e-05,0.011623618752297768,400
1,3.6072144288577155,1108.2052971103158,interface_ec,0.012296279235776385,0.011063557834894714,1.2365962940175491e-05,0.011728625549583252,400
1,3.807615230460922,1073.8188423714755,anode,0.006300922973875276,0.005634697437042583,-0.00011282346083858747,0.005998819750398619,400
1,3.807615230460922,1073.8188423714755,electrolyte,0.004812484249726082,0.004411357245917222,-0.00028127587044686166,0.004650573995214274,400
1,3.807615230460922,1073.8188423714755,cathode,0.00677269624745898,0.005679420321487549,0.00010070101146756984,0.006300052621250196,400
1,3.807615230460922,1073.8188423714755,interface_ae,0.012192698151157866,0.010083837488761929,-4.785809034999272e-05,0.011287309298040912,400
1,3.807615230460922,1073.8188423714755,interface_ec,0.011889931405645513,0.010632230429863155,3.1967473007913328e-06,0.011313634822732862,400
1,4.008016032064129,1035.1141009169892,anode,0.006921498214895794,0.005380271613650021,-0.0001062610150365694,0.006296728834551361,400
1,4.008016032064129,1035.1141009169892,electrolyte,0.003991684388635076,0.003237986997579302,-0.00023762039145082343,0.0036962781628855626,400
1,4.008016032064129,1035.1141009169892,cathode,0.0064312790044733364,0.0055510873647633885,-0.00023717860530482,0.0060534362155769275,400
1,4.008016032064129,1035.1141009169892,interface_ae,0.01170056531072864,0.009572327428524902,2.20189517978324e-05,0.010795021687754806,400
1,4.008016032064129,1035.1141009169892,interface_ec,0.011915720004982432,0.009986297538789594,-4.0279597185874846e-05,0.01107797200527064,400
1,4.208416833667335,992.7014696406861,anode,0.005659657028782275,0.00439241787154704,-0.000107872997886363,0.005147852320405018,400
1,4.208416833667335,992.7014696406861,electrolyte,0.004085571215836494,0.003230419886216727,-1.9688545063845707e-05,0.003732366168419641,400
1,4.208416833667335,992.7014696406861,cathode,0.005950070261294492,0.0049705056974034085,-9.750038712351895e-05,0.005528374430609209,400
1,4.208416833667335,992.7014696406861,interface_ae,0.01071922285512237,0.009200914680373321,-0.00016355986161642688,0.010050481089400366,400
1,4.208416833667335,992.7014696406861,interface_ec,0.011091906167456232,0.00903875604581722,2.827443441727149e-06,0.01022117817749147,400
1,4.408817635270541,947.2498210738713,anode,0.00568496253771568,0.004721588318506957,0.00014297049508698676,0.005275553457492426,400
1,4.408817635270541,947.2498210738713,electrolyte,0.003916885997077646,0.003072405222997402,5.422552878091524e-05,0.003571586481805057,400
1,4.408817635270541,947.2498210738713,cathode,0.0051293803485425145,0.0046841913908608635,-4.9844985966691195e-06,0.004921917005884415,400
1,4.408817635270541,947.2498210738713,interface_ae,0.009788061722147922,0.008334361008998552,-0.00028227735682464583,0.009161305979645018,400
1,4.408817635270541,947.2498210738713,interface_ec,0.009685879307007397,0.008400775732772566,2.3978458799610052e-05,0.009111647267582413,400
1,4.609218436873747,899.4759548659421,anode,0.004686457006381634,0.004625257968619918,-0.00012992622723217512,0.004661594191813849,400
1,4.609218436873747,899.4759548659421,electrolyte,0.0037871688442196157,0.003100040240013861,-9.693409647657044e-05,0.003498672632399969,400
1,4.609218436873747,899.4759548659421,cathode,0.005527352816442275,0.003887454566833564,0.0001378731260415002,0.004922766114137657,400
1,4.609218436873747,899.4759548659421,interface_ae,0.009290741882999854,0.007440796046725922,0.0002088697950096493,0.008525473291561333,400
1,4.609218436873747,899.4759548659421,interface_ec,0.008915553233207274,0.007728590198232872,3.904827581568311e-05,0.008385589596439674,400
1,4.809619238476954,850.1332934257218,anode,0.004461040311816054,0.004069375476066571,0.00011902330808283194,0.0042836373597460635,400
1,4.809619238476954,850.1332934257218,electrolyte,0.002626373462008599,0.003069595168746491,-0.00024937379820535115,0.0029060128432825843,400
1,4.809619238476954,850.1332934257218,cathode,0.004811096795559716,0.004164144535166911,-0.0001636449645322797,0.004531334094929076,400
1,4.809619238476954,850.1332934257218,interface_ae,0.007979154995276619,0.006555327988867764,-3.22381545433103e-05,0.00737132140854373,400
1,4.809619238476954,850.1332934257218,interface_ec,0.008009988996407272,0.007120937549094347,0.00019654631191794124,0.007612157069221833,400
1,5.01002004008016,800.0,anode,0.004418705143236987,0.003231349592026509,-3.138328106167917e-05,0.00396120549806056,400
1,5.01002004008016,800.0,electrolyte,0.002294968542333715,0.0021382389800511433,0.00014472774496461862,0.002234858767660726,400
1,5.01002004008016,800.0,cathode,0.00448467484706447,0.0030296953384360233,-8.886963887293413e-05,0.003965836265810958,400
1,5.01002004008016,800.0,interface_ae,0.007192078272912322,0.006204048347645883,-0.00012144052798824692,0.006755771448468171,400
1,5.01002004008016,800.0,interface_ec,0.007327218313339228,0.005977848195878726,-2.1678406317418653e-06,0.006754392096088207,400
1,5.210420841683367,749.8667065742783,anode,0.003662552340143893,0.002975793686824647,-6.545788357898528e-05,0.0033739430616034137,400
1,5.210420841683367,749.8667065742783,electrolyte,0.0024161840048421987,0.0020551980163553553,-5.550165448231915e-05,0.002259488605577792,400
1,5.210420841683367,749.8667065742783,cathode,0.0034210282469426525,0.0034534611570327806,8.41379171911858e-05,0.003440447300702792,400
1,5.210420841683367,749.8667065742783,interface_ae,0.006208956622928262,0.005562046931939679,-5.007292346340149e-05,0.00591274235667276,400
1,5.210420841683367,749.8667065742783,interface_ec,0.006649538109613003,0.005463853268245887,-1.609532160063433e-05,0.006143185350753682,400
1,5.410821643286574,700.5240451340582,anode,0.0031395555290836645,0.0020831915380189444,-0.00016901512033647078,0.0027824267691446826,400
1,5.410821643286574,700.5240451340582,electrolyte,0.0017454908140186903,0.0018310009969767578,0.00025987724992276374,0.0018455123860743317,400
1,5.410821643286574,700.5240451340582,cathode,0.003674630495198371,0.002745869714071721,7.512667124166853e-05,0.003312036416756936,400
1,5.410821643286574,700.5240451340582,interface_ae,0.004869115492167226,0.004435215750630883,-0.00011816756278623582,0.004671802374554251,400
1,5.410821643286574,700.5240451340582,interface_ec,0.005223178532937712,0.004547574744975653,-7.08135866545691e-05,0.00492181663162697,400
1,5.61122244488978,652.7501789261288,anode,0.0019337118461485517,0.002372749597707355,-0.00016091145386097096,0.0022042335720779877,400
1,5.61122244488978,652.7501789261288,electrolyte,0.0018410253117162464,0.002126088365535458,-0.0001379076887379635,0.002013081973588775,400
1,5.61122244488978,652.7501789261288,cathode,0.001768415532437389,0.0020625752543080612,0.00016514394524978564,0.001953416910561695,400
1,5.61122244488978,652.7501789261288,interface_ae,0.005137007456936497,0.003498212859234046,7.450488348547825e-05,0.004546718180213585,400
1,5.61122244488978,652.7501789261288,interface_ec,0.004409910083636302,0.0038352932312785302,0.00039665150205255516,0.004208976130078721,400
1,5.811623246492986,607.2985303593139,anode,0.0016220942050745929,0.00183815940650254,7.015397576481497e-05,0.0017444531044158377,400
1,5.811623246492986,607.2985303593139,electrolyte,0.0017768256099970012,0.001262821201679186,4.6207580925615345e-05,0.0015856919642118087,400
1,5.811623246492986,607.2985303593139,cathode,0.0019554907333666017,0.0018427755904277,-5.147884132461157e-05,0.0019037293682442485,400
1,5.811623246492986,607.2985303593139,interface_ae,0.003917845113424465,0.0030607844136844122,5.6565059085327964e-05,0.0035687296225920687,400
1,5.811623246492986,607.2985303593139,interface_ec,0.0037225947023621564,0.0035094825897291526,-7.709058538272935e-06,0.0036207701332533534,400
1,6.012024048096192,564.8858990830109,anode,0.001116949250368045,0.0017801065924197904,-0.00013585984512939282,0.0015758934217932961,400
1,6.012024048096192,564.8858990830109,electrolyte,0.0009580713919864305,0.0008023727113308675,0.0002061657139756226,0.000959419264165468,400
1,6.012024048096192,564.8858990830109,cathode,0.0010081567266365008,0.0023428547023035913,0.00015840852135990777,0.00205393845887053,400
1,6.012024048096192,564.8858990830109,interface_ae,0.003034917857732945,0.002506286055785181,4.283311122864854e-05,0.0028091507463239903,400
1,6.012024048096192,564.8858990830109,interface_ec,0.003124282912007998,0.0027163189317550842,8.334066990051726e-05,0.0029451350449526807,400
1,6.212424849699399,526.1811576285247,anode,0.0012886857806618218,0.0010133383137502622,-2.2690992548026754e-05,0.0011761103463930785,400
1,6.212424849699399,526.1811576285247,electrolyte,0.0008247956192938687,0.0010909089169498414,8.903350834212927e-05,0.000997183072339933,400
1,6.212424849699399,526.1811576285247,cathode,0.0003796949858859632,0.0012693100728013882,2.9210429207816223e-05,0.001129568687848724,400
1,6.212424849699399,526.1811576285247,interface_ae,0.002265648210379676,0.0018140161757897624,0.000168616907997902,0.0020974243685849565,400
1,6.212424849699399,526.1811576285247,interface_ec,0.0025555187759503024,0.0016987084113693454,6.105784306868026e-05,0.00225530251220829,400
1,6.412825651302605,491.79470288968423,anode,0.0006264500085344565,0.0003663695251256368,-9.400758368849476e-05,0.0005689168017950721,400
1,6.412825651302605,491.79470288968423,electrolyte,0.0009012809619426171,0.0008321159958064471,7.696281301459393e-05,0.0008789333998945819,400
1,6.412825651302605,491.79470288968423,cathode,0.0011354757649512414,0.0009351084606968034,-9.622223928344282e-05,0.0010628810889908766,400
1,6.412825651302605,491.79470288968423,interface_ae,0.0017818814154164982,0.0016445818117804733,0.00011314369947203613,0.001728498029473243,400
1,6.412825651302605,491.79470288968423,interface_ec,0.002008978663456709,0.0016169501083724877,5.271723113123743e-05,0.001846738198817092,400
1,6.613226452905812,462.2688297991939,anode,0.0009437333694868672,0.0005213286755184301,-0.00013228119768415766,0.0008502446346940204,400
1,6.613226452905812,462.2688297991939,electrolyte,0.0003869617194112281,0.00014702874386326897,-0.00010127674124615723,0.0003810948218433628,400
1,6.613226452905812,462.2688297991939,cathode,0.0005793326967772837,0.0002915590769931597,-4.619422944585604e-05,0.0005080601175946499,400
1,6.613226452905812,462.2688297991939,interface_ae,0.0005527545362993547,0.0010167012081395482,1.808213043336355e-07,0.0008816080859774337,400
1,6.613226452905812,462.2688297991939,interface_ec,0.0008757123470650331,0.0011504867964573881,0.00014063552064398375,0.0010687991110738797,400
1,6.813627254509019,438.0691790135921,anode,-0.00010157616917477134,9.477058804566844e-05,-0.00011537135246809473,0.0002624066742630892,400
1,6.813627254509019,438.0691790135921,electrolyte,-1.5486677237514814e-05,0.0004753540677103974,-2.9073920815920527e-05,0.00048590005196097886,400
1,6.813627254509019,438.0691790135921,cathode,0.00030133733774273763,-0.0002775706877064933,9.531270453138396e-05,0.0005279636585939345,400
1,6.813627254509019,438.0691790135921,interface_ae,0.00031346770378861576,0.0006004382279878572,4.160654069372875e-05,0.0005251317806407675,400
1,6.813627254509019,438.0691790135921,interface_ec,0.0010934428009962529,0.0001898123191722252,-0.0004529268233731238,0.0012804394103640374,400
1,7.014028056112225,419.5773934819386,anode,0.0002509287982454945,0.0007065611990497341,0.0001858419529409156,0.0006989342827804063,400
1,7.014028056112225,419.5773934819386,electrolyte,0.00019993957895595793,-3.1005364472079544e-05,0.00012106838949559654,0.00030184272756226583,400
1,7.014028056112225,419.5773934819386,cathode,-9.628992509195454e-05,0.00030931517540334387,7.582052387499402e-05,0.00038984332494021743,400
1,7.014028056112225,419.5773934819386,interface_ae,0.0006704560549245587,0.0011274321319469838,5.886239507681505e-05,0.000987479204344933,400
1,7.014028056112225,419.5773934819386,interface_ec,0.0001997039949626452,0.00029186182661606225,-0.0002653613857333677,0.0005272845852121808,400
1,7.214428857715431,407.0850997085245,anode,-0.00013756294224147222,-6.256138391147275e-05,-7.861325969018887e-05,0.0001810289910230956,400
1,7.214428857715431,407.0850997085245,electrolyte,9.530215956978825e-05,-0.00020456963644893922,0.0001681546000986707,0.00039402420549318863,400
1,7.214428857715431,407.0850997085245,cathode,7.091311656070436e-05,5.743325118087412e-05,-4.918420747693767e-05,0.00010729276024742414,400
1,7.214428857715431,407.0850997085245,interface_ae,0.00017408899991113515,0.0003559315049407156,-0.00013006953235663503,0.0003818176346239767,400
1,7.214428857715431,407.0850997085245,interface_ec,-6.990315196913556e-05,1.7284216907425824e-05,-0.00020188063852098222,0.00035869317344966125,400
1,7.414829659318637,400.7893086286914,anode,-0.00023788427162953533,-0.00013615713871952077,0.00013115837710690913,0.0003071573065995682,400
1,7.414829659318637,400.7893086286914,electrolyte,8.429355910141729e-05,6.277335975097714e-05,0.0001276346943251958,0.00023372281548172553,400
1,7.414829659318637,400.7893086286914,cathode,-3.3318450232904976e-05,0.00012384857832254377,-1.5483262939874434e-05,0.00014592541404940195,400
1,7.414829659318637,400.7893086286914,interface_ae,9.381626013633375e-05,-0.00016275117526449618,-0.00036582257374146435,0.0006723366780776863,400
1,7.414829659318637,400.7893086286914,interface_ec,-2.607619333944602e-05,0.00043890086284896046,0.00013893231033623883,0.0005125088873290221,400
1,7.615230460921844,400.7893086286914,anode,0.00029751233166426516,0.00037754833988574223,1.3298638644215615e-05,0.00034534274409168676,400
1,7.615230460921844,400.7893086286914,electrolyte,6.471987262251848e-05,-0.0001805991822895912,-4.741092840405746e-05,0.0002350244051707425,400
1,7.615230460921844,400.7893086286914,cathode,0.00019262443121825646,0.00036787445449452174,-2.091694135214993e-05,0.0003207596195309705,400
1,7.615230460921844,400.7893086286914,interface_ae,-0.00012084922413897823,1.2234809675957625e-05,9.018101233936722e-05,0.00020157042878181996,400
1,7.615230460921844,400.7893086286914,interface_ec,-0.00041894888952361724,-0.0006767778639221929,-8.258052742373752e-05,0.0006086622586562584,400
1,7.81563126252505,407.0850997085245,anode,-0.00029536273068900233,-9.221871177173482e-05,-2.2167047822620728e-05,0.0002645365702107968,400
1,7.81563126252505,407.0850997085245,electrolyte,-8.637882474723236e-05,0.0004778966036069445,4.9011714690348e-05,0.0005332288970083037,400
1,7.81563126252505,407.0850997085245,cathode,0.00016099330496849372,0.000246885490735479,-0.00017082496766711536,0.0003669712351309249,400
1,7.81563126252505,407.0850997085245,interface_ae,0.000439265330979522,8.567273957978725e-05,0.00010057209258618187,0.0004393233688545466,400
1,7.81563126252505,407.0850997085245,interface_ec,-0.00019402537515860518,-0.00035772560426439404,0.00012268344870375428,0.0003759777856975937,400
1,8.016032064128257,419.57739348193854,anode,0.00030869679264864037,-0.00010420762171077551,-0.00013044946219120416,0.0004351697178845929,400
1,8.016032064128257,419.57739348193854,electrolyte,0.00047467218969800056,-0.000240338076642664,0.0002464009429883945,0.0007611163866199958,400
1,8.016032064128257,419.57739348193854,cathode,-7.441228557497517e-05,0.00035792542227899247,-4.929277136234769e-05,0.0004093545856845832,400
1,8.016032064128257,419.57739348193854,interface_ae,0.0005333493119995968,0.00013629991963940192,-2.441893591084413e-05,0.00048180135079919505,400
1,8.016032064128257,419.57739348193854,interface_ec,0.0003646688352936101,-1.1221164607820924e-06,0.00011112365181301887,0.00041284284838101536,400
1,8.216432865731463,438.069179013592,anode,0.0002267277201944447,0.0002550080470135266,-0.00014915240619127682,0.0003540571858239169,400
1,8.216432865731463,438.069179013592,electrolyte,-0.0005022158445434489,0.00016920328635082184,0.0003618923132419373,0.0008710483437372545,400
1,8.216432865731463,438.069179013592,cathode,0.0006160730765053274,0.0003178099076952138,-3.9433624381240145e-05,0.0005379777668657295,400
1,8.216432865731463,438.069179013592,interface_ae,0.0006919849900882704,0.0007465941734605209,-0.00017712192229632671,0.0007834096314856367,400
1,8.216432865731463,438.069179013592,interface_ec,0.001019541730645318,0.0007970728335403312,0.00010772785885619017,0.0009470782972164465,400
1,8.41683366733467,462.268829799194,anode,0.0007542310196348583,0.0005351700506013461,0.00010092918539502298,0.0006943987777138596,400
1,8.41683366733467,462.268829799194,electrolyte,0.0006134260487167714,0.0002642873240228972,-8.604026593453513e-05,0.0005533781347942981,400
1,8.41683366733467,462.268829799194,cathode,0.0006532451865705361,0.0009939910987417052,-0.0001858660613480851,0.0009322372314445986,400
1,8.41683366733467,462.268829799194,interface_ae,0.0006805813566597603,0.0010021413482986235,7.633155278402708e-06,0.0008863488826592027,400
1,8.41683366733467,462.268829799194,interface_ec,0.0011728414356966146,0.0010258990553002184,-3.348033819522076e-05,0.0011082291203499694,400
1,8.617234468937877,491.7947028896842,anode,0.0013649060604774665,0.000299983781019361,-0.00012427455371703689,0.0012608892243766796,400
1,8.617234468937877,491.7947028896842,electrolyte,0.000611586492183075,5.3221838847370686e-05,-2.6378160664810673e-05,0.0005885645809111124,400
1,8.617234468937877,491.7947028896842,cathode,0.0014163880786152473,0.0007865209210511042,3.460513585780252e-05,0.001230586867563364,400
1,8.617234468937877,491.7947028896842,interface_ae,0.0012742552224625414,0.0012195505318003247,-5.6279457048590544e-05,0.0012516043181617083,400
1,8.617234468937877,491.7947028896842,interface_ec,0.0015569901229874452,0.0017889520927132985,8.365365910876867e-05,0.0016912069353861702,400
1,8.817635270541082,526.1811576285245,anode,0.0009283741892041353,0.0011464912733720595,7.473326227451777e-05,0.001062404419335168,400
1,8.817635270541082,526.1811576285245,electrolyte,0.001225312814956051,0.0012249400938602326,-0.00015226412877418027,0.0012531911379416577,400
1,8.817635270541082,526.1811576285245,cathode,0.0010185543229221433,0.0006952664821680732,-3.51029788660472e-05,0.0009035365882743221,400
1,8.817635270541082,526.1811576285245,interface_ae,0.002411168349647341,0.002226772066693155,-1.1392653546378413e-05,0.002324545911768821,400
1,8.817635270541082,526.1811576285245,interface_ec,0.0021753065803369873,0.0019760991093910464,-0.00012527143524450343,0.0020941308005952577,400
1,9.01803607214429,564.8858990830106,anode,0.002275720607338538,0.0009192318340701727,2.7711086834358666e-05,0.0019835020374879453,400
1,9.01803607214429,564.8858990830106,electrolyte,0.0017612831593499662,0.0009831110529119123,-2.8505855250224166e-05,0.0015295510844209952,400
1,9.01803607214429,564.8858990830106,cathode,0.001541625363986978,0.0013474126376768678,0.0002059272712014795,0.0014973784438589747,400
1,9.01803607214429,564.8858990830106,interface_ae,0.002304387610095339,0.00298278436635896,-0.00021359357286752174,0.002733236202643966,400
1,9.01803607214429,564.8858990830106,interface_ec,0.0028879504847238668,0.002393980929880464,8.828299046560796e-05,0.002679754833412344,400
1,9.218436873747494,607.2985303593135,anode,0.001593547998028011,0.0019006893078787478,0.00030364644349302786,0.0018438489400160049,400
1,9.218436873747494,607.2985303593135,electrolyte,0.0010421375111373515,0.0012903381059210341,-9.929732666949135e-05,0.0011982875926639346,400
1,9.218436873747494,607.2985303593135,cathode,0.002200751465451046,0.0017677818412788905,-9.622303635664643e-05,0.0020262496863479394,400
1,9.218436873747494,607.2985303593135,interface_ae,0.003877735231928966,0.00371297194743352,-2.86355687590948e-05,0.003798358732800137,400
1,9.218436873747494,607.2985303593135,interface_ec,0.003947300929112098,0.002783685627136148,-0.0001434654565227013,0.003521901822167803,400
1,9.418837675350701,652.7501789261289,anode,0.0026692236726254025,0.0025936113294328855,5.334200231784899e-05,0.002633853088573581,400
1,9.418837675350701,652.7501789261289,electrolyte,0.001675333843325956,0.0015036509862374732,-0.0001875611600954576,0.001629150071522331,400
1,9.418837675350701,652.7501789261289,cathode,0.0027088563871678992,0.0024130764395691186,-6.781354992496205e-05,0.0025764237493302597,400
1,9.418837675350701,652.7501789261289,interface_ae,0.0044084905763424696,0.003946841206465387,-6.550796040608931e-05,0.004198286112732243,400
1,9.418837675350701,652.7501789261289,interface_ec,0.004529663436282574,0.0044969942743197265,-3.7053855111899495e-05,0.004513873810402487,400
1,9.619238476953909,700.5240451340578,anode,0.0028977384057342114,0.0023601918419489435,0.0001116287957249905,0.0026768559575850188,400
1,9.619238476953909,700.5240451340578,electrolyte,0.0020493010639729735,0.0015933061570512158,0.0001981956048409518,0.0018949775332053785,400
1,9.619238476953909,700.5240451340578,cathode,0.003431121352694669,0.0023743273139178794,-0.0002799809927040924,0.0030819777504535427,400
1,9.619238476953909,700.5240451340578,interface_ae,0.005711686919364117,0.004392628942823083,0.00011859383987441529,0.005183765881710692,400
1,9.619238476953909,700.5240451340578,interface_ec,0.004818401667099489,0.0048657970920408765,-0.00018167578939211717,0.004852486931843994,400
1,9.819639278557114,749.8667065742782,anode,0.0037178963014627394,0.0029781489262322948,-0.0001430909129094967,0.003417762438391005,400
1,9.819639278557114,749.8667065742782,electrolyte,0.002326956052141913,0.002287602441203965,1.5884167967285133e-05,0.002307694947891527,400
1,9.819639278557114,749.8667065742782,cathode,0.003673990959884527,0.0035667991812360104,-0.0002346362417566577,0.0036443161941345776,400
1,9.819639278557114,749.8667065742782,interface_ae,0.006782764490827595,0.0053842673918434196,-0.00013481760724846922,0.006207297251788109,400
1,9.819639278557114,749.8667065742782,interface_ec,0.00589850663061531,0.005296224493353346,0.00013824751678866889,0.005626712734077639,400
2,10.02004008016032,800.0,anode,0.00416173526388674,0.0040233464790742045,-0.0002176763535077338,0.004111618095250194,400
2,10.02004008016032,800.0,electrolyte,0.0027963733156461837,0.002004281966676064,5.4544782393745174e-05,0.0024982103021195484,400
2,10.02004008016032,800.0,cathode,0.004466066217029191,0.0034437714618956844,-0.0003906320784940701,0.004108890143793189,400
2,10.02004008016032,800.0,interface_ae,0.007619684444038949,0.006557021565520053,6.064421324425464e-05,0.007148616703754873,400
2,10.02004008016032,800.0,interface_ec,0.007930734657546647,0.006104683896105286,0.0001020324158175674,0.007195854457477748,400
2,10.220440881763528,850.1332934257217,anode,0.0050841518347134705,0.003483863368622611,4.794777388784658e-05,0.004503366571714936,400
2,10.220440881763528,850.1332934257217,electrolyte,0.0029996791046777503,0.00265383629395255,5.215147253075045e-05,0.0028440154458435328,400
2,10.220440881763528,850.1332934257217,cathode,0.004580231011736012,0.0038147272200760823,5.1228626232036896e-06,0.004249518408115921,400
2,10.220440881763528,850.1332934257217,interface_ae,0.0081813454640873,0.006905643820218664,0.0001019059924434755,0.007626009895299458,400
2,10.220440881763528,850.1332934257217,interface_ec,0.008162881035198544,0.007431285109156983,6.938869392809267e-05,0.007823705851847104,400
2,10.420841683366733,899.475954865942,anode,0.0047267555074552116,0.004254553501477835,0.00017911641045710586,0.004519895684062562,400
2,10.420841683366733,899.475954865942,electrolyte,0.003201982024719689,0.0028325606527595383,6.930913398778446e-05,0.003036559189656549,400
2,10.420841683366733,899.475954865942,cathode,0.005479514678877169,0.0043823612313651835,-8.962652920374623e-05,0.00502404788263473,400
2,10.420841683366733,899.475954865942,interface_ae,0.009866806505475854,0.008545751114060631,0.0001468287076172693,0.009280578432496536,400
2,10.420841683366733,899.475954865942,interface_ec,0.00946569098973581,0.007781601498429079,-0.00012456666098348477,0.008748768094035313,400
2,10.62124248496994,947.2498210738712,anode,0.005902877352855375,0.005009724119350906,0.0002102397889419644,0.00552287172160031,400
2,10.62124248496994,947.2498210738712,electrolyte,0.00402588377527794,0.002805212344861588,0.00015779214265843777,0.003585832216832876,400
2,10.62124248496994,947.2498210738712,cathode,0.005446704933081324,0.004769013271498595,3.753003093775417e-05,0.00514187705119901,400
2,10.62124248496994,947.2498210738712,interface_ae,0.010941721865231357,0.00972454394235335,9.100845887042741e-05,0.010387955756459032,400
2,10.62124248496994,947.2498210738712,interface_ec,0.010288062632680051,0.008951920070095907,0.0001331483138810754,0.009692078039920506,400
2,10.821643286573147,992.7014696406861,anode,0.006127165143560047,0.005828424023316821,3.451061387871031e-05,0.0059836891398108135,400
2,10.821643286573147,992.7014696406861,electrolyte,0.004298233214212221,0.0037263510199784205,6.323799159216835e-05,0.00404422700855285,400
2,10.821643286573147,992.7014696406861,cathode,0.0064750475813680885,0.005104684660579047,-8.374526309190458e-05,0.005912022531001858,400
2,10.821643286573147,992.7014696406861,interface_ae,0.01087201150631746,0.00965359947896369,0.0001168404755268171,0.010318891780188306,400
2,10.821643286573147,992.7014696406861,interface_ec,0.011339389636054534,0.010024096839781883,-8.394028243569831e-07,0.010742305947493197,400
2,11.022044088176353,1035.1141009169892,anode,0.00686932055630614,0.005340883087842334,-5.8064955371160145e-05,0.0062477574933950475,400
2,11.022044088176353,1035.1141009169892,electrolyte,0.004654460033688658,0.004033659533679029,-4.409504214962733e-05,0.004377868598765272,400
2,11.022044088176353,1035.1141009169892,cathode,0.006647218284070966,0.005213031226679886,-5.35543801209914e-05,0.006059509321380565,400
2,11.022044088176353,1035.1141009169892,interface_ae,0.01227077145638703,0.0103756695360634,7.509985820718145e-05,0.011442281277724025,400
2,11.022044088176353,1035.1141009169892,interface_ec,0.012018588613485382,0.010205226978819884,-9.904817092101705e-05,0.011223641869030018,400
2,11.22244488977956,1073.8188423714755,anode,0.007284746370961254,0.006140125051482236,7.380282719891989e-05,0.006786438846917214,400
2,11.22244488977956,1073.8188423714755,electrolyte,0.004558921443800054,0.003363219236148905,0.00016457290676305433,0.004104096586361392,400
2,11.22244488977956,1073.8188423714755,cathode,0.006931446608097972,0.005755000438952483,0.00010402183678709904,0.006427049516587087,400
2,11.22244488977956,1073.8188423714755,interface_ae,0.01261757232884515,0.011142880617911742,9.255089243650462e-05,0.011949749570328084,400
2,11.22244488977956,1073.8188423714755,interface_ec,0.012940246917781032,0.010415112989337595,0.00018179159780796006,0.011884846640587915,400
2,11.422845691382767,1108.2052971103158,anode,0.007514530779028474,0.006209949134935709,2.150827010133766e-05,0.006954723214753242,400
2,11.422845691382767,1108.2052971103158,electrolyte,0.004424566509902714,0.004336417361250579,-0.00015440572622731072,0.004389312097223603,400
2,11.422845691382767,1108.2052971103158,cathode,0.007030354533905257,0.005864024520844202,0.00016690325624848877,0.006532232938839113,400
2,11.422845691382767,1108.2052971103158,interface_ae,0.013196301097277133,0.011837436411052175,-8.037021945784467e-05,0.012572838440547641,400
2,11.422845691382767,1108.2052971103158,interface_ec,0.012872872728107086,0.011042360766092626,0.00018537174300104078,0.012066514279283026,400
2,11.623246492985972,1137.731170200806,anode,0.007699407833727462,0.006419764505095013,2.400273387791815e-05,0.007146159847318588,400
2,11.623246492985972,1137.731170200806,electrolyte,0.0053146530122559045,0.004724720107465533,0.0002172748844839389,0.005059633772284776,400
2,11.623246492985972,1137.731170200806,cathode,0.007638246693371737,0.006186436388217582,-6.20197741684914e-05,0.007026579523877394,400
2,11.623246492985972,1137.731170200806,interface_ae,0.0140212032687701,0.011562523571412766,-0.00014357263723425642,0.012970252058283538,400
2,11.623246492985972,1137.731170200806,interface_ec,0.014046255481260199,0.011837055543804813,4.9195493117379765e-06,0.01308231414099581,400
2,11.823647294589179,1161.9308209864078,anode,0.007772725019947261,0.0067311123630419585,-0.00013863497164024564,0.00731175090996698,400
2,11.823647294589179,1161.9308209864078,electrolyte,0.0056005752702422895,0.004844063185286252,-0.00027692817933571405,0.005285065625630431,400
2,11.823647294589179,1161.9308209864078,cathode,0.007721420362299559,0.006351273800776666,-9.750359016103472e-05,0.007137694116603242,400
2,11.823647294589179,1161.9308209864078,interface_ae,0.014375461125705999,0.011805525073237082,-0.00013827897196879696,0.013280504557241522,400
2,11.823647294589179,1161.9308209864078,interface_ec,0.014099305305018657,0.012302598837966324,1.0401650555437563e-05,0.013292350272747309,400
2,12.024048096192384,1180.4226065180615,anode,0.007977916102438469,0.0070183180248155185,-8.20020126880898e-05,0.007545366382293322,400
2,12.024048096192384,1180.4226065180615,electrolyte,0.005381461712528614,0.005145550135872027,0.00020106915776855216,0.005278969760920172,400
2,12.024048096192384,1180.4226065180615,cathode,0.007804562997361366,0.007214191488537451,0.00012170948317373881,0.007529713810008518,400
2,12.024048096192384,1180.4226065180615,interface_ae,0.014405508276565579,0.012783122466839117,0.0002306897877618829,0.013672569822331754,400
2,12.024048096192384,1180.4226065180615,interface_ec,0.014413223821318039,0.01226223832740838,0.00015264922002652536,0.013469782088490348,400
2,12.224448897795591,1192.9149002914755,anode,0.008407055046308187,0.0072422083676732755,5.108838246007451e-05,0.007889888608659626,400
2,12.224448897795591,1192.9149002914755,electrolyte,0.005667613078318772,0.004319902018240954,0.00015709765599321724,0.005135552287500328,400
2,12.224448897795591,1192.9149002914755,cathode,0.008676483450788825,0.007007948261881011,-6.521542472079364e-06,0.007974238796673146,400
2,12.224448897795591,1192.9149002914755,interface_ae,0.014526759364742172,0.012892454299987905,8.58086162571216e-05,0.013783273328110893,400
2,12.224448897795591,1192.9149002914755,interface_ec,0.014967434310409096,0.013075483881143707,-5.011158464699107e-05,0.014117133420329228,400
2,12.424849699398798,1199.2106913713087,anode,0.008561094037166822,0.006827056118881295,-3.532822631135718e-06,0.007839259810423249,400
2,12.424849699398798,1199.2106913713087,electrolyte,0.00554216856222831,0.0048228959902715685,-5.5429039325003785e-05,0.005220715727192087,400
2,12.424849699398798,1199.2106913713087,cathode,0.008352270480697241,0.0073807695719213815,-6.551463558573261e-05,0.007912197819731728,400
2,12.424849699398798,1199.2106913713087,interface_ae,0.01462310893669613,0.0133641949281417,0.00020721811180357297,0.014040646737382536,400
2,12.424849699398798,1199.2106913713087,interface_ec,0.014717403258386049,0.013046232098453632,-7.544621558270145e-05,0.013957669871277558,400
2,12.625250501002004,1199.2106913713087,anode,0.008470758423998059,0.007221222659192978,-3.5161170047448295e-05,0.007920497536335008,400
2,12.625250501002004,1199.2106913713087,electrolyte,0.005359345139923241,0.004548141297964409,-0.00013742878732218635,0.00500896902055633,400
2,12.625250501002004,1199.2106913713087,cathode,0.008142165596929608,0.007112801933474124,-0.00010736399836661275,0.007681652285581904,400
2,12.625250501002004,1199.2106913713087,interface_ae,0.01530969768663152,0.013285493603480853,-8.700798620550644e-05,0.01440545049716263,400
2,12.625250501002004,1199.2106913713087,interface_ec,0.015176903417078348,0.012989225289970954,7.080034063789114e-05,0.01421046063085529,400
2,12.82565130260521,1192.9149002914755,anode,0.00834839303343532,0.0072995702106093355,7.233734290209857e-05,0.007877525530300617,400
2,12.82565130260521,1192.9149002914755,electrolyte,0.005179105575342139,0.004978590476051061,0.0001330936255900113,0.0050870417470690295,400
2,12.82565130260521,1192.9149002914755,cathode,0.008096620621806919,0.007088146835735699,0.0001024993489216604,0.007644512644203949,400
2,12.82565130260521,1192.9149002914755,interface_ae,0.01492329746963508,0.013060071287512359,0.0003545808741929041,0.014097805623321835,400
2,12.82565130260521,1192.9149002914755,interface_ec,0.014750295805718393,0.012323864492236424,4.557278934073136e-05,0.013699432334462164,400
2,13.026052104208418,1180.4226065180615,anode,0.008410906119977489,0.006896011851020269,0.00021798909949815513,0.007774263352228502,400
2,13.026052104208418,1180.4226065180615,electrolyte,0.0050613765057094555,0.004851390095691949,-9.0879123113834e-05,0.0049622155523327115,400
2,13.026052104208418,1180.4226065180615,cathode,0.008710250740301835,0.0075630263691241345,-0.00011499848816750218,0.008199491066234068,400
2,13.026052104208418,1180.4226065180615,interface_ae,0.01458512012241879,0.0127953655398066,-5.8069597468427186e-05,0.0137780724743619,400
2,13.026052104208418,1180.4226065180615,interface_ec,0.014736363897811692,0.012545105699875382,-0.00028795097342964844,0.013781132120010881,400
2,13.226452905811623,1161.9308209864078,anode,0.007996122296529011,0.0065933142450844365,-7.39684233599658e-05,0.007396298496903894,400
2,13.226452905811623,1161.9308209864078,electrolyte,0.005766605347945498,0.004156536316585349,0.00012198077801219657,0.005158106703870049,400
2,13.226452905811623,1161.9308209864078,cathode,0.007916584741257738,0.0067163045267549385,0.00011855578440775669,0.00739276896362418,400
2,13.226452905811623,1161.9308209864078,interface_ae,0.014502507905013775,0.012411602538312501,0.00014522769907992914,0.01358066723073673,400
2,13.226452905811623,1161.9308209864078,interface_ec,0.01430110000168811,0.012056747618794316,-0.0001627725789836697,0.013324464557628594,400
2,13.42685370741483,1137.731170200806,anode,0.007498554128114776,0.007468979021634811,0.000186701937110518,0.00749079374982172,400
2,13.42685370741483,1137.731170200806,electrolyte,0.004758795881543235,0.003992763075671724,7.227990925777372e-05,0.004427552811204267,400
2,13.42685370741483,1137.731170200806,cathode,0.007910356726321854,0.006748915844637403,-3.824336903305468e-05,0.0073986258477152745,400
2,13.42685370741483,1137.731170200806,interface_ae,0.013905482838794364,0.011950015106523756,1.288395094399956e-05,0.013038216213409977,400
2,13.42685370741483,1137.731170200806,interface_ec,0.013277329004970972,0.01178271136010339,-0.00012771096513904703,0.012598640699492207,400
2,13.627254509018037,1108.2052971103158,anode,0.007488719045330871,0.0072163099774905926,5.5122249821145655e-05,0.007356917836496655,400
2,13.627254509018037,1108.2052971103158,electrolyte,0.004863378173920491,0.004490361968399553,7.24031830813819e-05,0.004689690410086707,400
2,13.627254509018037,1108.2052971103158,cathode,0.007562183966793869,0.006502787454674271,0.0003084815347244312,0.007112178187510144,400
2,13.627254509018037,1108.2052971103158,interface_ae,0.013045813584787194,0.01151940772112066,-0.00013895716949723075,0.012355884747050615,400
2,13.627254509018037,1108.2052971103158,interface_ec,0.013551733909287643,0.011101712144631397,-6.260502204076265e-05,0.012508469679988645,400
2,13.827655310621243,1073.8188423714755,anode,0.006986570870629121,0.006306578183968832,0.00013776816659136207,0.006676876941396409,400
2,13.827655310621243,1073.8188423714755,electrolyte,0.0043430166836664124,0.004025702345410233,-0.00010643697821237588,0.004197423892085187,400
2,13.827655310621243,1073.8188423714755,cathode,0.0066975463716978925,0.005948728053038107,-4.6272418268372954e-05,0.0063568100704898,400
2,13.827655310621243,1073.8188423714755,interface_ae,0.013463191066724545,0.010954787650305964,-0.00020664262511313556,0.012405909497272055,400
2,13.827655310621243,1073.8188423714755,interface_ec,0.012565743919569607,0.011131314691326574,0.00031326641593048876,0.011925822598556481,400
2,14.02805611222445,1035.1141009169892,anode,0.006192903065956999,0.005104416035142415,0.0002806447763057673,0.0057473682848420485,400
2,14.02805611222445,1035.1141009169892,electrolyte,0.004562682959630195,0.0035184410808931756,8.01943629183653e-05,0.004142857187146813,400
2,14.02805611222445,1035.1141009169892,cathode,0.005877973737923323,0.005669406002663277,4.917317592646279e-05,0.0057771423815899834,400
2,14.02805611222445,1035.1141009169892,interface_ae,0.012280937549192444,0.00989893924554367,1.2853074210503855e-05,0.011280189103065054,400
2,14.02805611222445,1035.1141009169892,interface_ec,0.01172602911951322,0.010279723157933726,-0.00013430194835445362,0.011076382309443867,400
2,14.228456913827655,992.7014696406861,anode,0.006100935179479138,0.004991115998106055,9.767043627354854e-05,0.0056312336424104775,400
2,14.228456913827655,992.7014696406861,electrolyte,0.004406445622481802,0.0034561875733748583,5.735699244004251e-06,0.0040165397617605665,400
2,14.228456913827655,992.7014696406861,cathode,0.0057887880068371415,0.0051999576221410885,-7.5306925562617165e-06,0.005518001782805451,400
2,14.228456913827655,992.7014696406861,interface_ae,0.01198829570351796,0.009188159002045374,0.00021962658581286558,0.010869031242294856,400
2,14.228456913827655,992.7014696406861,interface_ec,0.01150111540824871,0.009605940031124664,0.00026379307262926996,0.010690157855160035,400
2,14.428857715430862,947.2498210738713,anode,0.005857754763057708,0.0050009524117846805,-7.9680979526318e-06,0.005479840650133777,400
2,14.428857715430862,947.2498210738713,electrolyte,0.004197819412242687,0.0035850772055327986,-9.385159312443186e-05,0.003930824857997878,400
2,14.428857715430862,947.2498210738713,cathode,0.0053503489628960186,0.004823310461865605,-0.00012000578465964695,0.005111493702822284,400
2,14.428857715430862,947.2498210738713,interface_ae,0.010323964245911562,0.009162799815956985,-6.859524826301849e-05,0.009795858127291834,400
2,14.428857715430862,947.2498210738713,interface_ec,0.010330174603902696,0.008808975195994263,0.0001272646323307927,0.00966234383338828,400
2,14.629258517034069,899.4759548659421,anode,0.004570430725897011,0.004275812808748945,3.169255384192091e-05,0.004430814734369054,400
2,14.629258517034069,899.4759548659421,electrolyte,0.003856355370989653,0.0028243111972004937,-0.0002814829059062811,0.0034920424840306314,400
2,14.629258517034069,899.4759548659421,cathode,0.005430410959882234,0.004267214180530845,-0.00017844999886355416,0.00496198414023022,400
2,14.629258517034069,899.4759548659421,interface_ae,0.009252791930052339,0.007968723607624606,-9.07116996807319e-05,0.00868368923807651,400
2,14.629258517034069,899.4759548659421,interface_ec,0.008778425729836586,0.0082932010739875,0.0001912312561918083,0.008552566915100883,400
2,14.829659318637274,850.1332934257218,anode,0.004921856178371932,0.003676133942697123,-3.0223730092127693e-05,0.004432602719444107,400
2,14.829659318637274,850.1332934257218,electrolyte,0.0031489766594112157,0.0028579314127516182,0.00010025107330771211,0.003019009354350224,400
2,14.829659318637274,850.1332934257218,cathode,0.004506147441336532,0.0040420383107486356,6.859206069228615e-05,0.0042945934020846835,400
2,14.829659318637274,850.1332934257218,interface_ae,0.008944265942390174,0.007442743320831639,0.00011835850310632783,0.008298582529040192,400
2,14.829659318637274,850.1332934257218,interface_ec,0.008532667234124953,0.007654529102445273,6.14644193939246e-05,0.008129945256147474,400
2,15.030060120240481,800.0,anode,0.003941673626947929,0.003991010991037557,0.00010468549088085413,0.0039707145578258655,400
2,15.030060120240481,800.0,electrolyte,0.002667086793661455,0.002236152109780227,4.4486331771114265e-05,0.002481058960107197,400
2,15.030060120240481,800.0,cathode,0.004338955438580276,0.0036291876796893624,4.669630101643273e-05,0.004032021270475092,400
2,15.030060120240481,800.0,interface_ae,0.008069987212372915,0.006747462945670466,2.8595338689753648e-05,0.00749689690496821,400
2,15.030060120240481,800.0,interface_ec,0.007842393174230246,0.006116242828941738,5.9689057492021334e-05,0.007138365665817342,400
2,15.230460921843688,749.8667065742783,anode,0.004216392323949856,0.003057146587557722,-0.0001271450892928627,0.0037792165462573165,400
2,15.230460921843688,749.8667065742783,electrolyte,0.0022534402794420296,0.0017548169929142393,-0.0001177142862191555,0.0020602355293243336,400
2,15.230460921843688,749.8667065742783,cathode,0.003562447989452914,0.0027008902504218413,2.3427500924404568e-06,0.0032193290054709518,400
2,15.230460921843688,749.8667065742783,interface_ae,0.006883163906389854,0.005348281787071705,0.0002278925885462653,0.006270946369880683,400
2,15.230460921843688,749.8667065742783,interface_ec,0.006765718380812138,0.005929782816802998,-9.867518307782055e-05,0.006391184494310082,400
2,15.430861723446894,700.5240451340582,anode,0.0034118600420275954,0.0023545969327028755,0.00013353712512547628,0.003033950718694848,400
2,15.430861723446894,700.5240451340582,electrolyte,0.002155220117876466,0.001954093434543081,-0.00017633919084372772,0.002084523915854293,400
2,15.430861723446894,700.5240451340582,cathode,0.0028869815212246293,0.0028613455682974845,-0.0001422522006336301,0.0028847904688816895,400
2,15.430861723446894,700.5240451340582,interface_ae,0.0058188663406634365,0.004417777443140571,0.0001272261319000002,0.005264794965533738,400
2,15.430861723446894,700.5240451340582,interface_ec,0.005310147458603147,0.004993608766382501,9.384464004690011e-05,0.005161726076917855,400
2,15.6312625250501,652.7501789261288,anode,0.0024448453331954796,0.0024304033170411176,3.9066339500033394e-05,0.0024385953571527995,400
2,15.6312625250501,652.7501789261288,electrolyte,0.00160759869562508,0.0012012971593876039,-0.0002943938537508868,0.001535020491139273,400
2,15.6312625250501,652.7501789261288,cathode,0.0027587718929142605,0.001786354515507083,1.430162991619623e-05,0.002423706622902129,400
2,15.6312625250501,652.7501789261288,interface_ae,0.00469794391687916,0.004264174457079718,-4.5306824923479626e-05,0.004497462231143003,400
2,15.6312625250501,652.7501789261288,interface_ec,0.004678144045799707,0.004279992835734748,5.025870436261762e-05,0.004493164274620586,400
2,15.831663326653308,607.2985303593139,anode,0.0022714813559276295,0.001990919660399434,-0.00023033581848106585,0.0021817918146722353,400
2,15.831663326653308,607.2985303593139,electrolyte,0.0016781263165112916,0.0014171668938419981,-0.00015250246928647456,0.0015862080220261554,400
2,15.831663326653308,607.2985303593139,cathode,0.0021034104266705357,0.0018383471971685872,-2.0174517660259903e-05,0.0019845095644736607,400
2,15.831663326653308,607.2985303593139,interface_ae,0.004018100213761593,0.0037596609247717325,0.00016226500915092427,0.003905441720365859,400
2,15.831663326653308,607.2985303593139,interface_ec,0.0035242764657616105,0.003516871887314192,0.00019933999793031142,0.0035374698525452593,400
2,16.032064128256515,564.8858990830109,anode,0.0018473444965783758,0.0017989007768716627,0.00030184056685511476,0.0018970660050250502,400
2,16.032064128256515,564.8858990830109,electrolyte,0.0014613141574131708,0.0010558636782364336,0.000156763271112713,0.0013345646488198933,400
2,16.032064128256515,564.8858990830109,cathode,0.0017747682903006823,0.0014787775623013593,-5.271213535705988e-05,0.0016493737431776542,400
2,16.032064128256515,564.8858990830109,interface_ae,0.0035853675003185395,0.0024033633689859706,0.00022985515870171738,0.003189447422838478,400
2,16.032064128256515,564.8858990830109,interface_ec,0.0032663027297910184,0.0022291001163279884,5.514739394871323e-05,0.0028923742429865693,400
2,16.23246492985972,526.1811576285247,anode,0.0006948942028040224,0.0013138192368838937,0.00013278472244834864,0.0011614339914953614,400
2,16.23246492985972,526.1811576285247,electrolyte,0.000705561316704057,0.0007878421966763967,0.0002931236150625429,0.0009057623761081265,400
2,16.23246492985972,526.1811576285247,cathode,0.0011731781438209287,0.0008084945557176029,0.00022224951036938978,0.0011089124384622622,400
2,16.23246492985972,526.1811576285247,interface_ae,0.002973600036338356,0.002028208998856604,0.00015171945531125344,0.0026445988251174186,400
2,16.23246492985972,526.1811576285247,interface_ec,0.002787266653838382,0.0018043550275407346,-7.279587530518024e-05,0.0024517813082421016,400
2,16.432865731462925,491.79470288968423,anode,0.0013331067342881048,0.0013247720069029844,8.443212902615321e-05,0.0013369810412698405,400
2,16.432865731462925,491.79470288968423,electrolyte,0.00037861861417717326,0.0011422968157034535,-7.964563467179467e-05,0.0010172165522610572,400
2,16.432865731462925,491.79470288968423,cathode,0.0008633030459902489,0.0009219690736373182,0.0002331240631072161,0.000981030528973815,400
2,16.432865731462925,491.79470288968423,interface_ae,0.001991112677580699,0.0015991415520313502,6.949327951771593e-05,0.00183090150703267,400
2,16.432865731462925,491.79470288968423,interface_ec,0.0017479742852080718,0.0016421237562783291,-0.0003794340116541454,0.0018203035299582282,400
2,16.633266533066134,462.2688297991939,anode,0.0005648404751705964,0.0006281458864328399,-0.00017265211254292604,0.0006695043330411448,400
2,16.633266533066134,462.2688297991939,electrolyte,0.0005517788039378252,0.0003091581710093672,0.0002633213547473235,0.0006614122050186685,400
2,16.633266533066134,462.2688297991939,cathode,0.0011257286304559929,0.00041600763522235673,-2.2625656735004294e-05,0.0009866870616165966,400
2,16.633266533066134,462.2688297991939,interface_ae,0.0011546966135222469,0.0008648509078761633,2.925374760421901e-05,0.001041738111453352,400
2,16.633266533066134,462.2688297991939,interface_ec,0.0009493962625384876,0.0006611641502427923,9.340668358504028e-05,0.0008584631321952318,400
2,16.83366733466934,438.0691790135921,anode,0.0005885852549092601,9.847269479831169e-05,0.00013430331461438994,0.0005935335194386324,400
2,16.83366733466934,438.0691790135921,electrolyte,7.701093434554516e-05,0.0003024611865422672,0.0001230516018918684,0.00034575385027344586,400
2,16.83366733466934,438.0691790135921,cathode,0.000389642610231603,0.00047618969633864963,-7.746444658313575e-05,0.00045938700004865277,400
2,16.83366733466934,438.0691790135921,interface_ae,0.0006605675083284613,0.0005498235315892547,-0.00011198675198103583,0.0006427152452867981,400
2,16.83366733466934,438.0691790135921,interface_ec,0.0006664752344221558,0.00014699587119423283,-7.36730620713157e-05,0.0006197669535864634,400
2,17.034068136272545,419.5773934819386,anode,0.00012009998354945408,9.787431107768797e-05,-3.622461688061682e-05,0.00012722166588914448,400
2,17.034068136272545,419.5773934819386,electrolyte,0.00011851249441553153,0.0002603179466433538,0.00013117756111987838,0.00032028483121035965,400
2,17.034068136272545,419.5773934819386,cathode,1.0633063505875219e-05,-0.00018623201979044133,-0.00015630666183646542,0.000331769440623129,400
2,17.034068136272545,419.5773934819386,interface_ae,0.00022385186045016143,0.0002089344309423909,-0.00011549940992961858,0.000294980053332322,400
2,17.034068136272545,419.5773934819386,interface_ec,-1.8822262466328718e-05,0.00017767457804508717,2.7213993017095705e-05,0.00019361966593611709,400
2,17.234468937875754,407.0850997085245,anode,0.0002529023866901769,-0.00010399240103391498,-6.19496733215151e-05,0.0003355402347847912,400
2,17.234468937875754,407.0850997085245,electrolyte,-0.00022841379469452157,3.2724592153287986e-05,-0.00012726429512862218,0.0003306162598174329,400
2,17.234468937875754,407.0850997085245,cathode,0.0002463318909118675,-0.0004725254326816519,-5.3944450867869356e-05,0.0006395997026937444,400
2,17.234468937875754,407.0850997085245,interface_ae,0.00022424058624863612,0.00016897248171419778,0.00040395504959707444,0.0007283433929289349,400
2,17.234468937875754,407.0850997085245,interface_ec,0.00023884839186148575,-0.00018739425223515655,-1.4319637063360953e-05,0.0003708626860078043,400
2,17.43486973947896,400.7893086286914,anode,-0.0005245861594386758,-1.7135345277957505e-05,-0.0001249584085501138,0.0005597670098929792,400
2,17.43486973947896,400.7893086286914,electrolyte,0.0002801422430688883,-0.0001601656960379466,-1.7514887369286993e-05,0.0003871979051188482,400
2,17.43486973947896,400.7893086286914,cathode,-0.0001823796118200613,0.0005286999850670701,-4.818641491768675e-05,0.0006451169559166921,400
2,17.43486973947896,400.7893086286914,interface_ae,0.000564685046126028,0.00025692577175540727,7.231000910030791e-05,0.0005054543742852151,400
2,17.43486973947896,400.7893086286914,interface_ec,0.00012553787727752339,0.0001308194325848028,-0.00028915088690184147,0.0005169868420841817,400
2,17.635270541082164,400.7893086286914,anode,-7.537727764396723e-05,0.0002605919708663672,-7.334577521115831e-06,0.0003056043368263216,400
2,17.635270541082164,400.7893086286914,electrolyte,-0.0004160317936402327,-1.1024948832526998e-05,0.00025561582743832364,0.0006038506663816954,400
2,17.635270541082164,400.7893086286914,cathode,0.00038235525526167553,-1.1556623298738766e-05,0.00014271739155871297,0.0004602744767848977,400
2,17.635270541082164,400.7893086286914,interface_ae,-9.503417302814804e-05,-0.0004984812329280883,-0.00013866989821943314,0.0005175232399611078,400
2,17.635270541082164,400.7893086286914,interface_ec,0.00048378456363472674,-6.951768142886389e-05,-3.6507596906252705e-05,0.0005258423785822679,400
2,17.835671342685373,407.0850997085245,anode,-1.555791194295667e-05,0.0006344754917704834,0.00024389383730430948,0.0007688464890583905,400
2,17.835671342685373,407.0850997085245,electrolyte,0.0007152297679941117,-5.557219854294473e-06,4.434367331206426e-05,0.0007221206802695241,400
2,17.835671342685373,407.0850997085245,cathode,-0.00038059921788672984,0.0005063148427340636,-0.00017516693269019023,0.0008282293647910016,400
2,17.835671342685373,407.0850997085245,interface_ae,0.00019894105361990222,-0.00021536863147240672,-8.83300240108044e-05,0.0003901453986973818,400
2,17.835671342685373,407.0850997085245,interface_ec,-0.00011727034482379657,-6.854045138529888e-05,-8.086840547234678e-05,0.00017329587962147184,400
2,18.03607214428858,419.57739348193854,anode,4.1081993082831594e-05,0.0004247284103603936,-0.000165729418959378,0.0004970231222310046,400
2,18.03607214428858,419.57739348193854,electrolyte,0.00020320418247772983,0.0004818732369092018,-7.697945467700939e-05,0.0004397187833023189,400
2,18.03607214428858,419.57739348193854,cathode,-9.813035663925842e-06,0.00010557084927222624,0.0001769587812541065,0.0003259151748274327,400
2,18.03607214428858,419.57739348193854,interface_ae,0.0004282450260946458,0.00015514653790506315,7.258149767820595e-05,0.0003960148214912134,400
2,18.03607214428858,419.57739348193854,interface_ec,3.9325091857711535e-05,0.000518918679420227,6.129109615526514e-05,0.0005115528607775631,400
2,18.236472945891784,438.069179013592,anode,0.0003073838383010511,8.819168316213954e-05,-0.00013300213834251858,0.0003580818417095408,400
2,18.236472945891784,438.069179013592,electrolyte,0.00042692945399891723,0.0005952057658775911,-9.559616205431921e-05,0.0005566360286409451,400
2,18.236472945891784,438.069179013592,cathode,0.0005372423907081615,-0.0002863406828843117,-8.769265959857992e-05,0.0007399491426582419,400
2,18.236472945891784,438.069179013592,interface_ae,0.0007101898034956187,0.00033867633575880584,-0.00014047595621843938,0.0006616246820346481,400
2,18.236472945891784,438.069179013592,interface_ec,0.0005191736164162235,0.0006992391793512678,-2.80993527609562e-05,0.0006307288334265196,400
2,18.43687374749499,462.268829799194,anode,-1.764665710595446e-05,-8.046073983271329e-05,-9.102977667857631e-05,0.00017385261804637236,400
2,18.43687374749499,462.268829799194,electrolyte,0.0005731877844104236,-0.000453751915512366,-7.495952642274459e-05,0.0009007646107377647,400
2,18.43687374749499,462.268829799194,cathode,0.0004959483559363108,0.0009722506394203409,-5.775327175692954e-05,0.0008479718701858781,400
2,18.43687374749499,462.268829799194,interface_ae,0.0012917775786270454,0.0010427258927502908,-0.00031958497197108005,0.0013097329247125221,400
2,18.43687374749499,462.268829799194,interface_ec,0.001407343048194288,0.001064967702360938,7.624029595118843e-05,0.001278058495564186,400
2,18.637274549098198,491.7947028896842,anode,0.002141715692272582,0.00019403384144085496,0.0002587044974641662,0.0020999557057542117,400
2,18.637274549098198,491.7947028896842,electrolyte,0.0005563286644076825,0.0006323771535145235,-6.8268367951863246e-06,0.0005981076215983077,400
2,18.637274549098198,491.7947028896842,cathode,0.000836573480322271,0.0006483178448188038,4.9426310335951365e-05,0.0007649409000401223,400
2,18.637274549098198,491.7947028896842,interface_ae,0.0012797677756135276,0.0016998556521793061,-6.242916073278809e-05,0.0015373960163928288,400
2,18.637274549098198,491.7947028896842,interface_ec,0.001395899082902924,0.0013396780445240324,0.0001885723825293859,0.0014070873424386658,400
2,18.837675350701403,526.1811576285245,anode,0.0011643016289946402,0.001233702917297467,-0.00010964344135732098,0.0012154356864190724,400
2,18.837675350701403,526.1811576285245,electrolyte,0.0011106446583767572,0.0009564302095267819,0.0002772913249944617,0.0011474788173673348,400
2,18.837675350701403,526.1811576285245,cathode,0.0012722329714497426,0.0013267632732619531,1.471013093084168e-05,0.0013006055125302906,400
2,18.837675350701403,526.1811576285245,interface_ae,0.0027735854137380172,0.001811450581019627,0.00011175079693159216,0.002446912558183859,400
2,18.837675350701403,526.1811576285245,interface_ec,0.0023264146903441084,0.002007843844169697,1.3762872667255928e-05,0.0021847501113440443,400
2,19.03807615230461,564.8858990830106,anode,0.0018069740592996147,0.0014367379363792823,3.220697747557895e-05,0.0016541870619607806,400
2,19.03807615230461,564.8858990830106,electrolyte,0.0016276367108497296,0.0012767060052284785,0.00013037318887453445,0.001500718970477802,400
2,19.03807615230461,564.8858990830106,cathode,0.0015946400825644503,0.0012048344008473726,0.00014329508373566292,0.0014611044250877798,400
2,19.03807615230461,564.8858990830106,interface_ae,0.0033791575304278386,0.00309069317149386,-9.059709389538441e-05,0.003248349471860661,400
2,19.03807615230461,564.8858990830106,interface_ec,0.0030474788960607965,0.002157046720010935,-5.8870665909130935e-05,0.002716030390682168,400
2,19.238476953907817,607.2985303593135,anode,0.0024756057219466263,0.0017101907696884138,9.607196928012355e-05,0.0022016601858700783,400
2,19.238476953907817,607.2985303593135,electrolyte,0.0013939387807158513,0.0013306433641043836,-0.00017215370847235007,0.0013956190011294885,400
2,19.238476953907817,607.2985303593135,cathode,0.0022021974036629624,0.0009527985921866563,-2.8034423724297724e-05,0.0019135322737770185,400
2,19.238476953907817,607.2985303593135,interface_ae,0.0034288002506764844,0.003692049245186417,0.00011661110291467667,0.003573428865737296,400
2,19.238476953907817,607.2985303593135,interface_ec,0.004057943518380851,0.0037865527583701864,-0.00014233747812372556,0.0039370102921494204,400
2,19.438877755511022,652.7501789261289,anode,0.0031780858380990214,0.002535452816193816,-3.54832930828419e-05,0.0029111236801999452,400
2,19.438877755511022,652.7501789261289,electrolyte,0.0021099372966377856,0.0011719755108869766,-0.00012367712422915102,0.0018434899635930162,400
2,19.438877755511022,652.7501789261289,cathode,0.002471299961752444,0.002097102034496496,-0.0001584836464140379,0.002323347469696877,400
2,19.438877755511022,652.7501789261289,interface_ae,0.005143903301832435,0.003982775304337312,5.2875745253531926e-05,0.0046737155238966745,400
2,19.438877755511022,652.7501789261289,interface_ec,0.0046058729717797335,0.0035142506342837067,4.050860375871331e-05,0.00416926302614297,400
2,19.639278557114228,700.5240451340578,anode,0.002581825981281674,0.0026615868889958254,-0.00020524725582492156,0.0026466007050400427,400
2,19.639278557114228,700.5240451340578,electrolyte,0.0026998511157076467,0.00206152688520006,1.5863068690722063e-05,0.0024441825617507896,400
2,19.639278557114228,700.5240451340578,cathode,0.0035346144772040074,0.002428282309581745,8.152190680051394e-05,0.0031347966656813595,400
2,19.639278557114228,700.5240451340578,interface_ae,0.005739847583149307,0.00490712480947874,0.00019085302501601516,0.005382271855560759,400
2,19.639278557114228,700.5240451340578,interface_ec,0.005899652083867633,0.004914535883926146,-0.0002482331154342444,0.005490843727063163,400
2,19.839679358717436,749.8667065742782,anode,0.003385586530446082,0.0030857476760967157,1.4005856141497684e-05,0.003246160439526157,400
2,19.839679358717436,749.8667065742782,electrolyte,0.0021100058286177698,0.002805209906790481,0.0002274591082880359,0.0025607676391976217,400
2,19.839679358717436,749.8667065742782,cathode,0.003854235915147666,0.0031441714145605563,-3.183134548517275e-05,0.003553253394853813,400
2,19.839679358717436,749.8667065742782,interface_ae,0.0063269052162471875,0.0056438527966714384,3.86628810214126e-05,0.0060149120327721095,400
2,19.839679358717436,749.8667065742782,interface_ec,0.006239952581609372,0.005720861566289249,-2.3288857323712312e-05,0.0059974150677111595,400
3,20.04008016032064,800.0,anode,0.0038276577326367828,0.0034818844967661497,-6.204083001324663e-05,0.003668592160843957,400
3,20.04008016032064,800.0,electrolyte,0.003366306297202057,0.002546965937360127,-0.0002003222353649837,0.0030603223838192783,400
3,20.04008016032064,800.0,cathode,0.004545810886825291,0.0032758088033184906,0.00016240365808306098,0.004072252135842182,400
3,20.04008016032064,800.0,interface_ae,0.007778662604454638,0.0067039091433782495,0.0001988694971313285,0.007308980064962649,400
3,20.04008016032064,800.0,interface_ec,0.007533850929424726,0.006312864544466104,-8.753989895190073e-05,0.007005282140616337,400
3,20.240480961923847,850.1332934257217,anode,0.005262979882988734,0.003752942470887445,-0.0004248233397165853,0.004751136529520497,400
3,20.240480961923847,850.1332934257217,electrolyte,0.003015585396457352,0.0028438153358563197,0.00018003926246082437,0.0029500026031905415,400
3,20.240480961923847,850.1332934257217,cathode,0.00481251781905732,0.0040853183113956975,0.00017308511013836207,0.004503261224946992,400
3,20.240480961923847,850.1332934257217,interface_ae,0.008351716699920665,0.007459187095799995,2.8563583488758657e-05,0.00794330373112866,400
3,20.240480961923847,850.1332934257217,interface_ec,0.009047404826214802,0.007422801320397633,5.166151755876202e-06,0.008354430268347715,400
3,20.440881763527056,899.475954865942,anode,0.0047477372975014654,0.004472625654296403,6.802630688317011e-05,0.0046178372414125216,400
3,20.440881763527056,899.475954865942,electrolyte,0.0032016434737851896,0.0029895771979292335,6.70308751204047e-05,0.0031032260383576284,400
3,20.440881763527056,899.475954865942,cathode,0.005391470743268033,0.004721239309295529,-0.00014440988479269182,0.005095703722509402,400
3,20.440881763527056,899.475954865942,interface_ae,0.009827640522436837,0.00858924517127057,2.3545944145265132e-05,0.009270776676340062,400
3,20.440881763527056,899.475954865942,interface_ec,0.009713664525476472,0.008473445241681041,0.00010719146859549269,0.00915864719035522,400
3,20.64128256513026,947.2498210738712,anode,0.00540476564823934,0.005464508046527465,-5.043821080216079e-05,0.005435585209329267,400
3,20.64128256513026,947.2498210738712,electrolyte,0.003958395727489167,0.003615310512483102,-0.00020575105458456989,0.0038151720328582204,400
3,20.64128256513026,947.2498210738712,cathode,0.00580691573108432,0.005030221218277985,-0.00011756302816866423,0.005463953539906118,400
3,20.64128256513026,947.2498210738712,interface_ae,0.011356027430013694,0.008953182860525214,-8.333201692302999e-05,0.010366633245673664,400
3,20.64128256513026,947.2498210738712,interface_ec,0.010896863166743544,0.008849569630850426,-5.935210676343957e-05,0.010031676240379163,400
3,20.841683366733466,992.7014696406861,anode,0.006614952144422601,0.0054419006198256625,-1.4008028834992242e-05,0.00611347288607917,400
3,20.841683366733466,992.7014696406861,electrolyte,0.003990110653750292,0.003072232651607852,4.823898170088578e-05,0.0036205012441461208,400
3,20.841683366733466,992.7014696406861,cathode,0.007046196087541721,0.005547279230375447,3.3789617587132426e-05,0.0064294163163572,400
3,20.841683366733466,992.7014696406861,interface_ae,0.011943305925420644,0.00959436658508874,0.0002553771987194408,0.010968209692186981,400
3,20.841683366733466,992.7014696406861,interface_ec,0.011796187737812427,0.010464722803779481,-0.0001099549493285984,0.011191644381446122,400
3,21.042084168336675,1035.1141009169892,anode,0.007531673686854229,0.006170863491784285,8.295601287785375e-05,0.006953371820452662,400
3,21.042084168336675,1035.1141009169892,electrolyte,0.004516006042724868,0.0037043703150337506,0.00018007974877108087,0.004181506598033788,400
3,21.042084168336675,1035.1141009169892,cathode,0.007028363071041295,0.005348195932497704,-0.00016757796925605034,0.0063636680876238225,400
3,21.042084168336675,1035.1141009169892,interface_ae,0.012519505472498563,0.010781970013382595,-8.488273334984376e-06,0.011747517959590306,400
3,21.042084168336675,1035.1141009169892,interface_ec,0.012940950435094486,0.010103639759221341,2.1538190475774028e-05,0.011781444091897394,400
3,21.24248496993988,1073.8188423714755,anode,0.006866613498470085,0.006528119864818547,-1.4168807166300411e-05,0.0067038239974439905,400
3,21.24248496993988,1073.8188423714755,electrolyte,0.004842614888207563,0.0037500572239333486,0.00019191973974866264,0.004411832357822526,400
3,21.24248496993988,1073.8188423714755,cathode,0.007724524665303887,0.006475269467076863,-1.9427587029516115e-05,0.007181932160403285,400
3,21.24248496993988,1073.8188423714755,interface_ae,0.013515570264543756,0.011128303346715728,0.0001283333488531068,0.012496152107346229,400
3,21.24248496993988,1073.8188423714755,interface_ec,0.013836457347252392,0.011661554285105688,-0.00010944037047111141,0.01288878323901581,400
3,21.442885771543086,1108.2052971103158,anode,0.007898683463395405,0.006233777064853859,8.585854667635135e-05,0.007213366773058987,400
3,21.442885771543086,1108.2052971103158,electrolyte,0.005092618103630972,0.0036528766159467287,-0.00017426757658685455,0.004557046049888914,400
3,21.442885771543086,1108.2052971103158,cathode,0.007705316599190344,0.006531461603839205,-0.00018142154031282077,0.007197475695618282,400
3,21.442885771543086,1108.2052971103158,interface_ae,0.014139158501589909,0.011994537233048769,-2.9140369796777895e-05,0.013198280606209012,400
3,21.442885771543086,1108.2052971103158,interface_ec,0.013795727432736745,0.012233707288291585,0.0002483110669632443,0.01309189723954238,400
3,21.643286573146295,1137.731170200806,anode,0.007969974427054905,0.00671413636623109,7.368114981179944e-05,0.007423268222902068,400
3,21.643286573146295,1137.731170200806,electrolyte,0.0050567093774815455,0.004347681302495824,0.0001109479727587007,0.004746009901140912,400
3,21.643286573146295,1137.731170200806,cathode,0.007542236045956678,0.007293277138833336,1.09020786494012e-05,0.007420913342241186,400
3,21.643286573146295,1137.731170200806,interface_ae,0.014483629226607305,0.01238924534821313,-5.63559674692219e-06,0.013558310187147872,400
3,21.643286573146295,1137.731170200806,interface_ec,0.014087716778942482,0.012864497062715537,6.19884484059277e-06,0.013517683709655006,400
3,21.8436873747495,1161.9308209864078,anode,0.008514139669984698,0.007409518107395126,-0.000153174368634045,0.008023481040782732,400
3,21.8436873747495,1161.9308209864078,electrolyte,0.005475557316615422,0.004453196057599488,0.00012701561628247404,0.005047509455145907,400
3,21.8436873747495,1161.9308209864078,cathode,0.0077430708047450374,0.007094324886150532,-9.042309836759423e-05,0.007441589896142931,400
3,21.8436873747495,1161.9308209864078,interface_ae,0.015215909140721122,0.012964308973411704,-0.0001061438842233039,0.014225584356980554,400
3,21.8436873747495,1161.9308209864078,interface_ec,0.014872578096278063,0.012790096106634044,-0.0001344963340972812,0.013950365666664992,400
3,22.044088176352705,1180.4226065180615,anode,0.008837243780334316,0.007186189210809642,-0.0004360482328982462,0.008173279714002356,400
3,22.044088176352705,1180.4226065180615,electrolyte,0.005350511628639888,0.004331951362529274,-0.0002446913723191418,0.00493915405294033,400
3,22.044088176352705,1180.4226065180615,cathode,0.008213420680231906,0.007329773912493767,0.00019929612423723466,0.007816809136715739,400
3,22.044088176352705,1180.4226065180615,interface_ae,0.015546322951217113,0.012952561451234254,6.83856292756054e-05,0.014425891025099306,400
3,22.044088176352705,1180.4226065180615,interface_ec,0.015314640515991922,0.012926132356950032,-0.00017315440023494763,0.01427424214708413,400
3,22.244488977955914,1192.9149002914755,anode,0.008196515261180716,0.007296777205757462,2.3708023488019774e-05,0.007785843596164552,400
3,22.244488977955914,1192.9149002914755,electrolyte,0.005521417201035861,0.0045930535783500715,-0.00014186190910451716,0.005126636173210658,400
3,22.244488977955914,1192.9149002914755,cathode,0.008904537760711722,0.0070186147417413206,0.0001164041870765213,0.008129875486962443,400
3,22.244488977955914,1192.9149002914755,interface_ae,0.015399049920093201,0.013119027200699624,-0.00022001777859235154,0.014400148674103162,400
3,22.244488977955914,1192.9149002914755,interface_ec,0.015549294381705527,0.013637351509448928,7.734421326659347e-05,0.014687568387448205,400
3,22.44488977955912,1199.2106913713087,anode,0.009084844238692807,0.007629262728101917,-0.00016555047427955537,0.008456453272705234,400
3,22.44488977955912,1199.2106913713087,electrolyte,0.005495238072300893,0.004521243874924048,0.000199586235605856,0.005090528476346396,400
3,22.44488977955912,1199.2106913713087,cathode,0.008432281011156503,0.007740729271138469,0.00013394308051631538,0.008111970814857558,400
3,22.44488977955912,1199.2106913713087,interface_ae,0.01637325774966674,0.013327809957990277,0.0001068483239370243,0.015084053487891158,400
3,22.44488977955912,1199.2106913713087,interface_ec,0.016508867240113564,0.013265423432699017,-0.00023025603712985393,0.015155068313738465,400
3,22.645290581162325,1199.2106913713087,anode,0.008227314594912067,0.007686433572980135,-0.00028247253120878754,0.007985651607123253,400
3,22.645290581162325,1199.2106913713087,electrolyte,0.0054827791237177835,0.004886497569770974,2.7776330524487106e-05,0.0052105137106457575,400
3,22.645290581162325,1199.2106913713087,cathode,0.008918951064339648,0.007539306921061992,0.00019182987199700897,0.0083220504414141,400
3,22.645290581162325,1199.2106913713087,interface_ae,0.015538676774930274,0.013247617394241566,-0.00011589891679062358,0.014530646767767951,400
3,22.645290581162325,1199.2106913713087,interface_ec,0.016073429232710695,0.013720835512297646,6.768379789777622e-05,0.015036266794766596,400
3,22.845691382765533,1192.9149002914755,anode,0.00907711200327321,0.007060342057512381,0.00025008361673267053,0.008266952406882402,400
3,22.845691382765533,1192.9149002914755,electrolyte,0.006007375888554006,0.004938530255908003,0.00026726983631565897,0.005569949556941715,400
3,22.845691382765533,1192.9149002914755,cathode,0.008225076940902899,0.0072564198768465,-0.00011029551910229284,0.007788414704861837,400
3,22.845691382765533,1192.9149002914755,interface_ae,0.01591615882289842,0.013029715550024891,0.00011362427240062282,0.014688543437139637,400
3,22.845691382765533,1192.9149002914755,interface_ec,0.016110875868970233,0.013553318641930734,4.2562653549225165e-05,0.01499674524557778,400
3,23.04609218436874,1180.4226065180615,anode,0.008288286669428453,0.0070428960811062665,0.00018744283579449997,0.007747899319864481,400
3,23.04609218436874,1180.4226065180615,electrolyte,0.00569676294679803,0.004631808652969202,-6.268643186488358e-05,0.005247116572466992,400
3,23.04609218436874,1180.4226065180615,cathode,0.007976906309765264,0.006975695645338544,0.0002867128630709585,0.007542778413848305,400
3,23.04609218436874,1180.4226065180615,interface_ae,0.015068230937756881,0.0131913564140653,0.00015111659597927976,0.014225384756969493,400
3,23.04609218436874,1180.4226065180615,interface_ec,0.015075890808656933,0.013189925610133301,0.00014068733062659825,0.014229059061572416,400
3,23.246492985971944,1161.9308209864078,anode,0.008384988827422661,0.007984574092922943,-0.00025028988883172925,0.008203586508707394,400
3,23.246492985971944,1161.9308209864078,electrolyte,0.005651134305870017,0.004481647863650186,0.00011578802322550126,0.005170523486708676,400
3,23.246492985971944,1161.9308209864078,cathode,0.008513631176360259,0.006904106317089914,3.434945886890103e-05,0.007834100121562495,400
3,23.246492985971944,1161.9308209864078,interface_ae,0.014528859820111388,0.013004269967372662,4.472376989857884e-05,0.013829952649401862,400
3,23.246492985971944,1161.9308209864078,interface_ec,0.015277828306123805,0.013140731214727388,5.5142976031456627e-05,0.014329624612563952,400
3,23.44689378757515,1137.731170200806,anode,0.008159469698148349,0.006633465940379148,-0.00010683311454735764,0.0075158826325349305,400
3,23.44689378757515,1137.731170200806,electrolyte,0.00552013857745884,0.004820401084406589,-3.5716565446808105e-05,0.005206029347130329,400
3,23.44689378757515,1137.731170200806,cathode,0.008128843696384848,0.006626402128879405,0.00017591352679011672,0.007497676609826801,400
3,23.44689378757515,1137.731170200806,interface_ae,0.014806702217083493,0.01299838082541869,-0.00013174846157696082,0.013992328377120038,400
3,23.44689378757515,1137.731170200806,interface_ec,0.014493674800270495,0.012485449371237236,9.697343065886559e-05,0.013602250690034033,400
3,23.647294589178358,1108.2052971103158,anode,0.007725557976949185,0.006359831200845343,0.00013221112933853565,0.007144990807612769,400
3,23.647294589178358,1108.2052971103158,electrolyte,0.005173777688535885,0.00393893928763726,0.00020331642016582435,0.0046934033258751685,400
3,23.647294589178358,1108.2052971103158,cathode,0.008141317880972455,0.00666200847715579,1.1939679356405456e-05,0.007511744984909188,400
3,23.647294589178358,1108.2052971103158,interface_ae,0.014188682214119026,0.011660584229289738,4.504721874612325e-06,0.013108762884376828,400
3,23.647294589178358,1108.2052971103158,interface_ec,0.0133767498194015,0.012182031844017496,-0.00023422398336627888,0.012827623549717303,400
3,23.847695390781563,1073.8188423714755,anode,0.00786303321461493,0.0062011701479833614,-3.175004728967653e-05,0.00717807912270508,400
3,23.847695390781563,1073.8188423714755,electrolyte,0.0045284117247749766,0.003922810449933655,0.00021277970177220547,0.004273953596390303,400
3,23.847695390781563,1073.8188423714755,cathode,0.006665664669125707,0.006683295791999753,5.0703522165256216e-05,0.006675075432684109,400
3,23.847695390781563,1073.8188423714755,interface_ae,0.012979506584598052,0.011017777399197163,0.00025145895408123045,0.012126144915599999,400
3,23.847695390781563,1073.8188423714755,interface_ec,0.013057961014972396,0.010994365963933146,0.0001705971813547094,0.01216181470303304,400
3,24.04809619238477,1035.1141009169892,anode,0.007087820972972656,0.00565693917061293,3.249374631069285e-05,0.006491992171843168,400
3,24.04809619238477,1035.1141009169892,electrolyte,0.004138072901326841,0.004109175319982867,0.00015920564473097002,0.004132909558721591,400
3,24.04809619238477,1035.1141009169892,cathode,0.0071458569697334644,0.006046815161947955,0.000264178218730106,0.006680339778687193,400
3,24.04809619238477,1035.1141009169892,interface_ae,0.012575165096372855,0.010334408080806688,6.742108692484603e-05,0.011618584965525243,400
3,24.04809619238477,1035.1141009169892,interface_ec,0.01320107331301752,0.010384542470477173,-5.4219415004097856e-05,0.012042789199217281,400
3,24.248496993987978,992.7014696406861,anode,0.006644649977477984,0.005525587286438693,-0.00014734553705659717,0.006167092253788254,400
3,24.248496993987978,992.7014696406861,electrolyte,0.004485467644353944,0.00422258596096726,2.9419718853586097e-05,0.004360272473418874,400
3,24.248496993987978,992.7014696406861,cathode,0.0062484956791267485,0.005077070583624373,3.8696397183177125e-05,0.005753327957994054,400
3,24.248496993987978,992.7014696406861,interface_ae,0.012066652301880464,0.010117716058001363,-3.605761378280766e-07,0.011219862505120377,400
3,24.248496993987978,992.7014696406861,interface_ec,0.011558707603348796,0.009647516644237322,0.0001252126989487323,0.010733709029562126,400
3,24.448897795591183,947.2498210738713,anode,0.00629387951822826,0.004653066891033477,0.00023847584672710256,0.005669984185903882,400
3,24.448897795591183,947.2498210738713,electrolyte,0.004002970113785299,0.003676014828933272,-0.00020131916227276723,0.003865677879963457,400
3,24.448897795591183,947.2498210738713,cathode,0.005610000785187953,0.005072095034110507,7.541766403427913e-05,0.0053629155496889205,400
3,24.448897795591183,947.2498210738713,interface_ae,0.011374454704140741,0.009422038162817793,-3.6402191521804995e-05,0.010535010774229452,400
3,24.448897795591183,947.2498210738713,interface_ec,0.010527635694962885,0.009579214660489,-0.0001447058138626072,0.010090034884270975,400
3,24.649298597194388,899.4759548659421,anode,0.0059827760699570605,0.004584784783114607,0.00023858731089267753,0.005436441118890718,400
3,24.649298597194388,899.4759548659421,electrolyte,0.003700011071079378,0.002930783284619618,-7.790945577391899e-05,0.003384353946824374,400
3,24.649298597194388,899.4759548659421,cathode,0.00539196314032154,0.0047985951857091305,1.157347443265751e-05,0.005121165466196173,400
3,24.649298597194388,899.4759548659421,interface_ae,0.009711480483925044,0.008356490897298516,1.178655445787247e-05,0.00910990185521645,400
3,24.649298597194388,899.4759548659421,interface_ec,0.009251003678021211,0.008543630754830415,-0.000146958183707521,0.00892201356826645,400
3,24.849699398797597,850.1332934257218,anode,0.004605466506721218,0.0037025429893972864,-0.0002690838746801835,0.004252578864681992,400
3,24.849699398797597,850.1332934257218,electrolyte,0.0027442988030463664,0.002465586808593898,0.0002929888706289852,0.002664866739336165,400
3,24.849699398797597,850.1332934257218,cathode,0.00479370232491438,0.004262071325410909,6.00722079759493e-05,0.004552423393284017,400
3,24.849699398797597,850.1332934257218,interface_ae,0.00895195876569405,0.007552510290137102,-0.00017929406453988668,0.00834653555765886,400
3,24.849699398797597,850.1332934257218,interface_ec,0.009347917474313058,0.008117902321446265,-0.00025239880411840286,0.008808492136038789,400
3,25.050100200400802,800.0,anode,0.004092791422734087,0.0036560568972868984,-0.0001446806692365287,0.0039008989789679747,400
3,25.050100200400802,800.0,electrolyte,0.0029517896660367594,0.0021615183392780157,0.00032475841017099035,0.00270578645529487,400
3,25.050100200400802,800.0,cathode,0.004757164578303079,0.0038037722091896647,0.00015404793949795983,0.004367530163601061,400
3,25.050100200400802,800.0,interface_ae,0.008251770127307195,0.0065628157535825285,-0.0001224325866812947,0.007553302792672981,400
3,25.050100200400802,800.0,interface_ec,0.007943442918890896,0.0069904908373493845,2.0859059798012646e-05,0.0075125220740012415,400
3,25.250501002004007,749.8667065742783,anode,0.003375434827659763,0.0030304063732842497,-1.1095929539156704e-05,0.0032168856379472897,400
3,25.250501002004007,749.8667065742783,electrolyte,0.0024263672647221986,0.002673469557153898,-0.00020789819135984969,0.0025840943352646133,400
3,25.250501002004007,749.8667065742783,cathode,0.004000210544867824,0.003717987638967989,0.00034071746181341936,0.003911604312051036,400
3,25.250501002004007,749.8667065742783,interface_ae,0.006806041563215523,0.006035685507461165,8.546405357979703e-05,0.006457126852732456,400
3,25.250501002004007,749.8667065742783,interface_ec,0.006986005309636699,0.005858603111273313,6.539630842500688e-05,0.006497083822050545,400
3,25.450901803607216,700.5240451340582,anode,0.002546090670908734,0.003014520669022233,1.8926685549295074e-05,0.0028099367028581487,400
3,25.450901803607216,700.5240451340582,electrolyte,0.0020369258469049275,0.002402176727263513,-0.00010124010281858283,0.002248824747608273,400
3,25.450901803607216,700.5240451340582,cathode,0.0031848416997551305,0.003407365812664864,-0.00012480919572747847,0.0033088018546500748,400
3,25.450901803607216,700.5240451340582,interface_ae,0.00578534150877339,0.0050137120525769446,0.00012611017231943237,0.005445104204252492,400
3,25.450901803607216,700.5240451340582,interface_ec,0.006012716845860346,0.004670032075460521,-7.982528446907842e-05,0.005468226325931926,400
3,25.65130260521042,652.7501789261288,anode,0.0025980456382237536,0.002340047859392391,6.387654879447435e-05,0.002481603237560112,400
3,25.65130260521042,652.7501789261288,electrolyte,0.001894712979249293,0.0009710600383959456,0.0001595911481341284,0.0016641582909129949,400
3,25.65130260521042,652.7501789261288,cathode,0.002856022621986404,0.0027785737872374765,6.662974909360078e-05,0.0028204585594554417,400
3,25.65130260521042,652.7501789261288,interface_ae,0.005334850430058079,0.004393749104761786,0.00020193386343041222,0.004944491668632879,400
3,25.65130260521042,652.7501789261288,interface_ec,0.005161128733542684,0.0042244109373938766,0.00034086520806703223,0.004798826541052422,400
3,25.851703406813627,607.2985303593139,anode,0.0025469949706364205,0.002110364585160909,-0.00019144566248075037,0.002382370332921107,400
3,25.851703406813627,607.2985303593139,electrolyte,0.0010645974272761357,0.0013212409002804734,2.1828179665236117e-05,0.0012140366319715477,400
3,25.851703406813627,607.2985303593139,cathode,0.002096047064449958,0.0019805360687432027,0.00023829403920653936,0.0020820643002606143,400
3,25.851703406813627,607.2985303593139,interface_ae,0.0043131316434795045,0.0031465317130214315,-1.6726324071441552e-05,0.0038643499073117223,400
3,25.851703406813627,607.2985303593139,interface_ec,0.003863020956858647,0.003372524291024685,-6.204234984444641e-05,0.0036442100313319073,400
3,26.052104208416836,564.8858990830109,anode,0.0016704512151319189,0.0011651425448341338,-1.9148202227728517e-05,0.001484166632505883,400
3,26.052104208416836,564.8858990830109,electrolyte,0.0009860190025268835,0.00010223649254323473,0.0003079458036752494,0.0010799863440599197,400
3,26.052104208416836,564.8858990830109,cathode,0.002140375786178122,0.0014287929389486535,2.8228574610897633e-06,0.0018879957266985292,400
3,26.052104208416836,564.8858990830109,interface_ae,0.0029132444976483485,0.003283746544910334,0.0002845933042159667,0.003153824403334912,400
3,26.052104208416836,564.8858990830109,interface_ec,0.0033117489203175745,0.003082088874822678,2.6293016840088576e-05,0.0032034235137142248,400
3,26.25250501002004,526.1811576285247,anode,0.0009869751022509928,0.0010562468131376092,1.9789195015793556e-05,0.0010239446826103718,400
3,26.25250501002004,526.1811576285247,electrolyte,0.0007469037877766398,0.0006851819046592112,-1.3709933626367167e-05,0.0007184277539193882,400
3,26.25250501002004,526.1811576285247,cathode,0.0013637291845541336,0.0011954713709759512,-0.0001590907599594901,0.0013170191720101956,400
3,26.25250501002004,526.1811576285247,interface_ae,0.0022832820763064093,0.0017382536031780808,0.00014667233245293005,0.0020809895848018295,400
3,26.25250501002004,526.1811576285247,interface_ec,0.0018666928384926925,0.002469705985883149,0.0002079524095894265,0.002259101579592759,400
3,26.452905811623246,491.79470288968423,anode,0.0009190875556917401,7.733934567035806e-05,-5.419658429509357e-05,0.0008879377728720264,400
3,26.452905811623246,491.79470288968423,electrolyte,0.0006233076718411437,0.00024299901621494712,-7.72827590712364e-05,0.0005603710370369085,400
3,26.452905811623246,491.79470288968423,cathode,0.001468800291445532,0.0010577586207090699,-0.00013868461715671498,0.001334275719094836,400
3,26.452905811623246,491.79470288968423,interface_ae,0.0013382553663371182,0.0014467996543504544,-3.201851690256574e-05,0.0013967980599153998,400
3,26.452905811623246,491.79470288968423,interface_ec,0.001966394873424743,0.001384309835863088,7.67249363042792e-05,0.0017545890980450276,400
3,26.653306613226455,462.2688297991939,anode,0.0012655033398092017,0.0008268638653557418,-7.213276099615887e-06,0.0011130856506937428,400
3,26.653306613226455,462.2688297991939,electrolyte,0.00038093666727836886,0.00026349759705124234,0.00017709613686782167,0.0004563517905661042,400
3,26.653306613226455,462.2688297991939,cathode,0.0004967630940057421,0.0005957803713224578,7.6796852821628e-06,0.000553121193330493,400
3,26.653306613226455,462.2688297991939,interface_ae,0.0010823875721805798,0.0006362447411552033,4.844617554265022e-05,0.0009459111597508021,400
3,26.653306613226455,462.2688297991939,interface_ec,0.0012146216384674243,0.0011980565463514045,-8.004004596587503e-05,0.0012143636335371036,400
3,26.85370741482966,438.0691790135921,anode,0.0007850073587934273,9.29146894135326e-05,0.00025680604260268385,0.0008658978048769794,400
3,26.85370741482966,438.0691790135921,electrolyte,-0.0002578066998533339,0.0003569426344979402,7.131460237899352e-05,0.0005487730487058267,400
3,26.85370741482966,438.0691790135921,cathode,0.00018009384876724826,0.00048326500513538976,0.0001919278004640238,0.0005380098944962135,400
3,26.85370741482966,438.0691790135921,interface_ae,8.872409266290403e-05,0.0007915277250459992,-0.0003739906230495116,0.0009918505347581345,400
3,26.85370741482966,438.0691790135921,interface_ec,0.0004640703034121609,0.0011294541922690384,-8.72673050088081e-05,0.0009948510525788431,400
3,27.054108216432866,419.5773934819386,anode,-0.00013681266102136714,0.00012366731036072138,0.0003101859507245328,0.0005827319570437638,400
3,27.054108216432866,419.5773934819386,electrolyte,-0.0004124629197882376,-0.00019890748227426868,0.00022461475247694394,0.0005282075793560625,400
3,27.054108216432866,419.5773934819386,cathode,0.0007726620313626443,0.00015201926176904075,-0.00018585790537899635,0.0007786439764289834,400
3,27.054108216432866,419.5773934819386,interface_ae,0.001016385441485132,0.0008078202498257857,0.00010184204816433494,0.0009463992755463366,400
3,27.054108216432866,419.5773934819386,interface_ec,0.0001439116862611584,0.0003147787300496157,-2.4054012156724612e-05,0.00027610083483412413,400
3,27.254509018036075,407.0850997085245,anode,0.00017719148817844308,0.000501546113714105,0.00013191255617061047,0.0004962644383913579,400
3,27.254509018036075,407.0850997085245,electrolyte,-0.0002736171251357558,0.00045510527827158224,4.696982100197329e-05,0.0006427520794270998,400
3,27.254509018036075,407.0850997085245,cathode,0.0002840558355514446,0.0005062079400582852,-0.00016673703742703266,0.0005258769778785538,400
3,27.254509018036075,407.0850997085245,interface_ae,0.0001295373006168467,-4.0194137313296775e-05,-0.00023517891380481836,0.00043534984261957575,400
3,27.254509018036075,407.0850997085245,interface_ec,0.00024429796751026156,0.0008727091935697948,-0.0002760116616758629,0.0009146852264016727,400
3,27.45490981963928,400.7893086286914,anode,-1.0017883992356812e-06,0.00019954291620069662,1.846173024842717e-05,0.00020258525419134449,400
3,27.45490981963928,400.7893086286914,electrolyte,-2.841325535388231e-05,-0.0003850685226930334,3.491801144102454e-05,0.00037656584092794087,400
3,27.45490981963928,400.7893086286914,cathode,-0.00021834679818917249,-0.0006495964758153013,0.00017918883307705959,0.0006512599394715111,400
3,27.45490981963928,400.7893086286914,interface_ae,0.0003031440568007024,2.8782357276200225e-05,3.436120323085538e-05,0.00029587433071725605,400
3,27.45490981963928,400.7893086286914,interface_ec,0.00033792371466275813,8.058596125430107e-05,0.00013560263321419716,0.0003855111530292044,400
3,27.655310621242485,400.7893086286914,anode,-8.056226534654962e-05,0.0004009751572504486,4.811785888990258e-05,0.00045444560442149803,400
3,27.655310621242485,400.7893086286914,electrolyte,6.3740743482602e-05,-0.0003763219402728958,4.3043378145256306e-05,0.0004186004330847594,400
3,27.655310621242485,400.7893086286914,cathode,-0.0002409040803327299,-0.00018410478228028364,-0.00012230634424741815,0.0003040629524438051,400
3,27.655310621242485,400.7893086286914,interface_ae,-0.0003042421687216777,0.0006507154851259646,0.00019970085929826045,0.000913022633804925,400
3,27.655310621242485,400.7893086286914,interface_ec,0.000591738561491368,-0.00035358444164579285,1.0688062486633874e-05,0.0008274954594644041,400
3,27.855711422845694,407.0850997085245,anode,-0.00031011619076745894,-0.00014246278088441488,-0.0001377190475124862,0.00035942633309576135,400
3,27.855711422845694,407.0850997085245,electrolyte,0.0004214708998921401,-7.671256016480703e-05,0.00016025690005410243,0.0005412037233366678,400
3,27.855711422845694,407.0850997085245,cathode,0.00025917236367032514,0.000757337307906141,-0.00022191663347095858,0.0007695389453981392,400
3,27.855711422845694,407.0850997085245,interface_ae,0.0005180549461648252,0.00046317448921468597,-0.0001460068257040552,0.0005539997103669041,400
3,27.855711422845694,407.0850997085245,interface_ec,0.0004424249751707334,0.00022008571700233637,-3.412143899301117e-05,0.0003876841258033738,400
3,28.0561122244489,419.57739348193854,anode,-3.18293177902759e-05,-3.2684206378630386e-05,0.0003074718143678889,0.0005335333135972781,400
3,28.0561122244489,419.57739348193854,electrolyte,0.0001372466000608146,0.00035112449167697205,-0.00011863490725013296,0.0003689947409620657,400
3,28.0561122244489,419.57739348193854,cathode,-1.8604555565167655e-05,0.000507644071831108,-0.00020243643173272982,0.0006248477031827796,400
3,28.0561122244489,419.57739348193854,interface_ae,0.00026306826057080173,0.0003396957556226953,1.6705890276007862e-05,0.0003099551658911602,400
3,28.0561122244489,419.57739348193854,interface_ec,0.0003339044054375363,0.0004482334666298026,0.00010392836337267173,0.0004417483192331367,400
3,28.256513026052104,438.069179013592,anode,0.0006391522327873113,6.0205681176737436e-05,-4.262326468931957e-05,0.0006157190375899505,400
3,28.256513026052104,438.069179013592,electrolyte,0.0006249131116582255,0.0004949057714030342,-0.00020592891772215958,0.0006733462493902922,400
3,28.256513026052104,438.069179013592,cathode,0.0005242049392551728,-0.00023752075103535762,7.040235309055443e-06,0.0006751778810949549,400
3,28.256513026052104,438.069179013592,interface_ae,0.0013230998494929151,0.00035633646761805795,-0.00012514845682373731,0.0012054404058038245,400
3,28.256513026052104,438.069179013592,interface_ec,0.00098297867894098,0.00017786382823586005,-9.491325448275585e-05,0.0009219934117802164,400
3,28.45691382765531,462.268829799194,anode,0.00086388946906566,0.0003919278043156431,-3.539549808164574e-05,0.0007517237788105825,400
3,28.45691382765531,462.268829799194,electrolyte,0.0006591375216888684,0.0004969633623661727,4.002275944431028e-05,0.0005988932465914444,400
3,28.45691382765531,462.268829799194,cathode,0.0005832204440101226,0.0006932318932031505,-1.855990201496349e-05,0.000646098244385391,400
3,28.45691382765531,462.268829799194,interface_ae,0.0013702645130017769,0.0008989047979850418,-2.7385346156931166e-05,0.0012067175302194779,400
3,28.45691382765531,462.268829799194,interface_ec,0.0009359354922584373,0.0010374821225185645,-0.00012165012954432671,0.0010127804901460052,400
3,28.65731462925852,491.7947028896842,anode,0.0006755277967379281,0.0009358788163751637,3.1910966378649044e-05,0.0008384806125316318,400
3,28.65731462925852,491.7947028896842,electrolyte,0.0008774250407123609,0.00041684081132109107,6.120792702551334e-05,0.0007675438939892712,400
3,28.65731462925852,491.7947028896842,cathode,0.001174981003468625,0.0009917126143680257,-0.0001238480524203213,0.0011157265818698976,400
3,28.65731462925852,491.7947028896842,interface_ae,0.0018623441618971037,0.0016541469384497832,1.0767700361912911e-06,0.0017674672432308972,400
3,28.65731462925852,491.7947028896842,interface_ec,0.0011915918197044216,0.0015930517368254289,0.0003318796559095863,0.001545920373448097,400
3,28.857715430861724,526.1811576285245,anode,0.0012799809532866746,0.0009613706944701075,5.6002283956709725e-05,0.0011582130384424035,400
3,28.857715430861724,526.1811576285245,electrolyte,0.000976981566539643,0.0011085984375146449,-0.00018868022338633316,0.0010987283189956734,400
3,28.857715430861724,526.1811576285245,cathode,0.001607406809686267,0.001356920442202143,-2.1321980541081915e-05,0.0014984093098536861,400
3,28.857715430861724,526.1811576285245,interface_ae,0.002599993116421292,0.0024324661273675743,0.00013084730700426754,0.0025305777072431234,400
3,28.857715430861724,526.1811576285245,interface_ec,0.0021554811274226665,0.0023696763389147125,-9.703290754877772e-06,0.0022702322957819194,400
3,29.05811623246493,564.8858990830106,anode,0.0018356071193177715,0.0015636422537266576,-2.2536448319738994e-05,0.0017163104077151474,400
3,29.05811623246493,564.8858990830106,electrolyte,0.0015117135427131936,0.0009559557115891495,-0.00016793191925747528,0.0013559503496867222,400
3,29.05811623246493,564.8858990830106,cathode,0.0016956859331221982,0.001595291571469292,0.00018438221764455754,0.0016784465768594347,400
3,29.05811623246493,564.8858990830106,interface_ae,0.0034456692073282606,0.002519869097942956,0.0003727784875018337,0.0031554132220757386,400
3,29.05811623246493,564.8858990830106,interface_ec,0.0033441733951370045,0.0031576469029667735,-2.275716503658437e-05,0.003255159683041845,400
3,29.258517034068138,607.2985303593135,anode,0.0024402916073640838,0.002190081810215103,0.00018272920676313837,0.0023467452125253917,400
3,29.258517034068138,607.2985303593135,electrolyte,0.001768300204128662,0.0014950853556598088,-4.726300967911629e-05,0.0016507899531068926,400
3,29.258517034068138,607.2985303593135,cathode,0.0021087600213656305,0.002038023511956841,0.00013996921085116039,0.002088415738865228,400
3,29.258517034068138,607.2985303593135,interface_ae,0.004037694690881426,0.003808385855661563,0.0002178925118229269,0.003946151711765276,400
3,29.258517034068138,607.2985303593135,interface_ec,0.0038296146253923823,0.003237758054808363,-2.1056258835800466e-05,0.003570852825086474,400
3,29.458917835671343,652.7501789261289,anode,0.0028725357686441772,0.0022058440688291904,0.00020283040183007164,0.0026275966825381135,400
3,29.458917835671343,652.7501789261289,electrolyte,0.0018964713109384376,0.0015156976790826888,-0.00021538642858027912,0.0017772562178826707,400
3,29.458917835671343,652.7501789261289,cathode,0.002385507223259166,0.0024475169480438473,-0.0003198893439232254,0.002479798810718844,400
3,29.458917835671343,652.7501789261289,interface_ae,0.005308244765630575,0.004206339358015054,0.00048646394543920996,0.004924674194057761,400
3,29.458917835671343,652.7501789261289,interface_ec,0.005696828417922187,0.004199350790552495,-1.5950550379697243e-05,0.005115289182938581,400
3,29.65931863727455,700.5240451340578,anode,0.003604438950675245,0.003320851604978852,-0.0002457043586154025,0.003497333348790921,400
3,29.65931863727455,700.5240451340578,electrolyte,0.0015677556763319983,0.0016015076268813292,8.741063747607965e-05,0.0015921161155927042,400
3,29.65931863727455,700.5240451340578,cathode,0.003454826573626915,0.0031308312584985955,-0.0001799546292547962,0.003319428113304841,400
3,29.65931863727455,700.5240451340578,interface_ae,0.005255532934763682,0.005315223938196837,-0.00012422944094478517,0.005290009105920425,400
3,29.65931863727455,700.5240451340578,interface_ec,0.0053448297343377535,0.005101338803394008,0.00011897635323280159,0.00523139955199838,400
3,29.859719438877757,749.8667065742782,anode,0.003811916632680677,0.0031338991906147548,-2.3904334821885983e-05,0.00352244011351,400
3,29.859719438877757,749.8667065742782,electrolyte,0.0023378921172997123,0.001677292770534905,-0.00010720210154856476,0.0020957571222144818,400
3,29.859719438877757,749.8667065742782,cathode,0.0040049177438212045,0.0033677572688824513,2.5208970895023035e-05,0.003727662912669962,400
3,29.859719438877757,749.8667065742782,interface_ae,0.006628816245614695,0.005833805723004402,-0.00032655975696642815,0.006294695521316545,400
3,29.859719438877757,749.8667065742782,interface_ec,0.006980903789336326,0.006316913983989173,-0.00022111981980631583,0.006684708905665236,400
4,30.060120240480963,800.0,anode,0.004424221698004673,0.004008732033613039,0.00018792639516412252,0.004244302050492121,400
4,30.060120240480963,800.0,electrolyte,0.002665532615109955,0.002172324901220231,-0.00029533847136241245,0.002509049852405971,400
4,30.060120240480963,800.0,cathode,0.004631031438792432,0.004522622812043122,4.160376929470138e-05,0.004578357072092978,400
4,30.060120240480963,800.0,interface_ae,0.008273316306244885,0.007134624693230095,-1.6638005922903088e-06,0.007766829063889935,400
4,30.060120240480963,800.0,interface_ec,0.00803609568832196,0.00728498397470331,3.386422846676316e-05,0.007688331254105271,400
4,30.260521042084168,850.1332934257217,anode,0.005181816849975896,0.004107443135052954,0.00019552618979021386,0.0047489986733556975,400
4,30.260521042084168,850.1332934257217,electrolyte,0.003350343877579985,0.0025124168446728533,0.00015027372805229058,0.003031060653629892,400
4,30.260521042084168,850.1332934257217,cathode,0.005027261622880237,0.004165451895483118,-0.00011395546762204305,0.004660739212630888,400
4,30.260521042084168,850.1332934257217,interface_ae,0.008786438607986011,0.008061558011951034,-0.0002746717317507525,0.008460742882034793,400
4,30.260521042084168,850.1332934257217,interface_ec,0.00894922602453271,0.007297418895102012,-1.2910453918633958e-05,0.008248346374896177,400
4,30.460921843687377,899.475954865942,anode,0.005698877342876771,0.004784368594858673,-0.00015638665420058642,0.005308034136311583,400
4,30.460921843687377,899.475954865942,electrolyte,0.0031446615580306017,0.003111192890516327,-8.258278975627314e-05,0.00313133016234663,400
4,30.460921843687377,899.475954865942,cathode,0.005838880977419176,0.004616802852977316,2.7159411415662347e-05,0.005334102567243013,400
4,30.460921843687377,899.475954865942,interface_ae,0.010730135676919817,0.008964129165984084,-6.186207273247205e-05,0.009965770513173529,400
4,30.460921843687377,899.475954865942,interface_ec,0.010416311956831776,0.008716079873507185,1.1820277042092226e-06,0.009678853255001259,400
4,30.661322645290582,947.2498210738712,anode,0.006195689626704968,0.005300066439231474,3.181400296112628e-05,0.0058002365421323115,400
4,30.661322645290582,947.2498210738712,electrolyte,0.003532741137642513,0.00295137278729254,-0.00020828138307468164,0.0033006921426546524,400
4,30.661322645290582,947.2498210738712,cathode,0.005813291610998406,0.004984182193330947,2.3919376020619375e-05,0.005446434004767795,400
4,30.661322645290582,947.2498210738712,interface_ae,0.011060235041581568,0.009782944941064091,5.207062312884279e-06,0.010480134626444162,400
4,30.661322645290582,947.2498210738712,interface_ec,0.010737520032197717,0.00982535327706127,0.00012161979683875647,0.01031389111586846,400
4,30.861723446893787,992.7014696406861,anode,0.006517908098417434,0.005919714328606203,-0.00012847473561137984,0.006244317978935115,400
4,30.861723446893787,992.7014696406861,electrolyte,0.004178211400509304,0.0031472242222755926,-0.0002689659678801865,0.0037986485442570747,400
4,30.861723446893787,992.7014696406861,cathode,0.006701221743983999,0.005756538181855255,-5.96519540421906e-05,0.006283226952270782,400
4,30.861723446893787,992.7014696406861,interface_ae,0.011913711254095434,0.01030861263968853,4.0394212887110094e-05,0.011197994064065356,400
4,30.861723446893787,992.7014696406861,interface_ec,0.012255452512525442,0.010483332667507636,-0.00010051728006813493,0.011473826981244285,400
4,31.062124248496996,1035.1141009169892,anode,0.007655327534960223,0.005855388335497134,7.313404456300778e-05,0.006934027865519605,400
4,31.062124248496996,1035.1141009169892,electrolyte,0.004800366034306913,0.0039232013282807544,-3.0378634059724504e-05,0.004427752128083352,400
4,31.062124248496996,1035.1141009169892,cathode,0.0071453230465464805,0.006519066631777445,-0.00021344623878925093,0.006863651508753246,400
4,31.062124248496996,1035.1141009169892,interface_ae,0.012855824610867782,0.011055565275986905,0.0001856480636267997,0.012061207959632343,400
4,31.062124248496996,1035.1141009169892,interface_ec,0.013260792179793942,0.010884418878081349,-4.654615580773555e-05,0.012247026840952727,400
4,31.2625250501002,1073.8188423714755,anode,0.007564619744043079,0.006373642486511112,0.00014683343378351686,0.007049630401285029,400
4,31.2625250501002,1073.8188423714755,electrolyte,0.004305208957821276,0.00449185636883059,0.0001242344535276934,0.004406758460671796,400
4,31.2625250501002,1073.8188423714755,cathode,0.008076175188453077,0.006447697330573595,-2.2491107861866403e-05,0.007397715247779947,400
4,31.2625250501002,1073.8188423714755,interface_ae,0.013518104492732127,0.01169844380940607,7.404822714647263e-05,0.012707021690395424,400
4,31.2625250501002,1073.8188423714755,interface_ec,0.014336868955623961,0.011523695486485375,-5.4825890547789874e-05,0.01315814100382514,400
4,31.462925851703407,1108.2052971103158,anode,0.008098971150698875,0.006503970018595591,8.870238626376004e-05,0.007432570113830984,400
4,31.462925851703407,1108.2052971103158,electrolyte,0.004740239980249427,0.004155204412453271,-6.779240578678165e-05,0.004478026365314688,400
4,31.462925851703407,1108.2052971103158,cathode,0.00790755936505273,0.00692059328360917,-3.234143678520335e-05,0.0074633934763648066,400
4,31.462925851703407,1108.2052971103158,interface_ae,0.014548292285499937,0.012242333716151903,4.792870061744331e-05,0.013543610506943367,400
4,31.462925851703407,1108.2052971103158,interface_ec,0.015155934830731221,0.012502838372507744,0.00014941773223666933,0.014021344492082461,400
4,31.663326653306616,1137.731170200806,anode,0.008066841879763227,0.0072586506205010075,-0.00016460524784565997,0.007699924973039005,400
4,31.663326653306616,1137.731170200806,electrolyte,0.004721040713146071,0.004167689040457084,0.00017878490016203592,0.004480839188698489,400
4,31.663326653306616,1137.731170200806,cathode,0.00876891320591016,0.007284223605329197,-0.0002299050839834896,0.008138648341129585,400
4,31.663326653306616,1137.731170200806,interface_ae,0.0152121510277403,0.013070889942353699,2.6330434436789684e-05,0.014262658615460866,400
4,31.663326653306616,1137.731170200806,interface_ec,0.014717897148112457,0.012713284585277217,-9.611664622307495e-06,0.013825033946437922,400
4,31.86372745490982,1161.9308209864078,anode,0.008923091714198845,0.00678903542881215,-2.4318596321978762e-05,0.008070635426892715,400
4,31.86372745490982,1161.9308209864078,electrolyte,0.005376430377868539,0.004788371981423989,0.0001039286376356155,0.005111023845009318,400
4,31.86372745490982,1161.9308209864078,cathode,0.008936975836986329,0.007207891623131554,-0.00028620032056849614,0.008225096799468392,400
4,31.86372745490982,1161.9308209864078,interface_ae,0.01565405216730022,0.01370666234281841,0.0002090181791286647,0.014781346362228408,400
4,31.86372745490982,1161.9308209864078,interface_ec,0.015985132725107976,0.013534975042096364,5.6945947257894815e-05,0.014912121702604308,400
4,32.06412825651303,1180.4226065180615,anode,0.008808024350929472,0.007589612890647965,0.00025036042887394963,0.008277805426230956,400
4,32.06412825651303,1180.4226065180615,electrolyte,0.005180190843888867,0.005127948145995421,-4.8304223173808756e-05,0.005154947063475515,400
4,32.06412825651303,1180.4226065180615,cathode,0.00937248960768623,0.0072065864758647895,8.788563017469737e-05,0.008500468509461253,400
4,32.06412825651303,1180.4226065180615,interface_ae,0.015933716914139587,0.013306955604108037,3.2780106361641846e-05,0.014796363140004326,400
4,32.06412825651303,1180.4226065180615,interface_ec,0.016457589491502663,0.013478053330107244,-0.00022485239406876018,0.015193603271966257,400
4,32.26452905811623,1192.9149002914755,anode,0.009090967924051481,0.007724512551716019,8.22479441331748e-05,0.008491807245463725,400
4,32.26452905811623,1192.9149002914755,electrolyte,0.005835282673449675,0.004700019102352531,0.0002783254972191394,0.005380256374551988,400
4,32.26452905811623,1192.9149002914755,cathode,0.009185791776712556,0.007646815198547104,-0.00024173510386542416,0.008531459937098626,400
4,32.26452905811623,1192.9149002914755,interface_ae,0.016334540579938692,0.01385042158700517,0.00014404571944222054,0.01524707736391197,400
4,32.26452905811623,1192.9149002914755,interface_ec,0.0165520835232536,0.013597526934138725,2.5838157961655623e-05,0.015290480992861451,400
4,32.46492985971944,1199.2106913713087,anode,0.009392382302288765,0.00827069391597089,0.0001331255951121089,0.008887793386000521,400
4,32.46492985971944,1199.2106913713087,electrolyte,0.0058227288358926035,0.0047733294120438354,5.824680081351744e-05,0.005376357505868735,400
4,32.46492985971944,1199.2106913713087,cathode,0.009565774420981896,0.007412451288910646,-5.2415899082543386e-05,0.008692000904669695,400
4,32.46492985971944,1199.2106913713087,interface_ae,0.016311890686759214,0.014175858050296012,0.00018453332634761814,0.015359031218702527,400
4,32.46492985971944,1199.2106913713087,interface_ec,0.016364569025369768,0.013345020804437344,-6.183311175367052e-05,0.015083588948220317,400
4,32.66533066132265,1199.2106913713087,anode,0.00946496507037527,0.007973573479039505,6.422793717158641e-05,0.008815113103507324,400
4,32.66533066132265,1199.2106913713087,electrolyte,0.005510476849036817,0.00437159439279335,7.72941482436701e-05,0.005040292263357772,400
4,32.66533066132265,1199.2106913713087,cathode,0.008940638407759662,0.008467513528168678,8.557608125317739e-05,0.008714975250504464,400
4,32.66533066132265,1199.2106913713087,interface_ae,0.016369466820619905,0.013878696540461586,-1.3941630992038241e-05,0.015277152294465164,400
4,32.66533066132265,1199.2106913713087,interface_ec,0.016471810734779564,0.014397162247337161,2.7962425461606946e-05,0.015538785142159969,400
4,32.86573146292585,1192.9149002914755,anode,0.00889903183167941,0.008317875355895909,7.396249728033395e-06,0.008623163255263964,400
4,32.86573146292585,1192.9149002914755,electrolyte,0.005781056204830997,0.004535375704500851,5.4467344161678505e-05,0.0052706623721679655,400
4,32.86573146292585,1192.9149002914755,cathode,0.009211854350694926,0.007183848362720327,0.000302291266569096,0.008400209111185896,400
4,32.86573146292585,1192.9149002914755,interface_ae,0.016800531774310307,0.013832179075784714,-0.00016534046106837831,0.015533225493042787,400
4,32.86573146292585,1192.9149002914755,interface_ec,0.016517606920174607,0.01397734698045283,5.33503422844844e-05,0.015405641257293714,400
4,33.06613226452906,1180.4226065180615,anode,0.009032333193815934,0.0077805032755058285,0.00021709585490877097,0.008484371984712651,400
4,33.06613226452906,1180.4226065180615,electrolyte,0.005633389207165024,0.004328617859109483,0.0002043844279068678,0.00511981800294388,400
4,33.06613226452906,1180.4226065180615,cathode,0.009467044344004192,0.008574247999067676,-0.00016852410498593968,0.0090584254955858,400
4,33.06613226452906,1180.4226065180615,interface_ae,0.016227612558868957,0.013106906150728596,8.297237345688136e-05,0.01491486696519817,400
4,33.06613226452906,1180.4226065180615,interface_ec,0.01599028786547384,0.014308569500132779,-0.00011619224550278728,0.015220605238436895,400
4,33.26653306613227,1161.9308209864078,anode,0.00825544952995351,0.007306494652931378,-0.0002963231656825706,0.007841067240008512,400
4,33.26653306613227,1161.9308209864078,electrolyte,0.005558845583257047,0.00391396347099223,4.268637177473832e-06,0.004945989322753679,400
4,33.26653306613227,1161.9308209864078,cathode,0.008138860895386828,0.007351784433781142,0.00024650672337068005,0.007786972254337979,400
4,33.26653306613227,1161.9308209864078,interface_ae,0.015880162361849377,0.013147124713766363,-4.680523340862596e-06,0.01470537437652737,400
4,33.26653306613227,1161.9308209864078,interface_ec,0.01577737305603197,0.013547961899008865,-0.00020502875449212395,0.01479349970450316,400
4,33.46693386773547,1137.731170200806,anode,0.008661678639463466,0.006400004699232045,-9.448268285457155e-05,0.007783105674459529,400
4,33.46693386773547,1137.731170200806,electrolyte,0.005017636038670178,0.004579498510516166,3.394627901530371e-06,0.004813549192589081,400
4,33.46693386773547,1137.731170200806,cathode,0.00806223954115238,0.006915824250967773,2.9802001432111032e-05,0.00755473124811532,400
4,33.46693386773547,1137.731170200806,interface_ae,0.015247315020597315,0.012806642706792454,-7.21250684267969e-05,0.014185887463481442,400
4,33.46693386773547,1137.731170200806,interface_ec,0.015479885622304467,0.012825072167822414,-1.3213686604360991e-05,0.014338033635695352,400
4,33.66733466933868,1108.2052971103158,anode,0.008795341893192794,0.006495601988188159,-0.0002777764097361988,0.00791525887891901,400
4,33.66733466933868,1108.2052971103158,electrolyte,0.005192513979211792,0.004010228599418147,-4.773562916139304e-05,0.0047146370859761574,400
4,33.66733466933868,1108.2052971103158,cathode,0.007910014003329297,0.006844766737023083,0.00023978071681445118,0.007446437863449622,400
4,33.66733466933868,1108.2052971103158,interface_ae,0.014900488187768972,0.0127195392562221,-0.0002124340583688968,0.013943430975577056,400
4,33.66733466933868,1108.2052971103158,interface_ec,0.014314503529217676,0.011609148604810379,-0.00012140712316241309,0.013173547852057514,400
4,33.86773547094189,1073.8188423714755,anode,0.008035927643187665,0.006741663138905684,-3.322698944281858e-05,0.007473550018867746,400
4,33.86773547094189,1073.8188423714755,electrolyte,0.004710041811484912,0.003802556449337657,3.071383236026762e-05,0.004328574773284882,400
4,33.86773547094189,1073.8188423714755,cathode,0.007978680171116153,0.006101813147958031,4.4947153175602216e-05,0.007225863694661197,400
4,33.86773547094189,1073.8188423714755,interface_ae,0.014227780498375942,0.011731312444837098,0.00010510509181808753,0.013159636484581422,400
4,33.86773547094189,1073.8188423714755,interface_ec,0.014792446370431308,0.011824539693630043,5.899605750079854e-05,0.013554806561499213,400
4,34.06813627254509,1035.1141009169892,anode,0.007082395035446957,0.0062626156852441835,6.904074374734557e-05,0.006711233589586649,400
4,34.06813627254509,1035.1141009169892,electrolyte,0.0045042514084999655,0.0034730203045434285,3.0954265698817605e-05,0.004087746162367594,400
4,34.06813627254509,1035.1141009169892,cathode,0.007742470942160666,0.006342831065817927,0.00014429807836077613,0.007150569404448419,400
4,34.06813627254509,1035.1141009169892,interface_ae,0.013075758297977885,0.011399802677461535,4.189017573247889e-05,0.012323763875437457,400
4,34.06813627254509,1035.1141009169892,interface_ec,0.012861588670075504,0.011270388907074083,-0.00014875449951604655,0.012147156320049694,400
4,34.2685370741483,992.7014696406861,anode,0.006626202818402452,0.005850455357925418,4.4586641007018606e-05,0.006274874644941408,400
4,34.2685370741483,992.7014696406861,electrolyte,0.003792140547961664,0.0038427694757169452,8.580094174507092e-05,0.0038205982042704106,400
4,34.2685370741483,992.7014696406861,cathode,0.0066046483701846246,0.005332381426802953,-2.1735686862214696e-05,0.006069479779619399,400
4,34.2685370741483,992.7014696406861,interface_ae,0.012135137307403855,0.010462524495443779,-5.446749917333497e-05,0.011391694565709617,400
4,34.2685370741483,992.7014696406861,interface_ec,0.0116666833633387,0.010312078276837524,-4.5842866660246944e-05,0.011052104402306038,400
4,34.46893787575151,947.2498210738713,anode,0.006483471249781737,0.005139907098613777,0.0002518012010058849,0.005943047708305831,400
4,34.46893787575151,947.2498210738713,electrolyte,0.0032572565823215716,0.003649486684730321,-3.364784563171572e-05,0.003470526690823068,400
4,34.46893787575151,947.2498210738713,cathode,0.0065512484040525865,0.005373307446214712,0.00017093333040382036,0.006056159785043559,400
4,34.46893787575151,947.2498210738713,interface_ae,0.011211862706863291,0.00929927447424142,0.00021307564309065946,0.01039501736964553,400
4,34.46893787575151,947.2498210738713,interface_ec,0.011294027102464493,0.009695328143882027,0.00018521278710671924,0.010590469702236373,400
4,34.66933867735471,899.4759548659421,anode,0.0054343869083300035,0.005061024728106361,-8.848421346943363e-05,0.005259891083556473,400
4,34.66933867735471,899.4759548659421,electrolyte,0.0034566808773682832,0.002993565621067642,-0.00022503327921704038,0.0032732547576342966,400
4,34.66933867735471,899.4759548659421,cathode,0.005510322368112204,0.005287699326538525,0.00013292867828771932,0.005407356007703815,400
4,34.66933867735471,899.4759548659421,interface_ae,0.010320360392526831,0.00886121646342012,-4.4136375845468645e-05,0.009673980177959585,400
4,34.66933867735471,899.4759548659421,interface_ec,0.010746127281473396,0.008728173652528003,3.4776313820227204e-05,0.009892918175616895,400
4,34.86973947895792,850.1332934257218,anode,0.00552034191763842,0.004166841497782659,0.00023381837767453407,0.0049998366245438105,400
4,34.86973947895792,850.1332934257218,electrolyte,0.00269179463105704,0.0031671857352168846,-5.5901337592796185e-05,0.0029598623512193203,400
4,34.86973947895792,850.1332934257218,cathode,0.005103723250048217,0.0038330498918815476,-6.821920760665393e-05,0.004603411584445242,400
4,34.86973947895792,850.1332934257218,interface_ae,0.009005817214604377,0.007737801394213533,-2.059664486833194e-05,0.008443598864542236,400
4,34.86973947895792,850.1332934257218,interface_ec,0.009605096658254313,0.007982376303245763,4.6151498010167073e-05,0.008905678367653927,400
4,35.07014028056113,800.0,anode,0.004271344183346331,0.0036457737731191804,0.0002698087527526968,0.004022696014732766,400
4,35.07014028056113,800.0,electrolyte,0.002579439689571026,0.0028768624756171884,-3.645917983212997e-05,0.002741011014221958,400
4,35.07014028056113,800.0,cathode,0.004600686380843051,0.0042311095480689785,0.00019078386329079845,0.004439796229159143,400
4,35.07014028056113,800.0,interface_ae,0.008246756231916274,0.006921527083943537,-8.388067278331967e-06,0.007670501286587675,400
4,35.07014028056113,800.0,interface_ec,0.008381387258469635,0.007305391106060925,6.344788491227364e-07,0.00789854928845576,400
4,35.27054108216433,749.8667065742783,anode,0.004209133015011146,0.003911454976444852,5.719644183971769e-05,0.0040696757600091095,400
4,35.27054108216433,749.8667065742783,electrolyte,0.0025425628028213814,0.0016260336565899355,-0.0003946095205243595,0.002332695519852161,400
4,35.27054108216433,749.8667065742783,cathode,0.00413997984437325,0.003391499787379308,-7.721740123721128e-05,0.003823460571109063,400
4,35.27054108216433,749.8667065742783,interface_ae,0.007315299887343464,0.006137783583415354,0.00016916703759508478,0.0068097081187184156,400
4,35.27054108216433,749.8667065742783,interface_ec,0.007268074086565254,0.005931827716653376,0.00014852493584389335,0.006705572059428109,400
4,35.47094188376754,700.5240451340582,anode,0.0033908871965578073,0.00309558354628711,-7.161160592892007e-05,0.003255666371905194,400
4,35.47094188376754,700.5240451340582,electrolyte,0.001908720250289176,0.0018133685376033547,1.924296531552768e-06,0.0018628785002850656,400
4,35.47094188376754,700.5240451340582,cathode,0.003599974629651718,0.0028570288151924953,-0.00027545396756555957,0.003326383080591018,400
4,35.47094188376754,700.5240451340582,interface_ae,0.006091015569198486,0.005525866114276897,-4.460641188646596e-05,0.00582953682874628,400
4,35.47094188376754,700.5240451340582,interface_ec,0.006146932713520638,0.005583633525905533,-0.00010679598408883841,0.005888441364412119,400
4,35.671342685370746,652.7501789261288,anode,0.002443786092177611,0.0024224436631452603,-7.262609268731055e-05,0.002436434542599544,400
4,35.671342685370746,652.7501789261288,electrolyte,0.0014793773565569253,0.001451250027840859,7.372584708701754e-05,0.001471069025605927,400
4,35.671342685370746,652.7501789261288,cathode,0.002903840489180136,0.00256272732080878,0.0002720111547773134,0.002789279433025468,400
4,35.671342685370746,652.7501789261288,interface_ae,0.005129065045303596,0.004530643988598636,-7.638200438987017e-05,0.004859380424244212,400
4,35.671342685370746,652.7501789261288,interface_ec,0.004978020787804774,0.004271667102179904,-7.181378572825328e-05,0.004666782062823488,400
4,35.87174348697395,607.2985303593139,anode,0.002491775838396247,0.00273106587027252,-0.00010740651544137604,0.002626227740818912,400
4,35.87174348697395,607.2985303593139,electrolyte,0.0013261021208305582,0.001214489351704543,5.936982730646206e-05,0.0012781113583865448,400
4,35.87174348697395,607.2985303593139,cathode,0.0024629983427185446,0.0024115718724467276,-0.00036395881058028123,0.002517884082801392,400
4,35.87174348697395,607.2985303593139,interface_ae,0.003575000617379095,0.0034986541900690823,0.0001645950281315563,0.0035489145152162813,400
4,35.87174348697395,607.2985303593139,interface_ec,0.003821385168956118,0.0027451279397639997,8.56769109328813e-05,0.003416217560181217,400
4,36.07214428857716,564.8858990830109,anode,0.00196928500656544,0.001284697141496603,-0.00014783094010813947,0.001750473457178376,400
4,36.07214428857716,564.8858990830109,electrolyte,0.0008632781776906741,0.0010142316947860971,-9.394729142745103e-05,0.0009616804740942843,400
4,36.07214428857716,564.8858990830109,cathode,0.0020444070151472817,0.0007553716646651146,-0.00012852777976916989,0.0018042886231406272,400
4,36.07214428857716,564.8858990830109,interface_ae,0.0030753219227450113,0.0028242651908538296,-8.070716377352077e-05,0.002961096938392829,400
4,36.07214428857716,564.8858990830109,interface_ec,0.003652491244987056,0.00234336636286756,6.823721449612799e-06,0.003205163454596126,400
4,36.27254509018036,526.1811576285247,anode,0.0016185842396915459,0.0017904150467874154,-7.226489566402127e-05,0.0017155553179480764,400
4,36.27254509018036,526.1811576285247,electrolyte,0.000980605684705428,0.00020961905012101256,-0.00035879343064695353,0.0010891153292949516,400
4,36.27254509018036,526.1811576285247,cathode,0.0017045156254625442,0.0012317527277244079,0.0001767769034697634,0.001554605013947658,400
4,36.27254509018036,526.1811576285247,interface_ae,0.002199929096219537,0.002376128110332518,0.00028032267608157793,0.0023439500564254034,400
4,36.27254509018036,526.1811576285247,interface_ec,0.0027378616454176415,0.002303131920151207,1.2834121236524747e-06,0.002548460598869314,400
4,36.47294589178357,491.79470288968423,anode,0.000584374646093595,0.0013039651014597675,-9.162864597075986e-05,0.001142366838815514,400
4,36.47294589178357,491.79470288968423,electrolyte,0.0007939078971426946,7.72681902222451e-05,-0.00017691894967616705,0.0008178124725228557,400
4,36.47294589178357,491.79470288968423,cathode,0.0014861653029980392,0.0007931025340593103,0.00021799132140638166,0.0013422287875594408,400
4,36.47294589178357,491.79470288968423,interface_ae,0.001876681152098908,0.0010625584654566367,0.00013381013995975808,0.0016463883669108536,400
4,36.47294589178357,491.79470288968423,interface_ec,0.001723182654489781,0.0018247344413991069,3.781630131012317e-06,0.0017761493197568897,400
4,36.673346693386776,462.2688297991939,anode,0.0002531560743078687,0.0006579662408982911,0.00032943347132291984,0.0008099497871050337,400
4,36.673346693386776,462.2688297991939,electrolyte,0.0005837777461486951,0.00035324421140356475,0.00016130151029353465,0.0005808755046343891,400
4,36.673346693386776,462.2688297991939,cathode,0.0007792920822516631,0.0006715380803659586,-0.00016374377582386538,0.0007844560575616875,400
4,36.673346693386776,462.2688297991939,interface_ae,0.0013591191845801931,0.0014062530852419,-0.0001254093228150037,0.001400239138813686,400
4,36.673346693386776,462.2688297991939,interface_ec,0.001716313523217398,0.0010681082530732788,-0.00013316542673078109,0.0015187421782124717,400
4,36.87374749498998,438.0691790135921,anode,0.0007370851817323822,0.00028608795413638175,0.00011392723312291616,0.0006732072001296993,400
4,36.87374749498998,438.0691790135921,electrolyte,0.00017895666341758343,0.00020856377207190176,7.403403065014374e-05,0.00023375964306432534,400
4,36.87374749498998,438.0691790135921,cathode,0.0005250646759333106,-0.00022653330927765894,-0.00016818656101415876,0.0007285705529778996,400
4,36.87374749498998,438.0691790135921,interface_ae,0.0010668550010186008,0.0006301862280736884,-7.855969541571326e-05,0.0009388886108000818,400
4,36.87374749498998,438.0691790135921,interface_ec,0.00038045980100411377,0.00034590630836139815,-0.00030326979599429207,0.0006393082954149069,400
4,37.07414829659319,419.5773934819386,anode,0.00019475580943183405,1.1837747111635743e-05,-0.00014498818364779727,0.00031437113057024513,400
4,37.07414829659319,419.5773934819386,electrolyte,0.00011660472682318426,0.0002256766804733561,0.00031397968983149166,0.0005778939311240974,400
4,37.07414829659319,419.5773934819386,cathode,-0.00022842500082667015,0.0005391833342761064,0.00014596523415226078,0.0007279952961969486,400
4,37.07414829659319,419.5773934819386,interface_ae,0.00017152422326311887,0.00040543502469051894,-6.864498740064228e-05,0.0003720115503634481,400
4,37.07414829659319,419.5773934819386,interface_ec,0.00046095861920175066,0.0007972035423360747,9.084093489469694e-05,0.000710840853348495,400
4,37.274549098196395,407.0850997085245,anode,0.00023406115861806463,-5.9835946335565505e-05,-0.00022260849973865026,0.0004701423931549805,400
4,37.274549098196395,407.0850997085245,electrolyte,-1.2944765202450703e-05,0.00040413878972489546,-0.0002290751784884471,0.0005710985223647343,400
4,37.274549098196395,407.0850997085245,cathode,-0.0002350481638049765,0.00010713717052104765,-0.00014769821772708935,0.00039667707065175334,400
4,37.274549098196395,407.0850997085245,interface_ae,-9.109547016810613e-05,-2.417245146964144e-06,-0.00020484261062852238,0.0003660129957575275,400
4,37.274549098196395,407.0850997085245,interface_ec,-0.00014557498989845283,0.0003356907044076816,-0.00019610546733464458,0.0005460041763287447,400
4,37.4749498997996,400.7893086286914,anode,-0.00047028459111850014,-0.00018129200201470985,0.00010979332537647686,0.00045270219183159366,400
4,37.4749498997996,400.7893086286914,electrolyte,-5.355138199822705e-05,-0.00013467793709397166,6.653819627341057e-06,0.00011801070944899417,400
4,37.4749498997996,400.7893086286914,cathode,-0.0005146351806279445,0.00015612718797796817,5.751525471054662e-05,0.0006160337857009929,400
4,37.4749498997996,400.7893086286914,interface_ae,-0.00010645385361480436,0.00031566523886075016,-0.0001691244148429558,0.0004799895313351509,400
4,37.4749498997996,400.7893086286914,interface_ec,0.0003547113865899827,6.0235985000400534e-05,-5.0482888481726005e-05,0.00034018776872754596,400
4,37.675350701402806,400.7893086286914,anode,3.114958619457644e-06,-2.4463937897824074e-05,0.00018304243446265754,0.00031811631492417844,400
4,37.675350701402806,400.7893086286914,electrolyte,-0.0003174785778404642,-0.00022405938540326562,0.00015544543381087195,0.00039032172527699006,400
4,37.675350701402806,400.7893086286914,cathode,-0.00016958343132520665,0.0002778754150449359,0.00025491539745130644,0.0005899507881204459,400
4,37.675350701402806,400.7893086286914,interface_ae,-0.00010419981946857809,0.0002182965832944168,-0.00017305384220097874,0.00041364279532798574,400
4,37.675350701402806,400.7893086286914,interface_ec,0.00024275867803425475,7.371508111785533e-05,7.095574232403227e-05,0.000248142832675167,400
4,37.875751503006015,407.0850997085245,anode,-0.00011219297496258648,-0.00042906817501932456,7.548780971242571e-05,0.00040699331158352187,400
4,37.875751503006015,407.0850997085245,electrolyte,-0.0005694252477841646,-5.3048804407039525e-05,0.00014117727996299545,0.0005971976498632521,400
4,37.875751503006015,407.0850997085245,cathode,0.00013904796740994284,0.000653759643087771,0.00015376637288726602,0.0006532720343913393,400
4,37.875751503006015,407.0850997085245,interface_ae,-4.950795253121529e-05,0.00013285634332692057,-7.105605381665392e-06,0.00016380097603022254,400
4,37.875751503006015,407.0850997085245,interface_ec,-0.0003279914650373805,-0.000157457345573817,-8.411413604697904e-05,0.00031929941278626767,400
4,38.07615230460922,419.57739348193854,anode,-0.0003857261258144877,0.0002056170617614421,-3.73607766979561e-05,0.0005239869996138126,400
4,38.07615230460922,419.57739348193854,electrolyte,-0.0003648264160199025,0.00023774935080073394,0.00010738091170364391,0.000557630963801962,400
4,38.07615230460922,419.57739348193854,cathode,0.0002932503687017599,9.414856872325818e-05,8.871632276277822e-05,0.00030143388498834377,400
4,38.07615230460922,419.57739348193854,interface_ae,0.000609318153219135,0.0004366853092306151,-0.00012369183756521414,0.0005846207292105437,400
4,38.07615230460922,419.57739348193854,interface_ec,0.00048823227472948196,0.0007031084335623523,-8.949435879175952e-05,0.0006430238831497968,400
4,38.276553106212425,438.069179013592,anode,0.0010671773603960375,0.00021443694466224665,4.861052001020432e-06,0.0009777931062763512,400
4,38.276553106212425,438.069179013592,electrolyte,6.473857429324333e-05,0.0002934928659069508,-0.0002613332538952912,0.0005255606952676783,400
4,38.276553106212425,438.069179013592,cathode,0.0002739830190112919,4.44898647532918e-05,2.0300752183843635e-05,0.000257085466196529,400
4,38.276553106212425,438.069179013592,interface_ae,0.001086366218234027,0.000863629060878517,-0.00035574890412883384,0.001169402037990789,400
4,38.276553106212425,438.069179013592,interface_ec,0.001400652901459719,0.0007584111869304122,-0.00011647487107395003,0.0012310338891071255,400
4,38.476953907815634,462.268829799194,anode,0.0007632299183880133,0.0006615347580379292,-0.00010002730754273455,0.0007384181821904839,400
4,38.476953907815634,462.268829799194,electrolyte,0.0004952568087969807,0.00018825785101911216,-6.065429890350341e-05,0.0004455571506886934,400
4,38.476953907815634,462.268829799194,cathode,0.0005102078019642057,0.00017887642436522564,2.187547053230758e-05,0.00044997804136787133,400
4,38.476953907815634,462.268829799194,interface_ae,0.0014645546077982172,0.00125008513913973,0.00012298878789528513,0.0013864320500831173,400
4,38.476953907815634,462.268829799194,interface_ec,0.0013862668398477763,0.0009358024108517474,0.0001259495796646783,0.0012440980437478503,400
4,38.677354709418836,491.7947028896842,anode,0.0006483838212787876,0.0006270918059929189,-0.0001446300107134867,0.0006854218054411375,400
4,38.677354709418836,491.7947028896842,electrolyte,0.0009665797379695823,0.0008290150364356434,7.309578555674922e-05,0.0009144737095167931,400
4,38.677354709418836,491.7947028896842,cathode,0.0013772180427949073,0.0006335083860230665,5.228926797914706e-05,0.0011974079236859606,400
4,38.677354709418836,491.7947028896842,interface_ae,0.001862598021301513,0.001869192428509467,-1.728363488282964e-05,0.0018661440933336892,400
4,38.677354709418836,491.7947028896842,interface_ec,0.001784667483293438,0.0017774003529122898,0.00013142537507868492,0.0017955331557686538,400
4,38.877755511022045,526.1811576285245,anode,0.001250579754273991,0.001215098114413114,-0.0001587660950462479,0.0012635094249420784,400
4,38.877755511022045,526.1811576285245,electrolyte,0.00013384979815178957,0.0008109157773138393,9.133580343819478e-05,0.0007694062257477032,400
4,38.877755511022045,526.1811576285245,cathode,0.001529703355454049,0.0006485523004925168,-5.262741451147118e-05,0.0013329773989776248,400
4,38.877755511022045,526.1811576285245,interface_ae,0.0019464456348951323,0.0026310678007701437,-0.0001629081873177129,0.0023810827743728277,400
4,38.877755511022045,526.1811576285245,interface_ec,0.0029885710457484256,0.0025039183615791316,-0.00013508855288040924,0.002787969313310981,400
4,39.078156312625254,564.8858990830106,anode,0.0015563523540742983,0.0017168707284523298,-0.00012664860557746064,0.0016570882765456856,400
4,39.078156312625254,564.8858990830106,electrolyte,0.0011849466862285365,0.0008362228223018376,-0.000267173762169845,0.0011517956646398572,400
4,39.078156312625254,564.8858990830106,cathode,0.001227047433717284,0.0016797649380848076,-8.42336619495938e-05,0.0015124120882558131,400
4,39.078156312625254,564.8858990830106,interface_ae,0.00324721116594408,0.003109926546093707,0.0001760163414948667,0.0031953686062813737,400
4,39.078156312625254,564.8858990830106,interface_ec,0.0033313746946097766,0.0027989877822926132,7.502145496708256e-05,0.0031023857833890173,400
4,39.278557114228455,607.2985303593135,anode,0.0019768524282222327,0.0020932890506865985,8.278289577332309e-05,0.0020426061914548227,400
4,39.278557114228455,607.2985303593135,electrolyte,0.0016551587750404835,0.0006524004448871761,-0.00011420329047134109,0.0014575588374232508,400
4,39.278557114228455,607.2985303593135,cathode,0.0021204541232850652,0.0020563092205850533,7.211168696519759e-05,0.002092850740084435,400
4,39.278557114228455,607.2985303593135,interface_ae,0.004740092700671584,0.003498927997561699,-7.463587474638207e-05,0.004259394842352722,400
4,39.278557114228455,607.2985303593135,interface_ec,0.004635981184101414,0.0037363907232312124,0.00019014772667819605,0.004270780790502165,400
4,39.478957915831664,652.7501789261289,anode,0.0029932454585534334,0.002123498013388929,-0.00019996925321667098,0.002689344624604651,400
4,39.478957915831664,652.7501789261289,electrolyte,0.0013037975777652237,0.0017024791150380089,0.00017828952346305118,0.0015728943311852435,400
4,39.478957915831664,652.7501789261289,cathode,0.003461435700066397,0.002723564598699882,0.00017442578663024786,0.003172250078529963,400
4,39.478957915831664,652.7501789261289,interface_ae,0.005057923803974763,0.004100214653182081,0.000127511899862633,0.0046588150818708774,400
4,39.478957915831664,652.7501789261289,interface_ec,0.005357232929442689,0.004479372710507506,5.810572209494848e-05,0.004977731448841652,400
4,39.67935871743487,700.5240451340578,anode,0.003552982163779126,0.003322767599141483,0.00019424783772254336,0.0034600476047713315,400
4,39.67935871743487,700.5240451340578,electrolyte,0.0022669344216405085,0.0020418589303165223,7.710938286371637e-05,0.0021673155840440488,400
4,39.67935871743487,700.5240451340578,cathode,0.0033176755994312784,0.0031645919436593564,-0.00020917426032888924,0.0032640137396849843,400
4,39.67935871743487,700.5240451340578,interface_ae,0.006537015199963761,0.004929363692203936,4.287049301920994e-05,0.005900286636257952,400
4,39.67935871743487,700.5240451340578,interface_ec,0.005967301546747148,0.005453737269056074,-5.088783889186331e-06,0.005727819899025776,400
4,39.879759519038075,749.8667065742782,anode,0.0035450403381551993,0.0035461569460691128,-8.668811652490658e-05,0.003548776571538056,400
4,39.879759519038075,749.8667065742782,electrolyte,0.0027134109622639576,0.002082104610737277,5.931314780820572e-05,0.002461444156047734,400
4,39.879759519038075,749.8667065742782,cathode,0.0037361964390996358,0.0032431473873353604,-6.879579541516267e-05,0.003517716826562895,400
4,39.879759519038075,749.8667065742782,interface_ae,0.0074992515701603245,0.006659117828516072,-0.00012077576276143143,0.007119549486438222,400
4,39.879759519038075,749.8667065742782,interface_ec,0.007565295269484862,0.0055050014768567145,-0.00017912841016384337,0.006781447714558952,400
5,40.08016032064128,800.0,anode,0.004512366463143967,0.003674247393167783,-0.00023753825846813698,0.0041774714316665795,400
5,40.08016032064128,800.0,electrolyte,0.002923899673641339,0.0023157796906816412,5.6910809640766454e-05,0.0026740669244142146,400
5,40.08016032064128,800.0,cathode,0.005007141805836454,0.004159685097951759,9.866447642255604e-05,0.004644945646778994,400
5,40.08016032064128,800.0,interface_ae,0.008619140314127319,0.006987901983508276,0.0001586721271231194,0.007935122980791447,400
5,40.08016032064128,800.0,interface_ec,0.008463266360165662,0.007063321110371272,-2.668768137065972e-05,0.007857528322817924,400
5,40.28056112224449,850.1332934257217,anode,0.005127756245319707,0.004466130478345532,5.160808823451997e-05,0.004831869958161831,400
5,40.28056112224449,850.1332934257217,electrolyte,0.0032554355757538895,0.002408944075955355,-7.315580594231168e-05,0.002928270038764701,400
5,40.28056112224449,850.1332934257217,cathode,0.005723899422539733,0.004740279628262544,0.00031125975590228123,0.005328324280063646,400
5,40.28056112224449,850.1332934257217,interface_ae,0.010076917590118048,0.008607735187864233,-0.00020818028256837026,0.009435462476577932,400
5,40.28056112224449,850.1332934257217,interface_ec,0.009952037243485616,0.008248515226787177,-8.264727053073743e-05,0.009220195752574836,400
5,40.480961923847694,899.475954865942,anode,0.006044116060551062,0.005378218200016053,7.512473865063173e-05,0.005741683214842329,400
5,40.480961923847694,899.475954865942,electrolyte,0.0032327895436589753,0.0031946196055301405,-9.563813131139457e-05,0.0032181407298912156,400
5,40.480961923847694,899.475954865942,cathode,0.00605871639408059,0.005003649719389468,-3.282993776034385e-05,0.0056064332411601536,400
5,40.480961923847694,899.475954865942,interface_ae,0.0110185535176165,0.008858320415393925,0.0002917792611415399,0.010125605662914584,400
5,40.480961923847694,899.475954865942,interface_ec,0.010242354804315998,0.008991078226362238,5.553178349126114e-05,0.009678055469939767,400
5,40.6813627254509,947.2498210738712,anode,0.006742292102817048,0.005551805458781975,-8.60860545023136e-06,0.006232926670113452,400
5,40.6813627254509,947.2498210738712,electrolyte,0.003953913773115383,0.0031868155921522296,0.00020897718869023586,0.003649636704879701,400
5,40.6813627254509,947.2498210738712,cathode,0.0068188025871559355,0.0058437954802551765,-0.00014492350850556254,0.0063922871546914905,400
5,40.6813627254509,947.2498210738712,interface_ae,0.01179677960787391,0.009957366930300065,-0.00015084020635341985,0.01099620663926699,400
5,40.6813627254509,947.2498210738712,interface_ec,0.01192864539037935,0.009886212987582332,9.831057447753554e-05,0.01105122861992231,400
5,40.88176352705411,992.7014696406861,anode,0.0067913601668199335,0.006561267174187544,-0.00013444989878880925,0.006683345093720058,400
5,40.88176352705411,992.7014696406861,electrolyte,0.004214700988644933,0.0037641315374785027,-8.559606453001691e-05,0.00401119456041635,400
5,40.88176352705411,992.7014696406861,cathode,0.007368158228718119,0.005676799910994873,0.00021781765487738404,0.006695564690766837,400
5,40.88176352705411,992.7014696406861,interface_ae,0.012806596523728548,0.010703075560212334,-4.487726586411517e-05,0.011895411410016292,400
5,40.88176352705411,992.7014696406861,interface_ec,0.013045027525056638,0.010706662395047866,-0.00011240365341341662,0.012048840644229272,400
5,41.08216432865731,1035.1141009169892,anode,0.007554908231728749,0.006125075195522299,0.00027308158619127233,0.006967246528162081,400
5,41.08216432865731,1035.1141009169892,electrolyte,0.004275880329054507,0.004028413936310206,3.1420512547165884e-05,0.004158030455506778,400
5,41.08216432865731,1035.1141009169892,cathode,0.00732600899585928,0.0064763774165894706,0.00011760041689661219,0.0069432962351587465,400
5,41.08216432865731,1035.1141009169892,interface_ae,0.013661986179281075,0.01201862877659123,0.00015322730891727956,0.012921663964724852,400
5,41.08216432865731,1035.1141009169892,interface_ec,0.013994139036204466,0.011522797861154023,-0.00016197636716722304,0.01293977865301917,400
5,41.28256513026052,1073.8188423714755,anode,0.007901749826848867,0.006931824474389065,8.186800702985333e-05,0.007465547879514263,400
5,41.28256513026052,1073.8188423714755,electrolyte,0.0040652604751721935,0.0040067881516267535,2.371338379847766e-05,0.004036550940039134,400
5,41.28256513026052,1073.8188423714755,cathode,0.00800256283156304,0.007260334343893813,6.326701113763063e-05,0.007659255383989222,400
5,41.28256513026052,1073.8188423714755,interface_ae,0.01494754456764814,0.012306525789835222,0.00014062162387603873,0.013819791830000126,400
5,41.28256513026052,1073.8188423714755,interface_ec,0.015045006913582128,0.01276482198072209,-0.00016382123901430995,0.014047298333619439,400
5,41.48296593186373,1108.2052971103158,anode,0.008422360742061074,0.007120144618890281,7.338818026144913e-05,0.007853683901354264,400
5,41.48296593186373,1108.2052971103158,electrolyte,0.00516334314627657,0.003962153715598657,1.017577708754065e-05,0.004679863878321773,400
5,41.48296593186373,1108.2052971103158,cathode,0.007892485365676948,0.007656277532265787,-7.685613610150403e-05,0.007778211434288933,400
5,41.48296593186373,1108.2052971103158,interface_ae,0.015313993599536172,0.01290975434074898,0.00017190413625201224,0.014267757877658615,400
5,41.48296593186373,1108.2052971103158,interface_ec,0.014445982485163609,0.012997666152247626,-1.587281362465468e-05,0.013779057791525563,400
5,41.68336673346693,1137.731170200806,anode,0.008716683126132165,0.008042725899738909,-0.00013309941882836567,0.00840316951199042,400
5,41.68336673346693,1137.731170200806,electrolyte,0.005395657044576339,0.00449637629930662,0.00018922788788032738,0.00501767195957325,400
5,41.68336673346693,1137.731170200806,cathode,0.008652617316976419,0.007304967266311092,0.00016441048612160977,0.008068726005468752,400
5,41.68336673346693,1137.731170200806,interface_ae,0.016062589668836443,0.01308126308088377,-8.089575216949056e-05,0.014799557486983384,400
5,41.68336673346693,1137.731170200806,interface_ec,0.016050908072491828,0.013796073551350775,-0.00010188459797894325,0.015051741708709744,400
5,41.88376753507014,1161.9308209864078,anode,0.00826889305489181,0.007928661329782469,-0.00018304810349159634,0.008110334768415791,400
5,41.88376753507014,1161.9308209864078,electrolyte,0.00472831410746813,0.0036837906073738835,0.00012209712902966116,0.004307420523562276,400
5,41.88376753507014,1161.9308209864078,cathode,0.009181755086958383,0.007703997459847683,0.00020835365444441423,0.008546942096873934,400
5,41.88376753507014,1161.9308209864078,interface_ae,0.01664890313821333,0.01447393988612702,-0.00020891032082504945,0.01567917787726189,400
5,41.88376753507014,1161.9308209864078,interface_ec,0.01644734054612022,0.013504035860826042,-3.440734977832008e-05,0.015191183976822101,400
5,42.08416833667335,1180.4226065180615,anode,0.009290486522086736,0.008148294677663148,6.834582171284747e-06,0.00877532701526437,400
5,42.08416833667335,1180.4226065180615,electrolyte,0.005649980387110405,0.004854546548724133,0.00032323930160747127,0.005326749357550704,400
5,42.08416833667335,1180.4226065180615,cathode,0.009270482281630901,0.007678003776284314,3.691254229746132e-05,0.00858596956456674,400
5,42.08416833667335,1180.4226065180615,interface_ae,0.016616444292648268,0.014773147286202572,-4.248270584178488e-05,0.015775941718424658,400
5,42.08416833667335,1180.4226065180615,interface_ec,0.016687455390427933,0.014187164339326276,0.00010776261352074613,0.015589546680773456,400
5,42.28456913827655,1192.9149002914755,anode,0.009467654708528261,0.007895231936933934,0.00024980278764352964,0.008798241159084416,400
5,42.28456913827655,1192.9149002914755,electrolyte,0.005293553349841803,0.004728513478944177,9.784592274153456e-05,0.005037720704419064,400
5,42.28456913827655,1192.9149002914755,cathode,0.009025578270372585,0.008231810133394827,-0.0001582661513220674,0.008660372916049586,400
5,42.28456913827655,1192.9149002914755,interface_ae,0.017373796680546075,0.0142691222657758,0.00010391535477732907,0.016049306137028055,400
5,42.28456913827655,1192.9149002914755,interface_ec,0.017458711766184288,0.014816348527041332,3.769749723571536e-05,0.016299101360271715,400
5,42.48496993987976,1199.2106913713087,anode,0.009521138013576793,0.007979023179086895,0.00022065520362256558,0.008859659430306874,400
5,42.48496993987976,1199.2106913713087,electrolyte,0.005384626273548868,0.004444183791588287,9.98053402549245e-05,0.004984434189391278,400
5,42.48496993987976,1199.2106913713087,cathode,0.009351687255499754,0.007866930002747508,-0.0002165406393254647,0.008712877979843478,400
5,42.48496993987976,1199.2106913713087,interface_ae,0.017118077981782113,0.01464869378640828,3.646375914910481e-05,0.01602683155488133,400
5,42.48496993987976,1199.2106913713087,interface_ec,0.017548342806910113,0.014831577670676966,-2.8630832932976967e-05,0.016360100284276622,400
5,42.68537074148297,1199.2106913713087,anode,0.009531069593541787,0.008304996292661902,0.00019088552443928541,0.008987105497818471,400
5,42.68537074148297,1199.2106913713087,electrolyte,0.00563236909944412,0.004614564357396164,-0.00014892990016283182,0.0052051317497655335,400
5,42.68537074148297,1199.2106913713087,cathode,0.009156966717132035,0.008351829953600403,8.669677854593357e-05,0.008783406122597669,400
5,42.68537074148297,1199.2106913713087,interface_ae,0.017436159991152264,0.01463491045967161,0.00021104021188376258,0.016222122335925664,400
5,42.68537074148297,1199.2106913713087,interface_ec,0.01711771538524482,0.014960089064739389,-5.811434248431453e-06,0.01614738367059395,400
5,42.88577154308617,1192.9149002914755,anode,0.009332473574093905,0.008265491075168378,6.144541780259904e-05,0.008848008550348384,400
5,42.88577154308617,1192.9149002914755,electrolyte,0.005657496129820407,0.004742227183351139,-5.683962257524631e-06,0.0052599378421412935,400
5,42.88577154308617,1192.9149002914755,cathode,0.010231490401358838,0.0084430089765319,0.0001084240342478268,0.009466704728813051,400
5,42.88577154308617,1192.9149002914755,interface_ae,0.01716050159375689,0.014860064729530493,7.769921645871777e-05,0.016134320120334947,400
5,42.88577154308617,1192.9149002914755,interface_ec,0.017134823272128084,0.014466848271771717,-1.2137600649403229e-05,0.01596888916011615,400
5,43.08617234468938,1180.4226065180615,anode,0.008413943557453321,0.00802349083827352,-7.327141201655396e-05,0.00822664928584833,400
5,43.08617234468938,1180.4226065180615,electrolyte,0.005940759245111295,0.004649317730025992,-0.00017834451293024427,0.0054206751213178766,400
5,43.08617234468938,1180.4226065180615,cathode,0.009350107231978303,0.007646474260965476,7.101111235686996e-05,0.008626288154284303,400
5,43.08617234468938,1180.4226065180615,interface_ae,0.016944412510091978,0.014615910945004092,-0.0001186322687541848,0.015909813469902896,400
5,43.08617234468938,1180.4226065180615,interface_ec,0.016867330729658576,0.013919052517043621,0.00010522421728870716,0.015604576991227718,400
5,43.28657314629259,1161.9308209864078,anode,0.009298831205968928,0.00792043588036963,2.4285470354116797e-07,0.008691994603071627,400
5,43.28657314629259,1161.9308209864078,electrolyte,0.005457947614141491,0.005014790117361704,-4.276413855630209e-05,0.00525093673910343,400
5,43.28657314629259,1161.9308209864078,cathode,0.009184763406949917,0.0074458564843069355,-0.00013023914423974985,0.008453585875837288,400
5,43.28657314629259,1161.9308209864078,interface_ae,0.0164870497212344,0.014320229937321018,-3.844212363773586e-05,0.015517663624485766,400
5,43.28657314629259,1161.9308209864078,interface_ec,0.01638693077451277,0.013866984299959135,-8.021350062664845e-05,0.01528419918171539,400
5,43.48697394789579,1137.731170200806,anode,0.008941265479122317,0.007075680642494626,0.00019214093650000912,0.008176594662273756,400
5,43.48697394789579,1137.731170200806,electrolyte,0.004964491501966803,0.004606071508326238,-0.00019049978960908136,0.004806676425754249,400
5,43.48697394789579,1137.731170200806,cathode,0.009053426081573536,0.007726441318392568,5.7630310800884475e-05,0.008468861651341704,400
5,43.48697394789579,1137.731170200806,interface_ae,0.015636664719797473,0.01361960874176622,-0.00017745842771015833,0.014735272132167385,400
5,43.48697394789579,1137.731170200806,interface_ec,0.015859164299808555,0.013853568215173395,0.00011950528906061129,0.014958986418206439,400
5,43.687374749499,1108.2052971103158,anode,0.008503018448085918,0.006931252057748368,9.6838156826129e-05,0.007838057577424081,400
5,43.687374749499,1108.2052971103158,electrolyte,0.0049632514510816175,0.003517726838337251,0.00011739447394747771,0.004426087282067094,400
5,43.687374749499,1108.2052971103158,cathode,0.008491193715162881,0.007584429404920142,-0.00016429057782642068,0.008081092438053909,400
5,43.687374749499,1108.2052971103158,interface_ae,0.014344223273624022,0.013086374412448953,4.373455150229591e-05,0.013758699004809753,400
5,43.687374749499,1108.2052971103158,interface_ec,0.014790032929300886,0.012709099391185415,0.0004132826615579852,0.013885628922107823,400
5,43.88777555110221,1073.8188423714755,anode,0.007994142924211564,0.007092239885101914,-9.759897410525754e-05,0.007585406058049426,400
5,43.88777555110221,1073.8188423714755,electrolyte,0.0040896410269443805,0.0039581446380715065,-3.9840684042915774e-05,0.004026095359407024,400
5,43.88777555110221,1073.8188423714755,cathode,0.007965862636857194,0.006838559941537131,3.964024074684548e-05,0.007466629396262697,400
5,43.88777555110221,1073.8188423714755,interface_ae,0.01450945190984773,0.011992112095556083,7.292771873429082e-05,0.013429517074156893,400
5,43.88777555110221,1073.8188423714755,interface_ec,0.013969675468627145,0.011756206708755032,0.00011087707420523517,0.013006410634417468,400
5,44.08817635270541,1035.1141009169892,anode,0.007773475292644477,0.006460945219831079,-0.00020931727571326078,0.007216520934027833,400
5,44.08817635270541,1035.1141009169892,electrolyte,0.0042334254242167016,0.0037001048761501343,-0.00023938409528611698,0.0040150296508469335,400
5,44.08817635270541,1035.1141009169892,cathode,0.0073996606135969005,0.006673862930806293,0.00021409580464338244,0.007074504504675477,400
5,44.08817635270541,1035.1141009169892,interface_ae,0.013592634154009402,0.011887641399130752,-0.0002871090105881201,0.012835055727908318,400
5,44.08817635270541,1035.1141009169892,interface_ec,0.013916299952141052,0.011419510368417677,4.61018425061955e-05,0.012851368252389398,400
5,44.28857715430862,992.7014696406861,anode,0.0070380919102163205,0.006441679193270148,-0.0001311653472509877,0.006763464451910496,400
5,44.28857715430862,992.7014696406861,electrolyte,0.0043371921767533525,0.0034427215053731224,-2.3745821701449562e-05,0.003966549401425509,400
5,44.28857715430862,992.7014696406861,cathode,0.00705726146774047,0.005791853058986764,-2.1148448860007365e-06,0.006517353241819361,400
5,44.28857715430862,992.7014696406861,interface_ae,0.012783557277602275,0.010954371057125016,1.2675771853929385e-05,0.011974232088264635,400
5,44.28857715430862,992.7014696406861,interface_ec,0.013041750109122492,0.011159051567417208,-0.00015759349827417017,0.01221280569435627,400
5,44.48897795591183,947.2498210738713,anode,0.006827629603063687,0.005226047246820531,8.817838322066025e-05,0.006186267632024413,400
5,44.48897795591183,947.2498210738713,electrolyte,0.004016670382927959,0.0026827413678907827,1.3946886979411448e-05,0.0035433935657205574,400
5,44.48897795591183,947.2498210738713,cathode,0.0064264490188783606,0.005354318597572875,0.0002026278496048508,0.005973432285941601,400
5,44.48897795591183,947.2498210738713,interface_ae,0.011624492393004395,0.009805593636180863,1.1354241000764015e-05,0.010830227517306229,400
5,44.48897795591183,947.2498210738713,interface_ec,0.012026273059085147,0.01000501213911324,0.0001749555818503878,0.011157971680278853,400
5,44.68937875751503,899.4759548659421,anode,0.006153004156980533,0.00444119134371318,-7.942004452605123e-05,0.005502353545338304,400
5,44.68937875751503,899.4759548659421,electrolyte,0.003327779054256085,0.003115690217481182,-0.00039372255845611674,0.0032982362982480026,400
5,44.68937875751503,899.4759548659421,cathode,0.006758414371006622,0.005253962568100872,2.233152058765366e-05,0.006146000930905024,400
5,44.68937875751503,899.4759548659421,interface_ae,0.011143150940030095,0.009873474747182484,0.00013061199668826048,0.010568106525113693,400
5,44.68937875751503,899.4759548659421,interface_ec,0.011073324554045836,0.009209585538678011,-2.122886300504224e-05,0.01026915793964171,400
5,44.88977955911824,850.1332934257218,anode,0.005258860887907192,0.004343525995428,-0.0001030521149549246,0.0048694656948729395,400
5,44.88977955911824,850.1332934257218,electrolyte,0.002745766264677158,0.002655531660677538,-0.00025270013658395803,0.002737002668891303,400
5,44.88977955911824,850.1332934257218,cathode,0.005458874478351776,0.00458046041052966,2.2040294758003167e-05,0.005077127832984699,400
5,44.88977955911824,850.1332934257218,interface_ae,0.009566239666989594,0.009187505378350405,0.00020401738502704692,0.009389259147165274,400
5,44.88977955911824,850.1332934257218,interface_ec,0.009349516387970176,0.008334307693524324,-9.120092144059853e-05,0.00888692004467717,400
5,45.09018036072145,800.0,anode,0.004495656081987776,0.003677978378662819,6.483250361388809e-05,0.004149232754925222,400
5,45.09018036072145,800.0,electrolyte,0.002595585929479128,0.0026703478072075608,0.00014906733217956585,0.0026463880558478697,400
5,45.09018036072145,800.0,cathode,0.005212174315563435,0.0038242839701777684,7.130484160380152e-05,0.004676999832895518,400
5,45.09018036072145,800.0,interface_ae,0.00882973626499269,0.00720174654746881,-0.00011576579360893126,0.008141257786039236,400
5,45.09018036072145,800.0,interface_ec,0.009122856199732791,0.007412248762719616,9.539516260676069e-05,0.008400854604958322,400
5,45.29058116232465,749.8667065742783,anode,0.003951777675342961,0.0032028550671009803,-8.541746617381656e-05,0.0036386459920205723,400
5,45.29058116232465,749.8667065742783,electrolyte,0.002411860529802949,0.0017624409020717512,-1.4767212975574504e-06,0.002161599880370338,400
5,45.29058116232465,749.8667065742783,cathode,0.0036918489224707896,0.003232626180316677,0.00010063668724153125,0.0034893604336498946,400
5,45.29058116232465,749.8667065742783,interface_ae,0.00773825801808778,0.00630598970308769,-0.00015266464636154293,0.0071357331361813535,400
5,45.29058116232465,749.8667065742783,interface_ec,0.007248899796546609,0.006311572258921355,9.66777737467937e-05,0.006830708422424775,400
5,45.49098196392786,700.5240451340582,anode,0.003884762249011995,0.002916385739722802,-0.00017302386389771756,0.003515256756114619,400
5,45.49098196392786,700.5240451340582,electrolyte,0.002184021407298307,0.001541057577359891,-7.773789582918036e-05,0.0019486494725286512,400
5,45.49098196392786,700.5240451340582,cathode,0.004003871368739809,0.003313479888937123,2.3696146837717754e-05,0.0037074347163125495,400
5,45.49098196392786,700.5240451340582,interface_ae,0.0061097436745618395,0.005581040438902504,0.00015939859361812896,0.005869793639081136,400
5,45.49098196392786,700.5240451340582,interface_ec,0.006378629275165995,0.005922955695657321,0.00019391179342773102,0.0061725831187424505,400
5,45.69138276553107,652.7501789261288,anode,0.003532121996756588,0.0026696247630059195,8.810875497090183e-05,0.0031932164481654583,400
5,45.69138276553107,652.7501789261288,electrolyte,0.0021935074389822285,0.001638081745731159,-7.51851161685319e-05,0.001979545554092037,400
5,45.69138276553107,652.7501789261288,cathode,0.0028984392961551872,0.0026496183111786357,-0.0001935842132919328,0.002802515701723145,400
5,45.69138276553107,652.7501789261288,interface_ae,0.005416426190195125,0.004969457420552801,-0.0003286880776747921,0.005238376462415996,400
5,45.69138276553107,652.7501789261288,interface_ec,0.005919748495342737,0.004977205550694672,-6.896469237457144e-05,0.005510577162024421,400
5,45.89178356713427,607.2985303593139,anode,0.0026505996126733092,0.0021153893277368993,0.00018449855526580245,0.00244859537950636,400
5,45.89178356713427,607.2985303593139,electrolyte,0.0017458946553461792,0.0008134050386830147,8.80893620196265e-05,0.0015208338508712967,400
5,45.89178356713427,607.2985303593139,cathode,0.002425894008218792,0.0021392947808204312,-0.00010922578514547232,0.0023038299251839944,400
5,45.89178356713427,607.2985303593139,interface_ae,0.005002089376497431,0.004118019563367777,-0.00011096567459594508,0.0046278744027288855,400
5,45.89178356713427,607.2985303593139,interface_ec,0.00407726507368811,0.003690299228103649,6.517539691369585e-05,0.0038998479735680297,400
5,46.09218436873748,564.8858990830109,anode,0.002050692542179998,0.0020577760180771846,0.00011848795832712782,0.002064469495580914,400
5,46.09218436873748,564.8858990830109,electrolyte,0.0014450720013069484,0.0010791277197270462,-0.00020839480953164851,0.0013504138849819314,400
5,46.09218436873748,564.8858990830109,cathode,0.0019199212296520608,0.0019998630926193113,-7.728439278696908e-06,0.0019611602422273324,400
5,46.09218436873748,564.8858990830109,interface_ae,0.0037124625307801604,0.0029316806125902406,-0.00015447177728127674,0.003400729248287422,400
5,46.09218436873748,564.8858990830109,interface_ec,0.0035245322009792033,0.003120019340073877,-9.835315791921655e-05,0.003345035024842658,400
5,46.29258517034068,526.1811576285247,anode,0.001443460518085296,0.001005208835215157,0.00016788673763461437,0.0013143826207093878,400
5,46.29258517034068,526.1811576285247,electrolyte,0.0007949313761232629,0.001186604551427577,0.00022931217758113625,0.0011200130756354688,400
5,46.29258517034068,526.1811576285247,cathode,0.0014898601021257735,0.000984513188046747,-0.00031288468166000056,0.0014198073441524142,400
5,46.29258517034068,526.1811576285247,interface_ae,0.002283901882868097,0.001904535606590116,0.0002067704441192257,0.0021498728518545705,400
5,46.29258517034068,526.1811576285247,interface_ec,0.002760260380944218,0.00243356741128731,-0.00033306315134026885,0.0026752198404054062,400
5,46.49298597194389,491.79470288968423,anode,0.0007421465059110324,0.0012024299024086652,4.3016116857387925e-05,0.0010534662380424903,400
5,46.49298597194389,491.79470288968423,electrolyte,0.0005984013366221103,0.0007156311897736578,0.0002453696709203722,0.000789047733145262,400
5,46.49298597194389,491.79470288968423,cathode,0.0010352236956150955,0.0009571169102721999,2.888953780969577e-05,0.000999717255572226,400
5,46.49298597194389,491.79470288968423,interface_ae,0.002700398472999377,0.001055543865728895,0.0001024834522183212,0.0023637775479500717,400
5,46.49298597194389,491.79470288968423,interface_ec,0.0019483249077894605,0.0018553822629098565,-9.860588309920865e-05,0.001911202546063757,400
5,46.6933867735471,462.2688297991939,anode,0.0007325364483327918,0.0008485652377914263,0.0004669365301565761,0.0011354104170024281,400
5,46.6933867735471,462.2688297991939,electrolyte,0.0006782926654149787,0.00011607985789605113,-6.356395230340549e-05,0.0006379188704286055,400
5,46.6933867735471,462.2688297991939,cathode,0.0006112017250751706,9.644911216277329e-05,-4.951352875521559e-05,0.0005755648398098833,400
5,46.6933867735471,462.2688297991939,interface_ae,0.0015648554482091117,0.0007609860793901616,0.00015727239765758885,0.0013824771230169647,400
5,46.6933867735471,462.2688297991939,interface_ec,0.0014913391699878898,0.0009229857185218888,-2.122944560067711e-05,0.001304171180959755,400
5,46.8937875751503,438.0691790135921,anode,0.0009363266904554148,0.000608369969990399,1.3175482347221724e-06,0.0008229178931532544,400
5,46.8937875751503,438.0691790135921,electrolyte,0.00019517925800684925,0.00024949433626637077,-7.676453369134551e-05,0.00026329570458757717,400
5,46.8937875751503,438.0691790135921,cathode,-0.0001745947035525994,0.0010009589990990584,2.3298749879910218e-05,0.0010994511645998266,400
5,46.8937875751503,438.0691790135921,interface_ae,0.0009417384462303502,0.0006815778017264781,-0.00011026752010868818,0.0008637293319694668,400
5,46.8937875751503,438.0691790135921,interface_ec,0.0007665169224089579,0.00021913169803125737,0.00034156297470799564,0.0009042093428616619,400
5,47.09418837675351,419.5773934819386,anode,-0.00013542487774345557,-0.00010990047163838011,-6.603888065796006e-05,0.00016916901169617744,400
5,47.09418837675351,419.5773934819386,electrolyte,0.0005234644718292834,0.0001208381909963309,-0.00018542036940456935,0.0005731531750016367,400
5,47.09418837675351,419.5773934819386,cathode,0.000611230230010465,0.0004189896015514181,8.076524358246785e-05,0.0005591284677705132,400
5,47.09418837675351,419.5773934819386,interface_ae,0.0006375919715611259,0.0010777495145031278,0.0003277642342554168,0.0010969007613184317,400
5,47.09418837675351,419.5773934819386,interface_ec,0.00021685709630888525,0.0008466064421717384,5.7475228463835044e-05,0.000768171243305398,400
5,47.294589178356716,407.0850997085245,anode,0.00023474994134361907,-0.0004354132324660483,-2.5557864808229392e-05,0.0005906480018671639,400
5,47.294589178356716,407.0850997085245,electrolyte,-0.0001942513791412978,0.0002905739877337137,0.00016066207506042074,0.0005060120014325647,400
5,47.294589178356716,407.0850997085245,cathode,-0.0005373247088025991,6.565755782566901e-05,0.00016827922571913782,0.0006428544774322523,400
5,47.294589178356716,407.0850997085245,interface_ae,9.703446501009623e-05,0.00034880152414921956,5.2674820144062605e-05,0.00032489433880835246,400
5,47.294589178356716,407.0850997085245,interface_ec,0.0002555362232899176,4.868793722802104e-05,-0.00018248712062035643,0.00039386849661110854,400
5,47.49498997995992,400.7893086286914,anode,-0.0003269873406832114,0.00022085670234924743,2.9187383278324673e-06,0.0004774319918199719,400
5,47.49498997995992,400.7893086286914,electrolyte,-3.602851298132762e-05,-0.0001224706263559919,-4.5778326822112756e-05,0.00013480222229649258,400
5,47.49498997995992,400.7893086286914,cathode,0.0003235452418907386,-9.252227654775572e-05,-0.0002011597069952353,0.0005143663292915548,400
5,47.49498997995992,400.7893086286914,interface_ae,0.00024014459904178622,-4.6971292736641034e-05,4.709379829916466e-06,0.00026687481677024866,400
5,47.49498997995992,400.7893086286914,interface_ec,0.0004993225582995873,8.323539217621972e-06,4.33775509678088e-05,0.0005008802286171781,400
5,47.69539078156313,400.7893086286914,anode,-0.0003442053438452007,-5.784988769263575e-05,9.142890678129017e-05,0.00035635575305957817,400
5,47.69539078156313,400.7893086286914,electrolyte,-0.0004610869597515329,6.49499142754267e-05,1.5118660896720944e-05,0.0004974464353562164,400
5,47.69539078156313,400.7893086286914,cathode,2.185794022052863e-05,0.0003191986176101252,5.016577722727822e-05,0.00032084001986527856,400
5,47.69539078156313,400.7893086286914,interface_ae,0.0004604706358866675,-0.0002835851482554367,2.0388685082752194e-05,0.00065137045665914,400
5,47.69539078156313,400.7893086286914,interface_ec,4.238910229671849e-05,-0.0003062846417037499,0.0001434442503137019,0.000412697234774344,400
5,47.895791583166336,407.0850997085245,anode,0.0007824231882581396,6.716619468180085e-05,7.575316324106503e-05,0.0007624700520473225,400
5,47.895791583166336,407.0850997085245,electrolyte,7.495124070426984e-05,-0.00017191905770643184,-0.0002731140416703024,0.0005213762910164269,400
5,47.895791583166336,407.0850997085245,cathode,-0.00012671084842631524,-0.00034531949725856925,0.00025561531170886765,0.0005362490378174215,400
5,47.895791583166336,407.0850997085245,interface_ae,0.00011850524552715799,2.6306631934359064e-05,0.00013337307371817086,0.0002549180036872758,400
5,47.895791583166336,407.0850997085245,interface_ec,-0.00018348717715263664,-9.997678075285543e-05,1.0210840387293154e-05,0.00016009755579721513,400
5,48.09619238476954,419.57739348193854,anode,0.0005435594192103066,0.0003501949270664096,3.7248771377382325e-05,0.0004815641088121643,400
5,48.09619238476954,419.57739348193854,electrolyte,0.0001604770749443747,0.00023655624787556685,3.0247935769388193e-05,0.0002156263159442946,400
5,48.09619238476954,419.57739348193854,cathode,-7.40629606498182e-05,0.00021351318000571853,-0.00016105329883766287,0.00038039599580546663,400
5,48.09619238476954,419.57739348193854,interface_ae,0.00044719646208011963,0.0002152465618819192,0.00038090724341742916,0.0007650681286095068,400
5,48.09619238476954,419.57739348193854,interface_ec,0.00041090338408435894,-6.183092555008495e-05,-2.0127031601538683e-05,0.00044641514665076534,400
5,48.296593186372746,438.069179013592,anode,0.0006126377718544707,0.0008903148097843957,-8.841785999080776e-05,0.0008037401150900386,400
5,48.296593186372746,438.069179013592,electrolyte,-0.00020824413911194777,0.0004715627185601669,-0.00020708980588494765,0.0007018516613064181,400
5,48.296593186372746,438.069179013592,cathode,0.00032598351571085874,0.0003110194802853404,-1.0445017995016224e-05,0.00031927799986366774,400
5,48.296593186372746,438.069179013592,interface_ae,0.0010290436038158884,0.0004938598420036334,-4.10593878250141e-05,0.0008942497360852703,400
5,48.296593186372746,438.069179013592,interface_ec,0.0008180131608087713,0.000743829513945186,1.4674076206188399e-05,0.000783971639030807,400
5,48.496993987975955,462.268829799194,anode,0.000878027690157102,0.0008882939168443,5.8895117347645196e-05,0.0008890770247509364,400
5,48.496993987975955,462.268829799194,electrolyte,0.0005719574656471235,-0.00010416741271873891,7.534154874852065e-06,0.0006306629941836283,400
5,48.496993987975955,462.268829799194,cathode,0.0008910782219908107,0.0008538244223229139,-0.00010385261613506912,0.0008913856019477894,400
5,48.496993987975955,462.268829799194,interface_ae,0.0011472949411959973,0.0009710255125281226,8.04620849837015e-05,0.001079141330474576,400
5,48.496993987975955,462.268829799194,interface_ec,0.0016551710401398532,0.0010210176829257215,0.00013619434704405733,0.001465522460153912,400
5,48.69739478957916,491.7947028896842,anode,0.0011385803774255883,0.0008990202363260476,-3.170763447269534e-05,0.0010411589616598164,400
5,48.69739478957916,491.7947028896842,electrolyte,0.0008665463296084364,0.0006438518272297418,0.0003413738141471456,0.0009783294547561275,400
5,48.69739478957916,491.7947028896842,cathode,0.0008458690417770129,0.0010917364800837712,-7.938015147172693e-05,0.0010014092634103298,400
5,48.69739478957916,491.7947028896842,interface_ae,0.0017219794863205851,0.0016820906039441098,2.06028719110554e-05,0.001702759546164565,400
5,48.69739478957916,491.7947028896842,interface_ec,0.002858217648935206,0.0016301070003496409,-0.0001695268094227025,0.002500734768135268,400
5,48.897795591182366,526.1811576285245,anode,0.0015960771067906093,0.0006646557965470392,-1.3793517390639878e-05,0.0013888694471786299,400
5,48.897795591182366,526.1811576285245,electrolyte,0.0008880756880882194,0.000989158002773284,0.00014604333741417703,0.0009760383073897032,400
5,48.897795591182366,526.1811576285245,cathode,0.0013631030058699786,0.0012418636034219697,-0.00011491812459160063,0.0013217811957695238,400
5,48.897795591182366,526.1811576285245,interface_ae,0.0023870942383338208,0.0024096544878739,-0.00019103783228948987,0.0024211707228809646,400
5,48.897795591182366,526.1811576285245,interface_ec,0.0026011249346045697,0.002018133866089938,8.245247794353894e-05,0.0023684788662306825,400
5,49.098196392785574,564.8858990830106,anode,0.0025190598187760736,0.001291359775805709,-0.00027795277243463534,0.0022342858253673755,400
5,49.098196392785574,564.8858990830106,electrolyte,0.001116735227976054,0.0009857804383312406,3.279889601359465e-05,0.0010588825252143043,400
5,49.098196392785574,564.8858990830106,cathode,0.001844734634425824,0.0016216443809990786,5.512656158109032e-05,0.001746536466524618,400
5,49.098196392785574,564.8858990830106,interface_ae,0.003873664687986481,0.0024407904760685903,-5.534091585471932e-05,0.0033936882938777457,400
5,49.098196392785574,564.8858990830106,interface_ec,0.0036256780583753486,0.0027519122757808543,0.00025967544476509493,0.0033080672014859725,400
5,49.298597194388776,607.2985303593135,anode,0.002296959400243141,0.002102057203562813,8.340331452634361e-05,0.0022107001738058403,400
5,49.298597194388776,607.2985303593135,electrolyte,0.0012737042758746264,0.0006794543412965904,-6.429817903747999e-05,0.001109486210819969,400
5,49.298597194388776,607.2985303593135,cathode,0.002796414531089874,0.0020133764716294563,-0.00012696514521884678,0.0025083349594270574,400
5,49.298597194388776,607.2985303593135,interface_ae,0.004755349918611989,0.0037067685485900805,-7.652412204753258e-05,0.0043294424847979875,400
5,49.298597194388776,607.2985303593135,interface_ec,0.004522485082660166,0.004037226080282633,0.0003572570297598819,0.004344728849851482,400
5,49.498997995991985,652.7501789261289,anode,0.003281172979410774,0.002926003814963018,-7.589492984817829e-05,0.0031215620948195147,400
5,49.498997995991985,652.7501789261289,electrolyte,0.0014614908206920594,0.001522562969496204,1.607548728893943e-05,0.0014932236520624202,400
5,49.498997995991985,652.7501789261289,cathode,0.002709448324704168,0.0025254634660753107,5.989764025786963e-05,0.002624352561564356,400
5,49.498997995991985,652.7501789261289,interface_ae,0.005567521883309809,0.004791779641099009,4.364470952061644e-05,0.005223583886583502,400
5,49.498997995991985,652.7501789261289,interface_ec,0.005307301267023368,0.004486323097089074,-0.00017984270969908137,0.004957953571148224,400
5,49.699398797595194,700.5240451340578,anode,0.004141721053364222,0.0030693803697531773,-3.3727958369227785e-05,0.0037236869585726812,400
5,49.699398797595194,700.5240451340578,electrolyte,0.0018250306915026668,0.002668815439245977,-0.0001609992048334343,0.002379160570238023,400
5,49.699398797595194,700.5240451340578,cathode,0.003477634163926871,0.0031900963112532076,9.003194486164165e-05,0.0033467869947515537,400
5,49.699398797595194,700.5240451340578,interface_ae,0.0067786989914603545,0.00605990402099208,7.592364831910684e-05,0.00645075380759011,400
5,49.699398797595194,700.5240451340578,interface_ec,0.0061745101349056485,0.005440537931124766,4.6174855877082736e-05,0.005842753472716203,400
5,49.899799599198396,749.8667065742782,anode,0.004818868291343085,0.003149298763530348,0.0001803864757837841,0.004249839550110134,400
5,49.899799599198396,749.8667065742782,electrolyte,0.002503041256883872,0.0023330560646857993,-1.5299207495389798e-05,0.0024226705816821773,400
5,49.899799599198396,749.8667065742782,cathode,0.00394567068985344,0.0037939022408780363,9.816465406584317e-05,0.0038757491446209146,400
5,49.899799599198396,749.8667065742782,interface_ae,0.007848737951726326,0.006419561342090156,-8.99733034979774e-05,0.007242395053202798,400
5,49.899799599198396,749.8667065742782,interface_ec,0.007089484763497257,0.006669364713145569,6.35834223665979e-05,0.006889919370178349,400
6,50.100200400801604,800.0,anode,0.004710265210140813,0.004088427898011013,-7.001382179271608e-05,0.004433843382512883,400
6,50.100200400801604,800.0,electrolyte,0.0023551046704052745,0.0021346952810184596,-0.0001700745535209531,0.002272176750698457,400
6,50.100200400801604,800.0,cathode,0.004876256296433619,0.0040283907505011315,-0.0002440507381300123,0.004532220651507482,400
6,50.100200400801604,800.0,interface_ae,0.009606777069170845,0.00802576221930877,-0.00011685291322799783,0.008924252361769427,400
6,50.100200400801604,800.0,interface_ec,0.009081726418996084,0.007775239526946389,0.0001786628782160215,0.008509716064425805,400
6,50.30060120240481,850.1332934257217,anode,0.0053810846598234974,0.00511029827784302,-8.218579563104026e-05,0.005252859835337329,400
6,50.30060120240481,850.1332934257217,electrolyte,0.0027501743327294674,0.0028955340636773927,0.0001936137636183642,0.002845489726081975,400
6,50.30060120240481,850.1332934257217,cathode,0.006403038859880726,0.004422748663121229,0.00010483795276211832,0.005680981764611693,400
6,50.30060120240481,850.1332934257217,interface_ae,0.010005058728940678,0.008843806849924137,-0.00022057343268468756,0.009485634968995866,400
6,50.30060120240481,850.1332934257217,interface_ec,0.009749168169369169,0.008376036789816983,1.1844606850212677e-05,0.00914031191625286,400
6,50.501002004008015,899.475954865942,anode,0.006051125055862768,0.005504648323624658,0.00015403419273868715,0.00580337245153831,400
6,50.501002004008015,899.475954865942,electrolyte,0.0036762049464352004,0.0034575182233506146,6.237399441830144e-05,0.0035735194169703253,400
6,50.501002004008015,899.475954865942,cathode,0.005878380422722224,0.005715944974512135,-9.077343534089961e-05,0.005801000237894805,400
6,50.501002004008015,899.475954865942,interface_ae,0.011511334534389364,0.010024597901777671,6.850320160955986e-05,0.010845319907717905,400
6,50.501002004008015,899.475954865942,interface_ec,0.0107893613405343,0.009277013986858202,0.00019841167003277032,0.010124146984116268,400
6,50.701402805611224,947.2498210738712,anode,0.006789885957730545,0.005838401409392531,0.00011382366242454138,0.006370735441794595,400
6,50.701402805611224,947.2498210738712,electrolyte,0.004039645606141195,0.0033397763791051718,-3.130025568306987e-05,0.0037395546564150967,400
6,50.701402805611224,947.2498210738712,cathode,0.006746822229703683,0.006071898996497285,8.303542966016898e-05,0.0064375639138218805,400
6,50.701402805611224,947.2498210738712,interface_ae,0.012235930973976765,0.01079078652193573,-1.9355117269467564e-05,0.011581229873648262,400
6,50.701402805611224,947.2498210738712,interface_ec,0.012057622321861784,0.010238461618366784,-0.0001468111254464649,0.011261683246120424,400
6,50.90180360721443,992.7014696406861,anode,0.00732704536552747,0.006667570398433148,-0.0001207642771545763,0.007023692052710013,400
6,50.90180360721443,992.7014696406861,electrolyte,0.004205453015790234,0.003329566940673858,-3.9046356190715633e-05,0.003843707533399287,400
6,50.90180360721443,992.7014696406861,cathode,0.006955756006913001,0.006231291646185329,-2.9055806970744305e-05,0.006623497990374959,400
6,50.90180360721443,992.7014696406861,interface_ae,0.013497869450126147,0.011402399880854733,-0.00017975881874280678,0.01258554875340766,400
6,50.90180360721443,992.7014696406861,interface_ec,0.013661042540128501,0.011398506518944721,2.9759027576623e-05,0.012682161034128092,400
6,51.102204408817634,1035.1141009169892,anode,0.007936171555446823,0.006592760088076344,3.267035096230891e-05,0.007357257064221357,400
6,51.102204408817634,1035.1141009169892,electrolyte,0.0045884752371974985,0.003254860193052419,-8.081412560191434e-05,0.004090594975186541,400
6,51.102204408817634,1035.1141009169892,cathode,0.007862442170341287,0.006824938503951293,0.00017899665088906886,0.0074049454801716,400
6,51.102204408817634,1035.1141009169892,interface_ae,0.014058545026253222,0.011997168625992065,-7.68801165969825e-05,0.0131502752684725,400
6,51.102204408817634,1035.1141009169892,interface_ec,0.014049608993600894,0.01204240123150374,0.00011562033299819566,0.013162827045552043,400
6,51.30260521042084,1073.8188423714755,anode,0.008106584881034141,0.007287669518742799,-0.0002552853345027503,0.0077423669323564755,400
6,51.30260521042084,1073.8188423714755,electrolyte,0.004548330497667666,0.003910375322044883,0.0002512289509371097,0.004287425112821744,400
6,51.30260521042084,1073.8188423714755,cathode,0.008340294838217637,0.006498952158161653,-0.00029983333602918744,0.0076068009105088276,400
6,51.30260521042084,1073.8188423714755,interface_ae,0.015171132829262204,0.013070916617091442,5.631837864408792e-05,0.014238013752461719,400
6,51.30260521042084,1073.8188423714755,interface_ec,0.015211194985098497,0.01323546323960617,-8.093868311056974e-05,0.014326562085761193,400
6,51.50300601202405,1108.2052971103158,anode,0.009121039380686997,0.007035076816289181,-0.00013574217494070992,0.008280925692322914,400
6,51.50300601202405,1108.2052971103158,electrolyte,0.004415324661292665,0.004131367927605441,-6.9391825899513805e-06,0.004280432989663691,400
6,51.50300601202405,1108.2052971103158,cathode,0.008886796661546905,0.0075432462876632465,-0.00013913299962175918,0.008300511882308584,400
6,51.50300601202405,1108.2052971103158,interface_ae,0.015877546931658142,0.013095192306653066,0.00020448434626983754,0.014689672196167892,400
6,51.50300601202405,1108.2052971103158,interface_ec,0.015843531363112708,0.013397760471521683,0.0002383410492666124,0.014779040998910448,400
6,51.703406813627254,1137.731170200806,anode,0.008848965667445304,0.0075007175491739716,-0.00016443304873028474,0.008262716244965173,400
6,51.703406813627254,1137.731170200806,electrolyte,0.005143756776895796,0.004518989951586074,0.00011095132021767504,0.004865372479119825,400
6,51.703406813627254,1137.731170200806,cathode,0.009993238222758565,0.007163563947123333,9.131033836866253e-05,0.00892296308898781,400
6,51.703406813627254,1137.731170200806,interface_ae,0.016431812157746462,0.01393318408542378,-9.296581923808163e-05,0.01533677064526378,400
6,51.703406813627254,1137.731170200806,interface_ec,0.01632632042827574,0.014614466080471449,0.00012634459905208538,0.015542805097509563,400
6,51.90380761523046,1161.9308209864078,anode,0.00953109405589731,0.008500819698726682,-0.0002268793447948313,0.009068516971540362,400
6,51.90380761523046,1161.9308209864078,electrolyte,0.004934304207505576,0.0038800980652107194,-0.00010491218101849312,0.004504437200842506,400
6,51.90380761523046,1161.9308209864078,cathode,0.009572644820341522,0.008126372546360281,2.2401286658982065e-05,0.008937789827888105,400
6,51.90380761523046,1161.9308209864078,interface_ae,0.01672012642287435,0.014812873374149254,3.594412773584969e-05,0.015852905274259102,400
6,51.90380761523046,1161.9308209864078,interface_ec,0.017363359756633973,0.014004098298088033,4.6723628819668475e-05,0.015951469639387792,400
6,52.10420841683367,1180.4226065180615,anode,0.009398953009500511,0.008172793218488995,8.01547347954575e-05,0.008850900609235554,400
6,52.10420841683367,1180.4226065180615,electrolyte,0.005490286327503204,0.00438805251484867,9.409734276627426e-07,0.005030565252602497,400
6,52.10420841683367,1180.4226065180615,cathode,0.009295821986902677,0.008637070413023891,-3.0792602924437684e-05,0.0089847352346681,400
6,52.10420841683367,1180.4226065180615,interface_ae,0.01789507362993298,0.014767622843529112,-7.853639826098743e-05,0.016554973586296273,400
6,52.10420841683367,1180.4226065180615,interface_ec,0.01733025261066503,0.015188434529165849,-0.00010641467359927136,0.01636584138055541,400
6,52.30460921843687,1192.9149002914755,anode,0.010104814883367997,0.00830998509629614,-0.0002963944949837429,0.009351781869577042,400
6,52.30460921843687,1192.9149002914755,electrolyte,0.005379310081704389,0.004364111192425425,5.085408552350626e-06,0.004950415508220166,400
6,52.30460921843687,1192.9149002914755,cathode,0.009554313932941098,0.008702513345811312,-1.3661379052954083e-05,0.009158202260900248,400
6,52.30460921843687,1192.9149002914755,interface_ae,0.017787306458130574,0.015361265109410742,0.00014458604011137935,0.016708797744911547,400
6,52.30460921843687,1192.9149002914755,interface_ec,0.017834555631027302,0.01493313737820968,-0.00026609544241681937,0.01658181285471109,400
6,52.50501002004008,1199.2106913713087,anode,0.009784318715030806,0.008306449921825767,1.605861794884451e-05,0.009135525339746292,400
6,52.50501002004008,1199.2106913713087,electrolyte,0.005490930775257753,0.004961683505274715,-9.194749069060342e-05,0.005248783321124915,400
6,52.50501002004008,1199.2106913713087,cathode,0.009973021292085476,0.008846809828779223,5.127378209324497e-05,0.00946074320821145,400
6,52.50501002004008,1199.2106913713087,interface_ae,0.017964229293347875,0.015104321139895726,-9.498470950724656e-05,0.016719558283900655,400
6,52.50501002004008,1199.2106913713087,interface_ec,0.017727056579968863,0.01512260241274141,0.00011334987581164718,0.016580137354656282,400
6,52.70541082164329,1199.2106913713087,anode,0.009923567160753679,0.008086681675005786,0.0002652253939589675,0.009156085982891887,400
6,52.70541082164329,1199.2106913713087,electrolyte,0.00569046439694271,0.004333220593505336,-6.627733908612358e-05,0.0051491092734995665,400
6,52.70541082164329,1199.2106913713087,cathode,0.010023399556989885,0.009002991223809369,-0.00016621686873883037,0.009558488141599535,400
6,52.70541082164329,1199.2106913713087,interface_ae,0.01827505277166123,0.01570475040056798,-9.429814576118552e-05,0.017135876780482444,400
6,52.70541082164329,1199.2106913713087,interface_ec,0.017898986470196377,0.014974011698264149,-3.051917116204573e-05,0.016630631511390586,400
6,52.90581162324649,1192.9149002914755,anode,0.009900459261340564,0.008622615815021639,0.000163527520653067,0.009331718181886208,400
6,52.90581162324649,1192.9149002914755,electrolyte,0.005325975482653835,0.0041276461374664805,-3.186716891436319e-06,0.004839397257329478,400
6,52.90581162324649,1192.9149002914755,cathode,0.009999497512634035,0.00849954612190244,-4.900098712635659e-05,0.009340677050902543,400
6,52.90581162324649,1192.9149002914755,interface_ae,0.01787801088645738,0.015619130910580141,5.726012534437639e-05,0.01686272123257801,400
6,52.90581162324649,1192.9149002914755,interface_ec,0.017728574729057273,0.015014438122945669,-2.5477853651659597e-05,0.01653943992876312,400
6,53.1062124248497,1180.4226065180615,anode,0.01024630457002496,0.008236999981396544,-2.9691516781061956e-06,0.009404049230525499,400
6,53.1062124248497,1180.4226065180615,electrolyte,0.005318264174345539,0.004973209516015055,0.0002939755882117012,0.005179495116048089,400
6,53.1062124248497,1180.4226065180615,cathode,0.009890466496305185,0.008316822065390032,5.517424976135217e-06,0.009205090880287774,400
6,53.1062124248497,1180.4226065180615,interface_ae,0.016844216610020658,0.015149127608943372,2.0124962399376527e-05,0.0160639263152504,400
6,53.1062124248497,1180.4226065180615,interface_ec,0.0176880112618546,0.014712143691432814,-5.766853184656374e-05,0.016404094856939555,400
6,53.30661322645291,1161.9308209864078,anode,0.009400827781379144,0.008402001868202493,-5.681397549046399e-05,0.008943886698190205,400
6,53.30661322645291,1161.9308209864078,electrolyte,0.005958313843537793,0.004662747110573637,-0.00019135239899935972,0.0054378719219211665,400
6,53.30661322645291,1161.9308209864078,cathode,0.009485571374354509,0.007900012436333656,-0.0003291573704730036,0.008819022774246538,400
6,53.30661322645291,1161.9308209864078,interface_ae,0.01762328475422831,0.01478286971403105,7.998109768489687e-05,0.016389321858562858,400
6,53.30661322645291,1161.9308209864078,interface_ec,0.017193064570284085,0.014157321680757317,-7.25425709333155e-05,0.015894630161304428,400
6,53.50701402805611,1137.731170200806,anode,0.009474173859945277,0.007523027674448812,-0.00037976539743762205,0.008689885433615228,400
6,53.50701402805611,1137.731170200806,electrolyte,0.005095986389071363,0.004346973196486533,2.033451246220637e-05,0.004765960289680429,400
6,53.50701402805611,1137.731170200806,cathode,0.009440195220564435,0.008029675427052924,3.881547078658824e-05,0.00882019215206526,400
6,53.50701402805611,1137.731170200806,interface_ae,0.016957610745944145,0.013653417695846418,7.568727217160853e-05,0.015571262634730994,400
6,53.50701402805611,1137.731170200806,interface_ec,0.016786912838519213,0.01373723994426634,-0.00022543059130235838,0.015493831391965291,400
6,53.70741482965932,1108.2052971103158,anode,0.008628783575936268,0.007326218849042518,0.00011301291952536459,0.008059239883886044,400
6,53.70741482965932,1108.2052971103158,electrolyte,0.004773075444664881,0.003956916962322017,-9.174506050418385e-05,0.004424706693795435,400
6,53.70741482965932,1108.2052971103158,cathode,0.009188155914125211,0.0075285942941101915,-2.6887653803536767e-05,0.008481168067954197,400
6,53.70741482965932,1108.2052971103158,interface_ae,0.015901617535371792,0.013932044407532746,-0.00011237575899048626,0.015015297029827047,400
6,53.70741482965932,1108.2052971103158,interface_ec,0.016329271672264136,0.013607575196911241,-2.4062907296302156e-05,0.015152925821952599,400
6,53.90781563126253,1073.8188423714755,anode,0.00917300567902373,0.006842633353257349,-5.30528639350509e-05,0.00825872832854549,400
6,53.90781563126253,1073.8188423714755,electrolyte,0.004347002524851128,0.004294960703271129,0.00025337834004775185,0.004343445075290513,400
6,53.90781563126253,1073.8188423714755,cathode,0.008923712364064836,0.007526509826140729,-2.964307016939484e-05,0.00831379695810502,400
6,53.90781563126253,1073.8188423714755,interface_ae,0.015051351660111246,0.01238543442860625,0.0003053810302772689,0.013921365466591146,400
6,53.90781563126253,1073.8188423714755,interface_ec,0.01530161737680274,0.012739198288893624,0.0001992085333480451,0.014199133128653577,400
6,54.10821643286573,1035.1141009169892,anode,0.007647096906434364,0.006870073932509812,-2.58943701436252e-05,0.007289848926657747,400
6,54.10821643286573,1035.1141009169892,electrolyte,0.004637401848383014,0.0037598568387002492,-0.0002176391836666836,0.004283474377215823,400
6,54.10821643286573,1035.1141009169892,cathode,0.007961599173263376,0.007062746564805619,-4.382460878097786e-06,0.007552400336379589,400
6,54.10821643286573,1035.1141009169892,interface_ae,0.014522601807108982,0.011832898334335202,-3.93911899047782e-06,0.013382041027249165,400
6,54.10821643286573,1035.1141009169892,interface_ec,0.014102714134105684,0.01237065143206883,4.7237343392993655e-06,0.013321406417639145,400
6,54.30861723446894,992.7014696406861,anode,0.007615790473409561,0.006623766242779649,0.00010374278626820824,0.007173675182297986,400
6,54.30861723446894,992.7014696406861,electrolyte,0.004230845817772896,0.0032271100668086606,-4.179166000351856e-07,0.0038289543104321347,400
6,54.30861723446894,992.7014696406861,cathode,0.007248841249903827,0.006194233927921022,-5.618012261253762e-05,0.006784002036436731,400
6,54.30861723446894,992.7014696406861,interface_ae,0.013041805394480766,0.010748214030137926,-0.00010022145724916502,0.012060962237207864,400
6,54.30861723446894,992.7014696406861,interface_ec,0.013393796902492686,0.010930962493249876,2.3523354707436513e-06,0.012347982082557083,400
6,54.50901803607215,947.2498210738713,anode,0.007410703290716681,0.006121446315485554,0.00024653122636807937,0.006870861579090359,400
6,54.50901803607215,947.2498210738713,electrolyte,0.0039480871105969165,0.0036063893822854674,-0.00010859470957016811,0.0037934779828500283,400
6,54.50901803607215,947.2498210738713,cathode,0.006647320683316796,0.004992787287068641,0.00017792182110634483,0.0060017586991906275,400
6,54.50901803607215,947.2498210738713,interface_ae,0.012775218168108069,0.010300199654433606,-3.809275595958526e-05,0.011735304324032752,400
6,54.50901803607215,947.2498210738713,interface_ec,0.012086962340054816,0.010580948893481034,0.0001687398817954861,0.01141249432604179,400
6,54.70941883767535,899.4759548659421,anode,0.005720617843659965,0.005429763579643311,-4.150076575787181e-05,0.005581340839272824,400
6,54.70941883767535,899.4759548659421,electrolyte,0.0035303500016516014,0.0031095801319546428,-2.823036581592317e-05,0.0033402611227101634,400
6,54.70941883767535,899.4759548659421,cathode,0.006212373379802543,0.0052427694701842435,0.0001455474302682422,0.00579428385548501,400
6,54.70941883767535,899.4759548659421,interface_ae,0.011363836972521947,0.009618652698132352,-0.0001906427581638424,0.01060469251285402,400
6,54.70941883767535,899.4759548659421,interface_ec,0.011124635061519752,0.009822078384912896,5.654485968588435e-06,0.010533935038398761,400
6,54.90981963927856,850.1332934257218,anode,0.005824525608698264,0.005312619782746585,0.00015579091038132246,0.005592705067478535,400
6,54.90981963927856,850.1332934257218,electrolyte,0.0031788805552899757,0.002524996344824327,-0.0003830324394083847,0.002982342685265061,400
6,54.90981963927856,850.1332934257218,cathode,0.005576150691079667,0.004684862493903239,5.855492915930635e-05,0.005189236930667583,400
6,54.90981963927856,850.1332934257218,interface_ae,0.010081827533986336,0.008512683718935894,-0.0002669098395760831,0.009407408995328296,400
6,54.90981963927856,850.1332934257218,interface_ec,0.009846008753333722,0.008751794549007099,0.0002573861446699041,0.009357686324314173,400
6,55.11022044088177,800.0,anode,0.004970742384876313,0.004348343322072237,0.0001428717235429208,0.0046971387074007205,400
6,55.11022044088177,800.0,electrolyte,0.002556731819139925,0.0024900442129856325,-0.00011107351594982377,0.0025313700806196943,400
6,55.11022044088177,800.0,cathode,0.005259447331547304,0.00429542091438552,4.476777209721596e-05,0.004850453531297752,400
6,55.11022044088177,800.0,interface_ae,0.008765220420774425,0.007862109707883235,0.00031270693818465236,0.00836792031565862,400
6,55.11022044088177,800.0,interface_ec,0.008697626491371539,0.007548072297705743,3.474112112521377e-05,0.00818385051525129,400
6,55.31062124248497,749.8667065742783,anode,0.004609255695777224,0.0035494698717648664,-0.00042495454352141094,0.0042456235476520865,400
6,55.31062124248497,749.8667065742783,electrolyte,0.0028568237942691553,0.0023098587399921987,-0.00026144212957299976,0.0026651615601605604,400
6,55.31062124248497,749.8667065742783,cathode,0.004191063194644612,0.004187788486209905,0.00021716946276867987,0.004206279192101239,400
6,55.31062124248497,749.8667065742783,interface_ae,0.008153592904724945,0.006638367033045114,1.2448112821876494e-05,0.007511518930838358,400
6,55.31062124248497,749.8667065742783,interface_ec,0.007832723156383425,0.007029672698213724,-0.0001313763609742665,0.007467137966324854,400
6,55.51102204408818,700.5240451340582,anode,0.0035148106677104656,0.0034961503556001725,-6.654218326734245e-06,0.0035055367076805653,400
6,55.51102204408818,700.5240451340582,electrolyte,0.002517208522574549,0.0015866644064534822,-8.216754050823764e-06,0.002204558927218623,400
6,55.51102204408818,700.5240451340582,cathode,0.003479826668722541,0.003195276783976438,-0.0002217820405498198,0.003368610963627523,400
6,55.51102204408818,700.5240451340582,interface_ae,0.0066155009892298194,0.005316646203710427,0.00010408848497868872,0.006073862462388608,400
6,55.51102204408818,700.5240451340582,interface_ec,0.0069767678174442035,0.005228443544043559,0.0002000828618250859,0.006297171894839561,400
6,55.71142284569139,652.7501789261288,anode,0.003908601774502566,0.002699272567111021,-9.616713903369671e-05,0.003469957209162135,400
6,55.71142284569139,652.7501789261288,electrolyte,0.0026165504297838153,0.001108173015119713,3.0159700303647577e-06,0.0022748231342855528,400
6,55.71142284569139,652.7501789261288,cathode,0.003213263918366187,0.003089014937225843,5.396084626901826e-05,0.003154361008062744,400
6,55.71142284569139,652.7501789261288,interface_ae,0.0055372888571013626,0.004548491860845826,-5.127327303692033e-05,0.005115849845633231,400
6,55.71142284569139,652.7501789261288,interface_ec,0.005384800817554355,0.004848194767897618,-8.462942697907297e-05,0.005139649367622121,400
6,55.91182364729459,607.2985303593139,anode,0.0021430202915044983,0.0025790906215801815,-7.46508785143559e-05,0.0023945603206928174,400
6,55.91182364729459,607.2985303593139,electrolyte,0.0010706486710226034,0.001182948515291655,1.0255734895148812e-05,0.0011311273363785105,400
6,55.91182364729459,607.2985303593139,cathode,0.0020672916118177134,0.002302041185205439,-0.00015707363530353968,0.0022109079978963934,400
6,55.91182364729459,607.2985303593139,interface_ae,0.005177525575841798,0.004121772546744899,-5.9984998516397475e-05,0.0047398303595342535,400
6,55.91182364729459,607.2985303593139,interface_ec,0.004440666601989357,0.003933094080852791,9.191861123749345e-05,0.004212901195709844,400
6,56.1122244488978,564.8858990830109,anode,0.0020534254999620767,0.001686765035615934,8.755543622684345e-06,0.0018969228269292123,400
6,56.1122244488978,564.8858990830109,electrolyte,0.00097304361420999,0.0008781093214910037,-0.0003128688658357506,0.0010756913913466024,400
6,56.1122244488978,564.8858990830109,cathode,0.002353191607793347,0.0018415520118535195,-0.00011601837660501451,0.0021530630754514174,400
6,56.1122244488978,564.8858990830109,interface_ae,0.004279553223774318,0.0031795477640802995,-0.0001554215357962795,0.0038586945275104045,400
6,56.1122244488978,564.8858990830109,interface_ec,0.003966953955808883,0.0032728572849153627,5.9186997822632895e-05,0.003670906379066641,400
6,56.31262525050101,526.1811576285247,anode,0.0014495377889610817,0.0014758235169364856,-3.9263743533164176e-05,0.0014644377152343464,400
6,56.31262525050101,526.1811576285247,electrolyte,0.0010500505388934256,0.00017929455168653042,-6.508101944687836e-05,0.000979382942036712,400
6,56.31262525050101,526.1811576285247,cathode,0.002093910999699017,0.001110554563182985,-9.057574462397799e-05,0.0018212644490558923,400
6,56.31262525050101,526.1811576285247,interface_ae,0.0027046876451068138,0.002048772798878942,-0.0003312421164342378,0.002510115292443838,400
6,56.31262525050101,526.1811576285247,interface_ec,0.002769900127084722,0.0024539724668700322,-7.875760280797825e-06,0.002626262556778062,400
6,56.51302605210421,491.79470288968423,anode,0.0011039702175366867,0.000988230979458011,0.0001534262207326146,0.0010839704591107014,400
6,56.51302605210421,491.79470288968423,electrolyte,0.0005854290644490245,0.00037395370906744024,-4.2168822733212944e-05,0.0005186326491964008,400
6,56.51302605210421,491.79470288968423,cathode,0.0013212378140480855,0.0013989267817658697,-9.422156087537673e-05,0.0013714895721295486,400
6,56.51302605210421,491.79470288968423,interface_ae,0.00209506095112656,0.0018570809253459987,-0.00014888670100932344,0.0020034555077807982,400
6,56.51302605210421,491.79470288968423,interface_ec,0.0020715059651817704,0.0013158715355625823,-0.0002653575455609098,0.0018729823831299195,400
6,56.71342685370742,462.2688297991939,anode,0.0008883842948576009,0.0005464438942172003,3.0342061143182865e-05,0.0007779057354569104,400
6,56.71342685370742,462.2688297991939,electrolyte,0.00043051331549185225,7.75795227060645e-05,-6.788145294650471e-06,0.00039761729888706864,400
6,56.71342685370742,462.2688297991939,cathode,0.00040842998098546726,0.0010788980240168554,-0.00020339555172899456,0.0010071201256802627,400
6,56.71342685370742,462.2688297991939,interface_ae,0.0013423130891912884,0.0008782098934954089,8.556317600411933e-05,0.0011900367988491106,400
6,56.71342685370742,462.2688297991939,interface_ec,0.0013016192590974119,0.0010352913540232203,0.00012798023175773315,0.0012114547194828032,400
6,56.91382765531062,438.0691790135921,anode,0.0004846939151731667,0.0005594783608002061,-0.0001471988904776197,0.0005846118460416175,400
6,56.91382765531062,438.0691790135921,electrolyte,-0.0001549608300831075,0.00025867400374291296,-4.782695332420968e-05,0.00037131077254260386,400
6,56.91382765531062,438.0691790135921,cathode,0.0006637951394060843,0.00038051249122065097,3.076130088519448e-05,0.0005793704978810787,400
6,56.91382765531062,438.0691790135921,interface_ae,0.0003695417688234489,0.0012946041305192256,-2.463629775480478e-05,0.0011558423399605916,400
6,56.91382765531062,438.0691790135921,interface_ec,0.0010658326189075815,0.0004772455475690607,4.6201485332601134e-05,0.0009281715057656034,400
6,57.11422845691383,419.5773934819386,anode,-0.00014613601053319107,0.0003436301572234989,-5.339611265787491e-05,0.00044520511378965115,400
6,57.11422845691383,419.5773934819386,electrolyte,0.00014579890555424041,0.0003258777002565639,-0.000184881046683042,0.00042718144694173325,400
6,57.11422845691383,419.5773934819386,cathode,3.9369899340393425e-05,0.0003452070900716273,0.00031473322118201203,0.0006358444441598111,400
6,57.11422845691383,419.5773934819386,interface_ae,0.000399066652945174,0.0005517584857192555,-1.604572047877201e-05,0.000494242454027411,400
6,57.11422845691383,419.5773934819386,interface_ec,0.0010231650317705082,-0.00014974884974750083,1.4193156700403698e-05,0.00110594462968971,400
6,57.31462925851704,407.0850997085245,anode,-0.00039909946371206173,-0.0006766922867579419,4.4619307967672476e-05,0.0005942204574737449,400
6,57.31462925851704,407.0850997085245,electrolyte,9.144503680390932e-05,-4.3294738056939494e-05,-1.592911350596297e-05,0.0001222985199656044,400
6,57.31462925851704,407.0850997085245,cathode,0.0010180535765779337,-2.173357006357251e-06,7.651865418751122e-05,0.0010277235598415103,400
6,57.31462925851704,407.0850997085245,interface_ae,-3.5394702442362476e-05,0.00022407230443771242,-3.5735051258342625e-05,0.0002514421141803152,400
6,57.31462925851704,407.0850997085245,interface_ec,3.625919862288278e-05,0.0006811720915856289,0.00017657774447765083,0.000730856000323723,400
6,57.51503006012024,400.7893086286914,anode,5.0890352078411715e-05,-0.0006828771766033438,-5.4151383487885446e-05,0.000715863145583729,400
6,57.51503006012024,400.7893086286914,electrolyte,0.0008164334297223648,-6.45021136511986e-05,0.0001654826358080487,0.0008975183886518556,400
6,57.51503006012024,400.7893086286914,cathode,0.00044244907844442276,7.407557893663866e-05,-0.00012627324478022283,0.00046508978038368304,400
6,57.51503006012024,400.7893086286914,interface_ae,-0.0007128342553893099,0.00022034449010640937,-0.0001222134004235322,0.0008709545431537014,400
6,57.51503006012024,400.7893086286914,interface_ec,7.060457971186417e-05,-0.00035985057435308613,-3.9785631070530325e-05,0.00040575020692397505,400
6,57.71543086172345,400.7893086286914,anode,1.9982074328958488e-05,8.896447849313549e-05,-0.0001672233281028621,0.0003007111426128888,400
6,57.71543086172345,400.7893086286914,electrolyte,0.00036459844502924544,-0.00017437204907887755,-0.0002511704190679868,0.0006451148376938764,400
6,57.71543086172345,400.7893086286914,cathode,-2.284066813039662e-05,1.8698996887784164e-05,2.4088414975763964e-05,5.5128952426753985e-05,400
6,57.71543086172345,400.7893086286914,interface_ae,0.0004263991652510803,-5.583912349703476e-05,-1.7942943655315698e-05,0.0004579408904741706,400
6,57.71543086172345,400.7893086286914,interface_ec,-0.00031319587022437146,0.00026126157839009216,2.7646359611715517e-05,0.0005004680573901817,400
6,57.91583166332666,407.0850997085245,anode,-3.74445718316922e-05,-0.000496123223636566,0.0002166618292582631,0.0006081038333039655,400
6,57.91583166332666,407.0850997085245,electrolyte,-0.00031870829137714546,-0.00013522705954519074,5.375167666140048e-05,0.00029228594862208137,400
6,57.91583166332666,407.0850997085245,cathode,-0.0002704036322284494,-0.0003727737490728699,-0.0003185921374050997,0.0006448114969667575,400
6,57.91583166332666,407.0850997085245,interface_ae,0.0003757138293134925,-2.8053341492365063e-05,0.00043909051387099946,0.0008549206618031442,400
6,57.91583166332666,407.0850997085245,interface_ec,-0.0001388917762474602,-0.00014093277510314486,-8.480894554281022e-05,0.00020287000979479097,400
6,58.11623246492986,419.57739348193854,anode,0.0003176578150657785,6.69488041100036e-05,9.18498321003768e-05,0.00033080355799156036,400
6,58.11623246492986,419.57739348193854,electrolyte,-0.0001565347626230265,-0.00029799202432153997,-0.0002697322109113661,0.0005337814763434286,400
6,58.11623246492986,419.57739348193854,cathode,-0.0004223548318569272,5.258909990307994e-05,-4.514704685898329e-05,0.00045768465714817613,400
6,58.11623246492986,419.57739348193854,interface_ae,0.0002510602450986622,0.0007474393894982231,0.00018420453144122023,0.000732009903982929,400
6,58.11623246492986,419.57739348193854,interface_ec,0.00034005045711026663,-0.00016375868361551425,-8.500576620825791e-05,0.00046884472474965265,400
6,58.31663326653307,438.069179013592,anode,0.0002959183194947819,0.00020734453833599786,-0.00010465783558473672,0.00031947167276210795,400
6,58.31663326653307,438.069179013592,electrolyte,7.044538437770204e-05,0.00011054913036154463,-9.533116482233349e-05,0.00019146822029262459,400
6,58.31663326653307,438.069179013592,cathode,0.0005383614902575779,0.0005125956417908735,-0.00013659676307737346,0.0005767162730588861,400
6,58.31663326653307,438.069179013592,interface_ae,0.0012378761256079305,0.00043405435808276316,-0.00024267009207230055,0.0011662338023711834,400
6,58.31663326653307,438.069179013592,interface_ec,0.000970789949215336,0.00048285060831064545,4.81937206136082e-05,0.0008448663930129644,400
6,58.517034068136276,462.268829799194,anode,5.7259792159765994e-05,0.0010793430990613565,0.00010084401120606032,0.0010662859801932154,400
6,58.517034068136276,462.268829799194,electrolyte,-1.4261156154542426e-05,-7.313359984868133e-05,0.00025083988561462915,0.00043962583973145404,400
6,58.517034068136276,462.268829799194,cathode,0.0005571464014405375,0.0004113508619966492,-0.0003399078141223924,0.0007726907260456923,400
6,58.517034068136276,462.268829799194,interface_ae,0.001295815208801399,0.0011225754854588595,0.00010732396451542277,0.0012325654907171977,400
6,58.517034068136276,462.268829799194,interface_ec,0.0009813251420265224,0.0007348053322374025,6.764439521647152e-05,0.0008919541783358522,400
6,58.71743486973948,491.7947028896842,anode,0.0014494528074891718,0.0005039730128675295,0.00016222711294496117,0.0013051321959712632,400
6,58.71743486973948,491.7947028896842,electrolyte,0.0006538254726738356,0.0008737200839160145,-1.0533054227642485e-05,0.0007873670824961174,400
6,58.71743486973948,491.7947028896842,cathode,0.00039075041087466734,0.0009297285035080828,0.00015902157280069047,0.0008541971440683019,400
6,58.71743486973948,491.7947028896842,interface_ae,0.0017972570092927799,0.0016391842020929744,-2.642002553264674e-05,0.001724272705333195,400
6,58.71743486973948,491.7947028896842,interface_ec,0.0011955266510573497,0.002256977965396453,-0.00013520635198457616,0.0019697204050432623,400
6,58.91783567134269,526.1811576285245,anode,0.0017289851000983959,0.00131466445895861,0.000188642858453904,0.001597327530276686,400
6,58.91783567134269,526.1811576285245,electrolyte,0.0010050849401280957,0.0006803006064334282,-0.00013402726387789203,0.0009182236547200909,400
6,58.91783567134269,526.1811576285245,cathode,0.0018166196807711977,0.0007786424086166875,9.688356304138386e-05,0.0015874675479039763,400
6,58.91783567134269,526.1811576285245,interface_ae,0.0025093626211753393,0.002788899738232523,2.4194931399404264e-05,0.0026604995661069536,400
6,58.91783567134269,526.1811576285245,interface_ec,0.0030323131769968334,0.002437811283792947,-0.0002628565642711495,0.0028200922857313064,400
6,59.118236472945895,564.8858990830106,anode,0.001802854989519031,0.0019536294790404025,2.4998372603976597e-05,0.0018832733090415811,400
6,59.118236472945895,564.8858990830106,electrolyte,0.001508498265172776,0.0011020534684550646,-0.00014500528360539896,0.0013750355322286962,400
6,59.118236472945895,564.8858990830106,cathode,0.0018222544972214423,0.0017827878949139588,-0.00034710660990001577,0.0019004472809592621,400
6,59.118236472945895,564.8858990830106,interface_ae,0.004211965295054634,0.003285966840875845,0.00018405518955733082,0.0038470092760506613,400
6,59.118236472945895,564.8858990830106,interface_ec,0.0032357515471249884,0.003526812368069155,0.00033472483665416224,0.0034398731265422376,400
6,59.3186372745491,607.2985303593135,anode,0.002194968122878224,0.0024339674235388364,1.6649170309397197e-07,0.002323704296089868,400
6,59.3186372745491,607.2985303593135,electrolyte,0.0009877595580407214,0.0013812914471934765,0.00012504048072560224,0.0012514617623585877,400
6,59.3186372745491,607.2985303593135,cathode,0.0024108936636907654,0.002552321841144273,-0.00025001451101837964,0.002522082522648967,400
6,59.3186372745491,607.2985303593135,interface_ae,0.004215790089149661,0.004005563611798497,3.807791695840757e-06,0.004114711903121638,400
6,59.3186372745491,607.2985303593135,interface_ec,0.004449244886557323,0.0042074627239134365,7.96341471323924e-05,0.004335610154994758,400
6,59.519038076152306,652.7501789261289,anode,0.0034168189578568167,0.0026485297204844396,9.038704019675112e-05,0.0031087496462029983,400
6,59.519038076152306,652.7501789261289,electrolyte,0.001635556161573904,0.0021200091716364455,-0.00012188186551829785,0.0019356276371369817,400
6,59.519038076152306,652.7501789261289,cathode,0.0037909664654141055,0.0026959370352169425,-0.0002063266334353114,0.003398088931350609,400
6,59.519038076152306,652.7501789261289,interface_ae,0.0060973028309844815,0.004871617588480703,0.0001276686147570357,0.005590610865816962,400
6,59.519038076152306,652.7501789261289,interface_ec,0.006054035801400679,0.004935233838205723,-8.883612672192218e-05,0.005581529875389299,400
6,59.719438877755515,700.5240451340578,anode,0.0040492645774764975,0.003193294631785743,0.00010287867279126285,0.003700666352132758,400
6,59.719438877755515,700.5240451340578,electrolyte,0.001457549143800966,0.0019222125836505992,-9.578787377175452e-05,0.0017450379274163092,400
6,59.719438877755515,700.5240451340578,cathode,0.004252543455329282,0.0033799941839160927,3.597866187739449e-05,0.003890860800547685,400
6,59.719438877755515,700.5240451340578,interface_ae,0.006907684013521367,0.00544799010732584,0.00024348850357920805,0.006319933577507548,400
6,59.719438877755515,700.5240451340578,interface_ec,0.007359202141041372,0.00586539641635332,0.00023856053528604576,0.006750320495752956,400
6,59.91983967935872,749.8667065742782,anode,0.004202589372576717,0.003478199687484211,6.138712309338427e-06,0.0038913106416162244,400
6,59.91983967935872,749.8667065742782,electrolyte,0.0025795492575303165,0.0019635108997440188,8.066522855527255e-05,0.0023375194072231846,400
6,59.91983967935872,749.8667065742782,cathode,0.0044652506768005015,0.0034178417247643887,7.781895261775817e-05,0.004046820104188737,400
6,59.91983967935872,749.8667065742782,interface_ae,0.008131059370677715,0.0067426415585101875,0.00017289721548925384,0.007539376843609897,400
6,59.91983967935872,749.8667065742782,interface_ec,0.007506779759872173,0.0068315858898726255,-0.00017554210595951622,0.00719941265249487,400
7,60.120240480961925,800.0,anode,0.004865775592530075,0.004230720749878663,-0.00014130902753613673,0.004587912067655043,400
7,60.120240480961925,800.0,electrolyte,0.0026356012543776587,0.002315754906786643,0.00012557317294970767,0.0025006027450435583,400
7,60.120240480961925,800.0,cathode,0.00510365228838829,0.003944312287969123,0.00017101017697427403,0.004643511722077364,400
7,60.120240480961925,800.0,interface_ae,0.00910887295991549,0.007938383871868612,6.698047604110672e-05,0.008584476341259386,400
7,60.120240480961925,800.0,interface_ec,0.009419883125520837,0.008284253864256444,7.185047150891383e-05,0.008907403913220065,400
7,60.320641282565134,850.1332934257217,anode,0.00559333994062525,0.005627541544551723,2.915001950073498e-05,0.0056107461009469025,400
7,60.320641282565134,850.1332934257217,electrolyte,0.0031067309859936,0.002967470722799715,3.741764188951083e-05,0.0030401853406049513,400
7,60.320641282565134,850.1332934257217,cathode,0.00597150127241618,0.00572162809193443,-4.1268214238256996e-05,0.00585100463460096,400
7,60.320641282565134,850.1332934257217,interface_ae,0.01043779079795667,0.008988124759841344,0.0001607273903371558,0.00979771388708801,400
7,60.320641282565134,850.1332934257217,interface_ec,0.010081158857104769,0.008363484438794653,-8.806729059302212e-05,0.009342766623262447,400
7,60.521042084168336,899.475954865942,anode,0.006003010525539459,0.005391759897010967,7.537495441939353e-05,0.0057234135701586366,400
7,60.521042084168336,899.475954865942,electrolyte,0.0032291070249959144,0.002543833958417952,1.0400574257302194e-05,0.0029469027464716887,400
7,60.521042084168336,899.475954865942,cathode,0.006751950458641796,0.005010717269713675,0.0001230348597458976,0.006075312380094582,400
7,60.521042084168336,899.475954865942,interface_ae,0.011932929204984542,0.010220802272930575,0.00018277203223075294,0.011180147826383489,400
7,60.521042084168336,899.475954865942,interface_ec,0.012348341521260929,0.009827749127697872,1.6435737011678715e-05,0.01130091142470061,400
7,60.721442885771545,947.2498210738712,anode,0.006989316143985918,0.00604770357629302,0.00022993100334544675,0.006581379131030344,400
7,60.721442885771545,947.2498210738712,electrolyte,0.0034272444023378977,0.002997821533739861,0.00020657714047568417,0.003253719935042696,400
7,60.721442885771545,947.2498210738712,cathode,0.007420258626030953,0.005938171028821154,0.00012816030016810797,0.006805043984639475,400
7,60.721442885771545,947.2498210738712,interface_ae,0.012908010565876198,0.011334881323859595,1.1176439074015892e-05,0.012197781693479815,400
7,60.721442885771545,947.2498210738712,interface_ec,0.013113335447290363,0.011677402514307085,8.971487325711992e-05,0.01245856115234088,400
7,60.92184368737475,992.7014696406861,anode,0.007719917555067373,0.006766085335095876,-5.479212873058273e-05,0.007290570855115448,400
7,60.92184368737475,992.7014696406861,electrolyte,0.004865300599142222,0.0035805950556708765,-4.0939998033826924e-05,0.0043676272566903224,400
7,60.92184368737475,992.7014696406861,cathode,0.007454412403822909,0.006878517297011513,0.0001300781119241608,0.007187330573892342,400
7,60.92184368737475,992.7014696406861,interface_ae,0.01372000807816783,0.011961767634689976,-0.00022628339523192843,0.012936791354855627,400
7,60.92184368737475,992.7014696406861,interface_ec,0.013924705562114005,0.011924659136776256,0.0002560994714338834,0.013047770458185351,400
7,61.122244488977955,1035.1141009169892,anode,0.008025237671102253,0.006634505026492033,-0.00013431419413875625,0.007431805827976607,400
7,61.122244488977955,1035.1141009169892,electrolyte,0.0040448281563244485,0.004179926107783781,0.00023229589425360548,0.0041336688807969675,400
7,61.122244488977955,1035.1141009169892,cathode,0.008352548285305508,0.007384399298838275,2.0093757087035295e-05,0.007913095187013865,400
7,61.122244488977955,1035.1141009169892,interface_ae,0.014833136467147318,0.012532508181522786,-4.655864870663482e-05,0.013827356861095746,400
7,61.122244488977955,1035.1141009169892,interface_ec,0.014397329494564839,0.012711695896321117,-6.050086532106562e-06,0.013632899350182708,400
7,61.322645290581164,1073.8188423714755,anode,0.008983253168052544,0.007473755257136386,-2.4405555235363763e-05,0.008331806912510582,400
7,61.322645290581164,1073.8188423714755,electrolyte,0.004455373987598038,0.004030868083156807,0.00011073558462242429,0.00426333404475259,400
7,61.322645290581164,1073.8188423714755,cathode,0.008416643253504023,0.007471940334309026,3.495644272942258e-05,0.00798653777738183,400
7,61.322645290581164,1073.8188423714755,interface_ae,0.015551941476407049,0.013225899883296248,3.459162731493216e-05,0.014529366131829853,400
7,61.322645290581164,1073.8188423714755,interface_ec,0.015427334606004742,0.013507233889343466,-0.00013430315604887999,0.014564392043191014,400
7,61.52304609218437,1108.2052971103158,anode,0.009525524970344071,0.008527016856685481,-0.00012911352025527295,0.009070355083858764,400
7,61.52304609218437,1108.2052971103158,electrolyte,0.005117699438484612,0.003995798946341772,0.0001561431260696684,0.004667022687508329,400
7,61.52304609218437,1108.2052971103158,cathode,0.008827091339708541,0.007969844560597305,-0.0001309483450334029,0.008434267030819526,400
7,61.52304609218437,1108.2052971103158,interface_ae,0.01650990857565188,0.01377689577697999,0.00012335257063436303,0.015328740857029803,400
7,61.52304609218437,1108.2052971103158,interface_ec,0.016320909846049513,0.01425179263732373,-5.161470423934994e-05,0.015391278732934414,400
7,61.723446893787575,1137.731170200806,anode,0.009556163501070818,0.008196256202938944,-0.0001142737007488273,0.008956187116597736,400
7,61.723446893787575,1137.731170200806,electrolyte,0.005227228325467907,0.004848600832001118,-0.00011671421787490713,0.00505262001467505,400
7,61.723446893787575,1137.731170200806,cathode,0.00994204825559263,0.00860135872076524,-0.0001224232483542066,0.00934652525003378,400
7,61.723446893787575,1137.731170200806,interface_ae,0.016826393001171697,0.014764061245345562,-8.211112841503094e-05,0.015896519612508597,400
7,61.723446893787575,1137.731170200806,interface_ec,0.01782349034844776,0.014683915237443983,-0.00012032991120527687,0.01648086743021235,400
7,61.92384769539078,1161.9308209864078,anode,0.009560952819519786,0.008746307059627055,-8.567759611262797e-05,0.00918197684639126,400
7,61.92384769539078,1161.9308209864078,electrolyte,0.005346664386742982,0.00482022920840287,-7.263875278962453e-05,0.0051054001808595205,400
7,61.92384769539078,1161.9308209864078,cathode,0.009891322024201253,0.00841436504895305,0.00010249867672741376,0.00924349036735072,400
7,61.92384769539078,1161.9308209864078,interface_ae,0.01800640451173504,0.015088769910043202,9.547359224477655e-06,0.01673939544039532,400
7,61.92384769539078,1161.9308209864078,interface_ec,0.017717647507624897,0.014711520307343818,3.86401286097194e-05,0.016422387494809332,400
7,62.12424849699399,1180.4226065180615,anode,0.01071315141298472,0.00835855405981726,-0.00011595445644040545,0.009753508099134835,400
7,62.12424849699399,1180.4226065180615,electrolyte,0.005201739914133308,0.004860892042399402,6.7272818129466e-05,0.005041314344799847,400
7,62.12424849699399,1180.4226065180615,cathode,0.010097932577009862,0.00834826408353289,1.3856518745988643e-05,0.009346770763049097,400
7,62.12424849699399,1180.4226065180615,interface_ae,0.0177925023543219,0.015565633613701491,0.0001307286579131901,0.016791717811238,400
7,62.12424849699399,1180.4226065180615,interface_ec,0.017886529251532536,0.015062850160595345,0.0002369156837542289,0.01666024191724605,400
7,62.324649298597194,1192.9149002914755,anode,0.010124365811937807,0.009102494002003952,-2.309964977967475e-05,0.009654159821271609,400
7,62.324649298597194,1192.9149002914755,electrolyte,0.00550181785695793,0.004849367466583272,-0.00013259982851196607,0.005211408272056886,400
7,62.324649298597194,1192.9149002914755,cathode,0.010347642846837875,0.008647262823773576,-0.00019807401651075472,0.00961705669495787,400
7,62.324649298597194,1192.9149002914755,interface_ae,0.018655453289238448,0.015692085024734074,-2.355372426670617e-05,0.017364509062871222,400
7,62.324649298597194,1192.9149002914755,interface_ec,0.01819116038379628,0.01624849747712629,0.0001315071279579174,0.01730331890549256,400
7,62.5250501002004,1199.2106913713087,anode,0.010678985753078607,0.008739644728920457,-0.000259377433425513,0.00986374244969951,400
7,62.5250501002004,1199.2106913713087,electrolyte,0.006180350054346013,0.004736974361257526,-0.00011231996940300805,0.005603332978595183,400
7,62.5250501002004,1199.2106913713087,cathode,0.010514779460171948,0.00918141437605395,-3.4575834128199284e-06,0.009915565823938323,400
7,62.5250501002004,1199.2106913713087,interface_ae,0.019085102728470436,0.01622120063293039,-0.00016145717811030875,0.01782872460196003,400
7,62.5250501002004,1199.2106913713087,interface_ec,0.01849939314639078,0.01618356180035926,-0.00040689188457156567,0.01747128587409097,400
7,62.72545090180361,1199.2106913713087,anode,0.010344902279877517,0.008402028779165559,-7.148307021502869e-05,0.009524088071880538,400
7,62.72545090180361,1199.2106913713087,electrolyte,0.005504828812890399,0.004647830300287034,-8.283918781689128e-05,0.005132303926908846,400
7,62.72545090180361,1199.2106913713087,cathode,0.01006059589293837,0.009518851519698567,0.00028011930062420257,0.0098129611197769,400
7,62.72545090180361,1199.2106913713087,interface_ae,0.01835291043201174,0.0163709356767664,-5.991982357092793e-05,0.017446871102009074,400
7,62.72545090180361,1199.2106913713087,interface_ec,0.018740286420088136,0.015877318463406256,-9.896229618809486e-05,0.01748632213235175,400
7,62.92585170340681,1192.9149002914755,anode,0.010603049406871026,0.008799475607393801,-7.148271348288621e-05,0.009826977277112951,400
7,62.92585170340681,1192.9149002914755,electrolyte,0.005159027468900187,0.004449765152618543,-0.0002462070173403145,0.00486223892584208,400
7,62.92585170340681,1192.9149002914755,cathode,0.010311560768313733,0.008402709970535487,-3.9834076877781185e-05,0.009502290571694445,400
7,62.92585170340681,1192.9149002914755,interface_ae,0.01896523922290364,0.016130867238673924,-4.841534115392671e-06,0.017718902080001854,400
7,62.92585170340681,1192.9149002914755,interface_ec,0.018528083248977582,0.01633503973162375,7.811341805380668e-05,0.01753524225695582,400
7,63.12625250501002,1180.4226065180615,anode,0.010047151946771842,0.008195864366888444,5.908098272471148e-05,0.009261902181531117,400
7,63.12625250501002,1180.4226065180615,electrolyte,0.005711755377401289,0.004454019051428372,4.368041327070487e-05,0.005198835626294232,400
7,63.12625250501002,1180.4226065180615,cathode,0.01003642189626029,0.008568460082264879,-0.00037317330863434966,0.009411129965580939,400
7,63.12625250501002,1180.4226065180615,interface_ae,0.0181953545714078,0.01581341643436666,-9.471038333498373e-05,0.01712983533100812,400
7,63.12625250501002,1180.4226065180615,interface_ec,0.018277646902987235,0.015295820431636667,5.4066251443915934e-05,0.01698445358334602,400
7,63.32665330661323,1161.9308209864078,anode,0.009840143713562448,0.008137563109695203,0.00019988272014976916,0.00911555980155324,400
7,63.32665330661323,1161.9308209864078,electrolyte,0.005612195350964518,0.004352016355690673,7.466824641266661e-05,0.005101876429307668,400
7,63.32665330661323,1161.9308209864078,cathode,0.010066324273669415,0.008612025942403158,-0.00025413838439926166,0.009433991116228732,400
7,63.32665330661323,1161.9308209864078,interface_ae,0.01813116317339173,0.014983894340541933,-5.367419001619003e-05,0.016780625051632494,400
7,63.32665330661323,1161.9308209864078,interface_ec,0.018620545736760002,0.015245366043635956,-5.7948371317076324e-05,0.017183682599817278,400
7,63.52705410821643,1137.731170200806,anode,0.008928916900783705,0.008568858670902813,-0.00020178145062129036,0.008761416335125307,400
7,63.52705410821643,1137.731170200806,electrolyte,0.00486308652035579,0.0042900947729684405,0.00021246176875504386,0.0046180993507711834,400
7,63.52705410821643,1137.731170200806,cathode,0.009822477208610205,0.008104578177766827,4.624380954582314e-05,0.009086507964364023,400
7,63.52705410821643,1137.731170200806,interface_ae,0.017082793674837532,0.014715369082163638,1.10005117167205e-05,0.01603074159592924,400
7,63.52705410821643,1137.731170200806,interface_ec,0.017553540351403267,0.014963626412025718,7.409660733084671e-05,0.016413066293714074,400
7,63.72745490981964,1108.2052971103158,anode,0.009097964595170276,0.008048215221386028,-1.379526993045699e-05,0.008621190278300227,400
7,63.72745490981964,1108.2052971103158,electrolyte,0.00463286276915827,0.004092835180233096,1.267904756764868e-05,0.004387898790804671,400
7,63.72745490981964,1108.2052971103158,cathode,0.00947973359753353,0.007770610081421845,-0.0001813798066859409,0.008756889433944776,400
7,63.72745490981964,1108.2052971103158,interface_ae,0.016589026457370436,0.014120240171541147,2.7875644335412953e-05,0.015502847308474049,400
7,63.72745490981964,1108.2052971103158,interface_ec,0.01684796540716772,0.01439188033155115,-8.913163085724998e-05,0.015764837113386092,400
7,63.92785571142285,1073.8188423714755,anode,0.008574801913414499,0.007133638594918162,0.00010482235054207144,0.007954838323901413,400
7,63.92785571142285,1073.8188423714755,electrolyte,0.005151377929101642,0.003914697533737601,-3.6214584708748964e-05,0.004658261409916703,400
7,63.92785571142285,1073.8188423714755,cathode,0.009199679717898875,0.007597365564169306,6.543535572015826e-05,0.008513141951989786,400
7,63.92785571142285,1073.8188423714755,interface_ae,0.01541008595970041,0.013605875195552473,-0.0001393704510764637,0.014593873891800844,400
7,63.92785571142285,1073.8188423714755,interface_ec,0.015427154855712041,0.013298225301738634,-8.786890851730351e-05,0.014481342648977802,400
7,64.12825651302606,1035.1141009169892,anode,0.008190003403605347,0.006585716324775255,0.00014382244597015086,0.007521491263990428,400
7,64.12825651302606,1035.1141009169892,electrolyte,0.0047841045947738525,0.0031947261582138415,0.0001467686708499825,0.0042278423617001385,400
7,64.12825651302606,1035.1141009169892,cathode,0.008013324722974372,0.007275103476227566,-1.0266973899962345e-05,0.0076709225905140475,400
7,64.12825651302606,1035.1141009169892,interface_ae,0.014870302630681847,0.01257689017241255,0.0001818193806350229,0.013870150632992108,400
7,64.12825651302606,1035.1141009169892,interface_ec,0.01448979355770004,0.012814771568859417,0.00016519952473343253,0.013732114397785681,400
7,64.32865731462925,992.7014696406861,anode,0.007920021129491044,0.007246760913826607,-7.934201440870482e-05,0.007607014154162221,400
7,64.32865731462925,992.7014696406861,electrolyte,0.004436101734262862,0.003494746553759656,0.00018501091145290042,0.004061020553490525,400
7,64.32865731462925,992.7014696406861,cathode,0.007702812406612509,0.006432988504970841,0.00019591083058074433,0.00716098453911765,400
7,64.32865731462925,992.7014696406861,interface_ae,0.013721745807886378,0.011365014503483081,-7.752703247607427e-05,0.012709054012127928,400
7,64.32865731462925,992.7014696406861,interface_ec,0.014054924273568617,0.012206443856629376,1.6669406294476815e-05,0.013227938520934365,400
7,64.52905811623246,947.2498210738713,anode,0.007509706794130535,0.0056396580464230005,-6.648951972268543e-05,0.006772187477860985,400
7,64.52905811623246,947.2498210738713,electrolyte,0.0037441762123708684,0.0032217686071477777,1.2614158237529476e-05,0.0035123007327968066,400
7,64.52905811623246,947.2498210738713,cathode,0.007321520961177985,0.005913668471415131,2.0854303042968836e-05,0.006729071333380332,400
7,64.52905811623246,947.2498210738713,interface_ae,0.012792108946031375,0.010607031969991956,-1.7050003362215306e-05,0.011851655667173106,400
7,64.52905811623246,947.2498210738713,interface_ec,0.012762547954159454,0.010835274771658387,4.763918487217611e-06,0.01191638216383354,400
7,64.72945891783567,899.4759548659421,anode,0.006515889475441264,0.005389520747536462,0.0001909072100956897,0.0060411559089587,400
7,64.72945891783567,899.4759548659421,electrolyte,0.00314548749530069,0.0027555908989113863,0.00041699454363353333,0.0030563621216777525,400
7,64.72945891783567,899.4759548659421,cathode,0.006181790006760479,0.0051130828988557335,0.00011017151175018266,0.005725954325383181,400
7,64.72945891783567,899.4759548659421,interface_ae,0.011064601387730886,0.00986399456929186,0.00032187373876147325,0.010530595084967979,400
7,64.72945891783567,899.4759548659421,interface_ec,0.011224256567217027,0.009339987396561977,-0.00022487718029365472,0.010418089768269257,400
7,64.92985971943888,850.1332934257218,anode,0.00612124068503848,0.005311405908349971,-7.688831954677631e-05,0.005760725800411605,400
7,64.92985971943888,850.1332934257218,electrolyte,0.0033558967751803736,0.003095369694136642,0.00026810196216447377,0.0032666881578826443,400
7,64.92985971943888,850.1332934257218,cathode,0.00577783223018043,0.004283531377053231,-0.000123131838361453,0.005198840739803328,400
7,64.92985971943888,850.1332934257218,interface_ae,0.010405077807681315,0.00887546956726409,-2.8178910151307924e-05,0.009730983246783169,400
7,64.92985971943888,850.1332934257218,interface_ec,0.010868787445541093,0.009335479734243882,-2.5751048088717498e-05,0.010189129836281884,400
7,65.13026052104209,800.0,anode,0.005529545462815547,0.004527298409989327,9.675895929385757e-06,0.0051028112257415,400
7,65.13026052104209,800.0,electrolyte,0.003071963247132989,0.0024016756144713746,0.0003086716765646643,0.0028483292192846023,400
7,65.13026052104209,800.0,cathode,0.004768476649961633,0.004265448730272395,-1.8977834543092545e-05,0.0045380403517940576,400
7,65.13026052104209,800.0,interface_ae,0.0094918358071374,0.008336388146130929,-3.659785085423497e-06,0.008970101838164784,400
7,65.13026052104209,800.0,interface_ec,0.00893333110514814,0.008208754168936502,0.00011324381492129466,0.008596220284125959,400
7,65.3306613226453,749.8667065742783,anode,0.003965709587651797,0.003864885867544536,-0.00023852127460204466,0.003938001721425591,400
7,65.3306613226453,749.8667065742783,electrolyte,0.002249671616769329,0.0018108642260281158,0.00012138970473629786,0.002076200413865535,400
7,65.3306613226453,749.8667065742783,cathode,0.004583316237717273,0.0034803498074189674,0.00013200989444360134,0.004149741988164753,400
7,65.3306613226453,749.8667065742783,interface_ae,0.007756739186659589,0.007057882930903679,-0.00012210160039373335,0.007435003939048163,400
7,65.3306613226453,749.8667065742783,interface_ec,0.008077177809078958,0.007110130018173911,7.821740985892935e-05,0.007640897834807762,400
7,65.53106212424849,700.5240451340582,anode,0.004307903308809544,0.0032961145888299064,4.5967629444501094e-05,0.0039024861852649828,400
7,65.53106212424849,700.5240451340582,electrolyte,0.0019723471192171094,0.001842715033334485,6.592290720127674e-05,0.0019142402289961456,400
7,65.53106212424849,700.5240451340582,cathode,0.0038773196325064432,0.0027796655535035934,4.972063444963429e-05,0.0034626453361589296,400
7,65.53106212424849,700.5240451340582,interface_ae,0.007141631099343599,0.005773371214812032,-0.00019265805541087712,0.006573794483121539,400
7,65.53106212424849,700.5240451340582,interface_ec,0.007475026401288151,0.006124856910984738,-3.436215463825645e-05,0.006899997611541865,400
7,65.7314629258517,652.7501789261288,anode,0.0029446424610954283,0.002546345028607319,0.00019538855951793473,0.0027876955723562186,400
7,65.7314629258517,652.7501789261288,electrolyte,0.0018105498347433153,0.0013386874445102544,7.645338468369841e-05,0.001632161084830854,400
7,65.7314629258517,652.7501789261288,cathode,0.003041432869805777,0.0032431423862178364,0.00020292008023450875,0.003166704321657075,400
7,65.7314629258517,652.7501789261288,interface_ae,0.0057743819655105815,0.004838599984731444,-0.00039271997980384193,0.0054109425568301265,400
7,65.7314629258517,652.7501789261288,interface_ec,0.005469879955406004,0.004625360126353375,2.027855114810788e-05,0.005100452140962366,400
7,65.93186372745491,607.2985303593139,anode,0.0025970107833386724,0.0018870481142458458,-4.217460636968359e-05,0.002325955155446487,400
7,65.93186372745491,607.2985303593139,electrolyte,0.0016026908568094016,0.0013917780606125935,-0.0002849505421288322,0.0015870301239831043,400
7,65.93186372745491,607.2985303593139,cathode,0.002656401850525931,0.0018756465273789351,0.0001352593045710411,0.002376328053805584,400
7,65.93186372745491,607.2985303593139,interface_ae,0.005086029535313995,0.0038537596009494157,-0.00011490678036005996,0.004599829893385801,400
7,65.93186372745491,607.2985303593139,interface_ec,0.004712405495258453,0.0034473297504273516,5.039522601608649e-05,0.004225310797616834,400
7,66.13226452905812,564.8858990830109,anode,0.0020616633241771027,0.0021130417096376286,-0.0001647613826943829,0.0021072397285052803,400
7,66.13226452905812,564.8858990830109,electrolyte,0.0009684644091060969,0.0005291135221321805,-0.00015064358452413797,0.0008795096844955139,400
7,66.13226452905812,564.8858990830109,cathode,0.0017889220892586765,0.0021207812885212043,-0.00010473927731270884,0.0019841758919745983,400
7,66.13226452905812,564.8858990830109,interface_ae,0.0038955827439658406,0.0031653515116025466,-0.00019041978990192191,0.0036017919802596543,400
7,66.13226452905812,564.8858990830109,interface_ec,0.0038078399115909637,0.0034593115323201663,-0.00018116390888150283,0.0036595679575868556,400
7,66.33266533066133,526.1811576285247,anode,0.001883088886390235,0.0011393855153518893,-7.244758891092611e-05,0.0016475451025037137,400
7,66.33266533066133,526.1811576285247,electrolyte,0.0010424730403026873,0.0005517470407238757,5.636228900379841e-06,0.0009033762908736898,400
7,66.33266533066133,526.1811576285247,cathode,0.0015459478005343938,0.0014331121938063439,-0.00035711086582852455,0.0016158072377477517,400
7,66.33266533066133,526.1811576285247,interface_ae,0.002403734543945054,0.0026945333270454084,0.00015557721084735754,0.002575678469042287,400
7,66.33266533066133,526.1811576285247,interface_ec,0.0026794930774480226,0.002436534719580017,4.420788793534523e-05,0.0025677947133292108,400
7,66.53306613226454,491.79470288968423,anode,0.0014012964180635063,0.00040602828542975623,-0.00013290603704675655,0.0012698490783915536,400
7,66.53306613226454,491.79470288968423,electrolyte,0.000542789106272827,0.0007571205413644358,0.00037476457255822417,0.0009371447063237753,400
7,66.53306613226454,491.79470288968423,cathode,0.0011249294195229797,0.0005922382282998143,6.03402115801947e-05,0.000980259626317442,400
7,66.53306613226454,491.79470288968423,interface_ae,0.0025442947844808244,0.00185820087676967,-0.0001359972817731439,0.0022921652277770425,400
7,66.53306613226454,491.79470288968423,interface_ec,0.002435394230062617,0.0020248603260253502,-0.00015391212662934365,0.0022739696720096396,400
7,66.73346693386773,462.2688297991939,anode,0.0009239224726498232,0.0009872502395787543,0.00017728350638383404,0.0010052071495205248,400
7,66.73346693386773,462.2688297991939,electrolyte,0.00041594711600152046,0.000263075703451408,0.00018409107331218938,0.00048421464118245404,400
7,66.73346693386773,462.2688297991939,cathode,0.0004464466364952552,0.0008196443565573942,-0.00020550399410466436,0.0007949211779452443,400
7,66.73346693386773,462.2688297991939,interface_ae,0.0017767034989790182,0.0011611133700226183,0.00019028748534712038,0.0015970389398315414,400
7,66.73346693386773,462.2688297991939,interface_ec,0.0016045144442077956,0.0008715609556873879,0.0002136941598115865,0.001439669594231586,400
7,66.93386773547094,438.0691790135921,anode,0.000960272907105016,0.0006853503758799572,-0.00011423817975543298,0.0008791227907115474,400
7,66.93386773547094,438.0691790135921,electrolyte,0.0001746800667879219,0.0002701397803526007,-0.00010555655989971499,0.00029954491115941816,400
7,66.93386773547094,438.0691790135921,cathode,0.0010026032989156586,0.0004639623696180036,-0.00040550220706610354,0.0011174078811574677,400
7,66.93386773547094,438.0691790135921,interface_ae,0.000992625532744921,0.0006527487515351527,-1.1238983417767182e-05,0.0008739738256329363,400
7,66.93386773547094,438.0691790135921,interface_ec,0.000780232979182345,0.0009993098955623527,0.00016795316678300717,0.0009551513131064142,400
7,67.13426853707415,419.5773934819386,anode,0.0003394220639427979,0.00011453684183397384,-6.200580721375537e-06,0.0002992741819461866,400
7,67.13426853707415,419.5773934819386,electrolyte,0.00014292163934685867,-0.00012424352074191637,8.683929728568522e-05,0.00027612194002254786,400
7,67.13426853707415,419.5773934819386,cathode,0.00039251881242334167,0.0006784625699084235,0.00018830246704327125,0.0006741265548415794,400
7,67.13426853707415,419.5773934819386,interface_ae,0.00025240853220032426,0.0006354838687084481,-0.00014264300746417074,0.0006067860798615652,400
7,67.13426853707415,419.5773934819386,interface_ec,0.0006668906377596182,0.00023441009672772647,-0.00015348798350633765,0.000643460177880349,400
7,67.33466933867736,407.0850997085245,anode,0.00017611989902004013,-0.0007240797866670462,-0.00026264633616078416,0.0009432835781974196,400
7,67.33466933867736,407.0850997085245,electrolyte,-3.651867172613288e-06,6.688887325617364e-05,-5.5397815523728326e-05,0.00011806134284424893,400
7,67.33466933867736,407.0850997085245,cathode,-0.0003817245934044607,-0.00016707720086235562,5.868139908560908e-05,0.00034667203447552017,400
7,67.33466933867736,407.0850997085245,interface_ae,0.0003403258643679826,0.00013605569792377042,0.00017352506715554832,0.0004223297534998631,400
7,67.33466933867736,407.0850997085245,interface_ec,0.00028501044021724415,-8.331406298491088e-05,-4.20753080117426e-05,0.00034238656008135995,400
7,67.53507014028057,400.7893086286914,anode,-0.00041059883498936815,-2.371983677038504e-05,0.00016681509288320076,0.0004928453329878195,400
7,67.53507014028057,400.7893086286914,electrolyte,0.00021111218581413015,0.00042529918411645035,-4.543278656984896e-05,0.00037663553325735543,400
7,67.53507014028057,400.7893086286914,cathode,0.0004140909505272655,-4.9269407587350974e-05,0.00022073776238548407,0.0005835034574715008,400
7,67.53507014028057,400.7893086286914,interface_ae,1.1912797678741689e-05,0.00022786876076595497,0.0002212668546464783,0.0004429769693027771,400
7,67.53507014028057,400.7893086286914,interface_ec,-3.955846666298288e-05,8.121604488792423e-05,0.0001933295137809453,0.00035142937147098575,400
7,67.73547094188378,400.7893086286914,anode,-2.963993700603086e-05,-0.0003875458244048083,0.0003214510581877364,0.0006705041435271386,400
7,67.73547094188378,400.7893086286914,electrolyte,-0.00013540417890030122,5.232320162197668e-05,0.00017340100041766905,0.00034403562327503653,400
7,67.73547094188378,400.7893086286914,cathode,-0.0001722871589463723,-0.00029363851361959904,3.806059451622497e-05,0.00026393583143364434,400
7,67.73547094188378,400.7893086286914,interface_ae,-0.000519453097462338,-7.067247443570409e-05,3.675579964731088e-05,0.0004921057302839176,400
7,67.73547094188378,400.7893086286914,interface_ec,-6.251574713617044e-05,-0.0004473359343310521,0.0002391266934306018,0.0005895734417029192,400
7,67.93587174348697,407.0850997085245,anode,0.00012316774239557143,0.0005076359871077183,-3.9005437527066704e-05,0.0004635779137889099,400
7,67.93587174348697,407.0850997085245,electrolyte,-0.0002144078965475575,0.00012291061934226888,-3.236806894923294e-05,0.00030095489606930896,400
7,67.93587174348697,407.0850997085245,cathode,-0.00026122214118658854,0.0005192256294154447,-9.33405334340994e-05,0.0007068259032520766,400
7,67.93587174348697,407.0850997085245,interface_ae,-0.0003862885822591966,0.0005393724493897526,-7.564470237189348e-05,0.0008158806835069428,400
7,67.93587174348697,407.0850997085245,interface_ec,-1.655583460521341e-05,-0.0003886936429064393,0.0002611412229895486,0.000591190249466894,400
7,68.13627254509018,419.57739348193854,anode,-0.00013233806089770514,0.00023386504218711587,0.00013689304838106605,0.0003992174678033663,400
7,68.13627254509018,419.57739348193854,electrolyte,0.00026355683427449884,9.858919761987684e-05,-0.00025524987874311244,0.0004986538676846796,400
7,68.13627254509018,419.57739348193854,cathode,1.1588664535015921e-05,0.0002726702993881775,-0.00011807611049804944,0.00033637688430823286,400
7,68.13627254509018,419.57739348193854,interface_ae,0.0005191188454769922,0.0005939173790003001,0.00014437543287001525,0.0006135481411933437,400
7,68.13627254509018,419.57739348193854,interface_ec,9.025720013355692e-05,0.0010483881728494439,0.00011512190168311958,0.0010258648540394742,400
7,68.33667334669339,438.069179013592,anode,0.0004943850810759772,0.000747525403023184,0.000354811165799996,0.0009007321020728425,400
7,68.33667334669339,438.069179013592,electrolyte,-0.00016513177722191666,0.00015893282238346648,-0.0003567647489809992,0.0006786871618387565,400
7,68.33667334669339,438.069179013592,cathode,0.0005526947869711038,0.0005302827006777341,-5.874317316413914e-06,0.0005419320148407594,400
7,68.33667334669339,438.069179013592,interface_ae,0.0006944587176185605,0.00014234161572384781,5.60300525117653e-05,0.0006427299358808234,400
7,68.33667334669339,438.069179013592,interface_ec,0.001327449134092651,0.0005798904338603157,6.600898935347174e-05,0.001158313698708578,400
7,68.5370741482966,462.268829799194,anode,0.00033905149336350694,0.0008252344883888479,-5.9007344661698554e-05,0.0007256834643887049,400
7,68.5370741482966,462.268829799194,electrolyte,0.00020715642341348372,0.0001423904449403652,-5.904173730495149e-05,0.00021011784194028307,400
7,68.5370741482966,462.268829799194,cathode,0.0009242247820972827,0.00029442160892243847,-5.956729973517792e-05,0.0008242624423600753,400
7,68.5370741482966,462.268829799194,interface_ae,0.0014446490839013957,0.0009088152573464112,0.0002694997802512525,0.0013483053857743365,400
7,68.5370741482966,462.268829799194,interface_ec,0.0012010419732827375,0.0010376959506159219,-0.00014674619247337468,0.001156547297058196,400
7,68.7374749498998,491.7947028896842,anode,0.0017328751637073296,0.0011802030355108546,-0.0001404888009365463,0.0015523537996280827,400
7,68.7374749498998,491.7947028896842,electrolyte,0.0009744323878857798,0.0006063880904802843,3.858801316672525e-05,0.0008548730339210453,400
7,68.7374749498998,491.7947028896842,cathode,0.0010899879749401585,0.0007895066708439182,5.06649148581902e-05,0.000979051884354986,400
7,68.7374749498998,491.7947028896842,interface_ae,0.001984469878619933,0.00237082332934835,-0.0001903936657864656,0.002227744535943429,400
7,68.7374749498998,491.7947028896842,interface_ec,0.0026088430794750936,0.0017924009858364784,4.486286010316588e-05,0.002312727530094876,400
7,68.93787575150301,526.1811576285245,anode,0.0018903023791596485,0.0012052270032938647,0.00012963725770479546,0.0016727191031751713,400
7,68.93787575150301,526.1811576285245,electrolyte,7.100494678531817e-05,0.0005347810279231389,-0.0001386094211011598,0.0005574029661914534,400
7,68.93787575150301,526.1811576285245,cathode,0.0012643032454592899,0.00132981534037151,5.786249522725422e-05,0.001302162006178498,400
7,68.93787575150301,526.1811576285245,interface_ae,0.0031634370880572653,0.0025820062523914744,-9.985401973403202e-05,0.002921641427835574,400
7,68.93787575150301,526.1811576285245,interface_ec,0.0030633440198550234,0.0025470289336866074,0.0001404084251904024,0.0028509911782054025,400
7,69.13827655310621,564.8858990830106,anode,0.002376597698958593,0.001831132109043456,-0.00013458795092418852,0.0021688104611111724,400
7,69.13827655310621,564.8858990830106,electrolyte,0.0009583162468314501,0.0008161342916525031,-4.728995008743836e-05,0.0008994662182668096,400
7,69.13827655310621,564.8858990830106,cathode,0.002223931816356064,0.0020365415019056848,-7.667803952306648e-06,0.0021364505510354744,400
7,69.13827655310621,564.8858990830106,interface_ae,0.0038631674749125904,0.0033225724242610826,-7.7385796969851e-05,0.003625722330233491,400
7,69.13827655310621,564.8858990830106,interface_ec,0.003580712361249562,0.0027529491635678686,-0.00010427240371153085,0.0032519731262485355,400
7,69.33867735470942,607.2985303593135,anode,0.002836824530651412,0.0020797753290585446,-3.567105561389095e-05,0.0025449751350406385,400
7,69.33867735470942,607.2985303593135,electrolyte,0.0015910190987388898,0.0013896331045647162,-0.00016192992782490583,0.0015264838789937933,400
7,69.33867735470942,607.2985303593135,cathode,0.0029939987016071685,0.0026288537872770604,-0.00016947747858278396,0.0028443423636271502,400
7,69.33867735470942,607.2985303593135,interface_ae,0.0046036345495155916,0.004480494973790604,-2.202802818829513e-05,0.004543476699341673,400
7,69.33867735470942,607.2985303593135,interface_ec,0.004184852226172382,0.0037032633174269415,-3.740544377587218e-05,0.003966577254603205,400
7,69.53907815631263,652.7501789261289,anode,0.0029368395309542954,0.0026688623459427924,4.859432052536809e-06,0.002812454987047174,400
7,69.53907815631263,652.7501789261289,electrolyte,0.002207927633693321,0.0014167273897421303,0.00016088126993591382,0.001957467171704,400
7,69.53907815631263,652.7501789261289,cathode,0.003714380374650707,0.0032231823779393476,4.271318900783523e-05,0.0034955506132878147,400
7,69.53907815631263,652.7501789261289,interface_ae,0.005325367442519726,0.005165448518461865,0.00015725998317203113,0.005254300860763703,400
7,69.53907815631263,652.7501789261289,interface_ec,0.0058900340552407926,0.005550576219863279,0.00012897503422011863,0.005732208846645405,400
7,69.73947895791584,700.5240451340578,anode,0.004077294599888587,0.00364670491209309,5.000547768913171e-05,0.0038809276427288508,400
7,69.73947895791584,700.5240451340578,electrolyte,0.0013558251661197982,0.0016383763831065339,0.00017957520408717803,0.0015485247443233546,400
7,69.73947895791584,700.5240451340578,cathode,0.003664535184713263,0.003253748947160257,-0.00015672544708546067,0.003487966661157739,400
7,69.73947895791584,700.5240451340578,interface_ae,0.007567439434697483,0.0064818709949418145,-0.0001325803342711094,0.007091005404753572,400
7,69.73947895791584,700.5240451340578,interface_ec,0.007076452056253678,0.005773275043387195,9.22416958547067e-05,0.006525189650142088,400
7,69.93987975951904,749.8667065742782,anode,0.004701172108638315,0.004109538779129754,4.978776715618309e-05,0.004435889487991438,400
7,69.93987975951904,749.8667065742782,electrolyte,0.0033296888079364876,0.0017733297746137333,-0.0002565905031654771,0.0029196585079185816,400
7,69.93987975951904,749.8667065742782,cathode,0.004430340125255178,0.003395630627977694,-0.0002238693405008989,0.0040329610474538645,400
7,69.93987975951904,749.8667065742782,interface_ae,0.00788648653757872,0.0066821921221329045,-0.000143192715292509,0.007362802164456697,400
7,69.93987975951904,749.8667065742782,interface_ec,0.008342346618971734,0.006806992075436792,-2.692718623087202e-05,0.00769062911082805,400
8,70.14028056112225,800.0,anode,0.005668269832350281,0.004360103242565572,-3.9681884805708324e-05,0.005141037391260758,400
8,70.14028056112225,800.0,electrolyte,0.0029097279958278746,0.0017975296598139335,-0.0003577358263425873,0.0026174858695837844,400
8,70.14028056112225,800.0,cathode,0.005503835198639317,0.00473760428417007,0.00030963302022786156,0.005191312054998651,400
8,70.14028056112225,800.0,interface_ae,0.009767428462760044,0.008507921915177429,-2.932089653789607e-05,0.009202687355417915,400
8,70.14028056112225,800.0,interface_ec,0.009809168166475528,0.00876217705252486,-0.0003185989227188453,0.009346142221580716,400
8,70.34068136272545,850.1332934257217,anode,0.006200884338518748,0.005805955561083366,4.2305132881401374e-05,0.006013600986173644,400
8,70.34068136272545,850.1332934257217,electrolyte,0.003646104942949906,0.002489529451024211,-4.807124124557027e-06,0.003227200308448323,400
8,70.34068136272545,850.1332934257217,cathode,0.00608685687196382,0.004500002218252525,-0.00017522667417753002,0.005477325102644351,400
8,70.34068136272545,850.1332934257217,interface_ae,0.010609176506429842,0.00954412299911804,0.00013082296585260824,0.010121312583619797,400
8,70.34068136272545,850.1332934257217,interface_ec,0.011035449963056998,0.009544734044764993,-2.4622411908266087e-05,0.010370847974020467,400
8,70.54108216432866,899.475954865942,anode,0.00710350489155208,0.005734123114876305,8.67960711401347e-06,0.006527465362015821,400
8,70.54108216432866,899.475954865942,electrolyte,0.00341665389408287,0.0031772170747432827,-6.317982249193697e-05,0.0033052618884339587,400
8,70.54108216432866,899.475954865942,cathode,0.007035854803849637,0.005391841839871882,-0.00016483743820922906,0.0063812623421618635,400
8,70.54108216432866,899.475954865942,interface_ae,0.012343493729780343,0.010290112583381127,-6.808371242296924e-05,0.011456274283543424,400
8,70.54108216432866,899.475954865942,interface_ec,0.01240428302298503,0.010134497423530207,-3.0030188145055473e-05,0.01143965936736203,400
8,70.74148296593187,947.2498210738712,anode,0.007807640969518609,0.006741434400565867,0.00023585973154054905,0.007344275682852959,400
8,70.74148296593187,947.2498210738712,electrolyte,0.003746111014436925,0.003625347306884875,-0.0001423429241653017,0.0036954460995557996,400
8,70.74148296593187,947.2498210738712,cathode,0.007115801722080643,0.005574554941035364,0.0002509302302847795,0.006498597327942958,400
8,70.74148296593187,947.2498210738712,interface_ae,0.01303897669737225,0.011265485280356693,-0.00013654865128924257,0.012251188042957122,400
8,70.74148296593187,947.2498210738712,interface_ec,0.013506720226594115,0.01119075495606561,-0.00019572253356494237,0.012515151352687635,400
8,70.94188376753507,992.7014696406861,anode,0.008133968609405082,0.006371130356683805,-0.00012561085879732369,0.007414681874261004,400
8,70.94188376753507,992.7014696406861,electrolyte,0.0035168435530969788,0.0030993863107028003,2.6779375458071675e-05,0.0033281344202765154,400
8,70.94188376753507,992.7014696406861,cathode,0.007412109028718386,0.006356905646740359,-3.553374199212085e-07,0.006944892533009206,400
8,70.94188376753507,992.7014696406861,interface_ae,0.01423956364344076,0.012839859846216165,0.0002750844819036563,0.013602212562284567,400
8,70.94188376753507,992.7014696406861,interface_ec,0.014142268973443329,0.012409390140949418,0.0001123923835319177,0.013361799967124036,400
8,71.14228456913828,1035.1141009169892,anode,0.008394796704972033,0.00683927184707299,-1.8447673962086416e-06,0.007735241725974594,400
8,71.14228456913828,1035.1141009169892,electrolyte,0.004393945003974691,0.0036481995513649,6.634753022467278e-05,0.004074227590183376,400
8,71.14228456913828,1035.1141009169892,cathode,0.008348821480277675,0.006942335043748708,1.6362445552474778e-05,0.007742049032494368,400
8,71.14228456913828,1035.1141009169892,interface_ae,0.015549063680053501,0.012765288271270396,0.00013921359164866215,0.014363002019879693,400
8,71.14228456913828,1035.1141009169892,interface_ec,0.014902128310950015,0.01294484771682572,-3.870128042964135e-05,0.014026447245589364,400
8,71.34268537074149,1073.8188423714755,anode,0.00890568725821934,0.007562553074147325,0.0002806611723462171,0.008330069271587866,400
8,71.34268537074149,1073.8188423714755,electrolyte,0.004461466669888658,0.004741588628851852,6.556901695965777e-05,0.0046093172845654866,400
8,71.34268537074149,1073.8188423714755,cathode,0.009124170913208518,0.007874943322228982,0.0003794891623877928,0.008593307538487216,400
8,71.34268537074149,1073.8188423714755,interface_ae,0.01607571996844742,0.01358160281350191,-0.00011322992948578814,0.014986431429327061,400
8,71.34268537074149,1073.8188423714755,interface_ec,0.016383440813716225,0.013399996851739055,3.350885897791201e-06,0.015114199511850354,400
8,71.54308617234469,1108.2052971103158,anode,0.010068835651013366,0.008172078001528306,-4.3902818846291534e-05,0.009267512194652796,400
8,71.54308617234469,1108.2052971103158,electrolyte,0.004771988945167122,0.004483375029171848,-0.00012387491598570712,0.004639391021802744,400
8,71.54308617234469,1108.2052971103158,cathode,0.010114690287169038,0.008706663708655181,3.851261979926813e-05,0.009489583518734346,400
8,71.54308617234469,1108.2052971103158,interface_ae,0.017205934193357683,0.01493717835428604,0.00016421977533409877,0.016193710669869535,400
8,71.54308617234469,1108.2052971103158,interface_ec,0.016967591200462852,0.014470013871872562,-0.0001983521152024943,0.01587063966070884,400
8,71.7434869739479,1137.731170200806,anode,0.010082090279211097,0.008665453543091315,-0.00020248884567919092,0.00946021933000255,400
8,71.7434869739479,1137.731170200806,electrolyte,0.005027558519960793,0.003985324287420391,-0.00013481997153657563,0.004601872721586453,400
8,71.7434869739479,1137.731170200806,cathode,0.01012467591577877,0.008245420558050765,-4.5123893404844795e-05,0.009328446823366747,400
8,71.7434869739479,1137.731170200806,interface_ae,0.01743867391749539,0.015293934383415045,-6.640997976697324e-06,0.01647136832827059,400
8,71.7434869739479,1137.731170200806,interface_ec,0.017708179660869638,0.015181133031192904,2.7044232075516655e-05,0.016589707351606676,400
8,71.9438877755511,1161.9308209864078,anode,0.0100416056386437,0.008300277407618496,0.0002708361649030223,0.009305933220879694,400
8,71.9438877755511,1161.9308209864078,electrolyte,0.005143533935491771,0.004504460353913059,0.000151625960253047,0.0048627390460078065,400
8,71.9438877755511,1161.9308209864078,cathode,0.01134478263958765,0.008369810235852369,6.747408205897649e-05,0.010189101870065711,400
8,71.9438877755511,1161.9308209864078,interface_ae,0.018302653264381477,0.015576044016101239,-0.00010803180315101848,0.017104161583127317,400
8,71.9438877755511,1161.9308209864078,interface_ec,0.018177222459629532,0.015725293698938853,-0.00022117540305723532,0.017088033009474108,400
8,72.14428857715431,1180.4226065180615,anode,0.010819747457947393,0.00897185029060477,6.336524593521597e-05,0.010024965026328308,400
8,72.14428857715431,1180.4226065180615,electrolyte,0.005323101662042563,0.004533353328518941,4.3134585775099214e-05,0.004976020985228927,400
8,72.14428857715431,1180.4226065180615,cathode,0.010186489998272085,0.008847952279470757,-0.0001289420270817681,0.009590158432670196,400
8,72.14428857715431,1180.4226065180615,interface_ae,0.018697098695211592,0.015486677465442867,0.00020089898842199993,0.017320041071414678,400
8,72.14428857715431,1180.4226065180615,interface_ec,0.018758307712442766,0.016468641754179624,0.00016031884820914382,0.017726915304998415,400
8,72.34468937875752,1192.9149002914755,anode,0.010318551241979971,0.008772175110142827,0.00038407544390335255,0.009661778271031391,400
8,72.34468937875752,1192.9149002914755,electrolyte,0.006075682084618472,0.004708388102735848,3.860596596260241e-05,0.005520926854970921,400
8,72.34468937875752,1192.9149002914755,cathode,0.010515097233050764,0.009228404295104783,-0.00010757728510837071,0.009936189702411283,400
8,72.34468937875752,1192.9149002914755,interface_ae,0.01865812594779334,0.015981190529567115,3.1639121775880864e-06,0.017474125985602832,400
8,72.34468937875752,1192.9149002914755,interface_ec,0.01892851190643208,0.01635747402604637,-0.00016119915591492946,0.01778512955103655,400
8,72.54509018036072,1199.2106913713087,anode,0.01055463815676207,0.009426892275409725,3.712208214601569e-05,0.010038594614266523,400
8,72.54509018036072,1199.2106913713087,electrolyte,0.005591575513205156,0.0050189928055804816,7.20912890021021e-05,0.005329870513582616,400
8,72.54509018036072,1199.2106913713087,cathode,0.011223313320888079,0.009032984904791225,-6.44452467791263e-05,0.01030485409645294,400
8,72.54509018036072,1199.2106913713087,interface_ae,0.0190304870204054,0.016379002615062657,0.00014471548414536682,0.017854791904107034,400
8,72.54509018036072,1199.2106913713087,interface_ec,0.019810816012001443,0.016795788380700383,-0.0002691287799824154,0.01849448447253181,400
8,72.74549098196393,1199.2106913713087,anode,0.01111428789731089,0.008619387096504146,0.00013471759861835212,0.010103332429892245,400
8,72.74549098196393,1199.2106913713087,electrolyte,0.005484139481627844,0.0049660636078394434,-0.00019986725218418486,0.00525574246577171,400
8,72.74549098196393,1199.2106913713087,cathode,0.011140694623324511,0.008731450259654302,-0.00010026823662797664,0.010154262185075891,400
8,72.74549098196393,1199.2106913713087,interface_ae,0.01912139141199209,0.015981411374427632,1.4179135138270253e-05,0.01776082486784936,400
8,72.74549098196393,1199.2106913713087,interface_ec,0.01996264653567389,0.017307768396970385,1.4573368062937163e-05,0.01877652464942761,400
8,72.94589178356713,1192.9149002914755,anode,0.011039355536455176,0.009168326872223242,7.48324792152319e-05,0.010233766070177805,400
8,72.94589178356713,1192.9149002914755,electrolyte,0.005447759706702157,0.00477636673436106,8.062180569096428e-05,0.005146918144856432,400
8,72.94589178356713,1192.9149002914755,cathode,0.01053081323527202,0.009075450190876784,-8.764517849623235e-06,0.009883834429382557,400
8,72.94589178356713,1192.9149002914755,interface_ae,0.019515753072282014,0.016057847614032124,-7.731331291147733e-06,0.018037136091586956,400
8,72.94589178356713,1192.9149002914755,interface_ec,0.019841433717798666,0.01672687531129621,0.00020237685733330576,0.018485359911011582,400
8,73.14629258517034,1180.4226065180615,anode,0.010543034740047242,0.009051648678900563,0.0001503354250054388,0.009885538987823003,400
8,73.14629258517034,1180.4226065180615,electrolyte,0.005931034904485709,0.004058033634917599,-0.00019731619605747682,0.005262439921914248,400
8,73.14629258517034,1180.4226065180615,cathode,0.010928538418414626,0.008872282603064116,-0.0001007581183887116,0.010060801452172904,400
8,73.14629258517034,1180.4226065180615,interface_ae,0.018588021042290216,0.01595312392716733,-0.00021035539251357371,0.017424478018844964,400
8,73.14629258517034,1180.4226065180615,interface_ec,0.01959159762020864,0.01611289812203639,-8.692581264407635e-06,0.018104667723651914,400
8,73.34669338677355,1161.9308209864078,anode,0.010462489085866854,0.009031859721599,0.00014188322348319588,0.009828673699311286,400
8,73.34669338677355,1161.9308209864078,electrolyte,0.005655602330077125,0.004344234719631869,-4.468002074352918e-05,0.005127859000132295,400
8,73.34669338677355,1161.9308209864078,cathode,0.010516775579949187,0.008584939452327143,-7.659948040837533e-07,0.009696281461045068,400
8,73.34669338677355,1161.9308209864078,interface_ae,0.018634548079297153,0.015973236632167365,-0.00026665214435553017,0.01746281577297904,400
8,73.34669338677355,1161.9308209864078,interface_ec,0.018729342644936392,0.015667563890118735,0.00010611865662965714,0.017402627536115736,400
8,73.54709418837676,1137.731170200806,anode,0.010192450305417329,0.008947839696389995,0.00020301804714318046,0.009637069886474644,400
8,73.54709418837676,1137.731170200806,electrolyte,0.00556808969018873,0.0048226015584446665,4.370684772239189e-05,0.005235853458381794,400
8,73.54709418837676,1137.731170200806,cathode,0.009969026323821932,0.00872731030300775,0.00010981214271495335,0.00941173846551508,400
8,73.54709418837676,1137.731170200806,interface_ae,0.017834147564858106,0.015359284343140127,-5.264470017689162e-06,0.016734538373565064,400
8,73.54709418837676,1137.731170200806,interface_ec,0.01767068756334157,0.01562497554291055,8.279886379513382e-06,0.016741839933045503,400
8,73.74749498997996,1108.2052971103158,anode,0.01017538398829892,0.007639008103280924,-8.351681592650494e-05,0.009175182207800494,400
8,73.74749498997996,1108.2052971103158,electrolyte,0.004967228730779471,0.004555035847095052,5.992040589032775e-05,0.004775623442850914,400
8,73.74749498997996,1108.2052971103158,cathode,0.00965391333724349,0.00778847664657463,-0.00017354120958442068,0.008874653924314004,400
8,73.74749498997996,1108.2052971103158,interface_ae,0.017306140117867647,0.014218748613668066,-7.978166254339928e-05,0.015988206198636362,400
8,73.74749498997996,1108.2052971103158,interface_ec,0.01735966391850643,0.01433328313013054,0.00024080339435427096,0.016067168931965345,400
8,73.94789579158316,1073.8188423714755,anode,0.009463735275286288,0.007260645216711192,-0.00013985568647729806,0.008580507496881573,400
8,73.94789579158316,1073.8188423714755,electrolyte,0.004030998723251843,0.0037744447033458382,0.0001149582714858599,0.003914108833163781,400
8,73.94789579158316,1073.8188423714755,cathode,0.008972385889332463,0.007870310389297473,-0.00022835014774226162,0.008484483700219975,400
8,73.94789579158316,1073.8188423714755,interface_ae,0.016613190446001427,0.013751195420804321,1.8254523424357794e-06,0.015383180877409152,400
8,73.94789579158316,1073.8188423714755,interface_ec,0.01634593551920894,0.013536263632915142,-0.00017296264976096734,0.015140901454600073,400
8,74.14829659318637,1035.1141009169892,anode,0.008864378703080381,0.007407631955272959,0.000157507356233014,0.008237754046682224,400
8,74.14829659318637,1035.1141009169892,electrolyte,0.0045431961770696794,0.0038218260908988505,-0.00025890159280001493,0.004252619262417231,400
8,74.14829659318637,1035.1141009169892,cathode,0.008492930353351002,0.007279719011901328,0.00029296607974088607,0.007972171328483947,400
8,74.14829659318637,1035.1141009169892,interface_ae,0.015639359641912442,0.01357910010895327,8.963065588420923e-05,0.014718600494748964,400
8,74.14829659318637,1035.1141009169892,interface_ec,0.015219881684197994,0.013153419019285368,3.543354693963495e-05,0.01429921381651547,400
8,74.34869739478958,992.7014696406861,anode,0.007719723169218059,0.006685933151148997,-3.08650490515758e-05,0.007258452507937632,400
8,74.34869739478958,992.7014696406861,electrolyte,0.004630596237254338,0.0029023515867447887,0.00018087276310740645,0.004065045236905338,400
8,74.34869739478958,992.7014696406861,cathode,0.007720431269661448,0.006389625607945989,0.0001769913195057696,0.007155116130141485,400
8,74.34869739478958,992.7014696406861,interface_ae,0.014622215133038989,0.01261860446614273,0.0001201052921318365,0.013732067605818153,400
8,74.34869739478958,992.7014696406861,interface_ec,0.015020599212789896,0.012409866006511719,-2.3471606418473772e-05,0.01390040302262942,400
8,74.54909819639279,947.2498210738713,anode,0.007490750497693666,0.006652732435326463,-0.00011690629878901754,0.007111767313536616,400
8,74.54909819639279,947.2498210738713,electrolyte,0.0036351821727576843,0.0031634484310101613,-0.00031568741981479983,0.003467163062943175,400
8,74.54909819639279,947.2498210738713,cathode,0.007429296107022527,0.005713853085637366,7.958896939892854e-06,0.006737420966287092,400
8,74.54909819639279,947.2498210738713,interface_ae,0.01355775757893565,0.011160382116087662,0.0002515673805280306,0.012539817493444958,400
8,74.54909819639279,947.2498210738713,interface_ec,0.012860020382269528,0.011660823258770363,0.00010127055846103811,0.012305578641448406,400
8,74.749498997996,899.4759548659421,anode,0.006228115416197013,0.006544724871798846,-9.561792825594925e-06,0.006392324905685021,400
8,74.749498997996,899.4759548659421,electrolyte,0.0032330864774149054,0.00254975577301715,-3.30027041489511e-05,0.002951912820099621,400
8,74.749498997996,899.4759548659421,cathode,0.006704703328973232,0.005762280240648585,-4.4669423433594024e-05,0.006287171610631467,400
8,74.749498997996,899.4759548659421,interface_ae,0.012327233296276923,0.01020038689795706,-0.0002902446175860706,0.011424480312887862,400
8,74.749498997996,899.4759548659421,interface_ec,0.012092457254547502,0.009606432551744051,5.306559463370842e-05,0.011061380641475507,400
8,74.9498997995992,850.1332934257218,anode,0.005783009392162456,0.005214287648534899,0.00019711124722869062,0.005531209397404958,400
8,74.9498997995992,850.1332934257218,electrolyte,0.002866308445399653,0.00299666997343668,-6.500843500292298e-05,0.0029358223500058453,400
8,74.9498997995992,850.1332934257218,cathode,0.006602757901866921,0.005055733758100695,-0.0001260739478260037,0.005985211244675633,400
8,74.9498997995992,850.1332934257218,interface_ae,0.011144410565363628,0.009166766256821194,-0.00012621742711935125,0.010301314297242516,400
8,74.9498997995992,850.1332934257218,interface_ec,0.010794887075033904,0.009284121216053385,0.00020132701968672808,0.01013040232692916,400
8,75.1503006012024,800.0,anode,0.004819773676362127,0.004596924197685127,9.373553919810643e-05,0.004715098639934032,400
8,75.1503006012024,800.0,electrolyte,0.0028580345724975387,0.0027729595508300597,-1.1151799463778638e-05,0.002816527136672949,400
8,75.1503006012024,800.0,cathode,0.005344634567344217,0.0047676988641040035,1.4897072242702443e-05,0.0050808590543072055,400
8,75.1503006012024,800.0,interface_ae,0.00960287737851586,0.008416843211875915,-9.787924398249677e-05,0.00906980327027456,400
8,75.1503006012024,800.0,interface_ec,0.009536646854394202,0.008103601793470316,0.0002029603740249611,0.008913943315944594,400
8,75.35070140280561,749.8667065742783,anode,0.003756895631957044,0.004133400108368727,5.140772130033334e-06,0.003958609315862524,400
8,75.35070140280561,749.8667065742783,electrolyte,0.001944805808248512,0.0021746249378577563,7.136279877472979e-05,0.002072997344279308,400
8,75.35070140280561,749.8667065742783,cathode,0.004900092308159978,0.0032191720390263596,0.00020495841177816575,0.004327326767178192,400
8,75.35070140280561,749.8667065742783,interface_ae,0.008280439958349511,0.007432467148317672,0.00011116106710234289,0.007893049233288806,400
8,75.35070140280561,749.8667065742783,interface_ec,0.008238751844069176,0.007424634809997185,-5.7823986136853727e-05,0.007864002868621614,400
8,75.55110220440882,700.5240451340582,anode,0.0034356614555083377,0.0037988359955716507,-0.00011625674445243597,0.003636475910029571,400
8,75.55110220440882,700.5240451340582,electrolyte,0.0018473202771169908,0.0016671983081366292,4.083550879910821e-05,0.0017655865259572935,400
8,75.55110220440882,700.5240451340582,cathode,0.004039893486063154,0.003612933495325468,-0.0002009234049792988,0.003859957508968317,400
8,75.55110220440882,700.5240451340582,interface_ae,0.0070800183856283925,0.006172525030547511,0.0002846830938988058,0.0066909093764150745,400
8,75.55110220440882,700.5240451340582,interface_ec,0.007268590535233486,0.0065328908313424605,5.783275317647656e-06,0.006930098329571881,400
8,75.75150300601203,652.7501789261288,anode,0.0032670298242714686,0.002826290975942996,-2.526295680433217e-05,0.0030707885459374256,400
8,75.75150300601203,652.7501789261288,electrolyte,0.001950344974171123,0.0019162469448834327,5.395212715294816e-05,0.0019357783369741638,400
8,75.75150300601203,652.7501789261288,cathode,0.0037682507191252657,0.0026108713818884226,-6.219457632210458e-05,0.0033450783830246906,400
8,75.75150300601203,652.7501789261288,interface_ae,0.00592453858764263,0.005314888322981647,-5.384375777691206e-05,0.005645230894699686,400
8,75.75150300601203,652.7501789261288,interface_ec,0.006360761229015189,0.004941254432229459,6.454645998192216e-06,0.005783188060984215,400
8,75.95190380761524,607.2985303593139,anode,0.0030045875331544147,0.001759159803360944,0.00031824469609953047,0.002672167454320486,400
8,75.95190380761524,607.2985303593139,electrolyte,0.0013661441470512344,0.0006259142815350656,2.37140847865179e-05,0.0011852073487490617,400
8,75.95190380761524,607.2985303593139,cathode,0.002808563200242683,0.002354182322001379,0.00014867866693899992,0.0026238612495241734,400
8,75.95190380761524,607.2985303593139,interface_ae,0.005261587779159444,0.004371114001878782,6.752334509199714e-05,0.0048791005080875164,400
8,75.95190380761524,607.2985303593139,interface_ec,0.005006046752899901,0.0048143983993436425,-0.00022187940275366497,0.004928034493966182,400
8,76.15230460921843,564.8858990830109,anode,0.0022678551398854167,0.0019115730813341844,0.00012199206090968893,0.002122911663680526,400
8,76.15230460921843,564.8858990830109,electrolyte,0.0009010451303536067,0.0004579693188249542,2.3523452414728976e-05,0.000781426425059251,400
8,76.15230460921843,564.8858990830109,cathode,0.002310328785286229,0.002338945514811845,-0.0001905543069487629,0.0023480811099672078,400
8,76.15230460921843,564.8858990830109,interface_ae,0.004353135477732181,0.0041159425547677275,-5.666473312837156e-05,0.004240654279484827,400
8,76.15230460921843,564.8858990830109,interface_ec,0.0036194446818691986,0.0032836259356475795,2.10074510570711e-06,0.0034637681648359868,400
8,76.35270541082164,526.1811576285247,anode,0.0018725819904871583,0.001270510364835907,0.00023327978012210128,0.0017043718601803942,400
8,76.35270541082164,526.1811576285247,electrolyte,0.0005489084088972546,0.0002290163422378821,0.0001660065636430976,0.0005574176781002185,400
8,76.35270541082164,526.1811576285247,cathode,0.001021059318623224,0.0013866898531255064,0.00046765216938120707,0.001485151150191569,400
8,76.35270541082164,526.1811576285247,interface_ae,0.0030625890644851717,0.0022700415156083034,-8.609619568019061e-06,0.0027532813723823045,400
8,76.35270541082164,526.1811576285247,interface_ec,0.003050961893787291,0.0026544667929231133,9.933944732394293e-05,0.0028784527746560915,400
8,76.55310621242485,491.79470288968423,anode,0.0009274951385004155,0.0015596086322301648,3.6767142655892675e-05,0.001360203058976573,400
8,76.55310621242485,491.79470288968423,electrolyte,0.0008606011341483307,0.00035773366226692836,0.00019295732054933,0.0008200239462400339,400
8,76.55310621242485,491.79470288968423,cathode,0.001162112766366818,0.0011366099697071863,-0.00013996591157806637,0.0011748577437399063,400
8,76.55310621242485,491.79470288968423,interface_ae,0.001931531792298689,0.0021024811801222927,-6.654102453110788e-05,0.002025713715990018,400
8,76.55310621242485,491.79470288968423,interface_ec,0.0019744643539680137,0.0017030645855783187,0.00010484296075761317,0.0018625988001373095,400
8,76.75350701402806,462.2688297991939,anode,0.0006519178439280345,0.0006792383424651009,2.2541625430645512e-06,0.0006660099467123039,400
8,76.75350701402806,462.2688297991939,electrolyte,-0.00013932285720873232,-7.083838430685168e-05,5.044168338713437e-05,0.00014897187452372662,400
8,76.75350701402806,462.2688297991939,cathode,0.0006195203939433086,0.0010315522953298756,0.00014502106563758164,0.0009337726171676367,400
8,76.75350701402806,462.2688297991939,interface_ae,0.0017288831640270429,0.0018320942156961292,-1.2463399161477467e-05,0.0017828615690992336,400
8,76.75350701402806,462.2688297991939,interface_ec,0.0017077971418915634,0.0011108423865235407,0.0003678554869303085,0.0016307671233341705,400
8,76.95390781563127,438.0691790135921,anode,0.0011090240124142989,0.0004404079595363068,5.7987934485778824e-05,0.0009723981849983452,400
8,76.95390781563127,438.0691790135921,electrolyte,0.0006742735329045863,0.0001823697636866408,-9.84936106199557e-05,0.000627725574614938,400
8,76.95390781563127,438.0691790135921,cathode,0.0007761308419855579,0.0004603756030060702,2.7449167446789057e-05,0.0006776971637201008,400
8,76.95390781563127,438.0691790135921,interface_ae,0.000674799647109898,0.00027101724801672556,3.542136148186516e-05,0.0005913430372360083,400
8,76.95390781563127,438.0691790135921,interface_ec,0.0011965696624785475,0.0007185768678029319,0.00021546442793383,0.0011079617101002223,400
8,77.15430861723448,419.5773934819386,anode,5.3119914381507784e-05,-9.176074628453049e-05,-1.0084546079419687e-05,0.0001281451405933679,400
8,77.15430861723448,419.5773934819386,electrolyte,0.00011226398176818306,0.0003474761106181014,-0.0001162444236095977,0.00036724936401088984,400
8,77.15430861723448,419.5773934819386,cathode,0.0006747230830506405,0.0008147256789577215,-5.871604045251281e-06,0.0007545981553183087,400
8,77.15430861723448,419.5773934819386,interface_ae,0.0008506437876664036,8.74219411818638e-05,0.00016128323117728738,0.0008572685460812846,400
8,77.15430861723448,419.5773934819386,interface_ec,0.0007899135841789467,0.0006634022464264053,-2.3344633305440967e-06,0.0007348822449645313,400
8,77.35470941883767,407.0850997085245,anode,-0.0007906258363075282,-0.00011121662394031986,-9.38874026526903e-05,0.0007589282886374384,400
8,77.35470941883767,407.0850997085245,electrolyte,-0.00024388078345847152,7.882924462984077e-05,-6.28445168281852e-05,0.0003110709310994815,400
8,77.35470941883767,407.0850997085245,cathode,-0.00015173475686442548,-0.000236338525319027,-0.0001073269478227843,0.0002785243032493991,400
8,77.35470941883767,407.0850997085245,interface_ae,0.0005086176864721244,-5.1964781908674193e-05,-7.724080596499086e-05,0.0005529203586610414,400
8,77.35470941883767,407.0850997085245,interface_ec,3.5158638410172035e-05,0.00024804078862239996,6.843742327927992e-05,0.00026094181150680397,400
8,77.55511022044088,400.7893086286914,anode,-0.0009027412952856146,0.0003155478806625163,0.00021545520513656307,0.0011569931935753903,400
8,77.55511022044088,400.7893086286914,electrolyte,-0.00030953080080766104,-0.0002869930870797366,-6.753800816674071e-05,0.00032097553840055746,400
8,77.55511022044088,400.7893086286914,cathode,-0.0002161455393496475,7.623537869821573e-05,-0.00029197879295382963,0.0005698802600516944,400
8,77.55511022044088,400.7893086286914,interface_ae,-0.00031619808273382084,0.0004780623297780931,-0.00013923299510220266,0.0007333789549447741,400
8,77.55511022044088,400.7893086286914,interface_ec,0.00039220868310807847,0.00012290462840266192,-0.0002713901571882387,0.0005845398092435147,400
8,77.75551102204409,400.7893086286914,anode,0.00020125442505219577,-2.6242874143622176e-05,-6.832005843746107e-05,0.00024591953510974676,400
8,77.75551102204409,400.7893086286914,electrolyte,7.901228835244099e-05,0.00014708643201075147,0.00010613877329619293,0.00022372313739092657,400
8,77.75551102204409,400.7893086286914,cathode,0.00036413152075173455,0.00013149809034774073,-0.00020634511331795425,0.00047930765686185294,400
8,77.75551102204409,400.7893086286914,interface_ae,-0.00012291343761815625,0.0008992176703062072,0.00010867365905725913,0.0009847111044773696,400
8,77.75551102204409,400.7893086286914,interface_ec,0.0007299663899206501,0.00043493339438537644,3.627031073336228e-05,0.0006391227069444712,400
8,77.9559118236473,407.0850997085245,anode,0.0001860709669994163,7.032750719226518e-05,-0.0002606706923769749,0.0004799271667148331,400
8,77.9559118236473,407.0850997085245,electrolyte,5.5009873700138945e-05,0.00040535870902838004,-8.994599922318054e-05,0.0004114776860675761,400
8,77.9559118236473,407.0850997085245,cathode,0.00021923474578362394,0.0003367788329232781,-0.0001364520658968713,0.00037882414535679663,400
8,77.9559118236473,407.0850997085245,interface_ae,3.6777063614046556e-05,-0.00015903071266357366,-0.00012332484100341102,0.0002794978565930712,400
8,77.9559118236473,407.0850997085245,interface_ec,-0.0002141136621787724,-0.000123791803933834,0.00021291835211967585,0.00041311769336701534,400
8,78.15631262525051,419.57739348193854,anode,-1.0348296720917398e-05,0.0002625883559234518,-7.543031305064337e-05,0.00029807091524486833,400
8,78.15631262525051,419.57739348193854,electrolyte,0.0004907015354846515,0.0005098341801986193,0.00012961049732084203,0.0005485791795238312,400
8,78.15631262525051,419.57739348193854,cathode,0.00035613517793699694,0.00015533272915297524,-0.00017878120562868745,0.0004376405271819955,400
8,78.15631262525051,419.57739348193854,interface_ae,0.0010587893259477656,0.00017646915704367462,9.95469520549262e-05,0.0009975276072781462,400
8,78.15631262525051,419.57739348193854,interface_ec,0.0007936003333981257,0.0002377869132978418,0.0001557018790973943,0.0007552255008259665,400
8,78.35671342685372,438.069179013592,anode,0.000743197877685149,0.0009552329797954981,-7.040196996400668e-05,0.0008773570082527749,400
8,78.35671342685372,438.069179013592,electrolyte,-0.00011927495208877029,7.486468849751923e-05,3.1328031380149756e-05,0.00017805913221106718,400
8,78.35671342685372,438.069179013592,cathode,0.0005313977348090094,0.0003188124602986034,-0.0002863796188465864,0.0006787109667910031,400
8,78.35671342685372,438.069179013592,interface_ae,0.0010662259488690182,0.0013780222362504032,6.963768571845052e-05,0.0012573973966293127,400
8,78.35671342685372,438.069179013592,interface_ec,0.0011078217057463404,0.0009580524843722738,5.955700048235998e-05,0.00104614686637306,400
8,78.55711422845691,462.268829799194,anode,0.0011201289923495476,0.000833146926301451,-4.690157544799139e-05,0.0010110341273215815,400
8,78.55711422845691,462.268829799194,electrolyte,0.00019708513559173183,0.0002958074407210018,4.711942446759989e-05,0.00027332409988885367,400
8,78.55711422845691,462.268829799194,cathode,0.0007458043139522271,0.0008088364268851804,6.587252005506262e-05,0.0007875432117723314,400
8,78.55711422845691,462.268829799194,interface_ae,0.0017630863935014691,0.0016710011701540463,1.1701112771828624e-05,0.0017190142125947864,400
8,78.55711422845691,462.268829799194,interface_ec,0.0011207995945761164,0.0011826314504565954,6.609385110989903e-06,0.0011530165135508585,400
8,78.75751503006012,491.7947028896842,anode,0.0006884978621576097,0.0014699435716898706,2.1356686876569938e-05,0.001274393474469407,400
8,78.75751503006012,491.7947028896842,electrolyte,0.0007569687706018746,0.0009558364209515005,-9.452142452135202e-05,0.0008887573132753234,400
8,78.75751503006012,491.7947028896842,cathode,0.0014114410682759457,0.0010203849787285453,-2.7613030052387907e-05,0.0012631015667346282,400
8,78.75751503006012,491.7947028896842,interface_ae,0.0019989535638780124,0.002395700552292385,-5.6325006011335635e-05,0.0022261670756508352,400
8,78.75751503006012,491.7947028896842,interface_ec,0.0024404505542880367,0.0013335173719448462,0.00017699827945346795,0.0021386139091655633,400
8,78.95791583166333,526.1811576285245,anode,0.002019108974772198,0.0014771590168765093,-3.4041369920688646e-05,0.0018110028242944315,400
8,78.95791583166333,526.1811576285245,electrolyte,0.0010032681050837413,0.0014374150861538072,-0.00026448550483552274,0.0013566333541826505,400
8,78.95791583166333,526.1811576285245,cathode,0.001938053844257319,0.0011744435931411478,-2.98775944495968e-06,0.0016909353376991637,400
8,78.95791583166333,526.1811576285245,interface_ae,0.002991838094649546,0.0024777763334778466,-1.5697693579094005e-06,0.0027708071949066686,400
8,78.95791583166333,526.1811576285245,interface_ec,0.0027259507867898078,0.0029150259416555633,-0.00026912152667979005,0.0028634325313727184,400
8,79.15831663326654,564.8858990830106,anode,0.002387888991469146,0.0017941049362171753,-0.00017563873407111803,0.0021746838450044264,400
8,79.15831663326654,564.8858990830106,electrolyte,0.0012149163047606827,0.0005139857735319697,5.9570732579452015e-06,0.0010563426368622017,400
8,79.15831663326654,564.8858990830106,cathode,0.001799096565277177,0.0020304473172728962,-0.0001386536000445563,0.0019401464963622868,400
8,79.15831663326654,564.8858990830106,interface_ae,0.0038714291426083652,0.0034939030619425327,-0.00011588131677633537,0.0037025949705266543,400
8,79.15831663326654,564.8858990830106,interface_ec,0.003989338147816667,0.0029515690951861283,9.463134053942333e-05,0.0035886818005748705,400
8,79.35871743486975,607.2985303593135,anode,0.0033280043015159644,0.0032164132962461114,1.3675221999965874e-05,0.003273721257668035,400
8,79.35871743486975,607.2985303593135,electrolyte,0.0016875509547543506,0.0006992385537656688,0.0002254101489458382,0.0015196023482147141,400
8,79.35871743486975,607.2985303593135,cathode,0.003031398711267965,0.0022335706023877532,0.00018557712004335137,0.002740563690078079,400
8,79.35871743486975,607.2985303593135,interface_ae,0.004961011464737717,0.004144343589667253,7.130023881412368e-05,0.0046089406214973585,400
8,79.35871743486975,607.2985303593135,interface_ec,0.004718347937782223,0.004588238573891605,-0.0001583984717890265,0.004662735751395485,400
8,79.55911823647295,652.7501789261289,anode,0.003097110978555785,0.002627401366654829,0.00011392500562741831,0.0028977435114193443,400
8,79.55911823647295,652.7501789261289,electrolyte,0.00158421864402699,0.0010994648293003164,-9.08519999903697e-05,0.0014147583537934404,400
8,79.55911823647295,652.7501789261289,cathode,0.003402514704298595,0.002546016558078014,-0.0001727521663551515,0.0030799314576250925,400
8,79.55911823647295,652.7501789261289,interface_ae,0.006775218248134809,0.004962385324575027,-4.845635531595102e-05,0.006075742824477591,400
8,79.55911823647295,652.7501789261289,interface_ec,0.006031658247665148,0.005094147903388061,9.320201099536534e-05,0.005624157244110801,400
8,79.75951903807615,700.5240451340578,anode,0.004341517494451395,0.0033567270884538357,-0.00018547174298885231,0.003955540522445451,400
8,79.75951903807615,700.5240451340578,electrolyte,0.002486000384293075,0.0017595157411886388,0.00025954827222857526,0.0022592106281358023,400
8,79.75951903807615,700.5240451340578,cathode,0.003383398840040232,0.003507134384298309,0.0002877909500814311,0.0034827885071389672,400
8,79.75951903807615,700.5240451340578,interface_ae,0.0071967550561261575,0.0061396761252435735,4.432675373855081e-05,0.006731200163918066,400
8,79.75951903807615,700.5240451340578,interface_ec,0.007135095551092117,0.006113702572628144,-5.067226412871045e-05,0.006683771291581633,400
8,79.95991983967936,749.8667065742782,anode,0.004534974318424844,0.004383377423000011,6.916170484446526e-05,0.004462716177869902,400
8,79.95991983967936,749.8667065742782,electrolyte,0.0025242554156509377,0.00232427820618399,-3.965337498052003e-05,0.0024314152060451563,400
8,79.95991983967936,749.8667065742782,cathode,0.004490939393246886,0.0038339331665554754,2.6745616569133527e-07,0.004201144949328628,400
8,79.95991983967936,749.8667065742782,interface_ae,0.00818399745724309,0.007076418519315714,-7.74174962807152e-05,0.007691430470231086,400
8,79.95991983967936,749.8667065742782,interface_ec,0.009139127838703664,0.006394352342311541,-2.6942958210844987e-05,0.008122485690765202,400
9,80.16032064128257,800.0,anode,0.0061177081378444315,0.0047965533392397355,0.0001130126210131639,0.00557921848975937,400
9,80.16032064128257,800.0,electrolyte,0.0028299478945299304,0.002179799985635056,-0.00033628739017633693,0.002632618527181542,400
9,80.16032064128257,800.0,cathode,0.0056616367061108905,0.004527318018619282,-0.00012005031092479554,0.005192489286527635,400
9,80.16032064128257,800.0,interface_ae,0.009930303823206267,0.00909145842198705,0.0003607256313380959,0.009559025833045869,400
9,80.16032064128257,800.0,interface_ec,0.01014516238125852,0.008428569832826483,-0.00017658396261768154,0.009410071480105522,400
9,80.36072144288578,850.1332934257217,anode,0.006442428156423924,0.005891457871785631,-3.710105805377351e-05,0.006185708673681427,400
9,80.36072144288578,850.1332934257217,electrolyte,0.0024372342417540846,0.002879307997427701,0.0001478099567175074,0.00269787334751968,400
9,80.36072144288578,850.1332934257217,cathode,0.005826112415844349,0.005409531446864973,6.768390242041481e-05,0.005630614652250394,400
9,80.36072144288578,850.1332934257217,interface_ae,0.011321426803725505,0.009404623869453352,0.0001523905835345334,0.010498455263193256,400
9,80.36072144288578,850.1332934257217,interface_ec,0.011222345070537583,0.00919629929636898,-0.0003074211728504521,0.010372677035720881,400
9,80.56112224448898,899.475954865942,anode,0.0073709182241229795,0.0061287630558460445,1.3196032069375342e-05,0.006835062777146343,400
9,80.56112224448898,899.475954865942,electrolyte,0.0033642492930063524,0.0028131824071914164,-0.00016136049726624168,0.0031378389486025936,400
9,80.56112224448898,899.475954865942,cathode,0.006863226674755221,0.005307737698368657,-0.00011040954802027713,0.006235729605634765,400
9,80.56112224448898,899.475954865942,interface_ae,0.01249351280771641,0.010881738967385602,-5.988969506004565e-06,0.01177068679707776,400
9,80.56112224448898,899.475954865942,interface_ec,0.012825270996784405,0.011103515484762506,0.00015872551407361524,0.012060083686223024,400
9,80.7615230460922,947.2498210738712,anode,0.0078026504492477635,0.006515831674533302,-0.00014711820126203385,0.007249937296067148,400
9,80.7615230460922,947.2498210738712,electrolyte,0.004052731962930893,0.0037600606500559925,5.131590594756272e-05,0.003915619292401932,400
9,80.7615230460922,947.2498210738712,cathode,0.008236675239562034,0.006054601358360742,-0.0001731245077169312,0.007397374385710523,400
9,80.7615230460922,947.2498210738712,interface_ae,0.014047255943386034,0.011801378230448297,0.00019706732648577113,0.013074305097510406,400
9,80.7615230460922,947.2498210738712,interface_ec,0.013786053998843533,0.011461698540643822,-3.203898633075637e-05,0.012783477726572684,400
9,80.96192384769539,992.7014696406861,anode,0.007838015383692486,0.006714570286795054,0.00014586659968770152,0.007345397557875294,400
9,80.96192384769539,992.7014696406861,electrolyte,0.004410746511825686,0.0036354750298039054,-0.00025816162814407037,0.004103187414207545,400
9,80.96192384769539,992.7014696406861,cathode,0.00819029950231574,0.006685647522126149,0.00017647998806816478,0.00755743797283063,400
9,80.96192384769539,992.7014696406861,interface_ae,0.01476096039487651,0.01236994116646903,4.469424768213665e-06,0.013722581554616078,400
9,80.96192384769539,992.7014696406861,interface_ec,0.014744030697894907,0.013140788652764608,-0.00011022163463012861,0.014012673648251631,400
9,81.1623246492986,1035.1141009169892,anode,0.00847182893507046,0.006911983746184916,-4.6179753620122785e-06,0.007809630265898942,400
9,81.1623246492986,1035.1141009169892,electrolyte,0.004277219672261546,0.0033502575185025674,0.00017838396918836777,0.003909540730210265,400
9,81.1623246492986,1035.1141009169892,cathode,0.009091770957066621,0.0075493924372310025,0.00020464893662562996,0.008434567088152867,400
9,81.1623246492986,1035.1141009169892,interface_ae,0.016203636153127712,0.013357287271186378,-0.0001558830245986149,0.014987035178610577,400
9,81.1623246492986,1035.1141009169892,interface_ec,0.016250269806444284,0.013723054128582112,2.5462165195599253e-05,0.015145695632948002,400
9,81.3627254509018,1073.8188423714755,anode,0.009179514452339983,0.008200828494322283,-0.00011332483247009237,0.008733611935629902,400
9,81.3627254509018,1073.8188423714755,electrolyte,0.004686135900222224,0.004443305356026372,-9.912513537152186e-05,0.004572786545981191,400
9,81.3627254509018,1073.8188423714755,cathode,0.008961567016078798,0.007702680066659523,0.00014914482400314348,0.008407116777337078,400
9,81.3627254509018,1073.8188423714755,interface_ae,0.017056654168975244,0.014394536389990378,-7.63640707967354e-05,0.01589424407167288,400
9,81.3627254509018,1073.8188423714755,interface_ec,0.01712584280002714,0.014178468148299938,4.584983529638938e-05,0.015859115379264096,400
9,81.56312625250501,1108.2052971103158,anode,0.009695497788900533,0.00815834522003024,-9.562311522375174e-05,0.009027152784924506,400
9,81.56312625250501,1108.2052971103158,electrolyte,0.0048448148458270215,0.004199172567026267,3.531836926666715e-05,0.004556842076122062,400
9,81.56312625250501,1108.2052971103158,cathode,0.008808364572115887,0.008185347868288726,-5.8735496603405885e-05,0.00851457735665195,400
9,81.56312625250501,1108.2052971103158,interface_ae,0.018298292098762457,0.014845756681588326,2.4419492714986877e-05,0.016839649103487068,400
9,81.56312625250501,1108.2052971103158,interface_ec,0.01829528258010071,0.014775866905118784,5.909628387966035e-05,0.01681444094225912,400
9,81.76352705410822,1137.731170200806,anode,0.010087554832630926,0.00862761080270282,-0.00012046662509299716,0.00944491769369486,400
9,81.76352705410822,1137.731170200806,electrolyte,0.004944560998880875,0.005206074107066742,0.00012666838081074985,0.005085103217136352,400
9,81.76352705410822,1137.731170200806,cathode,0.010658757741347145,0.008926598971440538,-0.00024093851826029368,0.00991569382361376,400
9,81.76352705410822,1137.731170200806,interface_ae,0.018709312880157303,0.016124080550053467,-0.0001280099211058667,0.01756140807953986,400
9,81.76352705410822,1137.731170200806,interface_ec,0.01888042348920865,0.016013502528657488,0.0002778060067220505,0.01762930723575737,400
9,81.96392785571143,1161.9308209864078,anode,0.010541696590055622,0.008737693475055534,-5.424421640588184e-05,0.00976592893968181,400
9,81.96392785571143,1161.9308209864078,electrolyte,0.0057641870448539405,0.003984966620616537,-0.0003102563573146548,0.0051404761752700725,400
9,81.96392785571143,1161.9308209864078,cathode,0.010693850077489192,0.008934199981906005,1.1591839763526964e-06,0.009931634692175194,400
9,81.96392785571143,1161.9308209864078,interface_ae,0.019484250220228233,0.016154787381693195,-0.00028095087463959304,0.018057852656796266,400
9,81.96392785571143,1161.9308209864078,interface_ec,0.019814001156017457,0.016021389699297218,-0.0001588555683018146,0.018218327062583663,400
9,82.16432865731463,1180.4226065180615,anode,0.01125703249536964,0.009171682281252475,-9.508477805221616e-06,0.010372795294723312,400
9,82.16432865731463,1180.4226065180615,electrolyte,0.005607795282844525,0.004968589439715464,-5.001910397726579e-05,0.005317792988130124,400
9,82.16432865731463,1180.4226065180615,cathode,0.01138190209302715,0.00864628906294449,0.00011396808554296157,0.010292412759230493,400
9,82.16432865731463,1180.4226065180615,interface_ae,0.019414791416849854,0.017128333626599275,2.1306671824581785e-05,0.018378581986323934,400
9,82.16432865731463,1180.4226065180615,interface_ec,0.01946477808465233,0.016915504559523366,0.00013397825208108773,0.01832509722929356,400
9,82.36472945891784,1192.9149002914755,anode,0.011293376840938249,0.00912677844157864,-7.260256854331271e-05,0.010381816329885805,400
9,82.36472945891784,1192.9149002914755,electrolyte,0.005549182450903898,0.004705465760939261,0.00011246182131575214,0.0051827877499101924,400
9,82.36472945891784,1192.9149002914755,cathode,0.010496338234328675,0.00953598542983461,-4.349720316549598e-05,0.010050914485673603,400
9,82.36472945891784,1192.9149002914755,interface_ae,0.019729905302429997,0.016761491130912527,-3.2180649677694536e-05,0.018425993113445234,400
9,82.36472945891784,1192.9149002914755,interface_ec,0.018901129956007328,0.016773850293005942,-0.00013137222369694399,0.017933817747451695,400
9,82.56513026052104,1199.2106913713087,anode,0.011348784641995109,0.009268949222565416,-3.226707002557348e-05,0.010465187406244634,400
9,82.56513026052104,1199.2106913713087,electrolyte,0.006057157827897551,0.0050536090696039135,0.00013534070999151788,0.00562783876534333,400
9,82.56513026052104,1199.2106913713087,cathode,0.011038987950075066,0.009673516911105469,-3.508467006803909e-05,0.010423724889741992,400
9,82.56513026052104,1199.2106913713087,interface_ae,0.020081281459353898,0.017241998612297395,-8.954903826313986e-05,0.018823575941666452,400
9,82.56513026052104,1199.2106913713087,interface_ec,0.02058801035388994,0.01707105396729405,9.275408493894974e-05,0.01907495289683568,400
9,82.76553106212425,1199.2106913713087,anode,0.01162562982297551,0.009820103359691126,-0.00021133786540357869,0.010842453752394217,400
9,82.76553106212425,1199.2106913713087,electrolyte,0.005727943608102126,0.00501051943199748,0.0001337794533241123,0.005410024124589094,400
9,82.76553106212425,1199.2106913713087,cathode,0.010854961228963931,0.009313496656213376,0.00014918373536124322,0.010175486499377584,400
9,82.76553106212425,1199.2106913713087,interface_ae,0.019911581311352185,0.017029184192174137,0.00023638137142529539,0.01864279558755567,400
9,82.76553106212425,1199.2106913713087,interface_ec,0.020125769647441543,0.01690106076782328,-0.00013164260352943575,0.018724251453505522,400
9,82.96593186372746,1192.9149002914755,anode,0.011200624402956213,0.009035742910925395,-3.710039458446272e-05,0.010290617267167318,400
9,82.96593186372746,1192.9149002914755,electrolyte,0.005650373462537335,0.00510758860289858,0.00010013221205549935,0.005402265995200784,400
9,82.96593186372746,1192.9149002914755,cathode,0.010886589068686003,0.009789213108737675,-4.492725563212163e-05,0.010381783555487455,400
9,82.96593186372746,1192.9149002914755,interface_ae,0.019610744580730363,0.016932624756463763,0.00021572538017185526,0.018422087756072684,400
9,82.96593186372746,1192.9149002914755,interface_ec,0.02003102750236466,0.016987993723542344,0.000245581746705428,0.01870101481867423,400
9,83.16633266533066,1180.4226065180615,anode,0.010496510037136532,0.008901349283349099,-0.0002423769706450248,0.009805808468191329,400
9,83.16633266533066,1180.4226065180615,electrolyte,0.005574752701570446,0.004693462446917003,0.00023141045509196637,0.005205979001570669,400
9,83.16633266533066,1180.4226065180615,cathode,0.010998959014393891,0.00916578186972114,2.692309317160628e-07,0.010206595797872269,400
9,83.16633266533066,1180.4226065180615,interface_ae,0.01970196190979344,0.016215123849618426,0.0004065497466502339,0.018224259661098842,400
9,83.16633266533066,1180.4226065180615,interface_ec,0.019822610989685723,0.016779654724023655,9.227459764178704e-05,0.01849058394898347,400
9,83.36673346693387,1161.9308209864078,anode,0.010879854787985688,0.009024810724087522,-9.468617043610507e-05,0.010082495477744962,400
9,83.36673346693387,1161.9308209864078,electrolyte,0.005513350952801365,0.004649201637028561,-0.00012148351486341121,0.0051403996973366185,400
9,83.36673346693387,1161.9308209864078,cathode,0.011092742177219886,0.009154982380635146,0.0001094729043401446,0.010263757848127095,400
9,83.36673346693387,1161.9308209864078,interface_ae,0.01961823295516145,0.0163271248318783,4.7542801047617296e-05,0.018197458945488087,400
9,83.36673346693387,1161.9308209864078,interface_ec,0.01944366486040931,0.016103099860388836,8.10774942690014e-06,0.018007299870476657,400
9,83.56713426853707,1137.731170200806,anode,0.010365900958806627,0.008492183359884572,0.00034764551830108174,0.00958658028142903,400
9,83.56713426853707,1137.731170200806,electrolyte,0.004741930158357921,0.0040000692915886475,0.00019713398635553685,0.004431138925905905,400
9,83.56713426853707,1137.731170200806,cathode,0.010542216258050244,0.008471211480145357,9.109335226525392e-05,0.009675706598381116,400
9,83.56713426853707,1137.731170200806,interface_ae,0.019031180622559506,0.015793122748422168,0.0003898234350111873,0.017649438442828437,400
9,83.56713426853707,1137.731170200806,interface_ec,0.0180736069457999,0.016010348701858995,0.00017497925043315047,0.01713807565912911,400
9,83.76753507014028,1108.2052971103158,anode,0.010182277330025994,0.008366336317619062,-4.356622230167241e-05,0.009407002308386245,400
9,83.76753507014028,1108.2052971103158,electrolyte,0.005090680631098387,0.004458547863801999,9.037101544235449e-05,0.0048084442234331845,400
9,83.76753507014028,1108.2052971103158,cathode,0.010226891526782437,0.008121982048492736,-3.4165646868545195e-05,0.00935397109138579,400
9,83.76753507014028,1108.2052971103158,interface_ae,0.017564768707542835,0.015053923631277123,0.00015228313377214578,0.016455777106533082,400
9,83.76753507014028,1108.2052971103158,interface_ec,0.01787916866339753,0.015951815213047896,2.9010955078457542e-05,0.016997717814770084,400
9,83.96793587174349,1073.8188423714755,anode,0.009451371357374576,0.008050299100052621,-9.567130392899037e-05,0.008836109369963647,400
9,83.96793587174349,1073.8188423714755,electrolyte,0.004699380912887049,0.004347558520243772,1.709560021916585e-05,0.004533816196351462,400
9,83.96793587174349,1073.8188423714755,cathode,0.009195425874235615,0.007740918838076966,-6.75302837498765e-05,0.008562144422393019,400
9,83.96793587174349,1073.8188423714755,interface_ae,0.01700239385808445,0.014791275564239884,-0.0002010732962049655,0.016015537091442832,400
9,83.96793587174349,1073.8188423714755,interface_ec,0.016884286944394557,0.014476492609427528,-0.00027505586514441516,0.015825602545000678,400
9,84.1683366733467,1035.1141009169892,anode,0.008641517927947926,0.007353891238991315,-0.00011939555607757474,0.008077718203086143,400
9,84.1683366733467,1035.1141009169892,electrolyte,0.004503365569925418,0.0037307610176055463,-8.329291539015543e-05,0.00417357300640982,400
9,84.1683366733467,1035.1141009169892,cathode,0.009019986200803638,0.008074780216206046,0.0002458884775112628,0.00859704623159247,400
9,84.1683366733467,1035.1141009169892,interface_ae,0.015428043811489427,0.013777265696792449,-2.6703493509575763e-05,0.01467254123818719,400
9,84.1683366733467,1035.1141009169892,interface_ec,0.016051421945967734,0.013484659131579143,1.7638294483080336e-05,0.01493442861954044,400
9,84.3687374749499,992.7014696406861,anode,0.00834324279379121,0.006879461961519487,-0.00013445513217377712,0.007719709211378231,400
9,84.3687374749499,992.7014696406861,electrolyte,0.004014301582698957,0.0035968515236991117,8.98494512526396e-05,0.003825876381660635,400
9,84.3687374749499,992.7014696406861,cathode,0.008553825268171649,0.006904890481804091,4.257668509541051e-05,0.00786051212894223,400
9,84.3687374749499,992.7014696406861,interface_ae,0.01522482781253128,0.013045343948246734,-8.82492811972833e-06,0.014260557454743807,400
9,84.3687374749499,992.7014696406861,interface_ec,0.014869797517463406,0.012753002749854414,-0.00017245612093461085,0.01393573148633072,400
9,84.5691382765531,947.2498210738713,anode,0.007603414641723545,0.006735648790321006,9.629206941655516e-05,0.0072107395386736975,400
9,84.5691382765531,947.2498210738713,electrolyte,0.003749668466207932,0.0033214518957156835,-0.00012369755104360311,0.003561406480456612,400
9,84.5691382765531,947.2498210738713,cathode,0.007872545139501705,0.006488926439938126,-4.1392717754420724e-05,0.007280378223852817,400
9,84.5691382765531,947.2498210738713,interface_ae,0.01368217834023354,0.011703223007332366,-6.718164673979375e-05,0.012808410856637906,400
9,84.5691382765531,947.2498210738713,interface_ec,0.013988138401862325,0.01160350610299747,0.00023894461440410715,0.012968006944115599,400
9,84.76953907815631,899.4759548659421,anode,0.007432226519167604,0.00567630081594836,1.0455640414392033e-05,0.006728384389401332,400
9,84.76953907815631,899.4759548659421,electrolyte,0.0033011346976607363,0.002873887662495772,0.0003003641201467195,0.003152821930099398,400
9,84.76953907815631,899.4759548659421,cathode,0.00690039194298845,0.006051831674027939,8.119819410124174e-05,0.006519190478427436,400
9,84.76953907815631,899.4759548659421,interface_ae,0.01228660525087677,0.010442246310905718,-0.0001809033557112178,0.011480400529872495,400
9,84.76953907815631,899.4759548659421,interface_ec,0.012321002842452407,0.009843765920433326,8.168736011904421e-05,0.011289011875639045,400
9,84.96993987975952,850.1332934257218,anode,0.006918124260336927,0.005400932413477048,-0.0002124403289010911,0.006308849763492909,400
9,84.96993987975952,850.1332934257218,electrolyte,0.0029581001391100685,0.002540630042375546,-0.00015263771658200633,0.0027856084041042025,400
9,84.96993987975952,850.1332934257218,cathode,0.0065599208994786525,0.00559966420507869,-0.00017331776907264892,0.0061437418822186144,400
9,84.96993987975952,850.1332934257218,interface_ae,0.011560883307662443,0.010099898944252141,0.00028538373078443394,0.010915244387790905,400
9,84.96993987975952,850.1332934257218,interface_ec,0.012202922601253979,0.009371257350346003,0.00042363306395928045,0.011086633895576375,400
9,85.17034068136273,800.0,anode,0.005493738083447363,0.004582260363385845,4.906085623167679e-05,0.0051001716445248455,400
9,85.17034068136273,800.0,electrolyte,0.002625381599772096,0.0024997132421939574,-0.00019801157816059522,0.0025876861173867284,400
9,85.17034068136273,800.0,cathode,0.00552837421938097,0.005145674670308503,-8.55919371467339e-06,0.0053473258655992355,400
9,85.17034068136273,800.0,interface_ae,0.010122478736021965,0.008710577581415194,0.000175599244397649,0.009500452962918344,400
9,85.17034068136273,800.0,interface_ec,0.009583432586343171,0.008743357215551232,-4.022087088626448e-05,0.009192494451318865,400
9,85.37074148296594,749.8667065742783,anode,0.004948125260633447,0.004481398859162624,-0.00017912799771177662,0.004742216459686238,400
9,85.37074148296594,749.8667065742783,electrolyte,0.002145273613587021,0.001501077916202814,-8.237384126456646e-05,0.0019119537889997374,400
9,85.37074148296594,749.8667065742783,cathode,0.005297263595353541,0.00412723765169187,-0.00020101873434821786,0.0048325202601953,400
9,85.37074148296594,749.8667065742783,interface_ae,0.0086709373822993,0.007047786343773854,-0.00016877791525967426,0.007989429974572132,400
9,85.37074148296594,749.8667065742783,interface_ec,0.008933286678750927,0.007141982856929233,0.00016689514578049525,0.008191075122766345,400
9,85.57114228456913,700.5240451340582,anode,0.004186000544627713,0.0036019145482786494,-4.17559451411841e-05,0.003927340498198735,400
9,85.57114228456913,700.5240451340582,electrolyte,0.0023355226675015237,0.002023066034880749,5.025815278682571e-05,0.0021977541662683213,400
9,85.57114228456913,700.5240451340582,cathode,0.004376773363649108,0.003512609236119164,8.133045103635728e-05,0.004017526366766137,400
9,85.57114228456913,700.5240451340582,interface_ae,0.0074718426047361225,0.006437894533420245,-4.119656240494461e-05,0.007012636789685243,400
9,85.57114228456913,700.5240451340582,interface_ec,0.007436040375582506,0.006230491507454987,7.015351557883282e-05,0.0069136313923904655,400
9,85.77154308617234,652.7501789261288,anode,0.003931684278809842,0.0033590577207218003,-0.0001884848003918153,0.0036934042788653275,400
9,85.77154308617234,652.7501789261288,electrolyte,0.0021560121679049635,0.0014084160141250876,9.010995227183874e-05,0.0019025828453887786,400
9,85.77154308617234,652.7501789261288,cathode,0.0032666379053516398,0.003050321103383134,4.705847743453606e-05,0.0031650799357227353,400
9,85.77154308617234,652.7501789261288,interface_ae,0.00592392307136255,0.0055963889825009355,0.00020189025117574725,0.005777727529892899,400
9,85.77154308617234,652.7501789261288,interface_ec,0.006316910125233957,0.005821959271846083,-2.8454024017861124e-05,0.006084751327272303,400
9,85.97194388777555,607.2985303593139,anode,0.0031570547843443792,0.001801281521490505,0.0003628166668970195,0.002814209193890346,400
9,85.97194388777555,607.2985303593139,electrolyte,0.001899727186088084,0.0011480386043618137,-0.0002958133539965727,0.0017345064117755566,400
9,85.97194388777555,607.2985303593139,cathode,0.002988587935522041,0.002033674847153708,6.67280306336232e-05,0.0026463244339143444,400
9,85.97194388777555,607.2985303593139,interface_ae,0.005347392680803994,0.004157913569595896,0.00016814505354215663,0.004871722018194921,400
9,85.97194388777555,607.2985303593139,interface_ec,0.0054655953758965614,0.004733081521483072,1.3286555503343065e-06,0.0051386467401879025,400
9,86.17234468937876,564.8858990830109,anode,0.001883745367088041,0.0022555038807511715,-4.055570987036867e-05,0.0020956940795603747,400
9,86.17234468937876,564.8858990830109,electrolyte,0.0007372672506232758,0.0013866829093362129,0.0003149111280753764,0.0013196983176435707,400
9,86.17234468937876,564.8858990830109,cathode,0.002296028148468392,0.0026098785454688176,1.3697209291702443e-05,0.0024680801277115407,400
9,86.17234468937876,564.8858990830109,interface_ae,0.004040987885641971,0.003342718422102451,0.00024556236119891133,0.0037651517249976483,400
9,86.17234468937876,564.8858990830109,interface_ec,0.003921081492475544,0.0037524367513505903,-8.387457525888124e-05,0.00384228528082436,400
9,86.37274549098197,526.1811576285247,anode,0.001628444178027037,0.0018106306839703141,-5.700552694340304e-05,0.0017295813970792688,400
9,86.37274549098197,526.1811576285247,electrolyte,0.0007618294895735851,0.0010906192970421642,0.00023960959398324345,0.0010541380139556698,400
9,86.37274549098197,526.1811576285247,cathode,0.001959943147784616,0.0013051248430922594,-7.65912748946369e-05,0.0017333078709658811,400
9,86.37274549098197,526.1811576285247,interface_ae,0.0032037397513608344,0.0027990794149806973,-0.00014817988652096576,0.003032679312610694,400
9,86.37274549098197,526.1811576285247,interface_ec,0.0033966765541127825,0.0027284543952948797,-0.0002573562477957194,0.003148474970813302,400
9,86.57314629258518,491.79470288968423,anode,0.00100644789571736,0.0009411183622917432,-1.092865332615826e-05,0.0009756089635082653,400
9,86.57314629258518,491.79470288968423,electrolyte,0.0012093465588789883,0.0006176298740355096,-0.00012611578348479375,0.0010699405453013797,400
9,86.57314629258518,491.79470288968423,cathode,0.001351315081747728,0.0009867306401510779,4.871373593003126e-05,0.0012138471464389021,400
9,86.57314629258518,491.79470288968423,interface_ae,0.0024873968189307273,0.0023290117300642176,-3.6429743505038766e-06,0.0024121156727602623,400
9,86.57314629258518,491.79470288968423,interface_ec,0.0028049146710999928,0.002238649334657894,-0.00010611593172182817,0.0025755889746583447,400
9,86.77354709418837,462.2688297991939,anode,0.0015347203169132537,0.0008390974285914367,-0.00012526867559583526,0.0013486095793604378,400
9,86.77354709418837,462.2688297991939,electrolyte,0.0009317557239634838,0.000993832812864737,-4.953789557934084e-06,0.0009643322026712867,400
9,86.77354709418837,462.2688297991939,cathode,0.0007206685390760356,0.0006892865873743088,0.00010720975912765495,0.0007295298363857287,400
9,86.77354709418837,462.2688297991939,interface_ae,0.0019525315074488403,0.0015049445335578052,1.5258481270765467e-05,0.0017718589621308796,400
9,86.77354709418837,462.2688297991939,interface_ec,0.0020185780420310146,0.0012399473923832766,0.00015463790075503605,0.001783517566260318,400
9,86.97394789579158,438.0691790135921,anode,0.0004465496666849055,0.0005823301176650136,-1.7034384718567723e-05,0.0005285320819027694,400
9,86.97394789579158,438.0691790135921,electrolyte,0.0002497285982993013,0.0001132956598922099,0.00020172810467710415,0.0004110836869428404,400
9,86.97394789579158,438.0691790135921,cathode,0.0003130906947577286,0.00023095355449713326,0.0003181490348767664,0.0006186374898302857,400
9,86.97394789579158,438.0691790135921,interface_ae,0.0012526975805388198,9.990770486323157e-05,-8.478881088156054e-05,0.0012147617317694948,400
9,86.97394789579158,438.0691790135921,interface_ec,0.0004157465098739043,0.0005302346064465659,-0.00047077719993510593,0.0009478629791470759,400
9,87.17434869739479,419.5773934819386,anode,0.0002329866354389577,-0.00010961156331332412,8.985788519465757e-06,0.00030344312421388297,400
9,87.17434869739479,419.5773934819386,electrolyte,-0.0003504946232911872,0.00014135904716914663,-6.223744171804908e-05,0.00045165799518415937,400
9,87.17434869739479,419.5773934819386,cathode,0.000724669398303719,0.0006563780409587568,0.00011780184045154245,0.0007224628781679274,400
9,87.17434869739479,419.5773934819386,interface_ae,0.00039536618154648896,0.0010149618869612128,-0.00023295529167597308,0.0009736451856764642,400
9,87.17434869739479,419.5773934819386,interface_ec,7.228272687575399e-05,0.0003942128384164054,0.0003381057163381679,0.0006892606197284028,400
9,87.374749498998,407.0850997085245,anode,3.848972385831707e-05,2.9339113568657243e-05,-0.00021628655341677136,0.00037623477725337454,400
9,87.374749498998,407.0850997085245,electrolyte,0.0003333745735407852,0.000328109219564527,0.00011836128020998648,0.0003891518637478949,400
9,87.374749498998,407.0850997085245,cathode,-8.957480593486539e-05,-0.0001276993439804599,-0.00019396833756074553,0.0003546311778235062,400
9,87.374749498998,407.0850997085245,interface_ae,0.0002037062631830981,-0.00017235936302695517,-0.00017661247578739327,0.00044709123594762753,400
9,87.374749498998,407.0850997085245,interface_ec,5.1437297581615236e-05,5.015983201330469e-06,-8.069677932329325e-05,0.00014815146853420428,400
9,87.57515030060121,400.7893086286914,anode,0.000150983699853758,3.310711332651144e-05,-4.322340457666764e-05,0.00015651936692443103,400
9,87.57515030060121,400.7893086286914,electrolyte,6.042903889428442e-05,-0.00029276172599067583,1.5791793586451692e-05,0.0003283299390969489,400
9,87.57515030060121,400.7893086286914,cathode,5.623106865506975e-05,-0.00044152128512581646,0.00014935406315555428,0.0005383772845700754,400
9,87.57515030060121,400.7893086286914,interface_ae,-0.00024453953412507533,4.39999305885003e-05,0.00017466176108029053,0.00040498826220096147,400
9,87.57515030060121,400.7893086286914,interface_ec,0.0002975936047571841,2.7207007397220456e-05,-5.437485043231028e-05,0.0003001256678734787,400
9,87.77555110220442,400.7893086286914,anode,0.0002953038933743498,0.00021180126602401362,-9.275475300661949e-05,0.0003087535584715967,400
9,87.77555110220442,400.7893086286914,electrolyte,-0.00023294293369966729,-0.0006170101681680856,2.310477625253811e-05,0.0005411444274358348,400
9,87.77555110220442,400.7893086286914,cathode,-1.3759002703839987e-05,0.0003502501850741903,5.3858264022055e-05,0.0003693043911921076,400
9,87.77555110220442,400.7893086286914,interface_ae,0.0004201593356948304,-0.0001923022775482814,0.00017072254964514274,0.0006178593669930731,400
9,87.77555110220442,400.7893086286914,interface_ec,-0.00013878433628837324,0.00025018580936425145,-0.000218813758879604,0.0005101120327268329,400
9,87.97595190380761,407.0850997085245,anode,0.00016973198572919988,-0.0005110936959023311,-4.00706228912632e-05,0.0006177310299204192,400
9,87.97595190380761,407.0850997085245,electrolyte,0.0001817018961230457,-0.00011413422210360779,-0.0001575656443133951,0.0003758475769275973,400
9,87.97595190380761,407.0850997085245,cathode,0.0003530269367081234,5.327384957736479e-05,-7.343559705460074e-05,0.0003533233333812864,400
9,87.97595190380761,407.0850997085245,interface_ae,0.00019111328900110093,0.0009427635783402717,0.00017302542746723155,0.0009137648501235809,400
9,87.97595190380761,407.0850997085245,interface_ec,0.00052731661311117,0.00028242673145430447,2.4972790886572057e-05,0.00045909724729565607,400
9,88.17635270541082,419.57739348193854,anode,-0.0004447411777519852,2.927687849612904e-05,-7.208616198037117e-05,0.00047671975884491205,400
9,88.17635270541082,419.57739348193854,electrolyte,-0.00042542586484069006,-0.00023073924584709576,-0.0002971254706383951,0.0006331792469266579,400
9,88.17635270541082,419.57739348193854,cathode,0.00026258635803792785,0.00047860077368971346,0.0001660161777936493,0.0005049954215181921,400
9,88.17635270541082,419.57739348193854,interface_ae,0.0006177856543686237,0.00013032886602355292,-0.0002898097737779939,0.000755048699896191,400
9,88.17635270541082,419.57739348193854,interface_ec,-3.3710294075599214e-05,3.865299520677411e-05,-0.0001333289547053512,0.00023929745566743108,400
9,88.37675350701403,438.069179013592,anode,0.00048504395679281235,0.0001487739648236546,5.0846384050239216e-05,0.00043931251334068644,400
9,88.37675350701403,438.069179013592,electrolyte,0.00019680220225530234,0.00022967532865318023,0.0001710375829006807,0.0003661185835427488,400
9,88.37675350701403,438.069179013592,cathode,0.00017889898593017732,0.0005786346037494556,-2.095984271410996e-06,0.0005131460683260134,400
9,88.37675350701403,438.069179013592,interface_ae,0.0008592974268516105,0.0010810187107309292,0.0001318521231835511,0.0010150033849198026,400
9,88.37675350701403,438.069179013592,interface_ec,0.0006753960723459905,0.0007607936393137639,4.2181752387609804e-05,0.0007255809265725032,400
9,88.57715430861724,462.268829799194,anode,0.0007898615927819407,0.0009165054742967481,4.217880268654131e-05,0.0008633008170010871,400
9,88.57715430861724,462.268829799194,electrolyte,0.0009856501807011617,-8.85842034737319e-05,-1.836539846210962e-05,0.0010332852169485814,400
9,88.57715430861724,462.268829799194,cathode,0.0005992128637350587,0.0009222313112421218,-0.00024257578350683165,0.0009129527998189518,400
9,88.57715430861724,462.268829799194,interface_ae,0.0016730683240071549,0.0011447838048942332,-0.0001101242799181521,0.0014935756177782808,400
9,88.57715430861724,462.268829799194,interface_ec,0.001135225049877483,0.0011942755504384338,0.00016267507954363883,0.0011994365458180838,400
9,88.77755511022045,491.7947028896842,anode,0.0012775692353967345,0.0012806610897495838,0.00024969627329494125,0.0013502545891383633,400
9,88.77755511022045,491.7947028896842,electrolyte,0.0007216895956745619,0.00037853861057491863,7.008783227741846e-05,0.0006369276945524678,400
9,88.77755511022045,491.7947028896842,cathode,0.001121836996561291,0.0009410301593980907,-0.0002279839199428477,0.0011154835558246602,400
9,88.77755511022045,491.7947028896842,interface_ae,0.002591103760145359,0.0018504417632022032,2.7314736872379303e-05,0.002312034837287337,400
9,88.77755511022045,491.7947028896842,interface_ec,0.0020024379342380495,0.002097026824811677,-0.00011429118572026255,0.0020608979952286945,400
9,88.97795591182366,526.1811576285245,anode,0.0017240235902887954,0.001764903585151179,0.00011861389683487937,0.0017568763072376258,400
9,88.97795591182366,526.1811576285245,electrolyte,0.0008766590816445892,0.00022033857807770521,0.00044892158550909614,0.0011083817883377398,400
9,88.97795591182366,526.1811576285245,cathode,0.0022902938978812833,0.0017183582232459308,-0.00011298056723864561,0.0020738730903108733,400
9,88.97795591182366,526.1811576285245,interface_ae,0.0031456875237282278,0.0025397742674700395,0.00018957839086445824,0.0029093447714604354,400
9,88.97795591182366,526.1811576285245,interface_ec,0.0032585160394943673,0.002467551238895045,-7.061326486871729e-05,0.0029463773189337254,400
9,89.17835671342685,564.8858990830106,anode,0.00264475902993312,0.0024421715531339695,0.0002292497345229368,0.0025802448092941133,400
9,89.17835671342685,564.8858990830106,electrolyte,0.0013813109130972675,0.000905283638903122,-0.00048622707379936803,0.0014786245086324265,400
9,89.17835671342685,564.8858990830106,cathode,0.002397550594304615,0.001961593571434596,2.0997314448203057e-05,0.0022123293200626637,400
9,89.17835671342685,564.8858990830106,interface_ae,0.00417129386100183,0.0031339773097733403,8.361128352767784e-05,0.003764271308026106,400
9,89.17835671342685,564.8858990830106,interface_ec,0.004344789551101423,0.003736557592975985,0.00014198655053600798,0.004082276698551335,400
9,89.37875751503006,607.2985303593135,anode,0.003083394918506876,0.0023438436878141576,-1.0625527187413533e-05,0.002788237874551548,400
9,89.37875751503006,607.2985303593135,electrolyte,0.0014784271726912077,0.001265736090369901,0.00014973264839575944,0.001408472833939167,400
9,89.37875751503006,607.2985303593135,cathode,0.0030952800509371366,0.003090055543146817,0.0003309703469827008,0.003145351917706071,400
9,89.37875751503006,607.2985303593135,interface_ae,0.005247817839838878,0.003289337855758685,0.00018552486991908995,0.0046044270176457385,400
9,89.37875751503006,607.2985303593135,interface_ec,0.005061810063358585,0.004199889343747194,-5.9766791248405016e-05,0.004691765731585054,400
9,89.57915831663327,652.7501789261289,anode,0.003404509590921423,0.0031914080722525518,-0.0002339153668689338,0.003327873321561253,400
9,89.57915831663327,652.7501789261289,electrolyte,0.0014459350287454218,0.001606811130869692,9.344160456199621e-05,0.001541239637216287,400
9,89.57915831663327,652.7501789261289,cathode,0.003730964998446608,0.002771616245540944,-0.000146739847389936,0.003365375310329738,400
9,89.57915831663327,652.7501789261289,interface_ae,0.006217314058802073,0.0054858706582830985,0.00022282160539088242,0.005898418315121687,400
9,89.57915831663327,652.7501789261289,interface_ec,0.005755073353207223,0.005347690205510171,-0.00019990176615378055,0.005573346623017503,400
9,89.77955911823648,700.5240451340578,anode,0.003711663828670762,0.0038663231306987323,8.169368617490079e-05,0.0037939995768257397,400
9,89.77955911823648,700.5240451340578,electrolyte,0.002238498370722583,0.0020644258204669417,-7.19578345149204e-05,0.002160335362435567,400
9,89.77955911823648,700.5240451340578,cathode,0.00407754537697675,0.00423195532211206,-3.698565813893615e-05,0.004157395351314424,400
9,89.77955911823648,700.5240451340578,interface_ae,0.0077937455712944834,0.0064391395090605125,-0.00027723877951176223,0.0072284546507621,400
9,89.77955911823648,700.5240451340578,interface_ec,0.006959817236237876,0.006263529780789546,0.00015841518775049833,0.006644781776986593,400
9,89.97995991983969,749.8667065742782,anode,0.0051346213890306955,0.00443763695750112,-0.00014805692684044728,0.004830852460724636,400
9,89.97995991983969,749.8667065742782,electrolyte,0.002933828693056641,0.0017922389140610398,3.1923659800495306e-05,0.0025621097819096966,400
9,89.97995991983969,749.8667065742782,cathode,0.004895028205067573,0.004111251662139534,0.00020078882074434098,0.0045672690927025415,400
9,89.97995991983969,749.8667065742782,interface_ae,0.008605107849622023,0.007089263278107461,2.9993229309628903e-06,0.007956235720193562,400
9,89.97995991983969,749.8667065742782,interface_ec,0.008696692985385852,0.008507359730545833,0.00010147612146599624,0.008605384069515066,400
10,90.1803607214429,800.0,anode,0.005677197827434412,0.004613166529243874,-0.0002820432615853177,0.00524982540711237,400
10,90.1803607214429,800.0,electrolyte,0.0024924342742787702,0.0024144825315277393,0.0002140992977392154,0.0024822431424625403,400
10,90.1803607214429,800.0,cathode,0.006136506742716375,0.0049987284494939135,-4.84751498553727e-05,0.005654760808408813,400
10,90.1803607214429,800.0,interface_ae,0.010520643706923646,0.008718408600754627,0.0002577545993645813,0.00975554377050849,400
10,90.1803607214429,800.0,interface_ec,0.010383242945617476,0.008848098642525982,-0.0003323733637531002,0.009724198784591324,400
10,90.38076152304609,850.1332934257217,anode,0.006468302300716136,0.005798838082861502,-0.00016015838655578178,0.006167152679980736,400
10,90.38076152304609,850.1332934257217,electrolyte,0.002925716953632208,0.002916106401203143,-0.00022149858352770796,0.002946010720759138,400
10,90.38076152304609,850.1332934257217,cathode,0.00684427305693554,0.0053882496744200896,-5.8285233073680434e-05,0.0062457063384608645,400
10,90.38076152304609,850.1332934257217,interface_ae,0.011411315436873657,0.010099620992778,0.00036898079775440695,0.010834156346641241,400
10,90.38076152304609,850.1332934257217,interface_ec,0.011982928130249525,0.009726921536067475,0.0001703430878237214,0.011033295869819394,400
10,90.5811623246493,899.475954865942,anode,0.007147397481775884,0.006568386638151002,0.00012100146032465441,0.00687939297715199,400
10,90.5811623246493,899.475954865942,electrolyte,0.0026133892144200735,0.0026706580415658465,0.00014165778342530843,0.0026538555768183744,400
10,90.5811623246493,899.475954865942,cathode,0.007287898527199663,0.005848914359410379,-9.50384273240719e-05,0.006687605452538059,400
10,90.5811623246493,899.475954865942,interface_ae,0.01246445143597427,0.011054362072443003,0.0003316034589023646,0.011836587083389104,400
10,90.5811623246493,899.475954865942,interface_ec,0.013277802439220783,0.011737999159057448,0.000132359563468497,0.012580873784019573,400
10,90.78156312625251,947.2498210738712,anode,0.00824336620857694,0.007337077651058971,5.658948890133395e-05,0.007830273560910561,400
10,90.78156312625251,947.2498210738712,electrolyte,0.0037745805510650344,0.003565933690376137,0.0002180760355682827,0.0036940640138503557,400
10,90.78156312625251,947.2498210738712,cathode,0.007791133012757471,0.006528383320033455,2.0828404864632025e-05,0.007242882096132042,400
10,90.78156312625251,947.2498210738712,interface_ae,0.014532669990107537,0.012380164595122301,-0.00021362514002813986,0.013589960745378271,400
10,90.78156312625251,947.2498210738712,interface_ec,0.014856702150147035,0.011948387801704777,-3.97597495332869e-05,0.013637326483104447,400
10,90.98196392785572,992.7014696406861,anode,0.008323375001793603,0.008114544264102581,3.63106005431951e-05,0.008221189727461536,400
10,90.98196392785572,992.7014696406861,electrolyte,0.0038936177632803333,0.003785750809350816,0.00011537036689650495,0.003846015190176031,400
10,90.98196392785572,992.7014696406861,cathode,0.008537853202715983,0.0075572276271564705,-0.00012379379412462966,0.008095066480888487,400
10,90.98196392785572,992.7014696406861,interface_ae,0.015321632875137131,0.012546017107608803,-0.0001985926626329344,0.014143826504658442,400
10,90.98196392785572,992.7014696406861,interface_ec,0.016011797599323113,0.013641510692295316,9.868297297344376e-06,0.014968088065131658,400
10,91.18236472945893,1035.1141009169892,anode,0.009708033897453294,0.0077797589478194,-3.651154538518619e-05,0.008902157442983758,400
10,91.18236472945893,1035.1141009169892,electrolyte,0.004462751900958591,0.0037414524218590157,-3.227944853402706e-05,0.004149767792893929,400
10,91.18236472945893,1035.1141009169892,cathode,0.009552173895441208,0.007872821989988753,0.00010687226466507066,0.008834990241162511,400
10,91.18236472945893,1035.1141009169892,interface_ae,0.016885892191516618,0.014206462067539824,-0.00014554069888623582,0.01572042235341401,400
10,91.18236472945893,1035.1141009169892,interface_ec,0.016170618267244207,0.014134640519285596,-2.568844572374017e-05,0.015254935636081969,400
10,91.38276553106213,1073.8188423714755,anode,0.00979659064306243,0.008300001020453859,0.00038753604902498504,0.009165262974992495,400
10,91.38276553106213,1073.8188423714755,electrolyte,0.004317664019907927,0.003412238231163941,4.985652502794144e-05,0.003944635739360108,400
10,91.38276553106213,1073.8188423714755,cathode,0.009657446448009937,0.00839963759314742,8.758245334260016e-05,0.009095281491646278,400
10,91.38276553106213,1073.8188423714755,interface_ae,0.01797190319444918,0.014496503271896001,-8.350768467857444e-05,0.01651148323689954,400
10,91.38276553106213,1073.8188423714755,interface_ec,0.01771530016355974,0.015179810096717351,0.00032901743254325785,0.016603263522000464,400
10,91.58316633266533,1108.2052971103158,anode,0.01055568799943374,0.008711593708118758,-0.00013356536294139922,0.009767858927857484,400
10,91.58316633266533,1108.2052971103158,electrolyte,0.0047881501239565045,0.004036010670919246,9.82850442770641e-05,0.004463151196279662,400
10,91.58316633266533,1108.2052971103158,cathode,0.010346076041775329,0.008331535415631988,-6.538522036356495e-05,0.009501047235456772,400
10,91.58316633266533,1108.2052971103158,interface_ae,0.018747422520614666,0.015817033222884573,8.529669240191557e-05,0.017468188597146293,400
10,91.58316633266533,1108.2052971103158,interface_ec,0.018599034767596417,0.016199463736775013,3.5406459573655505e-05,0.017523016042930273,400
10,91.78356713426854,1137.731170200806,anode,0.010581295128550477,0.008817810160384866,3.7441418731456765e-05,0.009819263541988229,400
10,91.78356713426854,1137.731170200806,electrolyte,0.004431906986973115,0.004334213762144982,-3.087597898820159e-05,0.00438420302904623,400
10,91.78356713426854,1137.731170200806,cathode,0.0102877607118265,0.008814056921128135,0.00012144862952223619,0.009638099432800104,400
10,91.78356713426854,1137.731170200806,interface_ae,0.019323997066963524,0.01639710251101708,4.595213008980339e-05,0.01803969532353589,400
10,91.78356713426854,1137.731170200806,interface_ec,0.01928257181862571,0.016739424779762375,1.851437725554731e-05,0.018145186296261214,400
10,91.98396793587175,1161.9308209864078,anode,0.010610532970157287,0.009879836358119797,5.555104009932686e-05,0.010265159750856302,400
10,91.98396793587175,1161.9308209864078,electrolyte,0.005156739627666333,0.00415746786938062,5.9387133143706806e-05,0.004737942998226242,400
10,91.98396793587175,1161.9308209864078,cathode,0.011012845302810598,0.009863041404467197,-5.188609210002417e-05,0.010485717653404506,400
10,91.98396793587175,1161.9308209864078,interface_ae,0.0196351801908405,0.017172174129054234,0.00013879228390752468,0.018528435499174836,400
10,91.98396793587175,1161.9308209864078,interface_ec,0.019936989838028298,0.017106342377885927,-5.6530681113356844e-06,0.01868319124424123,400
10,92.18436873747495,1180.4226065180615,anode,0.011386287324814667,0.009968205890104286,9.379775010322545e-05,0.010748869958599411,400
10,92.18436873747495,1180.4226065180615,electrolyte,0.005412175914126642,0.0050492232725603105,-0.00035472830591872683,0.005276032194166228,400
10,92.18436873747495,1180.4226065180615,cathode,0.011931749787938473,0.009106920896867888,-9.406392371584438e-05,0.010801282507602391,400
10,92.18436873747495,1180.4226065180615,interface_ae,0.020356754769562883,0.017269731324384745,0.0001509616560039832,0.019004046082941616,400
10,92.18436873747495,1180.4226065180615,interface_ec,0.020051679044538334,0.01739190557084811,-8.673181473296308e-05,0.018863559330995077,400
10,92.38476953907816,1192.9149002914755,anode,0.01158580834802762,0.009753244468153073,1.3940347902446677e-05,0.01078694092656495,400
10,92.38476953907816,1192.9149002914755,electrolyte,0.005385426852301025,0.0045648244717054545,4.309087710411404e-05,0.005026180162317236,400
10,92.38476953907816,1192.9149002914755,cathode,0.011780380705953209,0.009593192345833081,-0.00013031513168593645,0.010855698827926002,400
10,92.38476953907816,1192.9149002914755,interface_ae,0.02087911694730906,0.017581065895049076,0.0001245747200978928,0.019442243394399015,400
10,92.38476953907816,1192.9149002914755,interface_ec,0.02042333973359617,0.017056985385339354,-7.995061227395013e-05,0.018966078278205196,400
10,92.58517034068136,1199.2106913713087,anode,0.01135864924210447,0.00982663525112729,-9.552678214055842e-05,0.010676691716750198,400
10,92.58517034068136,1199.2106913713087,electrolyte,0.005816779925000095,0.004668858534932531,2.2571174816085146e-05,0.005336382153691139,400
10,92.58517034068136,1199.2106913713087,cathode,0.011635845392416258,0.009908758298875036,-3.6193665682460104e-06,0.010875644749836728,400
10,92.58517034068136,1199.2106913713087,interface_ae,0.02101257925191425,0.017491792647924737,0.00020991268899808244,0.019495533016422217,400
10,92.58517034068136,1199.2106913713087,interface_ec,0.020788437829780595,0.017337024446702876,2.8211003548765954e-05,0.01929570669311494,400
10,92.78557114228457,1199.2106913713087,anode,0.01133320088014973,0.010049872131504042,0.0003314408364063566,0.010764465218828458,400
10,92.78557114228457,1199.2106913713087,electrolyte,0.005358503212131806,0.004855015313626481,-0.00026332583830569414,0.005145593912107338,400
10,92.78557114228457,1199.2106913713087,cathode,0.01172472659371638,0.009584557631211472,-9.372519276517236e-05,0.010815867703102621,400
10,92.78557114228457,1199.2106913713087,interface_ae,0.020529013097839204,0.0179501345558889,0.00015109565362098935,0.01937053565675406,400
10,92.78557114228457,1199.2106913713087,interface_ec,0.020866414609188706,0.017471161176471763,0.00023842845541557933,0.01939739114081202,400
10,92.98597194388778,1192.9149002914755,anode,0.011272143015899998,0.009124066456114204,6.875835149356025e-05,0.010367072779685531,400
10,92.98597194388778,1192.9149002914755,electrolyte,0.005218971899947873,0.005014426294784031,-5.7170654501012825e-05,0.005120722047000565,400
10,92.98597194388778,1192.9149002914755,cathode,0.011678380026389653,0.010193126250058084,-0.00018132882969310827,0.011015617151058183,400
10,92.98597194388778,1192.9149002914755,interface_ae,0.020525297758339788,0.017568115741169264,0.0002306326978551515,0.01922226070073736,400
10,92.98597194388778,1192.9149002914755,interface_ec,0.02049756408222538,0.01741246595418168,7.172108633337125e-05,0.01914278973733296,400
10,93.18637274549098,1180.4226065180615,anode,0.01114295917679872,0.009664466390204393,-0.00023273061314521898,0.010489956433965164,400
10,93.18637274549098,1180.4226065180615,electrolyte,0.006127257228393409,0.004239201739689644,-4.826290559853124e-05,0.00543566196104266,400
10,93.18637274549098,1180.4226065180615,cathode,0.011306383483759265,0.010192515065642147,-0.000198726867139911,0.010798132428906043,400
10,93.18637274549098,1180.4226065180615,interface_ae,0.02096414127076503,0.0175408285719338,6.25642986634869e-05,0.019479713059916276,400
10,93.18637274549098,1180.4226065180615,interface_ec,0.020073639924016017,0.017485017898214616,-0.00010852299336297,0.018913599579838444,400
10,93.3867735470942,1161.9308209864078,anode,0.011427995280262435,0.009099478759925153,-1.6973774168412595e-05,0.010460002573316371,400
10,93.3867735470942,1161.9308209864078,electrolyte,0.005166933820500902,0.004237231496141028,0.00011119797253618713,0.00477440426670295,400
10,93.3867735470942,1161.9308209864078,cathode,0.011208634528525802,0.009753500428327773,-0.00026698126623122506,0.010566677524844801,400
10,93.3867735470942,1161.9308209864078,interface_ae,0.020205645638447553,0.017655069935190525,-6.774616337654203e-05,0.01905915244386462,400
10,93.3867735470942,1161.9308209864078,interface_ec,0.02045493901137793,0.016824486881965507,-0.00020586146063419602,0.018906379149779343,400
10,93.5871743486974,1137.731170200806,anode,0.010605412235189647,0.009406997863027516,-0.0001257264723497297,0.010062241732233834,400
10,93.5871743486974,1137.731170200806,electrolyte,0.004984016593703695,0.004567562292382752,4.590175107859282e-07,0.004789388382162264,400
10,93.5871743486974,1137.731170200806,cathode,0.010872488853657708,0.009163885534952433,7.194379793273593e-05,0.010127640217041631,400
10,93.5871743486974,1137.731170200806,interface_ae,0.01912509318649817,0.016436085293513997,-0.00013910595085439003,0.017934059153044742,400
10,93.5871743486974,1137.731170200806,interface_ec,0.01964131362899205,0.016176283595859688,0.00016932712313240842,0.018160834441517098,400
10,93.7875751503006,1108.2052971103158,anode,0.01019889471980472,0.008789229990111839,-7.42446826336051e-05,0.009573093690450288,400
10,93.7875751503006,1108.2052971103158,electrolyte,0.004652638450421801,0.0036903934015247875,-0.00015829862378886891,0.004262764025151322,400
10,93.7875751503006,1108.2052971103158,cathode,0.010171804152134803,0.008792194040533307,0.00015155689699248952,0.009560580964930041,400
10,93.7875751503006,1108.2052971103158,interface_ae,0.018350431016640186,0.015446946287112203,-0.00021640721790040687,0.01708885139750121,400
10,93.7875751503006,1108.2052971103158,interface_ec,0.01862817733995047,0.016126492870991157,0.00018994954019344327,0.017514960369294636,400
10,93.9879759519038,1073.8188423714755,anode,0.009983353038830566,0.008496380227408715,0.00025464356695640113,0.009339592150776465,400
10,93.9879759519038,1073.8188423714755,electrolyte,0.004816356335025371,0.00420306101491753,-4.811757927779986e-05,0.004541642500205081,400
10,93.9879759519038,1073.8188423714755,cathode,0.009361760203129968,0.008099662562078563,-1.3738557801982906e-06,0.008798863264674332,400
10,93.9879759519038,1073.8188423714755,interface_ae,0.017604907397645902,0.015526556774467801,1.2191575138660303e-05,0.01666324042421447,400
10,93.9879759519038,1073.8188423714755,interface_ec,0.017940324819103202,0.014818147845538289,-4.6751382864785116e-05,0.016601112363215587,400
10,94.18837675350701,1035.1141009169892,anode,0.008810452172129309,0.00760508288993892,7.904720870456295e-05,0.00827501538107005,400
10,94.18837675350701,1035.1141009169892,electrolyte,0.004448066760537164,0.004061810486425256,2.7188092251757538e-05,0.004268327037451694,400
10,94.18837675350701,1035.1141009169892,cathode,0.009103418343805021,0.00847227035293798,-1.4085535306957081e-05,0.008804860267937318,400
10,94.18837675350701,1035.1141009169892,interface_ae,0.01692537832484501,0.013969643566880002,0.00010643992190753496,0.015659241960039153,400
10,94.18837675350701,1035.1141009169892,interface_ec,0.016854882731678924,0.014152553920016079,-0.0003531724384044903,0.01569128452344558,400
10,94.38877755511022,992.7014696406861,anode,0.008599647048046782,0.007674183627649448,7.912212495415956e-05,0.008177440556442452,400
10,94.38877755511022,992.7014696406861,electrolyte,0.004282661950053577,0.0030098966641748264,-0.00010806826060125882,0.003813835030129237,400
10,94.38877755511022,992.7014696406861,cathode,0.00871757859913538,0.007428160596357524,0.00018220001701993536,0.0081558422722758,400
10,94.38877755511022,992.7014696406861,interface_ae,0.01542604833107808,0.013270829329980766,2.4561362896940553e-06,0.014469327616661363,400
10,94.38877755511022,992.7014696406861,interface_ec,0.01517342553667144,0.012472344704650197,6.46514538195115e-05,0.014019863435007619,400
10,94.58917835671343,947.2498210738713,anode,0.007987306568094977,0.006559401532105413,-0.0002428759584773797,0.007389711085393061,400
10,94.58917835671343,947.2498210738713,electrolyte,0.00401967060183972,0.003176360413130868,8.353120835522184e-05,0.0036742382933334125,400
10,94.58917835671343,947.2498210738713,cathode,0.00849433696469466,0.006102424780639552,-0.00010494012130535456,0.007588829525813931,400
10,94.58917835671343,947.2498210738713,interface_ae,0.014220407646034466,0.012577185132767829,-0.0002454604528809727,0.013480861706786201,400
10,94.58917835671343,947.2498210738713,interface_ec,0.014863978637732221,0.01218149405099372,-1.4400099260078734e-05,0.013720853216775497,400
10,94.78957915831664,899.4759548659421,anode,0.007182983416590489,0.0060251622340687285,0.0001572175138903732,0.006685307946557187,400
10,94.78957915831664,899.4759548659421,electrolyte,0.003175775457836863,0.0030755061859455116,-5.762724985604632e-05,0.0031284394979629614,400
10,94.78957915831664,899.4759548659421,cathode,0.007013761311001931,0.006931833696427906,6.2857610213019e-05,0.006974008342826988,400
10,94.78957915831664,899.4759548659421,interface_ae,0.013220302085399434,0.011422207092901523,-0.00021320249179778206,0.012424755118702445,400
10,94.78957915831664,899.4759548659421,interface_ec,0.0135620099947377,0.010328186905152402,-0.00011531496150577807,0.012270634801466963,400
10,94.98997995991984,850.1332934257218,anode,0.006389223252719296,0.005722409850963173,3.2807739921223155e-05,0.006083553504122542,400
10,94.98997995991984,850.1332934257218,electrolyte,0.0031008886317705348,0.002674693892494728,-0.0001467034535283852,0.0029223510313309076,400
10,94.98997995991984,850.1332934257218,cathode,0.006077763036327715,0.005765846328172839,0.00010405591688042779,0.005930701697173313,400
10,94.98997995991984,850.1332934257218,interface_ae,0.012223827270958457,0.009749201985605077,0.00010392228154513838,0.011195031528603957,400
10,94.98997995991984,850.1332934257218,interface_ec,0.01166336693990192,0.010343349610207683,0.00015329441650172124,0.011065768169297089,400
10,95.19038076152304,800.0,anode,0.005863362819767337,0.004828140953000204,0.0001441398267912392,0.0054261547466739725,400
10,95.19038076152304,800.0,electrolyte,0.0029940713569769697,0.002174667879374145,-0.00019916980102191461,0.0027021359507983502,400
10,95.19038076152304,800.0,cathode,0.005713440129795461,0.005384624144604462,0.00017197307380995572,0.005564312341890304,400
10,95.19038076152304,800.0,interface_ae,0.010106301759098825,0.008523672775230024,0.00019120257745192294,0.009421103913010636,400
10,95.19038076152304,800.0,interface_ec,0.010099309228572651,0.009026788597092602,-9.241068230044855e-05,0.009609383387634804,400
10,95.39078156312625,749.8667065742783,anode,0.00555818072268354,0.004080979718786616,0.0001715042295308742,0.004995316477539464,400
10,95.39078156312625,749.8667065742783,electrolyte,0.002504524542238057,0.002157365360387242,-0.0002955462872027101,0.0024053558599187244,400
10,95.39078156312625,749.8667065742783,cathode,0.00441219323936532,0.004245937376447785,3.7035909512491756e-05,0.0043319339993663514,400
10,95.39078156312625,749.8667065742783,interface_ae,0.008793961693267346,0.007435184862207461,8.422089447391994e-05,0.008200749039840005,400
10,95.39078156312625,749.8667065742783,interface_ec,0.009300377385725802,0.007720470567233986,0.00011703025817791124,0.008622092766247017,400
10,95.59118236472946,700.5240451340582,anode,0.004005337965727798,0.003597178381151175,0.000247181640867551,0.0038415889520806035,400
10,95.59118236472946,700.5240451340582,electrolyte,0.002124164954920352,0.0018260118229237456,0.00034589198789516094,0.0020800407240038434,400
10,95.59118236472946,700.5240451340582,cathode,0.003937796004689211,0.003942887966269899,0.0002495979419712149,0.003963989380219921,400
10,95.59118236472946,700.5240451340582,interface_ae,0.007746220200049353,0.006925015177355533,-0.0001473029245816357,0.007374426391018371,400
10,95.59118236472946,700.5240451340582,interface_ec,0.007637657859328711,0.006782615866113369,0.00011978500096658851,0.007251030376860914,400
10,95.79158316633267,652.7501789261288,anode,0.004001158548150741,0.0035860345313463854,-1.0116983783277318e-05,0.0038106335074985526,400
10,95.79158316633267,652.7501789261288,electrolyte,0.0021273347790346777,0.0014011721115757215,0.0001353136967382402,0.0018875920569748387,400
10,95.79158316633267,652.7501789261288,cathode,0.003727124233784522,0.0032488493273891144,6.352618110330561e-05,0.003514216651427564,400
10,95.79158316633267,652.7501789261288,interface_ae,0.006115368167032617,0.005270026161817935,1.538121597262836e-05,0.005739639629855279,400
10,95.79158316633267,652.7501789261288,interface_ec,0.006090595946079611,0.005856626050436094,0.00013073339494322128,0.005981334170084288,400
10,95.99198396793588,607.2985303593139,anode,0.003103979856073388,0.0022186141828511668,0.0002070208408302772,0.0027926652131795545,400
10,95.99198396793588,607.2985303593139,electrolyte,0.0020622529044307045,0.0012775493038717097,7.658030676768543e-05,0.0018077563810831939,400
10,95.99198396793588,607.2985303593139,cathode,0.003066350286648864,0.002714065143378183,-1.793381349395941e-05,0.0029064315091792436,400
10,95.99198396793588,607.2985303593139,interface_ae,0.0054001223704249505,0.004870633176170588,0.00035184362428446604,0.005191700664276952,400
10,95.99198396793588,607.2985303593139,interface_ec,0.00499047027205757,0.004567774150700488,-0.0001770690727848123,0.004802923431532585,400
10,96.19238476953907,564.8858990830109,anode,0.0028684530062764836,0.0018558973154021402,-0.00021648011906786908,0.002547432862055968,400
10,96.19238476953907,564.8858990830109,electrolyte,0.0013456573932356484,0.0015043644339668484,9.95396802841144e-05,0.0014419679231241925,400
10,96.19238476953907,564.8858990830109,cathode,0.0024522848998882337,0.002154960983030908,0.0002122260994238332,0.0023469340727639426,400
10,96.19238476953907,564.8858990830109,interface_ae,0.004041262185062341,0.003624439539930704,-6.790352227643001e-05,0.003851608006699783,400
10,96.19238476953907,564.8858990830109,interface_ec,0.003953162373879072,0.003559481093331557,0.00016615816439736726,0.0037827261711804476,400
10,96.39278557114228,526.1811576285247,anode,0.001999607430131426,0.0017484759178040274,2.197134174799773e-05,0.001887003098223547,400
10,96.39278557114228,526.1811576285247,electrolyte,0.0010402652382182497,0.0005106007851852904,-4.642648288908439e-05,0.0009045280179089296,400
10,96.39278557114228,526.1811576285247,cathode,0.0018872280567042115,0.0016384375254361342,4.802817823828095e-05,0.0017778982291805708,400
10,96.39278557114228,526.1811576285247,interface_ae,0.003251827629499582,0.002686101961649722,0.00047366569245664466,0.003118952335391014,400
10,96.39278557114228,526.1811576285247,interface_ec,0.0035653643959842147,0.0029232732247746075,-3.4981274730959095e-05,0.003292185659442079,400
10,96.59318637274549,491.79470288968423,anode,0.0011956575438172583,0.0010921295349972714,4.392432653800251e-05,0.0011499213039772784,400
10,96.59318637274549,491.79470288968423,electrolyte,7.843225700886517e-05,7.536160358121601e-05,-9.553235834084362e-05,0.0001824815169918448,400
10,96.59318637274549,491.79470288968423,cathode,0.001393165022933992,0.0010595877689698026,0.00022171818391492263,0.0013171678944065089,400
10,96.59318637274549,491.79470288968423,interface_ae,0.0019511227093220276,0.0018110618427266331,0.00022801376114866517,0.0019259262087373613,400
10,96.59318637274549,491.79470288968423,interface_ec,0.002435177542823302,0.0023019182584479918,0.00030768704149041945,0.002430504398630679,400
10,96.7935871743487,462.2688297991939,anode,0.0006947567067177648,0.0007376690259374552,-4.0864035139630735e-05,0.0007206605153277785,400
10,96.7935871743487,462.2688297991939,electrolyte,-0.00015049609275062534,0.00027738049617841295,0.0001321593281070998,0.00044014992728686034,400
10,96.7935871743487,462.2688297991939,cathode,0.0010650748946319838,0.0009531882780914678,-5.632634709592492e-05,0.0010184564261396304,400
10,96.7935871743487,462.2688297991939,interface_ae,0.0014283872869572684,0.0017622106906647027,-7.459757195365042e-05,0.0016264230094205521,400
10,96.7935871743487,462.2688297991939,interface_ec,0.001713441069396925,0.0014304343932983782,0.00021925755243856773,0.0016356281478917256,400
10,96.99398797595191,438.0691790135921,anode,0.0008434268029987931,8.062504514238616e-05,-0.000178132975016256,0.0008631696914392481,400
10,96.99398797595191,438.0691790135921,electrolyte,0.00044015719851588477,0.00020721032091712292,-6.827576759306458e-05,0.0003993170462962198,400
10,96.99398797595191,438.0691790135921,cathode,0.0008566914608954263,0.0005254404459691957,7.868608033416591e-06,0.0007483671045267177,400
10,96.99398797595191,438.0691790135921,interface_ae,0.0012275541644812683,0.0007320320379334711,0.0002352778478208831,0.0011446476102377856,400
10,96.99398797595191,438.0691790135921,interface_ec,0.000757191285284851,0.0010416434563191668,0.00021507492579897667,0.0010041952281440627,400
10,97.19438877755512,419.5773934819386,anode,-0.0001293164412935202,0.0001382908219091585,0.00017133110893283366,0.0003765546667224335,400
10,97.19438877755512,419.5773934819386,electrolyte,0.0004842151186928777,6.503681110106288e-05,-0.0001102006640515289,0.0004935937801820838,400
10,97.19438877755512,419.5773934819386,cathode,0.0005706529521873384,0.0005963561054393746,-0.00017469950227685919,0.0006576722378954181,400
10,97.19438877755512,419.5773934819386,interface_ae,0.00014979587518868344,0.0005019014789918877,9.44040950143338e-05,0.0004752867839527306,400
10,97.19438877755512,419.5773934819386,interface_ec,0.00042124924430958103,0.0006381126203915126,-0.0001065204910256073,0.0005915015029862511,400
10,97.39478957915831,407.0850997085245,anode,-0.0005316741339485149,-3.9846467792214075e-05,9.484821976965176e-06,0.000513176066272474,400
10,97.39478957915831,407.0850997085245,electrolyte,-3.31562900092653e-05,-0.0003054246358321246,-0.00027234734638182257,0.0005538736599463831,400
10,97.39478957915831,407.0850997085245,cathode,-5.1492695536763764e-05,0.00035662058540248775,0.00018842961591205234,0.0005046882753849334,400
10,97.39478957915831,407.0850997085245,interface_ae,0.0005412351176340266,-8.758992351094933e-05,-0.0001730559485445546,0.0006617093574946203,400
10,97.39478957915831,407.0850997085245,interface_ec,0.00033391148688645866,0.0003477129405129941,6.002544078007461e-05,0.0003565178617139522,400
10,97.59519038076152,400.7893086286914,anode,-0.0005927740071553036,-0.0002503371466164185,-4.453318542896765e-06,0.0005154763361527864,400
10,97.59519038076152,400.7893086286914,electrolyte,0.00015169061878996795,0.00023488859512145986,2.1638028342306002e-05,0.00020965903848382806,400
10,97.59519038076152,400.7893086286914,cathode,0.0001106801170774961,3.518786635695277e-05,0.00010284290613277243,0.00020328223511278826,400
10,97.59519038076152,400.7893086286914,interface_ae,0.00011446065065611887,3.723210994170495e-05,-4.0255319870607113e-05,0.0001228304985081485,400
10,97.59519038076152,400.7893086286914,interface_ec,4.49883827215899e-05,0.00016288822557930115,4.012130833470918e-05,0.00016142369382015048,400
10,97.79559118236473,400.7893086286914,anode,0.00012569290061960144,0.0004125447872539771,3.977458841198811e-05,0.0003726714497532359,400
10,97.79559118236473,400.7893086286914,electrolyte,-0.00018917439574110746,0.0002697784221389645,-0.0002049297506503376,0.0005344072671219573,400
10,97.79559118236473,400.7893086286914,cathode,-0.0003129790391057608,0.00011048240826464223,7.745950016798681e-05,0.00040341150446052175,400
10,97.79559118236473,400.7893086286914,interface_ae,-0.0003529144118423529,-9.733443236850626e-05,-9.091257483294879e-05,0.0003527990060182455,400
10,97.79559118236473,400.7893086286914,interface_ec,-0.00012540194165563343,0.00030059014480940247,0.0001059758195320879,0.0004212686706909031,400
10,97.99599198396794,407.0850997085245,anode,9.699729181749334e-05,-7.646472422691359e-05,-0.00020244745053302107,0.0003816112033504363,400
10,97.99599198396794,407.0850997085245,electrolyte,0.00047565117959425625,0.00021979051335119639,-0.00010600036561097105,0.00045134967597024455,400
10,97.99599198396794,407.0850997085245,cathode,0.000318613795061073,6.625676773517704e-05,-4.306642572935143e-05,0.00030059697359197254,400
10,97.99599198396794,407.0850997085245,interface_ae,0.0003154845608793707,-6.526653794020092e-05,-5.1563477926516505e-05,0.00036380927827333546,400
10,97.99599198396794,407.0850997085245,interface_ec,0.0002213594216523538,7.347579168052516e-06,0.00010036278154012859,0.0002786495798563585,400
10,98.19639278557115,419.57739348193854,anode,0.000844592156591587,1.500193488274972e-05,-0.0002497687944456066,0.0009423607613472778,400
10,98.19639278557115,419.57739348193854,electrolyte,-0.0004634802958693087,7.134504876903966e-05,-9.947468851892741e-05,0.0005316547431586181,400
10,98.19639278557115,419.57739348193854,cathode,0.000346230355808233,0.00028107067627272284,-0.0002404825269921144,0.0005244583124099331,400
10,98.19639278557115,419.57739348193854,interface_ae,-3.3495178965825805e-05,0.0005231044465006351,2.031432520799355e-05,0.0005417745669944418,400
10,98.19639278557115,419.57739348193854,interface_ec,0.0003832245703686306,-6.281860114288484e-05,7.070868941474861e-05,0.00043575226412970587,400
10,98.39679358717436,438.069179013592,anode,0.0009335729593242673,0.0005525973634081982,-0.00012712108358475967,0.0008423251570686188,400
10,98.39679358717436,438.069179013592,electrolyte,0.0002798499027664896,-0.00018332260914923288,0.00015869410707581886,0.0004886485652396643,400
10,98.39679358717436,438.069179013592,cathode,0.000576556396055946,-6.124444218344786e-05,-4.510115406655239e-05,0.0006144765062144627,400
10,98.39679358717436,438.069179013592,interface_ae,0.001132596025325021,0.0007446504501238822,-4.138435821602608e-05,0.0009995138341712916,400
10,98.39679358717436,438.069179013592,interface_ec,0.0006262849101405702,0.0010145270325410357,-9.727038000287061e-05,0.0009024962589916195,400
10,98.59719438877755,462.268829799194,anode,0.0002559644189868034,0.0006560861160739479,0.00014717245733555294,0.0006269061098606622,400
10,98.59719438877755,462.268829799194,electrolyte,0.0003198029746143738,0.0008918950328422603,6.434519228227755e-05,0.0007905320480180983,400
10,98.59719438877755,462.268829799194,cathode,0.001004525480772423,0.0007289438474997835,-1.0242931164643594e-05,0.0008991677587522623,400
10,98.59719438877755,462.268829799194,interface_ae,0.0015461893672231125,0.001290753171470361,7.96300743100723e-05,0.0014422272101654108,400
10,98.59719438877755,462.268829799194,interface_ec,0.001344467088821794,0.0010586658404778413,-0.00016847925763130664,0.0012610232015681834,400
10,98.79759519038076,491.7947028896842,anode,0.0019447195562035668,0.0012904725836165314,4.5673830252021716e-05,0.001715781066323027,400
10,98.79759519038076,491.7947028896842,electrolyte,0.0003253085191397598,0.0007331811723960693,-1.74857019679993e-05,0.0006370144676909631,400
10,98.79759519038076,491.7947028896842,cathode,0.0013952738742399457,0.0008383836183562907,2.4040328612636506e-05,0.001217224436404749,400
10,98.79759519038076,491.7947028896842,interface_ae,0.002268691683958812,0.001806782136498587,0.0001101159503710873,0.0020853701363098523,400
10,98.79759519038076,491.7947028896842,interface_ec,0.0019345294028617563,0.0022058983629018886,0.00010267292003294941,0.0020910862107421245,400
10,98.99799599198397,526.1811576285245,anode,0.0015657336829482328,0.001309084229431824,-3.345385218996033e-05,0.0014556454563206846,400
10,98.99799599198397,526.1811576285245,electrolyte,0.0009678789665383375,0.000704921390345453,6.503436902878189e-05,0.0008741359626056333,400
10,98.99799599198397,526.1811576285245,cathode,0.002358520681374825,0.0014028677370266501,-0.00025727699560551304,0.0021025079021148975,400
10,98.99799599198397,526.1811576285245,interface_ae,0.0035411052890136846,0.0033043233547670743,5.8915254457668655e-05,0.0034303696031457213,400
10,98.99799599198397,526.1811576285245,interface_ec,0.0029670036114983886,0.002762161273018255,-0.00016777852263174484,0.0028847446601371215,400
10,99.19839679358718,564.8858990830106,anode,0.002583702184892538,0.0016268315853885755,-4.5019318024229994e-05,0.002263830798182989,400
10,99.19839679358718,564.8858990830106,electrolyte,0.0008528999456929023,0.0010191185050844017,-5.495125157066364e-05,0.0009517844542094867,400
10,99.19839679358718,564.8858990830106,cathode,0.002443874167678733,0.0020389238726880154,-0.00014799885415861655,0.0022831051456811144,400
10,99.19839679358718,564.8858990830106,interface_ae,0.004491585085125284,0.0036433639756036557,-0.00014827935117988505,0.004141246025183873,400
10,99.19839679358718,564.8858990830106,interface_ec,0.004975799932928315,0.003800922721171728,-2.298908300989581e-05,0.004504947610970613,400
10,99.39879759519039,607.2985303593135,anode,0.003430390048220593,0.003107499069494521,-2.1802413347082777e-05,0.003281100196988003,400
10,99.39879759519039,607.2985303593135,electrolyte,0.0015553089584456233,0.0009370254102370333,-2.2078912615201723e-05,0.0013568717684309952,400
10,99.39879759519039,607.2985303593135,cathode,0.0029461099240820853,0.0026104024967650353,4.991407179555155e-05,0.0027947641084738423,400
10,99.39879759519039,607.2985303593135,interface_ae,0.005578440177026501,0.004670210692911358,-0.00018161139399437468,0.005193873299919559,400
10,99.39879759519039,607.2985303593135,interface_ec,0.005128951510655758,0.004434995610182268,-4.233608878848432e-05,0.004820148261167875,400
10,99.5991983967936,652.7501789261289,anode,0.003980109881570503,0.002766264259208665,-5.361225722560498e-05,0.003534413633180642,400
10,99.5991983967936,652.7501789261289,electrolyte,0.0020551541019471174,0.0014139003222614832,6.906234747642361e-05,0.0018251844510947417,400
10,99.5991983967936,652.7501789261289,cathode,0.0036230149815504984,0.003192180932461956,-3.427088157143108e-05,0.0034284779130037556,400
10,99.5991983967936,652.7501789261289,interface_ae,0.0067968993117904705,0.005143745797254239,-5.449680125828175e-05,0.006140305246162288,400
10,99.5991983967936,652.7501789261289,interface_ec,0.006685751472980258,0.005767371293878027,0.00022394289341307413,0.006289124305908381,400
10,99.79959919839679,700.5240451340578,anode,0.004240291254384165,0.004147803384835523,-9.885357399895057e-05,0.004198304956874126,400
10,99.79959919839679,700.5240451340578,electrolyte,0.0025022622394017973,0.0020333582065571554,-0.00013701878694483342,0.002316071867492717,400
10,99.79959919839679,700.5240451340578,cathode,0.004449710425619384,0.003688588105617604,9.383768905125008e-05,0.004125393638314608,400
10,99.79959919839679,700.5240451340578,interface_ae,0.0077766961014689145,0.006574952073600552,0.00020536418741442768,0.007259622319036219,400
10,99.79959919839679,700.5240451340578,interface_ec,0.007814061309662206,0.006915052638556601,-3.380272275662996e-05,0.007405828092802522,400
10,100.0,749.8667065742782,anode,0.00557306622309529,0.00410860676972733,-9.21215296870777e-05,0.005006759254408233,400
10,100.0,749.8667065742782,electrolyte,0.002906422100354718,0.0019482229868483792,0.00024016114592465888,0.002598756628573572,400
10,100.0,749.8667065742782,cathode,0.005340619419205477,0.004265712246559728,-0.00027199402080257376,0.004915171750059385,400
10,100.0,749.8667065742782,interface_ae,0.009125725550307108,0.007792281901410388,0.00017508265999565593,0.008542848460623243,400
10,100.0,749.8667065742782,interface_ec,0.009608055194460693,0.007556296731607236,0.0001201772645982274,0.008766661655252528,400
