Current_Density_A_per_m2,Anode_Overpotential_V,Ni_Oxidation_Risk_V,O2_Chemical_Potential_Gradient_J_per_mol_per_m,Oxidation_Fraction,Volumetric_Strain,Von_Mises_Stress_Pa,Electrolyte_Stress_Pa,Risk_Level
1000,-0.2031925436720187,0,-294675299.34837466,0,0.0,0.0,0.0,Low
3000,0.0,0,-306572186.7597169,0,0.0,0.0,0.0,Low
5000,0.09447915241480971,0,-318469074.1710592,0,0.0,0.0,0.0,Low
7000,0.15671097918325372,0,-330365961.58240145,0,0.0,0.0,0.0,Low
