condition,depth_um,phase,sigma_11_MPa,sigma_22_MPa,sigma_33_MPa,hydrostatic_stress_MPa,von_mises_stress_MPa,youngs_modulus_GPa
as_sintered,0.0,Ni-YSZ,-136.32104558950283,-117.92473191265199,-83.16052279475142,-112.46876676563541,46.76011001003685,109.8
as_sintered,4.0201005025125625,Ni-YSZ,-147.39960457849034,-125.67972320494323,-88.69980228924517,-120.59304335755957,51.40493452290701,109.8
as_sintered,8.040201005025125,Ni-YSZ,-140.07895640077956,-120.5552694805457,-85.03947820038978,-115.22456802723836,48.331614610863625,109.8
as_sintered,12.060301507537687,Ni-YSZ,-161.79372124833995,-135.75560487383797,-95.89686062416997,-131.1487289154493,57.48521217501869,109.8
as_sintered,16.08040201005025,Ni-YSZ,-149.9576227147299,-127.47033590031093,-89.97881135736495,-122.46892332413525,52.482141213324326,109.8
as_sintered,20.100502512562812,Ni-YSZ,-158.841530749855,-133.6890715248985,-94.4207653749275,-128.98378921656033,56.23469162555445,109.8
as_sintered,24.120603015075375,Ni-YSZ,-148.6650997274899,-126.56556980924292,-89.33254986374494,-121.52107313349258,51.937647569961825,109.8
as_sintered,28.140703517587937,Ni-YSZ,-146.82735782164963,-125.27915047515475,-88.41367891082481,-120.1733957358764,51.16417749463434,109.8
as_sintered,32.1608040201005,Ni-YSZ,-157.0367666553825,-132.42573665876776,-93.51838332769125,-127.6602955472805,55.4710282998568,109.8
as_sintered,36.18090452261306,Ni-YSZ,-150.6068756151336,-127.9248129305935,-90.3034378075668,-122.94504211776463,52.7557979997648,109.8
as_sintered,40.201005025125625,Ni-YSZ,-139.49128779895713,-120.14390145926998,-84.74564389947857,-114.79361105256856,48.085567077944276,109.8
as_sintered,44.22110552763819,Ni-YSZ,-158.24478360305727,-133.27134852214007,-94.12239180152864,-128.546174642242,55.982115011858205,109.8
as_sintered,48.24120603015075,Ni-YSZ,-154.8094216476798,-130.86659515337587,-92.4047108238399,-126.0269092082985,54.529457267251566,109.8
as_sintered,52.26130653266331,Ni-YSZ,-145.37485065860324,-124.26239546102225,-87.68742532930162,-119.10822381630904,50.553453125033265,109.8
as_sintered,56.281407035175874,Ni-YSZ,-137.61415534525395,-118.82990874167777,-83.80707767262697,-113.41704725318623,47.300360591772154,109.8
as_sintered,60.30150753768844,Ni-YSZ,-140.01511432123448,-120.51058002486413,-85.00755716061724,-115.17775050223861,48.30487985388276,109.8
as_sintered,64.321608040201,Ni-YSZ,-153.60967701398053,-130.02677390978636,-91.80483850699027,-125.14709647691906,54.02271618325237,109.8
as_sintered,68.34170854271356,Ni-YSZ,-160.82662448736232,-135.07863714115362,-95.41331224368116,-130.4395246240657,57.075381165139405,109.8
as_sintered,72.36180904522612,Ni-YSZ,-153.93525552226427,-130.254678865585,-91.96762776113214,-125.38585404966045,54.16020164018078,109.8
as_sintered,76.38190954773869,Ni-YSZ,-135.92326401548334,-117.64628481083834,-82.96163200774167,-112.17706027802113,46.59403166630805,109.8
as_sintered,80.40201005025125,Ni-YSZ,-148.0334830366222,-126.12343812563553,-89.0167415183111,-121.05788756018961,51.67171750846211,109.8
as_sintered,84.42211055276381,Ni-YSZ,-139.27448148745918,-119.99213704122144,-84.63724074372959,-114.63461975747008,47.994820426989946,109.8
as_sintered,88.44221105527637,Ni-YSZ,-149.1237574402355,-126.88663020816485,-89.56187872011775,-121.85742212283937,52.130817650645895,109.8
as_sintered,92.46231155778894,Ni-YSZ,-149.04924373655288,-126.83447061558702,-89.52462186827644,-121.80277874013878,52.09943169999301,109.8
as_sintered,96.4824120603015,Ni-YSZ,-145.15497245588688,-124.1084807191208,-87.57748622794344,-118.9469798009837,50.46105078805439,109.8
as_sintered,100.50251256281406,Ni-YSZ,-146.38672357459726,-124.97070650221808,-88.19336178729863,-119.85026395470464,50.978849671368025,109.8
as_sintered,104.52261306532662,Ni-YSZ,-157.30839348077765,-132.61587543654434,-93.65419674038883,-127.85948855257028,55.585922754108225,109.8
as_sintered,108.54271356783919,Ni-YSZ,-130.4453563613678,-113.81174945295746,-80.2226781806839,-108.15992799833639,44.312639231701894,109.8
as_sintered,112.56281407035175,Ni-YSZ,-147.36421090703553,-125.65494763492487,-88.68210545351776,-120.56708799849271,51.390041210563496,109.8
as_sintered,116.58291457286431,Ni-YSZ,-150.38295269870406,-127.76806688909285,-90.19147634935203,-122.78083197904964,52.66140447181265,109.8
as_sintered,120.60301507537687,Ni-YSZ,-140.7879289385418,-121.05155025697925,-85.3939644692709,-115.74448122159731,48.62858915952973,109.8
as_sintered,124.62311557788944,Ni-YSZ,-138.96825954141204,-119.77778167898843,-84.48412977070602,-114.4100569970355,47.866672656882635,109.8
as_sintered,128.643216080402,Ni-YSZ,-155.7411160420469,-131.51878122943285,-92.87055802102346,-126.71015176416773,54.92319057928211,109.8
as_sintered,132.66331658291455,Ni-YSZ,-139.06432864737312,-119.84503005316118,-84.53216432368656,-114.4805076747403,47.906872525280406,109.8
as_sintered,136.68341708542712,Ni-YSZ,-138.38565641468682,-119.36995949028078,-84.19282820734341,-113.98281470410366,47.622945750596486,109.8
as_sintered,140.7035175879397,Ni-YSZ,-149.7438219332296,-127.32067535326074,-89.8719109666148,-122.31213608436838,52.39204700824134,109.8
as_sintered,144.72361809045225,Ni-YSZ,-147.04937775961022,-125.43456443172715,-88.52468887980511,-120.3362103570475,51.257576400643394,109.8
as_sintered,148.7437185929648,Ni-YSZ,-146.40801856636682,-124.98561299645678,-88.20400928318341,-119.86588028200235,50.987805055517434,109.8
as_sintered,152.76381909547737,Ni-YSZ,-153.22934051946987,-129.7605383636289,-91.61467025973494,-124.86818304761123,53.86213660469451,109.8
as_sintered,156.78391959798995,Ni-YSZ,-171.72671232165771,-142.7086986251604,-100.86335616082886,-138.43292236921567,61.7036994483466,109.8
as_sintered,160.8040201005025,Ni-YSZ,-152.5674111641516,-129.29718781490612,-91.2837055820758,-124.38276818704452,53.58274300584109,109.8
as_sintered,164.82412060301505,Ni-YSZ,-149.03910583611423,-126.82737408527997,-89.51955291805712,-121.79534427981712,52.095161614020846,109.8
as_sintered,168.84422110552762,Ni-YSZ,-145.5538369327679,-124.38768585293752,-87.77691846638395,-119.23948041736311,50.628680348384144,109.8
as_sintered,172.8643216080402,Ni-YSZ,-158.7940591858887,-133.6558414301221,-94.39702959294435,-128.9489767363184,56.21459649947608,109.8
as_sintered,176.88442211055275,Ni-YSZ,-154.44422062815542,-130.6109544397088,-92.22211031407771,-125.75909512731397,54.37517329833813,109.8
as_sintered,180.9045226130653,Ni-YSZ,-153.41814912113264,-129.89270438479286,-91.70907456056632,-125.0066426888306,53.94184840973506,109.8
as_sintered,184.92462311557787,Ni-YSZ,-154.92192123522756,-130.9453448646593,-92.46096061761378,-126.10940890583352,54.576989870287996,109.8
as_sintered,188.94472361809045,Ni-YSZ,-143.84179038478956,-123.1892532693527,-86.92089519239478,-117.98397961551234,49.90946501619972,109.8
as_sintered,192.964824120603,Ni-YSZ,-143.73437055075613,-123.11405938552929,-86.86718527537806,-117.90520507055449,49.864365414853644,109.8
as_sintered,196.98492462311555,Ni-YSZ,-153.06745822688174,-129.6472207588172,-91.53372911344087,-124.74946936637993,53.79379883903453,109.8
as_sintered,201.00502512562812,Ni-YSZ,-150.6646198074546,-127.96523386521824,-90.3323099037273,-122.98738785880006,52.78014165557605,109.8
as_sintered,205.0251256281407,Ni-YSZ,-146.0290029717751,-124.72030208024256,-88.01450148588755,-119.58793551263507,50.82843157925198,109.8
as_sintered,209.04522613065325,Ni-YSZ,-145.12159386195177,-124.08511570336624,-87.56079693097588,-118.9225021654313,50.44702478061949,109.8
as_sintered,213.0653266331658,Ni-YSZ,-150.18589388796,-127.630125721572,-90.09294694398,-122.63632218450398,52.57834506985143,109.8
as_sintered,217.08542713567837,Ni-YSZ,-158.42671452614096,-133.39870016829866,-94.21335726307048,-128.67959065250335,56.05911100031556,109.8
as_sintered,221.10552763819095,Ni-YSZ,-131.55272780852167,-114.58690946596516,-80.77636390426083,-108.97200039291589,44.77293331104538,109.8
as_sintered,225.1256281407035,Ni-YSZ,-156.5883562027204,-132.1118493419043,-93.2941781013602,-127.33146121532832,55.28138913853942,109.8
as_sintered,229.14572864321605,Ni-YSZ,-144.61477642576634,-123.73034349803643,-87.30738821288317,-118.55083604556198,50.23409178137504,109.8
as_sintered,233.16582914572862,Ni-YSZ,-149.55730957208306,-127.19011670045815,-89.77865478604153,-122.17536035286089,52.313460827778535,109.8
as_sintered,237.1859296482412,Ni-YSZ,-161.40254117626273,-135.4817788233839,-95.70127058813137,-130.86186352925935,57.319419542177286,109.8
as_sintered,241.20603015075375,Ni-YSZ,-134.34241498618798,-116.53969049033158,-82.17120749309399,-111.01777098987118,45.93454317991113,109.8
as_sintered,245.2261306532663,Ni-YSZ,-151.09847752739793,-128.26893426917854,-90.54923876369897,-123.30555018675847,52.96307104609981,109.8
as_sintered,249.24623115577887,Ni-YSZ,-157.49348081954636,-132.74543657368247,-93.74674040977318,-127.99521926766732,55.66422059703683,109.8
as_sintered,253.26633165829145,Ni-YSZ,-161.90487027863892,-135.83340919504724,-95.95243513931946,-131.2302382043352,57.532325154964006,109.8
as_sintered,257.286432160804,Ni-YSZ,-143.44715318124236,-122.91300722686967,-86.72357659062118,-117.69457899957774,49.74379449279773,109.8
as_sintered,261.30653266331655,Ni-YSZ,-146.84382975631962,-125.29068082942374,-88.42191487815981,-120.18547515463437,51.171106444286416,109.8
as_sintered,265.3266331658291,Ni-YSZ,-142.41909812125616,-122.1933686848793,-86.20954906062808,-116.94067195558785,49.31241634509165,109.8
as_sintered,269.3467336683417,Ni-YSZ,-148.69218348229614,-126.58452843760729,-89.34609174114807,-121.54093455368384,51.94905285046071,109.8
as_sintered,273.36683417085425,Ni-YSZ,-134.44013838077,-116.608096866539,-82.220069190385,-111.08943481256468,45.97528563407621,109.8
as_sintered,277.3869346733668,Ni-YSZ,-146.44231722515198,-125.00962205760639,-88.22115861257599,-119.89103263177812,51.00222924040674,109.8
as_sintered,281.4070351758794,Ni-YSZ,-146.07236301653887,-124.7506541115772,-88.03618150826944,-119.61973287879516,50.84666229570902,109.8
as_sintered,285.42713567839195,Ni-YSZ,-146.69720302891662,-125.18804212024163,-88.34860151445831,-120.0779488878722,51.109430078192794,109.8
as_sintered,289.4472361809045,Ni-YSZ,-156.72462680950753,-132.20723876665528,-93.36231340475376,-127.43139299363885,55.33901563462135,109.8
as_sintered,293.46733668341705,Ni-YSZ,-143.6473186953639,-123.05312308675474,-86.82365934768195,-117.84136704326687,49.82781952507981,109.8
as_sintered,297.4874371859296,Ni-YSZ,-159.15733761928442,-133.91013633349908,-94.57866880964221,-129.21538092080857,56.368386421693074,109.8
as_sintered,301.5075376884422,Interface,175.6785789044704,152.97500523312928,107.8392894522352,145.49762452994497,59.811597077355394,147.25
as_sintered,305.52763819095475,Interface,203.57044400763326,172.49931080534327,121.78522200381663,165.95165893893105,71.50579228166467,147.25
as_sintered,309.5477386934673,Interface,201.19815751647428,170.838710261532,120.59907875823714,164.2119821787478,70.5050640304971,147.25
as_sintered,313.5678391959799,Interface,185.10291050917823,159.57203735642477,112.55145525458911,152.40880104006405,63.74352627795273,147.25
as_sintered,317.58793969849245,Interface,212.4888625118174,178.74220375827215,126.2444312559087,172.49183250866608,75.2760088520682,147.25
as_sintered,321.608040201005,YSZ,104.98547134958116,88.48982994470681,62.49273567479058,85.32267898969286,37.105172691720064,184.7
as_sintered,325.62814070351754,YSZ,98.48843683052053,83.94190578136437,59.244218415260264,80.55818700904838,34.363396265667156,184.7
as_sintered,329.6482412060301,YSZ,82.27486651968762,72.59240656378134,51.13743325984381,68.66823544777093,27.600775897441977,184.7
as_sintered,333.6683417085427,YSZ,87.78164123935717,76.44714886755003,53.890820619678586,72.70653690886192,29.88182042335698,184.7
as_sintered,337.68844221105525,YSZ,101.5927157709919,86.11490103969433,60.79635788549595,82.83465823206073,35.67165676716492,184.7
as_sintered,341.7085427135678,YSZ,109.50655505988631,91.65458854192042,64.75327752994315,88.63814037724995,39.02069382003491,184.7
as_sintered,345.7286432160804,YSZ,110.9848413287271,92.68938893010896,65.49242066436355,89.72221697439988,39.64819667539418,184.7
as_sintered,349.74874371859295,YSZ,115.21989816367628,95.6539287145734,67.60994908183814,92.82792532002928,41.44875876126882,184.7
as_sintered,353.7688442211055,YSZ,101.86967929911347,86.30877550937943,60.934839649556736,83.03776481934989,35.788541776011755,184.7
as_sintered,357.78894472361804,YSZ,92.60215756926164,79.82151029848315,56.30107878463082,76.24158221745853,31.892977002671365,184.7
as_sintered,361.8090452261306,YSZ,91.93317834656759,79.35322484259731,55.96658917328379,75.75099745414957,31.613173637354386,184.7
as_sintered,365.8291457286432,YSZ,85.56429790591703,74.89500853414192,52.782148952958515,71.08048513100583,28.961021947867856,184.7
as_sintered,369.84924623115575,YSZ,106.9809203878644,89.88664427150508,63.4904601939322,86.78600828443389,37.94992053798958,184.7
as_sintered,373.8693467336683,YSZ,110.66674518969927,92.4667216327895,65.33337259484964,89.48894647244613,39.513125403530196,184.7
as_sintered,377.8894472361809,YSZ,77.16179917766611,69.01325942436628,48.580899588833056,64.91865273028849,25.502429784892815,184.7
as_sintered,381.90954773869345,YSZ,106.32607751281637,89.42825425897146,63.163038756408184,86.30579017606533,37.67257550793062,184.7
as_sintered,385.929648241206,YSZ,102.0453644768754,86.43175513381279,61.0226822384377,83.1666006163753,35.86269817063469,184.7
as_sintered,389.94974874371854,YSZ,104.51666243644318,88.16166370551024,62.25833121822159,84.978885786725,36.90687723707306,184.7
as_sintered,393.9698492462311,YSZ,102.5711591776031,86.79981142432217,61.28557958880155,83.55218339690894,36.084695634679264,184.7
as_sintered,397.9899497487437,YSZ,115.07944830357089,95.55561381249962,67.53972415178544,92.72492875595198,41.3889813787674,184.7
as_sintered,402.01005025125625,YSZ,99.33219621633194,84.53253735143237,59.66609810816597,81.17694389197675,34.718648031591805,184.7
as_sintered,406.0301507537688,YSZ,111.24546973673218,92.87182881571252,65.6227348683661,89.9133444736036,39.75888415508606,184.7
as_sintered,410.0502512562814,YSZ,97.12909044695292,82.99036331286705,58.56454522347646,79.56133299443214,33.79162871630855,184.7
as_sintered,414.07035175879395,YSZ,76.52519433117125,68.56763603181987,48.262597165585625,64.45180917619224,25.242738916280736,184.7
as_sintered,418.0904522613065,YSZ,103.50199892656318,87.45139924859421,61.75099946328159,84.234799212813,36.477926581223436,184.7
as_sintered,422.11055276381904,YSZ,92.18044508603036,79.52631156022126,56.09022254301518,75.93232639642227,31.71656922584609,184.7
as_sintered,426.1306532663316,YSZ,111.79090183070353,93.25363128149247,65.89545091535177,90.3133280091826,39.99057918488051,184.7
as_sintered,430.1507537688442,YSZ,84.91280986623578,74.43896690636504,52.45640493311789,70.60272723523957,28.69104946179387,184.7
as_sintered,434.17085427135675,YSZ,91.76936288973096,79.23855402281167,55.88468144486548,75.63086611913603,31.544689708774147,184.7
as_sintered,438.1909547738693,YSZ,114.00379589449493,94.80265712614646,67.00189794724747,91.93611698929628,40.93131045769226,184.7
as_sintered,442.2110552763819,YSZ,97.42851668749475,83.19996168124632,58.714258343747375,79.78091223749614,33.9175120299548,184.7
as_sintered,446.23115577889445,YSZ,99.0591739878604,84.34142179150228,59.5295869939302,80.97672759109763,34.6036676065277,184.7
as_sintered,450.251256281407,YSZ,97.04153460821095,82.92907422574767,58.520767304105476,79.4971253793547,33.754825570018305,184.7
as_sintered,454.27135678391954,YSZ,77.6666245845916,69.36663720921412,48.8333122922958,65.2888580287005,25.708628126761457,184.7
as_sintered,458.2914572864321,YSZ,94.72593303001878,81.30815312101315,57.36296651500939,77.7990175553471,32.782617696613016,184.7
as_sintered,462.3115577889447,YSZ,103.81777986470455,87.67244590529319,61.908889932352274,84.46637190078333,36.61138948738356,184.7
as_sintered,466.33165829145725,YSZ,112.22789058084985,93.55952340659489,66.11394529042492,90.63378642595654,40.176259416052474,184.7
as_sintered,470.3517587939698,YSZ,104.66392104967771,88.2647447347744,62.331960524838856,85.08687543643032,36.96915716217292,184.7
as_sintered,474.3718592964824,YSZ,89.33309268249369,77.53316487774558,54.66654634124684,73.84426796716203,30.52777403218936,184.7
as_sintered,478.39195979899495,YSZ,84.83517585751565,74.38462310026095,52.417587928757825,70.54579562884481,28.65889647454141,184.7
as_sintered,482.4120603015075,YSZ,96.25596513451009,82.37917559415706,58.127982567255046,78.92104109864073,33.424756587178145,184.7
as_sintered,486.43216080402004,YSZ,111.3718951666545,92.96032661665814,65.68594758332725,90.00605645554663,39.81258227439875,184.7
as_sintered,490.4522613065326,YSZ,92.70966733071822,79.89676713150276,56.35483366535911,76.32042270919337,31.937963097819168,184.7
as_sintered,494.4723618090452,YSZ,91.23359755669861,78.86351828968903,55.616798778349306,75.23797154157897,31.320801269511193,184.7
as_sintered,498.49246231155774,YSZ,98.32296428819268,83.82607500173488,59.16148214409634,80.43684047800797,34.29375762102533,184.7
as_sintered,502.5125628140703,Interface,180.64606161377915,153.4522431296454,108.32303080688958,147.47377851677138,63.27230971647349,152.35
as_sintered,506.5326633165829,Interface,193.36900783356703,162.35830548349693,114.68450391678351,156.80393907794914,68.65022276984004,152.35
as_sintered,510.55276381909545,Interface,172.06781674596067,147.44747172217248,104.03390837298033,141.18306561370449,59.663688958476975,152.35
as_sintered,514.572864321608,Interface,180.4303059024278,153.30121413169945,108.2151529512139,147.3155576617804,63.18136136884953,152.35
as_sintered,518.5929648241206,Interface,170.60421580602048,146.42295106421435,103.30210790301024,140.10975825774835,59.04961645783532,152.35
as_sintered,522.6130653266331,LSM,-61.08698452883738,-54.76088917018617,-38.54349226441869,-51.463788654480744,20.139916687536846,120.0
as_sintered,526.6331658291457,LSM,-83.58255805523352,-70.50779063866347,-49.79127902761676,-67.96054257383791,29.512488328250868,120.0
as_sintered,530.6532663316582,LSM,-68.52715562089625,-59.96900893462737,-42.263577810448126,-56.91991412199059,23.200212126209248,120.0
as_sintered,534.6733668341708,LSM,-89.39751352715271,-74.5782594690069,-52.698756763576355,-72.22484325324531,31.977505198724888,120.0
as_sintered,538.6934673366834,LSM,-81.93345161441134,-69.35341613008794,-48.96672580720567,-66.75119785056832,28.81561595346712,120.0
as_sintered,542.7135678391959,LSM,-78.181680336606,-66.7271762356242,-47.090840168303,-63.99989891351107,27.23446071358079,120.0
as_sintered,546.7336683417085,LSM,-84.08665295115911,-70.86065706581138,-50.043326475579555,-68.33021216418335,29.72571527806465,120.0
as_sintered,550.7537688442211,LSM,-66.08005584567987,-58.25603909197591,-41.04002792283993,-55.12537428683191,22.18793903356797,120.0
as_sintered,554.7738693467336,LSM,-83.194091692421,-70.23586418469469,-49.5970458462105,-67.67566724110873,29.34823650701449,120.0
as_sintered,558.7939698492462,LSM,-87.0406450095873,-72.9284515067111,-51.52032250479365,-70.49647300703069,30.977050405662496,120.0
as_sintered,562.8140703517588,LSM,-84.05464520437127,-70.83825164305989,-50.027322602185635,-68.30673981653894,29.712173513435445,120.0
as_sintered,566.8341708542713,LSM,-91.12576048654415,-75.78803234058091,-53.562880243272076,-73.49222435679904,32.71217863883713,120.0
as_sintered,570.8542713567839,LSM,-75.01949783654682,-64.51364848558278,-45.50974891827341,-61.680965080134335,25.907010157185944,120.0
as_sintered,574.8743718592964,LSM,-80.07443278827637,-68.05210295179346,-48.037216394138184,-65.38791737806933,28.031369328823676,120.0
as_sintered,578.894472361809,LSM,-90.58506888731979,-75.40954822112386,-53.292534443659896,-73.09571718403451,32.48224015638569,120.0
as_sintered,582.9145728643216,LSM,-82.1622640445283,-69.51358483116981,-49.08113202226415,-66.91899363265408,28.91224229893865,120.0
as_sintered,586.9346733668341,LSM,-85.4238155620088,-71.79667089340616,-50.7119077810044,-69.31079807880646,30.291771565245874,120.0
as_sintered,590.9547738693467,LSM,-96.46238959881427,-79.52367271917,-56.231194799407135,-77.4057523724638,34.98577348122541,120.0
as_sintered,594.9748743718592,LSM,-82.52150068480486,-69.76505047936341,-49.26075034240243,-67.18243383552357,29.0639885364183,120.0
as_sintered,598.9949748743718,LSM,-76.64064429466218,-65.64845100626353,-46.32032214733109,-62.8698058160856,26.58690291849494,120.0
as_sintered,603.0150753768844,LSM,-96.80368181789274,-79.76257727252491,-56.40184090894637,-77.65603333312134,35.13141042149169,120.0
as_sintered,607.0351758793969,LSM,-76.9792159569285,-65.88545116984996,-46.48960797846425,-63.118091701747566,26.72907167239706,120.0
as_sintered,611.0552763819095,LSM,-81.3168129177755,-68.92176904244285,-48.65840645888775,-66.29899613970203,28.55531901676081,120.0
as_sintered,615.0753768844221,LSM,-77.75482950309134,-66.42838065216394,-46.87741475154567,-63.686874968933644,27.05497600219582,120.0
as_sintered,619.0954773869346,LSM,-95.93164561908215,-79.1521519333575,-55.96582280954107,-77.01654012066024,34.75934593336621,120.0
as_sintered,623.1155778894472,LSM,-74.81019281343094,-64.36713496940166,-45.40509640671547,-61.52747472984936,25.819334405390574,120.0
as_sintered,627.1356783919598,LSM,-78.40900481960819,-66.88630337372572,-47.20450240980409,-64.16660353437933,27.330083318916515,120.0
as_sintered,631.1557788944723,LSM,-93.564292511879,-77.4950047583153,-54.7821462559395,-75.28048117537793,33.75019124740525,120.0
as_sintered,635.1758793969849,LSM,-83.56489075101699,-70.49542352571189,-49.782445375508495,-67.9475865507458,29.505016971299497,120.0
as_sintered,639.1959798994974,LSM,-87.30692085555776,-73.11484459889044,-51.65346042777888,-70.69174196074236,31.089992598023343,120.0
as_sintered,643.21608040201,LSM,-69.92579966397412,-60.94805976478188,-42.96289983198706,-57.945586420247686,23.78091418402081,120.0
as_sintered,647.2361809045226,LSM,-85.24733639270546,-71.67313547489383,-50.62366819635273,-69.18138002131734,30.21702667899853,120.0
as_sintered,651.2562814070351,LSM,-66.72208169860735,-58.70545718902515,-41.36104084930368,-55.596193245645395,22.453033644179143,120.0
as_sintered,655.2763819095477,LSM,-83.36276424790726,-70.35393497353509,-49.68138212395363,-67.79936044846532,29.419547771747652,120.0
as_sintered,659.2964824120602,LSM,-96.84634145243389,-79.79243901670372,-56.423170726216945,-77.68731706511818,35.14961607387083,120.0
as_sintered,663.3165829145728,LSM,-71.99275667704981,-62.39492967393486,-43.996378338524906,-59.46135489650319,24.641653500701455,120.0
as_sintered,667.3366834170854,LSM,-94.4738240896456,-78.13167686275192,-55.2369120448228,-75.94747099907345,34.137745230660116,120.0
as_sintered,671.3567839195979,LSM,-78.19157428762482,-66.73410200133738,-47.09578714381241,-64.00715447759153,27.238622025789223,120.0
as_sintered,675.3768844221105,LSM,-90.9770041383921,-75.68390289687447,-53.48850206919605,-73.38313636815421,32.64890925342478,120.0
as_sintered,679.3969849246231,LSM,-63.00897323165955,-56.10628126216169,-39.50448661582978,-52.87324703655034,20.9251957335943,120.0
as_sintered,683.4170854271356,LSM,-77.84806494675738,-66.49364546273016,-46.92403247337869,-63.755247627622076,27.09417260950065,120.0
as_sintered,687.4371859296482,LSM,-89.990657453865,-74.99346021770549,-52.9953287269325,-72.65981546616767,32.229552134953764,120.0
as_sintered,691.4572864321608,LSM,-75.1507750695291,-64.60554254867037,-45.57538753476455,-61.77723505098802,25.962013371498827,120.0
as_sintered,695.4773869346733,LSM,-64.7326518651146,-57.312856305580226,-40.3663259325573,-54.137278034417385,21.63280029585501,120.0
as_sintered,699.4974874371859,LSM,-88.71433637652927,-74.10003546357049,-52.35716818826464,-71.72384667612147,31.687329859076453,120.0
as_sintered,703.5175879396984,LSM,-76.74165649534119,-65.71915954673884,-46.370828247670595,-62.94388142991687,26.62931252858359,120.0
as_sintered,707.537688442211,LSM,-81.14757780951228,-68.8033044666586,-48.57378890475614,-66.17489039364234,28.48390868406192,120.0
as_sintered,711.5577889447236,LSM,-71.56558073246168,-62.09590651272318,-43.78279036623084,-59.148092537138574,24.463527887007913,120.0
as_sintered,715.5778894472361,LSM,-59.23125704862424,-53.461879934036965,-37.615628524312115,-50.102921835657774,19.385881364173077,120.0
as_sintered,719.5979899497487,LSM,-81.17062753525614,-68.8194392746793,-48.58531376762807,-66.19179352585451,28.493634024270087,120.0
as_sintered,723.6180904522612,LSM,-84.95835896199476,-71.47085127339633,-50.47917948099738,-68.96946323879617,30.09465871190958,120.0
as_sintered,727.6381909547738,LSM,-82.92494157251377,-70.04745910075964,-49.46247078625689,-67.47829048651009,29.23446809709085,120.0
as_sintered,731.6582914572864,LSM,-69.06448508211895,-60.34513955748327,-42.532242541059475,-57.31395572688723,23.42313152370227,120.0
as_sintered,735.6783919597989,LSM,-87.57424068174267,-73.30196847721986,-51.78712034087133,-70.88777649994462,31.20340066805332,120.0
as_sintered,739.6984924623115,LSM,-64.39569905223992,-57.07698933656795,-40.19784952611996,-53.89017930497594,21.49424102325627,120.0
as_sintered,743.7185929648241,LSM,-78.99879036878127,-67.29915325814689,-47.499395184390636,-64.59911293710626,27.578286978003376,120.0
as_sintered,747.7386934673366,LSM,-102.0126425538935,-83.40884978772544,-59.00632127694675,-81.47593787285523,37.35724944894804,120.0
as_sintered,751.7587939698492,LSM,-92.77199876182408,-76.94039913327686,-54.38599938091204,-74.699465758671,33.412762856874544,120.0
as_sintered,755.7788944723618,LSM,-99.87887411721704,-81.91521188205193,-57.93943705860852,-79.91117435262584,36.44480292220378,120.0
as_sintered,759.7989949748743,LSM,-53.388558646799126,-49.37199105275939,-34.69427932339956,-45.818276340986024,17.04470762830741,120.0
as_sintered,763.8190954773869,LSM,-81.04450190093317,-68.73115133065322,-48.522250950466585,-66.09930139401764,28.440420739926175,120.0
as_sintered,767.8391959798994,LSM,-62.20887919569586,-55.5462154369871,-39.10443959784793,-52.286511410176956,20.597793695402366,120.0
as_sintered,771.859296482412,LSM,-89.13585103125209,-74.39509572187646,-52.567925515626044,-72.03295742291819,31.866349044249528,120.0
as_sintered,775.8793969849246,LSM,-86.90544173876377,-72.83380921713464,-51.452720869381885,-70.39732394176009,30.919712141290102,120.0
as_sintered,779.8994974874371,LSM,-92.85684737207514,-76.9997931604526,-54.42842368603757,-74.76168807285511,33.44889112672126,120.0
as_sintered,783.9195979899497,LSM,-85.93206058858213,-72.15244241200749,-50.966030294291066,-69.68351109829356,30.507091061384305,120.0
as_sintered,787.9396984924622,LSM,-74.0801156460511,-63.85608095223577,-45.04005782302555,-60.99208480710414,25.513707788010553,120.0
as_sintered,791.9597989949748,LSM,-76.2033089772631,-65.34231628408418,-46.10165448863155,-62.54909324999295,26.403350465056782,120.0
as_sintered,795.9798994974874,LSM,-67.11184323094975,-58.97829026166482,-41.55592161547487,-55.88201836936315,22.6141409605163,120.0
as_sintered,800.0,LSM,-80.5961633727324,-68.41731436091268,-48.2980816863662,-65.77051980667044,28.251318263794566,120.0
after_thermal_cycling,0.0,Ni-YSZ,-202.99798221771755,-175.84858755240228,-123.99899110885877,-167.61518695965952,69.5208992975095,109.8
after_thermal_cycling,4.0201005025125625,Ni-YSZ,-222.63442833264585,-189.5940998328521,-133.81721416632294,-182.0152474439403,77.75352665409403,109.8
after_thermal_cycling,8.040201005025125,Ni-YSZ,-214.11620546901878,-183.63134382831316,-129.5581027345094,-175.76855067728044,74.17315865493877,109.8
after_thermal_cycling,12.060301507537687,Ni-YSZ,-216.61809429974818,-185.38266600982374,-130.8090471498741,-177.60326915314866,75.2234153329114,109.8
after_thermal_cycling,16.08040201005025,Ni-YSZ,-241.54990407475427,-202.83493285232797,-143.27495203737712,-195.88659632148645,85.74440655045491,109.8
after_thermal_cycling,20.100502512562812,Ni-YSZ,-209.98124454109708,-180.73687117876796,-127.49062227054854,-172.73624599680454,72.4399722485234,109.8
after_thermal_cycling,24.120603015075375,Ni-YSZ,-229.30452060685244,-194.2631644247967,-137.1522603034262,-186.90664844502513,80.565473658598,109.8
after_thermal_cycling,28.140703517587937,Ni-YSZ,-228.595037572551,-193.7665263007857,-136.7975187862755,-186.3863608865374,80.2660497031977,109.8
after_thermal_cycling,32.1608040201005,Ni-YSZ,-221.5799941375368,-188.85599589627577,-133.2899970687684,-181.24199570086034,77.3096496855203,109.8
after_thermal_cycling,36.18090452261306,Ni-YSZ,-243.44734812035145,-204.16314368424602,-144.22367406017574,-197.27805528825775,86.54861706287558,109.8
after_thermal_cycling,40.201005025125625,Ni-YSZ,-225.25047115361542,-191.4253298075308,-135.1252355768077,-183.93367884598464,78.85556063222805,109.8
after_thermal_cycling,44.22110552763819,Ni-YSZ,-210.15614414653217,-180.85930090257253,-127.57807207326609,-172.86450570745694,72.51321381982594,109.8
after_thermal_cycling,48.24120603015075,Ni-YSZ,-228.79434430887596,-193.90604101621318,-136.89717215443798,-186.5325191598424,80.35015583532591,109.8
after_thermal_cycling,52.26130653266331,Ni-YSZ,-233.77050642975001,-197.38935450082502,-139.385253214875,-190.18170471515,82.45192540536074,109.8
after_thermal_cycling,56.281407035175874,Ni-YSZ,-217.33586110932612,-185.8851027765283,-131.16793055466306,-178.1296314801725,75.52493426590502,109.8
after_thermal_cycling,60.30150753768844,Ni-YSZ,-226.61960583027297,-192.3837240811911,-135.8098029151365,-184.9377109422002,79.43275288168607,109.8
after_thermal_cycling,64.321608040201,Ni-YSZ,-220.77495660108744,-188.2924696207612,-132.8874783005437,-180.65163484079744,76.9708836692453,109.8
after_thermal_cycling,68.34170854271356,Ni-YSZ,-202.07731650732214,-175.2041215551255,-123.53865825366107,-166.94003210536957,69.13685538617987,109.8
after_thermal_cycling,72.36180904522612,Ni-YSZ,-231.5822138343401,-195.85754968403808,-138.29110691717005,-188.5769568118494,81.52722732717525,109.8
after_thermal_cycling,76.38190954773869,Ni-YSZ,-231.04015887421505,-195.47811121195053,-138.0200794371075,-188.179449841091,81.29827743518875,109.8
after_thermal_cycling,80.40201005025125,Ni-YSZ,-224.11049619298282,-190.62734733508796,-134.5552480964914,-183.09769720818738,78.37520026158496,109.8
after_thermal_cycling,84.42211055276381,Ni-YSZ,-226.71089426536122,-192.44762598575286,-135.8554471326806,-185.00465579459822,79.471248053047,109.8
after_thermal_cycling,88.44221105527637,Ni-YSZ,-212.58561449155133,-182.5599301440859,-128.79280724577566,-174.6461172938043,73.53121708302993,109.8
after_thermal_cycling,92.46231155778894,Ni-YSZ,-225.10502693238595,-191.32351885267016,-135.05251346619298,-183.82701975041638,78.79426221789159,109.8
after_thermal_cycling,96.4824120603015,Ni-YSZ,-218.4969409685786,-186.69785867800502,-131.7484704842893,-178.98109004362433,76.01287400417756,109.8
after_thermal_cycling,100.50251256281406,Ni-YSZ,-222.11465759807717,-189.23026031865402,-133.55732879903857,-181.63408223858994,77.53469988476049,109.8
after_thermal_cycling,104.52261306532662,Ni-YSZ,-234.7116511493146,-198.04815580452023,-139.8558255746573,-190.87187750949738,82.84982448360705,109.8
after_thermal_cycling,108.54271356783919,Ni-YSZ,-241.19982875236727,-202.58988012665708,-143.09991437618362,-195.62987441840266,85.59607864407998,109.8
after_thermal_cycling,112.56281407035175,Ni-YSZ,-212.1105727774214,-182.22740094419498,-128.5552863887107,-174.29775337010904,73.33207253027363,109.8
after_thermal_cycling,116.58291457286431,Ni-YSZ,-231.99155059375636,-196.14408541562943,-138.49577529687818,-188.877137102088,81.7001481565642,109.8
after_thermal_cycling,120.60301507537687,Ni-YSZ,-210.5994427808061,-181.16960994656426,-127.79972139040305,-173.18959137259114,72.69887869656881,109.8
after_thermal_cycling,124.62311557788944,Ni-YSZ,-215.47874575234866,-184.58512202664406,-130.23937287617431,-176.7677468850557,74.74499021992942,109.8
after_thermal_cycling,128.643216080402,Ni-YSZ,-221.87085389116706,-189.05959772381695,-133.43542694558352,-181.45529285352254,77.43207231210202,109.8
after_thermal_cycling,132.66331658291455,Ni-YSZ,-231.5806017834446,-195.8564212484112,-138.2903008917223,-188.57577464119268,81.52654637689656,109.8
after_thermal_cycling,136.68341708542712,Ni-YSZ,-213.3521278517141,-183.09648949619987,-129.17606392585705,-175.208227091257,73.85264275581652,109.8
after_thermal_cycling,140.7035175879397,Ni-YSZ,-237.67031488380977,-200.11922041866683,-141.3351574419049,-193.04156424812717,84.10146644067093,109.8
after_thermal_cycling,144.72361809045225,Ni-YSZ,-219.84712638134792,-187.64298846694354,-132.42356319067395,-179.97122601298847,76.58058117958254,109.8
after_thermal_cycling,148.7437185929648,Ni-YSZ,-231.38955055819898,-195.7226853907393,-138.1947752790995,-188.43567040934593,81.4458465853493,109.8
after_thermal_cycling,152.76381909547737,Ni-YSZ,-225.5242057830141,-191.61694404810987,-135.26210289150706,-184.13441757421035,78.97093686459039,109.8
after_thermal_cycling,156.78391959798995,Ni-YSZ,-227.58359787054516,-193.0585185093816,-136.29179893527257,-185.64463843839977,79.83932022800047,109.8
after_thermal_cycling,160.8040201005025,Ni-YSZ,-241.59467172596257,-202.8662702081738,-143.2973358629813,-195.91942593237255,85.76337581072897,109.8
after_thermal_cycling,164.82412060301505,Ni-YSZ,-228.32941911178534,-193.58059337824974,-136.66470955589267,-186.19157401530924,80.15396964313693,109.8
after_thermal_cycling,168.84422110552762,Ni-YSZ,-242.19179146573055,-203.28425402601138,-143.59589573286527,-196.35731374153576,86.01641483089193,109.8
after_thermal_cycling,172.8643216080402,Ni-YSZ,-217.02206555619912,-185.6654458893394,-131.01103277809955,-177.89951474121267,75.39310389227082,109.8
after_thermal_cycling,176.88442211055275,Ni-YSZ,-202.5887230774949,-175.56210615424644,-123.79436153874745,-167.31506359016294,69.35015794931684,109.8
after_thermal_cycling,180.9045226130653,Ni-YSZ,-217.56053302993152,-186.04237312095205,-131.28026651496575,-178.29439088861645,75.61933322195765,109.8
after_thermal_cycling,184.92462311557787,Ni-YSZ,-210.97638937396906,-181.43347256177833,-127.98819468698453,-173.46601887424399,72.85678457868832,109.8
after_thermal_cycling,188.94472361809045,Ni-YSZ,-246.052945002958,-205.98706150207062,-145.52647250147902,-199.18882633550254,87.65366369010411,109.8
after_thermal_cycling,192.964824120603,Ni-YSZ,-243.72676135694533,-204.35873294986172,-144.36338067847265,-197.48295832842655,86.66707960547676,109.8
after_thermal_cycling,196.98492462311555,Ni-YSZ,-209.45147368760024,-180.36603158132016,-127.22573684380012,-172.34774737090683,72.21816138207251,109.8
after_thermal_cycling,201.00502512562812,Ni-YSZ,-235.34016404322423,-198.48811483025696,-140.1700820216121,-191.3327869650311,83.11561524125753,109.8
after_thermal_cycling,205.0251256281407,Ni-YSZ,-231.5733643462819,-195.85135504239733,-138.28668217314095,-188.57046718727338,81.52348919827932,109.8
after_thermal_cycling,209.04522613065325,Ni-YSZ,-231.9395957950806,-196.10771705655642,-138.4697978975403,-188.83903691639242,81.67819898210479,109.8
after_thermal_cycling,213.0653266331658,Ni-YSZ,-198.06487346036664,-172.39541142225664,-121.53243673018332,-163.99757387093553,67.46546282251377,109.8
after_thermal_cycling,217.08542713567837,Ni-YSZ,-223.8560722243722,-190.44925055706054,-134.4280361121861,-182.91111963120628,78.2680197931206,109.8
after_thermal_cycling,221.10552763819095,Ni-YSZ,-223.12271093165955,-189.93589765216169,-134.06135546582976,-182.37332134988367,77.95913698082904,109.8
after_thermal_cycling,225.1256281407035,Ni-YSZ,-227.6130928272912,-193.07916497910384,-136.3065464136456,-185.6662680733469,79.8517620638081,109.8
after_thermal_cycling,229.14572864321605,Ni-YSZ,-223.59981325643,-190.269869279501,-134.299906628215,-182.72319638804868,78.16007679275747,109.8
after_thermal_cycling,233.16582914572862,Ni-YSZ,-211.72712595859682,-181.95898817101778,-128.36356297929842,-174.01655903630433,73.17135799418008,109.8
after_thermal_cycling,237.1859296482412,Ni-YSZ,-229.17511938977,-194.172583572839,-137.087559694885,-186.81175421916464,80.51085676888903,109.8
after_thermal_cycling,241.20603015075375,Ni-YSZ,-218.38770742956896,-186.62139520069826,-131.69385371478447,-178.90098544835055,75.96695886446072,109.8
after_thermal_cycling,245.2261306532663,Ni-YSZ,-216.004655911253,-184.9532591378771,-130.5023279556265,-177.15341433491884,74.96579631413022,109.8
after_thermal_cycling,249.24623115577887,Ni-YSZ,-211.37146141243397,-181.71002298870377,-128.185730706217,-173.75573836911826,73.02231366792299,109.8
after_thermal_cycling,253.26633165829145,Ni-YSZ,-235.27414192492517,-198.44189934744762,-140.1370709624626,-191.28437074494514,83.08769276374615,109.8
after_thermal_cycling,257.286432160804,Ni-YSZ,-217.7875588355519,-186.20129118488632,-131.39377941777593,-178.46087647940473,75.71473031150794,109.8
after_thermal_cycling,261.30653266331655,Ni-YSZ,-222.80869595000618,-189.71608716500432,-133.9043479750031,-182.14304369667119,77.82690433413863,109.8
after_thermal_cycling,265.3266331658291,Ni-YSZ,-219.3786433020657,-187.315050311446,-132.18932165103286,-179.6276717548482,76.38356421959136,109.8
after_thermal_cycling,269.3467336683417,Ni-YSZ,-213.1720458310789,-182.97043208175523,-129.08602291553944,-175.07616694279122,73.77711797708054,109.8
after_thermal_cycling,273.36683417085425,Ni-YSZ,-217.76234389228324,-186.18364072459826,-131.38117194614162,-178.4423855210077,75.70413444705433,109.8
after_thermal_cycling,277.3869346733668,Ni-YSZ,-225.38126194597567,-191.51688336218297,-135.19063097298783,-184.02959209371548,78.91068609631847,109.8
after_thermal_cycling,281.4070351758794,Ni-YSZ,-222.2040373248028,-189.29282612736196,-133.6020186624014,-181.69962737152207,77.572326153192,109.8
after_thermal_cycling,285.42713567839195,Ni-YSZ,-236.0486264078729,-198.98403848551104,-140.52431320393646,-191.85232603244012,83.41527908883182,109.8
after_thermal_cycling,289.4472361809045,Ni-YSZ,-235.72703099493552,-198.75892169645485,-140.36351549746774,-191.61648939628603,83.27924308699284,109.8
after_thermal_cycling,293.46733668341705,Ni-YSZ,-240.31704023639628,-201.97192816547738,-142.65852011819814,-194.98249617335728,85.22210554073071,109.8
after_thermal_cycling,297.4874371859296,Ni-YSZ,-213.18262668526467,-182.97783867968528,-129.09131334263233,-175.08392623586076,73.78155532059355,109.8
after_thermal_cycling,301.5075376884422,Interface,290.94028777262656,248.65820144083858,175.47014388631328,238.35621103325948,101.18700687909286,147.25
after_thermal_cycling,305.52763819095475,Interface,294.62651854363605,251.23856298054523,177.31325927181803,241.05944693199976,102.73720362495054,147.25
after_thermal_cycling,309.5477386934673,Interface,309.22818597336993,261.45973018135896,184.61409298668497,251.7673363804713,108.89386919267525,147.25
after_thermal_cycling,313.5678391959799,Interface,287.54839803436863,246.28387862405805,173.77419901718432,235.86882522520366,99.76217359514888,147.25
after_thermal_cycling,317.58793969849245,Interface,296.45588886288664,252.51912220402068,178.22794443144332,242.4009851661169,103.50716256316944,147.25
after_thermal_cycling,321.608040201005,YSZ,147.27684811532694,125.59379368072887,88.63842405766347,120.50302195123976,51.353281149102315,184.7
after_thermal_cycling,325.62814070351754,YSZ,157.3767154483463,132.66370081384238,93.68835772417314,127.90959132878727,55.614824331669325,184.7
after_thermal_cycling,329.6482412060301,YSZ,137.87576865773525,119.01303806041466,83.93788432886763,113.60889701567253,47.40972674859588,184.7
after_thermal_cycling,333.6683417085427,YSZ,150.31814969158066,127.72270478410645,90.15907484579033,122.73330977382581,52.63408929111847,184.7
after_thermal_cycling,337.68844221105525,YSZ,160.2222814259025,134.65559699813176,95.11114071295125,129.99633971232853,56.81936298684413,184.7
after_thermal_cycling,341.7085427135678,YSZ,144.78788613807728,123.8515202966541,87.39394306903864,118.67778316792334,50.306813917030695,184.7
after_thermal_cycling,345.7286432160804,YSZ,171.92062594529938,142.84443816170958,100.96031297264969,138.57512569321955,61.78620661626596,184.7
after_thermal_cycling,349.74874371859295,YSZ,158.49957122000768,133.44969985400536,94.24978561000384,128.7330188946723,56.08994688498908,184.7
after_thermal_cycling,353.7688442211055,YSZ,142.6856371634986,122.37994601444902,86.3428185817493,117.13613391989895,49.42422914106574,184.7
after_thermal_cycling,357.78894472361804,YSZ,154.01607905993092,130.31125534195164,92.00803952996546,125.44512464394934,54.19433538382872,184.7
after_thermal_cycling,361.8090452261306,YSZ,135.79481394667474,117.55636976267232,82.89740697333737,112.08286356089481,46.540413687398384,184.7
after_thermal_cycling,365.8291457286432,YSZ,153.63137340939076,130.04196138657352,91.81568670469538,125.16300716688654,54.031877435499524,184.7
after_thermal_cycling,369.84924623115575,YSZ,142.60227558632474,122.32159291042731,86.30113779316237,117.07500209663813,49.38925689590804,184.7
after_thermal_cycling,373.8693467336683,YSZ,152.67114501263342,129.36980150884338,91.33557250631671,124.45883967593117,53.62652160813665,184.7
after_thermal_cycling,377.8894472361809,YSZ,157.3411077919421,132.63877545435946,93.67055389597105,127.88347904742422,55.59976145524269,184.7
after_thermal_cycling,381.90954773869345,YSZ,143.57960450858,123.005723156006,86.78980225429,117.79170997295866,49.79939337356682,184.7
after_thermal_cycling,385.929648241206,YSZ,159.60081503870813,134.22057052709567,94.80040751935407,129.5405976950526,56.556161811514905,184.7
after_thermal_cycling,389.94974874371854,YSZ,158.0741534323949,133.15190740267641,94.03707671619745,128.42104585042293,55.909907535041995,184.7
after_thermal_cycling,393.9698492462311,YSZ,149.0002335706463,126.8001634994524,89.50011678532314,121.76683795180729,52.07878883724753,184.7
after_thermal_cycling,397.9899497487437,YSZ,155.959088871584,131.6713622101088,92.979544435792,126.86999850582826,55.015331710366745,184.7
after_thermal_cycling,402.01005025125625,YSZ,157.2456081062727,132.57192567439088,93.62280405313635,127.81344594459996,55.55936408653547,184.7
after_thermal_cycling,406.0301507537688,YSZ,154.08564867600884,130.35995407320618,92.04282433800442,125.49614236240649,54.22371744617947,184.7
after_thermal_cycling,410.0502512562814,YSZ,155.5995405845929,131.419678409215,92.79977029229644,126.60632976203478,54.86334927137014,184.7
after_thermal_cycling,414.07035175879395,YSZ,153.522661491336,129.9658630439352,91.761330745668,125.0832850936464,53.985975107876875,184.7
after_thermal_cycling,418.0904522613065,YSZ,147.68983564482937,125.88288495138055,88.84491782241469,120.80587947287488,51.527072792463194,184.7
after_thermal_cycling,422.11055276381904,YSZ,130.09710981507365,113.56797687055156,80.04855490753683,107.90454719772067,44.167984632338886,184.7
after_thermal_cycling,426.1306532663316,YSZ,144.8301983107713,123.8811388175399,87.41509915538565,118.7088120945656,50.32459017873629,184.7
after_thermal_cycling,430.1507537688442,YSZ,151.47586714524235,128.53310700166963,90.73793357262117,123.58230257317773,53.12222676154258,184.7
after_thermal_cycling,434.17085427135675,YSZ,161.24657239047133,135.3726006733299,95.62328619523566,130.74748641967895,57.25332350597507,184.7
after_thermal_cycling,438.1909547738693,YSZ,170.17525317550204,141.62267722285142,100.08762658775102,137.2951856620348,61.04377701902242,184.7
after_thermal_cycling,442.2110552763819,YSZ,162.3847341982173,136.1693139387521,96.19236709910865,131.582138412026,57.73575148979711,184.7
after_thermal_cycling,446.23115577889445,YSZ,146.23272149594803,124.86290504716362,88.11636074797401,119.73732909702854,50.914089207093234,184.7
after_thermal_cycling,450.251256281407,YSZ,132.0363485838809,114.92544400871662,81.01817429194045,109.32665562817932,44.974104232932746,184.7
after_thermal_cycling,454.27135678391954,YSZ,137.3462959163617,118.64240714145319,83.67314795818085,113.22061700533192,47.188406176050265,184.7
after_thermal_cycling,458.2914572864321,YSZ,143.4013929081921,122.88097503573447,86.70069645409605,117.66102146600753,49.72458690770986,184.7
after_thermal_cycling,462.3115577889447,YSZ,147.70477744517225,125.89334421162059,88.85238872258613,120.81683679312631,51.533361338053126,184.7
after_thermal_cycling,466.33165829145725,YSZ,182.37594781702168,150.16316347191517,106.18797390851084,146.24236173248258,66.24231329250819,184.7
after_thermal_cycling,470.3517587939698,YSZ,148.10273009056846,126.17191106339791,89.05136504528423,121.10866873308355,51.700867853435575,184.7
after_thermal_cycling,474.3718592964824,YSZ,148.9330320026956,126.75312240188691,89.4665160013478,121.71755680197676,52.05048478211958,184.7
after_thermal_cycling,478.39195979899495,YSZ,154.851149768591,130.8958048380137,92.4255748842955,126.05750983030008,54.54708765401539,184.7
after_thermal_cycling,482.4120603015075,YSZ,145.41263692678154,124.28884584874707,87.70631846339077,119.13593374630648,50.56933383982365,184.7
after_thermal_cycling,486.43216080402004,YSZ,165.7077109435389,138.4953976604772,97.85385547176945,134.01898802526185,59.14554356870763,184.7
after_thermal_cycling,490.4522613065326,YSZ,155.8005962652237,131.5604173856566,92.90029813261185,126.75377059449738,54.94833299538988,184.7
after_thermal_cycling,494.4723618090452,YSZ,153.1288178920202,129.69017252441415,91.5644089460101,124.79446645414816,53.8197008258887,184.7
after_thermal_cycling,498.49246231155774,YSZ,159.43025193470996,134.10117635429697,94.71512596735498,129.41551808545398,56.48393826483609,184.7
after_thermal_cycling,502.5125628140703,Interface,272.2292633261781,231.06048432832466,163.11463166308906,222.13479310586396,95.43979804450447,152.35
after_thermal_cycling,506.5326633165829,Interface,287.4894365997656,241.74260561983593,170.7447182998828,233.32558683982813,101.88915987366371,152.35
after_thermal_cycling,510.55276381909545,Interface,263.9174456313697,225.24221194195877,158.95872281568484,216.03946012967108,91.93913238328709,152.35
after_thermal_cycling,514.572864321608,Interface,263.5759100728165,225.00313705097156,158.78795503640825,215.78900072006545,91.79549190599948,152.35
after_thermal_cycling,518.5929648241206,Interface,260.2701789121707,222.68912523851952,157.13508945608535,213.3647978689252,90.40606694160863,152.35
after_thermal_cycling,522.6130653266331,LSM,-111.22939428577845,-95.86057600004492,-67.61469714288923,-91.56822247623752,38.316263223199115,120.0
after_thermal_cycling,526.6331658291457,LSM,-99.76435773219946,-87.83505041253962,-61.88217886609973,-83.16052900361294,33.54787169311991,120.0
after_thermal_cycling,530.6532663316582,LSM,-126.07905650792877,-106.25533955555014,-75.03952825396439,-102.45797477248111,44.56702858286303,120.0
after_thermal_cycling,534.6733668341708,LSM,-94.7539052348503,-84.32773366439521,-59.37695261742515,-79.48619717222356,31.48630896886733,120.0
after_thermal_cycling,538.6934673366834,LSM,-111.17667090541569,-95.82366963379098,-67.58833545270785,-91.5295586639715,38.29420146642138,120.0
after_thermal_cycling,542.7135678391959,LSM,-112.69928742143551,-96.88950119500485,-68.34964371071776,-92.64614410905271,38.931758905914215,120.0
after_thermal_cycling,546.7336683417085,LSM,-122.19804888156168,-103.53863421709318,-73.09902444078084,-99.61190251314524,42.9270182984513,120.0
after_thermal_cycling,550.7537688442211,LSM,-98.04442949112409,-86.63110064378687,-61.022214745562046,-81.899248293491,32.83841878800097,120.0
after_thermal_cycling,554.7738693467336,LSM,-128.46906220148566,-107.92834354103996,-76.23453110074283,-104.21064561442283,45.578860831545505,120.0
after_thermal_cycling,558.7939698492462,LSM,-105.81980403027819,-92.07386282119474,-64.9099020151391,-87.601189622204,36.05864493630333,120.0
after_thermal_cycling,562.8140703517588,LSM,-120.63840233598125,-102.44688163518687,-72.31920116799063,-98.46816171305291,42.26910075488746,120.0
after_thermal_cycling,566.8341708542713,LSM,-126.63159677229153,-106.64211774060408,-75.31579838614577,-102.86317096634713,44.80082990449697,120.0
after_thermal_cycling,570.8542713567839,LSM,-132.5430673496489,-110.78014714475424,-78.27153367482445,-107.19824938974254,47.30662751137264,120.0
after_thermal_cycling,574.8743718592964,LSM,-135.45881700306117,-112.82117190214282,-79.72940850153059,-109.33646580224486,48.545312608982655,120.0
after_thermal_cycling,578.894472361809,LSM,-126.77429398777444,-106.74200579144211,-75.38714699388721,-102.9678155910346,44.86122276959743,120.0
after_thermal_cycling,582.9145728643216,LSM,-108.81522418141563,-94.17065692699094,-66.40761209070781,-89.79783106637147,37.307208230359336,120.0
after_thermal_cycling,586.9346733668341,LSM,-124.38907849830726,-105.07235494881508,-74.19453924915364,-101.21865756542532,43.852406327957574,120.0
after_thermal_cycling,590.9547738693467,LSM,-107.55674924378899,-93.28972447065229,-65.7783746218945,-88.87494944544527,36.78216247330626,120.0
after_thermal_cycling,594.9748743718592,LSM,-127.45366833996391,-107.21756783797474,-75.72683416998196,-103.46602344930687,45.14881750236585,120.0
after_thermal_cycling,598.9949748743718,LSM,-123.63525051719118,-104.54467536203383,-73.81762525859558,-100.66585037927354,43.53388022115521,120.0
after_thermal_cycling,603.0150753768844,LSM,-126.04007264549942,-106.22805085184959,-75.02003632274972,-102.42938660669957,44.55053582604402,120.0
after_thermal_cycling,607.0351758793969,LSM,-131.4159441353666,-109.99116089475662,-77.7079720676833,-106.37169236593552,46.828260064701546,120.0
after_thermal_cycling,611.0552763819095,LSM,-113.34217015373208,-97.33951910761246,-68.67108507686605,-93.11759144607021,39.201210390903334,120.0
after_thermal_cycling,615.0753768844221,LSM,-106.79814372435025,-92.75870060704518,-65.39907186217513,-88.3186387311902,36.46600059747918,120.0
after_thermal_cycling,619.0954773869346,LSM,-115.86759051835274,-99.10731336284691,-69.93379525917636,-94.96956638012534,40.26111396736619,120.0
after_thermal_cycling,623.1155778894472,LSM,-119.95356321848382,-101.96749425293868,-71.97678160924191,-97.96594636022148,41.98043053192185,120.0
after_thermal_cycling,627.1356783919598,LSM,-128.30184506767088,-107.8112915473696,-76.15092253383544,-104.08801971629198,45.50802385718144,120.0
after_thermal_cycling,631.1557788944723,LSM,-105.57100786029558,-91.89970550220691,-64.7855039301478,-87.41873909755009,35.955123180797436,120.0
after_thermal_cycling,635.1758793969849,LSM,-108.07042919047984,-93.64930043333588,-66.03521459523992,-89.25164807301856,36.99639142789285,120.0
after_thermal_cycling,639.1959798994974,LSM,-112.80801546520628,-96.96561082564439,-68.40400773260313,-92.72587800781794,38.97731942248669,120.0
after_thermal_cycling,643.21608040201,LSM,-122.61990092768741,-103.83393064938119,-73.3099504638437,-99.9212606803041,43.105088217118926,120.0
after_thermal_cycling,647.2361809045226,LSM,-116.89185869582265,-99.82430108707585,-70.44592934791133,-95.7206963769366,40.69161216862513,120.0
after_thermal_cycling,651.2562814070351,LSM,-132.4721857476452,-110.73053002335165,-78.2360928738226,-107.14626954827315,47.27653651398498,120.0
after_thermal_cycling,655.2763819095477,LSM,-119.199498088239,-101.4396486617673,-71.5997490441195,-97.4129652647086,41.662740967832384,120.0
after_thermal_cycling,659.2964824120602,LSM,-122.41412876017216,-103.68989013212051,-73.20706438008608,-99.77036109079292,43.018222667464144,120.0
after_thermal_cycling,663.3165829145728,LSM,-132.78488053176767,-110.94941637223735,-78.39244026588383,-107.37557905662963,47.409291000443936,120.0
after_thermal_cycling,667.3366834170854,LSM,-115.15242587115577,-98.60669810980903,-69.57621293557789,-94.44511230551423,39.96073924587101,120.0
after_thermal_cycling,671.3567839195979,LSM,-109.87131217638975,-94.90991852347283,-66.93565608819488,-90.57229559601916,37.7483325629033,120.0
after_thermal_cycling,675.3768844221105,LSM,-101.94590730610926,-89.36213511427648,-62.97295365305463,-84.76033202448012,34.45019112582965,120.0
after_thermal_cycling,679.3969849246231,LSM,-109.82080592775701,-94.8745641494299,-66.91040296387851,-90.53525768035513,37.727225823204535,120.0
after_thermal_cycling,683.4170854271356,LSM,-130.284046571402,-109.1988325999814,-77.142023285701,-105.54163415236145,46.348138638626644,120.0
after_thermal_cycling,687.4371859296482,LSM,-93.50061603294296,-83.45043122306006,-58.75030801647148,-78.56711842415817,30.973264345021004,120.0
after_thermal_cycling,691.4572864321608,LSM,-114.8031902637256,-98.36223318460792,-69.4015951318628,-94.18900619339877,39.81412102895834,120.0
after_thermal_cycling,695.4773869346733,LSM,-125.93576257074503,-106.15503379952152,-74.96788128537251,-102.35289255187969,44.50640760262125,120.0
after_thermal_cycling,699.4974874371859,LSM,-123.01109564002576,-104.10776694801802,-73.50554782001288,-100.20813680268554,43.27026066570497,120.0
after_thermal_cycling,703.5175879396984,LSM,-124.74953657962726,-105.32467560573909,-74.37476828981363,-101.48299349172665,44.004768303967204,120.0
after_thermal_cycling,707.537688442211,LSM,-129.4807593586689,-108.63653155106823,-76.74037967933445,-104.95255686302386,46.00757538623511,120.0
after_thermal_cycling,711.5577889447236,LSM,-113.00080417021766,-97.10056291915237,-68.50040208510883,-92.86725639149296,39.058114760646056,120.0
after_thermal_cycling,715.5778894472361,LSM,-114.60094444112791,-98.22066110878954,-69.30047222056396,-94.04069259016046,39.72923225274064,120.0
after_thermal_cycling,719.5979899497487,LSM,-104.68482798766314,-91.2793795913642,-64.34241399383157,-86.76887385761965,35.5866304190084,120.0
after_thermal_cycling,723.6180904522612,LSM,-110.02323120276046,-95.01626184193232,-67.01161560138023,-90.68370288202435,37.811826305378304,120.0
after_thermal_cycling,727.6381909547738,LSM,-130.02847774047336,-109.01993441833135,-77.01423887023668,-105.35421700968045,46.23977164209485,120.0
after_thermal_cycling,731.6582914572864,LSM,-122.98639692843248,-104.09047784990274,-73.49319846421625,-100.19002441418382,43.259831008953306,120.0
after_thermal_cycling,735.6783919597989,LSM,-118.03083866117113,-100.6215870628198,-71.01541933058557,-96.5559483515255,41.170722994833866,120.0
after_thermal_cycling,739.6984924623115,LSM,-130.2980255600031,-109.20861789200217,-77.14901278000156,-105.55188541066894,46.35406646246541,120.0
after_thermal_cycling,743.7185929648241,LSM,-104.03890048829143,-90.827230341804,-64.01945024414572,-86.29519369141371,35.31827925924227,120.0
after_thermal_cycling,747.7386934673366,LSM,-131.922845283121,-110.3459916981847,-77.9614226415605,-106.74341987428873,47.043363278522925,120.0
after_thermal_cycling,751.7587939698492,LSM,-116.13827862395216,-99.29679503676651,-70.06913931197607,-95.16807099089824,40.37485000300669,120.0
after_thermal_cycling,755.7788944723618,LSM,-125.4819727591775,-105.83738093142425,-74.74098637958875,-102.02011335673016,44.31446400993735,120.0
after_thermal_cycling,759.7989949748743,LSM,-117.28376396794195,-100.09863477755937,-70.64188198397098,-96.00809357649077,40.8564199694454,120.0
after_thermal_cycling,763.8190954773869,LSM,-130.41224561062126,-109.28857192743489,-77.20612280531063,-105.63564678112225,46.40250335661444,120.0
after_thermal_cycling,767.8391959798994,LSM,-109.76817416056586,-94.8377219123961,-66.88408708028294,-90.49666105108163,37.70523192722263,120.0
after_thermal_cycling,771.859296482412,LSM,-108.96629950289771,-94.2764096520284,-66.48314975144885,-89.90861963545831,37.370283465180364,120.0
after_thermal_cycling,775.8793969849246,LSM,-107.95078901185875,-93.56555230830112,-65.97539450592937,-89.16391194202976,36.94648553317055,120.0
after_thermal_cycling,779.8994974874371,LSM,-123.20604387233429,-104.244230710634,-73.60302193616714,-100.35109883971181,43.35258826609765,120.0
after_thermal_cycling,783.9195979899497,LSM,-111.78210413221221,-96.24747289254856,-67.89105206610611,-91.97354303028897,38.547605770710774,120.0
after_thermal_cycling,787.9396984924622,LSM,-110.98644255315659,-95.6905097872096,-67.4932212765783,-91.39005787231484,38.21461065839579,120.0
after_thermal_cycling,791.9597989949748,LSM,-114.86964066099272,-98.4087484626949,-69.43482033049636,-94.23773648472799,39.842015397305595,120.0
after_thermal_cycling,795.9798994974874,LSM,-137.29779093948426,-114.10845365763898,-80.64889546974213,-110.68504668895513,49.327399868846754,120.0
after_thermal_cycling,800.0,LSM,-140.49266427613497,-116.34486499329446,-82.24633213806749,-113.02795380249897,50.68757915220167,120.0
after_100h_operation,0.0,Ni-YSZ,-277.05390604568964,-234.43773423198274,-165.52695302284482,-225.67286443350574,97.47588193360677,109.8
after_100h_operation,4.0201005025125625,Ni-YSZ,-275.22501724046185,-233.1575120683233,-164.61250862023093,-224.331679309672,96.70372162530137,109.8
after_100h_operation,8.040201005025125,Ni-YSZ,-283.3920993726406,-238.8744695608484,-168.6960496863203,-230.32087287326976,100.15491449198133,109.8
after_100h_operation,12.060301507537687,Ni-YSZ,-272.36626455293924,-231.15638518705748,-163.18313227646962,-222.23526067215548,95.49757494904865,109.8
after_100h_operation,16.08040201005025,Ni-YSZ,-283.21238022042684,-238.74866615429877,-168.60619011021342,-230.189078828313,100.07888794777813,109.8
after_100h_operation,20.100502512562812,Ni-YSZ,-274.5622938342585,-232.69360568398096,-164.28114691712926,-223.84568214512294,96.42401912207566,109.8
after_100h_operation,24.120603015075375,Ni-YSZ,-263.9129675637566,-225.2390772946296,-158.9564837818783,-216.0361762134215,91.93724892333024,109.8
after_100h_operation,28.140703517587937,Ni-YSZ,-269.2361389776261,-228.96529728433828,-161.61806948881306,-219.93983525025916,94.17812554655994,109.8
after_100h_operation,32.1608040201005,Ni-YSZ,-255.5377165865823,-219.37640161060762,-154.76885829329115,-209.894325496827,88.41984549868872,109.8
after_100h_operation,36.18090452261306,Ni-YSZ,-283.4185982776827,-238.8930187943779,-168.70929913884135,-230.340305403634,100.16612461789471,109.8
after_100h_operation,40.201005025125625,Ni-YSZ,-267.1203339025173,-227.4842337317621,-160.56016695125865,-218.38824486184603,93.2869774723877,109.8
after_100h_operation,44.22110552763819,Ni-YSZ,-266.66063162171463,-227.16244213520025,-160.33031581085731,-218.05112985592405,93.09343731483487,109.8
after_100h_operation,48.24120603015075,Ni-YSZ,-268.6114011497438,-228.5279808048207,-161.3057005748719,-219.48169417647878,93.91493204417928,109.8
after_100h_operation,52.26130653266331,Ni-YSZ,-258.426748284661,-221.39872379926274,-156.2133741423305,-212.01294874208475,89.63196489185042,109.8
after_100h_operation,56.281407035175874,Ni-YSZ,-271.8599867263211,-230.80199070842474,-162.92999336316055,-221.8639902659688,95.284076620229,109.8
after_100h_operation,60.30150753768844,Ni-YSZ,-272.6113978111637,-231.3279784678146,-163.30569890558186,-222.41502506152005,95.60095983503273,109.8
after_100h_operation,64.321608040201,Ni-YSZ,-271.97620190181283,-230.88334133126898,-162.98810095090641,-221.94921472799606,95.33308188940065,109.8
after_100h_operation,68.34170854271356,Ni-YSZ,-279.3075602546232,-236.01529217823622,-166.6537801273116,-227.3255441867237,98.42792796295414,109.8
after_100h_operation,72.36180904522612,Ni-YSZ,-251.41047670030503,-216.48733369021352,-152.7052383501525,-206.86768291355702,86.69055796749826,109.8
after_100h_operation,76.38190954773869,Ni-YSZ,-274.359717709834,-232.5518023968838,-164.179858854917,-223.69712632054495,96.33853264351224,109.8
after_100h_operation,80.40201005025125,Ni-YSZ,-264.98057183494467,-225.98640028446127,-159.49028591747233,-216.81908601229273,92.38636009651604,109.8
after_100h_operation,84.42211055276381,Ni-YSZ,-268.8965256497021,-228.72756795479145,-161.44826282485104,-219.6907854764482,94.0350446512932,109.8
after_100h_operation,88.44221105527637,Ni-YSZ,-268.97202468319864,-228.78041727823907,-161.48601234159932,-219.7461514343457,94.06685146923247,109.8
after_100h_operation,92.46231155778894,Ni-YSZ,-274.33677064773985,-232.5357394534179,-164.16838532386993,-223.6802984750092,96.32884937663373,109.8
after_100h_operation,96.4824120603015,Ni-YSZ,-288.2474232807551,-242.27319629652854,-171.12371164037754,-233.88144373922037,102.21018183637909,109.8
after_100h_operation,100.50251256281406,Ni-YSZ,-278.27342024066405,-235.29139416846485,-166.13671012033203,-226.56717484315365,97.99098593156327,109.8
after_100h_operation,104.52261306532662,Ni-YSZ,-259.46724088069215,-222.12706861648448,-156.73362044034607,-212.77597664584087,90.06883006308868,109.8
after_100h_operation,108.54271356783919,Ni-YSZ,-288.44476878764755,-242.41133815135328,-171.22238439382377,-234.0261637776082,102.29377125761756,109.8
after_100h_operation,112.56281407035175,Ni-YSZ,-263.382150445741,-224.8675053120187,-158.6910752228705,-215.64691032687674,91.71400934546807,109.8
after_100h_operation,116.58291457286431,Ni-YSZ,-281.3814750848735,-237.46703255941145,-167.69073754243675,-228.84641506224057,99.30456538236608,109.8
after_100h_operation,120.60301507537687,Ni-YSZ,-271.270593440693,-230.38941540848512,-162.6352967203465,-221.43176852317484,95.03556968321172,109.8
after_100h_operation,124.62311557788944,Ni-YSZ,-266.81386358556676,-227.26970450989674,-160.40693179278338,-218.16349996274894,93.15794659065942,109.8
after_100h_operation,128.643216080402,Ni-YSZ,-259.574644154111,-222.20225090787773,-156.7873220770555,-212.85473904634807,90.11393419073707,109.8
after_100h_operation,132.66331658291455,Ni-YSZ,-277.82577322857765,-234.97804126000435,-165.91288661428882,-226.23890036762361,97.80188625847143,109.8
after_100h_operation,136.68341708542712,Ni-YSZ,-263.9684272613899,-225.2778990829729,-158.98421363069494,-216.07684665835257,91.96057528426473,109.8
after_100h_operation,140.7035175879397,Ni-YSZ,-267.78923122436896,-227.95246185705827,-160.89461561218448,-218.87876956453724,93.56864267344619,109.8
after_100h_operation,144.72361809045225,Ni-YSZ,-271.00023026102247,-230.2001611827157,-162.50011513051123,-221.23350219141648,94.92159094642115,109.8
after_100h_operation,148.7437185929648,Ni-YSZ,-247.94987883578665,-214.06491518505064,-150.97493941789332,-204.32991114624352,85.2428140051004,109.8
after_100h_operation,152.76381909547737,Ni-YSZ,-253.8341872680068,-218.18393108760475,-153.91709363400338,-208.64507066320496,87.70573744710809,109.8
after_100h_operation,156.78391959798995,Ni-YSZ,-264.18894752831324,-225.43226326981926,-159.09447376415662,-216.23856152076303,92.05333048558103,109.8
after_100h_operation,160.8040201005025,Ni-YSZ,-245.12001998891708,-212.08401399224195,-149.56000999445854,-202.25468132520587,84.06052664083246,109.8
after_100h_operation,164.82412060301505,Ni-YSZ,-275.4141756863524,-233.28992298044668,-164.7070878431762,-224.47039550332508,96.7835658575715,109.8
after_100h_operation,168.84422110552762,Ni-YSZ,-272.9406025582374,-231.55842179076618,-163.4703012791187,-222.65644187604076,95.73981382377269,109.8
after_100h_operation,172.8643216080402,Ni-YSZ,-263.52422866054343,-224.9669600623804,-158.76211433027171,-215.75110101773183,91.77375757566027,109.8
after_100h_operation,176.88442211055275,Ni-YSZ,-281.8157561029973,-237.7710292720981,-167.90787805149864,-229.16488780886468,99.48819664230517,109.8
after_100h_operation,180.9045226130653,Ni-YSZ,-271.6632556076757,-230.664278925373,-162.83162780383785,-221.71972077896217,95.20112356901308,109.8
after_100h_operation,184.92462311557787,Ni-YSZ,-266.9896413138245,-227.39274891967716,-160.49482065691225,-218.29240363013798,93.23195138972376,109.8
after_100h_operation,188.94472361809045,Ni-YSZ,-267.00957959921186,-227.4067057194483,-160.50478979960593,-218.30702503942203,93.24034594407176,109.8
after_100h_operation,192.964824120603,Ni-YSZ,-275.8950499954002,-233.62653499678015,-164.9475249977001,-224.8230366632935,96.98656370280781,109.8
after_100h_operation,196.98492462311555,Ni-YSZ,-260.01346691029033,-222.50942683720325,-157.00673345514517,-213.17654240087958,90.29823641469129,109.8
after_100h_operation,201.00502512562812,Ni-YSZ,-256.656909690421,-220.15983678329468,-155.3284548452105,-210.71506710630874,88.88925743898332,109.8
after_100h_operation,205.0251256281407,Ni-YSZ,-251.702512395731,-216.69175867701168,-152.8512561978655,-207.08184242353605,86.812825909075,109.8
after_100h_operation,209.04522613065325,Ni-YSZ,-281.0781880418796,-237.25473162931573,-167.5390940209398,-228.62400456404507,99.17633621530415,109.8
after_100h_operation,213.0653266331658,Ni-YSZ,-292.81483834164385,-245.47038683915068,-173.40741917082192,-237.23088145053885,104.14581160631208,109.8
after_100h_operation,217.08542713567837,Ni-YSZ,-276.7143906951895,-234.20007348663262,-165.35719534759474,-225.4238865098056,97.33250740081289,109.8
after_100h_operation,221.10552763819095,Ni-YSZ,-263.97241428155303,-225.2806899970871,-158.98620714077651,-216.0797704731389,91.96225224269146,109.8
after_100h_operation,225.1256281407035,Ni-YSZ,-263.6792299285947,-225.07546095001626,-158.83961496429734,-215.86476861430276,91.83894364227369,109.8
after_100h_operation,229.14572864321605,Ni-YSZ,-266.95662124750515,-227.36963487325363,-160.47831062375258,-218.2681889148371,93.21804917325669,109.8
after_100h_operation,233.16582914572862,Ni-YSZ,-274.06811602287155,-232.3476812160101,-164.03405801143577,-223.4832850834391,96.21548658681237,109.8
after_100h_operation,237.1859296482412,Ni-YSZ,-256.4172186853855,-219.99205307976982,-155.20860934269274,-210.539293702616,88.78870952129373,109.8
after_100h_operation,241.20603015075375,Ni-YSZ,-271.3532441159772,-230.447270881184,-162.6766220579886,-221.49237901838328,95.07041514092958,109.8
after_100h_operation,245.2261306532663,Ni-YSZ,-284.03450695285534,-239.32415486699875,-169.01725347642767,-230.79197176542723,100.426701041221,109.8
after_100h_operation,249.24623115577887,Ni-YSZ,-259.991025296356,-222.49371770744918,-156.995512648178,-213.16008521732772,90.28881040323995,109.8
after_100h_operation,253.26633165829145,Ni-YSZ,-275.05395510791476,-233.03776857554033,-164.52697755395738,-224.20623374580416,96.63151966190766,109.8
after_100h_operation,257.286432160804,Ni-YSZ,-272.2103078526196,-231.04721549683373,-163.1051539263098,-222.1208924252544,95.43180422696507,109.8
after_100h_operation,261.30653266331655,Ni-YSZ,-273.7360293540324,-232.11522054782267,-163.8680146770162,-223.23975485962376,96.075370110982,109.8
after_100h_operation,265.3266331658291,Ni-YSZ,-273.787960884423,-232.15157261909613,-163.8939804422115,-223.2778379819102,96.09728054164727,109.8
after_100h_operation,269.3467336683417,Ni-YSZ,-252.19793032525862,-217.03855122768104,-153.09896516262933,-207.44514890518965,87.02027781213224,109.8
after_100h_operation,273.36683417085425,Ni-YSZ,-273.6790858071877,-232.0753600650314,-163.83954290359384,-223.19799625860432,96.05134544759933,109.8
after_100h_operation,277.3869346733668,Ni-YSZ,-273.0048575341071,-231.60340027387494,-163.50242876705354,-222.70356219167851,95.7669172766028,109.8
after_100h_operation,281.4070351758794,Ni-YSZ,-278.29957095097143,-235.30969966568,-166.14978547548571,-226.5863520307124,98.00203351491852,109.8
after_100h_operation,285.42713567839195,Ni-YSZ,-258.399570697047,-221.3796994879329,-156.1997853485235,-211.99301851116783,89.62055622691832,109.8
after_100h_operation,289.4472361809045,Ni-YSZ,-261.29288930882444,-223.4050225161771,-157.64644465441222,-214.11478549313793,90.83574875014605,109.8
after_100h_operation,293.46733668341705,Ni-YSZ,-283.88140471089594,-239.21698329762714,-168.94070235544797,-230.67969678799037,100.36192321097141,109.8
after_100h_operation,297.4874371859296,Ni-YSZ,-276.42129291667845,-233.9949050416749,-165.21064645833923,-225.20894813889754,97.20874575536183,109.8
after_100h_operation,301.5075376884422,Interface,359.8844375829406,305.9191063080585,215.9422187914703,293.9152542274898,125.9512993529484,147.25
after_100h_operation,305.52763819095475,Interface,360.7624920606595,306.5337444424617,216.38124603032975,294.55916084448364,126.32136447065923,147.25
after_100h_operation,309.5477386934673,Interface,370.4223185450188,313.2956229815132,221.2111592725094,301.64303359968045,130.3974268419942,147.25
after_100h_operation,313.5678391959799,Interface,360.04703904783287,306.03292733348303,216.02351952391643,294.03449530174413,126.01982370757203,147.25
after_100h_operation,317.58793969849245,Interface,374.1887821894064,315.9321475325845,223.0943910947032,304.4051069388981,131.9890137894759,147.25
after_100h_operation,321.608040201005,YSZ,174.41186242913355,149.08830370039348,105.20593121456677,142.90203244803126,60.64819105689854,184.7
after_100h_operation,325.62814070351754,YSZ,189.84084543782654,159.88859180647856,112.92042271891327,154.21661998773948,67.15615324112538,184.7
after_100h_operation,329.6482412060301,YSZ,179.1848041120307,152.4293628784215,107.59240205601535,146.40218968215584,62.65651890883043,184.7
after_100h_operation,333.6683417085427,YSZ,183.23685435890064,155.26579805123046,109.61842717945032,149.37369319652714,64.36511197399072,184.7
after_100h_operation,337.68844221105525,YSZ,173.0851323713218,148.15959265992527,104.5425661856609,141.92909707230265,60.090810061426154,184.7
after_100h_operation,341.7085427135678,YSZ,171.81738758699365,147.27217131089557,103.90869379349682,140.99941756379533,59.55858257707822,184.7
after_100h_operation,345.7286432160804,YSZ,175.74067036409122,150.01846925486385,105.87033518204561,143.87649160033354,61.20683421998916,184.7
after_100h_operation,349.74874371859295,YSZ,172.79365675700654,147.95555972990456,104.39682837850327,141.71534828847146,59.96840948828689,184.7
after_100h_operation,353.7688442211055,YSZ,192.10945663574694,161.47661964502285,114.05472831787347,155.88026819954777,68.11661725277202,184.7
after_100h_operation,357.78894472361804,YSZ,187.43323830848985,158.2032668159429,111.71661915424492,152.45104142622588,66.13775797691862,184.7
after_100h_operation,361.8090452261306,YSZ,169.97513998326266,145.98259798828386,102.98756999163133,139.64843598772595,58.78583603725247,184.7
after_100h_operation,365.8291457286432,YSZ,181.99474589488128,154.3963221264169,108.99737294744064,148.46281365624625,63.84102927697339,184.7
after_100h_operation,369.84924623115575,YSZ,175.20661723739389,149.64463206617572,105.60330861869694,143.48485264075552,60.982267207642394,184.7
after_100h_operation,373.8693467336683,YSZ,185.71829120854085,157.0028038459786,110.85914560427042,151.19341355292997,65.41295013603344,184.7
after_100h_operation,377.8894472361809,YSZ,171.33866564772453,146.93706595340717,103.66933282386226,140.64835480833133,59.35770128061677,184.7
after_100h_operation,381.90954773869345,YSZ,189.0792595605077,159.35548169235537,112.53962978025385,153.65812367770565,66.83390564642097,184.7
after_100h_operation,385.929648241206,YSZ,179.06241688988825,152.34369182292178,107.53120844494413,146.31243905258472,62.60496273179832,184.7
after_100h_operation,389.94974874371854,YSZ,182.21712227668243,154.5519855936777,109.10856113834122,148.6258896695671,63.93483528420084,184.7
after_100h_operation,393.9698492462311,YSZ,171.12128344437463,146.78489841106224,103.56064172218731,140.4889411925414,59.26650113136905,184.7
after_100h_operation,397.9899497487437,YSZ,174.87323406395248,149.41126384476672,105.43661703197624,143.2403716468985,60.84211236716597,184.7
after_100h_operation,402.01005025125625,YSZ,174.69872996548176,149.28911097583725,105.34936498274088,143.11240197468663,60.768760225325224,184.7
after_100h_operation,406.0301507537688,YSZ,177.98602737683782,151.5902191637865,106.99301368841891,145.5230867430144,62.15165894807788,184.7
after_100h_operation,410.0502512562814,YSZ,180.3376718325479,153.23637028278353,108.16883591627395,147.24762601053513,63.142315752108175,184.7
after_100h_operation,414.07035175879395,YSZ,159.13102088646554,138.39171462052587,97.56551044323277,131.69608198340805,54.25499906946028,184.7
after_100h_operation,418.0904522613065,YSZ,201.5971123038583,168.1179786127008,118.79855615192915,162.83788235616274,72.14173107646721,184.7
after_100h_operation,422.11055276381904,YSZ,183.1371106680099,155.19597746760692,109.56855533400496,149.30054782320727,64.32301652213273,184.7
after_100h_operation,426.1306532663316,YSZ,163.01260768432152,141.10882537902506,99.50630384216076,134.54257896850245,55.873053009460286,184.7
after_100h_operation,430.1507537688442,YSZ,188.45822504496914,158.9207575314784,112.22911252248457,153.2026983663107,66.57119984168091,184.7
after_100h_operation,434.17085427135675,YSZ,182.79453946832086,154.95617762782462,109.39726973416043,149.0493289434353,64.17845309313273,184.7
after_100h_operation,438.1909547738693,YSZ,168.02878700034393,144.62015090024076,102.01439350017196,138.22111046691887,57.97031549377714,184.7
after_100h_operation,442.2110552763819,YSZ,186.7567811502622,157.72974680518357,111.3783905751311,151.95497284352564,65.85179843000726,184.7
after_100h_operation,446.23115577889445,YSZ,184.78011126553028,156.34607788587118,110.39005563276514,150.50541492805556,65.01665406882086,184.7
after_100h_operation,450.251256281407,YSZ,174.68927594299768,149.2824931600984,105.34463797149884,143.105469024865,60.764786452969666,184.7
after_100h_operation,454.27135678391954,YSZ,187.12507226651053,157.98755058655738,111.56253613325526,152.22505299544108,66.00747686258185,184.7
after_100h_operation,458.2914572864321,YSZ,178.62379251492268,152.03665476044588,107.31189625746134,145.99078117761,62.42021493458967,184.7
after_100h_operation,462.3115577889447,YSZ,184.3155329354094,156.0208730547866,110.1577664677047,150.16472415263357,64.82046995763294,184.7
after_100h_operation,466.33165829145725,YSZ,186.54669140902746,157.5826839863192,111.27334570451373,151.8009070332868,65.76300294098738,184.7
after_100h_operation,470.3517587939698,YSZ,171.51683412053072,147.0617838843715,103.75841706026536,140.77901168838918,59.432458063204095,184.7
after_100h_operation,474.3718592964824,YSZ,188.86388633422587,159.2047204339581,112.43194316711293,153.50018331176562,66.74279268750408,184.7
after_100h_operation,478.39195979899495,YSZ,182.59426014635991,154.81598210245195,109.29713007317996,148.90245744066394,64.09394627463689,184.7
after_100h_operation,482.4120603015075,YSZ,193.60270719533787,162.5218950367365,114.80135359766894,156.97531860991444,68.7492555905185,184.7
after_100h_operation,486.43216080402004,YSZ,159.9123904565693,138.9386733195985,97.95619522828466,132.2690863348175,54.580355661226704,184.7
after_100h_operation,490.4522613065326,YSZ,178.03054252014343,151.6213797641004,107.01527126007171,145.55573118143852,62.17040109847257,184.7
after_100h_operation,494.4723618090452,YSZ,179.20122655789507,152.44085859052655,107.60061327894753,146.41423280912306,62.6634371674302,184.7
after_100h_operation,498.49246231155774,YSZ,180.7414243953182,153.51899707672274,108.3707121976591,147.54371122323334,63.31251124633149,184.7
after_100h_operation,502.5125628140703,Interface,339.08053117740076,285.9563718241805,201.94026558870038,275.65905619676056,119.76713835542932,152.35
after_100h_operation,506.5326633165829,Interface,330.1969718820113,279.7378803174079,197.49848594100567,269.14444604680835,116.01363299189826,152.35
after_100h_operation,510.55276381909545,Interface,318.6869793394177,271.68088553759236,191.74348966970885,260.7037848489063,111.16251544960693,152.35
after_100h_operation,514.572864321608,Interface,330.19527573066944,279.73669301146856,197.49763786533472,269.1432022024909,116.01291707477834,152.35
after_100h_operation,518.5929648241206,Interface,339.44773689496935,286.2134158264785,202.12386844748468,275.92834038964423,119.92245361776354,152.35
after_100h_operation,522.6130653266331,LSM,-169.3739296523561,-140.16175075664927,-99.08696482617805,-136.2075484117278,61.158592444337735,120.0
after_100h_operation,526.6331658291457,LSM,-149.50044822214406,-126.25031375550084,-89.15022411107202,-121.6336620295723,52.72160351600787,120.0
after_100h_operation,530.6532663316582,LSM,-152.40957194672495,-128.28670036270745,-90.60478597336245,-123.7670194275983,53.95216017324084,120.0
after_100h_operation,534.6733668341708,LSM,-150.49129902293092,-126.94390931605163,-89.64564951146545,-122.36028595014932,53.14053448606887,120.0
after_100h_operation,538.6934673366834,LSM,-125.97597132843735,-109.78317992990614,-77.38798566421866,-104.38237897418738,42.85118117213514,120.0
after_100h_operation,542.7135678391959,LSM,-126.04701336831332,-109.83290935781932,-77.42350668415665,-104.43447647009641,42.88071800233153,120.0
after_100h_operation,546.7336683417085,LSM,-135.43190107965293,-116.40233075575705,-82.11595053982646,-111.31672745841213,46.798883517604764,120.0
after_100h_operation,550.7537688442211,LSM,-133.33349650764904,-114.93344755535432,-81.06674825382451,-109.77789743894262,45.92019216018021,120.0
after_100h_operation,554.7738693467336,LSM,-121.58287350104699,-106.70801145073288,-75.19143675052348,-101.16077390076778,41.02877895835786,120.0
after_100h_operation,558.7939698492462,LSM,-154.80917401276832,-129.9664218089378,-91.80458700638415,-125.52672760936343,54.96847258385189,120.0
after_100h_operation,562.8140703517588,LSM,-127.04355978166328,-110.53049184716428,-77.92177989083163,-105.16527717321974,43.29525821440359,120.0
after_100h_operation,566.8341708542713,LSM,-128.72454583017554,-111.70718208112287,-78.76227291508776,-106.39800027546205,43.99537716492262,120.0
after_100h_operation,570.8542713567839,LSM,-169.65066337196703,-140.3554643603769,-99.2253316859835,-136.41048647277583,61.27652014443489,120.0
after_100h_operation,574.8743718592964,LSM,-149.58605756827905,-126.31024029779533,-89.19302878413951,-121.69644221673798,52.75779082694952,120.0
after_100h_operation,578.894472361809,LSM,-150.8519706630857,-127.19637946415997,-89.82598533154284,-122.62477848626283,53.29307759120091,120.0
after_100h_operation,582.9145728643216,LSM,-144.85650965793366,-122.99955676055356,-86.82825482896682,-118.22810708248467,50.761047230528135,120.0
after_100h_operation,586.9346733668341,LSM,-136.4006723112718,-117.08047061789024,-82.60033615563589,-112.02715969493265,47.205010520428374,120.0
after_100h_operation,590.9547738693467,LSM,-137.41676686226495,-117.79173680358545,-83.10838343113247,-112.7722956989943,47.63127815241485,120.0
after_100h_operation,594.9748743718592,LSM,-135.52429485516097,-116.46700639861267,-82.16214742758048,-111.3844828937847,46.837604392311384,120.0
after_100h_operation,598.9949748743718,LSM,-154.85462589822217,-129.9982381287555,-91.82731294911108,-125.5600589920296,54.98773372126411,120.0
after_100h_operation,603.0150753768844,LSM,-142.44761172091782,-121.31332820464246,-85.6238058604589,-116.46158192867306,49.74607953080027,120.0
after_100h_operation,607.0351758793969,LSM,-147.24211201112135,-124.66947840778492,-88.02105600556067,-119.97754880815565,51.76757733744202,120.0
after_100h_operation,611.0552763819095,LSM,-150.33670275299147,-126.83569192709402,-89.56835137649573,-122.24691535219375,53.07515760961275,120.0
after_100h_operation,615.0753768844221,LSM,-143.6060959766595,-122.12426718366164,-86.20304798832974,-117.31113704955028,50.234016737272974,120.0
after_100h_operation,619.0954773869346,LSM,-146.01126812418158,-123.80788768692709,-87.40563406209078,-119.07492995773315,51.24809516278659,120.0
after_100h_operation,623.1155778894472,LSM,-131.21790175014988,-113.4525312251049,-80.00895087507493,-108.22646128344324,45.03575305380652,120.0
after_100h_operation,627.1356783919598,LSM,-126.45574367955805,-110.11902057569063,-77.62787183977902,-104.7342120316759,43.050693004604774,120.0
after_100h_operation,631.1557788944723,LSM,-137.22424967453475,-117.65697477217432,-83.01212483726736,-112.63111642799214,47.550490814965464,120.0
after_100h_operation,635.1758793969849,LSM,-151.91896189935247,-127.94327332954671,-90.35948094967623,-123.4072387261918,53.74451035614278,120.0
after_100h_operation,639.1959798994974,LSM,-143.29038344641418,-121.90326841248992,-86.04519172320708,-117.0796145273704,50.10100961435576,120.0
after_100h_operation,643.21608040201,LSM,-143.19535376282266,-121.83674763397585,-85.99767688141132,-117.00992609273662,50.0609792593237,120.0
after_100h_operation,647.2361809045226,LSM,-138.22076661578208,-118.35453663104745,-83.51038330789103,-113.3618955182402,47.968782329293944,120.0
after_100h_operation,651.2562814070351,LSM,-153.3334348335511,-128.93340438348577,-91.06671741677555,-124.44451887793747,54.34331405821474,120.0
after_100h_operation,655.2763819095477,LSM,-143.39363335115343,-121.9755433458074,-86.0968166755767,-117.15533112417917,50.14450522294977,120.0
after_100h_operation,659.2964824120602,LSM,-143.58238585435208,-122.10767009804646,-86.19119292717603,-117.29374962652486,50.22402699298474,120.0
after_100h_operation,663.3165829145728,LSM,-139.12404606856646,-118.9868322479965,-83.96202303428322,-114.02430045028206,48.34818210722696,120.0
after_100h_operation,667.3366834170854,LSM,-138.65671171782816,-118.65969820247969,-83.72835585891407,-113.68158859307397,48.15186135976423,120.0
after_100h_operation,671.3567839195979,LSM,-132.80467314370756,-114.56327120059528,-80.80233657185377,-109.39009363871885,45.6989740628206,120.0
after_100h_operation,675.3768844221105,LSM,-138.33328975389537,-118.43330282772675,-83.56664487694768,-113.44441248618995,48.0160322569244,120.0
after_100h_operation,679.3969849246231,LSM,-144.26385354524044,-122.58469748166829,-86.53192677262021,-117.79349259984296,50.511203966581,120.0
after_100h_operation,683.4170854271356,LSM,-141.55869850739143,-120.691088955174,-85.1793492536957,-115.80971223875372,49.37191411784409,120.0
after_100h_operation,687.4371859296482,LSM,-134.59173893261703,-115.81421725283192,-81.69586946630851,-110.70060855058581,46.446905078345736,120.0
after_100h_operation,691.4572864321608,LSM,-150.7201027999289,-127.10407195995022,-89.76005139996444,-122.5280753866145,53.237302011398796,120.0
after_100h_operation,695.4773869346733,LSM,-131.2967069766594,-113.50769488366157,-80.0483534883297,-108.28425178288357,45.06867100946615,120.0
after_100h_operation,699.4974874371859,LSM,-132.27091765200106,-114.18964235640074,-80.53545882600052,-108.99867294480077,45.475786333772966,120.0
after_100h_operation,703.5175879396984,LSM,-145.15263258707745,-123.20684281095421,-86.97631629353872,-118.44526389719015,50.885914151721806,120.0
after_100h_operation,707.537688442211,LSM,-155.40738492327233,-130.38516944629063,-92.10369246163616,-125.9654156103997,55.222007509599585,120.0
after_100h_operation,711.5577889447236,LSM,-135.06633350529864,-116.14643345370905,-81.93316675264931,-111.04864457055233,46.64570529794154,120.0
after_100h_operation,715.5778894472361,LSM,-152.55415630313303,-128.3879094121931,-90.6770781515665,-123.87304795563087,54.013364474620474,120.0
after_100h_operation,719.5979899497487,LSM,-145.03323041601394,-123.12326129120974,-86.91661520800696,-118.35770230507687,50.83556299914325,120.0
after_100h_operation,723.6180904522612,LSM,-136.35786627379954,-117.05050639165967,-82.57893313689976,-111.99576860078632,47.18705944228714,120.0
after_100h_operation,727.6381909547738,LSM,-147.1573128859744,-124.61011902018205,-87.97865644298719,-119.91536278304788,51.73177640562501,120.0
after_100h_operation,731.6582914572864,LSM,-154.33275790456796,-129.63293053319757,-91.56637895228397,-125.17735579668316,54.766605464550985,120.0
after_100h_operation,735.6783919597989,LSM,-142.95772095757476,-121.67040467030232,-85.87886047878737,-116.83566203555482,49.96088862242354,120.0
after_100h_operation,739.6984924623115,LSM,-138.52336790439782,-118.56635753307846,-83.6616839521989,-113.5838031298917,48.095856717703136,120.0
after_100h_operation,743.7185929648241,LSM,-164.52598130682875,-136.76818691478013,-96.66299065341437,-132.6523862916744,59.09444735801884,120.0
after_100h_operation,747.7386934673366,LSM,-146.67370028682407,-124.27159020077684,-87.73685014341203,-119.56071354367099,51.527633713346496,120.0
after_100h_operation,751.7587939698492,LSM,-133.06984224187747,-114.74888956931422,-80.93492112093872,-109.58455097737681,45.80988850316349,120.0
after_100h_operation,755.7788944723618,LSM,-132.37530934229065,-114.26271653960345,-80.58765467114532,-109.07522685101314,45.51942984165245,120.0
after_100h_operation,759.7989949748743,LSM,-147.73801541085516,-125.0166107875986,-88.26900770542757,-120.34121130129377,51.976972967876534,120.0
after_100h_operation,763.8190954773869,LSM,-145.02040008285525,-123.11428005799867,-86.91020004142761,-118.34829339409384,50.83015273065997,120.0
after_100h_operation,767.8391959798994,LSM,-128.17078470962505,-111.31954929673753,-78.48539235481252,-105.99190878705838,43.76462161654766,120.0
after_100h_operation,771.859296482412,LSM,-134.33800391909574,-115.636602743367,-81.56900195954785,-110.51453620733686,46.34064844662833,120.0
after_100h_operation,775.8793969849246,LSM,-143.34454029575164,-121.94117820702613,-86.07227014787581,-117.11932955021786,50.123823686686855,120.0
after_100h_operation,779.8994974874371,LSM,-148.41827243704384,-125.49279070593067,-88.60913621852191,-120.84006645383215,52.26430166067401,120.0
after_100h_operation,783.9195979899497,LSM,-154.34841268233487,-129.6438888776344,-91.57420634116743,-125.18883596704558,54.773238020989126,120.0
after_100h_operation,787.9396984924622,LSM,-151.89160553938785,-127.92412387757149,-90.34580276969392,-123.38717739555109,53.732933258209194,120.0
after_100h_operation,791.9597989949748,LSM,-133.4200344496755,-114.99402411477284,-81.11001722483775,-109.84135859642869,45.956401522758135,120.0
after_100h_operation,795.9798994974874,LSM,-151.0108411004378,-127.30758877030647,-89.9054205502189,-122.74128347365438,53.36027913724177,120.0
after_100h_operation,800.0,LSM,-144.37950825910465,-122.66565578137326,-86.58975412955232,-117.87830605667675,50.559953282072215,120.0
