x_mm,y_mm,E_xx,E_yy,E_xy,E_zz,von_mises
0.0,0.0,0.00019734012773258707,1.437113307553026e-05,3.5537365721840185e-07,-6.351337824243519e-05,0.00019056241264716914
0.10101010101010101,0.0,0.000100029199486322,-4.1923778204240386e-05,-1.1253159927240307e-05,-1.7431626384624487e-05,0.00012781606599739003
0.20202020202020202,0.0,0.00011222453029479931,-5.5873798532481436e-05,1.5836972307210662e-05,-1.690521952869536e-05,0.00015079478251587056
0.30303030303030304,0.0,-0.00012596167649529672,4.989740414581707e-05,1.144490555951758e-07,2.2819281704843893e-05,0.00015697545942193084
0.40404040404040403,0.0,-0.00011865012143122201,5.777243599407854e-06,-5.1371323436389426e-05,3.386186334954425e-05,0.00015071077310091843
0.5050505050505051,0.0,-0.00010625792697368693,6.678987170017844e-05,-5.038521069537989e-06,1.1840416582052547e-05,0.00015140920513586912
0.6060606060606061,0.0,-4.785209670465595e-05,0.00013905506578006473,-1.538885041722495e-05,-2.7360890722622635e-05,0.000170266441451629
0.7070707070707071,0.0,9.013276085407985e-05,-0.000157025467705541,4.462465129141745e-05,2.0067812055438344e-05,0.00023001767220078554
0.8080808080808081,0.0,0.00013061153587993294,0.00010837356515685975,7.671678632383333e-05,-7.169553031103781e-05,0.0001797380345040298
0.9090909090909091,0.0,-4.031636528581454e-05,-0.00016542227071102283,-4.329587865551276e-05,6.172159079905122e-05,0.00016716552153573508
1.0101010101010102,0.0,-0.00011143902502805976,0.00010329748041023519,4.8644529971102556e-05,2.4424633853473703e-06,0.00020420398417123905
1.1111111111111112,0.0,-3.197714641137484e-05,-3.098038441345554e-05,-5.2627525784346945e-05,1.8887259247449114e-05,9.64397596082474e-05
1.2121212121212122,0.0,-0.00012353358711288204,-0.00011747139431362312,6.2807467464852e-05,7.230149442795155e-05,0.00016242766640044544
1.3131313131313131,0.0,-7.19470687497183e-05,0.00016196606556607185,-4.687367902729953e-05,-2.7005699044906063e-05,0.00022283131760974763
1.4141414141414141,0.0,2.7437594856879678e-05,9.25549923287491e-05,4.610236839211876e-05,-3.599777615568864e-05,0.00011469981233243211
1.5151515151515151,0.0,-1.666194295440502e-05,4.0390402476394576e-05,1.013616786428039e-05,-7.118537856596867e-06,5.376070343761087e-05
1.6161616161616161,0.0,0.00016688154900578093,-3.610628517733431e-05,-5.554060780893037e-05,-3.923257914853399e-05,0.00021079104671325612
1.7171717171717171,0.0,2.1572422607999356e-05,0.00015924793404397072,1.2474023443193761e-05,-5.424610699559102e-05,0.0001511843707675753
1.8181818181818181,0.0,5.99957520787217e-05,-9.815742932819823e-05,-9.635676045206488e-06,1.1448503174842957e-05,0.0001392908423156935
1.9191919191919191,0.0,0.00013357796460599364,-8.255372897973962e-05,-2.0558706070283944e-05,-1.5307270687876208e-05,0.00019223301243631862
2.0202020202020203,0.0,-3.476379272429686e-05,4.111471224694603e-05,2.5312126052904867e-05,-1.905275856794751e-06,7.905918895456383e-05
2.121212121212121,0.0,-3.452937219861052e-05,0.00026176976367658727,5.336388738805752e-05,-6.817211744339302e-05,0.00029546158083844603
2.2222222222222223,0.0,-0.00018501246623661726,-8.688309766814027e-06,-3.457816407446434e-05,5.811023280102939e-05,0.0001904851754453751
2.323232323232323,0.0,-2.6899916545475862e-05,-1.8777497937323813e-05,7.187140327504705e-05,1.3703224344839902e-05,0.00012675796873438074
2.4242424242424243,0.0,9.919690268116024e-05,-0.00010029656587145412,1.9824358939911985e-05,3.298989570881653e-07,0.00017614639063370877
2.525252525252525,0.0,3.9316211579855274e-05,6.19656963640652e-05,-1.5553560273433064e-05,-3.0384572383176144e-05,6.062173951208229e-05
2.6262626262626263,0.0,-4.149911276113655e-05,2.9006489630051476e-05,-5.1570258646660454e-05,3.747786939325523e-06,0.00010837790879709956
2.727272727272727,0.0,-2.0890895069091322e-05,-1.3344510988019626e-05,-9.134236420701036e-06,1.0270621817133284e-05,2.4208046523127188e-05
2.8282828282828283,0.0,9.095043667822915e-05,-5.6834743083288286e-05,4.674210146740559e-06,-1.023470807848226e-05,0.00012937101443797862
2.929292929292929,0.0,0.0001294409047121278,-6.329657500729847e-05,7.41227662894641e-06,-1.98432989114488e-05,0.00017064406139372259
3.0303030303030303,0.0,-9.29531450248809e-05,-9.04242253962969e-05,-2.3297439814451335e-05,5.501321112635334e-05,0.00010019941954540599
3.131313131313131,0.0,7.269609796124852e-06,1.975552860370537e-06,-1.6861754259800146e-05,-2.773548796948617e-06,2.9922312868813897e-05
3.2323232323232323,0.0,8.960494921365365e-05,-0.0001453349062307555,6.667889363913399e-05,1.6718987105130556e-05,0.00023561034220780447
3.3333333333333335,0.0,-4.699480774849158e-05,0.00011404950868657602,-8.572029326697659e-05,-2.011641028142533e-05,0.00020644477022882426
3.4343434343434343,0.0,-5.1541502443320036e-05,0.00012778454275392948,-0.00011902738551616277,-2.2872912093182832e-05,0.000260910288551363
3.5353535353535355,0.0,-1.0466419888258138e-05,-9.52745103129105e-05,1.9253602293692076e-05,3.1722279060350585e-05,9.64453152564193e-05
3.6363636363636362,0.0,0.00020201769753830107,-0.00016074428088367934,5.6316635254967046e-05,-1.2382024996386518e-05,0.0003296024176054865
3.7373737373737375,0.0,4.075467994106607e-06,-2.2889256444156025e-05,-4.213053807121955e-05,5.644136535014826e-06,7.71929960974169e-05
3.8383838383838382,0.0,-9.597407113302894e-07,4.385318014991309e-05,3.6285165848514905e-06,-1.2868031831574841e-05,4.478402161066507e-05
3.9393939393939394,0.0,-0.00020179613828510954,3.441792196403439e-05,-2.818160959585803e-05,5.021346489632254e-05,0.00022634992351994705
4.040404040404041,0.0,2.0114252305807453e-05,-5.694270106027194e-06,1.6439531818643712e-05,-4.325994659934077e-06,3.690959851746861e-05
4.141414141414141,0.0,-0.00010423326854850028,0.00020864614586774894,-3.6628665737476407e-06,-3.1323863195774595e-05,0.00027601794866679164
4.242424242424242,0.0,4.505038640189248e-06,0.00021473498711151656,-1.6921587215943486e-05,-6.577200772551174e-05,0.0002145298137563057
4.343434343434343,0.0,-3.349211620279222e-05,-1.5395170322946418e-05,-5.115483680496216e-05,1.466618595772159e-05,9.323930646043493e-05
4.444444444444445,0.0,2.108811328710263e-05,0.00011687320416839223,-2.400323676344575e-05,-4.138839523664846e-05,0.00011561957070596975
4.545454545454545,0.0,-5.29178914524634e-05,0.00021061338620812566,-3.0212860686702628e-05,-4.7308648426698676e-05,0.0002470667295453749
4.646464646464646,0.0,-3.131435021431414e-05,-4.468813297339509e-05,-4.82416728422673e-05,2.2800744956312768e-05,9.252034861316118e-05
4.747474747474747,0.0,0.00012395599508025154,-4.4251542321688114e-05,-4.1887422575835656e-06,-2.391133582756903e-05,0.00015119910172221794
4.848484848484849,0.0,7.136627932047375e-05,2.9920270035338045e-05,-2.8293631684019845e-05,-3.038596480674354e-05,7.908640095466733e-05
4.94949494949495,0.0,9.71071785256985e-05,-0.0002482619689429938,-1.1261841733280334e-05,4.53464371251886e-05,0.00030911537639146807
5.05050505050505,0.0,-0.00015005235750557662,-0.000150649601047215,9.383735862355968e-05,9.021058756583749e-05,0.0002214092006096334
5.151515151515151,0.0,-0.00012209225887407048,2.700045447588014e-05,-9.150660130947662e-06,2.85275413194571e-05,0.00013850377048643903
5.252525252525253,0.0,-0.0001170888984161286,-0.00012416133773095707,2.9247612097296456e-05,7.23750708441257e-05,0.00013097405124235244
5.353535353535354,0.0,-0.00014828750583772887,-0.00010754778069089621,4.0571218323619195e-05,7.675058595858753e-05,0.00015015255119665415
5.454545454545454,0.0,0.00013270319373399195,0.00011185308016714598,-4.598483309615548e-05,-7.336688217034138e-05,0.0001470435405842729
5.555555555555555,0.0,4.2203541576612125e-05,-8.837854870714302e-05,3.7108296238521165e-05,1.3852502139159269e-05,0.00013210931646636341
5.656565656565657,0.0,6.831082910009586e-05,0.0001261090700513439,-1.2728732945432912e-05,-5.832596974543193e-05,0.00011154063706334273
5.757575757575758,0.0,8.384295794156565e-05,-0.00011529921202726319,-8.407106057233453e-06,9.436876225709263e-06,0.00017378899611876793
5.858585858585858,0.0,-0.00013858048732847856,1.1450054442267565e-05,-4.56388189018637e-05,3.81391298658633e-05,0.00016483663037003603
5.959595959595959,0.0,4.088304702648434e-05,-8.638962162983348e-05,-4.775370731273905e-05,1.3651972381004743e-05,0.00013967000719388695
6.0606060606060606,0.0,4.9350325180939745e-05,8.728593682528655e-05,-4.832828271900842e-05,-4.099087860186789e-05,0.00011293169939652364
6.161616161616162,0.0,8.07257561236583e-05,2.0445790959001126e-06,0.00010260106465778881,-2.483110056586752e-05,0.00019477349208421528
6.262626262626262,0.0,1.334288849654312e-05,0.00010146474454478721,4.667326550904061e-05,-3.44422899123991e-05,0.00012511784615318062
6.363636363636363,0.0,0.00016000009088527805,-0.00016177820906382827,2.470610265975528e-05,5.334354535650661e-07,0.0002819360223358663
6.4646464646464645,0.0,-7.816243384934892e-05,-2.5180769836590823e-05,3.21657493791094e-05,3.100296110578192e-05,8.876459472981346e-05
6.565656565656566,0.0,0.00010497930774751088,4.337647629019993e-05,-8.066547429543419e-05,-4.450673521131324e-05,0.00016694100013762774
6.666666666666667,0.0,-3.6114740377148444e-05,-6.44843578722225e-05,6.456545659879917e-06,3.0179729474811282e-05,5.7085304460374026e-05
6.767676767676767,0.0,-4.6381971150858036e-05,-6.105410786654967e-05,-6.903950792064348e-05,3.2230823705222304e-05,0.0001317058936695143
6.8686868686868685,0.0,4.9203495528457e-05,-1.3056137192962242e-05,-3.461283570405957e-05,-1.0844207500648427e-05,8.263170980345161e-05
6.96969696969697,0.0,6.211261700984997e-05,-6.712461268680522e-05,1.4278766154613466e-05,1.5035987030865767e-06,0.00011465001381862267
7.070707070707071,0.0,0.00014931831801082935,9.818630974572031e-06,-4.2766655387098006e-07,-4.774108469562041e-05,0.00014466102737624174
7.171717171717171,0.0,6.797234434791426e-05,0.0001176762124750577,-2.390139075662049e-06,-5.5694567046891585e-05,0.00010240283607945843
7.2727272727272725,0.0,-7.002983060500097e-06,6.255468079161954e-06,-2.9040496805946994e-05,2.2425449440144296e-07,5.15948733290197e-05
7.373737373737374,0.0,1.835814673062213e-05,7.388892684882487e-05,5.11886366674181e-05,-2.76741220738341e-05,0.00011090969692953783
7.474747474747475,0.0,-3.970059949235983e-05,7.686201156400068e-05,5.062883851948414e-05,-1.1148423621492254e-05,0.00013500078602916672
7.575757575757575,0.0,9.904390929307534e-05,-0.0003150547587645746,0.00013149307876544525,6.480325484144978e-05,0.0004383431774618333
7.6767676767676765,0.0,-0.00015645005835474287,7.601855505994999e-05,-7.954008823001833e-05,2.412945098843786e-05,0.000247241634347241
7.777777777777778,0.0,-4.9806864045337365e-05,-9.835880059610125e-05,2.9177247492563836e-05,4.4449699392431584e-05,9.904629859570136e-05
7.878787878787879,0.0,-3.63301927023363e-05,0.00018016046132967694,-2.493223226206368e-05,-4.314908058820219e-05,0.00020539665922908373
7.979797979797979,0.0,-0.0001422631768777628,8.582965098868278e-05,4.430516100868413e-05,1.6930057766724003e-05,0.00021378676568059265
8.080808080808081,0.0,-4.0133773304342256e-05,-0.00013526837858829797,-1.776860883358156e-05,5.262064556779206e-05,0.0001242038402936288
8.181818181818182,0.0,-0.00010558001161012576,-2.552041488034387e-05,2.7282058863585685e-05,3.933012794714089e-05,0.00010647495919419598
8.282828282828282,0.0,-3.486379717568803e-05,4.870736917598114e-05,4.003944734558579e-05,-4.153071600087933e-06,0.000100476305847127
8.383838383838384,0.0,-7.39432046107116e-05,0.00011850247004132929,5.811378881664595e-05,-1.3367779629185306e-05,0.00019597071887150798
8.484848484848484,0.0,-7.699211208642187e-05,-2.5537396712307393e-05,-3.823327638067251e-05,3.075885263961878e-05,9.486367119558043e-05
8.585858585858587,0.0,-0.0001708509247156364,6.327957324316523e-05,-3.4069797594714307e-06,3.227140544174135e-05,0.00020985837844478627
8.686868686868687,0.0,0.00014131072540908397,-1.1192064164039601e-05,-1.0033693213715916e-05,-3.903559837351331e-05,0.00014824832923260843
8.787878787878787,0.0,0.0001421727098559687,9.625878709676193e-05,-6.075243685168261e-05,-7.152944908581918e-05,0.00016390862290430864
8.88888888888889,0.0,0.00014302009644768005,-0.00014654109858814942,5.559044044635674e-06,1.056300642140811e-06,0.0002509583083482636
8.98989898989899,0.0,-0.00013774940954651595,7.757952029630934e-05,8.787806469381561e-05,1.805096677506198e-05,0.00024258540285130336
9.09090909090909,0.0,7.940932777644211e-05,-1.3260614843023337e-05,-4.678655915640334e-05,-1.9844613880025628e-05,0.00011875036045248498
9.191919191919192,0.0,7.796671669220136e-05,-7.39839107410649e-06,-9.001794669672418e-07,-2.117049768542846e-05,8.193170529360798e-05
9.292929292929292,0.0,1.010277096942289e-05,1.6721519301223938e-05,2.674727351177193e-05,-8.047287081194047e-06,4.856944955608801e-05
9.393939393939394,0.0,-6.05311126657503e-05,-6.288859641547737e-05,-2.8409316128504944e-05,3.70259127243683e-05,7.8952784455739e-05
9.494949494949495,0.0,-7.881902539685665e-05,-0.0002739982779867751,-4.899339654397236e-06,0.00010584519101508953,0.00024446518864664813
9.595959595959595,0.0,0.00015089857414040281,5.1983252141196905e-05,5.1261063461054624e-05,-6.0864547884479916e-05,0.00015972329020831323
9.696969696969697,0.0,-8.264688501432793e-06,-0.0001150703160486499,-3.191109879758533e-06,3.7000501365024805e-05,0.00011130593847792873
9.797979797979798,0.0,-7.417166429610458e-05,-5.573282892510894e-05,-4.872222965455911e-05,3.897134796636405e-05,0.00010768172693024052
9.8989898989899,0.0,-4.569984697425396e-05,8.090808824542738e-05,3.4652916874945677e-05,-1.0562472381352027e-05,0.00012623215102588266
10.0,0.0,1.0971232162993048e-05,-1.831015688201229e-05,-2.049370963996193e-05,2.2016774157057728e-06,4.3777747392171546e-05
0.0,0.10126582278481013,0.00010676556285579196,3.722130501028569e-07,0.00013368238979364437,-3.214133277176844e-05,0.0002548965053536275
0.10101010101010101,0.10126582278481013,-0.00020091757459854344,-1.7615869320670577e-05,1.7880273604176043e-05,6.556003317576421e-05,0.00019518700122859303
0.20202020202020202,0.10126582278481013,2.120841573715531e-05,0.00016212259205366033,-4.519542008845866e-05,-5.499930233724469e-05,0.00017153147352755728
0.30303030303030304,0.10126582278481013,0.0001796284705944896,4.676305882704481e-05,-2.168989445291033e-05,-6.791745882646033e-05,0.0001657243160966128
0.40404040404040403,0.10126582278481013,-1.2342326386316597e-05,7.010454316797736e-06,4.317603922668422e-05,1.5995616208556583e-06,7.668452187737156e-05
0.5050505050505051,0.10126582278481013,-0.00031477967477049095,-0.00011074514958047409,0.00010722104548073628,0.0001276574473052895,0.0003331358092712535
0.6060606060606061,0.10126582278481013,-9.41418783724336e-05,0.0001899589212069807,8.07862273542425e-06,-2.8745112850364128e-05,0.00025104973033552577
0.7070707070707071,0.10126582278481013,-0.00011525552700040792,4.236684638077383e-05,-1.0091167955907077e-05,2.186660418589023e-05,0.00014236324805053528
0.8080808080808081,0.10126582278481013,4.524781681648983e-05,0.00014513046005820276,-3.034054170042072e-05,-5.711348306240777e-05,0.00013894252158422438
0.9090909090909091,0.10126582278481013,-0.00018410764757141002,-7.590956994607083e-05,-1.8003242346242764e-06,7.800516525524425e-05,0.000160287491261161
1.0101010101010102,0.10126582278481013,1.9740074065914017e-05,5.203633229733099e-05,5.794735364295578e-06,-2.1532921908973505e-05,4.6593843190327726e-05
1.1111111111111112,0.10126582278481013,3.587542501079783e-05,0.00015157307069974625,-4.300681184624863e-05,-5.6234548713163215e-05,0.00015611678687779364
1.2121212121212122,0.10126582278481013,-0.00012633031499846234,4.822963991701535e-05,-2.0402874934101425e-05,2.3430202524434097e-05,0.00016008480306963678
1.3131313131313131,0.10126582278481013,-6.964797035988614e-05,-1.1481670997275157e-05,7.039121081641069e-05,2.433889240714839e-05,0.00013801362665853752
1.4141414141414141,0.10126582278481013,0.00012924715057768962,-9.608550130863135e-05,3.527542330412131e-05,-9.948494780717479e-06,0.00020515626536376431
1.5151515151515151,0.10126582278481013,-4.207828681756118e-05,-5.680718840746766e-05,-6.287570111005265e-05,2.966564256750865e-05,0.00012028030212547621
1.6161616161616161,0.10126582278481013,0.0001047126276341659,3.9856387386654526e-05,-2.3792241977459095e-06,-4.337070450624612e-05,9.163395153355634e-05
1.7171717171717171,0.10126582278481013,0.00020196183126378734,-6.923865217642985e-06,2.7377957375256646e-05,-5.85113898138433e-05,0.0002109112025139431
1.8181818181818181,0.10126582278481013,-8.100484692345725e-05,0.00011666058166370972,-0.00011893698303200079,-1.069672042207574e-05,0.0002684391307114919
1.9191919191919191,0.10126582278481013,-9.68914312851695e-06,8.030849737392211e-05,-9.189912141211277e-05,-2.1185806273621545e-05,0.00018071469314770433
2.0202020202020203,0.10126582278481013,2.4947139522401557e-05,-0.00013658478683332512,9.598041969243082e-05,3.349129419327707e-05,0.00022432540291154936
2.121212121212121,0.10126582278481013,-0.00019415832244491118,-1.4371498976901488e-05,-4.838169018514105e-05,6.25589464265438e-05,0.00020527058206329553
2.2222222222222223,0.10126582278481013,-4.1746018891619615e-05,5.204510887207599e-05,2.2058496211344744e-05,-3.0897269941369116e-06,8.991012909741326e-05
2.323232323232323,0.10126582278481013,4.465499802487272e-05,0.00017646714798357166,8.194049269632753e-05,-6.633664380253331e-05,0.0002130664592359543
2.4242424242424243,0.10126582278481013,0.0001226791396813012,-7.023944414970954e-05,1.204029774792216e-05,-1.5731908659477494e-05,0.00017039827380862577
2.525252525252525,0.10126582278481013,5.9819687710383795e-05,-4.47322381361586e-05,-4.31320758716919e-05,-4.526234872267559e-06,0.00011762807738517846
2.6262626262626263,0.10126582278481013,-1.3471581388708584e-05,9.721631503108248e-05,4.392122302629874e-05,-2.5123420092712166e-05,0.00012934208290407443
2.727272727272727,0.10126582278481013,0.0001211302117498268,2.3608152155215073e-06,3.349896568700307e-05,-3.704730808960449e-05,0.00013326168881707304
2.8282828282828283,0.10126582278481013,-0.0001402961848323626,-0.0001396797360349875,5.2010772261361527e-05,8.399277626020502e-05,0.00016647004345193657
2.929292929292929,0.10126582278481013,0.00014954165500911294,5.820025101945414e-05,4.0727357902587956e-05,-6.232257180857013e-05,0.00014840069739517237
3.0303030303030303,0.10126582278481013,5.625850418553152e-05,2.1618140238465347e-05,-7.198864658004325e-05,-2.336299332719906e-05,0.0001340270672541686
3.131313131313131,0.10126582278481013,0.0001424113761499922,-2.6999067971403872e-05,-6.182349223489742e-05,-3.46236924535765e-05,0.00019058162747019746
3.2323232323232323,0.10126582278481013,-0.00015021374319274192,-4.489037211657235e-05,-2.8191891514573997e-06,5.853123459279428e-05,0.00013364133644276765
3.3333333333333335,0.10126582278481013,-4.852781304633666e-05,0.0001386109129981184,-4.834377699352899e-06,-2.7024929985534522e-05,0.00016841773046982576
3.4343434343434343,0.10126582278481013,0.0001327315245955043,6.478795298545132e-05,4.5273769224907666e-05,-5.925584327428669e-05,0.00013915773509870657
3.5353535353535355,0.10126582278481013,-1.0696767894996258e-05,0.00010896942145420683,2.486019246544546e-05,-2.948179606776317e-05,0.0001225090354735871
3.6363636363636362,0.10126582278481013,-0.00011675373322038081,1.8902538786867505e-07,3.726358826446914e-05,3.4969412349753636e-05,0.00013348881751754286
3.7373737373737375,0.10126582278481013,7.19784935483352e-05,-1.0118795157586218e-05,-7.083629272543808e-05,-1.8557909517224693e-05,0.0001451377631154209
3.8383838383838382,0.10126582278481013,0.00014298732222006632,6.524841571283434e-05,-1.5608304209620917e-05,-6.247072137987019e-05,0.00012690110837861206
3.9393939393939394,0.10126582278481013,-0.00013274147839249754,-0.0001374799988823044,-1.5164059206872968e-05,8.106644318244057e-05,0.0001377011181957393
4.040404040404041,0.10126582278481013,-2.397149314226284e-05,4.930832300903893e-05,5.345843357193451e-05,-7.601048960032828e-06,0.00011296614399100171
4.141414141414141,0.10126582278481013,7.706873595907602e-05,3.961797279122983e-05,-2.3183450277692197e-07,-3.500601262509176e-05,6.67534867092745e-05
4.242424242424242,0.10126582278481013,-0.00019913588978810276,2.4315683076894e-05,-5.22318093912702e-05,5.2446062013362624e-05,0.00023080937148949585
4.343434343434343,0.10126582278481013,-0.0001729411803376466,0.00025274163583735413,-9.28530313630811e-05,-2.3940136649912256e-05,0.0004041800087392247
4.444444444444445,0.10126582278481013,0.00014417818650895532,-1.3834526546551201e-05,-3.7152133048069835e-05,-3.910309798872123e-05,0.00016466397149508612
4.545454545454545,0.10126582278481013,3.662262545171403e-05,3.039823289274898e-05,-5.8283754001965706e-05,-2.0106257503338904e-05,0.0001065034933795046
4.646464646464646,0.10126582278481013,-2.424144052411085e-05,-0.00016170507837299882,-9.545481011886337e-05,5.57839556691329e-05,0.00022394436383834434
4.747474747474747,0.10126582278481013,1.9543770244253174e-05,-0.00028188016806005944,5.399138318486092e-06,7.870091934474188e-05,0.0002922923902972009
4.848484848484849,0.10126582278481013,-8.830046160807974e-05,-0.00013412111665841037,4.255569106452019e-05,6.672647347994703e-05,0.00013919572359633319
4.94949494949495,0.10126582278481013,5.209246925718989e-05,0.00015013383467277105,-7.032562548114949e-05,-6.066789117898828e-05,0.00017963861583092754
5.05050505050505,0.10126582278481013,9.010583696898992e-05,-4.3413674096513587e-05,3.7637946979397404e-05,-1.4007648861742898e-05,0.00013477937361954754
5.151515151515151,0.10126582278481013,0.00039859170130554755,-5.1707944174054144e-05,-8.381251002509654e-05,-0.00010406512713944802,0.00045081373513883446
5.252525252525253,0.10126582278481013,-5.987311012565643e-05,9.005901889311158e-05,2.8156107979997908e-05,-9.055772630236542e-06,0.00013951999500375764
5.353535353535354,0.10126582278481013,-0.0001405023930099378,-0.00011662972960659018,-1.1005410206568465e-05,7.713963678495839e-05,0.00013160553683353132
5.454545454545454,0.10126582278481013,0.00011657770276528053,-6.695188054669638e-05,-5.424087764018029e-06,-1.4887746665575245e-05,0.00016114054022788258
5.555555555555555,0.10126582278481013,4.729213607443776e-05,-5.429718585702569e-05,-4.539441027744942e-05,2.1015149347763784e-06,0.00011804455888264075
5.656565656565657,0.10126582278481013,-9.145344052220834e-06,-8.662901986321308e-05,-4.1891611169956294e-05,2.8732309174630175e-05,0.00010982118861122895
5.757575757575758,0.10126582278481013,-4.187265259720421e-05,9.996975928706128e-05,2.4648021538374015e-06,-1.742913200695712e-05,0.00012629923419112666
5.858585858585858,0.10126582278481013,-1.9063492154065782e-05,0.00013152608346400207,2.3828712257695206e-05,-3.373877739298088e-05,0.00014789623527405583
5.959595959595959,0.10126582278481013,6.055235011863226e-05,0.00010699413238311993,1.949259223820162e-05,-5.026394475052565e-05,9.887097026477713e-05
6.0606060606060606,0.10126582278481013,0.00018124063064253433,4.081455804027224e-05,6.659344440916501e-06,-6.661655660484197e-05,0.00016507506992353312
6.161616161616162,0.10126582278481013,0.00010266844861204472,0.00025318971195261336,3.87348704660412e-05,-0.00010675744816939741,0.00023054807788920964
6.262626262626262,0.10126582278481013,2.092010258271496e-06,-6.947699875489469e-05,-6.533975088868313e-05,2.0215496548986958e-05,0.00013335901017780168
6.363636363636363,0.10126582278481013,-0.0001546927044109568,1.9214793817305782e-05,3.445581853033356e-05,4.064337317809531e-05,0.000175593393416441
6.4646464646464645,0.10126582278481013,-0.00010472661713198957,-3.982961514106281e-05,6.655902516831478e-05,4.3366869681915714e-05,0.00014721804650542002
6.565656565656566,0.10126582278481013,6.621054912990404e-05,2.1660993945324774e-05,5.089841123433946e-05,-2.6361462922568643e-05,0.00010578654909535123
6.666666666666667,0.10126582278481013,-1.7139796272915974e-05,-0.00014835524256374255,5.403608590163655e-05,4.964851165099756e-05,0.0001688785590818725
6.767676767676767,0.10126582278481013,-6.820156741654095e-05,-0.00010751544889041926,1.752796928452109e-05,5.271510489208806e-05,9.899491165751443e-05
6.8686868686868685,0.10126582278481013,-1.7973246861961322e-05,0.00011679671377399897,6.354413919141107e-05,-2.9647040073611295e-05,0.00016786095137709853
6.96969696969697,0.10126582278481013,5.699915227847794e-05,-6.825403199350477e-05,8.84355946292281e-05,3.3764639145080486e-06,0.00018777779794035515
7.070707070707071,0.10126582278481013,0.00012496562795708308,-9.860849161980991e-05,1.2144852320929869e-05,-7.90714090118195e-06,0.0001952055511021757
7.171717171717171,0.10126582278481013,9.263449796070857e-06,-0.00018142987711770872,0.0001041074995675583,5.164992819649136e-05,0.0002592265279053937
7.2727272727272725,0.10126582278481013,-0.00017009391719304134,-6.579075650962521e-05,-3.3155678425284017e-06,7.076540211079996e-05,0.00014866988864165295
7.373737373737374,0.10126582278481013,-3.2876969366152095e-05,9.491515515396252e-05,4.8052192317674074e-05,-1.8611455736343125e-05,0.00014190610980711256
7.474747474747475,0.10126582278481013,4.288794201173394e-05,-8.860208807583024e-05,0.00013941044460743927,1.371424381922889e-05,0.0002679467913482926
7.575757575757575,0.10126582278481013,0.00020462444389255272,-6.499362462880332e-05,3.509146723673023e-05,-4.188924577912482e-05,0.00025117494261059554
7.6767676767676765,0.10126582278481013,3.939337532956125e-05,3.258241090314916e-05,2.1893944654674083e-05,-2.1592735869813122e-05,5.26113563396097e-05
7.777777777777778,0.10126582278481013,6.329526270184018e-05,-0.00020736922161368305,-1.2803824777915657e-05,4.322218767355286e-05,0.0002462226380703136
7.878787878787879,0.10126582278481013,1.5637340267872887e-06,-6.277990608831956e-05,-2.2787903205903204e-05,1.8364851618459677e-05,7.483180169873243e-05
7.979797979797979,0.10126582278481013,-1.0676587950785759e-05,6.633350528835505e-05,1.9839983717164223e-05,-1.6697075201270788e-05,8.00200838483574e-05
8.080808080808081,0.10126582278481013,0.0001568762904311454,-1.9965804394323238e-05,0.00012450661438208232,-4.1073145811046645e-05,0.00027321540265525
8.181818181818182,0.10126582278481013,2.4355125566018168e-05,-8.758243814971087e-05,8.676241745890983e-05,1.8968193775107805e-05,0.0001816042073908011
8.282828282828282,0.10126582278481013,8.305658362536262e-05,6.0555408888218e-05,6.769774811372537e-05,-4.3083597754074185e-05,0.00013886966387894817
8.383838383838384,0.10126582278481013,-8.479642312241577e-05,0.0001465929681070906,4.707872624506279e-05,-1.853896349540245e-05,0.00021853995153690915
8.484848484848484,0.10126582278481013,3.9553800559812695e-05,0.00012041645987620196,-6.740565225375789e-05,-4.79910781308044e-05,0.0001578995382420228
8.585858585858587,0.10126582278481013,8.604981665163296e-07,5.124365597228937e-05,-8.113067978262988e-05,-1.5631246241641708e-05,0.0001494293119453679
8.686868686868687,0.10126582278481013,1.9309189928619714e-05,-6.227964342077437e-05,1.9146018697785883e-05,1.2891136047646397e-05,8.09560273219027e-05
8.787878787878787,0.10126582278481013,-0.0001722336594370732,-1.416623126969019e-05,5.572883513816364e-06,5.591996721202901e-05,0.0001658866624880889
8.88888888888889,0.10126582278481013,3.0770190290009904e-06,0.00019438947555646974,4.9757370952438896e-05,-5.9239948375641216e-05,0.00021124863083626182
8.98989898989899,0.10126582278481013,5.132304770595744e-06,-0.00011771975197132461,2.5863319407757607e-05,3.377623416021866e-05,0.0001284335940221534
9.09090909090909,0.10126582278481013,-5.8952023394050735e-05,1.8523446584307218e-06,0.0001245630146699696,1.7129903620686003e-05,0.0002239102623365824
9.191919191919192,0.10126582278481013,0.00010985834553311322,-0.00020175253720602058,6.0861575271499156e-06,2.7568257501872206e-05,0.00027394938626913685
9.292929292929292,0.10126582278481013,-0.0002665035124283059,-0.0001120833309908774,-6.265537009369992e-05,0.000113576053025755,0.0002559165489639877
9.393939393939394,0.10126582278481013,-7.221913663396951e-05,-9.71969187788113e-06,0.00010569676358755416,2.458164855355519e-05,0.0001952525181636285
9.494949494949495,0.10126582278481013,8.284155475285867e-05,-2.5355229614514126e-05,-4.030344334592172e-05,-1.724589754150336e-05,0.0001203294649770847
9.595959595959595,0.10126582278481013,0.00011536818271943505,-5.9767689166414534e-05,5.458044420256294e-05,-1.6680148065906154e-05,0.0001808711104759261
9.696969696969697,0.10126582278481013,0.00012695389948133473,-0.00015344581841841606,-6.5604314297080775e-06,7.9475756811244e-06,0.00024345959535941234
9.797979797979798,0.10126582278481013,-8.086810781794427e-05,3.1103237614915025e-05,6.776429016609343e-05,1.4929461060908772e-05,0.0001542670388976794
9.8989898989899,0.10126582278481013,-0.0001348644618955099,4.8934006501014566e-05,3.539685970551803e-05,2.5779136618348604e-05,0.0001759011982926605
10.0,0.10126582278481013,0.000112279527361819,-0.0001569586308382392,6.60406078069057e-05,1.3403731042926058e-05,0.00026067226661768305
0.0,0.20253164556962025,1.6507681988520917e-05,9.907152202785596e-05,7.183984227812821e-08,-3.4673761204913065e-05,9.19360883694989e-05
0.10101010101010101,0.20253164556962025,0.0003058290177010356,2.6423314952387325e-05,-6.109136393566248e-05,-9.967569979602688e-05,0.0003120016465137939
0.20202020202020202,0.20253164556962025,-0.0002363210539230567,-0.00014494462581441484,-7.967155410485562e-05,0.00011437970392124146,0.000248285698233483
0.30303030303030304,0.20253164556962025,-0.00010737431791527332,-5.477648717895381e-05,-3.0148933822709518e-05,4.864524152826814e-05,0.00010665361868562992
0.40404040404040403,0.20253164556962025,-6.0127417423372366e-05,-0.00011617484477535023,-8.068263155245494e-05,5.2890678659616775e-05,0.00017220821293238546
0.5050505050505051,0.20253164556962025,0.00013705284067992897,8.188342895527348e-05,1.910819929271816e-05,-6.568088089056073e-05,0.00012394107621611423
0.6060606060606061,0.20253164556962025,-0.00017926670306537981,0.00011508503921563927,5.83748125346836e-05,1.9254499154922164e-05,0.0002761066620835365
0.7070707070707071,0.20253164556962025,-0.00010671990741170883,1.9831265255131554e-05,-4.08465288387137e-05,2.6066592646973184e-05,0.0001374922734773972
0.8080808080808081,0.20253164556962025,1.9873793989975726e-07,-3.1698082586860175e-05,-4.37606174310565e-05,9.449803394088125e-06,8.219539197501346e-05
0.9090909090909091,0.20253164556962025,0.00010774734180666953,-4.5241706882844796e-05,-2.610244984818352e-07,-1.8751690477147416e-05,0.00013612927592867734
1.0101010101010102,0.20253164556962025,-0.00012496855481046733,-0.00015438827877117247,9.974566429072767e-07,8.380705007449195e-05,0.0001419936089931392
1.1111111111111112,0.20253164556962025,-6.649517128130963e-05,-6.248750881908784e-05,1.8771352017463576e-05,3.869480403011924e-05,7.230677651485575e-05
1.2121212121212122,0.20253164556962025,-0.00025268611134909754,3.804529726437112e-05,-2.678981692804896e-07,6.439224422541793e-05,0.00027369955981295367
1.3131313131313131,0.20253164556962025,3.679439660360629e-05,1.546552485306053e-05,6.0562274153900543e-05,-1.5677976437000045e-05,0.00010966919611884777
1.4141414141414141,0.20253164556962025,2.904840973820635e-05,7.160798169172853e-06,-1.4018187310398681e-05,-1.0862762372213761e-05,3.572962448551465e-05
1.5151515151515151,0.20253164556962025,-7.912222087385613e-05,7.336037501370431e-05,-3.523840362198273e-05,1.7285537580455458e-06,0.00014550512541784612
1.6161616161616161,0.20253164556962025,-6.448896079116068e-06,-2.315901661458094e-05,-4.558149262891629e-05,8.882373808109103e-06,8.161859855812012e-05
1.7171717171717171,0.20253164556962025,3.090837408720964e-05,-0.00010060796460912856,7.098631746932595e-05,2.0909877156575675e-05,0.00017118437586814412
1.8181818181818181,0.20253164556962025,-0.0001727386802636573,-0.00016695246380691933,-5.240120128521134e-05,0.00010190734322117298,0.0001926403027771115
1.9191919191919191,0.20253164556962025,5.65341377657032e-05,2.2949317462726368e-05,3.0316787815200977e-05,-2.3845036568528868e-05,7.199085289219478e-05
2.0202020202020203,0.20253164556962025,-3.662419446027455e-05,-0.00010100317011388063,5.5745340518251795e-05,4.128820937224655e-05,0.00013102076636186378
2.121212121212121,0.20253164556962025,-7.587616404201592e-05,-5.714032940496473e-05,-3.6013587381316175e-05,3.99049480340942e-05,9.261509561139558e-05
2.2222222222222223,0.20253164556962025,-0.00011205288131946308,6.884956079163449e-05,-0.00010739425120045617,1.2960996158348577e-05,0.0002441546179579589
2.323232323232323,0.20253164556962025,7.879512801240048e-05,-0.00013584810826194337,3.25603223641438e-05,1.711589407486287e-05,0.00019633663329840517
2.4242424242424243,0.20253164556962025,7.5153305424532e-05,6.94518996355273e-05,-4.4351113085260383e-05,-4.338156151801778e-05,0.000105608283525954
2.525252525252525,0.20253164556962025,-7.90192235698129e-05,7.928493471532968e-05,-3.8034706506571964e-05,-7.97133436550342e-08,0.00015210223287480702
2.6262626262626263,0.20253164556962025,-0.00011941546952998326,-4.908043985232389e-05,-6.0531725768420263e-05,5.054877281469214e-05,0.00014764907599768543
2.727272727272727,0.20253164556962025,0.0001127054892140015,-0.00020585797617193348,4.7936915770446274e-05,2.7945746087379592e-05,0.0002918479077300064
2.8282828282828283,0.20253164556962025,4.3778268516910116e-05,8.172043524489726e-05,3.525291565337759e-05,-3.764961112854221e-05,9.351733186782393e-05
2.929292929292929,0.20253164556962025,-4.9732364721282144e-05,0.00015352405232254087,5.809304370254095e-05,-3.113750628037762e-05,0.00020929037743234807
3.0303030303030303,0.20253164556962025,-0.00010473579496902382,-5.9002487790263905e-05,5.920126049154721e-05,4.9121484827786316e-05,0.00013706048146980336
3.131313131313131,0.20253164556962025,3.8508302088619364e-06,-0.00012527205217516412,6.841006546829396e-05,3.642636658989065e-05,0.0001738681354488095
3.2323232323232323,0.20253164556962025,2.997725870958915e-05,-3.785559157824443e-05,-2.1779517522529546e-06,2.3634998605965838e-06,5.899761975988092e-05
3.3333333333333335,0.20253164556962025,6.02675408331087e-05,-0.0001521529127701311,6.014941561872459e-05,2.7565611581106712e-05,0.00021634792308588972
3.4343434343434343,0.20253164556962025,-5.3075071513788044e-05,-7.828393308596451e-06,-5.7905617334203446e-05,1.827103944671535e-05,0.00011190145655826641
3.5353535353535355,0.20253164556962025,-8.390408433842326e-05,-3.0307232236177174e-05,2.940175160125119e-05,3.426339497238013e-05,8.949252547863125e-05
3.6363636363636362,0.20253164556962025,0.0001304223669932579,-8.870085332653163e-06,6.883593826737772e-06,-3.646568449818142e-05,0.00013560118488554554
3.7373737373737375,0.20253164556962025,0.0001666525233252121,3.512076943197332e-05,4.887184255784162e-07,-6.0531987827155625e-05,0.0001521653168967599
3.8383838383838382,0.20253164556962025,0.00014593791907319755,-1.1888695804091382e-05,3.527852851347586e-06,-4.021476698073185e-05,0.0001523534248866858
3.9393939393939394,0.20253164556962025,-0.00019635111134996147,-0.00017923022877953433,8.379554252828798e-05,0.00011267440203884873,0.00023780298162804882
4.040404040404041,0.20253164556962025,0.00017914292317028314,0.0001676100332133891,6.94295003564192e-07,-0.00010402588691510166,0.00017366808857682668
4.141414141414141,0.20253164556962025,-0.00012635671095171245,-5.039243478510266e-05,-5.293208301071614e-05,5.302474372104453e-05,0.00014332972408182202
4.242424242424242,0.20253164556962025,-4.160937196313131e-05,-0.00011966598477905389,-8.882872896205408e-06,4.8382607022655555e-05,0.00010634273632444923
4.343434343434343,0.20253164556962025,5.377488003618978e-05,-6.284469013684784e-05,-7.11978224126681e-05,2.7209430301974185e-06,0.00015946174532859285
4.444444444444445,0.20253164556962025,6.841428351867598e-05,-4.0774843245878004e-05,-7.610657366129499e-06,-8.291832081839393e-06,9.646994368188796e-05
4.545454545454545,0.20253164556962025,7.402856877393362e-05,4.340877773164132e-05,2.0132863169720768e-05,-3.523120395167248e-05,7.326020631560457e-05
4.646464646464646,0.20253164556962025,-3.358205540410554e-05,-2.5998299464630027e-06,2.6423659848184767e-05,1.0854565605170564e-05,5.605207691896244e-05
4.747474747474747,0.20253164556962025,-1.2823251912452094e-05,1.0891792292818559e-05,7.893335193284404e-05,5.794378858900605e-07,0.00013825395931897093
4.848484848484849,0.20253164556962025,-0.00012856790285629011,-7.703563385774783e-05,-4.316525789001987e-05,6.168106101421139e-05,0.00013472046282792213
4.94949494949495,0.20253164556962025,6.410537700553632e-05,-3.0809252205774e-05,-8.19673075019234e-06,-9.988837439928697e-06,8.506060954039875e-05
5.05050505050505,0.20253164556962025,-5.0204656450209406e-05,2.976268710859716e-05,-3.2525606884045314e-05,6.132590802483674e-06,8.985708577544885e-05
5.151515151515151,0.20253164556962025,-9.782577785955378e-05,3.483822030454537e-05,-9.668535051139287e-05,1.889626726650252e-05,0.00020551357964592544
5.252525252525253,0.20253164556962025,-2.6437333578378236e-05,-7.312028824847577e-05,5.518894725336724e-05,2.98672865480562e-05,0.0001151080510012543
5.353535353535354,0.20253164556962025,0.00015370782702916658,7.933053508464623e-05,-6.298948292965151e-06,-6.991150863414384e-05,0.00013358419057176934
5.454545454545454,0.20253164556962025,2.7757587768363645e-05,-4.692434463682512e-05,5.140585079931117e-05,5.750027060538442e-06,0.0001104652384338471
5.555555555555555,0.20253164556962025,6.616374035607652e-05,-3.2529043857011325e-05,-4.3580730411504784e-05,-1.0090408949719557e-05,0.0001152643163929981
5.656565656565657,0.20253164556962025,0.00019742735451178345,-9.57217368984117e-05,-5.5730141804636084e-05,-3.0511685284011523e-05,0.0002763256170285178
5.757575757575758,0.20253164556962025,-9.962865633345003e-05,6.361440361079489e-06,1.8227194774293723e-05,2.7980164791711164e-05,0.00010768848930974987
5.858585858585858,0.20253164556962025,-0.00011328468570992337,2.744169329574201e-05,-6.3518003397601e-05,2.5752897724254407e-05,0.0001697020931354204
5.959595959595959,0.20253164556962025,-1.4033275534091334e-05,9.94613348230281e-05,1.0801485912792349e-05,-2.562841778668103e-05,0.00010879004806197601
6.0606060606060606,0.20253164556962025,-9.019955748662075e-05,2.99464724645924e-05,-7.312173944981224e-06,1.8075925506608504e-05,0.00010906105451466754
6.161616161616162,0.20253164556962025,4.512415464548998e-05,2.0091498699922224e-05,-4.330210551514035e-05,-1.956469600362366e-05,8.46076993199624e-05
6.262626262626262,0.20253164556962025,-3.898764370928923e-05,-3.70177615991573e-05,7.043547957096005e-05,2.280162159253396e-05,0.00012779118155351943
6.363636363636363,0.20253164556962025,7.716492997000765e-05,-0.00013822061501588876,-2.5534442380771233e-05,1.831670551376433e-05,0.00019411638816403407
6.4646464646464645,0.20253164556962025,0.00010299394201549517,-0.00010166765307049485,7.265191368860558e-06,-3.978866835000977e-07,0.0001776895189785436
6.565656565656566,0.20253164556962025,4.965897827054104e-05,0.00012746065124665331,-3.392665018512617e-05,-5.3135888855158305e-05,0.00012584005247471988
6.666666666666667,0.20253164556962025,-8.72123119839765e-05,-0.0001521435392046611,6.277866396685288e-05,7.180675535659128e-05,0.00017119677574135717
6.767676767676767,0.20253164556962025,6.345872515826612e-05,0.00019079347911270757,1.1182157747762414e-05,-7.62756612812921e-05,0.0001694012174493689
6.8686868686868685,0.20253164556962025,3.9511376830000704e-05,-2.489300668941898e-05,6.308689552633634e-05,-4.3855110421745165e-06,0.00012289929540168962
6.96969696969697,0.20253164556962025,-0.00014724585516018743,-7.221945144159429e-05,-1.6506769248473833e-05,6.583959198053452e-05,0.000130691990706124
7.070707070707071,0.20253164556962025,-6.621824148162381e-05,2.6894531355284252e-05,-1.559615649307022e-05,1.1797113037901866e-05,8.728573872991703e-05
7.171717171717171,0.20253164556962025,-0.00011512379924976732,6.546603239559697e-06,2.8422214847443164e-05,3.257315880306229e-05,0.0001283490704886426
7.2727272727272725,0.20253164556962025,-4.3535909352134175e-06,-7.260977381794717e-05,7.75685805243318e-05,2.3089009425948176e-05,0.0001517421293131942
7.373737373737374,0.20253164556962025,1.2439998732379912e-05,-3.280290734706502e-05,9.176058477592627e-05,6.108872584405531e-06,0.00016400874116935798
7.474747474747475,0.20253164556962025,-4.737840309537255e-05,-1.0555874799509045e-06,2.23716567547377e-05,1.4530197172597036e-05,6.08053317853237e-05
7.575757575757575,0.20253164556962025,6.116281344233014e-05,4.831956388416474e-05,4.831264691798752e-05,-3.2844713197948465e-05,0.00010061135665192885
7.6767676767676765,0.20253164556962025,8.712400017076133e-05,0.00010410386819140924,-7.0902668205339e-05,-5.736836050865117e-05,0.00015633242281751103
7.777777777777778,0.20253164556962025,-0.00010417479105175323,-4.060939998496248e-05,4.8999505888257395e-05,4.343525731101471e-05,0.00012439408921457922
7.878787878787879,0.20253164556962025,-0.00010629193972254222,-9.068854796772412e-05,7.620681120504562e-05,5.90941463070799e-05,0.00016524334095656908
7.979797979797979,0.20253164556962025,0.0002658024854915188,0.00010441629214554602,-9.36496588656118e-06,-0.00011106563329111942,0.00023251391601142446
8.080808080808081,0.20253164556962025,6.746439510167416e-05,0.00012657057718500737,-4.19443480383235e-05,-5.821049168600445e-05,0.00013156949944802732
8.181818181818182,0.20253164556962025,9.216275040063404e-05,-5.458810820244231e-05,3.629761227123244e-05,-1.1272392659457517e-05,0.0001430292777001051
8.282828282828282,0.20253164556962025,3.0283627485080857e-05,5.0124966899084124e-05,1.3894104925198153e-05,-2.4122578315249493e-05,4.990774519082983e-05
8.383838383838384,0.20253164556962025,-3.466400670846214e-05,-0.00010139274708681122,-5.6112808715435264e-05,4.081702613858201e-05,0.00013195963611458173
8.484848484848484,0.20253164556962025,-0.00017790840759222565,0.0001610684120937983,-5.147902913301369e-05,5.051998649528209e-06,0.0003069203983069033
8.585858585858587,0.20253164556962025,-8.302737683016357e-05,-5.563495504126851e-05,3.0966604435180436e-05,4.159869956142963e-05,9.080947593360591e-05
8.686868686868687,0.20253164556962025,7.618357546799616e-05,-0.0001655544880085801,5.096914455463758e-05,2.6811273762175182e-05,0.00023155629896859362
8.787878787878787,0.20253164556962025,1.915945890125341e-05,-2.7925127376001274e-06,-5.308785526402751e-05,-4.910083849095985e-06,9.425151009617168e-05
8.88888888888889,0.20253164556962025,-0.00013562324156585396,-4.578476832783563e-05,9.642915565600261e-05,5.4422402968106876e-05,0.0002053683913125133
8.98989898989899,0.20253164556962025,1.3604143871222933e-06,-6.310050221969444e-05,-5.263171821332758e-06,1.8522026349771645e-05,6.443966070363251e-05
9.09090909090909,0.20253164556962025,3.0041225598147804e-05,-1.2678276489480314e-05,3.185067280621523e-05,-5.208884732600247e-06,6.698866298878063e-05
9.191919191919192,0.20253164556962025,-9.619374027374454e-05,0.00014532353156853877,4.982488111170111e-05,-1.4738937388438268e-05,0.00022759379358883557
9.292929292929292,0.20253164556962025,6.069869941667362e-05,7.473992978485567e-05,4.642511720584081e-05,-4.063158876045879e-05,0.00010582838563171401
9.393939393939394,0.20253164556962025,-0.000138972007898966,-9.632902404534607e-05,-1.8936753593955196e-05,7.059030958329361e-05,0.00012759805591193047
9.494949494949495,0.20253164556962025,6.663316577367846e-05,7.947475010255809e-05,1.1809151375182637e-05,-4.383237476287096e-05,7.66741720208773e-05
9.595959595959595,0.20253164556962025,0.00015170639796764404,0.0001425171958746619,2.0197294585123675e-06,-8.82670781526918e-05,0.00014736841517420398
9.696969696969697,0.20253164556962025,0.00011294702539954041,0.00016935580687832722,-1.3284086213014316e-05,-8.469084968336028e-05,0.00015112771449509848
9.797979797979798,0.20253164556962025,5.609068447814562e-05,1.4819883375411494e-05,-1.2970285271750449e-05,-2.1273170356067134e-05,5.512913318896209e-05
9.8989898989899,0.20253164556962025,0.00016403150532677077,-0.0001378368485504957,6.778797005027252e-05,-7.858397032882523e-06,0.00028688071382709676
10.0,0.20253164556962025,2.1964138049804656e-05,-4.32282777090783e-05,8.419423273724172e-05,6.379241897782094e-06,0.00015673731429324684
0.0,0.3037974683544304,5.424888838892652e-05,0.00010963133729141354,2.2944110877425533e-05,-4.916406770410202e-05,0.00010292662677341576
0.10101010101010101,0.3037974683544304,3.4397746229496174e-05,0.00011016273141067316,-7.957829961580468e-05,-4.33681432920508e-05,0.0001689017464911029
0.20202020202020202,0.3037974683544304,0.00015742096612079295,-6.128600510916965e-05,2.6360205413747323e-05,-2.884048830348699e-05,0.00020067291401427152
0.30303030303030304,0.3037974683544304,-4.4675856572613466e-05,6.865780933275968e-05,6.747974187877694e-06,-7.194585828043864e-06,9.956796097204822e-05
0.40404040404040403,0.3037974683544304,8.961384689560422e-05,9.670376039935494e-05,-1.1049036908978263e-05,-5.5895282188487745e-05,9.530218519003405e-05
0.5050505050505051,0.3037974683544304,4.198497592000413e-05,-8.486569579297754e-05,3.3347446084737025e-05,1.2864215961892022e-05,0.0001259530277558083
0.6060606060606061,0.3037974683544304,8.664307639824055e-05,0.00021855684729148162,-0.00011098050260888235,-9.155997710691665e-05,0.00027071700435412136
0.7070707070707071,0.3037974683544304,0.00021990767112958337,0.0001262607725223566,-2.2889738770369184e-05,-0.00010385053309558198,0.0001952108462204213
0.8080808080808081,0.3037974683544304,0.00011505895556777524,0.00010216277049908886,-9.721472678818573e-05,-6.516651782005923e-05,0.00020068174449701718
0.9090909090909091,0.3037974683544304,0.0001610455477410169,-4.9676370222102856e-05,3.575855998941211e-05,-3.341075325567421e-05,0.00020059808646993827
1.0101010101010102,0.3037974683544304,-9.645018949471839e-06,-5.822649674403573e-05,4.505618032374688e-05,2.0361454708052268e-05,9.493120564524225e-05
1.1111111111111112,0.3037974683544304,-0.00014551905870783415,7.218441825255938e-05,-3.861330398081714e-06,2.200039213658243e-05,0.0001921856521712508
1.2121212121212122,0.3037974683544304,-0.00014161906032547202,-2.6268085126565712e-05,3.127608927091046e-05,5.036614363561132e-05,0.0001412815992681224
1.3131313131313131,0.3037974683544304,5.362361089346527e-05,8.148748107761874e-05,1.5870650109886174e-05,-4.05333275913252e-05,7.682239806440234e-05
1.4141414141414141,0.3037974683544304,-2.8146612288631165e-05,3.748195930493947e-05,-1.4559512742336485e-05,-2.8006041048924915e-06,6.2354289883863e-05
1.5151515151515151,0.3037974683544304,0.0001048297729723511,3.0887319746084255e-05,-0.00010695713147412862,-4.0715127815530606e-05,0.00020742439833671252
1.6161616161616161,0.3037974683544304,-0.00011441448950607843,9.952211529694602e-05,-7.364331995577307e-05,4.467712262739723e-06,0.00022506024655790592
1.7171717171717171,0.3037974683544304,-1.542541633061048e-05,-0.00014285107473982811,-2.9271502663621537e-05,4.748294732113158e-05,0.00014495274515068291
1.8181818181818181,0.3037974683544304,6.926795071463305e-05,4.170340622787516e-05,7.72702361415896e-05,-3.329140708275246e-05,0.00014683521982180667
1.9191919191919191,0.3037974683544304,-5.7504775222623e-05,0.00012748442474678134,-1.7899083058008655e-05,-2.0993894857247503e-05,0.00016688670539867362
2.0202020202020203,0.3037974683544304,0.0002642322085389552,-4.918054398545013e-05,-9.362107320249409e-05,-6.451549936605152e-05,0.0003339568620844041
2.121212121212121,0.3037974683544304,0.00012407461577982698,-5.248791165063968e-06,3.1606649674431984e-05,-3.56477473844289e-05,0.0001380950496855221
2.2222222222222223,0.3037974683544304,-1.4385474788445325e-05,4.9138190835904556e-05,-1.3017172991483887e-06,-1.0425814814237769e-05,5.7736152389254316e-05
2.323232323232323,0.3037974683544304,-6.086141030807945e-05,-2.520634543378444e-05,2.3322741441827335e-05,2.5820326722559167e-05,6.661252275728579e-05
2.4242424242424243,0.3037974683544304,3.4074578660796796e-05,3.153078668458607e-05,-2.700966551398732e-06,-1.968160960361486e-05,3.3207752252663693e-05
2.525252525252525,0.3037974683544304,-4.808161447040413e-05,1.9333510846333557e-05,-3.013251453649008e-05,8.624431087221171e-06,7.961857825579416e-05
2.6262626262626263,0.3037974683544304,-0.00016513417215560492,7.088641966139796e-05,1.858070796664871e-05,2.827432574826209e-05,0.00021221611074424625
2.727272727272727,0.3037974683544304,3.0057957921077652e-05,-3.6707452713767e-05,7.00639325128738e-05,1.994848437806804e-06,0.00013446610318472338
2.8282828282828283,0.3037974683544304,-2.2116358259201147e-05,6.55088711857312e-05,5.522910447413323e-05,-1.3017753877959017e-05,0.00012401663240880925
2.929292929292929,0.3037974683544304,4.921473817246242e-05,-0.00016025257069705523,9.151550341159566e-06,3.331134975737784e-05,0.00019037073776622982
3.0303030303030303,0.3037974683544304,-8.702007040283465e-05,-7.983385945672386e-06,-2.414290947125993e-05,2.850103690455211e-05,9.322098760600428e-05
3.131313131313131,0.3037974683544304,-6.49679373455502e-05,-5.643294622213368e-05,6.597430036056733e-05,3.642026507030516e-05,0.00012960325270632773
3.2323232323232323,0.3037974683544304,0.00014248772032503492,2.9219667338754114e-05,-2.6027353185497216e-05,-5.151221629913671e-05,0.0001379324652015823
3.3333333333333335,0.3037974683544304,-2.1690381934118877e-05,-6.909853062124832e-05,0.00010686317105350058,2.7236673766610156e-05,0.00019495003992056896
3.4343434343434343,0.3037974683544304,5.09967654195211e-05,0.00011770704173745812,2.3035988806967948e-05,-5.0611142147093765e-05,0.00010974930388421924
3.5353535353535355,0.3037974683544304,1.0387317354436501e-05,1.7258112717231853e-05,-2.2258640062479464e-05,-8.293629021500506e-06,4.138616308554081e-05
3.6363636363636362,0.3037974683544304,-0.00012913749897221625,0.000167614438075906,6.0311139447091006e-05,-1.1543081731106921e-05,0.00027808039024943156
3.7373737373737375,0.3037974683544304,-0.00011811581079069141,-1.4300686198656638e-05,2.1754005244171652e-05,3.972494909680442e-05,0.00011784068682661191
3.8383838383838382,0.3037974683544304,9.327034995327085e-06,6.220286272211881e-05,-1.1018447528892918e-05,-2.1458969315233768e-05,6.115750152722875e-05
3.9393939393939394,0.3037974683544304,0.00011111845934836127,-8.781123590809708e-06,-2.627345911261925e-06,-3.070120072726547e-05,0.00011584849547508629
4.040404040404041,0.3037974683544304,-3.5102325589395794e-05,0.0001374340394568163,0.00012205798542341215,-3.069951416022615e-05,0.00026389202011456583
4.141414141414141,0.3037974683544304,-9.945016822047004e-05,-9.389196357962993e-05,-1.5644521761788493e-05,5.800263954002999e-05,0.00010051227982111997
4.242424242424242,0.3037974683544304,-5.1595096681106314e-05,-7.936690813690802e-06,5.058130247407973e-05,1.7859536248439133e-05,9.995476583268772e-05
4.343434343434343,0.3037974683544304,-4.55543614877179e-05,4.199897031833585e-06,0.00012230272222544603,1.2406339336765294e-05,0.0002171589975213895
4.444444444444445,0.3037974683544304,-9.553424810618237e-05,9.077398960564868e-07,9.101021239414442e-06,2.8387952463037762e-05,9.727704027250758e-05
4.545454545454545,0.3037974683544304,-7.264696843255767e-05,-0.00011127025699349755,8.08104647640848e-05,5.517516762781657e-05,0.0001707811433171502
4.646464646464646,0.3037974683544304,-5.194159430581392e-05,-1.7045862992488777e-05,5.523313998765179e-05,2.069623718949081e-05,0.00010609053031598409
4.747474747474747,0.3037974683544304,-8.742512422989403e-06,-3.469287409903231e-05,-2.9907018675369458e-05,1.3030615956606513e-05,6.049804502679509e-05
4.848484848484849,0.3037974683544304,0.00015587623639306313,-7.208163747890715e-05,2.3988557239097887e-05,-2.5138379674246794e-05,0.0002060469134255797
4.94949494949495,0.3037974683544304,-2.4801289308309712e-05,9.262424591531153e-06,8.72125565080554e-05,4.661659415033568e-06,0.00015410615357821215
5.05050505050505,0.3037974683544304,-2.090179702164894e-05,-4.6593009185312287e-05,9.008416267626149e-06,2.0248441862088368e-05,4.332863595833684e-05
5.151515151515151,0.3037974683544304,-4.4666917431131636e-05,4.1226965215682704e-05,-9.680849511044067e-05,1.0319856646346796e-06,0.00018344462870731408
5.252525252525253,0.3037974683544304,6.703430375303027e-05,-0.0001378382582817022,-1.0985640075978244e-05,2.1241186358601577e-05,0.00018192011396178225
5.353535353535354,0.3037974683544304,6.702357342838853e-05,0.00018494146669066692,-5.3045468512777854e-05,-7.558951203571664e-05,0.0001863908064077469
5.454545454545454,0.3037974683544304,1.858295798812753e-05,-0.00010003376302230056,4.4310645482720816e-05,2.443524151025191e-05,0.00013454108367674951
5.555555555555555,0.3037974683544304,-1.339412099047845e-05,-8.69278432641734e-06,4.9346106149253136e-05,6.626071595068736e-06,8.627658632399111e-05
5.656565656565657,0.3037974683544304,9.089971383640726e-05,-3.2776611109552155e-05,9.042857712538534e-06,-1.743693081805653e-05,0.00011207929607461271
5.757575757575758,0.3037974683544304,9.088167580764838e-05,5.5561858075339236e-05,9.669145694472406e-05,-4.3933060164896287e-05,0.00018532338717980893
5.858585858585858,0.3037974683544304,0.0001296991010715762,-6.695125941332152e-05,1.910603961510692e-05,-1.8824352497476407e-05,0.0001763036255062403
5.959595959595959,0.3037974683544304,8.20579398904099e-06,1.958654103309111e-05,2.1484473929679297e-05,-8.33770050663963e-06,4.0926670815756656e-05
6.0606060606060606,0.3037974683544304,6.603465629891284e-05,-0.0001378037423577861,-6.189548442761802e-05,2.1530725817661977e-05,0.00020962686607688312
6.161616161616162,0.3037974683544304,0.0001680530654034215,-9.660448613619795e-05,-5.7839621533157704e-05,-2.143457378016706e-05,0.00025267608714979873
6.262626262626262,0.3037974683544304,-1.7823008218623477e-05,5.909772019011479e-05,4.00504878227018e-05,-1.2382413591447395e-05,9.836474994015744e-05
6.363636363636363,0.3037974683544304,-5.854116723841017e-05,7.06622330197077e-06,2.75481580269402e-05,1.5442483180931818e-05,7.853259046717646e-05
6.4646464646464645,0.3037974683544304,7.466079448078215e-05,9.337250867948134e-05,0.00012142686379502979,-5.0409990948079044e-05,0.00022705691727454102
6.565656565656566,0.3037974683544304,9.614048587161776e-05,-0.00011785801986031906,9.194201302514162e-05,6.515260196610391e-06,0.0002445903400373978
6.666666666666667,0.3037974683544304,2.3705150438261383e-08,0.00017799230597926552,-5.363202472905755e-05,-5.340480333891114e-05,0.0002007641014847407
6.767676767676767,0.3037974683544304,-6.063907559418677e-05,-0.00016786861485443787,3.5386064505650695e-05,6.855230713458738e-05,0.00015948069600929646
6.8686868686868685,0.3037974683544304,-1.491547831776619e-05,4.246188357370841e-05,-1.6740653619239183e-05,-8.263921576782667e-06,5.915717035700845e-05
6.96969696969697,0.3037974683544304,4.366275023856008e-05,-3.998764397207087e-05,1.2527561296204754e-06,-1.1025318799467642e-06,7.249914574651119e-05
7.070707070707071,0.3037974683544304,1.5777527613900688e-05,8.162725614247544e-05,-2.4951217119940752e-05,-2.9221435126912837e-05,8.65549117174821e-05
7.171717171717171,0.3037974683544304,-1.4184746886867e-05,-6.251047034935173e-05,6.192554219174869e-05,2.3008565170865617e-05,0.00012135233444430828
7.2727272727272725,0.3037974683544304,-1.8401672103151124e-05,0.00013913890856548911,-3.1162391491433433e-06,-3.62211709387014e-05,0.00014929092010066737
7.373737373737374,0.3037974683544304,7.552485585279539e-05,4.853597239401304e-05,-3.0580087222693e-05,-3.721824847404253e-05,8.484985181323159e-05
7.474747474747475,0.3037974683544304,-2.5209706841015795e-05,9.838684518555645e-05,-1.6654019453328885e-05,-2.1953141503362194e-05,0.00011673848226087431
7.575757575757575,0.3037974683544304,-0.00023516150702022488,2.9368462455624973e-05,1.4349519346216527e-05,6.173791336937998e-05,0.0002523638226397847
7.6767676767676765,0.3037974683544304,5.773547154867067e-05,-0.00010755329509017855,-3.349052824203087e-05,1.4945347062452362e-05,0.00015644674050339935
7.777777777777778,0.3037974683544304,-5.825253185307842e-05,-2.7406019800611232e-05,-4.65172813169887e-06,2.5697565496106893e-05,5.1116465752611686e-05
7.878787878787879,0.3037974683544304,4.637027983138256e-05,0.00011468566731871971,-6.505266565061033e-05,-4.831678414503068e-05,0.00015060061944930105
7.979797979797979,0.3037974683544304,0.00011637812349298838,-3.6825928599478243e-05,1.0977055941569938e-05,-2.3865658468053042e-05,0.00013981143151649026
8.080808080808081,0.3037974683544304,7.508407935799495e-05,-0.00012323897263284472,-7.454532776734113e-05,1.4446467982454931e-05,0.00021621694157863757
8.181818181818182,0.3037974683544304,3.489151612666724e-05,7.122725311834763e-05,2.6373263140928934e-05,-3.183563077350446e-05,7.676040424377434e-05
8.282828282828282,0.3037974683544304,-0.00028159621576238783,-3.6478256736220796e-05,-4.510271278579567e-05,9.542234174958258e-05,0.000276509885887641
8.383838383838384,0.3037974683544304,0.00014188877519668013,0.00014732411620115558,-3.905006379978002e-05,-8.676386741935071e-05,0.0001597119400196834
8.484848484848484,0.3037974683544304,-6.15080983974205e-05,0.0001619303595221318,-0.00013811970645436975,-3.0126678337413393e-05,0.0003117625313015892
8.585858585858587,0.3037974683544304,-3.773388545541084e-05,-4.562065011047337e-05,-1.6641221562718536e-05,2.500636066976526e-05,5.1131557845354046e-05
8.686868686868687,0.3037974683544304,-0.00010208389821729234,-0.0002293061754137513,3.59865331229904e-05,9.941702208931309e-05,0.00020851634896387107
8.787878787878787,0.3037974683544304,-0.0001542205349947891,3.478641666145038e-05,0.00016112897189382726,3.5830235500001614e-05,0.00032900833536095834
8.88888888888889,0.3037974683544304,-0.00019933870553970578,-0.0001366355234043891,-1.9147240168897683e-05,0.00010079226868322845,0.00017963376028553804
8.98989898989899,0.3037974683544304,-5.22675385862419e-05,0.00010343197093752146,9.888038101223942e-06,-1.5349329705383866e-05,0.00013830951748302172
9.09090909090909,0.3037974683544304,-6.266418362033203e-05,-2.22003132036575e-05,3.768543558111396e-05,2.5459349047196858e-05,8.53760240169052e-05
9.191919191919192,0.3037974683544304,-3.5363849483258374e-05,0.00026858168041911005,-6.688839419559923e-05,-6.99653492807555e-05,0.0003103336508687499
9.292929292929292,0.3037974683544304,-6.851212183824421e-06,-5.1295162131582685e-05,-4.6499039036109824e-05,1.744391229462213e-05,9.387854185366849e-05
9.393939393939394,0.3037974683544304,-3.64709158714483e-05,0.00014553341097665867,-9.926826785691364e-05,-3.271874853156311e-05,0.00023954207399359674
9.494949494949495,0.3037974683544304,-0.00014636303266732826,0.00011119549895975236,-1.684293517625398e-06,1.0550260112272767e-05,0.00022376326173246657
9.595959595959595,0.3037974683544304,2.454621153693371e-05,5.424732332834555e-05,-1.857986198763468e-06,-2.3638060459583774e-05,4.716013839589892e-05
9.696969696969697,0.3037974683544304,9.933346887543884e-07,-5.942142533267206e-05,9.899262344138744e-06,1.7528427193175303e-05,6.232899847007511e-05
9.797979797979798,0.3037974683544304,-2.087156491271954e-05,0.0001809267689253613,4.422545607889072e-05,-4.8016561203792526e-05,0.00020691547944489053
9.8989898989899,0.3037974683544304,-7.713795907388998e-05,5.504042919593272e-05,9.348247490616058e-05,6.6292589633871784e-06,0.00019860095491871542
10.0,0.3037974683544304,3.77233754775357e-05,7.693741997440173e-05,4.1289878142541156e-05,-3.439823863558123e-05,9.774785204211442e-05
0.0,0.4050632911392405,-4.007278830042527e-05,5.4894539539330795e-05,3.8995580463539724e-05,-4.4465253716716585e-06,0.00010668168531795879
0.10101010101010101,0.4050632911392405,8.337950395362452e-05,-5.0396375772427074e-05,5.856678577352751e-05,-9.894938454359233e-06,0.00015486822259921622
0.20202020202020202,0.4050632911392405,4.931341900653047e-05,6.248518967154638e-05,1.8652634609345164e-06,-3.353958260342306e-05,5.714272924671486e-05
0.30303030303030304,0.4050632911392405,8.457949684745884e-05,-2.4025046329435268e-05,-4.3242283201513046e-05,-1.8166335155407068e-05,0.00012398631230027332
0.40404040404040403,0.4050632911392405,9.504645094317973e-05,-0.00017696120790550317,-5.279059644463601e-05,2.457442708869703e-05,0.0002559866655223402
0.5050505050505051,0.4050632911392405,-7.39193008424722e-05,9.656627689629436e-05,-1.3194497307876567e-05,-6.794092816146647e-06,0.00014983158819624468
0.6060606060606061,0.4050632911392405,-4.3098674777170066e-05,0.00011879762227618991,-6.624525916934786e-05,-2.2709684249705953e-05,0.0001850829381657028
0.7070707070707071,0.4050632911392405,-4.800121208906288e-05,-9.889274148634745e-05,-3.5533964452090524e-05,4.4068186072623095e-05,0.00010547467521446563
0.8080808080808081,0.4050632911392405,8.583181837026439e-05,5.445061038059531e-05,5.5513202099365314e-05,-4.2084728625257906e-05,0.00012207998172183304
0.9090909090909091,0.4050632911392405,-1.1873647063695652e-05,-4.4690735870610385e-05,-4.6701539798474005e-05,1.696931488029181e-05,9.028125387449353e-05
1.0101010101010102,0.4050632911392405,-0.00010852566055404454,7.48282067244003e-05,2.8404196805602513e-05,1.0109236148893269e-05,0.0001670875676752631
1.1111111111111112,0.4050632911392405,3.179864307638902e-05,-0.00018393970654031837,4.395807927645999e-05,4.5642319039178805e-05,0.00021561757957206545
1.2121212121212122,0.4050632911392405,-6.156350271424615e-05,5.060722127233414e-05,3.5974565583620876e-05,3.286884432573602e-06,0.0001155388316640968
1.3131313131313131,0.4050632911392405,-2.7476501522908688e-05,-8.824416104369614e-05,4.008761822582055e-05,3.471619876998144e-05,0.00010458680927342935
1.4141414141414141,0.4050632911392405,-0.00011824444996832805,5.819365211020033e-05,3.0002915728337012e-05,1.8015239357438315e-05,0.00016416410185012863
1.5151515151515151,0.4050632911392405,6.689492167147989e-05,-0.00014128989904252655,-0.00011720316132177886,2.2318493211314e-05,0.0002740421243490837
1.6161616161616161,0.4050632911392405,-4.998758624674284e-05,0.0002306154916664448,-6.050019816044218e-05,-5.4188371625910583e-05,0.0002796265321588804
1.7171717171717171,0.4050632911392405,-3.816141774942346e-05,-0.00015772568777189426,-2.3961093520431687e-05,5.876613165639531e-05,0.00014844882126500473
1.8181818181818181,0.4050632911392405,2.2428318602386416e-05,0.00023989467653316623,4.070915875195704e-05,-7.869689854066579e-05,0.00024009114495719423
1.9191919191919191,0.4050632911392405,0.00012729628092422528,0.00019721765653832917,2.526496958311124e-05,-9.735418123876632e-05,0.00017863098567100767
2.0202020202020203,0.4050632911392405,0.00016834902814679816,-1.0749071250174509e-05,7.585686123899216e-05,-4.727998706898709e-05,0.000218012209979752
2.121212121212121,0.4050632911392405,-4.4604546078256095e-05,-0.000176986902950972,1.2775335408099829e-05,6.647743470876843e-05,0.0001609631525022666
2.2222222222222223,0.4050632911392405,-6.463806629924015e-05,4.1901682243815984e-05,-2.6440828901267213e-05,6.8209152166272486e-06,0.00010363216973339128
2.323232323232323,0.4050632911392405,0.00015291990194656163,0.00017162996725175376,-2.0080820870414903e-05,-9.736496075949461e-05,0.0001667495799318349
2.4242424242424243,0.4050632911392405,1.0939482347244531e-05,-0.000220140626574046,-7.960268500469759e-07,6.276034326804043e-05,0.00022581340353706943
2.525252525252525,0.4050632911392405,0.0001504830702359588,0.00011108330358985461,-3.840722970376265e-06,-7.846991214774401e-05,0.00013532461581961878
2.6262626262626263,0.4050632911392405,2.219112121308122e-05,-1.4155747051332393e-05,4.502669469591433e-05,-2.410612248524648e-06,8.419722465538898e-05
2.727272727272727,0.4050632911392405,-0.00015212134590679826,3.2367226721228404e-05,5.1858827135305666e-05,3.5926235755670955e-05,0.00019282194168136432
2.8282828282828283,0.4050632911392405,-9.86357652484704e-05,-4.325579870919816e-05,6.753660374285413e-05,4.256746918730057e-05,0.00014497271479959383
2.929292929292929,0.4050632911392405,4.252367050498102e-05,2.1457348856752813e-05,-1.5865618316978657e-05,-1.9194305808520145e-05,4.594984955602948e-05
3.0303030303030303,0.4050632911392405,3.130858826017326e-05,-7.188937220627034e-05,6.103528061021204e-05,1.2174235183829123e-05,0.00013991061692111565
3.131313131313131,0.4050632911392405,1.4459039037319303e-05,9.224937521119845e-05,3.6037097717111056e-05,-3.2012524274555326e-05,0.00010621295097590499
3.2323232323232323,0.4050632911392405,9.75409747615333e-05,8.990590715919597e-06,-3.6236061808234626e-07,-3.1959469643235864e-05,9.337299080778701e-05
3.3333333333333335,0.4050632911392405,-0.00011052031636216817,0.000224929024469555,5.678342171137119e-05,-3.4322612432216046e-05,0.00031199375677212315
3.4343434343434343,0.4050632911392405,4.574163883439171e-05,-8.428728127117547e-05,4.661841857573617e-05,1.1563692731035128e-05,0.0001398996516689327
3.5353535353535355,0.4050632911392405,-3.0718140457542535e-05,5.681877287565198e-06,8.77558075861326e-05,7.5108789509932e-06,0.0001557358978609145
3.6363636363636362,0.4050632911392405,0.00011116030797650721,-1.28065350887836e-05,4.308485855768675e-05,-2.9506131866317082e-05,0.00013968935144026165
3.7373737373737375,0.4050632911392405,3.0968079113550006e-05,9.941978300623538e-05,2.303721344913596e-05,-3.911635863593561e-05,9.672959775531014e-05
3.8383838383838382,0.4050632911392405,2.6105624792486165e-05,4.444467332795855e-07,-1.8480181606680851e-06,-7.965021457729725e-06,2.608340722398102e-05
3.9393939393939394,0.4050632911392405,-7.3178695411737385e-06,1.3987105501264915e-05,-8.220720609561904e-05,-2.000770788027353e-06,0.00014361622593002783
4.040404040404041,0.4050632911392405,8.168017756562993e-05,5.547889447869225e-05,-3.5638948551502515e-05,-4.114772161329665e-05,9.501808853653184e-05
4.141414141414141,0.4050632911392405,-0.00015250208441486998,0.0001498177893801233,-1.95355142064728e-05,8.052885104239992e-07,0.00026399751868996384
4.242424242424242,0.4050632911392405,0.00014099325361004882,-5.873778571265962e-05,2.0133401469342832e-05,-2.467664036921676e-05,0.00018118200273655437
4.343434343434343,0.4050632911392405,-6.904797168971945e-05,-1.0538755579157226e-05,9.592339314014626e-05,2.3876018180663002e-05,0.00017819904635352056
4.444444444444445,0.4050632911392405,-5.884831804346895e-05,-7.068966556667693e-05,5.566626521075714e-06,3.886139508304376e-05,6.628082245487811e-05
4.545454545454545,0.4050632911392405,2.972281793829881e-05,-0.00012466447799273225,1.8838309100317995e-05,2.848249801633003e-05,0.00014558400747136373
4.646464646464646,0.4050632911392405,-4.440859438218128e-05,0.00012637478305778217,-2.4053801816494316e-05,-2.4589856602680262e-05,0.00015903015963751458
4.747474747474747,0.4050632911392405,-0.00017101076512861227,-3.32383041587766e-05,-3.088701561945395e-05,6.127472078621665e-05,0.00016591377890062052
4.848484848484849,0.4050632911392405,-2.618386532061099e-05,-1.556931623748069e-05,-5.103551490751528e-05,1.2525954467427503e-05,9.129186643595378e-05
4.94949494949495,0.4050632911392405,-3.8385504802727444e-05,6.819268874799825e-05,-7.62818158511853e-05,-8.942155183581241e-06,0.0001618581071424944
5.05050505050505,0.4050632911392405,-0.00014247184863655358,-5.129217165873114e-05,-1.6082292896130648e-05,5.812920608858541e-05,0.0001280521161284487
5.151515151515151,0.4050632911392405,-0.00020396855285644363,9.098669374281317e-05,6.480114577716052e-05,3.3894557734089135e-05,0.00028467128187896436
5.252525252525253,0.4050632911392405,0.0001248019348491427,0.0001263927004336252,3.2508917657090596e-05,-7.535839058483037e-05,0.00013764836824959375
5.353535353535354,0.4050632911392405,7.780329514502104e-05,9.366888382898823e-05,-2.0400443402656933e-06,-5.1441653692202776e-05,8.690195660323787e-05
5.454545454545454,0.4050632911392405,-6.819710339252331e-05,-1.940016905610759e-05,3.822338834482328e-05,2.6279181734589268e-05,8.992918539196153e-05
5.555555555555555,0.4050632911392405,-0.00010049759453553167,4.11841484602348e-05,-0.0001225807653153439,1.779403382258906e-05,0.0002470079766342716
5.656565656565657,0.4050632911392405,-0.00010787875044239196,-9.116288305495355e-05,-4.899636977005739e-08,5.971249004920365e-05,0.00010056821234933769
5.757575757575758,0.4050632911392405,-6.537693174943148e-05,7.359814809494127e-05,-1.3741738689104213e-05,-2.466364903652936e-06,0.00012275568361367681
5.858585858585858,0.4050632911392405,0.00010423754537003034,-0.00012234035629618786,1.6665555288415978e-05,5.430843277847256e-06,0.0001985404474727269
5.959595959595959,0.4050632911392405,0.00016057170313816253,0.000151585635631402,-5.047044114485138e-05,-9.364720163086937e-05,0.00017906118893249576
6.0606060606060606,0.4050632911392405,-0.00011005433202630204,-9.917529957146766e-05,2.0084867051602163e-05,6.276888947933091e-05,0.00011064913171119427
6.161616161616162,0.4050632911392405,7.667702049636162e-05,7.678946260428306e-05,-7.735564069830698e-06,-4.6039944930193395e-05,7.789426612836279e-05
6.262626262626262,0.4050632911392405,7.946479516375289e-05,7.016993621637889e-05,-7.30978176303277e-05,-4.489041941403953e-05,0.00014728308401812365
6.363636363636363,0.4050632911392405,-0.00012720692302920552,3.854086660267784e-05,-3.113135446371846e-05,2.65998169279583e-05,0.0001596156270817065
6.4646464646464645,0.4050632911392405,0.0001608925432560153,0.00013182448593931491,-2.2477323907830037e-06,-8.781510875859908e-05,0.00014855869434355536
6.565656565656566,0.4050632911392405,-2.149634176145472e-05,-9.202968250272688e-05,-7.935729124186932e-05,3.405780727925448e-05,0.00016076688926250268
6.666666666666667,0.4050632911392405,-0.00012229909005182716,7.014845900108553e-05,9.338684931242089e-05,1.564518931522249e-05,0.0002337098143116908
6.767676767676767,0.4050632911392405,-0.00010663260788668023,2.82222359116474e-05,6.555935686387844e-05,2.3523111592509852e-05,0.00016754255011021936
6.8686868686868685,0.4050632911392405,6.43447487559577e-05,2.352574614202802e-07,-5.0579611595408837e-05,-1.9374001865213392e-05,0.00010862806167708079
6.96969696969697,0.4050632911392405,2.8184385346006586e-05,-3.570826787831485e-05,-4.043467635086409e-05,2.2571647596924794e-06,8.933501390227642e-05
7.070707070707071,0.4050632911392405,-1.805944234729545e-05,-3.576876259342156e-05,0.00012899101565941114,1.6148461482215104e-05,0.00022555626857174508
7.171717171717171,0.4050632911392405,-0.0001458108079371818,-3.667681019727553e-05,-5.3671996831488517e-05,5.47462854403372e-05,0.0001609352494693292
7.2727272727272725,0.4050632911392405,0.00019761784061816395,1.7003965106598188e-05,4.132627556186756e-05,-6.438654171742864e-05,0.00020274427747550894
7.373737373737374,0.4050632911392405,-9.454915515176473e-07,-0.00018968989666832587,-2.869803026519245e-05,5.719061646595305e-05,0.00019563877806026003
7.474747474747475,0.4050632911392405,1.9392090340137287e-05,7.01410283705149e-06,1.6079500528332756e-05,-7.921857953156633e-06,3.263255586403897e-05
7.575757575757575,0.4050632911392405,9.984976600831079e-05,8.683893197946849e-06,5.848977847035585e-05,-3.256009776187729e-05,0.0001394326490663701
7.6767676767676765,0.4050632911392405,-1.2797880197206045e-05,-8.57814291082358e-05,2.6496113350051965e-07,2.9573792791632553e-05,8.015378642165195e-05
7.777777777777778,0.4050632911392405,6.102394549022321e-05,0.00017105405276429257,-2.1331501036207816e-05,-6.962339947635474e-05,0.00015462896400055966
7.878787878787879,0.4050632911392405,-0.00018932029260135705,5.386178486188537e-05,2.5047738711671432e-05,4.0637552321841506e-05,0.00022543859823233344
7.979797979797979,0.4050632911392405,-6.836923742646555e-05,-0.00013222897229502625,-5.599892592932127e-05,6.0179462916447546e-05,0.00015008697096914137
8.080808080808081,0.4050632911392405,-3.0021386084267597e-06,0.00014211946106746168,2.0298722468226087e-05,-4.173519673771047e-05,0.00014788418026596216
8.181818181818182,0.4050632911392405,-6.266463832125778e-05,0.0001286885102062216,-2.9285602038627398e-05,-1.9807161565489146e-05,0.00017642207334542863
8.282828282828282,0.4050632911392405,4.901105494736136e-05,0.00011277228666231687,-3.491678856931064e-05,-4.853500248290347e-05,0.00011510920805885373
8.383838383838384,0.4050632911392405,0.0002912918092113858,6.251178836631589e-05,5.750476920346861e-05,-0.00010614107927331049,0.0002836721088009299
8.484848484848484,0.4050632911392405,-7.257071761689614e-06,4.4332691312834955e-05,-9.105106150364131e-05,-1.11226858653436e-05,0.00016495655650703648
8.585858585858587,0.4050632911392405,6.73022118956231e-05,0.0001667618161615816,-5.352630261520772e-05,-7.02192084171614e-05,0.00017236834739334006
8.686868686868687,0.4050632911392405,0.00012603576572667487,-8.361026873710773e-05,8.245495136336602e-05,-1.2727649096870141e-05,0.0002319698957548161
8.787878787878787,0.4050632911392405,-4.3456690397114544e-05,0.00014238194674740575,-2.2889130657979777e-05,-2.9677576905087362e-05,0.00017297481835407843
8.88888888888889,0.4050632911392405,-0.0001468778393583965,-0.0002040468844470126,2.1300917376704454e-05,0.00010527741714162273,0.00018600928061524618
8.98989898989899,0.4050632911392405,-9.819200428433089e-05,8.470892563008139e-05,-8.264523845940696e-06,4.04492359627485e-06,0.0001591851690276676
9.09090909090909,0.4050632911392405,5.075264052354241e-05,0.00014635946317853476,-3.257438628336936e-05,-5.9133631110623144e-05,0.00014054204241192904
9.191919191919192,0.4050632911392405,8.159482618496371e-05,-6.881853833139203e-05,-1.475234947294802e-05,-3.832886356071504e-06,0.00013289785173806564
9.292929292929292,0.4050632911392405,-0.00010197776168720885,8.730509766039194e-05,-2.1883708453893278e-05,4.40179920804507e-06,0.00016840876606221745
9.393939393939394,0.4050632911392405,-7.352988127415534e-05,0.00010391041752039221,-1.6218119385819257e-05,-9.114160873871061e-06,0.0001569510151675166
9.494949494949495,0.4050632911392405,-5.64760865379582e-06,3.44712303227305e-06,4.353215201794823e-05,6.601456864568311e-07,7.581814374221438e-05
9.595959595959595,0.4050632911392405,-5.9853053513180525e-05,9.265204403489024e-05,4.708091032143408e-05,-9.839697156512915e-06,0.0001560837383538256
9.696969696969697,0.4050632911392405,0.00024406653510621734,0.00012666730826702916,-6.747755368215601e-05,-0.00011122015301197395,0.00024157295017279733
9.797979797979798,0.4050632911392405,0.00022505643531372092,5.8545260943678425e-05,2.1104700032892266e-05,-8.50805088772198e-05,0.0002055193032613279
9.8989898989899,0.4050632911392405,-0.00019602604764661178,0.00011916090743889652,-4.583490492792724e-05,2.3059542062314577e-05,0.0002868565677583485
10.0,0.4050632911392405,0.00017084798780150616,5.423709770145613e-05,3.0075586829399983e-05,-6.752552565088868e-05,0.00015993130233263203
0.0,0.5063291139240507,-9.965111542188463e-05,-2.9803121067852706e-05,4.743935547023822e-06,3.88362709469212e-05,8.897286859581867e-05
0.10101010101010101,0.5063291139240507,3.0317913583311498e-06,-1.5010195587196505e-06,-4.876915661882684e-05,-4.5923153988344974e-07,8.456528548179749e-05
0.20202020202020202,0.5063291139240507,-0.0001558742298963162,4.772664650063449e-06,-6.7893279298721216e-06,4.5330469573875824e-05,0.0001587506668386991
0.30303030303030304,0.5063291139240507,-9.747347009620334e-05,9.56167617955049e-05,9.750329473866267e-05,5.570124902095315e-07,0.00023766450625852252
0.40404040404040403,0.5063291139240507,3.356289720046306e-05,-2.5471746297768928e-05,-4.9157593762341415e-05,-2.42734527080824e-06,9.939612972327049e-05
0.5050505050505051,0.5063291139240507,-8.039014067085174e-05,8.262291128236353e-05,-0.00012542620198801465,-6.698311834535376e-07,0.00025908759924375365
0.6060606060606061,0.5063291139240507,-4.930102177118745e-05,8.642356497463515e-05,8.405775344716197e-05,-1.113676296103431e-05,0.00018803593043011172
0.7070707070707071,0.5063291139240507,-0.00010968944908881171,-0.00010321660923534007,-1.9834481686237423e-05,6.387181749724553e-05,0.0001119995118332815
0.8080808080808081,0.5063291139240507,-1.8951579320239036e-05,-5.310051235601976e-05,-4.792708381417357e-05,2.1615627502877637e-05,9.520243845687531e-05
0.9090909090909091,0.5063291139240507,0.0001732947743087181,-0.00011708276804785797,3.8809612259004225e-05,-1.6863601878258043e-05,0.00026181643044666686
1.0101010101010102,0.5063291139240507,-5.4227659393947716e-05,2.5898754604238557e-05,-4.4844134331385967e-05,8.498671436912748e-06,0.00010511328426320256
1.1111111111111112,0.5063291139240507,1.7588174892709593e-05,-3.435068427149953e-05,2.3345406061685193e-05,5.028752813636981e-06,6.106147067654914e-05
1.2121212121212122,0.5063291139240507,6.351930108589873e-05,-0.00013388038303832695,4.928607226305169e-06,2.110832458572847e-05,0.00017474415709891618
1.3131313131313131,0.5063291139240507,3.9625359744122764e-05,-3.3781280280291645e-05,0.00010294526584603145,-1.7532238391493355e-06,0.00018932280025469892
1.4141414141414141,0.5063291139240507,1.066082931060211e-06,4.317548442852332e-06,1.1928615861888545e-05,-1.6150894121737628e-06,2.1024997546131155e-05
1.5151515151515151,0.5063291139240507,3.826098056866545e-05,-0.00010352517442784322,9.726812282752912e-06,1.957925815775333e-05,0.00012816462730837362
1.6161616161616161,0.5063291139240507,5.571745222967053e-05,0.0001091025086126647,-1.149228271158324e-05,-4.9445988252700565e-05,9.656653531398801e-05
1.7171717171717171,0.5063291139240507,1.1136727335887319e-05,-3.12725959108164e-05,-8.812502836028337e-05,6.040760572478725e-06,0.00015731604557387495
1.8181818181818181,0.5063291139240507,9.181530204750601e-05,-4.8393433588481514e-05,-2.252116487112845e-05,-1.3026560537707349e-05,0.00012937094120418825
1.9191919191919191,0.5063291139240507,6.537634347390709e-05,0.0001394541718798632,4.459743266732939e-06,-6.144915460613108e-05,0.00012109581508477077
2.0202020202020203,0.5063291139240507,-1.4052519226493339e-05,-4.53625889222139e-06,1.504886217550045e-05,5.5766334356144194e-06,2.8874033912506136e-05
2.121212121212121,0.5063291139240507,0.00013582607715807135,8.965330743094206e-05,-0.00010239730204246399,-6.764381537670402e-05,0.00021392709999808985
2.2222222222222223,0.5063291139240507,0.00022279071857142702,-0.00015413829534444045,3.609049597946247e-05,-2.059572696809597e-05,0.0003341294235061562
2.323232323232323,0.5063291139240507,5.555446556943235e-05,-8.417661818833382e-05,1.9349020306661782e-05,8.58664578567044e-06,0.0001263785681660765
2.4242424242424243,0.5063291139240507,8.474101187509581e-06,2.0807213851524026e-06,-4.816381282074468e-05,-3.166446771798595e-06,8.377210839625069e-05
2.525252525252525,0.5063291139240507,-3.819225549148708e-05,-0.00011439963618152158,4.755316730366105e-05,4.57775675019026e-05,0.00013023308399421254
2.6262626262626263,0.5063291139240507,-3.023638104612341e-05,-4.856861227491157e-05,-2.9170485145140424e-05,2.3641497996310492e-05,6.60103126811257e-05
2.727272727272727,0.5063291139240507,-0.00010901461120169793,-5.594129130980301e-05,-8.94088839106092e-05,4.948677075345028e-05,0.00018137541446687004
2.8282828282828283,0.5063291139240507,-7.453879550472154e-05,-3.522116559194749e-05,5.441980876919107e-05,3.292798832900071e-05,0.00011426183107617325
2.929292929292929,0.5063291139240507,7.869698199681506e-05,-0.00011326826671749924,-1.8709748730736526e-05,1.0371385416205254e-05,0.00017025554340453338
3.0303030303030303,0.5063291139240507,-1.8878340612307068e-05,-2.3852594633346907e-05,2.238377599934268e-05,1.281928057369619e-05,4.447629585529453e-05
3.131313131313131,0.5063291139240507,2.64048197739648e-06,4.9499881366611836e-05,3.83919622933085e-05,-1.5642109003202495e-05,8.214825111919464e-05
3.2323232323232323,0.5063291139240507,-3.6296735815166024e-06,4.80184341784968e-05,0.00010938300058353816,-1.3316628179094058e-05,0.00019592641027488204
3.3333333333333335,0.5063291139240507,4.887857749788186e-05,-3.630872105826241e-05,-2.6001453027445077e-05,-3.770956931885836e-06,8.666247098839095e-05
3.4343434343434343,0.5063291139240507,-7.28874737550584e-05,-5.9043246056547286e-05,2.4596437491373555e-05,3.9579215943481705e-05,7.943632607144799e-05
3.5353535353535355,0.5063291139240507,-0.0001550853741702121,0.00023066116210996627,-3.6246115230391227e-07,-2.267273638192625e-05,0.0003361972810033652
3.6363636363636362,0.5063291139240507,6.687756437995361e-06,3.775825854704592e-06,2.6394178642823504e-05,-3.1390746878099858e-06,4.608350184261495e-05
3.7373737373737375,0.5063291139240507,-0.00020688132254315856,8.149446370068107e-05,-1.7604583527097383e-05,3.761605765274325e-05,0.00025928878831314327
3.8383838383838382,0.5063291139240507,2.2481636364615588e-05,-0.0004289049411898362,-2.3072471303991455e-05,0.00012192699144756617,0.000442384871203486
3.9393939393939394,0.5063291139240507,3.642435282523926e-05,3.9932697921718554e-06,-6.2872749967875e-05,-1.2125286785223334e-05,0.00011426362273314691
4.040404040404041,0.5063291139240507,-5.2738810586331864e-05,0.0001725927293807838,-4.224902262366157e-05,-3.595617563833558e-05,0.0002168568822484651
4.141414141414141,0.5063291139240507,0.00010959311263633447,-0.00017260661035511864,1.6115951137093227e-05,1.8904049315635252e-05,0.000247990644196889
4.242424242424242,0.5063291139240507,6.752965476233057e-05,-1.004920916152362e-05,-6.808686127143922e-05,-1.7244133680242087e-05,0.00013873472000833957
4.343434343434343,0.5063291139240507,4.668915803283534e-05,-7.660666088009951e-05,-6.229166070417203e-06,8.975250854179251e-06,0.00010835850679577927
4.444444444444445,0.5063291139240507,-1.389612005824891e-05,-4.1539620532435904e-05,2.1333361615171252e-05,1.6630722177205442e-05,5.20263358883767e-05
4.545454545454545,0.5063291139240507,6.556981058839274e-05,4.0257107469431043e-05,-2.68725599182223e-05,-3.174807541734713e-05,7.380235281121599e-05
4.646464646464646,0.5063291139240507,9.238637509893662e-05,-6.328987806058398e-05,2.9978164736147385e-05,-8.72894911150579e-06,0.0001452034588643082
4.747474747474747,0.5063291139240507,-4.9675265187159126e-05,3.736575989374169e-05,-2.0545219899423697e-05,3.6928515880252297e-06,8.358411450532749e-05
4.848484848484849,0.5063291139240507,9.808816359221597e-05,-6.035612423665419e-05,-1.91762766225593e-05,-1.1319611806668535e-05,0.00014243440494836755
4.94949494949495,0.5063291139240507,0.00020673149039129204,-1.3579810902180825e-05,9.322692902259876e-05,-5.794550384673336e-05,0.00026796170587518214
5.05050505050505,0.5063291139240507,0.00016145846330910295,0.00013696209279426516,4.130598586295686e-05,-8.952616683101043e-05,0.00016683019692757486
5.151515151515151,0.5063291139240507,-9.924254807960256e-05,2.437134214320473e-05,-3.857874792262544e-05,2.2461361780919347e-05,0.0001316308441644178
5.252525252525253,0.5063291139240507,4.861687456884643e-05,2.162875335061008e-05,9.909239274467443e-05,-2.107368837583695e-05,0.00017674215109931125
5.353535353535354,0.5063291139240507,4.700898658270017e-05,0.00021333780292120348,-5.3385482238828146e-05,-7.810403685117109e-05,0.0002150444098350149
5.454545454545454,0.5063291139240507,-4.250891756629584e-05,2.8357101271520575e-05,-0.00013614782824991755,4.245544888432579e-06,0.0002437729606766483
5.555555555555555,0.5063291139240507,7.945093183535922e-05,-0.00010779714438248025,4.205665761804692e-05,8.50386376413631e-06,0.0001783354867291081
5.656565656565657,0.5063291139240507,-7.562926935629445e-05,-0.0001473069151346153,1.7529348971272124e-05,6.688085534727292e-05,0.00013114966066731922
5.757575757575758,0.5063291139240507,6.701351735403861e-05,4.745225266819825e-05,-3.6794848887518466e-05,-3.433973100667106e-05,8.731648268078594e-05
5.858585858585858,0.5063291139240507,-3.369978883002865e-05,2.451748039549964e-05,5.666179546770709e-05,2.754692530358703e-06,0.00011042958716294177
5.959595959595959,0.5063291139240507,-0.00014731458064747496,0.00019157352204991215,9.37317838282458e-05,-1.3277682420731156e-05,0.0003361257428177247
6.0606060606060606,0.5063291139240507,-4.5794221735015334e-05,1.6651296552597353e-05,4.87580034681501e-05,8.742877554725393e-06,0.00010133577006321036
6.161616161616162,0.5063291139240507,1.8674247854822764e-05,-0.00014084930699519453,1.0176698519277382e-05,3.6652517742111533e-05,0.00015207960172631627
6.262626262626262,0.5063291139240507,-9.20643536532482e-05,-7.098990445649345e-05,8.517333597534198e-05,4.8916277432922485e-05,0.00016953838374287095
6.363636363636363,0.5063291139240507,0.00019302264620920463,-0.000143625479277059,5.66309021033163e-06,-1.4819150079643691e-05,0.00029275450823596714
6.4646464646464645,0.5063291139240507,-4.06300043526293e-05,3.047409205825197e-05,-5.498911084519629e-06,3.0467736883132002e-06,6.251675057762563e-05
6.565656565656566,0.5063291139240507,-9.378098761119083e-05,7.077790679428447e-05,-3.5262541704585074e-05,6.900924245071907e-06,0.00015547459043243806
6.666666666666667,0.5063291139240507,0.00011798099514842125,0.00016131934740765393,-7.688951646131692e-05,-8.379010276682255e-05,0.0001965879526963939
6.767676767676767,0.5063291139240507,0.0001469355713924687,1.915481931300986e-05,-6.529782972834335e-06,-4.9827117211643565e-05,0.00013881771904078265
6.8686868686868685,0.5063291139240507,-2.6993226489279146e-06,6.99860238281506e-05,1.3346546935962222e-05,-2.0186010353766804e-05,7.502423394215194e-05
6.96969696969697,0.5063291139240507,-4.390981529964678e-05,-0.0001027507113217562,-5.0171951562189414e-05,4.399815798642089e-05,0.00012460212667288778
7.070707070707071,0.5063291139240507,-1.2963611993789726e-05,8.38521915141952e-05,1.7403184509948643e-05,-2.126657385612164e-05,9.588996311679197e-05
7.171717171717171,0.5063291139240507,0.0001994274240432007,-0.00013207935721597054,2.3189926543874903e-05,-2.020442004816905e-05,0.0002918386851006635
7.2727272727272725,0.5063291139240507,-5.287770644671696e-05,-6.700801977478845e-06,4.3348785560581195e-06,1.787355252725874e-05,5.0428197098162924e-05
7.373737373737374,0.5063291139240507,2.1790913129631197e-05,3.0120123205209565e-06,-4.257315523078329e-05,-7.440877635045646e-06,7.652256042065873e-05
7.474747474747475,0.5063291139240507,8.35985994643201e-05,9.603214663425089e-05,1.708958702110211e-05,-5.38892238295713e-05,9.517829590330956e-05
7.575757575757575,0.5063291139240507,0.00010769128047783434,-0.00016105155256891426,-1.3383391117301136e-05,1.6008081627323976e-05,0.00023540647371790547
7.6767676767676765,0.5063291139240507,4.233638173174111e-05,-2.678367179403135e-05,4.517075731251768e-06,-4.665812981312927e-06,6.0867643010399726e-05
7.777777777777778,0.5063291139240507,-0.00022827428570379815,-3.0813622753520685e-05,3.34682853502297e-05,7.772637253719565e-05,0.00022222747244574087
7.878787878787879,0.5063291139240507,-3.232668339755708e-05,1.211904220544232e-05,3.2739076624353624e-06,6.062292357634427e-06,4.0197132958292056e-05
7.979797979797979,0.5063291139240507,2.7351806223270503e-05,3.36238288333584e-05,6.349153166454044e-05,-1.8292690516988668e-05,0.00011424768924439527
8.080808080808081,0.5063291139240507,6.829062985399035e-05,4.822761822437394e-05,-9.893427645660194e-05,-3.495547442350929e-05,0.00018182406890872402
8.181818181818182,0.5063291139240507,-0.00011393512901860958,-6.524822314764185e-05,-1.0688980084861504e-05,5.375500564987543e-05,0.00010073352178700878
8.282828282828282,0.5063291139240507,0.00023884691854231233,-2.645492555280197e-06,-4.353570594942488e-05,-7.086042779610964e-05,0.00025173952798560994
8.383838383838384,0.5063291139240507,-8.523035483401777e-05,0.00016258275807881693,4.018460750119286e-07,-2.320572097343975e-05,0.00021807071607944642
8.484848484848484,0.5063291139240507,7.048103612018599e-05,2.8772157029717312e-05,4.5056092189551833e-05,-2.977595794497099e-05,9.928583163790635e-05
8.585858585858587,0.5063291139240507,3.5943666967642084e-05,-7.311776967909108e-05,2.0306187798166573e-05,1.1152230813434698e-05,0.0001024856086939557
8.686868686868687,0.5063291139240507,8.555691387311034e-05,-9.790881768367757e-05,-1.1470261001849763e-05,3.705571143170169e-06,0.00016024231350064366
8.787878787878787,0.5063291139240507,0.0001432783076364145,-0.00011026884004568482,-2.309195346865986e-05,-9.9028402772189e-06,0.0002238006663438434
8.88888888888889,0.5063291139240507,3.320848571795963e-05,5.861742825443429e-05,-3.51066121905216e-05,-2.7547774191718176e-05,7.930720678677201e-05
8.98989898989899,0.5063291139240507,-0.00011518577896473228,7.063944893762293e-05,-6.616977523505641e-06,1.3363899008132805e-05,0.0001628671499968071
9.09090909090909,0.5063291139240507,-0.00012659968593450933,7.43694159444924e-05,-3.011005714756268e-05,1.566908099700508e-05,0.00018355729850004718
9.191919191919192,0.5063291139240507,-1.0553400710107e-05,-2.145012006441737e-05,-6.329342686003027e-05,9.601056232357309e-06,0.0001111903046855449
9.292929292929292,0.5063291139240507,3.787524694361983e-05,3.061003782196512e-05,-7.013406283248976e-05,-2.054558542967548e-05,0.00012636655535867356
9.393939393939394,0.5063291139240507,2.8139290389028578e-05,-9.83703975733219e-06,-1.8438110006088184e-05,-5.490675189508916e-06,4.674704306023246e-05
9.494949494949495,0.5063291139240507,2.2062908423232714e-06,0.0001739748617992876,-3.2644768113585846e-05,-5.285434579248326e-05,0.00018189371558289004
9.595959595959595,0.5063291139240507,-9.107672485153741e-05,-5.9390266596387536e-05,2.994839330140227e-05,4.5140097434377486e-05,9.541394756753557e-05
9.696969696969697,0.5063291139240507,-0.00013074546859974653,-4.334435737297381e-05,3.37986594240011e-05,5.22269477918161e-05,0.00012935640956728
9.797979797979798,0.5063291139240507,-0.0001193189803260136,7.042129430870903e-05,2.366871932812654e-05,1.466930580519137e-05,0.00017111224273034235
9.8989898989899,0.5063291139240507,3.423831841003759e-05,3.1691094454963286e-05,8.842594718618786e-05,-1.977882385950026e-05,0.00015668114928067247
10.0,0.5063291139240507,-7.617082678116875e-05,0.00010113702641941064,-6.127922341794127e-06,-7.489859891472564e-06,0.00015442486257958584
0.0,0.6075949367088608,-0.00015203928501662003,1.8975776469905514e-05,-9.180256798716267e-05,3.9919052564014354e-05,0.00022725365175335104
0.10101010101010101,0.6075949367088608,9.073382882024687e-06,-0.00011840465082573934,2.7618889933348634e-05,3.27993803831144e-05,0.00013215418112755544
0.20202020202020202,0.6075949367088608,0.000164218813417861,0.0001149770615170614,1.3605883933588254e-05,-8.375876248047671e-05,0.0001478563727936911
0.30303030303030304,0.6075949367088608,-8.601787793713045e-05,0.00014423140970703225,4.59849276615781e-05,-1.746405953097054e-05,0.00021668432195681887
0.40404040404040403,0.6075949367088608,-7.58918280746027e-05,-5.5001266246745554e-05,-1.339149671843896e-05,3.926792829640447e-05,7.17534582333623e-05
0.5050505050505051,0.6075949367088608,-0.00015583021652189945,0.0001943093150770916,3.0531181607577456e-05,-1.1543729566557643e-05,0.0003084070169414767
0.6060606060606061,0.6075949367088608,-5.498405306887592e-06,0.00014646407833028384,-8.950369033200661e-06,-4.228970190701887e-05,0.00015009198807767655
0.7070707070707071,0.6075949367088608,2.4533157254913163e-05,0.00016946267308895146,1.8335411348007038e-05,-5.819874910315939e-05,0.00016177323912044234
0.8080808080808081,0.6075949367088608,-0.00014809046253706472,-1.534347477876257e-05,7.98380445515471e-06,4.903018119474819e-05,0.0001417222933646997
0.9090909090909091,0.6075949367088608,-8.840718680038172e-05,-3.957635237561628e-05,1.0488133585814235e-05,3.8395061752799395e-05,7.882440742758141e-05
1.0101010101010102,0.6075949367088608,8.561682152220758e-05,8.495313827313505e-05,-2.928696567497104e-05,-5.1170987938602785e-05,9.923223885450897e-05
1.1111111111111112,0.6075949367088608,4.359883254541065e-05,0.00011206927370665035,-2.29963021955522e-05,-4.67004318756183e-05,0.0001056445954824207
1.2121212121212122,0.6075949367088608,-4.2969634878288594e-05,-6.8594947361228804e-06,-0.0001203022441944207,1.4948738884323443e-05,0.00021217111509343035
1.3131313131313131,0.6075949367088608,0.00011898666146886444,-4.6926385654886895e-05,-2.7353895514204712e-05,-2.1618082744193264e-05,0.0001555256636102827
1.4141414141414141,0.6075949367088608,3.7088568382655183e-06,0.0001599179513089826,-9.163005937121686e-06,-4.908804244417443e-05,0.00015889076756075643
1.5151515151515151,0.6075949367088608,0.00012874117842334235,1.019577352994172e-05,1.8063133336500098e-05,-4.1681085585985215e-05,0.000127845450753318
1.6161616161616161,0.6075949367088608,1.55360556471568e-05,-7.487111433600229e-05,1.652244684357866e-05,1.7800517606653647e-05,8.848292679817785e-05
1.7171717171717171,0.6075949367088608,9.211140087130956e-06,2.5063080523780146e-05,-8.41217422987078e-05,-1.028226618327333e-05,0.0001473483835793161
1.8181818181818181,0.6075949367088608,-0.00010224776628791795,3.8027577120456934e-05,-8.189662035756534e-06,1.9266056750238306e-05,0.00012645216029474933
1.9191919191919191,0.6075949367088608,0.00010028024783455637,-1.9035406073441006e-05,1.6521530161353305e-05,-2.4373452528334607e-05,0.00011465702292242916
2.0202020202020203,0.6075949367088608,7.275620456821329e-05,1.903052927711664e-05,5.1045943990110964e-05,-2.7536020153598976e-05,0.0001099459069730941
2.121212121212121,0.6075949367088608,-0.00013872424187015968,3.730858646692243e-05,6.461734031663671e-06,3.0424696620971173e-05,0.00016105034399084464
2.2222222222222223,0.6075949367088608,-0.0001517298267487406,4.986309035070612e-05,1.2844149976709407e-06,3.056002091941034e-05,0.00018187615382521613
2.323232323232323,0.6075949367088608,-4.9896103978706245e-05,-0.00014614234611301307,-1.8891174506163425e-05,5.881153502751579e-05,0.00013276257848124807
2.4242424242424243,0.6075949367088608,1.7463920423436573e-05,-8.715129034444627e-05,3.3559960584581965e-05,2.090621097630291e-05,0.00011314217599087181
2.525252525252525,0.6075949367088608,4.3088957256641147e-05,-0.000167712916605718,-7.945810517587877e-05,3.738718780472306e-05,0.00023696334476727539
2.6262626262626263,0.6075949367088608,-0.000118228921795897,0.0001118755301798982,-3.7943827060128336e-05,1.9060174847996389e-06,0.00020985789846101607
2.727272727272727,0.6075949367088608,0.0001549632087445668,3.340483247239274e-05,-7.495190790854051e-05,-5.651041236508786e-05,0.00019184974424485207
2.8282828282828283,0.6075949367088608,5.2972115228215716e-05,-1.0499479135337018e-05,-2.8812417050533246e-05,-1.2741790827863609e-05,7.722000907368269e-05
2.929292929292929,0.6075949367088608,-1.6508406899966607e-07,0.00014325596376556847,0.0001037517260025356,-4.292726390897064e-05,0.00022986780903396252
3.0303030303030303,0.6075949367088608,-5.637995057073387e-06,-0.00019201059726568775,3.479375434399039e-05,5.9294577696828334e-05,0.0001986180195157275
3.131313131313131,0.6075949367088608,5.474888404482253e-05,-5.5536210917824884e-05,1.1802987720377694e-05,2.3619806190070706e-07,9.76738867685397e-05
3.2323232323232323,0.6075949367088608,-2.1000259572672373e-05,2.806334676888906e-05,-1.0872950799453523e-05,-2.118926158865006e-06,4.661076139559546e-05
3.3333333333333335,0.6075949367088608,1.932829664203491e-05,8.687157577376475e-05,-1.288734093848048e-05,-3.18599617247399e-05,8.209399985124988e-05
3.4343434343434343,0.6075949367088608,7.983539739066552e-05,-2.1158858277931036e-05,1.904665582839513e-05,-1.7602961733820347e-05,9.797417574972737e-05
3.5353535353535355,0.6075949367088608,0.00019350409209244434,3.659968701152893e-05,0.00010748347295312744,-6.903113373119198e-05,0.000257602935569505
3.6363636363636362,0.6075949367088608,1.8561970150114127e-06,-8.987685773219948e-05,5.24529465406023e-05,2.6406198215156417e-05,0.0001284603401077061
3.7373737373737375,0.6075949367088608,-4.535721024872099e-06,4.839545322864022e-05,-8.399910185693999e-05,-1.3157919661130435e-05,0.00015410953335681754
3.8383838383838382,0.6075949367088608,-7.315096095622813e-05,0.00010598048149367086,-5.01431209494679e-05,-9.84885616123282e-06,0.00017854550497275085
3.9393939393939394,0.6075949367088608,-8.227646523383435e-05,-0.00013566822988566167,-3.623553699331495e-06,6.53834085358488e-05,0.00011854270688825788
4.040404040404041,0.6075949367088608,0.0001069726820144076,3.625564597052865e-05,-1.9470640753297776e-05,-4.296849839548088e-05,0.00010008286780711029
4.141414141414141,0.6075949367088608,6.521644670584407e-05,-0.00010687555797681194,2.53288520298403e-05,1.249773338129036e-05,0.00015674905479840008
4.242424242424242,0.6075949367088608,-7.045512080630426e-06,8.009362417624096e-05,3.7999257959475036e-05,-2.1914433628683163e-05,0.00010658686263930748
4.343434343434343,0.6075949367088608,-2.988068309509865e-06,-1.3836024358362737e-05,9.431503119601246e-06,5.04722780036178e-06,2.063688178087518e-05
4.444444444444445,0.6075949367088608,-0.00011772479973925983,-4.0067723601137886e-05,-5.956217337815081e-06,4.733775700211931e-05,0.00010418260788730481
4.545454545454545,0.6075949367088608,7.176303327592517e-05,-8.157543035653307e-05,-6.591168444653038e-05,2.943719124182371e-06,0.0001751902809682258
4.646464646464646,0.6075949367088608,-5.7260994503612095e-05,-7.03122460305314e-05,-1.7566127381594734e-05,3.827197216024305e-05,7.15694822774975e-05
4.747474747474747,0.6075949367088608,4.3041269414736116e-05,3.226329399360556e-05,6.935581776950991e-05,-2.25913690225025e-05,0.0001262359150899478
4.848484848484849,0.6075949367088608,0.00014399294721596656,0.00017074609098173438,1.7072324955108542e-05,-9.442171145931028e-05,0.00016179108877047526
4.94949494949495,0.6075949367088608,-2.3392366536144954e-05,0.00011900791588145044,2.7698255720105852e-05,-2.8684664803591644e-05,0.0001406966373209341
5.05050505050505,0.6075949367088608,8.566633152531058e-05,-4.7812491945714514e-05,-1.646454574056232e-05,-1.135615187387882e-05,0.00012055670586269959
5.151515151515151,0.6075949367088608,-2.1774531073226386e-05,-0.00016563097104820696,-0.00011647233839920832,5.622165063643e-05,0.0002549482866869125
5.252525252525253,0.6075949367088608,0.0001319885094344915,7.29492624615177e-05,-5.176928718170765e-06,-6.148133156880276e-05,0.00011486730985200309
5.353535353535354,0.6075949367088608,0.0002050753996313413,-0.0002188254997973462,3.6873175986152535e-05,4.125030049801468e-06,0.0003726863816104619
5.454545454545454,0.6075949367088608,8.52541518828813e-05,-2.0162039299092993e-05,8.204279648188934e-05,-1.9527633775136492e-05,0.00017200795669487852
5.555555555555555,0.6075949367088608,3.9371420487764724e-05,3.7416668781159015e-05,-2.419114418466181e-05,-2.303642678067712e-05,5.685598319401573e-05
5.656565656565657,0.6075949367088608,0.00020509778269609438,5.234154115524835e-05,1.8276967609470046e-05,-7.723179715540282e-05,0.00018727452041993314
5.757575757575758,0.6075949367088608,-6.488974543709738e-05,-0.00017240679344858787,3.2364383580361475e-05,7.118896166570557e-05,0.00016090279216104538
5.858585858585858,0.6075949367088608,-0.00010818944229335639,-0.00011492701919595233,-5.257107452970566e-05,6.693493844679261e-05,0.0001441195291603117
5.959595959595959,0.6075949367088608,-9.644962443120357e-05,1.1236084782065736e-05,4.079664169922991e-05,2.556406189474135e-05,0.00012452145892681882
6.0606060606060606,0.6075949367088608,-0.00022109316103533617,0.00013486073070538706,2.2272370516286166e-05,2.586972909898473e-05,0.00031364719552296567
6.161616161616162,0.6075949367088608,5.26843818428648e-06,9.376246202730963e-05,0.00012643341961523773,-2.9709270063478833e-05,0.00023723701814416586
6.262626262626262,0.6075949367088608,0.00026446284215719026,-7.384455852452876e-05,0.00010911891971295339,-5.718548508979845e-05,0.00036144649873632364
6.363636363636363,0.6075949367088608,-2.2366283676984473e-05,-0.000164567116255875,-6.952493739709985e-05,5.608001997985784e-05,0.00019596678890164987
6.4646464646464645,0.6075949367088608,-6.31244990334092e-05,-7.481223800723206e-05,6.666192506000098e-05,4.138102111219238e-05,0.0001348722545455902
6.565656565656566,0.6075949367088608,9.750067341618863e-06,5.197340480863695e-05,-1.4409658325220208e-05,-1.8517041645076743e-05,5.396729734626225e-05
6.666666666666667,0.6075949367088608,8.598347492929665e-05,9.74401636267261e-05,-9.330872219314145e-05,-5.5027091566806824e-05,0.00018608882957922413
6.767676767676767,0.6075949367088608,6.434013121054973e-05,-0.00010870642552756567,6.704088237356799e-06,1.3309888295104781e-05,0.0001519399865549789
6.8686868686868685,0.6075949367088608,-5.8038069675307484e-05,-0.00010620045622596298,-4.981828025976982e-05,4.9271557770381134e-05,0.0001262096196823743
6.96969696969697,0.6075949367088608,8.90160463904828e-05,2.0454720088755484e-05,-2.9636986486770024e-06,-3.284122994377148e-05,8.091850409898489e-05
7.070707070707071,0.6075949367088608,-5.528244133153936e-05,-9.547841757459373e-05,3.204593915251261e-05,4.522825767183993e-05,9.98740365291576e-05
7.171717171717171,0.6075949367088608,-9.065167062243464e-05,0.00012683248224476938,-2.3553134393517053e-05,-1.0854243486700421e-05,0.00019356143924595097
7.2727272727272725,0.6075949367088608,5.456995100397674e-05,-4.650974179222534e-05,6.55564417459891e-05,-2.4180627635254195e-06,0.00014342946394709503
7.373737373737374,0.6075949367088608,-1.2210147034456535e-05,0.00016250724688736076,2.9496620818740945e-05,-4.508912995587126e-05,0.00017649952487002854
7.474747474747475,0.6075949367088608,5.944064727777399e-05,0.00018410410353217744,-5.747468218821982e-05,-7.306342524298543e-05,0.00019077280121561127
7.575757575757575,0.6075949367088608,-6.396358546061189e-05,-2.2943245264738854e-05,-6.410198315973659e-06,2.607204921760522e-05,5.721426803141323e-05
7.6767676767676765,0.6075949367088608,-1.607726817257454e-05,-6.726127139526788e-05,-1.7758839019751097e-05,2.5001561870352724e-05,6.817117260058699e-05
7.777777777777778,0.6075949367088608,0.00015550203037211012,-0.00010358597240273097,-8.318966991090788e-06,-1.5574817390813743e-05,0.00022633245412569228
7.878787878787879,0.6075949367088608,4.835236170038468e-05,-2.509626708021539e-05,1.4460920586298626e-05,-6.976828386050786e-06,6.934401170373738e-05
7.979797979797979,0.6075949367088608,2.151772011624169e-05,0.00010087715300082763,-4.708818398558401e-05,-3.6718461935120793e-05,0.0001229652680448379
8.080808080808081,0.6075949367088608,-1.1337410706481746e-05,-3.908145870803983e-05,-3.2607536597727584e-05,1.5125660824356471e-05,6.635185812628494e-05
8.181818181818182,0.6075949367088608,-9.34756290435229e-05,2.8104786190940756e-05,6.465836009175501e-05,1.961125285577464e-05,0.00015715214090020494
8.282828282828282,0.6075949367088608,6.098120371849179e-05,2.992628438947314e-05,1.847928513113388e-05,-2.7272246432389478e-05,6.175597781832197e-05
8.383838383838384,0.6075949367088608,2.9229033533455585e-05,-0.00021256660757582597,-6.486816996870486e-07,5.500127221271111e-05,0.00022858975900587564
8.484848484848484,0.6075949367088608,-0.000114729156169175,-6.109092760686548e-05,2.940033160211843e-05,5.274602513281214e-05,0.00011170993076792215
8.585858585858587,0.6075949367088608,3.438866788933998e-05,-2.4875262198379258e-05,5.763299692459758e-05,-2.8540217072882167e-06,0.00011234533048851554
8.686868686868687,0.6075949367088608,-0.00024680082725542555,0.00023697446997943665,-7.606253544168968e-05,2.9479071827966703e-06,0.00043921472069910543
8.787878787878787,0.6075949367088608,-4.560607976440859e-05,-5.1914761793626564e-05,-8.921354030299009e-06,2.9256252467410543e-05,5.144122772113803e-05
8.88888888888889,0.6075949367088608,3.036592143124855e-05,6.907898754730652e-05,4.0207875909502525e-05,-2.983347269356652e-05,9.190412641432289e-05
8.98989898989899,0.6075949367088608,0.00022429898875086414,-0.00020574609536525124,-6.321676561686301e-05,-5.565868015683872e-06,0.00038830298943961817
9.09090909090909,0.6075949367088608,-1.140385328306074e-05,0.0001015528145927591,-9.015372671905397e-05,-2.7044688392909507e-05,0.00018969501507291162
9.191919191919192,0.6075949367088608,8.553238949953247e-05,-9.965906549944119e-06,-5.966168316698465e-05,-2.2669944884876507e-05,0.00013764470953349676
9.292929292929292,0.6075949367088608,-1.1026697567881702e-05,7.73556019995535e-05,1.2968638987399412e-05,-1.989867132950154e-05,8.63887194022104e-05
9.393939393939394,0.6075949367088608,-4.382324798911211e-05,8.00848910515938e-06,5.9156063028596584e-05,1.0744427665185818e-05,0.00011328676156226751
9.494949494949495,0.6075949367088608,-5.464782110557491e-05,-0.00011298652502006584,5.10337702624774e-05,5.029030383769222e-05,0.0001318757328042947
9.595959595959595,0.6075949367088608,5.014037378611106e-05,-7.03205429844803e-05,-5.9790873319748144e-05,6.054050759510771e-06,0.00014734238954266257
9.696969696969697,0.6075949367088608,-2.4401410319359423e-07,-8.266348692290033e-05,1.4790714084961232e-05,2.4872250307828177e-05,8.642590020321419e-05
9.797979797979798,0.6075949367088608,6.082612173307964e-05,2.282852368587216e-05,-3.0776186437878075e-06,-2.509639362568554e-05,5.3486477053646636e-05
9.8989898989899,0.6075949367088608,0.00017363471459307987,-1.23596147055252e-05,1.758250840112085e-05,-4.83825299662664e-05,0.00018268898752905194
10.0,0.6075949367088608,1.1330037837554214e-05,-3.6659320344337715e-05,0.00010540115995609754,7.59878475203505e-06,0.00018765884091185824
0.0,0.7088607594936709,0.0001313693961519295,-8.168846502816288e-05,-0.00013296750419792555,-1.4904279337129989e-05,0.0002961475297975382
0.10101010101010101,0.7088607594936709,7.753472834038141e-05,0.00015131405412213995,-6.770207923134822e-05,-6.86546347387564e-05,0.00017585845896628347
0.20202020202020202,0.7088607594936709,7.148978951717742e-05,-0.0002096674411001864,8.1931401759877e-05,4.145329547490269e-05,0.0002901699000216651
0.30303030303030304,0.7088607594936709,-5.9164840112459584e-05,8.903507049196755e-05,-1.6338359031473597e-05,-8.961069113852388e-06,0.00013227355639214275
0.40404040404040403,0.7088607594936709,-1.4072216442624245e-05,8.14566614379907e-06,-7.515141858606377e-05,1.7779650896475525e-06,0.00013161388177571737
0.5050505050505051,0.7088607594936709,-8.463653692090012e-05,-1.932663858393481e-05,3.9170151273884735e-05,3.1188952651450476e-05,0.00010248914495354071
0.6060606060606061,0.7088607594936709,1.582621667261544e-05,0.00011358743956294433,7.720569435591894e-06,-3.8824096870667933e-05,0.00010739524062104765
0.7070707070707071,0.7088607594936709,8.290769018170207e-06,0.00010969688748636146,3.316026821492554e-05,-3.5396296951359496e-05,0.00012038057394448604
0.8080808080808081,0.7088607594936709,-0.00018266499478577245,-8.993597139254354e-05,-6.637664772217967e-07,8.178028985349478e-05,0.00015820286749216396
0.9090909090909091,0.7088607594936709,-4.01333521764213e-05,0.00012135496028790905,-1.1811970631417919e-06,-2.4366482433446324e-05,0.00014564435925394723
1.0101010101010102,0.7088607594936709,-9.857504385903192e-05,-0.000104285373976434,-2.0175688998184734e-05,6.085812535063977e-05,0.00010739515102315677
1.1111111111111112,0.7088607594936709,-5.0293698781315656e-05,0.0002045658119432644,-7.891035535750204e-05,-4.628163394858462e-05,0.0002708238014427171
1.2121212121212122,0.7088607594936709,2.9258085958569347e-05,-5.1356981696432384e-05,8.594042746264627e-05,6.629668721358911e-06,0.0001647830493872495
1.3131313131313131,0.7088607594936709,9.826520486346999e-06,0.00015656635779577252,7.925179696663015e-05,-4.9917863484635854e-05,0.00020472817183589918
1.4141414141414141,0.7088607594936709,-2.0878477273059757e-05,7.325562900748145e-05,2.2975794524573415e-05,-1.571314552032651e-05,9.442153028830915e-05
1.5151515151515151,0.7088607594936709,-0.0003104088340838755,-8.658696072996863e-05,-6.0876433798219254e-05,0.00011909873844415323,0.00029680196949258123
1.6161616161616161,0.7088607594936709,-6.737325877169016e-05,-0.00012497408231348765,2.586460317406988e-05,5.770420232555334e-05,0.00011723778892580121
1.7171717171717171,0.7088607594936709,9.987171699298597e-05,4.623545023891905e-05,1.8154338789925863e-06,-4.383215016957151e-05,8.662765328187653e-05
1.8181818181818181,0.7088607594936709,-0.00014941754728624255,-4.6780388737875267e-05,-7.435321920606432e-05,5.885938080723534e-05,0.0001846873056820856
1.9191919191919191,0.7088607594936709,0.00015212866019318716,-2.7889651444133057e-05,-1.7867559932370276e-05,-3.727170262471623e-05,0.00017065030416354646
2.0202020202020203,0.7088607594936709,-1.9070782108565895e-05,-1.2588937904685061e-05,-7.446048067633453e-06,9.497916003975286e-06,2.1176073562358582e-05
2.121212121212121,0.7088607594936709,5.4029979009094144e-05,-0.0001337369659401948,2.4013816828575785e-05,2.3912096079330192e-05,0.00017251263823015928
2.2222222222222223,0.7088607594936709,-6.004637869453241e-05,2.405879814808919e-05,0.00011363262529804903,1.0796274163932965e-05,0.00021063275543840187
2.323232323232323,0.7088607594936709,1.6934641584265178e-05,6.592520657720646e-05,-1.1933721221463135e-05,-2.485795444844149e-05,6.279917443451016e-05
2.4242424242424243,0.7088607594936709,6.76734780657404e-05,-6.419265232493599e-06,-4.292174082637572e-05,-1.837626384997404e-05,0.00010286956844105247
2.525252525252525,0.7088607594936709,0.00013663806431014745,-0.00013537600030550956,3.489108171413876e-05,-3.786192013913647e-07,0.00024320012225014238
2.6262626262626263,0.7088607594936709,-0.00011273504472501682,-0.00010109627167094207,-7.892726136777246e-05,6.414939491878767e-05,0.0001738421453722036
2.727272727272727,0.7088607594936709,-5.4939311198045317e-05,4.678778987004854e-05,1.2665458975113315e-05,2.445456398399032e-06,9.087989710012698e-05
2.8282828282828283,0.7088607594936709,0.00012061466404771918,-4.80744915563322e-05,4.9093115201371675e-05,-2.1762051747416095e-05,0.00017288130162224424
2.929292929292929,0.7088607594936709,-0.0001044795918773264,-7.077368314096839e-05,7.925426741760391e-05,5.257598250548844e-05,0.0001654515352774658
3.0303030303030303,0.7088607594936709,-0.00016880188916357315,-3.0816315960697457e-05,-9.765926889742776e-06,5.988546153728118e-05,0.0001566141460641435
3.131313131313131,0.7088607594936709,-0.0001073058711636592,6.294754619202322e-05,5.3871075871458435e-05,1.3307497491490794e-05,0.00017589162369534186
3.2323232323232323,0.7088607594936709,1.9329481163133877e-05,-5.9062449645239605e-05,-5.7229888038849945e-05,1.1919890544631718e-05,0.00012177614118872593
3.3333333333333335,0.7088607594936709,4.1708621357932684e-05,6.257742631396837e-05,4.645294215775964e-05,-3.1285814301570315e-05,9.756614528263782e-05
3.4343434343434343,0.7088607594936709,-5.753118127765379e-05,9.905222715608948e-06,4.41340262082684e-05,1.4287787568613451e-05,9.910220092385272e-05
3.5353535353535355,0.7088607594936709,0.00026673353487369347,0.0002474147238954793,9.271748777588139e-06,-0.00015424447763075184,0.0002581180278830523
3.6363636363636362,0.7088607594936709,-6.976221685084109e-05,0.00012508330039588203,1.79025750747437e-06,-1.6596325063512283e-05,0.0001710213505102093
3.7373737373737375,0.7088607594936709,-0.00021781723084855913,-5.971174122249399e-05,6.370671621648326e-05,8.325869162131593e-05,0.0002240072075746443
3.8383838383838382,0.7088607594936709,-1.419726371483239e-05,0.00012211583306799908,-1.0998934351623606e-05,-3.2375570805950006e-05,0.00013118871650914465
3.9393939393939394,0.7088607594936709,0.00015739735863397209,0.00011689161236006193,2.2634027755550578e-05,-8.22866912982102e-05,0.00014688786250219383
4.040404040404041,0.7088607594936709,-1.870006140252736e-05,8.317443239074293e-05,1.1282233783348042e-05,-1.9342311296464672e-05,9.59422320473845e-05
4.141414141414141,0.7088607594936709,1.859223237620431e-05,-0.00018301041669417948,7.687261962255687e-08,4.932545529539255e-05,0.00019297946431149376
4.242424242424242,0.7088607594936709,-4.734457043052838e-05,-6.141481747820703e-05,2.5307483799916815e-05,3.262781637262062e-05,7.090159527406195e-05
4.343434343434343,0.7088607594936709,0.00014143671033314028,-9.282617905355388e-05,-8.240551778951658e-05,-1.458315938387592e-05,0.0002492430140087136
4.444444444444445,0.7088607594936709,2.9996553553598395e-05,-2.1434160629164116e-05,1.0535029682163674e-05,-2.5687178773302836e-06,4.832316178989187e-05
4.545454545454545,0.7088607594936709,2.2292696363399617e-06,5.8065179296468196e-05,-4.0291847688529625e-05,-1.8088334679842447e-05,9.00965633039089e-05
4.646464646464646,0.7088607594936709,2.944822220390344e-05,2.9590950296656293e-05,3.2501481211974815e-05,-1.771175175016792e-05,6.356461353446675e-05
4.747474747474747,0.7088607594936709,6.220503279698299e-07,0.0002659796013700992,-1.0810250796237251e-05,-7.99804955094207e-05,0.00026632811935688367
4.848484848484849,0.7088607594936709,-6.375232941339827e-05,-3.150550871677156e-05,-4.8057500785043504e-05,2.8577351439050947e-05,9.98848194682359e-05
4.94949494949495,0.7088607594936709,-2.116618764753283e-05,0.00013846118190664753,-2.5818509550881743e-05,-3.518849827773441e-05,0.00015668435805446087
5.05050505050505,0.7088607594936709,3.851296945781312e-05,0.00012026317785177484,-8.928370473960797e-05,-4.7632844192876384e-05,0.00018769530751739535
5.151515151515151,0.7088607594936709,-0.00012688231813850668,3.5199339327539394e-05,-0.00013013260867827045,2.7504893643290182e-05,0.00026945830371386627
5.252525252525253,0.7088607594936709,-0.0002079644147072925,-0.00010110255380409278,-2.233644685277151e-05,9.272009055341558e-05,0.00018423338817107925
5.353535353535354,0.7088607594936709,-3.504410779162637e-05,2.379850665021596e-05,-5.272840213286257e-05,3.3736803424231235e-06,0.00010473446909435311
5.454545454545454,0.7088607594936709,-4.305394296664481e-05,-2.4790748964405267e-05,2.1856577926307223e-07,2.035340757931502e-05,3.743029602042904e-05
5.555555555555555,0.7088607594936709,-3.2722560523744366e-05,-1.1833390481588096e-05,-2.7056074465850783e-05,1.3366785301599738e-05,5.495152188784196e-05
5.656565656565657,0.7088607594936709,3.75962501549073e-06,7.053312950270913e-05,1.3035437159048125e-05,-2.2287826355459956e-05,7.23439485056372e-05
5.757575757575758,0.7088607594936709,-7.262741893199812e-05,6.861876524900958e-06,-1.2778685160422754e-05,1.9729662722129148e-05,7.943596222422308e-05
5.858585858585858,0.7088607594936709,5.174101307347133e-06,0.00010083066278950273,3.655795867530669e-05,-3.180142922905496e-05,0.00011696725544469938
5.959595959595959,0.7088607594936709,0.00013837161990688674,-4.214867023575292e-05,-9.322170850145081e-05,-2.8866884901340142e-05,0.00022983963144664345
6.0606060606060606,0.7088607594936709,-0.00012248577516661328,-0.00021864810676466495,1.935409561871975e-05,0.00010234016457938346,0.00019274911132301413
6.161616161616162,0.7088607594936709,8.843333407950387e-06,-1.2657772199201375e-06,5.640897980395255e-06,-2.273266856409075e-06,1.3655021705814467e-05
6.262626262626262,0.7088607594936709,-1.4462236578846989e-05,-1.9265901471850888e-05,6.798790620784354e-06,1.0118441415209364e-05,2.0985087159950945e-05
6.363636363636363,0.7088607594936709,-1.4636734682501288e-05,5.757166287229603e-05,-2.289461218298713e-05,-1.2880478456938421e-05,7.709657141382878e-05
6.4646464646464645,0.7088607594936709,-3.709140594492471e-05,-0.00016925762722912695,3.7902688666826416e-05,6.190470995221549e-05,0.00016749852188571132
6.565656565656566,0.7088607594936709,-1.41484679782521e-05,-5.1189920773213074e-05,2.230649997112741e-05,1.9601516625439552e-05,5.990883075904678e-05
6.666666666666667,0.7088607594936709,-6.765057751134019e-05,2.8517591349427747e-05,-6.074167340532022e-05,1.1739895848573733e-05,0.0001356013932164701
6.767676767676767,0.7088607594936709,4.245147095917516e-05,-1.4904909241624316e-06,-1.541040956391177e-05,-1.2288294010503818e-05,5.0794336798084175e-05
6.8686868686868685,0.7088607594936709,-0.00022531761205527576,-0.0002288174431689138,-1.605878706488419e-05,0.00013624051656725686,0.00022878483917258
6.96969696969697,0.7088607594936709,4.669924156900647e-05,0.00013133838268030863,-1.430566761762846e-05,-5.341128727479453e-05,0.00011794551049568381
7.070707070707071,0.7088607594936709,7.620331681327225e-05,0.00018125558333822168,-2.6063454849674063e-05,-7.723767004544818e-05,0.00016397001670863178
7.171717171717171,0.7088607594936709,1.4996173853148457e-05,-5.135661702144934e-06,7.822071206089245e-05,-2.9581536453010565e-06,0.00013668838616732657
7.2727272727272725,0.7088607594936709,-4.898342011957415e-05,-0.00018485417679807317,2.0844084725751902e-05,7.015127907529419e-05,0.0001697618329528428
7.373737373737374,0.7088607594936709,0.00017559417967611622,-3.3000469799791133e-06,-1.6483534443049273e-06,-5.1688239808841124e-05,0.00017729023237553836
7.474747474747475,0.7088607594936709,0.00013831661521694798,1.3517837199963663e-05,-0.00011878095459874927,-4.555033572507349e-05,0.000244481537150059
7.575757575757575,0.7088607594936709,7.887810209877705e-05,2.1832747660165255e-05,-5.8540478715171885e-05,-3.021325492768269e-05,0.00012352028621512613
7.6767676767676765,0.7088607594936709,-0.00020715522174167335,-0.00011334139091939295,3.609570115299766e-05,9.614898379831988e-05,0.00019023405254356415
7.777777777777778,0.7088607594936709,-1.5989107397868163e-07,-1.118654599492341e-05,3.335884096049035e-05,3.4039311206706273e-06,5.8837169869740506e-05
7.878787878787879,0.7088607594936709,7.632276375439026e-05,0.0001414281196162818,-5.985313381874325e-05,-6.532526501120162e-05,0.00016056178003303844
7.979797979797979,0.7088607594936709,2.3117162644342183e-06,7.004569163976916e-05,3.377014197707062e-05,-2.1707222371261017e-05,9.039405208429479e-05
8.080808080808081,0.7088607594936709,-0.00018769656558614704,1.6134579022947792e-05,2.318686120394317e-05,5.146859596895977e-05,0.00020032878485215475
8.181818181818182,0.7088607594936709,-4.959107006447756e-06,-0.00024216650700757445,-4.940996350183218e-06,7.413768420420665e-05,0.0002398781369189788
8.282828282828282,0.7088607594936709,-4.397603951135407e-05,-0.0002711312317286435,0.00010282643451376668,9.453218137199928e-05,0.000308613975728541
8.383838383838384,0.7088607594936709,-7.018609912903268e-05,1.8908529339731718e-05,2.0711848901496798e-05,1.5383270936790288e-05,8.886888635579852e-05
8.484848484848484,0.7088607594936709,1.9191839131768113e-05,-6.171938215210026e-05,3.5701634037091075e-05,1.2758262906099643e-05,9.584329551318144e-05
8.585858585858587,0.7088607594936709,-2.461778690806416e-05,9.732994729699362e-05,-6.81728215369554e-05,-2.1813648116678838e-05,0.00016253554308010796
8.686868686868687,0.7088607594936709,-2.1686624669649746e-05,9.201222550015121e-05,-5.4503760545649364e-05,-2.109768024915044e-05,0.00014086863977247154
8.787878787878787,0.7088607594936709,-1.0032130613726254e-05,0.0001182081239695221,-1.7702273988899444e-06,-3.2452798006738753e-05,0.00012356813776796143
8.88888888888889,0.7088607594936709,0.000246537445487006,-3.161961264105831e-05,2.3968306022374032e-05,-6.447534985378431e-05,0.0002670194179069955
8.98989898989899,0.7088607594936709,4.8067781281211356e-05,-3.706384804027002e-05,8.529546831773358e-06,-3.301179972282401e-06,7.539281714697096e-05
9.09090909090909,0.7088607594936709,2.7642657936259897e-05,-7.443210097838589e-05,1.3542714053451045e-05,1.4036832912637797e-05,9.440323412077048e-05
9.191919191919192,0.7088607594936709,5.8291515887194395e-05,-6.660834358983801e-05,-3.499935291206604e-05,2.495048310793086e-06,0.00012406505427228786
9.292929292929292,0.7088607594936709,0.00019652954378824932,3.689699328832561e-05,8.02290772036767e-06,-7.002796112297248e-05,0.0001814579884769255
9.393939393939394,0.7088607594936709,5.028885739030369e-05,9.016014176610763e-05,2.2955720212194495e-05,-4.2134699746923396e-05,8.777622172731771e-05
9.494949494949495,0.7088607594936709,0.00019295492451506366,-2.265807869495317e-06,-5.627992481913696e-05,-5.720673499367051e-05,0.0002172008871512329
9.595959595959595,0.7088607594936709,8.910533909072645e-05,1.0470272797137203e-05,-6.327761182083729e-05,-2.9872683566359096e-05,0.00013830617966021692
9.696969696969697,0.7088607594936709,-0.00012823487400885712,-0.00011273882393328183,-3.26039030638346e-05,7.229210938264168e-05,0.00013373937317007146
9.797979797979798,0.7088607594936709,3.2536117190858405e-05,-0.00011713979384948306,-8.074136496683122e-05,2.5381102997587398e-05,0.0001953179672623017
9.8989898989899,0.7088607594936709,-2.8470856800871015e-05,7.04579516974721e-05,1.551890444118116e-05,-1.2596128468980323e-05,9.22139907107591e-05
10.0,0.7088607594936709,2.417502616873385e-05,-5.360019324260679e-05,1.1083990660297246e-05,8.82755012216188e-06,7.156649514308799e-05
0.0,0.810126582278481,-7.007618315272764e-05,-5.811909234412697e-05,1.2499913232356487e-05,3.845858264905638e-05,6.844325878296399e-05
0.10101010101010101,0.810126582278481,2.2803555311060934e-05,8.566680504646221e-05,-7.068537987593915e-05,-3.2541108107256944e-05,0.00014454952327528367
0.20202020202020202,0.810126582278481,5.02770407123811e-05,1.949019045264154e-05,2.694989873941733e-05,-2.093016934950679e-05,6.408299598169306e-05
0.30303030303030304,0.810126582278481,9.59677393630355e-05,8.097125944715134e-06,-6.712725525374442e-05,-3.121945959232519e-05,0.00014837962383180538
0.40404040404040403,0.810126582278481,-8.644748605549224e-06,2.682831577867098e-05,-5.876647013771359e-05,-5.4550701519365265e-06,0.00010670945735374386
0.5050505050505051,0.810126582278481,6.440024671237207e-05,7.75893726209609e-05,-2.5754338133667267e-05,-4.259688579999989e-05,8.462024331914002e-05
0.6060606060606061,0.810126582278481,-2.6556412538866042e-05,-2.151133842303883e-05,-4.79298612152814e-05,1.442032528857146e-05,8.653630185423906e-05
0.7070707070707071,0.810126582278481,5.376245158405222e-05,2.2597513647232912e-05,-2.8730635196114248e-05,-2.290798956938554e-05,6.828249619266796e-05
0.8080808080808081,0.810126582278481,7.230368850219941e-05,4.455475668717667e-05,2.3136965149805717e-06,-3.505753355681283e-05,6.33051027987949e-05
0.9090909090909091,0.810126582278481,-0.00013266876166931978,0.00013780912957958734,1.1354542315502466e-05,-1.5421103730802702e-06,0.00023507892287482634
1.0101010101010102,0.810126582278481,-3.5060502126375e-05,-6.013477353011965e-05,6.910856470066065e-05,2.855858269694839e-05,0.0001306332866715321
1.1111111111111112,0.810126582278481,-5.123100428609433e-05,5.5361246556712276e-05,-0.00010219872262011572,-1.2390726811853834e-06,0.00019964827170715859
1.2121212121212122,0.810126582278481,0.00014991931285549304,4.2822654905815496e-05,5.532937136948751e-06,-5.782259032839256e-05,0.00013409503093777292
1.3131313131313131,0.810126582278481,1.5106059808858084e-05,-2.296810574590618e-05,3.1371209258971947e-07,2.3586137811144287e-06,3.3211138936038805e-05
1.4141414141414141,0.810126582278481,0.0001077808417509786,-9.641076137526879e-05,5.8662289497095135e-05,-3.4110241127129437e-06,0.00020402639633025605
1.5151515151515151,0.810126582278481,-8.50739906867653e-05,1.5724666873372886e-05,1.755285521083269e-05,2.0804797144017725e-05,9.872647760831722e-05
1.6161616161616161,0.810126582278481,8.586069908283597e-05,-1.0531528452738441e-06,-6.455590216853794e-05,-2.5442263871268634e-05,0.00014130105000256237
1.7171717171717171,0.810126582278481,-3.172343294265479e-05,2.9165557365743785e-05,2.9607928675996095e-05,7.673626730733018e-07,7.356715203742461e-05
1.8181818181818181,0.810126582278481,6.958363369598422e-05,-1.968146918778822e-05,-3.5822126191242646e-05,-1.4970649352458801e-05,0.00010221753579925785
1.9191919191919191,0.810126582278481,-2.0599144990743655e-05,0.00011460933466565154,-3.432674296286189e-05,-2.8203056902472366e-05,0.0001394828108271359
2.0202020202020203,0.810126582278481,-0.00011606018316306213,7.397279455756994e-05,5.8307695448845e-05,1.2626216581647657e-05,0.00019423336114478607
2.121212121212121,0.810126582278481,-1.8877745420142623e-05,2.711382008822549e-06,-2.0909950215900765e-05,4.849909023396022e-06,4.155218042340419e-05
2.2222222222222223,0.810126582278481,3.611075705169551e-05,7.841400842015772e-05,-7.734278074347778e-05,-3.4357429641555965e-05,0.00015022273956779732
2.323232323232323,0.810126582278481,5.060156705388178e-05,0.0001802447825300016,-5.895140465879102e-05,-6.925390487516501e-05,0.0001906668196148072
2.4242424242424243,0.810126582278481,-2.7465701735796084e-05,8.332128639528936e-06,-3.6847147260333716e-05,5.740071928880144e-06,7.159450875044197e-05
2.525252525252525,0.810126582278481,0.00014861099462950352,-0.00029235426170490556,0.0001568989506278758,4.3122980122620615e-05,0.00047418893049323363
2.6262626262626263,0.810126582278481,-6.083372367427294e-05,0.00015527446345764726,-2.4867754008324464e-05,-2.8332221935012298e-05,0.00019776764222199532
2.727272727272727,0.810126582278481,6.341499038387535e-05,-4.318269448385266e-06,5.745903075494013e-05,-1.7729016280647023e-05,0.00011924165429015006
2.8282828282828283,0.810126582278481,2.6283666657616052e-05,4.8640303674837164e-05,2.3000861411443044e-05,-2.2477191099735962e-05,5.8011926563764866e-05
2.929292929292929,0.810126582278481,5.1561094804053466e-05,5.2660226315824324e-05,3.156921503697578e-05,-3.126639633596334e-05,7.553987705646436e-05
3.0303030303030303,0.810126582278481,9.502488212611419e-06,6.053832968514399e-05,-3.504222312311138e-05,-2.101224536932662e-05,8.284801798041703e-05
3.131313131313131,0.810126582278481,-3.979448325142641e-05,6.32318746860602e-05,2.635693801373665e-06,-7.031217430390137e-06,9.010544543564608e-05
3.2323232323232323,0.810126582278481,0.00011671700922419339,1.5726023784947588e-05,-1.921266100150187e-05,-3.9732909902742296e-05,0.00011463879200093423
3.3333333333333335,0.810126582278481,9.475553489052442e-06,-0.0001522889949407121,5.01189784382734e-05,4.2844032435497896e-05,0.00017961203359023368
3.4343434343434343,0.810126582278481,-3.726858056196543e-05,0.00016645532854323212,-2.8170510315336913e-05,-3.875602439438001e-05,0.00019411494088194352
3.5353535353535355,0.810126582278481,-0.00010263141399549635,2.238713243527303e-05,7.21109276056997e-05,2.4073284468066993e-05,0.00017009400793381677
3.6363636363636362,0.810126582278481,-3.344840309902331e-05,-2.2659106186243535e-05,-4.472331485218614e-05,1.6832252785580053e-05,8.291468217123241e-05
3.7373737373737375,0.810126582278481,3.7534962808625216e-05,-1.501199432339985e-05,1.9374381972264858e-05,-6.756890545567609e-06,5.76524768387659e-05
3.8383838383838382,0.810126582278481,-0.00014164599061932008,2.543473103202151e-05,-6.059988027824019e-05,3.486337787618957e-05,0.00018796349737004142
3.9393939393939394,0.810126582278481,5.9183577680298175e-05,8.198616986716921e-05,4.0029010856017385e-05,-4.2350924264240216e-05,0.00010089181430531395
4.040404040404041,0.810126582278481,-5.3096505256372244e-05,3.311188983036468e-05,2.997972992737396e-05,5.995384627802269e-06,9.148832914945707e-05
4.141414141414141,0.810126582278481,-5.254069452168321e-05,7.08060738230779e-05,-8.803956918282539e-05,-5.4796137904184074e-06,0.00018640579978039998
4.242424242424242,0.810126582278481,-6.220587998447277e-08,0.00017567070555236125,6.004687767801428e-05,-5.2682549901713034e-05,0.00020417642118104016
4.343434343434343,0.810126582278481,-3.683152619062985e-05,0.00026091481251243093,-1.2445675799096846e-05,-6.722498589654032e-05,0.00028197105524998764
4.444444444444445,0.810126582278481,-3.228173772625204e-05,-0.00019023962004938288,2.7277941298854238e-05,6.675640733269048e-05,0.0001825492162461819
4.545454545454545,0.810126582278481,3.4046843294299204e-05,0.00024553369545506917,-3.6672652203608385e-05,-8.387416162481052e-05,0.00023899997102184086
4.646464646464646,0.810126582278481,-5.605181063560344e-05,4.389499244839481e-05,-5.963102258075666e-05,3.647045456162588e-06,0.00013489457440617466
4.747474747474747,0.810126582278481,6.682343872701958e-05,-0.00014325483711936322,-5.00241880918242e-05,2.292941951770309e-05,0.0002051032894293326
4.848484848484849,0.810126582278481,-1.3957490980535964e-05,-8.87737662447802e-05,-4.060346871884734e-06,3.081937716759485e-05,8.29818855910431e-05
4.94949494949495,0.810126582278481,-2.2274839792637026e-05,2.51108942722679e-05,1.4319396857461054e-05,-8.508163438892622e-07,4.797084557301104e-05
5.05050505050505,0.810126582278481,6.656003641437229e-05,6.683103990314631e-05,-4.331032999244914e-05,-4.0017322895255584e-05,0.00010037780603609164
5.151515151515151,0.810126582278481,-6.208451534626398e-05,-1.0847149810737754e-05,-0.00010394552287636992,2.187949954710052e-05,0.0001889781014933607
5.252525252525253,0.810126582278481,-4.1802795347278615e-05,0.00017915504690979646,3.1678034485906065e-05,-4.1205675468755354e-05,0.00021057939096732827
5.353535353535354,0.810126582278481,2.3590301123007286e-05,-2.3489950170531222e-05,-3.3344101642937425e-05,-3.010528574281912e-08,7.069584434108622e-05
5.454545454545454,0.810126582278481,-2.0864615506583014e-05,-0.0001202282271464642,-1.0271032526678415e-05,4.2327852795914164e-05,0.0001126859590990044
5.555555555555555,0.810126582278481,-1.830188209152747e-06,-8.671559840294483e-06,8.729544807529689e-06,3.150524414834169e-06,1.70672144771801e-05
5.656565656565657,0.810126582278481,3.0782596322570294e-05,-0.0001084798496734162,-1.1059925486832175e-05,2.330917600525377e-05,0.00012814719387672138
5.757575757575758,0.810126582278481,-0.0001184380348972487,9.600172511613838e-05,-6.141928571146222e-05,6.730892934333097e-06,0.0002143155173500427
5.858585858585858,0.810126582278481,-0.0001497883553081337,-0.00010636201414500679,-5.136559404417817e-05,7.684511083594215e-05,0.00016041480925211126
5.959595959595959,0.810126582278481,-1.5239831889942812e-05,3.729848488187885e-05,1.6677492748021205e-05,-6.617595897580812e-06,5.5011529545612254e-05
6.0606060606060606,0.810126582278481,-0.0002442055607126154,-6.97490967985402e-05,8.535393452032471e-05,9.418639725334667e-05,0.00026329462111594423
6.161616161616162,0.810126582278481,9.166908900970438e-05,0.00021479331362037548,1.0765346958543643e-05,-9.193872078902395e-05,0.00018760906203152343
6.262626262626262,0.810126582278481,0.00018235546641667014,3.3246388305201646e-05,1.4291001523471398e-05,-6.468055641656153e-05,0.0001700261038633432
6.363636363636363,0.810126582278481,7.580219032984298e-06,0.0001043334460241193,7.008214239281486e-05,-3.3574099517131075e-05,0.00015775480136473596
6.4646464646464645,0.810126582278481,-1.0789150597871353e-05,0.00019582908648335925,2.0277154279212753e-05,-5.551198076564636e-05,0.00020447922962010608
6.565656565656566,0.810126582278481,-0.0001431529298685289,-0.00010539731039366506,5.651923881473337e-05,7.456507207865819e-05,0.0001615447110048398
6.666666666666667,0.810126582278481,4.309052851396976e-06,-0.00016780339671848148,-1.6801036237818065e-05,4.904830316012535e-05,0.00017247158040626146
6.767676767676767,0.810126582278481,-4.4410772711858065e-05,0.00013754999309544463,1.267207252765515e-05,-2.794176611507597e-05,0.00016577926010131387
6.8686868686868685,0.810126582278481,0.00014782247572331806,0.00016998559288596858,5.99619870750544e-06,-9.534242058278599e-05,0.0001603956300429814
6.96969696969697,0.810126582278481,-0.00015489317957183673,0.00023539615161828623,0.00013576725679212756,-2.415089161393485e-05,0.00041371819842530677
7.070707070707071,0.810126582278481,-2.3490714483983483e-05,1.6918097797779926e-06,7.285544948658594e-05,6.539671411261647e-06,0.0001285230223246963
7.171717171717171,0.810126582278481,-0.00020253860806660238,-0.0002118227038604208,2.569207728578031e-05,0.00012430839357810696,0.00021205829042335997
7.2727272727272725,0.810126582278481,-9.48721590375926e-05,8.18024887051801e-05,-3.231448514438593e-05,3.920901099723749e-06,0.0001630516184751452
7.373737373737374,0.810126582278481,-0.0001879567993033717,-2.3205598996154577e-06,1.7541685312929757e-05,5.708320776089614e-05,0.00018926201563479594
7.474747474747475,0.810126582278481,4.210667679167221e-05,0.00010225388959217419,2.7523549693521072e-05,-4.330816991515392e-05,0.00010097472976251561
7.575757575757575,0.810126582278481,-7.866306994558463e-05,-2.133870938387114e-06,-7.56599495476618e-05,2.4239082265191522e-05,0.00015230843389723572
7.6767676767676765,0.810126582278481,5.4138659311412176e-05,9.198504804894128e-05,0.00010674315975817605,-4.3837112208106034e-05,0.00020148102338437773
7.777777777777778,0.810126582278481,0.00010376997934727927,0.00011569222780830033,-7.5413630423081e-05,-6.583866214667388e-05,0.0001709068958803053
7.878787878787879,0.810126582278481,-0.0001246154147016239,-4.7427361197861366e-05,-9.553035080119607e-06,5.161283276984558e-05,0.00011019055007259425
7.979797979797979,0.810126582278481,-6.404629106469373e-05,6.087776049813063e-05,-6.504504310797543e-05,9.50559169968929e-07,0.0001562037028671099
8.080808080808081,0.810126582278481,0.00010823061351842936,-0.00025200117151764646,-3.2774500195667615e-05,4.313116739976512e-05,0.0003251387413686458
8.181818181818182,0.810126582278481,-4.642674909079733e-05,4.081923656377294e-05,-2.8117908596835396e-05,1.6822537581073171e-06,8.993668834459754e-05
8.282828282828282,0.810126582278481,1.338214316114636e-05,9.059684256542172e-06,-3.20403111929837e-05,-6.732548225306559e-06,5.6742103122174916e-05
8.383838383838384,0.810126582278481,6.2580409581214025e-06,-0.00013460393240017322,-2.4185218525289697e-05,3.8503767432615544e-05,0.00014406426691465328
8.484848484848484,0.810126582278481,-8.918679639376267e-05,1.6937319766143252e-05,-5.349525793468266e-05,2.1674842988285825e-05,0.0001354140709297849
8.585858585858587,0.810126582278481,-0.00010549927438678955,5.474531009069744e-05,5.467037826630946e-05,1.5226189288827632e-05,0.0001699096440554749
8.686868686868687,0.810126582278481,4.0884452705193865e-05,3.433496370647574e-05,-5.384395486333331e-05,-2.2565824923500882e-05,0.00010071830236809152
8.787878787878787,0.810126582278481,-0.00022204449613506854,-7.800385940760066e-05,-2.9512467508767845e-05,9.001450666280077e-05,0.00020169528973918558
8.88888888888889,0.810126582278481,5.262345324874865e-05,0.00010213687084096946,-3.032919499989511e-05,-4.642809722691543e-05,0.00010288806333758967
8.98989898989899,0.810126582278481,3.5389957162879395e-05,-0.00013746462578504,1.3806516058723357e-05,3.062240058664818e-05,0.00015995530402332614
9.09090909090909,0.810126582278481,0.00014923723807067015,2.2959031864935307e-05,2.1628934347089364e-05,-5.1658880980681634e-05,0.0001441386841545657
9.191919191919192,0.810126582278481,-6.046721467954078e-05,4.5828738629799274e-05,7.812023977593234e-05,4.391542814922453e-06,0.00016381699881473915
9.292929292929292,0.810126582278481,-0.0001224476590736377,8.658633631476e-05,-2.9423516098697747e-05,1.075839682766331e-05,0.00018891836050887847
9.393939393939394,0.810126582278481,1.1246133827193378e-05,-2.5758272083425322e-05,-3.159828011920971e-05,4.353641476869583e-06,6.383571885133356e-05
9.494949494949495,0.810126582278481,-2.2154558655226858e-05,4.444226814506905e-05,-5.266459143523354e-06,-6.686312846952657e-06,5.944531334940174e-05
9.595959595959595,0.810126582278481,-2.7693542400830807e-05,-2.019558566425887e-05,8.276221404979105e-05,1.4366738419526903e-05,0.00014547941052395203
9.696969696969697,0.810126582278481,-0.00016163915049740963,-2.0315580668851887e-05,9.798150882401088e-06,5.458641934987846e-05,0.00015344105015413883
9.797979797979798,0.810126582278481,0.00010307858391355154,5.5051782695423134e-05,2.227775150596605e-05,-4.74391099826924e-05,9.731458304843685e-05
9.8989898989899,0.810126582278481,-0.00021435669460711997,-2.3978724718225186e-05,4.6616742848403466e-05,7.150062579760355e-05,0.00021886784535854565
10.0,0.810126582278481,3.418436523029572e-05,-5.034525451964056e-06,-1.526255241232316e-05,-8.744951933499498e-06,4.5440684941499486e-05
0.0,0.9113924050632911,-0.00011995908580321571,-0.00010654019963775486,-3.807564704744218e-05,6.794978563229117e-05,0.00013156669848408807
0.10101010101010101,0.9113924050632911,-5.807656558548036e-05,6.448422388869574e-05,-3.9047132605658895e-06,-1.922297490964614e-06,0.00010640425374755652
0.20202020202020202,0.9113924050632911,3.763191312623393e-06,8.631168941753363e-05,-3.968268820839965e-05,-2.7022464219047107e-05,0.00010891836011208332
0.30303030303030304,0.9113924050632911,-0.00012956630930985546,2.9436455917435235e-05,-2.1245919318666956e-05,3.0038956017726066e-05,0.000151069764217154
0.40404040404040403,0.9113924050632911,9.009798088062625e-05,-0.00012924304639773865,1.7728322729389257e-05,1.1743519655133719e-05,0.00019341362155914253
0.5050505050505051,0.9113924050632911,-3.036678034104195e-07,-4.5884603314640715e-05,8.737443190261152e-05,1.3856481335415338e-05,0.00015809626627371736
0.6060606060606061,0.9113924050632911,-0.00017161212954489531,1.1522194543066494e-06,2.5480086780102093e-05,5.11379730271766e-05,0.00017775682804839322
0.7070707070707071,0.9113924050632911,-1.5808928684860423e-05,6.879648445613958e-07,6.808584704291484e-05,4.536289152089708e-06,0.00011903074901725732
0.8080808080808081,0.9113924050632911,-1.4102201910456067e-05,-3.498853303343093e-05,-2.518401223782504e-05,1.4727220483166099e-05,5.321989855638037e-05
0.9090909090909091,0.9113924050632911,-2.7665761427540766e-05,3.2597522805310475e-06,5.08718151117329e-05,7.321802744102915e-06,9.289794716509667e-05
1.0101010101010102,0.9113924050632911,0.0002543464247070795,-9.952559988608035e-05,7.578594201030997e-05,-4.644624744629973e-05,0.0003422600711607772
1.1111111111111112,0.9113924050632911,-1.3631168228904233e-05,-0.00011955020375940406,1.838608925911538e-05,3.995441159649249e-05,0.00011773952548608294
1.2121212121212122,0.9113924050632911,9.805406126589898e-05,-0.00015087280699184312,-1.1206394313140571e-05,1.584562371778324e-05,0.00021805422284600616
1.3131313131313131,0.9113924050632911,7.859192616591082e-05,-2.175773194353936e-05,4.658017117453291e-05,-1.7050258266711434e-05,0.0001219393655067369
1.4141414141414141,0.9113924050632911,3.2682271793016495e-05,-5.4751042265594024e-05,-1.9171769038293564e-05,6.620631141773259e-06,8.341382467654603e-05
1.5151515151515151,0.9113924050632911,9.336124368462626e-05,-2.5029856921090138e-06,-2.5273432649786115e-05,-2.7257477397755174e-05,0.00010427131825466204
1.6161616161616161,0.9113924050632911,-0.0001263984418833046,2.2343225279656643e-05,-2.611203377705792e-05,3.1216564981094394e-05,0.00014610082002625285
1.7171717171717171,0.9113924050632911,7.2620372218773105e-06,2.4770659247204317e-05,-5.592135497414106e-05,-9.609808940724487e-06,9.933796414826044e-05
1.8181818181818181,0.9113924050632911,1.6672218485661792e-05,5.012394497434546e-05,4.5232111258246355e-06,-2.0038849038002173e-05,4.49007091671794e-05
1.9191919191919191,0.9113924050632911,-6.240584324119178e-05,-6.926558261067546e-05,3.93628470834189e-06,3.9501427755560173e-05,6.645386464716898e-05
2.0202020202020203,0.9113924050632911,1.790860692199177e-05,-6.566971560084402e-06,-1.1902844301103498e-05,-3.4024906085722104e-06,3.0107835144090908e-05
2.121212121212121,0.9113924050632911,-0.0001810969133560794,3.474744944286074e-05,-6.647073515896814e-05,4.39048391739656e-05,0.00023141134157318878
2.2222222222222223,0.9113924050632911,3.8854019063518096e-05,-0.00013462243258752446,8.855193948136211e-06,2.8730524057201908e-05,0.0001584256926602531
2.323232323232323,0.9113924050632911,-0.00011518450946456938,-0.00010118035432240997,-5.2160492094895684e-05,6.490945913609381e-05,0.00014146616785673107
2.4242424242424243,0.9113924050632911,-0.00011338781032427898,-4.251804571827267e-05,3.203748643243838e-05,4.677175681276549e-05,0.00011367828838128805
2.525252525252525,0.9113924050632911,1.1857876495412959e-05,0.00023600115378381644,7.922661706259689e-05,-7.435770908376881e-05,0.00026808441178382544
2.6262626262626263,0.9113924050632911,-1.6134327670552529e-06,2.1475362009476456e-05,-6.243235402968461e-05,-5.95857877272636e-06,0.00011041666486788108
2.727272727272727,0.9113924050632911,3.5873429740244855e-05,-0.00021955258766687897,-3.8268371844839927e-05,5.5103747377990236e-05,0.0002485150918786873
2.8282828282828283,0.9113924050632911,-7.160592020553599e-05,-1.1824604639671058e-05,5.98559578606631e-05,2.502915745356211e-05,0.00012316137568786837
2.929292929292929,0.9113924050632911,-8.534231633872783e-05,0.00013209635124916772,0.00010082387117619143,-1.4026210473131966e-05,0.00025788083403727565
3.0303030303030303,0.9113924050632911,6.020642775436782e-05,-6.516834312366004e-05,-2.8925820775581718e-05,1.4885746107876664e-06,0.0001196051393260119
3.131313131313131,0.9113924050632911,-8.969875597704863e-05,-0.00010238760979185326,5.933256323716745e-05,5.762590973067056e-05,0.00014108900530446596
3.2323232323232323,0.9113924050632911,-5.213085900836002e-05,-3.42138408557679e-05,5.011933174542687e-05,2.5903409959238373e-05,9.818583755863816e-05
3.3333333333333335,0.9113924050632911,8.17812128356492e-05,9.795871754947647e-05,-5.234519606604569e-05,-5.3921979115537705e-05,0.00012842489260795657
3.4343434343434343,0.9113924050632911,4.2436544773993194e-05,-0.00012093466415352355,3.364772622308745e-05,2.3549435813859106e-05,0.0001579702853587061
3.5353535353535355,0.9113924050632911,-8.024702120185328e-05,5.007035398356977e-05,4.60007312287258e-05,9.053000165485052e-06,0.00013897058443514907
3.6363636363636362,0.9113924050632911,3.682336988924556e-05,0.00010779071168830743,-4.106677220488349e-06,-4.338422447326589e-05,9.51639387716181e-05
3.7373737373737375,0.9113924050632911,-0.00020830544648423765,-2.046940749394889e-05,0.0001095587790106411,6.863245619345595e-05,0.0002748738706857449
3.8383838383838382,0.9113924050632911,2.37317941755429e-05,4.7210644225578994e-05,9.33072115690892e-06,-2.1282731520336568e-05,4.396403943283951e-05
3.9393939393939394,0.9113924050632911,0.00015046787242767076,-3.2859721634769666e-05,-4.3893138053283514e-05,-3.528244523787033e-05,0.00018559228714110795
4.040404040404041,0.9113924050632911,-5.29144236198547e-06,-4.4516018587315943e-05,4.993966623977183e-05,1.4942238284790423e-05,9.620827469098506e-05
4.141414141414141,0.9113924050632911,-1.6393226464214613e-05,2.5837294159694382e-05,-6.762506808326485e-05,-2.8332203086439308e-06,0.00012279784101352362
4.242424242424242,0.9113924050632911,5.013048092874687e-05,0.00011707779730515094,-4.587155304473045e-05,-5.016248347016934e-05,0.00012908798391482633
4.343434343434343,0.9113924050632911,0.00015818272891347427,0.00014047012470017232,1.2271224453048222e-05,-8.959585608409398e-05,0.00015160947481156193
4.444444444444445,0.9113924050632911,-1.8636097880154552e-05,-1.6000641010641403e-05,9.375700602302015e-05,1.0391021667238788e-05,0.00016332869827477504
4.545454545454545,0.9113924050632911,-0.00023228775061986246,-6.969434959898352e-05,8.240612037499942e-05,9.059463006565379e-05,0.0002509941508891696
4.646464646464646,0.9113924050632911,-4.1804210286135166e-05,5.1402471167571755e-05,-3.0010754805986623e-05,-2.8794782644309768e-06,9.612794581063184e-05
4.747474747474747,0.9113924050632911,-0.0001744738095603179,2.7988971260055635e-05,1.0591544398161366e-05,4.394545149007868e-05,0.0001909041058079085
4.848484848484849,0.9113924050632911,3.490218171838961e-05,9.777227296549444e-06,9.898268108049346e-05,-1.3403822704481716e-05,0.00017425620034923793
4.94949494949495,0.9113924050632911,-2.0338830999932936e-05,-0.00010032642604833225,-7.483542220760385e-05,3.6199577114479554e-05,0.0001588696284279094
5.05050505050505,0.9113924050632911,0.00014792400815461998,-4.077135516828635e-05,-1.6752826455967384e-06,-3.214579589590009e-05,0.0001719979580721906
5.151515151515151,0.9113924050632911,-9.02789948650143e-05,0.00015833305292264934,-1.7801730333057358e-05,-2.0416217417290513e-05,0.00022014655628004343
5.252525252525253,0.9113924050632911,-0.00015800278406991175,-0.0001549928223695582,-2.214533737884841e-05,9.3898681931841e-05,0.00016115087718517125
5.353535353535354,0.9113924050632911,-0.00013812031244254394,-0.00010627310306336563,-9.566207542933245e-05,7.331802465177286e-05,0.00020771715617862147
5.454545454545454,0.9113924050632911,-7.318095728672344e-05,5.703528505007941e-05,-1.0451819583820612e-05,4.843701670993209e-06,0.00011449932142623912
5.555555555555555,0.9113924050632911,-8.702863052396048e-05,-2.29580695439651e-05,8.596380051814977e-06,3.2996010020377676e-05,7.952823012089582e-05
5.656565656565657,0.9113924050632911,-8.591053449059086e-05,0.00011516311934069368,-4.077693677506991e-05,-8.775775455030846e-06,0.00018848120555422682
5.757575757575758,0.9113924050632911,0.0001966349744407933,-5.1639665200499655e-05,2.148216974353896e-05,-4.349859277208809e-05,0.0002299360417439014
5.858585858585858,0.9113924050632911,-1.9999528482745575e-05,0.00016822310294968679,8.578652131874706e-05,-4.4467072340082356e-05,0.00023268295589571383
5.959595959595959,0.9113924050632911,5.633249644842104e-05,-0.000169776937370321,-4.942300916948172e-05,3.4033332276569985e-05,0.00022110951776550618
6.0606060606060606,0.9113924050632911,7.1070780446188e-05,-0.00014948371009025676,-1.3861153744014058e-05,2.3523878893220624e-05,0.0001964605662850182
6.161616161616162,0.9113924050632911,-0.00015939918104786023,-2.40208645516669e-05,2.0843535420368097e-05,5.502601367985814e-05,0.00015316511881430833
6.262626262626262,0.9113924050632911,-5.0211279592200463e-05,3.434184098411978e-05,-0.00010502868056152857,4.760831582424204e-06,0.00019625991348544934
6.363636363636363,0.9113924050632911,-0.00014959603854931453,0.00013122182306769624,2.69597810477839e-05,5.512264644485487e-06,0.00024780818364904245
6.4646464646464645,0.9113924050632911,-0.00012315774219155283,2.4982091388544504e-05,6.12087905611191e-05,2.9452695240902496e-05,0.00017351720505001108
6.565656565656566,0.9113924050632911,0.0001472200321777489,-0.00011824081215016864,1.2913770352178802e-06,-8.693766008274077e-06,0.0002303628586941939
6.666666666666667,0.9113924050632911,-0.00010563881801450784,4.243771806935583e-05,-7.779153158821639e-05,1.8960329983545603e-05,0.00018867473949375817
6.767676767676767,0.9113924050632911,-0.0001636698071493029,-1.9472143052461196e-05,3.5569180379277464e-05,5.494258506052922e-05,0.00016665973721246018
6.8686868686868685,0.9113924050632911,0.0002890659869657861,4.69712429293342e-05,3.462135903824269e-05,-0.00010081116896853608,0.0002752881568310151
6.96969696969697,0.9113924050632911,-4.8410001661820826e-05,-3.239921296975708e-05,1.740142288579102e-05,2.424276438947337e-05,5.228020527503634e-05
7.070707070707071,0.9113924050632911,-8.074289501015943e-05,1.846504731669865e-05,2.529052469197764e-05,1.8683354308038235e-05,0.0001013416319262028
7.171717171717171,0.9113924050632911,-7.783947410412323e-05,4.030418732713382e-05,-4.226291052329198e-05,1.1260586033096822e-05,0.00012719720440459642
7.2727272727272725,0.9113924050632911,-0.0001565796980671462,5.2587556968816645e-05,-5.818679716763865e-05,3.119764232949886e-05,0.00021371454531897712
7.373737373737374,0.9113924050632911,0.00016694920067733744,-4.236446125211221e-05,-2.7628403700303533e-05,-3.7375421827567566e-05,0.00019755880694170686
7.474747474747475,0.9113924050632911,-6.127346129300212e-05,-9.584813480555126e-05,-4.821709405784504e-05,4.7136478829566015e-05,0.00011850324681063802
7.575757575757575,0.9113924050632911,-4.681582846335052e-06,-0.00011807313740790602,2.2568359277215534e-05,3.682641607627232e-05,0.00012222277341800088
7.6767676767676765,0.9113924050632911,6.042175301692918e-05,-0.00016042598759821754,-1.7360640519482817e-05,3.0001270374386508e-05,0.00019996169796338201
7.777777777777778,0.9113924050632911,-0.0001160647797406432,0.00016154629042752287,-1.037697146383747e-05,-1.3644453206063898e-05,0.0002421592787274729
7.878787878787879,0.9113924050632911,-1.934092023695541e-05,-9.574197535549752e-05,-3.9419860994192544e-05,3.4524868677735874e-05,0.00011113341286179475
7.979797979797979,0.9113924050632911,8.760756641716621e-05,0.00017494740596229766,-3.4741646841485544e-05,-7.876649171383916e-05,0.00016302119535476897
8.080808080808081,0.9113924050632911,6.990503822101788e-05,1.9188517348219538e-05,-6.603004596804616e-05,-2.6728066670771225e-05,0.00013035889091158993
8.181818181818182,0.9113924050632911,-0.00020968144253207885,-2.7813658147085502e-05,9.737796192654665e-05,7.12485302037493e-05,0.00025952899908562307
8.282828282828282,0.9113924050632911,-0.00035617072463994614,-0.00012738993669293735,7.91265587726501e-05,0.00014506819839986505,0.0003413154727038016
8.383838383838384,0.9113924050632911,-9.134681663509088e-05,-9.653218813101778e-05,-3.273395552977653e-05,5.6363701429832595e-05,0.00010981498850346027
8.484848484848484,0.9113924050632911,2.0814990428467194e-05,0.00014699493803480333,6.587169988717535e-06,-5.034297853898115e-05,0.00013824344408161303
8.585858585858587,0.9113924050632911,0.00010917663100863537,6.145730787225191e-05,3.50305585973517e-05,-5.119018166426618e-05,0.00011255334616027639
8.686868686868687,0.9113924050632911,-7.731311405565721e-05,6.579600520181098e-05,-1.4777018204794366e-05,3.4551326561538687e-06,0.0001266823064249641
8.787878787878787,0.9113924050632911,7.258659550882583e-05,-0.00011765187753551588,2.4817611791269856e-05,1.3519584608007015e-05,0.00017175118324420607
8.88888888888889,0.9113924050632911,-0.00014349078075684708,3.669312623636947e-05,8.216237371918515e-05,3.203929635614328e-05,0.000217837283247811
8.98989898989899,0.9113924050632911,0.00013802180047860481,-9.134694383182756e-05,-4.585851343762089e-05,-1.4002456994033177e-05,0.00021520028107505586
9.09090909090909,0.9113924050632911,1.9861148193127296e-05,6.178203458804449e-05,3.691830503688067e-05,-2.4492954834351538e-05,8.41029523925892e-05
9.191919191919192,0.9113924050632911,-0.00020225664706112847,-7.230364300063264e-05,-8.506768676817188e-06,8.236808701852832e-05,0.00017812571686290184
9.292929292929292,0.9113924050632911,-0.00018645299859174706,-5.895693402788503e-05,2.6348874420995422e-05,7.362297978588964e-05,0.00017126217669499478
9.393939393939394,0.9113924050632911,-1.0570969485699196e-05,0.00011750504939745537,4.910930719429714e-06,-3.208022397352685e-05,0.0001234247788855836
9.494949494949495,0.9113924050632911,4.859515621048342e-05,-0.00014096673604272408,8.920324132456404e-05,2.7711473949672195e-05,0.0002301196758744539
9.595959595959595,0.9113924050632911,-4.428621707131201e-05,-0.00017594479617686937,-2.5450208864827745e-05,6.60693039744544e-05,0.00016452674640295102
9.696969696969697,0.9113924050632911,0.00019317104859136784,-0.00013612111377308666,2.0705987772763993e-05,-1.711498044548435e-05,0.00028883366095492366
9.797979797979798,0.9113924050632911,0.00012746352249984607,-0.00010924636658861452,5.8440465332690853e-05,-5.4651467733694645e-06,0.00022880670630792563
9.8989898989899,0.9113924050632911,0.00019146664682772503,4.36570510437242e-05,7.898652652831625e-05,-7.053710936143476e-05,0.0002211858040168574
10.0,0.9113924050632911,0.00013225592947702986,-1.7225771033087802e-06,-2.2811076825064833e-05,-3.9160005712116325e-05,0.0001388648798917888
0.0,1.0126582278481013,-5.4891104177620246e-05,6.92480831297632e-05,-2.2272366589292437e-05,-4.3070936856428875e-06,0.0001144447859040541
0.10101010101010101,1.0126582278481013,8.946863482890108e-05,-7.175905755181493e-05,-6.46265162156099e-05,-5.312873183125845e-06,0.00017917573404102697
0.20202020202020202,1.0126582278481013,0.00019231410784340835,-0.00019751890041474303,7.179081657098648e-05,1.5614377714004038e-06,0.00035978586304066297
0.30303030303030304,1.0126582278481013,1.4613778984251777e-05,3.625976245228607e-05,6.3430382728298695e-06,-1.526206243096135e-05,3.345359709193239e-05
0.40404040404040403,1.0126582278481013,0.00011541149906167128,5.5743141526867596e-05,-2.220041644851928e-05,-5.1346392176561665e-05,0.00010710876662713893
0.5050505050505051,1.0126582278481013,2.3807028062615695e-05,-4.837711583171931e-05,3.0160382566432722e-05,7.371026330731085e-06,8.238799248206408e-05
0.6060606060606061,1.0126582278481013,-0.0001997047422384055,-0.00016157734952521174,-8.517435290015202e-06,0.00010838462752908516,0.00018422567987488078
0.7070707070707071,1.0126582278481013,-0.00019909696912489544,-0.0001193501979371543,6.259460649550333e-05,9.553415011861492e-05,0.00020463642020812043
0.8080808080808081,1.0126582278481013,-0.00016316638746698324,9.869084960095554e-05,6.160042909703017e-05,1.934266135980831e-05,0.0002526856184950662
0.9090909090909091,1.0126582278481013,-6.179463130055312e-05,-6.863811923181009e-06,2.1359472259362984e-05,2.059753296712024e-05,6.935576984054232e-05
1.0101010101010102,1.0126582278481013,3.556975092490045e-05,5.7696676780840996e-05,4.359958074323433e-05,-2.7979928311722436e-05,9.079993167993422e-05
1.1111111111111112,1.0126582278481013,8.043703004777025e-05,-0.00016750986284881175,1.0416135447382185e-05,2.612184984031245e-05,0.00021983892616817433
1.2121212121212122,1.0126582278481013,8.061632587511226e-05,4.783832625300625e-05,5.578695980374992e-05,-3.853639563843555e-05,0.00011944664922129335
1.3131313131313131,1.0126582278481013,0.00010305386658865666,0.000122695653672015,1.4154848820554211e-05,-6.77248560782015e-05,0.00011675247560437455
1.4141414141414141,1.0126582278481013,0.00010528776818114392,-4.548306486867272e-05,-0.00017283182296378083,-1.794141099374136e-05,0.00032795662944271455
1.5151515151515151,1.0126582278481013,-8.556870062214711e-05,-2.9772271905754316e-05,-4.6664856787894625e-05,3.4602291758370425e-05,0.0001104248280784367
1.6161616161616161,1.0126582278481013,-0.00013803086934944357,2.2265584829980736e-05,7.084963765125658e-05,3.4729585355838845e-05,0.00019411498823579626
1.7171717171717171,1.0126582278481013,-5.423370971061086e-05,-2.681767387705232e-05,-1.7879720694026995e-05,2.431541507629895e-05,5.6259347643552574e-05
1.8181818181818181,1.0126582278481013,9.30432797505628e-05,9.667612647315882e-05,4.6996815714638856e-05,-5.6915821867116484e-05,0.0001250374484620506
1.9191919191919191,1.0126582278481013,-4.31707810738846e-05,0.00010198450321836415,-3.1378097231518325e-05,-1.764411664334386e-05,0.0001400751971414159
2.0202020202020203,1.0126582278481013,9.020365056604306e-05,2.5513640324532578e-05,3.479948072748603e-05,-3.471518726717269e-05,0.00010059439595850549
2.121212121212121,1.0126582278481013,-0.00024631380279412893,-7.073651847319761e-05,-2.333594916791807e-05,9.511509638019796e-05,0.00022334830019896408
2.2222222222222223,1.0126582278481013,0.00011789238608440902,0.00011599549240897501,-3.923167302226022e-05,-7.016636354801521e-05,0.0001352625450193901
2.323232323232323,1.0126582278481013,9.92068082336851e-05,-7.527906741656052e-05,-1.9347614812966887e-05,-7.178322245137374e-06,0.00015524211861824228
2.4242424242424243,1.0126582278481013,2.6260941581199822e-05,-4.566344252425155e-06,-1.856098158655651e-05,-6.508379198632399e-06,4.3173315422664734e-05
2.525252525252525,1.0126582278481013,1.0359259742283781e-05,2.3443929327900972e-05,-1.6749321447189957e-05,-1.0140956721055426e-05,3.543571134147216e-05
2.6262626262626263,1.0126582278481013,-8.374088817679544e-05,-0.00028899761523724595,9.495938293796543e-06,0.00011182155102421242,0.0002580731669832217
2.727272727272727,1.0126582278481013,-0.00011157804900875435,-0.00019473212526649076,2.9012331311936432e-05,9.189305228257353e-05,0.00017654341426204929
2.8282828282828283,1.0126582278481013,0.00013092088299078493,-4.492028192153547e-05,-4.3873557129518265e-05,-2.5800180320774836e-05,0.00017553854092463783
2.929292929292929,1.0126582278481013,8.953557534013124e-05,8.693477039290082e-05,1.9048290082096925e-05,-5.294110371990962e-05,9.422860996384939e-05
3.0303030303030303,1.0126582278481013,-4.0732815548449095e-05,3.24439479911755e-05,-8.010344606118793e-05,2.4866602671820776e-06,0.000152587652139939
3.131313131313131,1.0126582278481013,1.014609910839832e-05,-0.00012197727584468397,7.184158149001516e-05,3.354935302088569e-05,0.00017805232706218595
3.2323232323232323,1.0126582278481013,0.00013154646630367272,-8.026890504353667e-05,-1.8907915750579483e-05,-1.5383268378040814e-05,0.0001880935633149283
3.3333333333333335,1.0126582278481013,-8.792749404445469e-05,0.00010903415730052418,-1.4419872876366172e-05,-6.331998976820846e-06,0.00017271534409301544
3.4343434343434343,1.0126582278481013,-9.24264524146808e-05,8.224963020557344e-05,9.998350495351449e-05,3.053046662732209e-06,0.0002299995567291505
3.5353535353535355,1.0126582278481013,9.318511695255658e-05,-0.00011716647443746056,-2.2231918258456673e-05,7.194407245471194e-06,0.0001865808000446223
3.6363636363636362,1.0126582278481013,0.00014349022173825487,9.158252559060346e-06,-5.184880919159264e-05,-4.579454228919457e-05,0.00016560221821507442
3.7373737373737375,1.0126582278481013,7.962895896500599e-05,0.00032243986055909734,-3.9589867139694735e-05,-0.00012062064585723098,0.0002988892053897132
3.8383838383838382,1.0126582278481013,-3.8604926320879196e-06,6.9058176363965e-05,-5.1415063247045305e-05,-1.9559305119563123e-05,0.00011393445437272442
3.9393939393939394,1.0126582278481013,4.587042056308172e-06,-5.234825588729637e-06,-4.10435367833969e-06,1.9433505972643947e-07,1.109026042320022e-05
4.040404040404041,1.0126582278481013,0.00013462776478937426,-8.03013974632947e-05,-1.2396472061725953e-05,-1.6297910197823866e-05,0.00018932713671161632
4.141414141414141,1.0126582278481013,1.627173202513026e-05,-6.014232290678179e-05,2.0228310396845136e-05,1.3161177264495461e-05,7.802590373691679e-05
4.242424242424242,1.0126582278481013,-1.5208733172570368e-05,-1.8469604150133305e-05,5.997497682053228e-05,1.0103501196811102e-05,0.00010527357738162432
4.343434343434343,1.0126582278481013,-0.00011289190591244556,-1.1873439698680399e-05,3.502105022998467e-06,3.742960368333779e-05,0.00010761942191016672
4.444444444444445,1.0126582278481013,4.878120498442008e-05,-0.00010200124051200879,4.1193065298972166e-05,1.5966010658276612e-05,0.00015116285368429064
4.545454545454545,1.0126582278481013,1.7582026128965774e-05,0.00022570252901061525,7.01987517950552e-05,-7.29853665418743e-05,0.00024913057970249306
4.646464646464646,1.0126582278481013,-5.080734740142406e-05,-5.070113954265405e-05,-9.0144785410014e-06,3.0452546083223433e-05,5.310163990499249e-05
4.747474747474747,1.0126582278481013,-1.586298828317011e-05,-2.434328606240657e-05,-2.374009301892887e-05,1.2061882303673004e-05,4.6355676692812095e-05
4.848484848484849,1.0126582278481013,2.4203235027937476e-05,9.11758209561896e-05,2.3430036618963285e-05,-3.461371679523812e-05,9.131799897765392e-05
4.94949494949495,1.0126582278481013,-3.705215286648043e-05,-9.079034290044139e-05,1.0689881608264524e-05,3.835274873007654e-05,8.120708982884172e-05
5.05050505050505,1.0126582278481013,-0.00015481093948026004,7.009712168071383e-05,-8.926672697644926e-05,2.5414145339863863e-05,0.00025226470293760627
5.151515151515151,1.0126582278481013,-7.180385765706955e-05,0.0001219677106358647,3.775437709198015e-05,-1.5049155893638542e-05,0.00018184017024369868
5.252525252525253,1.0126582278481013,6.87255095397371e-05,0.00026940260958124997,-0.00010618794475405402,-0.00010143843573629613,0.00030432510400745405
5.353535353535354,1.0126582278481013,0.0001330945231916245,8.071098108558509e-05,-4.818784691009706e-05,-6.414165128316287e-05,0.00014301199529054276
5.454545454545454,1.0126582278481013,-0.00011277031154861464,2.5164133665346463e-05,-8.93380825325582e-05,2.628185336498045e-05,0.00020032978549125858
5.555555555555555,1.0126582278481013,-9.234961784939198e-05,0.00022017774032511613,-4.2974434943257516e-05,-3.834843674271724e-05,0.000287889606630123
5.656565656565657,1.0126582278481013,1.1027442430353797e-05,-0.0001493117157723381,-3.3780823879279705e-05,4.1485282002595294e-05,0.0001657876698948984
5.757575757575758,1.0126582278481013,1.834946457715063e-05,-5.2842683628115615e-06,-8.902626563533766e-05,-3.91955886430172e-06,0.00015568756455304643
5.858585858585858,1.0126582278481013,8.97022102126421e-05,-7.421650744321632e-05,-1.235286313425166e-05,-4.645710830827732e-06,0.000143769749700214
5.959595959595959,1.0126582278481013,8.324683269201298e-05,-0.00010356830964256623,-3.59811137545998e-05,6.096443085165976e-06,0.000173672350423273
6.0606060606060606,1.0126582278481013,3.3324750181248435e-05,-6.416241358800803e-05,-1.5976350370452873e-05,9.251299022027877e-06,9.017362147216852e-05
6.161616161616162,1.0126582278481013,0.00020018755173472426,-9.47321759556562e-05,-7.199376652023e-05,-3.163661273372042e-05,0.0002890722239496739
6.262626262626262,1.0126582278481013,-1.5041500382361082e-05,-0.00013917793332752037,6.066310751597001e-05,4.6265830112964436e-05,0.00016894773381786617
6.363636363636363,1.0126582278481013,-2.178016037052973e-05,0.0002762113080914917,-1.998373524310101e-05,-7.63293443162886e-05,0.00028979482002369284
6.4646464646464645,1.0126582278481013,0.00010917200608293394,0.00015330051841401813,5.5609443270472974e-06,-7.874175734908562e-05,0.00013702635890511111
6.565656565656566,1.0126582278481013,4.693830294786023e-05,1.1278491354735568e-05,5.512689325822149e-05,-1.7465038290778737e-05,0.00010448893954754535
6.666666666666667,1.0126582278481013,-5.89787532785857e-05,-6.0693230248972e-05,7.769211320457366e-05,3.590159505826731e-05,0.0001472777778430723
6.767676767676767,1.0126582278481013,2.997552734006151e-06,-4.05919804920156e-05,-5.45200582626274e-05,1.1278328327402834e-05,0.00010341992585397046
6.8686868686868685,1.0126582278481013,0.00012422495126562444,-0.00015902530841798557,0.00010696694366509135,1.0440107145708338e-05,0.0003078986513997095
6.96969696969697,1.0126582278481013,1.0613977057470064e-06,2.4210155099490966e-05,7.693819571178314e-06,-7.581465841571392e-06,2.718724242607797e-05
7.070707070707071,1.0126582278481013,-3.566230498771499e-05,3.409826511683255e-05,2.5046955624185158e-05,4.6921196126473234e-07,7.43812097863617e-05
7.171717171717171,1.0126582278481013,-0.00010439892935857596,1.207682388829198e-06,4.9616925258392995e-05,3.0957374090924025e-05,0.0001356915381026358
7.2727272727272725,1.0126582278481013,2.3097333493744023e-05,-0.00011804703295495077,-3.5246684974929636e-05,2.848490983836202e-05,0.0001446448993129787
7.373737373737374,1.0126582278481013,-0.0001970896617316817,0.0002370558030541357,-3.552075617950158e-05,-1.1989842396736204e-05,0.00038150518858504724
7.474747474747475,1.0126582278481013,-0.00015083887248145797,-0.00016489976650662652,3.8524879217258534e-05,9.472159169642534e-05,0.00017182404531734005
7.575757575757575,1.0126582278481013,0.00015686053489508006,-5.113366911587598e-05,-2.4353165804212213e-05,-3.171805973376122e-05,0.00019240572826074905
7.6767676767676765,1.0126582278481013,1.8895211280963165e-05,0.00014843413705026577,2.7140261146842684e-05,-5.0198804499368676e-05,0.0001476306505970002
7.777777777777778,1.0126582278481013,-2.1770564395112717e-05,1.9792344988323237e-05,1.1952169017791076e-05,5.934658220368439e-07,4.153490036110194e-05
7.878787878787879,1.0126582278481013,-0.0001726368790697953,-9.695418916025302e-05,-9.43093596605679e-05,8.087732046901449e-05,0.0002216946191049112
7.979797979797979,1.0126582278481013,4.135772501065473e-05,0.00019818416814668387,-5.1301800342815387e-05,-7.186256794720158e-05,0.00020170920591191757
8.080808080808081,1.0126582278481013,-0.00011920863877071144,-1.4069992699007486e-05,-4.754526641241892e-05,3.998358944091568e-05,0.00013968914291968878
8.181818181818182,1.0126582278481013,-2.1783446547491975e-05,-1.358764783291997e-05,-3.058197627820065e-05,1.0611328314123582e-05,5.6293238813250206e-05
8.282828282828282,1.0126582278481013,-0.00022216626609530287,-3.0291843170029583e-05,-5.567395443125864e-05,7.573743277959974e-05,0.00022987907140315796
8.383838383838384,1.0126582278481013,4.7973560240165325e-05,0.0001917950811904924,-4.774260522510027e-05,-7.193059242919732e-05,0.00019163452671886705
8.484848484848484,1.0126582278481013,-3.951895892290625e-05,-5.540294785084034e-05,1.9146818260761217e-05,2.8476572032123976e-05,5.951109033717889e-05
8.585858585858587,1.0126582278481013,0.00011982684475122152,4.7745125864041375e-06,3.9851834388345324e-05,-3.7380407201287695e-05,0.00013628521573290914
8.686868686868687,1.0126582278481013,4.4684875591719654e-05,6.477460110776839e-05,6.35564762798797e-05,-3.2837843009846416e-05,0.00012416247055635938
8.787878787878787,1.0126582278481013,-6.098890186880827e-05,0.00016672038583746715,2.4797369069425222e-05,-3.171944519059766e-05,0.0002086340216614348
8.88888888888889,1.0126582278481013,-0.00011743187459113734,-1.3396519946279923e-05,-4.920259459392505e-05,3.924851836122518e-05,0.00014021133838136235
8.98989898989899,1.0126582278481013,7.113007175252217e-05,-2.5019090238284803e-05,5.595810680904489e-05,-1.3833294454271209e-05,0.00012984213807797467
9.09090909090909,1.0126582278481013,-0.0001817975268483297,4.3347685979397245e-05,7.38862517900261e-06,4.153495226067973e-05,0.00020730084442591496
9.191919191919192,1.0126582278481013,4.952081898960648e-05,2.5611380128951425e-06,2.5863600327658227e-05,-1.5624587100750487e-05,6.586971045256699e-05
9.292929292929292,1.0126582278481013,-2.0521424704515526e-05,7.862295798305404e-05,3.882734428744965e-06,-1.7430459983561556e-05,9.089213599721484e-05
9.393939393939394,1.0126582278481013,5.7832943274356666e-05,-6.891773622620731e-05,1.4771054271031062e-05,3.325437885555193e-06,0.0001128475580458904
9.494949494949495,1.0126582278481013,-1.4540520845308426e-05,6.551728405522669e-05,3.404841569866595e-05,-1.529302896297548e-05,9.45223810836704e-05
9.595959595959595,1.0126582278481013,4.7084930107673726e-05,5.2780988422971224e-05,4.0626166214230185e-05,-2.995977555919348e-05,8.642389932790339e-05
9.696969696969697,1.0126582278481013,6.706470252034621e-05,-5.925378812514227e-06,-1.3462726922570282e-05,-1.8341797112349593e-05,7.398583144204739e-05
9.797979797979798,1.0126582278481013,-9.951956292584733e-05,-0.00012742051245892596,2.654424416143413e-05,6.808202261543198e-05,0.00012479217678545672
9.8989898989899,1.0126582278481013,9.507626885839123e-05,1.2623325453055513e-05,7.918447608179908e-05,-3.2309878293434026e-05,0.0001637351835065152
10.0,1.0126582278481013,3.625064473768782e-05,9.07959460671566e-05,6.731295805456229e-05,-3.811397724145332e-05,0.00014092446362428028
0.0,1.1139240506329113,3.945554858334911e-05,1.0464968687761715e-05,3.114256968187512e-05,-1.4976155181333248e-05,6.45208008500901e-05
0.10101010101010101,1.1139240506329113,-9.83759932270955e-05,9.444874360367676e-06,3.775063518948715e-05,2.6679335660018348e-05,0.00012235817080537045
0.20202020202020202,1.1139240506329113,-8.328335197971028e-05,9.388348286672312e-06,4.460289615348668e-05,2.216850110791139e-05,0.00011736441518293084
0.30303030303030304,1.1139240506329113,7.045002245513629e-05,-1.2311841312252706e-05,-9.164278351702928e-05,-1.7441454342865076e-05,0.0001765711072332811
0.40404040404040403,1.1139240506329113,0.00015831030015597188,8.891643041357925e-05,-1.2344332288967182e-06,-7.416801917086533e-05,0.00013746442238479485
0.5050505050505051,1.1139240506329113,2.595634054825683e-05,-0.0001613495629469286,1.3545900052058647e-05,4.061796671960153e-05,0.000177330007346884
0.6060606060606061,1.1139240506329113,0.00015902773405741702,-2.3769434845149342e-05,-2.1354593220229215e-05,-4.05774897636803e-05,0.00017607629468599186
0.7070707070707071,1.1139240506329113,-0.00013904857764232434,-8.575866646599268e-05,3.308743668687776e-05,6.74421732324951e-05,0.00013434571308867482
0.8080808080808081,1.1139240506329113,6.110305950114632e-05,-0.00017332357992703743,-3.6174614355504094e-05,3.366615612776733e-05,0.00021975226148476047
0.9090909090909091,1.1139240506329113,-3.3550444732145034e-05,-0.00019306388141924964,2.8066791910868283e-05,6.798429784541839e-05,0.00018516249617988199
1.0101010101010102,1.1139240506329113,8.843815860309628e-05,2.1095835465126226e-05,4.117571941603295e-06,-3.2860198220466754e-05,8.032140763477238e-05
1.1111111111111112,1.1139240506329113,-7.535604094168089e-05,-8.585054722126654e-06,0.00011408305388715219,2.518232869914226e-05,0.0002101193229774826
1.2121212121212122,1.1139240506329113,-0.0001146659823926642,5.12083325926317e-05,1.0575308060290986e-05,1.9037294940009746e-05,0.0001482496071837188
1.3131313131313131,1.1139240506329113,8.232377493099103e-06,0.00015887769400212397,3.5912915671869435e-05,-5.0133021448566924e-05,0.00016694659347985292
1.4141414141414141,1.1139240506329113,-0.00024176741954505765,-2.4523258093868694e-05,-1.7192602506664434e-05,7.98872032916779e-05,0.00023240203797660386
1.5151515151515151,1.1139240506329113,-1.1010500794318227e-06,0.00020203061607192258,-1.897229948066606e-05,-6.027886979774722e-05,0.00020523126567437012
1.6161616161616161,1.1139240506329113,7.598011001731577e-05,2.0935625192291846e-05,-3.742008548271517e-05,-2.9074720562882283e-05,9.392217420633448e-05
1.7171717171717171,1.1139240506329113,-7.036126387755265e-05,1.807867215392388e-05,2.6361539012304758e-05,1.568477751708863e-05,9.292134459081754e-05
1.8181818181818181,1.1139240506329113,0.00011475991982798226,-6.216602515840527e-05,-8.373193032820753e-05,-1.5778168400873098e-05,0.0002126069858108776
1.9191919191919191,1.1139240506329113,-2.307855936834216e-05,-6.950717344891401e-05,7.842648289476875e-05,2.7775719845176852e-05,0.0001490365099300821
2.0202020202020203,1.1139240506329113,7.917824754258137e-05,1.516412062664713e-05,1.2088969561680166e-05,-2.830271045076855e-05,7.574236923110642e-05
2.121212121212121,1.1139240506329113,-1.431410984655415e-05,5.779687802297237e-05,-6.718391293924346e-05,-1.3044830452925464e-05,0.0001338421390451969
2.2222222222222223,1.1139240506329113,6.639489568125149e-05,-0.00016461161849540157,-3.012848007472615e-05,2.9465016844245023e-05,0.00021250368064803856
2.323232323232323,1.1139240506329113,2.162916500353714e-06,2.0081565386776157e-05,4.967837897235523e-05,-6.673344566138962e-06,8.813816845729049e-05
2.4242424242424243,1.1139240506329113,-0.00013241152560429905,-2.4670629665956565e-05,3.231753795120425e-07,4.712464658107668e-05,0.00012196347689477574
2.525252525252525,1.1139240506329113,9.862439267459999e-05,-4.061622799352513e-05,1.822822578475531e-05,-1.740244940432246e-05,0.00012798048394669503
2.6262626262626263,1.1139240506329113,5.858622644946286e-05,-3.8286327260606505e-05,-1.4402901020287652e-05,-6.0899697566569055e-06,8.811112811048753e-05
2.727272727272727,1.1139240506329113,-1.818318791637096e-05,1.8394505613441693e-05,5.923240424016192e-05,-6.339530912121999e-08,0.00010737266899901856
2.8282828282828283,1.1139240506329113,-0.0001209473188145001,-3.0890754438066636e-05,-4.5012923129679166e-05,4.555142197577002e-05,0.0001338836377559379
2.929292929292929,1.1139240506329113,-0.00010742680912255949,-9.075542350724836e-05,9.796352338327513e-06,5.945466978894236e-05,0.00010156478825702631
3.0303030303030303,1.1139240506329113,-0.00015111405266765818,1.1642664025223461e-05,-2.0708380331828564e-05,4.1841416592730406e-05,0.0001612975192985015
3.131313131313131,1.1139240506329113,-6.29542017758174e-05,8.288485306204256e-05,2.7063809705653097e-05,-5.9791953858675455e-06,0.00013508674820101685
3.2323232323232323,1.1139240506329113,0.00011148388714027703,2.93164604917974e-05,-7.820720434678697e-05,-4.224010428962232e-05,0.00016843069616335823
3.3333333333333335,1.1139240506329113,0.000111879333160083,-8.4215366074627e-05,-1.1301098280934852e-05,-8.299190125636798e-06,0.000171506024782676
3.4343434343434343,1.1139240506329113,3.015915183629794e-05,-2.3827694283024278e-05,-6.93136724549883e-05,-1.8994372659820984e-06,0.00012887634411214873
3.5353535353535355,1.1139240506329113,-9.648003359097059e-05,0.0001611049334303219,-4.106413801121436e-05,-1.9387469951805396e-05,0.00023635861765153388
3.6363636363636362,1.1139240506329113,3.311464870813686e-05,-2.4364094376759604e-05,-5.539303706435138e-05,-2.625166299413176e-06,0.00010817653694715441
3.7373737373737375,1.1139240506329113,-0.00013487660275314178,-1.192244338089796e-05,-6.867620387527942e-05,4.403971384021192e-05,0.0001757129673724286
3.8383838383838382,1.1139240506329113,-0.0001746591296993153,-0.0003000815965237282,1.7895836115452553e-05,0.00014242221786691303,0.00026287557612442777
3.9393939393939394,1.1139240506329113,-2.6594652308255086e-06,-5.656903176043888e-05,-3.883830421019078e-05,1.7768549097379317e-05,8.707425772459465e-05
4.040404040404041,1.1139240506329113,-0.00010563637833930374,-8.501966973956324e-05,-4.926051326484867e-05,5.7196814423660096e-05,0.0001291743518417134
4.141414141414141,1.1139240506329113,-7.305101255174938e-05,-5.737498399429926e-05,-1.2674564414103168e-05,3.912779896381459e-05,7.013538548065248e-05
4.242424242424242,1.1139240506329113,-5.7104268710485186e-05,2.8163233868675932e-05,-1.7202921917516336e-05,8.682310452542775e-06,8.093285914259197e-05
4.343434343434343,1.1139240506329113,-2.070494430067537e-05,-1.3059998348874527e-05,5.845131887472416e-05,1.012948279486497e-05,0.00010285194101994561
4.444444444444445,1.1139240506329113,4.4168498063513895e-05,8.356027521477747e-05,2.2847483618105493e-05,-3.831863198348741e-05,8.251343214401032e-05
4.545454545454545,1.1139240506329113,7.078254973454413e-05,0.00014267717836805025,-7.01394250650121e-05,-6.403791843077831e-05,0.00017328158859360114
4.646464646464646,1.1139240506329113,-9.607372260180616e-06,-6.237582342341063e-05,-6.891015291292409e-05,2.1594958705077372e-05,0.00013277652170951736
4.747474747474747,1.1139240506329113,0.00011352024012157601,-3.5449074255270985e-05,3.81399297134099e-05,-2.3421349759891505e-05,0.0001501054027008804
4.848484848484849,1.1139240506329113,0.00011701465516598791,4.5684753141268424e-05,3.251506338779853e-05,-4.88098224921769e-05,0.00011664231050250402
4.94949494949495,1.1139240506329113,8.017903639586419e-05,8.440428907200701e-05,-1.4459957126152931e-05,-4.937499764036136e-05,8.609633212814172e-05
5.05050505050505,1.1139240506329113,-6.27366932627914e-05,0.00012785921679772094,-8.185518238766085e-05,-1.9536757060478862e-05,0.0002200139748240716
5.151515151515151,1.1139240506329113,-0.00023231969872745777,-0.00010373259117550746,3.5890374162923914e-05,0.00010081568697088956,0.00021094578789668519
5.252525252525253,1.1139240506329113,8.590759852996893e-06,8.042641803352092e-05,2.2154256643819347e-05,-2.6705153365955345e-05,8.557873036983223e-05
5.353535353535354,1.1139240506329113,4.050479007136667e-05,1.9926540210080314e-05,-8.59221618589667e-05,-1.8129399084434094e-05,0.00015290009284159019
5.454545454545454,1.1139240506329113,-0.00015919037574583503,4.366986536262827e-05,4.625494981086066e-06,3.465615311496203e-05,0.00018510710617963103
5.555555555555555,1.1139240506329113,-0.0001423654346426745,-6.163062604095918e-05,4.274744146001298e-05,6.119881820509011e-05,0.0001441326175357563
5.656565656565657,1.1139240506329113,7.752382727911224e-05,0.000156868009339747,-2.0757963085589997e-06,-7.031755098565777e-05,0.00013590229755043788
5.757575757575758,1.1139240506329113,-0.00019010881775062625,-6.910914453647112e-05,1.1369712553337341e-05,7.776538868612922e-05,0.00016783024093456624
5.858585858585858,1.1139240506329113,-0.00014550676107027727,0.00018534291557177024,1.6508189151361858e-06,-1.195084635044789e-05,0.0002872299371779498
5.959595959595959,1.1139240506329113,-6.127245696182471e-05,-2.8548420619150175e-05,-5.8026863263693456e-05,2.6946263274292462e-05,0.00011367253410099453
6.0606060606060606,1.1139240506329113,-7.633369712498323e-05,-0.00020699408375278054,-9.661236383725415e-05,8.499833426332912e-05,0.0002467277991395367
6.161616161616162,1.1139240506329113,2.7577084890129377e-05,0.00012521741108511257,6.309190123680624e-05,-4.583834879257259e-05,0.00015788770845035353
6.262626262626262,1.1139240506329113,-4.7077438996288184e-05,4.149779382292111e-05,-4.560274962415685e-05,1.6738935520101213e-06,0.00011013988528979241
6.363636363636363,1.1139240506329113,1.3106165269060994e-05,1.2109697614826834e-05,3.380709283854697e-05,-7.564758865166348e-06,5.990378305805579e-05
6.4646464646464645,1.1139240506329113,9.864121786401449e-05,-2.6101529333906083e-05,1.3104214006997536e-05,-2.176190655903252e-05,0.00011619478306317414
6.565656565656566,1.1139240506329113,-0.00011921323727949123,2.1540490116539476e-05,3.069992759230175e-05,2.9301824148885526e-05,0.00014167271042446488
6.666666666666667,1.1139240506329113,0.0001338599332577484,-0.00020089389201847694,7.217029300332713e-07,2.0110187628218557e-05,0.0002918390705936075
6.767676767676767,1.1139240506329113,-0.0001589160193183184,8.390925637448909e-05,-5.508834443052833e-05,2.250202888314879e-05,0.00023395248787859362
6.8686868686868685,1.1139240506329113,9.038399734888754e-05,0.00015023031812594467,2.832091919093342e-06,-7.218429464244967e-05,0.0001310879896088231
6.96969696969697,1.1139240506329113,-0.00017551609187571886,-1.978317903840327e-05,-2.698057150449025e-05,5.8589781274236635e-05,0.00017294178247786117
7.070707070707071,1.1139240506329113,-0.0001619139609295822,0.00010018299955468003,-1.447524112223749e-05,1.8519288412470654e-05,0.0002304395544085799
7.171717171717171,1.1139240506329113,-6.198457550107389e-05,-5.73958195252447e-05,-1.3168672178810585e-05,3.5814118507895574e-05,6.402307373965412e-05
7.2727272727272725,1.1139240506329113,9.725512712543934e-05,9.447762690412762e-05,5.2168809519380694e-05,-5.751982620887009e-05,0.00013176077634318348
7.373737373737374,1.1139240506329113,-0.0001006021364696009,-0.00025682704088295745,5.5204595191384875e-05,0.0001072287532057675,0.00024369286359203764
7.474747474747475,1.1139240506329113,-0.00012968655634481639,-8.876257693283147e-05,-6.303808990404194e-05,6.553473998329435e-05,0.00015845342332014648
7.575757575757575,1.1139240506329113,-8.655472813878045e-06,-9.638174101032652e-05,-8.136808063883899e-06,3.1511164147261366e-05,9.342778284402226e-05
7.6767676767676765,1.1139240506329113,-4.5984738875800305e-05,-0.00022889787383602263,-4.507615590915961e-05,8.246478381354688e-05,0.00022378249125700717
7.777777777777778,1.1139240506329113,-6.349298472296789e-05,-0.00015108255526322787,-1.1131562471210488e-05,6.437266199585872e-05,0.000132801921257991
7.878787878787879,1.1139240506329113,-0.00010384358451375165,5.6685403623676125e-05,-1.5070141796273526e-05,1.4147454267022658e-05,0.0001434031661150285
7.979797979797979,1.1139240506329113,1.0360394223008988e-05,-0.00010719299715780758,-1.274815113395473e-05,2.9049780880439574e-05,0.00011487290450159743
8.080808080808081,1.1139240506329113,7.068051657692478e-05,1.9958903188085392e-07,-4.373358329772831e-06,-2.126403168264169e-05,7.098624509528547e-05
8.181818181818182,1.1139240506329113,-0.00011284933414586189,4.9937110408914724e-05,-1.3831444078049644e-05,1.8873667121084148e-05,0.00014641715544233056
8.282828282828282,1.1139240506329113,0.0001094096920912306,-3.4247160387726024e-06,2.2054510488487436e-05,-3.17954928157374e-05,0.00011754195348643193
8.383838383838384,1.1139240506329113,-7.364089418986422e-05,-0.00020652771472142814,-5.6041456334269574e-05,8.405058267338771e-05,0.0002056446623237782
8.484848484848484,1.1139240506329113,4.4016227774773726e-05,-3.8002698492343676e-05,-2.165703079139056e-05,-1.8040587847290148e-06,8.038314363853598e-05
8.585858585858587,1.1139240506329113,2.5614233048326865e-05,8.928571527733067e-05,5.473911331517015e-05,-3.4469984497697264e-05,0.0001238150004960286
8.686868686868687,1.1139240506329113,-1.4749522205434396e-06,0.00011415332733301199,1.0332910906494009e-06,-3.380351253374056e-05,0.00011491184186286879
8.787878787878787,1.1139240506329113,-0.00012541709085258252,-0.00016990137675777388,2.649227019582763e-05,8.859554028310691e-05,0.000159351527252454
8.88888888888889,1.1139240506329113,-7.51327064236346e-05,0.00014811924383294388,2.3860537378231264e-05,-2.1895961222792784e-05,0.00020104927098278267
8.98989898989899,1.1139240506329113,-0.0002042785779128518,-0.00010474548199547496,3.1258928304830817e-05,9.270721797249802e-05,0.00018502826023078002
9.09090909090909,1.1139240506329113,1.6887993151360263e-06,5.811619634958064e-05,6.926790406116663e-05,-1.7941498699415e-05,0.00013295234231767896
9.191919191919192,1.1139240506329113,0.00010362609647715583,-3.970203706734341e-05,2.6210164440925234e-05,-1.9177217822943723e-05,0.00013597685428752456
9.292929292929292,1.1139240506329113,-0.00010923912378218992,4.1385091034365306e-05,-8.25363251154967e-07,2.0356209824347384e-05,0.00013479179010738234
9.393939393939394,1.1139240506329113,-4.863009333315534e-05,2.495076473173583e-05,-5.334816632757259e-06,7.103798580425853e-06,6.546881289165993e-05
9.494949494949495,1.1139240506329113,4.578149334306725e-05,-4.089326215589194e-05,-5.212412896145348e-05,-1.4664693561525933e-06,0.00011743565511210293
9.595959595959595,1.1139240506329113,0.00011038772106999045,7.332752614029972e-05,4.3938493532466554e-05,-5.5114574163087044e-05,0.00012353011856329745
9.696969696969697,1.1139240506329113,-0.00013534670184813807,-8.859115840964634e-05,-6.392792141813665e-06,6.718135807733531e-05,0.00011957928466078716
9.797979797979798,1.1139240506329113,-7.576009533558416e-05,-7.044398752152228e-05,5.4998664646987666e-05,4.386122485713193e-05,0.00012016515115288373
9.8989898989899,1.1139240506329113,-7.078126992770154e-05,-0.0001536845503386383,-0.00012626286575021916,6.733974607990195e-05,0.00025608177472538846
10.0,1.1139240506329113,6.646913349945722e-05,3.125715168381925e-05,4.139639714502765e-05,-2.9317885554982938e-05,9.19701285267991e-05
0.0,1.2151898734177216,0.00014539022342028774,3.9285593363252434e-05,-8.84194287816987e-06,-5.540274503506205e-05,0.0001311658247311571
0.10101010101010101,1.2151898734177216,-0.0001889319345367454,-0.00017731260049316038,-1.0417664588850432e-05,0.00010987336050897171,0.00018428403283786592
0.20202020202020202,1.2151898734177216,9.071135972032576e-05,-8.889536751823214e-06,-4.676266413604824e-05,-2.4546546890550765e-05,0.0001251966328753158
0.30303030303030304,1.2151898734177216,-0.00012585423793251294,-4.901315982941371e-05,-3.910974713826666e-06,5.2460219328577994e-05,0.0001100861132599316
0.40404040404040403,1.2151898734177216,-9.285470488546827e-05,9.291801058808341e-05,-2.630173915468638e-05,-1.8991710784540325e-08,0.00016720936519943903
0.5050505050505051,1.2151898734177216,0.00013809838067728214,-9.173742437467938e-05,2.6896933975008492e-06,-1.3908286890780829e-05,0.0002004430365015285
0.6060606060606061,1.2151898734177216,-0.00011470089161818024,-1.9531878411368105e-05,2.7439977492613055e-06,4.02698310088645e-05,0.00010639574011427359
0.7070707070707071,1.2151898734177216,-2.9177007373092797e-05,-6.499239569316868e-05,9.067147403567623e-06,2.8250820919878443e-05,5.852918190925314e-05
0.8080808080808081,1.2151898734177216,-9.646874863990271e-05,-5.187724723605969e-05,-2.4573331010339042e-05,4.450379876278872e-05,9.383219549826987e-05
0.9090909090909091,1.2151898734177216,8.751583174831381e-05,0.00013006749307598457,-8.55311697608518e-05,-6.527499744728952e-05,0.0001874575998024262
1.0101010101010102,1.2151898734177216,0.00015413777077301558,-0.0001943335947951302,1.70475230455545e-05,1.2058747206634388e-05,0.0003038914274191797
1.1111111111111112,1.2151898734177216,-8.25524253134113e-05,0.00013157178466226128,-2.9492143155217134e-05,-1.4705807804654993e-05,0.00019389937311576285
1.2121212121212122,1.2151898734177216,8.38571099400957e-05,-8.616921360159271e-07,3.843854680372824e-05,-2.489862534122393e-05,0.00010741313725133528
1.3131313131313131,1.2151898734177216,8.372451009271598e-05,8.130868804506899e-05,-6.233159394521274e-05,-4.9509959441335485e-05,0.000135900879615525
1.4141414141414141,1.2151898734177216,9.894248626543931e-05,9.94388551846e-06,-5.8274117465164526e-05,-3.2665911535169794e-05,0.00013817467926609034
1.5151515151515151,1.2151898734177216,-1.4432639669343973e-05,-1.4817247566401748e-05,9.24894353047925e-06,8.774966170723716e-06,2.169398044485616e-05
1.6161616161616161,1.2151898734177216,-0.00020875599015265749,-0.00011853529221860366,6.189149315861839e-05,9.818738471137834e-05,0.00021065706113740148
1.7171717171717171,1.2151898734177216,0.0001448865113709093,2.2958808605595092e-05,-7.467885093076962e-05,-5.035359599295131e-05,0.00018687851325057203
1.8181818181818181,1.2151898734177216,-0.00011761576693005494,-1.8177243597175755e-05,3.032141855223325e-05,4.07379031581692e-05,0.00012158994875415878
1.9191919191919191,1.2151898734177216,7.534841022218219e-05,2.3414954952839322e-05,5.4057349386821335e-05,-2.9629009552506454e-05,0.00011501284482839258
2.0202020202020203,1.2151898734177216,0.00010516978520326983,-0.00020328181367103545,8.425640653582753e-05,2.9433608540329684e-05,0.0003083191695233907
2.121212121212121,1.2151898734177216,-9.675371983493734e-06,2.881258851585895e-05,5.661710716195012e-05,-5.741164959709564e-06,0.00010401461946219237
2.2222222222222223,1.2151898734177216,0.0001301182942031226,7.998943604622899e-05,9.347350375493503e-05,-6.303231907480547e-05,0.00019782032025398856
2.323232323232323,1.2151898734177216,-0.00024179428543625006,-0.00010353796644930673,3.3462387209047554e-06,0.00010359967556566704,0.0002101982166757935
2.4242424242424243,1.2151898734177216,9.76177798348865e-05,0.0001220967893053815,7.355166293486325e-06,-6.591437074208039e-05,0.00011260699274570098
2.525252525252525,1.2151898734177216,-0.00015573970445088844,-6.451684685049971e-05,3.692709836769631e-05,6.607696539041645e-05,0.00014986752880778885
2.6262626262626263,1.2151898734177216,3.6772740159628845e-05,-0.00016415270712766115,-5.844347627040815e-05,3.821399009040969e-05,0.00021114357740078596
2.727272727272727,1.2151898734177216,-6.589864688904779e-05,0.00012295050068853076,-3.359292162604955e-05,-1.711555613984489e-05,0.00017591811180544953
2.8282828282828283,1.2151898734177216,8.430421139098185e-05,4.902917011225971e-05,2.1389452433819997e-05,-4.0000014450972465e-05,8.215972300914754e-05
2.929292929292929,1.2151898734177216,6.864948281692258e-05,-0.000164620815660531,-2.0684056162326543e-05,2.879139985308253e-05,0.00021070687894262903
3.0303030303030303,1.2151898734177216,-1.751918001934809e-05,0.0001486378290568623,-0.00010764268251635188,-3.9335594711254264e-05,0.00024446877117163243
3.131313131313131,1.2151898734177216,-8.206772575929027e-06,5.391501400289949e-05,1.804264585987146e-05,-1.3712472428091137e-05,6.628166653208038e-05
3.2323232323232323,1.2151898734177216,1.6788545253716932e-05,-5.221399590173761e-05,-2.596133512971921e-05,1.0627635194406205e-05,7.685523025786381e-05
3.3333333333333335,1.2151898734177216,-3.516872010565656e-05,7.510063167192257e-05,-1.4816673759974262e-05,-1.1979573469879802e-05,0.00010087982112567494
3.4343434343434343,1.2151898734177216,1.686020515884266e-05,2.3708363944317097e-05,3.815406513666216e-05,-1.2170570730947928e-05,6.938172106679642e-05
3.5353535353535355,1.2151898734177216,0.00012584430623174188,-6.43043280249744e-05,6.80350523321457e-05,-1.8461993462030243e-05,0.00020481815007270866
3.6363636363636362,1.2151898734177216,8.265198330751166e-05,0.00012751069502400886,4.419591912454034e-05,-6.304880349945615e-05,0.0001356877063528827
3.7373737373737375,1.2151898734177216,-1.3388383429585e-05,-6.363556907775605e-05,-6.430795855340585e-05,2.3107185752202313e-05,0.0001256315950072047
3.8383838383838382,1.2151898734177216,-3.153352151748867e-06,-2.6594571156622445e-05,-6.184773803606728e-05,8.924376992511393e-06,0.00011003990593030345
3.9393939393939394,1.2151898734177216,9.857047590718053e-05,-7.764392931052118e-05,-1.799706076838949e-05,-6.2779639789978025e-06,0.00015610829616548294
4.040404040404041,1.2151898734177216,8.266783560749265e-05,-2.5899822215708808e-05,-4.8751256523092666e-06,-1.703040401753515e-05,9.857562898811078e-05
4.141414141414141,1.2151898734177216,2.9660894808623635e-05,-6.825572314358409e-05,1.2936666492512994e-05,1.1578448500488137e-05,8.980651572556275e-05
4.242424242424242,1.2151898734177216,-0.0001547845974730654,-8.741986156666016e-05,7.336502068839373e-05,7.266133771191766e-05,0.00018497711888044866
4.343434343434343,1.2151898734177216,0.0001402386020860732,-4.1922969648167704e-05,8.494910099934985e-05,-2.9494689731371653e-05,0.00022125250018864489
4.444444444444445,1.2151898734177216,-2.3065127579734288e-06,-2.6704853760677827e-05,-7.45792302084938e-05,8.703409955595376e-06,0.0001316930478994909
4.545454545454545,1.2151898734177216,-9.436959671391873e-05,5.3524224289551115e-05,-2.078508667414723e-05,1.2253611727310284e-05,0.00013460156876697816
4.646464646464646,1.2151898734177216,7.699078755926712e-06,0.00014582228669765727,-0.0001135825291996069,-4.605640963607519e-05,0.0002427008254207385
4.747474747474747,1.2151898734177216,-2.0506975369481264e-05,0.00017465139262725135,-6.799664742213452e-05,-4.624332517733103e-05,0.00021994510445619308
4.848484848484849,1.2151898734177216,-3.115139320711079e-05,3.4730503856819854e-05,-6.067587574638656e-05,-1.0737331949127184e-06,0.00011959601361078178
4.94949494949495,1.2151898734177216,3.014633753457022e-05,6.215497052220618e-05,3.5931617661884454e-05,-2.7690392417032917e-05,8.228937203521733e-05
5.05050505050505,1.2151898734177216,-1.684003166544803e-05,-4.5034619679656034e-05,7.096461366085139e-05,1.8562395403531216e-05,0.00012907845827573022
5.151515151515151,1.2151898734177216,-9.907303095519395e-06,-1.6564431437574742e-05,2.413371227681853e-06,7.941520359928241e-06,1.5029946196424237e-05
5.252525252525253,1.2151898734177216,6.222526260973791e-07,-0.00010566841017870741,-3.15181479485336e-05,3.1513847265783006e-05,0.00011921465305939717
5.353535353535354,1.2151898734177216,0.00011832719978573926,0.00019395163504365144,-7.793863866092788e-06,-9.368365044881721e-05,0.0001698559449019923
5.454545454545454,1.2151898734177216,3.548214436006147e-05,7.502445624874628e-05,-5.609879843577238e-07,-3.315198018264232e-05,6.501205379936044e-05
5.555555555555555,1.2151898734177216,-0.00013573260751116928,-0.0001497771094248243,-3.332088877414141e-06,8.565291508079807e-05,0.00014338826343386946
5.656565656565657,1.2151898734177216,3.672199858968739e-05,-9.266632422386004e-05,3.8583142390610824e-05,1.6783297690251795e-05,0.00013343321206972836
5.757575757575758,1.2151898734177216,-0.00011924433801346959,-1.4001578627506923e-05,4.188361235957448e-05,3.9973774992292954e-05,0.0001341952246937779
5.858585858585858,1.2151898734177216,2.822809191493422e-05,5.610347669113094e-06,1.5684910156380954e-05,-1.0151531875214193e-05,3.75230726925323e-05
5.959595959595959,1.2151898734177216,5.3785504352319403e-05,-7.997986598138258e-05,8.936022112898786e-06,7.858308488718951e-06,0.00011760516291506726
6.0606060606060606,1.2151898734177216,4.398646470607686e-05,0.00012402885083164365,1.8170151942083725e-05,-5.040459466131615e-05,0.0001133703555216747
6.161616161616162,1.2151898734177216,-0.00011749631675153296,-0.0002095904066851134,-9.237718793692756e-05,9.812601703099391e-05,0.00024229745513738767
6.262626262626262,1.2151898734177216,8.231801120421358e-05,-8.184779228254449e-05,-4.920981048081678e-08,-1.4106567650072484e-07,0.00014217197620176265
6.363636363636363,1.2151898734177216,-3.3637190064121895e-05,-3.9840055712232345e-05,-4.1221422283240297e-07,2.204317373290627e-05,3.7136139138345944e-05
6.4646464646464645,1.2151898734177216,-0.00026287926769073177,-5.497259339268456e-05,7.281584769775225e-06,9.53555583250249e-05,0.00024048992648774675
6.565656565656566,1.2151898734177216,-5.17371958276757e-05,-5.188793823475853e-05,-2.6755409360425864e-05,3.1087540218730266e-05,6.951341550342084e-05
6.666666666666667,1.2151898734177216,5.8681443004828604e-05,7.23628841291173e-05,5.744758941928325e-05,-3.931329814018377e-05,0.00011972558992205813
6.767676767676767,1.2151898734177216,-5.307493496018048e-05,-4.857560237212104e-05,-2.0727540190917872e-05,3.0495161199690452e-05,6.234808495365542e-05
6.8686868686868685,1.2151898734177216,0.00012577533637034494,0.00010465302006728426,-5.022519443616517e-05,-6.912850693128877e-05,0.00014552192795449581
6.96969696969697,1.2151898734177216,-0.00010936911311044654,-4.957428189423996e-06,-0.00010462783239938336,3.429796238996116e-05,0.0002104398712464282
7.070707070707071,1.2151898734177216,-3.1399400461292174e-05,4.555871865550888e-05,-2.254656589805647e-05,-4.247795458265012e-06,7.756983013913517e-05
7.171717171717171,1.2151898734177216,0.00010906440413898412,8.185665921577391e-05,7.056906393925326e-05,-5.7276319006427406e-05,0.00015686901383565202
7.2727272727272725,1.2151898734177216,0.00010246733353987003,-7.700416497611352e-05,-3.18229294613325e-05,-7.638950569126952e-06,0.0001654016440109013
7.373737373737374,1.2151898734177216,1.563867183048161e-05,-1.1389809091181835e-05,7.394880946742103e-05,-1.2746588217899322e-06,0.00013022172076612533
7.474747474747475,1.2151898734177216,-1.1446314288430317e-05,2.236978326615089e-05,9.054702103620774e-05,-3.2770406933161714e-06,0.0001596363553191655
7.575757575757575,1.2151898734177216,-7.629104974515826e-05,4.441219141648208e-05,6.84119549099124e-05,9.563657498602855e-06,0.00015881311799113588
7.6767676767676765,1.2151898734177216,9.596766559573502e-05,-0.00011422867581497274,-5.344256907986379e-05,5.478303065771316e-06,0.0002044225211417762
7.777777777777778,1.2151898734177216,-6.155793709515011e-05,-3.851569989324858e-05,-4.794793193994387e-05,3.0022091096519605e-05,9.898941488071055e-05
7.878787878787879,1.2151898734177216,0.00012383390355761968,-0.00014401245757714325,8.300791007880184e-06,6.053566205857071e-06,0.0002326257891647003
7.979797979797979,1.2151898734177216,-0.00015866724500874108,-8.653536217096489e-05,-2.18343241286027e-05,7.356078215391178e-05,0.00014270090806887652
8.080808080808081,1.2151898734177216,-0.00015104498025753123,0.00022768807386356065,-6.489989222177556e-06,-2.2992928081808822e-05,0.0003304148082980014
8.181818181818182,1.2151898734177216,4.47786360543573e-05,-6.343444412446331e-05,6.49014953178316e-05,5.596742421031803e-06,0.00014664983845371124
8.282828282828282,1.2151898734177216,0.00012112925249073288,-7.222722409982665e-06,-3.881826838823882e-05,-3.417195902422506e-05,0.00014184470514061733
8.383838383838384,1.2151898734177216,6.011667105344343e-05,5.919956384848768e-05,-2.981450286622533e-05,-3.5794870470579335e-05,7.890776600242028e-05
8.484848484848484,1.2151898734177216,8.64397610618989e-06,-4.04904299925787e-05,-3.903584815921197e-05,9.553936165916641e-06,8.14590932789008e-05
8.585858585858587,1.2151898734177216,-7.569498944414365e-07,-2.851601466212569e-05,-3.0511635000871468e-05,8.781889366970138e-06,5.9875124069550706e-05
8.686868686868687,1.2151898734177216,2.8784129571601303e-05,0.00011838809508410917,3.212375721943399e-05,-4.415166739671314e-05,0.00012055030583902375
8.787878787878787,1.2151898734177216,4.845264618672469e-05,-1.5227883144738036e-05,-2.950090945521881e-05,-9.967428912595996e-06,7.69953866007929e-05
8.88888888888889,1.2151898734177216,0.00010415080399671715,4.878568563638757e-05,-6.241265256774867e-06,-4.588094688993142e-05,9.090228209253299e-05
8.98989898989899,1.2151898734177216,1.65195467659169e-05,-0.00014739449615903548,-4.646083013358976e-05,3.926248481793557e-05,0.00017580884336623127
9.09090909090909,1.2151898734177216,9.983854287843146e-05,-1.4242757479825971e-05,-1.5415491017814665e-05,-2.5678735619581647e-05,0.00011093006367993853
9.191919191919192,1.2151898734177216,-9.757060658340143e-06,0.0001084409498605224,2.2143997243681762e-05,-2.9605166760654675e-05,0.00011993237514017872
9.292929292929292,1.2151898734177216,6.870939563339555e-05,1.9963932468614667e-05,6.522843270887796e-05,-2.660199843060306e-05,0.00012849931989899132
9.393939393939394,1.2151898734177216,8.884893208162902e-06,0.00010380450927238077,-8.92493278490846e-05,-3.3806820744163104e-05,0.00018392485709585192
9.494949494949495,1.2151898734177216,2.803821429009103e-05,-0.00012309528644771517,-1.7947809884060128e-05,2.851712164728724e-05,0.00014267562743736713
9.595959595959595,1.2151898734177216,7.295620971023461e-05,-7.379420508865028e-05,1.7231136527388544e-05,2.5139861352470095e-07,0.00013054759645383615
9.696969696969697,1.2151898734177216,5.125993874026652e-05,0.00012381289886464705,-9.179793940829696e-05,-5.2521851281474065e-05,0.00019207071268856856
9.797979797979798,1.2151898734177216,0.0001739655660413607,2.987031675189414e-06,9.175372276839095e-06,-5.308577931496503e-05,0.00017322200275778353
9.8989898989899,1.2151898734177216,3.530144255900181e-05,7.57184265687298e-05,8.47616423266065e-06,-3.330596073831948e-05,6.724610295707646e-05
10.0,1.2151898734177216,-0.00011548186255148785,0.00013508080864235781,-4.5886126034415164e-05,-5.879683827260989e-06,0.00023129824579134472
0.0,1.3164556962025316,-4.163401984957592e-05,-2.1283136579485507e-05,4.456607727861599e-06,1.8875146928718427e-05,3.687607677078038e-05
0.10101010101010101,1.3164556962025316,-3.610573372476405e-05,-0.00014299041621960098,-0.00010441078888006283,5.372884498330951e-05,0.0002220178996137729
0.20202020202020202,1.3164556962025316,-0.0002812252869598715,0.00017245922876111847,-4.380981298735599e-05,3.262981745962591e-05,0.0004038411108960142
0.30303030303030304,1.3164556962025316,-3.7618983931894787e-05,0.00010269259734246936,-2.8129607755052955e-06,-1.9522084023172372e-05,0.00012588839070913247
0.40404040404040403,1.3164556962025316,4.2242878662743225e-05,0.00015341041612451753,4.076624079687377e-05,-5.869598843617822e-05,0.0001543514760065158
0.5050505050505051,1.3164556962025316,-3.533555465857685e-05,9.270118521633174e-05,-3.174634013343959e-05,-1.7209689167326465e-05,0.00012704821642302807
0.6060606060606061,1.3164556962025316,4.597131921806343e-05,-8.026859493944619e-05,3.136840481508655e-05,1.0289182716414828e-05,0.00012328176340107292
0.7070707070707071,1.3164556962025316,6.667293555539912e-05,1.5953267370567934e-05,-0.00014313610713147132,-2.4787860877790114e-05,0.00025514696040190523
0.8080808080808081,1.3164556962025316,0.00011285672295412925,6.37350590069825e-05,6.19609652492935e-05,-5.2977534588333525e-05,0.00014533874710353391
0.9090909090909091,1.3164556962025316,0.00013995379124867143,-3.854730704272138e-05,-3.46287027395103e-06,-3.0421945261785016e-05,0.00016279979956922752
1.0101010101010102,1.3164556962025316,-9.183762202228799e-05,4.1372559889296305e-05,7.56498440047349e-05,1.5139518639897503e-05,0.00017639186982832254
1.1111111111111112,1.3164556962025316,-6.75149625439045e-05,6.719354062262594e-05,3.1556698776310463e-05,9.642657638357019e-08,0.00012883045897618548
1.2121212121212122,1.3164556962025316,2.5995167712424085e-05,-0.00014355874832966186,1.9067242743351728e-05,3.526907418517133e-05,0.000161577770572852
1.3131313131313131,1.3164556962025316,3.642604462095398e-05,-0.00032118597292250274,5.192494423970542e-06,8.542797849046463e-05,0.00034098050751506443
1.4141414141414141,1.3164556962025316,-6.580466075179174e-05,7.216366580639487e-05,-0.00010939116036196588,-1.907701516380941e-06,0.00022402194419806945
1.5151515151515151,1.3164556962025316,-6.624287966675287e-05,0.00017031706813102647,-3.7128695752513525e-05,-3.122225653928208e-05,0.00022093876074047873
1.6161616161616161,1.3164556962025316,4.3326205250765875e-06,4.024585509534161e-05,2.3737030160975276e-05,-1.3373542686125459e-05,5.616467072567384e-05
1.7171717171717171,1.3164556962025316,-8.455175318712202e-05,0.00017888169769647203,6.985263042118481e-05,-2.8298983352805003e-05,0.0002625082700057074
1.8181818181818181,1.3164556962025316,4.430177092785965e-06,8.855989720156661e-05,4.342720183829889e-05,-2.789702228830577e-05,0.00011457709811309013
1.9191919191919191,1.3164556962025316,5.545571454613116e-05,5.792318926781353e-06,-4.263308386080265e-05,-1.837441004187375e-05,9.077670167975088e-05
2.0202020202020203,1.3164556962025316,0.00010225852904830111,3.0846961191168504e-05,-4.783733764481975e-06,-3.993164707184088e-05,9.122844527350618e-05
2.121212121212121,1.3164556962025316,-2.992325262957686e-05,-1.2274301759333417e-05,0.00010838098767234139,1.2659266316673082e-05,0.0001895206795199751
2.2222222222222223,1.3164556962025316,-4.379438444837102e-05,0.00010567112749757601,-1.612660677550493e-05,-1.85630229147615e-05,0.0001359865420430185
2.323232323232323,1.3164556962025316,-5.522702402054407e-05,-0.0001971731133137732,-3.445875260993515e-05,7.572004120029518e-05,0.00018601127230661243
2.4242424242424243,1.3164556962025316,0.00036499506002564614,-2.6765617153541818e-05,-3.101611484472176e-05,-0.0001014688328616313,0.00038287479452753004
2.525252525252525,1.3164556962025316,0.00019887843588441636,6.895432752387702e-05,-7.63407249041617e-05,-8.0349829022488e-05,0.00021926586960895275
2.6262626262626263,1.3164556962025316,-0.00015381933981002777,-1.610152981233376e-05,-1.2010122856318287e-05,5.097626088670846e-05,0.00014790419544183722
2.727272727272727,1.3164556962025316,1.1721745555495269e-05,9.543753391073554e-05,1.9202229223957076e-05,-3.214778383986924e-05,9.608956514831956e-05
2.8282828282828283,1.3164556962025316,1.4289924704204103e-05,-1.2563409555229456e-06,-9.585859015655834e-06,-3.910075124604347e-06,2.2347246754570652e-05
2.929292929292929,1.3164556962025316,1.471962530717945e-05,-7.703022138935008e-05,7.743489691560871e-05,1.8693178824651185e-05,0.00015897379706621213
3.0303030303030303,1.3164556962025316,5.4692672700661706e-05,-2.8879906566142084e-05,-8.294149452669531e-05,-7.743829840355886e-06,0.0001613776046136018
3.131313131313131,1.3164556962025316,2.35522209512628e-05,0.00013785394115516417,-7.199943944595318e-05,-4.842184863192809e-05,0.00017850324244745303
3.2323232323232323,1.3164556962025316,-9.04713873205915e-05,0.00022162926978023322,2.852126791541332e-06,-3.934736473789252e-05,0.0002781728177529291
3.3333333333333335,1.3164556962025316,8.03309426818873e-05,-9.51474296639727e-05,1.0149163069792187e-05,4.444946094625619e-06,0.00015316132989608863
3.4343434343434343,1.3164556962025316,-6.689634831047034e-05,-5.973646562309733e-05,6.976070565330094e-05,3.79898441800703e-05,0.00013655432432184482
3.5353535353535355,1.3164556962025316,-8.072261692576612e-05,1.3242090126297763e-05,3.046796422074259e-05,2.0244158039840507e-05,0.00010269041111071633
3.6363636363636362,1.3164556962025316,-6.578337821160073e-05,7.934778864796694e-06,5.3080942693070726e-05,1.7354579804041208e-05,0.00011560774003157074
3.7373737373737375,1.3164556962025316,-0.00010610661145400156,-0.0001671330264253171,-1.0240395250871177e-05,8.197189136379559e-05,0.0001475558860397507
3.8383838383838382,1.3164556962025316,-0.00014958380428415157,0.00013711536355180356,9.660857451680915e-05,3.7405322197044037e-06,0.00029947591746658946
3.9393939393939394,1.3164556962025316,4.091072146637685e-05,-1.3553855734002646e-05,9.103026202107418e-06,-8.207059719712261e-06,5.1579912863396956e-05
4.040404040404041,1.3164556962025316,0.00012057348336023445,-1.6844402820353123e-05,2.3411509011576236e-05,-3.111872416196439e-05,0.00013600361532608364
4.141414141414141,1.3164556962025316,-0.00013876956990736144,0.00012627872653568024,5.975238018030581e-07,3.747253011504361e-06,0.00022962583909837762
4.242424242424242,1.3164556962025316,-1.4274170580078845e-06,-8.18446613729931e-05,-2.9428941926822852e-05,2.4981623529300292e-05,9.582247918815108e-05
4.343434343434343,1.3164556962025316,-7.491107668627119e-05,-2.670074638593907e-05,4.405488057193217e-05,3.0483546921663075e-05,0.00010073189720434387
4.444444444444445,1.3164556962025316,9.1692568668681e-05,0.00013697907460443956,-1.0663390561390377e-05,-6.860149298193616e-05,0.00012227818496773533
4.545454545454545,1.3164556962025316,3.8693248654005484e-05,-7.270252156987196e-05,2.9307005188313418e-05,1.0202781874759944e-05,0.00011032960861989014
4.646464646464646,1.3164556962025316,-0.0002506345662104278,8.770371061176229e-05,-2.673712889515651e-05,4.887925667959965e-05,0.0003076293716202236
4.747474747474747,1.3164556962025316,-9.055647405745707e-05,0.0001731647301359385,-5.7773644249218065e-05,-2.4782476823544432e-05,0.00025274704361970013
4.848484848484849,1.3164556962025316,-8.804074963409708e-05,2.489157021595452e-05,-1.0680605303119117e-05,1.894475382544277e-05,0.00010442443370330054
4.94949494949495,1.3164556962025316,-6.560317185749819e-05,-0.00018671238800233047,-5.849166578397103e-05,7.56946679579486e-05,0.00019282165856513055
5.05050505050505,1.3164556962025316,6.741664017417671e-05,8.562504747536946e-05,1.6016603518730007e-05,-4.5912506294863845e-05,8.290774316563256e-05
5.151515151515151,1.3164556962025316,-0.000152493720692304,1.674186822374275e-05,-5.8693982145808016e-05,4.072555574056837e-05,0.0001908470733319735
5.252525252525253,1.3164556962025316,-5.190735056850514e-05,-6.859521175489361e-07,3.44053237752307e-05,1.5777990805816222e-05,7.880619600352376e-05
5.353535353535354,1.3164556962025316,-4.7926424155881934e-05,-0.00010921509113311081,-5.850063080151926e-05,4.7142454586697824e-05,0.00013877161415160315
5.454545454545454,1.3164556962025316,-2.382091411532029e-06,9.77474917226228e-05,-5.65554402598373e-05,-2.8609620093327228e-05,0.00013924310908278528
5.555555555555555,1.3164556962025316,-5.124760963852546e-06,6.076400972102184e-05,-1.1110750166882559e-05,-1.6691774627150788e-05,6.633457156830934e-05
5.656565656565657,1.3164556962025316,-0.00023327865503356928,0.00015342162402510377,-1.877664537845052e-05,2.3957109302539653e-05,0.00033882857458221807
5.757575757575758,1.3164556962025316,7.481724977108058e-05,0.00016114131771259265,2.7541678878615944e-05,-7.078757024510196e-05,0.00014759277471500183
5.858585858585858,1.3164556962025316,-0.00010402007253806511,-7.13919431306723e-05,1.9005812358208227e-05,5.262360470062122e-05,9.784913204468288e-05
5.959595959595959,1.3164556962025316,-6.815222637400718e-05,-8.077329995936956e-06,-3.6289713909537035e-05,2.286886691098324e-05,9.005726624834148e-05
6.0606060606060606,1.3164556962025316,0.00024269448964709444,6.436650157815362e-05,2.7367045298303222e-05,-9.211829736757441e-05,0.00022286572658144037
6.161616161616162,1.3164556962025316,8.14159412912977e-05,6.126484969356901e-06,6.592696100562355e-05,-2.626272787819638e-05,0.00013858711461081668
6.262626262626262,1.3164556962025316,-3.0113891296568886e-05,2.291025794962463e-06,3.837655358576114e-05,8.346859650481927e-06,7.348038204394609e-05
6.363636363636363,1.3164556962025316,4.404118174929038e-05,-0.00011100142853342812,5.388178416799575e-05,2.008807403524132e-05,0.00016691110481387026
6.4646464646464645,1.3164556962025316,-3.9578849819178196e-05,-4.75155533042652e-05,1.5322935424355334e-08,2.6128320937033017e-05,4.408631210355331e-05
6.565656565656566,1.3164556962025316,-3.203151204516732e-05,-5.091619183456877e-05,1.7587425128533917e-06,2.4884311163920826e-05,4.468594038924123e-05
6.666666666666667,1.3164556962025316,-9.215657426687697e-05,-3.490989093775468e-05,1.599802138839497e-05,3.81199395613895e-05,8.521835937208132e-05
6.767676767676767,1.3164556962025316,2.000594114145031e-05,-3.1960835642285714e-05,4.397583636631511e-05,3.5864683502506206e-06,8.867221574399885e-05
6.8686868686868685,1.3164556962025316,0.00010475842650081802,4.5975693081146056e-05,4.6883838340625215e-06,-4.5220235874589226e-05,9.131097328185767e-05
6.96969696969697,1.3164556962025316,-0.00029826899787841946,-0.0001255766882859481,4.9616736163660806e-05,0.00012715370584931026,0.0002732466436883084
7.070707070707071,1.3164556962025316,0.00012987521521307265,-6.034239039788829e-06,2.5733151679608343e-05,-3.715229285198514e-05,0.0001402649883166435
7.171717171717171,1.3164556962025316,5.436854384578015e-05,-0.00012422564777964798,5.6254534034367956e-05,2.0957131180160348e-05,0.00018610651655042468
7.2727272727272725,1.3164556962025316,-1.0972255404806407e-05,-6.373566479812432e-05,3.762944916323185e-05,2.241237606087922e-05,8.792740014552784e-05
7.373737373737374,1.3164556962025316,-0.00017373973722121486,0.00014685592751919696,-3.504980463219861e-05,8.065142910605369e-06,0.00028452124069750813
7.474747474747475,1.3164556962025316,0.00014089800609753706,0.00012924960012020744,-4.296286270184202e-05,-8.104428186532335e-05,0.00015454487704956736
7.575757575757575,1.3164556962025316,6.839969602188842e-05,-3.709010927871833e-05,2.249270666773364e-06,-9.392876022951027e-06,9.277027798747929e-05
7.6767676767676765,1.3164556962025316,4.238463009948229e-06,3.7506223880249324e-05,5.493890129071826e-06,-1.2523406067059266e-05,3.682745093179473e-05
7.777777777777778,1.3164556962025316,-1.6358830856563502e-06,-0.00010368897628398264,-3.005890491682648e-05,3.15974578108917e-05,0.00011530425043429538
7.878787878787879,1.3164556962025316,0.00015032361657038584,-7.628172912060026e-05,7.707705499771403e-05,-2.2212566234935672e-05,0.0002402200127329987
7.979797979797979,1.3164556962025316,-7.404066931047067e-05,8.60738158243638e-05,1.8870762784421785e-05,-3.6099439541679373e-06,0.0001425903309500641
8.080808080808081,1.3164556962025316,9.34116614721929e-05,-0.00014073676139632097,2.272509920344658e-05,1.4197529977238418e-05,0.00020791421216690776
8.181818181818182,1.3164556962025316,-5.5047711562142165e-05,-0.00011409173135210949,6.514894423706417e-05,5.07418328742755e-05,0.00014999946599127172
8.282828282828282,1.3164556962025316,3.3296626852763715e-05,0.00017078759478403972,-1.2399245008927332e-05,-6.122526649104102e-05,0.000158277101652951
8.383838383838384,1.3164556962025316,0.00010733667166044749,0.00013694772794109903,6.025990353845794e-05,-7.328531988046396e-05,0.00016269633027854905
8.484848484848484,1.3164556962025316,-2.5039467142265248e-05,-0.00011137993854470661,3.689112657523262e-05,4.0925821706091555e-05,0.00011969309492808264
8.585858585858587,1.3164556962025316,-1.5808024976087125e-05,-7.929829955857701e-05,1.9936905565959256e-05,2.853189736039924e-05,8.047984267617027e-05
8.686868686868687,1.3164556962025316,-2.1361560533098813e-05,-0.00014062351392924317,-4.385462758398213e-05,4.8595522338702596e-05,0.00015164773758493728
8.787878787878787,1.3164556962025316,0.0001269326008340809,-1.3712550712376408e-05,3.5211881720852294e-05,-3.396601503651135e-05,0.00014751311389332356
8.88888888888889,1.3164556962025316,1.3269282655886946e-05,6.096395768028792e-05,7.368314999512414e-05,-2.2269972100852458e-05,0.00013918099651739953
8.98989898989899,1.3164556962025316,-7.743306096148667e-05,0.00021073639872529204,6.877671377040996e-05,-3.99910013291416e-05,0.00028445453443044457
9.09090909090909,1.3164556962025316,-0.00015635132844240502,-0.0001174496626493621,4.501329006639254e-06,8.214029732753013e-05,0.00014120034090005495
9.191919191919192,1.3164556962025316,2.595223345943365e-06,-1.8609116674145996e-05,5.067531766067793e-05,4.804167998460789e-06,9.002939898543856e-05
9.292929292929292,1.3164556962025316,4.626136457062707e-05,6.545057294983075e-05,-1.775274049441503e-05,-3.351358125613735e-05,6.589034769975928e-05
9.393939393939394,1.3164556962025316,3.790993320032809e-05,4.4544525515901444e-05,-4.938106855746142e-05,-2.473633761486886e-05,9.512185657130602e-05
9.494949494949495,1.3164556962025316,-8.999628766359838e-05,3.504961139698221e-05,0.00010976830771129443,1.6484002879984852e-05,0.00022052071579670927
9.595959595959595,1.3164556962025316,-9.497173033169323e-05,5.3220275270127285e-05,2.6390170863527946e-05,1.2525436518469782e-05,0.000137825150998559
9.696969696969697,1.3164556962025316,4.500599113839346e-06,-0.0001454247575664177,1.1755419553306305e-05,4.2277247535773504e-05,0.00014912304888008206
9.797979797979798,1.3164556962025316,-0.00012949296112198247,-2.669031732529449e-05,3.5745378744930076e-05,4.685498353418309e-05,0.0001336330352127869
9.8989898989899,1.3164556962025316,-0.00022075745399178462,0.0001120126005762406,-1.4650764792200725e-05,3.2623456024663204e-05,0.00029436750402513193
10.0,1.3164556962025316,-2.3376440675996637e-05,-7.643966895656778e-05,3.4449384092630566e-05,2.9944832889769323e-05,9.034862353847344e-05
0.0,1.4177215189873418,8.297388193715551e-05,0.00010196681489696896,9.527289909987213e-06,-5.548220905023734e-05,9.53604830224328e-05
0.10101010101010101,1.4177215189873418,-8.499048591778505e-05,-3.075659085728815e-05,2.8290906337798423e-05,3.472412303252196e-05,8.919898609183103e-05
0.20202020202020202,1.4177215189873418,0.00020996847058985324,-0.00013905864212883988,-3.0247412194891735e-05,-2.1272948538304006e-05,0.0003088150139421918
0.30303030303030304,1.4177215189873418,-3.412327532676026e-05,0.00010078869172095075,-5.440409726919657e-05,-1.9999624918257146e-05,0.00015375765338445206
0.40404040404040403,1.4177215189873418,-4.556611661318022e-06,1.7251641489822492e-05,0.0001593207775476607,-3.808508948551341e-06,0.00027667005864366384
0.5050505050505051,1.4177215189873418,2.0173445066270047e-05,4.6023166335724216e-05,-6.690400192682758e-05,-1.9858983420598277e-05,0.00012257687518056926
0.6060606060606061,1.4177215189873418,-1.2783293947490585e-05,-5.4294934659506955e-05,-5.898227613239793e-05,2.0123468582099263e-05,0.0001133755313879107
0.7070707070707071,1.4177215189873418,4.304485066831598e-05,-5.984272392879289e-05,6.750606635473322e-05,5.0393619781430735e-06,0.0001472451658814116
0.8080808080808081,1.4177215189873418,7.450681672785458e-05,-6.783837587161485e-05,0.00012691574585710472,-2.0005322568719207e-06,0.0002520526771478413
0.9090909090909091,1.4177215189873418,3.6521317583170236e-05,0.00010525697993403195,-3.793962147555567e-05,-4.253348925516065e-05,0.00011352074481764626
1.0101010101010102,1.4177215189873418,6.178589881803544e-05,2.5972223884902625e-06,7.619680699115986e-05,-1.931493636195771e-05,0.00014519514910674115
1.1111111111111112,1.4177215189873418,1.2066017910393228e-05,9.331136125798844e-05,-2.6583984367833904e-05,-3.16132137505145e-05,9.923117980986826e-05
1.2121212121212122,1.4177215189873418,4.8252139673749405e-05,-5.911192096931034e-05,3.232628574884934e-05,3.25793438866828e-06,0.00010867258670759885
1.3131313131313131,1.4177215189873418,7.15901709783339e-05,-6.686162352981035e-08,-5.863348652206243e-05,-2.1456992806441227e-05,0.00012427228537144878
1.4141414141414141,1.4177215189873418,-2.5865826032561034e-05,-3.329596853511161e-05,-5.016560555875352e-05,1.7748538370301793e-05,9.201194862925334e-05
1.5151515151515151,1.4177215189873418,-8.004777317036264e-05,-0.00011346971624297184,-8.09116958690288e-05,5.8055246824000345e-05,0.00017274296504193214
1.6161616161616161,1.4177215189873418,-6.142300719926454e-05,4.080821140039439e-06,3.669871561076802e-05,1.720265581776753e-05,8.989150350996213e-05
1.7171717171717171,1.4177215189873418,8.202918429314537e-05,7.887995739270357e-05,1.0981726947499784e-05,-4.827274250575468e-05,8.271741758735176e-05
1.8181818181818181,1.4177215189873418,0.00021848539617515887,-5.7387487288911625e-05,-1.3361408658109158e-06,-4.832937266587418e-05,0.0002521366212040721
1.9191919191919191,1.4177215189873418,-0.00013095692869959663,-0.00011522149077432935,9.294100431984669e-05,7.385352584217778e-05,0.0002031028001053661
2.0202020202020203,1.4177215189873418,0.00016399642382463765,-7.29568878359839e-05,-3.848454026570922e-05,-2.7311860796596126e-05,0.00022051163852923516
2.121212121212121,1.4177215189873418,0.00011318091779887046,-0.00015743640923328943,5.0557917516997536e-05,1.3276647430325691e-05,0.0002511637901231292
2.2222222222222223,1.4177215189873418,-1.2401654976567081e-05,3.9551808582716084e-05,-0.00011086629118486609,-8.1450460818447e-06,0.000197693343477534
2.323232323232323,1.4177215189873418,-7.893208539157582e-05,2.646869471668457e-05,1.3519545724474713e-05,1.5739017202467372e-05,9.781834963664767e-05
2.4242424242424243,1.4177215189873418,-1.937876461706445e-05,-7.23646701941955e-05,-8.414231999456026e-06,2.7523030443377983e-05,6.649993985362295e-05
2.525252525252525,1.4177215189873418,-4.792364721388958e-06,-3.359881810708242e-05,-1.6619576128935162e-05,1.1517354848541413e-05,4.26551342672285e-05
2.6262626262626263,1.4177215189873418,-9.250049881198538e-05,0.00013036859668697775,-8.409725476369588e-05,-1.136042936249771e-05,0.00024254590963760216
2.727272727272727,1.4177215189873418,-5.808886403010767e-05,2.816869943535085e-06,8.822155309307521e-05,1.6581598225971777e-05,0.00016399697236897545
2.8282828282828283,1.4177215189873418,-7.724932339692743e-05,-3.157701074685652e-05,2.4304134960330808e-06,3.2647900243135186e-05,6.740165863821973e-05
2.929292929292929,1.4177215189873418,-0.00010950287885197769,7.170221067808313e-05,1.0749734880246623e-05,1.1340200452168368e-05,0.00015915513306922593
3.0303030303030303,1.4177215189873418,9.692747279634758e-05,5.893359443758372e-06,8.850165108955342e-06,-3.084624967203178e-05,9.535939648730668e-05
3.131313131313131,1.4177215189873418,-0.00028383143249369403,6.612534356079969e-05,4.376679863883707e-05,6.531182667986829e-05,0.0003308290980381459
3.2323232323232323,1.4177215189873418,5.60138337664186e-05,3.959761038890343e-05,-8.173380045876462e-05,-2.8683433246596608e-05,0.0001500957986359091
3.3333333333333335,1.4177215189873418,-9.417285998999624e-05,2.8246818437916628e-05,5.033458012199761e-05,1.9777812465623883e-05,0.00014116374837985218
3.4343434343434343,1.4177215189873418,0.00019373812947161086,-2.4343202739636955e-05,3.232399717354644e-05,-5.081847801959217e-05,0.00021442430663227874
3.5353535353535355,1.4177215189873418,2.447344215311237e-05,7.776053675173601e-05,0.00010448224258636174,-3.067019367145451e-05,0.0001936290254491234
3.6363636363636362,1.4177215189873418,8.614256322624348e-05,-5.0826556114932246e-05,-2.3498736108089943e-05,-1.059480213339337e-05,0.00012664431146098678
3.7373737373737375,1.4177215189873418,5.713771740492152e-05,9.527935323780055e-05,2.9896298169447262e-05,-4.572512119281662e-05,9.787847095527489e-05
3.8383838383838382,1.4177215189873418,4.6810052816332926e-05,0.00010292747724101947,-1.0992302365303953e-05,-4.492125901720571e-05,9.126717977364719e-05
3.9393939393939394,1.4177215189873418,2.41409120242351e-05,-2.308915434441931e-05,-3.914650622824985e-06,-3.1552730394473706e-07,4.1463952946399606e-05
4.040404040404041,1.4177215189873418,-7.214228178652254e-05,-3.9455085080898606e-05,-3.21589094725762e-05,3.347921006022634e-05,8.37700368251418e-05
4.141414141414141,1.4177215189873418,-2.786944311914084e-07,-0.0001623480277445113,3.6381753133744337e-06,4.878801665271081e-05,0.0001623312146529552
4.242424242424242,1.4177215189873418,1.2879498919150978e-05,-0.00020043152060588183,0.00010686643077332008,5.626560650601925e-05,0.00027781547036925087
4.343434343434343,1.4177215189873418,0.00011181036303684074,2.5393217755636883e-07,-2.644458417635478e-06,-3.361928856431913e-05,0.00011177749771751654
4.444444444444445,1.4177215189873418,6.198507488261028e-05,6.533500156248956e-05,4.125071148335916e-05,-3.819602293352995e-05,9.573860541451897e-05
4.545454545454545,1.4177215189873418,5.082629144530238e-05,5.1703783526490565e-05,-7.52350004740258e-05,-3.075902249153788e-05,0.00014003427241812902
4.646464646464646,1.4177215189873418,-5.5429437596392506e-05,0.000164659481398814,2.31322754912889e-05,-3.2769013140726447e-05,0.00020228063754062898
4.747474747474747,1.4177215189873418,0.00023918172417771515,5.073011925366166e-05,-2.8199935225285627e-05,-8.697355302941304e-05,0.00022368154557185615
4.848484848484849,1.4177215189873418,-0.00011087267752346664,5.745112765993484e-06,0.00010240165191913014,3.1538269427241946e-05,0.00021076296620672387
4.94949494949495,1.4177215189873418,7.108127408820056e-05,8.005736035524012e-05,-0.00010962622747183078,-4.5341590333032205e-05,0.00020451131643011534
5.05050505050505,1.4177215189873418,0.00012885962056209953,-0.00024812885386265855,3.1188843855031926e-05,3.57807699901677e-05,0.00033625102502876674
5.151515151515151,1.4177215189873418,-1.51069862301285e-05,2.8483640754355023e-05,-9.337042814756342e-05,-4.012996357267956e-06,0.00016620454671764645
5.252525252525253,1.4177215189873418,-2.1835969538271726e-05,-3.724848296763228e-05,-4.876526871493084e-05,1.77253357517712e-05,9.04713026774596e-05
5.353535353535354,1.4177215189873418,-1.6698349151508617e-05,3.26648629531922e-05,-6.896592284657878e-05,-4.789954140505075e-06,0.00012712266896567218
5.454545454545454,1.4177215189873418,-0.00017470627902012054,0.0003433021284528112,4.705982389420276e-06,-5.057875482980719e-05,0.0004565327059277499
5.555555555555555,1.4177215189873418,-3.870978182200522e-05,1.5574586130698986e-05,-7.985928406824979e-06,6.940558707391869e-06,5.035105689550117e-05
5.656565656565657,1.4177215189873418,-0.0001446384784048896,-4.523307431871888e-05,4.5214647171461526e-05,5.696146581708254e-05,0.00015018978114735015
5.757575757575758,1.4177215189873418,6.276686628226916e-05,-0.00012349434192304262,-1.2685208392240706e-05,1.8218242692232038e-05,0.00016560382958091815
5.858585858585858,1.4177215189873418,4.724473216791087e-05,4.955382174500048e-06,-2.1181393791679547e-06,-1.5660034302723276e-05,4.51216618685287e-05
5.959595959595959,1.4177215189873418,9.968278762612536e-05,3.063993223079951e-05,4.1680056621326863e-05,-3.909681595707746e-05,0.00011416160080540467
6.0606060606060606,1.4177215189873418,8.733308141826361e-05,-7.960296176187075e-05,-1.9749260608488196e-05,-2.319035896917859e-06,0.00014861282063032534
6.161616161616162,1.4177215189873418,-0.00015585515779336728,4.6465604520864475e-05,6.930205970047898e-05,3.281686598175084e-05,0.00021931738001133107
6.262626262626262,1.4177215189873418,0.0001170125522698951,0.00018665912941711322,-1.9760950307224223e-05,-9.11015045061025e-05,0.00016692391175931096
6.363636363636363,1.4177215189873418,9.389539969466324e-06,6.187572197389293e-05,5.000589754976246e-07,-2.1379578583007774e-05,5.776273922653059e-05
6.4646464646464645,1.4177215189873418,6.778288501211333e-05,-7.329806315033743e-05,-2.7233289451587134e-05,1.6545534414672316e-06,0.00013099784697218484
6.565656565656566,1.4177215189873418,-8.041912029101881e-06,1.9828246343090113e-05,2.8255146208833187e-05,-3.535900294196469e-06,5.488486655496388e-05
6.666666666666667,1.4177215189873418,6.545015291381976e-06,6.927650534717951e-05,4.028579574080171e-05,-2.2746456191568444e-05,9.621585964309737e-05
6.767676767676767,1.4177215189873418,-5.719233005495068e-05,-1.7440262982378698e-05,5.924168765144641e-05,2.2389777911198814e-05,0.00011448322488753632
6.8686868686868685,1.4177215189873418,-9.148588435320771e-05,2.1356502739775872e-05,-1.82649882982198e-05,2.1038814484029552e-05,0.00010853762102425578
6.96969696969697,1.4177215189873418,9.66435387465465e-05,-0.00021263221627413454,-5.421440159172222e-05,3.479660325827641e-05,0.0002896887412917605
7.070707070707071,1.4177215189873418,-7.224645605861822e-05,-3.7155905460718177e-06,-1.0042867364270837e-05,2.2788613981407012e-05,7.257751257590966e-05
7.171717171717171,1.4177215189873418,-0.0001416478902768984,-7.813801972204664e-05,-1.4531215962655176e-05,6.593577299968351e-05,0.00012543945955717677
7.2727272727272725,1.4177215189873418,5.353860578479105e-05,-4.3726979218696954e-05,-3.3411025931317886e-05,-2.9434879698282294e-06,0.00010231521140510228
7.373737373737374,1.4177215189873418,2.2237078876986825e-05,2.3887839545996935e-05,-4.344051331421239e-05,-1.3837475526895128e-05,7.870930932220332e-05
7.474747474747475,1.4177215189873418,-0.00011226260850871854,0.00013659313298522088,2.1798656823242453e-05,-7.299157342950702e-06,0.00021913562690510118
7.575757575757575,1.4177215189873418,3.5971448201808626e-05,-5.703743733084671e-05,-2.7643089041437e-06,6.319796738711425e-06,8.137479816668492e-05
7.6767676767676765,1.4177215189873418,-4.462395221385978e-05,-0.0001548657897105269,1.031880008322638e-05,5.9846922577316e-05,0.00013922434858787647
7.777777777777778,1.4177215189873418,-5.272778170968481e-05,-7.089250560093918e-05,-8.470857112586904e-06,3.7086086193187194e-05,6.54463751088632e-05
7.878787878787879,1.4177215189873418,-0.00010919258825748142,-4.015536317980971e-05,-3.503856582620938e-05,4.480438543118734e-05,0.00011328684729446979
7.979797979797979,1.4177215189873418,0.0002413913930801647,-3.0465060097468218e-05,3.400448906774644e-05,-6.327789989480895e-05,0.00026461451900339705
8.080808080808081,1.4177215189873418,2.340299539973286e-06,-3.9715002951989397e-05,2.122858175207021e-05,1.1212411023604833e-05,5.5024190263600326e-05
8.181818181818182,1.4177215189873418,-2.4747587368160055e-06,-0.00011574081295293102,-6.128627849824535e-05,3.5464671506924106e-05,0.00015615266063132843
8.282828282828282,1.4177215189873418,2.2210652289152534e-05,-0.00017734317773579163,1.287217871113111e-05,4.653975763399173e-05,0.0001907351629233455
8.383838383838384,1.4177215189873418,5.6771728946293276e-05,-0.00018876465155621115,-0.00010673982233929138,3.959787678297536e-05,0.00028939901094604726
8.484848484848484,1.4177215189873418,-0.0001451780134261828,6.82286856028278e-05,-1.792437355121139e-05,2.3084798347006502e-05,0.00019131378323991892
8.585858585858587,1.4177215189873418,-7.107120342440665e-06,-2.304899190106875e-05,1.6870046737673786e-05,9.046833673052825e-06,3.566161323886687e-05
8.686868686868687,1.4177215189873418,0.0002527334367385006,2.8122504709526325e-05,-1.4274652644013481e-05,-8.425678243440808e-05,0.00024118222400537626
8.787878787878787,1.4177215189873418,2.170813671047062e-05,3.13371973383812e-05,3.992231441648108e-05,-1.5913600214655543e-05,7.452760923057758e-05
8.88888888888889,1.4177215189873418,-5.960971677624773e-05,4.315962196079331e-05,1.840668229273978e-05,4.9350284446363255e-06,9.489584818248611e-05
8.98989898989899,1.4177215189873418,-0.00013702567075507137,-1.0142243595345987e-05,4.285731733101276e-06,4.41503743051252e-05,0.00013245472550602066
9.09090909090909,1.4177215189873418,0.00011648363861185558,-0.00010571571074548088,-1.02688401907296e-05,-3.230378359912411e-06,0.0001933254961078332
9.191919191919192,1.4177215189873418,8.157004594666782e-05,4.4191449082509824e-05,3.086390950338118e-05,-3.772844850875329e-05,8.865438942963913e-05
9.292929292929292,1.4177215189873418,3.672854910667109e-05,-0.00016912913974114797,7.986762820358973e-05,3.9720177190343065e-05,0.0002351638455375618
9.393939393939394,1.4177215189873418,0.00011886508650862109,2.816598461723945e-05,-4.887264360559799e-07,-4.410932133775816e-05,0.00010758715463576396
9.494949494949495,1.4177215189873418,-7.178724967404951e-05,9.508563056677045e-05,-3.4145472972243164e-05,-6.98951426781628e-06,0.00015658340343551873
9.595959595959595,1.4177215189873418,7.296041352114822e-05,0.00010956422166101499,-2.7941726216056802e-05,-5.475739055464896e-05,0.00010805512427298303
9.696969696969697,1.4177215189873418,0.00010909102145811831,-6.63515635790878e-05,-4.278197346002872e-05,-1.2821837363709152e-05,0.0001703896492095548
9.797979797979798,1.4177215189873418,-5.549766746972736e-05,-0.0001447857953452444,-2.3059722014876855e-06,6.0085038844491525e-05,0.0001265843443215122
9.8989898989899,1.4177215189873418,0.00012313507698544487,-5.536127883077065e-05,-7.079058551803159e-05,-2.0332139446402265e-05,0.00020019479189725846
10.0,1.4177215189873418,-9.891868559881703e-05,0.00016093810861269085,3.489319072588166e-05,-1.8605826904162143e-05,0.00023507099269848926
0.0,1.5189873417721518,-3.296273787467582e-05,0.00013268611697488195,4.232125560107983e-06,-2.9917013730061838e-05,0.00015205123504854475
0.10101010101010101,1.5189873417721518,-4.50769278987783e-05,-0.00026125573473625654,2.879196547124726e-05,9.189979879051044e-05,0.0002469753312997409
0.20202020202020202,1.5189873417721518,-8.51214041638633e-05,-5.99364438168634e-05,-9.33674161254176e-05,4.351735439421801e-05,0.00017857373734054665
0.30303030303030304,1.5189873417721518,-9.167404864978924e-05,7.250424396204213e-05,-0.00012768240650712318,5.7509414063241315e-06,0.00026308961395500667
0.40404040404040403,1.5189873417721518,-8.183242827225015e-05,9.269121499977613e-05,-4.730500949031331e-06,-3.257636018257793e-06,0.0001514611758032102
0.5050505050505051,1.5189873417721518,0.00022630270532150837,5.662349266763704e-05,-3.376320567957782e-05,-8.487785939674361e-05,0.00021219082674696607
0.6060606060606061,1.5189873417721518,-9.674690653186562e-05,-0.0001447506130769085,-8.271408254949039e-05,7.244925588263223e-05,0.00019192026529748295
0.7070707070707071,1.5189873417721518,4.5755124524486146e-05,-0.00014516243416074157,1.2793876961429555e-05,2.9822192890876625e-05,0.0001740650419416194
0.8080808080808081,1.5189873417721518,1.3815997774557845e-05,5.158023763080465e-05,0.00013682034177872032,-1.961887062160875e-05,0.00024145017712475596
0.9090909090909091,1.5189873417721518,0.0002068276261257953,1.905923291405505e-05,-1.944915136940476e-05,-6.77660577119551e-05,0.00020083265136845003
1.0101010101010102,1.5189873417721518,0.0001266816271365349,-4.1942377985663886e-05,-5.537255137512467e-05,-2.542177474526131e-05,0.0001797750949147971
1.1111111111111112,1.5189873417721518,4.070683611794123e-05,5.909238895855285e-05,4.147646201600523e-05,-2.9939767522948225e-05,8.890659958914044e-05
1.2121212121212122,1.5189873417721518,3.4341344533466205e-05,-0.00013705865068602938,8.84728966633597e-06,3.0815191845768955e-05,0.0001578163604321882
1.3131313131313131,1.5189873417721518,-1.64907142863043e-05,5.857179981128298e-05,5.32598472970493e-05,-1.2624325657493603e-05,0.00011479688240123525
1.4141414141414141,1.5189873417721518,-6.192970962922097e-05,8.973886426694999e-05,-2.7535185772819315e-06,-8.342746391318705e-06,0.00013216883178289915
1.5151515151515151,1.5189873417721518,6.157688192440729e-05,-1.3646331861077999e-05,-8.831428312774809e-05,-1.4379165018998787e-05,0.00016797759118290185
1.6161616161616161,1.5189873417721518,0.00028757494581756004,0.00010356778673990728,-6.595305918237528e-05,-0.00011734281976724019,0.0002769323984270236
1.7171717171717171,1.5189873417721518,-5.2629159814826676e-05,-0.0001706458213872001,-3.072954249746128e-05,6.698249436060804e-05,0.00016044249113161162
1.8181818181818181,1.5189873417721518,2.930294170305977e-05,8.286780474177039e-05,-2.70873548042543e-06,-3.365122393344905e-05,7.293474307539043e-05
1.9191919191919191,1.5189873417721518,-7.942222214320911e-06,-0.00018174520998693033,-9.116120858077406e-05,5.6906229660375366e-05,0.00023786979054203714
2.0202020202020203,1.5189873417721518,4.7346333074780576e-05,7.140933980494232e-05,-9.601161142042118e-06,-3.562670186391687e-05,6.508875145351287e-05
2.121212121212121,1.5189873417721518,-4.872990011521834e-05,0.0001147146533372413,4.9101351741913987e-05,-1.9795425966606886e-05,0.0001683951207222102
2.2222222222222223,1.5189873417721518,-0.000318858813396926,3.345652216756378e-05,9.171600494224005e-06,8.562068736880866e-05,0.0003372099397735165
2.323232323232323,1.5189873417721518,7.113671145198934e-05,1.953932741925852e-05,-3.474583036317724e-05,-2.720281166137436e-05,8.76017791970626e-05
2.4242424242424243,1.5189873417721518,-0.00011786166880984234,-9.150892233757276e-05,5.134307927571429e-05,6.281117734422453e-05,0.00013924150571171352
2.525252525252525,1.5189873417721518,7.515297917465144e-05,6.47696353311172e-05,-4.1619504629136515e-05,-4.197678435173059e-05,0.00010085630560994402
2.6262626262626263,1.5189873417721518,1.0813645183142646e-05,-8.280616684996597e-05,-8.332553476900027e-05,2.1597756500046993e-05,0.0001694068089878402
2.727272727272727,1.5189873417721518,0.00026667129688851015,-1.2677187209227555e-05,-3.4622685343208645e-05,-7.619823290378478e-05,0.0002797340248072182
2.8282828282828283,1.5189873417721518,-7.68623324589609e-05,9.49808523807841e-05,-1.1383147691348013e-05,-5.4355559765469585e-06,0.0001503940107751255
2.929292929292929,1.5189873417721518,4.1109350523554385e-05,3.681158097940115e-05,3.233650785225112e-05,-2.337627945088666e-05,6.832803399117492e-05
3.0303030303030303,1.5189873417721518,-0.00013761474447284572,-1.009149952862307e-05,-3.172281013881325e-05,4.4311873200440634e-05,0.00014377039743769608
3.131313131313131,1.5189873417721518,-0.00014144395659007846,-0.00013584595178963801,-3.330762852709993e-05,8.318697251391495e-05,0.0001502468665893404
3.2323232323232323,1.5189873417721518,0.0001456442700807033,0.00011310422571274173,-2.134468835828029e-05,-7.76245487380335e-05,0.000137472266467752
3.3333333333333335,1.5189873417721518,-3.797479775112143e-05,0.00013990438207978686,5.9645596260994405e-05,-3.057887529859963e-05,0.00019235631901065722
3.4343434343434343,1.5189873417721518,-3.682657412625001e-05,3.8129488877755505e-05,4.2077746315339204e-05,-3.908744254516486e-07,9.760042590809674e-05
3.5353535353535355,1.5189873417721518,5.075303852699195e-05,1.9501888321384864e-05,3.6623166901834596e-05,-2.1076478054513042e-05,7.739627601026198e-05
3.6363636363636362,1.5189873417721518,0.00011637405694007868,-5.920795411500878e-05,7.3611318006800115e-06,-1.714983084752097e-05,0.00015524603559132906
3.7373737373737375,1.5189873417721518,-0.00019755582478259395,-2.4739902882557715e-05,-3.1048060811691584e-05,6.66887182995455e-05,0.0001940226817195966
3.8383838383838382,1.5189873417721518,-0.00010612221687280742,-7.384130178435407e-06,-1.5567758648535376e-05,3.405190411537285e-05,0.00010611265408185506
3.9393939393939394,1.5189873417721518,-7.760552425114326e-05,8.98314153260432e-05,-3.607026463733105e-05,-3.6677673224699823e-06,0.00015800919792023472
4.040404040404041,1.5189873417721518,0.00019329646244814664,-7.271785301903529e-05,-4.0560423005843214e-05,-3.61735828287334e-05,0.00024827999522979773
4.141414141414141,1.5189873417721518,-3.33036994075077e-05,8.268688349800682e-05,2.3603526906091567e-05,-1.4814955227149737e-05,0.0001112268657160651
4.242424242424242,1.5189873417721518,-9.211886360756673e-05,-0.0001523609663260344,-4.448929972420525e-06,7.334394898008034e-05,0.00013313079639867684
4.343434343434343,1.5189873417721518,-8.071446045880317e-05,-6.174329266591428e-05,-7.952912956650033e-05,4.2737325937415235e-05,0.00015594271098939117
4.444444444444445,1.5189873417721518,-9.921911238872779e-05,-4.492324926168086e-05,5.033540457385767e-05,4.324270849512259e-05,0.0001224999776771994
4.545454545454545,1.5189873417721518,-3.0216622104665532e-05,5.879339718256287e-05,-5.935158784321123e-05,-8.573032523369202e-06,0.00012928294012408992
4.646464646464646,1.5189873417721518,4.0306204697071213e-05,-3.802447236105801e-05,-4.667664021711289e-05,-6.845197008039609e-07,0.0001055424039321419
4.747474747474747,1.5189873417721518,-0.00014151334022024215,-9.083183082963706e-05,9.891969981758447e-06,6.970355131496377e-05,0.00012536380810860816
4.848484848484849,1.5189873417721518,1.9816499192040458e-05,2.4538484583545814e-05,8.752803614741251e-06,-1.3306495132675882e-05,2.7173492953906487e-05
4.94949494949495,1.5189873417721518,-8.106090271692674e-05,-0.0001112843463555923,3.876240715648218e-05,5.770357472175571e-05,0.00012017420166126235
5.05050505050505,1.5189873417721518,7.190497986636767e-05,-3.2949293302419135e-05,8.657401444640103e-05,-1.1686705969184561e-05,0.00017638134896391408
5.151515151515151,1.5189873417721518,3.0870831170712024e-05,6.722665936409904e-05,-1.7195105466145254e-05,-2.9429247160443322e-05,6.545306754463628e-05
5.252525252525253,1.5189873417721518,1.5406615678863297e-05,4.6776986118847665e-05,-3.910104211768609e-05,-1.8655080539313286e-05,7.931865904916472e-05
5.353535353535354,1.5189873417721518,-3.785663852362782e-05,-0.0002380386063518279,-9.660315663447006e-07,8.27685734626367e-05,0.0002215557748510775
5.454545454545454,1.5189873417721518,0.0001197609565187732,6.164995361121661e-05,4.308102689044166e-05,-5.442327303899694e-05,0.0001277813394300757
5.555555555555555,1.5189873417721518,-0.0002888577038968008,1.9425142282461188e-05,1.621657472036846e-05,8.082976848430188e-05,0.0003003600225359394
5.656565656565657,1.5189873417721518,5.3179176570469814e-05,-0.0001407755284261137,-2.3834997235070853e-05,2.6278905556693164e-05,0.00017842763851748345
5.757575757575758,1.5189873417721518,7.24641850131477e-05,2.8036483173166428e-05,6.154786700853645e-06,-3.0150200455894235e-05,6.418026014717939e-05
5.858585858585858,1.5189873417721518,5.489817509544686e-05,-9.081545827231001e-05,-1.1818130830708102e-05,1.0775184953058946e-05,0.0001290963387111414
5.959595959595959,1.5189873417721518,4.3015210698889e-05,-0.00011384453081135757,-4.347357355351431e-05,2.1248796033740573e-05,0.00015930407031659023
6.0606060606060606,1.5189873417721518,6.221640513308055e-05,-5.57178049764279e-06,3.965305659026675e-05,-1.6993387390631328e-05,9.468725705819214e-05
6.161616161616162,1.5189873417721518,-1.0768472258047566e-05,-2.7756590470450187e-06,1.581621429325515e-05,4.063239391527775e-06,2.9055680583706615e-05
6.262626262626262,1.5189873417721518,-0.00029688001202086105,5.039529866940974e-05,-3.3768955124459116e-05,7.394541400543539e-05,0.000330242049913163
6.363636363636363,1.5189873417721518,0.00010021479682067943,-2.776774137729437e-05,-5.406127762732429e-05,-2.1734116633015514e-05,0.0001495481753128302
6.4646464646464645,1.5189873417721518,4.475090493602749e-05,-5.78673613634692e-05,4.53936492718341e-05,3.934936928232512e-06,0.00011883872253471052
6.565656565656566,1.5189873417721518,-8.010048536220943e-05,-9.986036623861513e-05,2.546606623481031e-05,5.398825548024737e-05,0.00010166060340583292
6.666666666666667,1.5189873417721518,-7.330198458191983e-05,4.115599009085382e-06,-1.948550261894854e-05,2.075591567185033e-05,8.264898735556346e-05
6.767676767676767,1.5189873417721518,-7.037120124835164e-05,-0.0001031515372002506,-3.14675557614468e-05,5.205682153458067e-05,0.00010632059633633699
6.8686868686868685,1.5189873417721518,-0.00022339193802333078,0.00011538881252327905,-2.8771599155047773e-05,3.240093765001552e-05,0.0003024547589953817
6.96969696969697,1.5189873417721518,-8.983793813056421e-05,-9.322534464494335e-05,7.358685839575207e-05,5.491898483265227e-05,0.00015694497269099132
7.070707070707071,1.5189873417721518,-3.862240059858996e-05,-0.00014586349550124172,3.2292631048770087e-06,5.53457688299495e-05,0.00013101730882780603
7.171717171717171,1.5189873417721518,0.00011431077549790393,6.54016710665246e-05,4.345098500884675e-06,-5.391373396932855e-05,9.962357089414126e-05
7.2727272727272725,1.5189873417721518,-0.0001132080356715957,-1.1290485622181085e-06,-5.969310659271311e-05,3.430112527014414e-05,0.00015290296807268853
7.373737373737374,1.5189873417721518,-0.00013185774143489173,0.00011392938644609846,4.5855318883721885e-05,5.378506496637984e-06,0.00022736968017289413
7.474747474747475,1.5189873417721518,-3.5487795645720025e-05,2.952766519217917e-05,5.7772197957466244e-05,1.788039136062256e-06,0.00011485651470525784
7.575757575757575,1.5189873417721518,0.00015615821967618362,0.00016035773611195969,-1.4319162168906533e-05,-9.495478673644299e-05,0.00016023086386991606
7.6767676767676765,1.5189873417721518,-7.891011263183687e-05,-7.366344695623273e-06,-6.564552009178961e-05,2.5882937198238043e-05,0.00013648367208018698
7.777777777777778,1.5189873417721518,6.287195819839737e-06,-0.00011371742900502336,5.063439115410603e-06,3.222906995555508e-05,0.00011731607512229196
7.878787878787879,1.5189873417721518,-9.290619349365513e-06,-4.1162390408664005e-05,-7.089284965468516e-05,1.5135902927408856e-05,0.00012835740059590874
7.979797979797979,1.5189873417721518,-6.015687240961567e-05,-0.00011758178010567083,-4.853768345709644e-05,5.332159575458595e-05,0.00013205564097590325
8.080808080808081,1.5189873417721518,0.0001841281420187297,-1.421696275694666e-05,-3.809386155344628e-05,-5.097335377853492e-05,0.00020267329502193272
8.181818181818182,1.5189873417721518,-5.375019178958817e-05,-2.8199496208670977e-05,0.00011345744589061769,2.4584906399477745e-05,0.0002019562884842209
8.282828282828282,1.5189873417721518,0.00012009346184674947,4.520017617780555e-05,-2.9113176689713883e-05,-4.9588091407366506e-05,0.00011653317571603885
8.383838383838384,1.5189873417721518,0.00012582164613024222,-4.706182390064752e-05,-5.435443446984547e-05,-2.3627946668878412e-05,0.00018119191951204854
8.484848484848484,1.5189873417721518,-5.724613520207632e-05,-5.0417914303074374e-05,-1.2225152022126916e-05,3.229921485154521e-05,5.814824473136228e-05
8.585858585858587,1.5189873417721518,7.051033955878056e-06,-7.009277613552523e-05,-6.156393356935345e-06,1.891252265389415e-05,7.463674985100236e-05
8.686868686868687,1.5189873417721518,-4.6224877288121105e-05,-6.129435816489486e-08,1.7519618553660125e-05,1.38858514938858e-05,5.526952881934879e-05
8.787878787878787,1.5189873417721518,-4.521357228433459e-05,7.798089617464759e-05,8.365210585254203e-05,-9.8301971670939e-06,0.0001806768015368775
8.88888888888889,1.5189873417721518,0.00011080037522209424,5.975368651255915e-05,-3.7044146827974974e-06,-5.116621852039602e-05,9.626870404824976e-05
8.98989898989899,1.5189873417721518,-5.173150273871028e-05,-7.14444847270461e-05,-1.4521622686456926e-05,3.695279623972691e-05,6.868161902968541e-05
9.09090909090909,1.5189873417721518,6.678171301869275e-05,-0.00011710735097268135,-3.879706418772381e-05,1.509769138619658e-05,0.0001746716774962267
9.191919191919192,1.5189873417721518,0.00011434370380415558,-8.603272330621515e-05,5.326456750571254e-05,-8.493294149382128e-06,0.00019703998265590362
9.292929292929292,1.5189873417721518,-0.0001440884180310289,-5.511470669686679e-05,-8.967864396150045e-05,5.97609374183687e-05,0.00019996122062812874
9.393939393939394,1.5189873417721518,-3.4304865932798355e-05,-5.736195955215921e-05,-0.00010545892657173367,2.7500047645487264e-05,0.00018937840288490748
9.494949494949495,1.5189873417721518,-0.0002098623840380301,9.105674282736153e-05,1.8321475551024835e-05,3.5641692363200565e-05,0.0002691653119925414
9.595959595959595,1.5189873417721518,6.220427495132445e-05,-4.268066902051526e-05,4.461348794255307e-05,-5.857081779242756e-06,0.00011965375598082299
9.696969696969697,1.5189873417721518,-8.589574132633194e-05,1.689616836108267e-05,2.1399244587982097e-05,2.069987188957478e-05,0.00010241411424723026
9.797979797979798,1.5189873417721518,-0.0002315069778128262,-6.774773924264636e-05,-0.00010667387067733494,8.977641511664176e-05,0.00027683769006162415
9.8989898989899,1.5189873417721518,-3.518159063911279e-05,1.3973380478812615e-05,-3.6992193576175458e-06,6.362463048090051e-06,4.433574297698463e-05
10.0,1.5189873417721518,0.0001597221314452208,-0.00021006544781898407,-3.47733583483063e-05,1.5102994912128979e-05,0.00032683070856621906
0.0,1.620253164556962,2.825877259699787e-05,-4.3669319431075623e-05,4.884297233329111e-06,4.623164050223326e-06,6.333386245857031e-05
0.10101010101010101,1.620253164556962,-0.00014138417800107657,-0.00013570038338445362,2.765410955722846e-05,8.312536841565907e-05,0.00014667120374052797
0.20202020202020202,1.620253164556962,0.00014821647892893322,-7.39834857342387e-05,5.4198296314654784e-05,-2.2269897958408354e-05,0.00021730075589406126
0.30303030303030304,1.620253164556962,-6.61203106585391e-05,7.31247442450717e-05,5.3314789405882017e-05,-2.1013300759597777e-06,0.0001519261492205337
0.40404040404040403,1.620253164556962,4.8846383341330256e-05,0.0001884565612092592,-2.9571897087770966e-05,-7.119088336517684e-05,0.0001769743328520841
0.5050505050505051,1.620253164556962,0.00019964023514365946,3.659821840400199e-05,7.883300278796647e-06,-7.087153606429843e-05,0.00018459581636755945
0.6060606060606061,1.620253164556962,3.9368473170679436e-05,0.00013724203917638795,-3.829989095225059e-05,-5.2983153704120216e-05,0.00013922244575046658
0.7070707070707071,1.620253164556962,-0.00014734343502712308,8.0957862247533e-05,5.685336339266984e-05,1.9915671833877025e-05,0.00022336021939562927
0.8080808080808081,1.620253164556962,-0.0002271635311382411,6.269489641586583e-05,3.292022000142526e-05,4.934059041671258e-05,0.00027023533563320663
0.9090909090909091,1.620253164556962,6.718978277140081e-05,4.8457407425399333e-05,1.7681177163287762e-05,-3.4694157059040046e-05,6.74137719039666e-05
1.0101010101010102,1.620253164556962,0.00014110531258462774,-5.413191241971069e-06,2.406855421181005e-05,-4.070763640279699e-05,0.0001498056334950287
1.1111111111111112,1.620253164556962,-0.00017096214902637694,-5.203535965631242e-05,-6.439074260477526e-05,6.689925260480681e-05,0.00018835647411665616
1.2121212121212122,1.620253164556962,-5.0252288803860024e-05,8.016190139085401e-05,-1.9475585186481594e-05,-8.972883776098197e-06,0.00011881682220734154
1.3131313131313131,1.620253164556962,8.813069536357638e-05,-4.0604312647172196e-05,3.089567339229137e-05,-1.4257914814921255e-05,0.0001259279313030337
1.4141414141414141,1.620253164556962,2.598531716186105e-05,5.029928917677838e-06,2.1093533781376968e-05,-9.304573823861667e-06,4.3642228367146895e-05
1.5151515151515151,1.620253164556962,7.01225406557071e-05,9.216627702199859e-05,9.126416165854049e-05,-4.86866453033117e-05,0.00017870730659448557
1.6161616161616161,1.620253164556962,-9.237584545684148e-06,8.180601031115399e-05,-3.835268726816432e-06,-2.1770527729640952e-05,8.704811362966103e-05
1.7171717171717171,1.620253164556962,-8.197019606726369e-05,0.00012979019475303845,5.073370347547387e-05,-1.4345999605732426e-05,0.00020475659064817458
1.8181818181818181,1.620253164556962,5.894073529871479e-05,0.00014157018379368328,5.4044628446844836e-05,-6.0153275727719416e-05,0.00015470727868988282
1.9191919191919191,1.620253164556962,-7.184998195498211e-05,6.538110144424389e-05,-1.5315382404060025e-05,1.9406641532214663e-06,0.00012181306213418706
2.0202020202020203,1.620253164556962,-8.403710517241587e-05,7.494214880037797e-05,-1.8335100380062172e-05,2.728486911611369e-06,0.00014136834748628403
2.121212121212121,1.620253164556962,5.3971959533271946e-05,-0.00010419882556633556,-3.905092055664685e-05,1.5068059809919082e-05,0.00015481959065670638
2.2222222222222223,1.620253164556962,6.732008797730628e-05,-5.773416654357511e-05,6.544605365801887e-05,-2.8757764301193515e-06,0.0001568485104200493
2.323232323232323,1.620253164556962,0.000133503497202591,-8.994802510031285e-05,-2.6176787607037218e-05,-1.3066641630683441e-05,0.00019994469117833245
2.4242424242424243,1.620253164556962,-0.00015505455060094188,-6.610382284609772e-05,7.912819734486236e-07,6.634751203411188e-05,0.00013477317572130915
2.525252525252525,1.620253164556962,-0.00020529468591561626,-1.597921196764514e-05,4.107525732290689e-05,6.638216936497842e-05,0.00021019592353480773
2.6262626262626263,1.620253164556962,-0.00012084884447917502,-0.0001399704397623119,-3.372621310238557e-05,7.824578527244608e-05,0.00014385156816445216
2.727272727272727,1.620253164556962,-0.00016462030980410506,-4.706701402125912e-05,-2.2343299134330532e-05,6.350619714760926e-05,0.00015187044751287734
2.8282828282828283,1.620253164556962,5.0870473610590144e-05,-5.860442984825656e-05,-3.238764133975547e-05,2.3201868712999252e-06,0.00011022884069027625
2.929292929292929,1.620253164556962,-6.644920039572679e-05,9.017793022478351e-06,-6.291070882153687e-05,1.722942221197453e-05,0.00013026631879803067
3.0303030303030303,1.620253164556962,-9.654342854684099e-05,0.00021162834568246272,-1.58576933120015e-06,-3.452547514068652e-05,0.0002730312442832711
3.131313131313131,1.620253164556962,6.455392839714455e-05,-8.696901162166752e-05,0.00012882315426083555,6.724524967356891e-06,0.0002590969417497668
3.2323232323232323,1.620253164556962,-0.0001765261011588941,2.100325442629765e-05,-4.864295063711154e-05,4.6656854019778936e-05,0.0002059335660897269
3.3333333333333335,1.620253164556962,-3.6176125709048416e-05,-7.911747639025078e-05,5.937928434930779e-05,3.458808062978976e-05,0.0001236277541634977
3.4343434343434343,1.620253164556962,3.162982885138571e-05,3.3482748409666714e-05,-5.376405374156134e-05,-1.9533773178315725e-05,9.866208662266226e-05
3.5353535353535355,1.620253164556962,0.00020614675598401195,-0.0001006976743108814,-1.7851611333699977e-05,-3.1634724501939164e-05,0.00027267388138636116
3.6363636363636362,1.620253164556962,9.256331713308195e-05,-1.5139916483411709e-05,3.120349536978839e-05,-2.3227020194901073e-05,0.0001145406478526458
3.7373737373737375,1.620253164556962,-0.00015274080952871224,9.574190575916585e-05,-2.457006389944454e-05,1.709967113086392e-05,0.00022120358886199923
3.8383838383838382,1.620253164556962,-9.920478357037551e-06,-0.0001417679215786135,-4.769016356710246e-05,4.5506519980695316e-05,0.0001600412727548131
3.9393939393939394,1.620253164556962,-3.6674925254442746e-05,-8.621323429409738e-05,2.984611769190192e-05,3.6866447864562035e-05,9.103999236612826e-05
4.040404040404041,1.620253164556962,-0.00020341564424957196,-0.0002607860409267134,5.2230892788424244e-05,0.0001392605055528856,0.00025401480552464416
4.141414141414141,1.620253164556962,3.623346541163716e-05,0.0001279640593323795,4.8448255846735515e-05,-4.9259257423205e-05,0.00014174901644306678
4.242424242424242,1.620253164556962,0.00013586056221161834,-6.728606992201727e-05,4.04411395831064e-05,-2.0572347686880323e-05,0.00019244086928447407
4.343434343434343,1.620253164556962,1.1203965154678014e-05,-1.5533609153627075e-05,3.4089563678218743e-07,1.2988931996847183e-06,2.3263888189940274e-05
4.444444444444445,1.620253164556962,-6.614867338377655e-05,9.574151807640852e-05,-3.7248375370690965e-05,-8.87785340778959e-06,0.00015504058851081477
4.545454545454545,1.620253164556962,-3.993270958336794e-05,-5.94180922313213e-05,-2.6925023974920543e-05,2.980524054440677e-05,7.019456037442235e-05
4.646464646464646,1.620253164556962,-2.472354709866867e-05,-1.9928429639410772e-05,-1.9181056452077034e-06,1.3395593021423833e-05,2.295064286766473e-05
4.747474747474747,1.620253164556962,-0.00012240820599601973,-2.1145233662385534e-05,-2.8834275764182e-05,4.3066031897521575e-05,0.00012384177833169347
4.848484848484849,1.620253164556962,-4.119822775003231e-05,-0.00013922081076897172,2.5347010527105107e-05,5.412571155570121e-05,0.00013142104199591727
4.94949494949495,1.620253164556962,-0.00010049981486770181,-6.188460113063063e-05,1.2340787997077812e-05,4.871532479949973e-05,9.037372867109168e-05
5.05050505050505,1.620253164556962,0.00014278999403913257,2.1332400209407306e-05,1.6545231018329048e-05,-4.923671827456196e-05,0.0001364523155025147
5.151515151515151,1.620253164556962,8.001246696895624e-05,-2.583974878406468e-05,6.195804882564924e-05,-1.6251815455467468e-05,0.00014371356573614615
5.252525252525253,1.620253164556962,-7.364948058517281e-05,2.918460956410885e-06,8.172288884425223e-05,2.1219305888628576e-05,0.00016026103151270938
5.353535353535354,1.620253164556962,4.5752613577158996e-05,4.540085153396949e-06,1.548509423599947e-05,-1.5087809619166783e-05,5.124019604962021e-05
5.454545454545454,1.620253164556962,-5.7557433295122145e-05,0.00010405411675898835,-6.642713658902519e-06,-1.394900503915986e-05,0.0001423431844547411
5.555555555555555,1.620253164556962,0.0001371999353900364,8.303902783010503e-05,-5.8476210984617066e-05,-6.607168896604243e-05,0.00015679526432328761
5.656565656565657,1.620253164556962,1.421318948353323e-05,1.8947518844269404e-05,0.00013281536465391242,-9.948212498340791e-06,0.00023067614054021176
5.757575757575758,1.620253164556962,-0.00010922469050183856,3.911933342814503e-05,2.1399029741662322e-05,2.103160712210806e-05,0.00013822773879025086
5.858585858585858,1.620253164556962,-4.4138226850186906e-05,4.051760451879238e-05,9.331611523509292e-05,1.0861866994183589e-06,0.00017748782113937808
5.959595959595959,1.620253164556962,1.8277943142246286e-05,5.1859657413777285e-05,-5.281256621995137e-05,-2.104128016680707e-05,0.00010219158896509237
6.0606060606060606,1.620253164556962,0.00012765779659907342,2.6590222529070374e-05,3.9820760544958e-05,-4.627440573844313e-05,0.00013552188996126185
6.161616161616162,1.620253164556962,-1.051121570797828e-05,8.334428717037824e-05,-6.409516694484045e-05,-2.1849921438719986e-05,0.00014232841219213597
6.262626262626262,1.620253164556962,-3.169317407371037e-05,-2.768933576219697e-05,-1.2933756241966826e-05,1.7814752950772203e-05,3.7355586076265925e-05
6.363636363636363,1.620253164556962,-2.24052380016004e-05,0.0002818578037058134,2.6032843270808905e-05,-7.78357697112639e-05,0.0002971431206686397
6.4646464646464645,1.620253164556962,7.335210972299782e-06,-1.1440036760895428e-06,-6.827745684481573e-05,-1.8573621888630716e-06,0.00011852821989856796
6.565656565656566,1.620253164556962,-5.220691452987818e-05,-6.125928085883663e-05,-7.535048891372307e-05,3.4039858616614443e-05,0.00014252435551415083
6.666666666666667,1.620253164556962,1.3874363720303655e-05,-0.00010403853056107185,2.9907598322474628e-05,2.704925005223046e-05,0.00012305842326365172
6.767676767676767,1.620253164556962,6.604623482761262e-05,-6.66011494131622e-06,3.806634449341651e-05,-1.781583596588892e-05,9.58826237156824e-05
6.8686868686868685,1.620253164556962,4.7330962144199906e-05,2.6042953234258538e-05,-4.192083481483667e-05,-2.2012174613537532e-05,8.341394686574943e-05
6.96969696969697,1.620253164556962,1.351335681780356e-05,0.00011063479157262805,-0.00012105892370167524,-3.724444451712948e-05,0.00023429342612895471
7.070707070707071,1.620253164556962,0.0001385507918043456,-4.307349466266946e-05,-5.005515035599201e-05,-2.8643189142502838e-05,0.0001858388249931702
7.171717171717171,1.620253164556962,-0.00025336852256901455,-3.5143480218643414e-05,-8.4372072405797e-05,8.655360083629738e-05,0.00027907411305224907
7.2727272727272725,1.620253164556962,-6.216381044937694e-05,1.4790727145495567e-06,-2.1044247330487715e-05,1.8205421320448215e-05,7.27121229140596e-05
7.373737373737374,1.620253164556962,-9.638684063006192e-05,0.00010246344168960362,-3.1124932956855016e-05,-1.8229803178625093e-06,0.000180476014220099
7.474747474747475,1.620253164556962,7.079619417358187e-05,-3.99866078429679e-05,-5.5050393641606795e-06,-9.242875899184189e-06,9.763629419763591e-05
7.575757575757575,1.620253164556962,6.230350249810413e-06,3.53005522986942e-05,2.0130958915533307e-05,-1.2459270764551385e-05,4.775749127175979e-05
7.6767676767676765,1.620253164556962,7.077505322108144e-05,0.00010235130947364866,8.845526658847617e-05,-5.193790880841903e-05,0.00017808419889447748
7.777777777777778,1.620253164556962,-0.00021389734080649904,-4.73125733170782e-05,5.8843176451591356e-06,7.836297423707318e-05,0.00019487019772450418
7.878787878787879,1.620253164556962,-7.732555910432074e-05,9.210233544152461e-05,1.7000703159706825e-05,-4.43303290116116e-06,0.00014983663968196132
7.979797979797979,1.620253164556962,-0.00023408924815935463,7.087529439398968e-05,-2.030035960491999e-05,4.896418612960948e-05,0.0002786548790839231
8.080808080808081,1.620253164556962,-3.50625114504061e-05,9.976819249945834e-06,-2.8205931566528404e-06,7.525707660138079e-06,4.126252789168251e-05
8.181818181818182,1.620253164556962,0.00012829453006299877,-5.9116401227154014e-05,4.056004960402646e-05,-2.0753438650753425e-05,0.00018020515842847624
8.282828282828282,1.620253164556962,-1.2083759606708711e-05,-5.448703035899364e-05,-2.8557091086748337e-05,1.9971236989710705e-05,7.00211960840689e-05
8.383838383838384,1.620253164556962,0.00017663576016481872,-0.00013488571084466406,5.24972122404567e-05,-1.2525014796046398e-05,0.0002854607831358828
8.484848484848484,1.620253164556962,0.0001699380286329797,-1.8098871275435532e-05,2.5912527231089846e-05,-4.555174720726325e-05,0.0001851933217603802
8.585858585858587,1.620253164556962,4.7438745080990485e-05,-5.846222594985558e-05,6.320641227705315e-05,3.3070442606595273e-06,0.00014292233097169972
8.686868686868687,1.620253164556962,-0.000170571772232287,0.00020072782601770838,-0.0001252442901338108,-9.046816135626416e-06,0.00038817945241060843
8.787878787878787,1.620253164556962,7.112488325481429e-05,-4.258051681325187e-05,0.00015122524449917487,-8.563309932468725e-06,0.0002801920902503717
8.88888888888889,1.620253164556962,7.998009360476973e-07,-0.00015522300252753722,-2.5152317196986903e-05,4.632696047744686e-05,0.00016160719315380835
8.98989898989899,1.620253164556962,-5.6227639567548616e-05,-0.00014284893718728305,-2.197318099035038e-05,5.9722973026449495e-05,0.00013032179327573972
9.09090909090909,1.620253164556962,2.4327956305070416e-05,-0.00011295431931722227,4.2779855780077965e-05,2.6587908903645555e-05,0.0001469313568878665
9.191919191919192,1.620253164556962,5.947711174026723e-05,-2.8759184419475503e-05,-3.9623553271788466e-06,-9.215378196237518e-06,7.824469000469106e-05
9.292929292929292,1.620253164556962,-3.302151206533957e-05,0.00016799629064883652,-8.738209900500554e-06,-4.0492433575049085e-05,0.0001873225411055439
9.393939393939394,1.620253164556962,2.1702695574819354e-05,-2.739284715820775e-05,-7.137560374699202e-05,1.707045475016519e-06,0.00013076430753149429
9.494949494949495,1.620253164556962,-6.34621302731446e-05,-8.957763405612428e-05,9.123365143728103e-05,4.591192929878066e-05,0.00017702413531382248
9.595959595959595,1.620253164556962,-9.665195231907765e-05,9.395796650611144e-05,6.84177383646665e-05,8.081957438898623e-07,0.00020320895901659178
9.696969696969697,1.620253164556962,6.604949773931639e-05,4.218670909678688e-05,4.693470192157151e-05,-3.247086205083098e-05,9.982205348677096e-05
9.797979797979798,1.620253164556962,0.0001261405294692948,-1.1846944932078156e-05,-7.066432202939359e-06,-3.4288075361164996e-05,0.00013302618756312555
9.8989898989899,1.620253164556962,1.4333062254128283e-05,-0.00014631183862274304,4.500255251277666e-05,3.959363291058443e-05,0.00017258440452207647
10.0,1.620253164556962,-0.00012878281455252333,6.87506047601006e-05,-2.7065201316825256e-05,1.800966293772682e-05,0.00017989755620659187
0.0,1.7215189873417722,8.722697155677079e-05,-4.708028413950021e-05,-7.060772480720073e-05,-1.2044006225181175e-05,0.00016996505739266178
0.10101010101010101,1.7215189873417722,0.00021442102165816876,6.277414543627364e-05,3.7710527346380276e-06,-8.315855012833272e-05,0.0001910485121172246
0.20202020202020202,1.7215189873417722,6.329830090554498e-05,-0.00011003301245479209,-3.2219876748291905e-05,1.4020413464774133e-05,0.00016184314267937868
0.30303030303030304,1.7215189873417722,0.0001241754841382734,2.59134643716846e-05,2.6735690909741356e-05,-4.50266845529874e-05,0.00012254645249017618
0.40404040404040403,1.7215189873417722,0.00014758003414465953,-6.208388811005149e-05,5.788389351471712e-06,-2.5648843810382413e-05,0.00018680774695383374
0.5050505050505051,1.7215189873417722,0.0002551472854461136,-0.0001280051090409636,1.6066010938713336e-05,-3.8142652921545e-05,0.0003389984534309762
0.6060606060606061,1.7215189873417722,-5.125837860791844e-05,-2.1216237349308747e-05,-8.059671983607672e-05,2.174238478716816e-05,0.00014655215427653636
0.7070707070707071,1.7215189873417722,-5.932493038820419e-05,0.0001428993920512065,1.5086791220449023e-05,-2.5072338498900693e-05,0.00018193409220954842
0.8080808080808081,1.7215189873417722,-4.1067505153057295e-05,0.00014397936827047767,8.275707531488692e-05,-3.087355893522611e-05,0.00022107843056134083
0.9090909090909091,1.7215189873417722,-2.1005182517473053e-06,-8.17862966360927e-05,-0.00010453717270927283,2.5166044466352e-05,0.00019825659716562007
1.0101010101010102,1.7215189873417722,-0.0001324397849476847,0.0002128124760286703,8.387553689402545e-05,-2.4111807324295686e-05,0.0003348426529246936
1.1111111111111112,1.7215189873417722,1.7956562592343363e-05,-4.89710011143148e-05,-6.79356988555444e-05,9.30433155659143e-06,0.00013208226782563786
1.2121212121212122,1.7215189873417722,-5.162661502176705e-06,1.1031187624698601e-05,5.552054616284732e-05,-1.7605578367565688e-06,9.722594098558914e-05
1.3131313131313131,1.7215189873417722,3.80441743025539e-05,0.00023052908575113242,-3.4033771241345066e-06,-8.057197801610588e-05,0.00021413892402606034
1.4141414141414141,1.7215189873417722,-5.852488894084379e-05,8.044617705444979e-06,4.7461446936992575e-05,1.5144081370619643e-05,0.00010352997485465963
1.5151515151515151,1.7215189873417722,1.4985875346469139e-05,-4.542637590640706e-05,2.5083217966837064e-05,9.132150167981376e-06,6.968780069266751e-05
1.6161616161616161,1.7215189873417722,2.5114513273317868e-05,-4.2864493836794315e-05,-2.839729241820677e-05,5.324994169042934e-06,7.722592283886215e-05
1.7171717171717171,1.7215189873417722,5.333567983951621e-05,-7.767802927539993e-05,-1.3767068377702191e-05,7.302704830765117e-06,0.00011657691877554298
1.8181818181818181,1.7215189873417722,-8.560867202189982e-05,-0.00011651428799197222,4.9677102256222355e-05,6.063688800416161e-05,0.00013540027337780763
1.9191919191919191,1.7215189873417722,0.00017328736239792379,0.00022695552071484677,-4.9623090669541674e-05,-0.00012007286493383117,0.0002227019267232462
2.0202020202020203,1.7215189873417722,0.0002550012247080387,3.4798903835629246e-05,-3.7797851576273105e-05,-8.694003856310038e-05,0.00024829188058719164
2.121212121212121,1.7215189873417722,6.42189666997924e-05,-0.00013319430937080962,5.099957463974864e-05,2.0692602801305167e-05,0.00019550260993436312
2.2222222222222223,1.7215189873417722,-0.00014765900640406108,-9.795591420325939e-05,6.482594685456958e-06,7.368447618219614e-05,0.00013061601141722202
2.323232323232323,1.7215189873417722,8.509199548339137e-05,0.00018201509216118843,-0.0001070998349782264,-8.013212629337394e-05,0.00024350202879399688
2.4242424242424243,1.7215189873417722,-7.181785527355194e-05,0.0001868236478130613,4.23678454994975e-05,-3.450173776185281e-05,0.0002426175105292175
2.525252525252525,1.7215189873417722,8.52102631440365e-05,-0.00011844940743281279,-1.4174781444472321e-05,9.971743286632887e-06,0.00017884890139405744
2.6262626262626263,1.7215189873417722,7.766179202670594e-05,-5.23370655351489e-05,-2.728830833276355e-05,-7.597417947467112e-06,0.0001227561321625137
2.727272727272727,1.7215189873417722,9.506460475223236e-05,0.00013633722553578145,4.505183131113854e-05,-6.942054908640413e-05,0.0001440599743106305
2.8282828282828283,1.7215189873417722,-7.54859825484391e-05,0.00020579288113378125,9.985449027417027e-06,-3.909206957560265e-05,0.00025274977526664773
2.929292929292929,1.7215189873417722,-3.443693089638553e-05,2.124197460816772e-05,-3.568143096315638e-05,3.9584868864653425e-06,7.866464042526483e-05
3.0303030303030303,1.7215189873417722,4.257307260592968e-06,0.00010483796802448811,-0.00010408057827688911,-3.272858258552432e-05,0.0002075116793954334
3.131313131313131,1.7215189873417722,0.0001498147163336791,-7.022871100022394e-05,1.7206494913505486e-05,-2.3875801600036546e-05,0.00019694163068660132
3.2323232323232323,1.7215189873417722,-3.0949845088299034e-05,-3.1123917627190806e-05,-6.0524811961712105e-05,1.862212881464695e-05,0.0001093300933839954
3.3333333333333335,1.7215189873417722,-8.61345898555671e-05,-6.502768639167036e-07,-1.68638949642506e-05,2.6035460015845143e-05,9.064630140671106e-05
3.4343434343434343,1.7215189873417722,4.898803440488202e-05,-0.00010040412943391629,-3.9664496315080456e-05,1.542482850871028e-05,0.00014872536593710077
3.5353535353535355,1.7215189873417722,-3.3453205826404585e-05,3.948706167517203e-06,-0.00013395982395473157,8.851349897666214e-06,0.00023473923711765605
3.6363636363636362,1.7215189873417722,5.0551560116437414e-05,-1.9588051157194996e-05,-1.3494446226559409e-05,-9.289052687772726e-06,6.690036442997884e-05
3.7373737373737375,1.7215189873417722,-6.347918406222859e-05,-7.958775513383205e-05,7.753464732900028e-05,4.292008175881818e-05,0.00015279566888006465
3.8383838383838382,1.7215189873417722,-0.00015044932810890675,-4.686507175475018e-05,-4.187922525765223e-05,5.9194319959097075e-05,0.000151796328171221
3.9393939393939394,1.7215189873417722,3.468022366472384e-05,-0.00011074117285270214,-1.2960989344452895e-05,2.2818284756393487e-05,0.0001334571678704967
4.040404040404041,1.7215189873417722,9.9859646859489e-05,0.0001694029836346119,-3.556581629980047e-05,-8.077878914823026e-05,0.00015983610255423445
4.141414141414141,1.7215189873417722,-8.007375901602145e-05,-0.00010645710672192714,-1.5144032212004092e-05,5.5959259721384574e-05,9.954158367375839e-05
4.242424242424242,1.7215189873417722,-9.831135513246619e-05,3.434257209440976e-05,3.472045414458833e-05,1.9190634911416926e-05,0.0001335564652699256
4.343434343434343,1.7215189873417722,1.3273984593528392e-06,0.0001269718715344301,2.0632220868686657e-05,-3.848978099813488e-05,0.00013127125159338038
4.444444444444445,1.7215189873417722,-4.391443040143251e-05,-4.688790203136172e-05,2.5388977824778137e-05,2.7240699729838267e-05,6.325897271471173e-05
4.545454545454545,1.7215189873417722,3.2927459297961594e-05,-1.2862539829394005e-05,-2.9648192870818554e-05,-6.019475840570276e-06,6.565241263577611e-05
4.646464646464646,1.7215189873417722,-5.4008381612496874e-05,-9.384463440076351e-05,5.7092839294499414e-05,4.435590480397812e-05,0.00012819555670667753
4.747474747474747,1.7215189873417722,-9.029295204152966e-05,7.818361711630837e-05,-3.8258368882644474e-05,3.632800477566388e-06,0.00016036219359051286
4.848484848484849,1.7215189873417722,1.1576845198628193e-05,-0.0001307021562883396,6.136120526468503e-05,3.573759332691342e-05,0.0001732795087950563
4.94949494949495,1.7215189873417722,-7.679546989255253e-06,0.00019892183039425164,3.231677399209701e-05,-5.737268502149891e-05,0.00021045099485825613
5.05050505050505,1.7215189873417722,-0.00010528002540777316,-0.0002461215321626332,6.633440009137609e-05,0.00010542046727112192,0.0002427936759697617
5.151515151515151,1.7215189873417722,1.462921845538304e-05,-0.00010968508491721927,-1.504698919690314e-06,2.851675993855087e-05,0.00011771249428578477
5.252525252525253,1.7215189873417722,-7.084039108625509e-05,9.84679719089287e-05,4.810386399981475e-05,-8.28827424680208e-06,0.0001692092117343144
5.353535353535354,1.7215189873417722,-2.685250437396561e-05,-5.32188349405393e-05,-7.324025841105698e-05,2.4021401794351472e-05,0.00013496906587036613
5.454545454545454,1.7215189873417722,6.609362752061528e-05,-3.725365991563732e-05,-8.705656893240038e-05,-8.65199028149339e-06,0.00017594024804186488
5.555555555555555,1.7215189873417722,-3.2220412021878046e-06,0.00011252454013116238,-7.446319084151216e-05,-3.279074967869237e-05,0.00017224695282267374
5.656565656565657,1.7215189873417722,4.83807050623369e-05,-3.476191703809484e-05,-0.00010275568329873517,-4.085636407272617e-06,0.00019211215709757568
5.757575757575758,1.7215189873417722,8.309114166664624e-05,-5.738552269652454e-05,4.325231526001373e-05,-7.711685691036509e-06,0.0001434494787744672
5.858585858585858,1.7215189873417722,-3.271602125012056e-05,-0.00018850755269462694,2.366260079140364e-05,6.636707218342425e-05,0.00017921488330557332
5.959595959595959,1.7215189873417722,0.0001044513236512569,-0.00018275367346770016,3.939838370154442e-05,2.3490704944932978e-05,0.0002608726608695354
6.0606060606060606,1.7215189873417722,4.3103350146886465e-05,-0.00015631514536610365,1.1258130596183368e-05,3.396353856576515e-05,0.00018278475434852325
6.161616161616162,1.7215189873417722,-0.00019199776445559335,0.00013306154934198796,-1.0126700561807454e-05,1.7680864534081616e-05,0.0002835907044857089
6.262626262626262,1.7215189873417722,9.212696518602331e-05,-7.265838203356347e-05,-2.024674610764095e-05,-5.840574945737953e-06,0.0001472759539437539
6.363636363636363,1.7215189873417722,-2.21928707573421e-05,4.9803083327224255e-05,6.220937505383138e-05,-8.283063770964646e-06,0.00012525239736912636
6.4646464646464645,1.7215189873417722,0.00014201886738046175,1.712258391427163e-05,-6.636245732524477e-05,-4.774243538842001e-05,0.00017675615639782817
6.565656565656566,1.7215189873417722,6.3838767283935275e-06,-7.777906274127945e-05,-6.1120677448028434e-06,2.1418555803865775e-05,8.184705582937422e-05
6.666666666666667,1.7215189873417722,-2.064711167939917e-05,-2.7858307837755588e-05,0.00015151687200970474,1.4551625855146428e-05,0.0002636271656221628
6.767676767676767,1.7215189873417722,7.222873526449161e-05,-0.00015801071187655704,-0.00010747091844266377,2.5734592983619626e-05,0.00027612910762079955
6.8686868686868685,1.7215189873417722,5.112596022950283e-06,-0.00011627729700510792,6.772662453304645e-05,3.334941029464729e-05,0.000167038062414099
6.96969696969697,1.7215189873417722,-5.7818897276329444e-05,6.315420768242136e-05,1.7807886348983938e-05,-1.6005931218275754e-06,0.00010924444116502235
7.070707070707071,1.7215189873417722,-2.762941911677336e-05,-0.00014022185441983761,1.896293743735817e-05,5.0355382060983296e-05,0.0001327783260224765
7.171717171717171,1.7215189873417722,-0.0001077539540393876,9.972823815828653e-07,5.659165530671179e-05,3.202700149734142e-05,0.000146038408147451
7.2727272727272725,1.7215189873417722,1.2232082967481099e-05,0.00010507318549376472,-6.574659506221188e-05,-3.5191580538373744e-05,0.00015123682927030888
7.373737373737374,1.7215189873417722,6.117844401488759e-05,-2.8039658067028018e-05,-7.398490419981301e-05,-9.941635784357873e-06,0.00015055147038875235
7.474747474747475,1.7215189873417722,2.646901124661549e-08,6.983006678502544e-05,-3.570987678496473e-05,-2.0956960738881616e-05,9.327366453066305e-05
7.575757575757575,1.7215189873417722,6.5256840066325e-05,-0.0002513668350192106,-5.740253870525921e-06,5.5832998485865675e-05,0.00028973435732984474
7.6767676767676765,1.7215189873417722,-1.2069219622880883e-06,2.693195260927948e-06,-5.7321077476867446e-05,-4.458819895919579e-07,9.934323433013848e-05
7.777777777777778,1.7215189873417722,-3.947435496795223e-05,-2.041738825605952e-05,2.541656168104642e-05,1.7967522967203525e-05,5.57416902762707e-05
7.878787878787879,1.7215189873417722,0.0002356546351021691,3.5430300234119295e-05,-3.947079048296166e-05,-8.132548060088652e-05,0.0002304624235111533
7.979797979797979,1.7215189873417722,-8.921704570457813e-05,0.0001404081639153183,0.00013234392229309437,-1.535733546322205e-05,0.0003045417485656348
8.080808080808081,1.7215189873417722,-4.3530044664899896e-05,8.630034191000368e-05,2.448047143652612e-05,-1.2831089173531137e-05,0.00012205388967793703
8.181818181818182,1.7215189873417722,3.709994732594918e-05,0.0001669361309071913,7.442676443263459e-06,-6.121082346994214e-05,0.00015237104885218152
8.282828282828282,1.7215189873417722,0.00019267164613104268,2.520153831559068e-05,0.00010016088128809898,-6.536195533399e-05,0.0002509949507564733
8.383838383838384,1.7215189873417722,-3.2425224938048496e-05,-3.5032193825452236e-05,-4.58415382281582e-05,2.0237225629050216e-05,8.62963668587187e-05
8.484848484848484,1.7215189873417722,0.000127453805452643,0.00011314809485460444,2.4998640624809806e-05,-7.218057009217422e-05,0.00012845467964973467
8.585858585858587,1.7215189873417722,-3.250963062819973e-05,-4.0822040648528105e-05,-1.7083454514750956e-05,2.199950138301835e-05,4.766276196142806e-05
8.686868686868687,1.7215189873417722,-4.747031709248865e-05,3.878965387820823e-05,-4.4895426628481094e-06,2.6041989642841262e-06,7.523226304135508e-05
8.787878787878787,1.7215189873417722,-8.031286360065427e-05,3.1875038066731817e-05,-4.024250403478905e-05,1.4531347660176737e-05,0.00012200216018162151
8.88888888888889,1.7215189873417722,4.0081910498348196e-05,-2.6566567840815086e-06,-9.197456021750547e-06,-1.1227576114280005e-05,4.44283788329767e-05
8.98989898989899,1.7215189873417722,0.00016028339873985743,-2.8419931726519512e-05,0.00013164649822987575,-3.955904010400137e-05,0.00028817721139706286
9.09090909090909,1.7215189873417722,-0.00011619609680913717,-0.00010317445077162718,8.274985416186673e-05,6.581116427422931e-05,0.00018083320167227692
9.191919191919192,1.7215189873417722,6.469750087870126e-05,6.916626197769265e-05,2.9811416978563118e-05,-4.015912885691817e-05,8.462278574738245e-05
9.292929292929292,1.7215189873417722,3.2576876038216908e-06,0.00020153796193889484,6.552636758510139e-05,-6.143869486281496e-05,0.00022989721498398622
9.393939393939394,1.7215189873417722,-8.969002604947832e-05,-0.0001575345204261263,2.5698450232020876e-05,7.416736394268138e-05,0.0001439214427766666
9.494949494949495,1.7215189873417722,-7.0679998209632794e-06,0.00017319146287552787,7.265677478684119e-05,-4.983703891636938e-05,0.00021704003646863952
9.595959595959595,1.7215189873417722,-0.00013516608126307606,-4.974914989314204e-05,-4.799780111452943e-05,5.547456934686543e-05,0.00014467832089629454
9.696969696969697,1.7215189873417722,2.444239878254235e-05,0.00010397918952736036,3.357449034391544e-05,-3.852647649297081e-05,0.0001106767414729006
9.797979797979798,1.7215189873417722,4.982588643336792e-05,8.510163517736875e-05,-1.380172668397667e-05,-4.0478256483220995e-05,7.782098584230953e-05
9.8989898989899,1.7215189873417722,-9.235582684548414e-05,-9.373514343252601e-07,-1.2176316977739676e-05,2.798795348394282e-05,9.427987907655452e-05
10.0,1.7215189873417722,-0.00014854982007417243,-3.072431942269798e-05,3.0050271917786975e-05,5.3782241849061124e-05,0.0001454510132412717
0.0,1.8227848101265822,-2.6727163551201455e-05,-0.00013620853853548134,-1.0963077132773614e-05,4.888071062600484e-05,0.00012644052568545368
0.10101010101010101,1.8227848101265822,0.00011279614935007867,-0.00015602336884191383,3.148568691088682e-05,1.2968165847550547e-05,0.00024008153529109902
0.20202020202020202,1.8227848101265822,0.0001489337161890093,-0.00011955887316649898,-8.469184352794267e-05,-8.812452906753094e-06,0.0002753180857394825
0.30303030303030304,1.8227848101265822,-0.0003767269209279202,5.188644932029939e-05,7.870691818784925e-05,9.745214148228624e-05,0.0004274888721090934
0.40404040404040403,1.8227848101265822,0.00021675107655179203,9.977589958956682e-05,-1.6701116908502053e-05,-9.495809284240765e-05,0.00019012234901052632
0.5050505050505051,1.8227848101265822,4.8248081172214135e-05,4.7365823220730155e-05,7.628850018496715e-05,-2.8684171317883286e-05,0.00014052008484217012
0.6060606060606061,1.8227848101265822,0.00014542802943226334,0.00020327784659675806,4.6583071169701566e-05,-0.00010461176280870641,0.0001985417980239183
0.7070707070707071,1.8227848101265822,3.251151703791258e-05,-1.4539056320564986e-05,-3.633385265878639e-05,-5.391738215204278e-06,7.55083851182864e-05
0.8080808080808081,1.8227848101265822,-0.00010750012595938463,3.003800420208153e-06,1.9567086589950896e-07,3.134889766175294e-05,0.00010903358970079137
0.9090909090909091,1.8227848101265822,3.77319352269828e-05,5.061494783752485e-05,5.622818713129817e-05,-2.6504064919352296e-05,0.00010752022615053802
1.0101010101010102,1.8227848101265822,2.9574338079890175e-05,0.00018860441229837018,-5.727354240920655e-05,-6.545362511347811e-05,0.00020176518812447253
1.1111111111111112,1.8227848101265822,5.492584904569753e-05,0.00010470946517666356,-1.8699730177688432e-05,-4.789059426670832e-05,9.632603199125136e-05
1.2121212121212122,1.8227848101265822,-7.023208261817402e-05,-7.736796440502057e-05,-2.4935212249090873e-05,4.4280014106958375e-05,8.573172403895092e-05
1.3131313131313131,1.8227848101265822,-6.97979989807828e-06,-9.55341835437032e-05,6.289351871550819e-05,3.075419503253444e-05,0.00014274267910009182
1.4141414141414141,1.8227848101265822,0.00010025958656179832,8.863068547553447e-05,4.723488091900776e-05,-5.666708161119984e-05,0.0001253583230154205
1.5151515151515151,1.8227848101265822,-0.00020406193523725058,-0.00010259638016429812,3.702287335590256e-05,9.19974946204646e-05,0.0001879982824536099
1.6161616161616161,1.8227848101265822,-1.0517623180341763e-05,-1.4557058511600267e-05,7.519267662268577e-05,7.5224045075826084e-06,0.00013088635737496098
1.7171717171717171,1.8227848101265822,0.0001277881525176936,-0.00010966738682527326,-2.8747466114273763e-05,-5.436229707726098e-06,0.00021177863639845336
1.8181818181818181,1.8227848101265822,6.590021590405293e-05,5.0984453169611955e-05,1.7521735079270267e-05,-3.506540072209946e-05,6.710737701729991e-05
1.9191919191919191,1.8227848101265822,4.996912702991961e-06,-0.00013237643842640753,-3.763589937574012e-05,3.821385771702467e-05,0.00014986442826512916
2.0202020202020203,1.8227848101265822,-0.00019927298505705083,-0.00013455106872996452,2.7168042758620707e-06,0.00010014721613610461,0.0001761347854283952
2.121212121212121,1.8227848101265822,0.00011195646620571592,-0.00018233216717900396,-8.342032543515128e-05,2.1112710291986412e-05,0.00029507522212746806
2.2222222222222223,1.8227848101265822,1.0566316428953591e-05,8.196074457928685e-05,8.656663496541533e-05,-2.7758118302472132e-05,0.00016865507522928827
2.323232323232323,1.8227848101265822,-6.215174594780677e-05,0.0001603144491652272,-5.604495021202097e-05,-2.9448810965226125e-05,0.00022124758616670701
2.4242424242424243,1.8227848101265822,-0.00011030225032652592,-5.152486430889228e-05,-4.7250221324043744e-05,4.854813439062546e-05,0.00012584053334923126
2.525252525252525,1.8227848101265822,9.785220293799621e-05,-7.522186102552929e-06,3.155904207796589e-05,-2.7099005050632986e-05,0.00011556651243012001
2.6262626262626263,1.8227848101265822,0.00010331434659853922,1.6800129293981126e-05,-1.2802097008170404e-05,-3.60343427677561e-05,9.854991243029471e-05
2.727272727272727,1.8227848101265822,8.39682344383037e-05,4.14230560854469e-05,-7.612409379693759e-06,-3.7617387157125175e-05,7.390642336970685e-05
2.8282828282828283,1.8227848101265822,0.000106083347861239,6.374442243053755e-05,2.7076566604275437e-05,-5.094833108753296e-05,0.00010370259265209463
2.929292929292929,1.8227848101265822,2.0541174773225337e-05,7.829094094634609e-05,-1.1505576055349857e-05,-2.9649634715871428e-05,7.307775472252552e-05
3.0303030303030303,1.8227848101265822,0.0001412813403135348,-4.8644777252988605e-06,9.514569763867213e-05,-4.092505877647078e-05,0.000218699454811239
3.131313131313131,1.8227848101265822,0.00011317174353365743,-7.065210621397334e-05,-4.882222164209428e-05,-1.2755891195905227e-05,0.0001815109188718088
3.2323232323232323,1.8227848101265822,5.224705137871511e-05,-9.800661649904933e-05,3.5250459381991204e-05,1.3727869536100266e-05,0.00014554515671421676
3.3333333333333335,1.8227848101265822,-2.3622969845975087e-05,2.9149488636534987e-05,-5.040028042431934e-05,-1.65795563716797e-06,9.857433582708975e-05
3.4343434343434343,1.8227848101265822,8.36366910833863e-05,-0.00012208959596758114,8.432247661808392e-05,1.1535871465258452e-05,0.00023117736816211692
3.5353535353535355,1.8227848101265822,9.568031891121118e-05,1.3195963842225584e-05,-2.4091778139338883e-05,-3.266288482603103e-05,9.903284395419949e-05
3.6363636363636362,1.8227848101265822,-1.868132343795806e-05,-0.00011025027858114152,2.189649692192493e-06,3.867948060572987e-05,0.00010226865774340243
3.7373737373737375,1.8227848101265822,5.272375319804256e-05,4.644168072016405e-05,-8.375803709542648e-06,-2.9749630175461983e-05,5.1947150165835905e-05
3.8383838383838382,1.8227848101265822,-4.594959824300901e-06,0.00024726775886054815,-1.7388801176034137e-06,-7.280183971087417e-05,0.0002496151332706101
3.9393939393939394,1.8227848101265822,-7.698154975751001e-05,0.00011842830867094353,3.97475135498802e-05,-1.2434027674030055e-05,0.00018386900917384633
4.040404040404041,1.8227848101265822,-2.8248572548081548e-05,-0.000177359213790981,2.1505019220919105e-05,6.168233590171876e-05,0.0001692085266905607
4.141414141414141,1.8227848101265822,-4.959475271502437e-05,2.885735641059111e-05,-0.00011559354056604798,6.2212188913299785e-06,0.0002116817418504691
4.242424242424242,1.8227848101265822,-2.7804057959604194e-05,3.219585840414825e-05,-4.433012259412462e-05,-1.3175401333632171e-06,9.273776877928158e-05
4.343434343434343,1.8227848101265822,-5.248579849920304e-05,-4.009735073402135e-05,-7.730769687946917e-05,2.7774944769967316e-05,0.00014208256437519705
4.444444444444445,1.8227848101265822,1.0188850526128647e-05,-7.517395858413853e-05,-7.208523537745586e-05,1.9495532417402967e-05,0.00014869336377254494
4.545454545454545,1.8227848101265822,6.815256375636086e-05,-3.3463339690061454e-05,3.987029750109971e-05,-1.040676721988982e-05,0.00011319938740993054
4.646464646464646,1.8227848101265822,-0.00017304218421726033,-6.582842488803884e-05,3.1899044170144546e-05,7.166118273158974e-05,0.00016105443698519713
4.747474747474747,1.8227848101265822,-4.208063258054056e-06,2.796091446011092e-05,2.302704329118162e-05,-7.125855360617059e-06,5.007909742429936e-05
4.848484848484849,1.8227848101265822,5.5222626030243216e-05,-4.902510541125057e-05,9.615818694158696e-06,-1.8592561856977941e-06,9.185687974210676e-05
4.94949494949495,1.8227848101265822,2.323982815734306e-05,-0.00012868362490851994,2.656529574947134e-05,3.163313902535306e-05,0.0001490211229211756
5.05050505050505,1.8227848101265822,8.163084146335534e-05,5.456406930138788e-05,3.660187163802209e-05,-4.085847322942296e-05,9.594692318268326e-05
5.151515151515151,1.8227848101265822,9.238154341203925e-05,-7.043375327969117e-05,-8.553967439549008e-06,-6.584337039704425e-06,0.000142202507282418
5.252525252525253,1.8227848101265822,0.00021568269151913126,-4.8356502945873055e-05,-2.9247899705775244e-05,-5.0197856571977465e-05,0.0002487033462129268
5.353535353535354,1.8227848101265822,0.0001794116772138179,1.887447686351032e-05,-4.902907079183785e-05,-5.9485846223198465e-05,0.00019070931701168595
5.454545454545454,1.8227848101265822,6.770075531942803e-05,9.135838398251552e-05,-8.588332679155263e-05,-4.771774179058306e-05,0.00016991925275463356
5.555555555555555,1.8227848101265822,-6.119440584285635e-05,-7.824255006708444e-05,8.543301378146112e-06,4.183108677298223e-05,7.278467956780983e-05
5.656565656565657,1.8227848101265822,-0.00010019906412191703,-9.651258319809606e-05,-4.16868321075292e-05,5.901349419600393e-05,0.00012205505547712293
5.757575757575758,1.8227848101265822,-5.113805233050379e-05,3.983226481370728e-05,-5.803542387570792e-06,3.3917362550389538e-06,7.96222171982512e-05
5.858585858585858,1.8227848101265822,0.00011154509460922318,-0.00012911414459297791,-6.128563831891955e-05,5.270714995126419e-06,0.00023405684850446454
5.959595959595959,1.8227848101265822,0.0001643378709910356,5.817589146353157e-05,1.4139967643818926e-05,-6.675412873637015e-05,0.00014639222690506921
6.0606060606060606,1.8227848101265822,-6.291644613349682e-05,1.9953182806075436e-05,5.943270969962722e-05,1.2888978998226415e-05,0.00012731352244004806
6.161616161616162,1.8227848101265822,-0.00012482299469903017,0.00011701743776779317,2.978751940967472e-05,2.3416670793710975e-06,0.00021573645194844114
6.262626262626262,1.8227848101265822,-5.931552209731986e-05,-2.312292865477625e-05,-3.388901727560129e-05,2.4731535225628833e-05,7.827419039116528e-05
6.363636363636363,1.8227848101265822,-3.7762867814632894e-05,0.00012582842080634097,3.399399150909299e-05,-2.6419665897512423e-05,0.0001596159204672196
6.4646464646464645,1.8227848101265822,0.00013418220494989792,-2.2818562034412846e-05,5.739108716895062e-06,-3.340909287464552e-05,0.00014726237799482706
6.565656565656566,1.8227848101265822,9.130552501220639e-05,4.684335833080605e-05,-3.1546629070251943e-05,-4.1444665002903735e-05,9.61223756927698e-05
6.666666666666667,1.8227848101265822,-9.943452383028667e-05,-8.360256229395982e-06,2.688478483433539e-05,3.2338434017904794e-05,0.00010627415152836251
6.767676767676767,1.8227848101265822,0.00011162268343556478,2.833553451135807e-05,5.86598970623229e-05,-4.198746538407685e-05,0.00014290762101703598
6.8686868686868685,1.8227848101265822,3.9036987938259626e-05,0.00027215571437531574,-4.3313760368981995e-05,-9.33578106940726e-05,0.0002657004431064002
6.96969696969697,1.8227848101265822,0.00011373765206070534,-1.9867737365749878e-05,2.6762896145111404e-05,-2.816097440848664e-05,0.000133189519536177
7.070707070707071,1.8227848101265822,5.35445601770979e-05,0.00014729782394371006,-9.132571637710367e-05,-6.025271523624238e-05,0.00020420046787501505
7.171717171717171,1.8227848101265822,0.00021070742022121674,9.999480289498409e-05,4.0340074122523864e-05,-9.321066693486024e-05,0.00019547095776454397
7.2727272727272725,1.8227848101265822,2.9040214038120435e-05,2.7116278720940997e-05,9.246633811825837e-07,-1.684694782771843e-05,2.8173197762832097e-05
7.373737373737374,1.8227848101265822,6.854426357061707e-05,-0.0001970846208092525,3.292441678554015e-05,3.856210717159062e-05,0.00024556411725745573
7.474747474747475,1.8227848101265822,2.017874351674528e-05,-4.107941578788468e-05,2.3102580638790443e-05,6.2702016813418195e-06,6.726677324582624e-05
7.575757575757575,1.8227848101265822,0.0002629569076894785,0.00014128265680336601,-8.495936426391939e-05,-0.00012127186934785336,0.0002713119138560849
7.6767676767676765,1.8227848101265822,-0.0001418909248595698,2.2504715534492375e-05,1.271581494250203e-05,3.581586279752323e-05,0.00015594161576897627
7.777777777777778,1.8227848101265822,0.00017589441964085064,0.00012692872931109318,5.164544156326091e-05,-9.084694468558314e-05,0.00018090176591229742
7.878787878787879,1.8227848101265822,0.00015926605018028593,5.896107836340952e-05,-1.343033816284143e-05,-6.546813856310864e-05,0.0001413955706024759
7.979797979797979,1.8227848101265822,0.00018693258455213947,6.65134805174659e-05,-3.122554101986251e-05,-7.60338195208816e-05,0.00017279872879495138
8.080808080808081,1.8227848101265822,-0.00011815066669879185,-4.211034186990279e-06,-0.00010901757305265228,3.6708510265734635e-05,0.00022166251387295918
8.181818181818182,1.8227848101265822,-9.515615933706436e-09,6.971902855632969e-05,-1.8653923581341565e-05,-2.0912853882118796e-05,7.684603469158229e-05
8.282828282828282,1.8227848101265822,0.00012383442834105346,-8.124318820994178e-05,1.1395183086764515e-05,-1.2777372039333502e-05,0.00017996020569669544
8.383838383838384,1.8227848101265822,-4.792305644620458e-05,-2.11315109910723e-05,2.8244461221430164e-05,2.0716370231183062e-05,6.42162150158337e-05
8.484848484848484,1.8227848101265822,-6.0365658690707917e-05,4.337295032709654e-06,4.376881954616462e-05,1.6808509097399476e-05,9.834519430223029e-05
8.585858585858587,1.8227848101265822,-9.603306469169043e-05,-0.00012925314587784238,2.3003383435082442e-05,6.758586317085985e-05,0.0001228967715690292
8.686868686868687,1.8227848101265822,9.418386438031307e-05,-3.075668637169577e-05,6.435835059415983e-05,-1.902815340258519e-05,0.00015855393252076107
8.787878787878787,1.8227848101265822,0.00011825844585047375,9.351724442573328e-05,7.392971825761433e-05,-6.353270708286211e-05,0.00016753549104263365
8.88888888888889,1.8227848101265822,-0.00012038170590222895,0.00016820589655284625,-1.7758690197393753e-05,-1.434725719518519e-05,0.00025294269065047933
8.98989898989899,1.8227848101265822,2.484759851059193e-06,7.909105508253722e-05,-3.0964231986382534e-05,-2.4472744480078922e-05,9.455896432839628e-05
9.09090909090909,1.8227848101265822,1.1387068163049958e-06,-0.00012802631502889874,-3.39825064305742e-05,3.806628246377812e-05,0.00014142931330029921
9.191919191919192,1.8227848101265822,-5.521939789040015e-05,5.008890290900612e-05,3.21332976331196e-06,1.5391484944182083e-06,9.1405336945583e-05
9.292929292929292,1.8227848101265822,0.00012041685753185823,-3.693227843375424e-05,4.1804195483133954e-05,-2.5045373729431196e-05,0.00015985697969940732
9.393939393939394,1.8227848101265822,0.0001268225006611352,-5.6679068136463706e-05,-5.833144372495818e-05,-2.104302975740145e-05,0.00019155238598379457
9.494949494949495,1.8227848101265822,-0.00015111850279042816,0.00010900474513689094,-7.247833646189226e-05,1.2634127296061167e-05,0.00025874852269910286
9.595959595959595,1.8227848101265822,2.3118026971689653e-05,0.0001318057278368143,-6.2147824999575e-05,-4.647712644255119e-05,0.0001626258317335683
9.696969696969697,1.8227848101265822,0.0001522787620528396,-0.00010280011398492018,9.600191392163655e-05,-1.4843594420375828e-05,0.00027759694042626677
9.797979797979798,1.8227848101265822,4.970275219193188e-05,0.00011248347842890039,-6.558001036588051e-05,-4.865586918624968e-05,0.00014978107797597906
9.8989898989899,1.8227848101265822,-0.0002496500822748559,3.2339050773915064e-05,3.7048008050518844e-05,6.519330945028225e-05,0.00027488559287953366
10.0,1.8227848101265822,-7.962364081071694e-05,-9.167160435620578e-05,-1.5269380105551783e-05,5.1388573550076814e-05,9.024323924714568e-05
0.0,1.9240506329113924,0.0001073095469728741,-0.00012153017277266847,5.677654733349603e-05,4.266187739938311e-06,0.00022135265648007578
0.10101010101010101,1.9240506329113924,-5.4718552543094903e-05,-5.052067560338689e-05,5.4894675426642526e-05,3.157176844394454e-05,0.00010873047679425857
0.20202020202020202,1.9240506329113924,6.416856497556123e-05,0.0001036266491005784,6.9740090690302325e-06,-5.033856422284188e-05,9.139159795250234e-05
0.30303030303030304,1.9240506329113924,-9.45463702678502e-06,-0.00010036532940767314,4.642631276687741e-05,3.294598993033745e-05,0.00012521932478726878
0.40404040404040403,1.9240506329113924,2.012128786142333e-05,7.160256630315972e-05,4.1007279684559585e-05,-2.7517156249374913e-05,9.55816344261867e-05
0.5050505050505051,1.9240506329113924,6.609616931214724e-05,-8.471717744127166e-05,1.7700419874204978e-05,5.586302438737325e-06,0.00013448085085368438
0.6060606060606061,1.9240506329113924,7.2051577276022766e-06,8.800395516166801e-05,-1.4531199942441742e-05,-2.8562733866781087e-05,8.829493394122621e-05
0.7070707070707071,1.9240506329113924,-0.00017314928637504292,-2.5115253838130375e-05,-1.3210762711339363e-05,5.9479362063951985e-05,0.00016366531649248707
0.8080808080808081,1.9240506329113924,3.8758729884712366e-05,3.192658676799765e-05,-3.988826412697215e-05,-2.1205594995813003e-05,7.782886981986957e-05
0.9090909090909091,1.9240506329113924,0.00023389556169749738,0.00010993734963764466,2.0818765752864367e-05,-0.0001031498734005426,0.00020586344868510383
1.0101010101010102,1.9240506329113924,0.00012083322679465741,-8.820300763081351e-05,2.3690740942378597e-05,-9.789065749153169e-06,0.0001863385276773221
1.1111111111111112,1.9240506329113924,0.000147294013381202,8.418445598537352e-05,-2.6518600340405137e-05,-6.944354080997266e-05,0.00013598673138633265
1.2121212121212122,1.9240506329113924,-6.861389979352668e-05,5.7410553981699646e-05,-6.77644048844255e-05,3.361003743548109e-06,0.00016037158307934113
1.3131313131313131,1.9240506329113924,-5.479689166688996e-05,0.00011685848654840313,-1.8690591695502946e-05,-1.861847846445395e-05,0.00015527427892690328
1.4141414141414141,1.9240506329113924,0.0001193254561996953,4.127723418004564e-05,-2.5783633916731426e-06,-4.8180807113922276e-05,0.00010505662108102795
1.5151515151515151,1.9240506329113924,0.00010297093622835307,7.53747764457423e-05,2.2799211636614527e-05,-5.350371380222861e-05,0.00010041101277808974
1.6161616161616161,1.9240506329113924,2.0887920076086227e-05,3.4512272373547074e-05,-5.252361393375247e-05,-1.662005773488999e-05,9.582641924069648e-05
1.7171717171717171,1.9240506329113924,-7.297603763501362e-05,-6.94789221392658e-05,6.820422712573018e-05,4.273648793228382e-05,0.00013797817235751606
1.8181818181818181,1.9240506329113924,9.529106686569067e-05,-4.9513735477048437e-05,1.5259154859166927e-05,-1.373319941659267e-05,0.00013018732474574592
1.9191919191919191,1.9240506329113924,-6.358857050944843e-05,5.0717785994130196e-05,4.7481587305505845e-05,3.861235354595469e-06,0.00012885796454043292
2.0202020202020203,1.9240506329113924,-0.00016771160665923415,-1.7782698537243176e-05,-7.728120183550581e-05,5.5648291558943194e-05,0.00020827432608099068
2.121212121212121,1.9240506329113924,-0.00011851657524986261,1.9907876092422778e-05,-1.2062050115624098e-05,2.958260974723195e-05,0.00013129506690434203
2.2222222222222223,1.9240506329113924,0.0002258294319682907,5.70628256746336e-05,-6.370194619555609e-05,-8.48676772928773e-05,0.00023139240859585463
2.323232323232323,1.9240506329113924,0.00011134743801988896,0.0002582921994589894,3.802639382557619e-05,-0.0001108918912436635,0.00023386097893151865
2.4242424242424243,1.9240506329113924,-6.705354735240374e-05,-9.075981763527522e-05,6.773476798276546e-05,4.734400949630368e-05,0.00014286970064105343
2.525252525252525,1.9240506329113924,1.4551532349829656e-05,6.770640072822948e-05,2.645438229498422e-05,-2.467737992341774e-05,7.687766216944877e-05
2.6262626262626263,1.9240506329113924,5.514026967305046e-05,5.4186181479636676e-05,-6.0177101626891395e-05,-3.279793534580614e-05,0.00011769707568270536
2.727272727272727,1.9240506329113924,0.00017538801951616056,-0.00011873744356194814,2.9455350762705948e-05,-1.6995172786263723e-05,0.0002613188015199672
2.8282828282828283,1.9240506329113924,-0.00012820881966456578,-4.463939393005166e-05,9.156405927192969e-06,5.185446407838523e-05,0.00011383554907154697
2.929292929292929,1.9240506329113924,3.582513519513178e-05,-0.00010931764480368523,7.254338331185699e-05,2.204775288256603e-05,0.00018148756036839717
3.0303030303030303,1.9240506329113924,-1.9891100612582755e-05,-5.7641984051148766e-05,7.768599747983348e-05,2.3259925399119457e-05,0.00014379511228818792
3.131313131313131,1.9240506329113924,0.00011945009583400585,7.52546110601538e-05,4.03156790388507e-05,-5.84114120682479e-05,0.00012577151230136685
3.2323232323232323,1.9240506329113924,0.0001232241689781743,0.00016498081155681782,-4.913665533069536e-05,-8.646149416049762e-05,0.00017122053992479083
3.3333333333333335,1.9240506329113924,-0.00012357304652118643,-8.535811534657793e-05,4.1976413721360996e-05,6.26793485603293e-05,0.00013150817940373188
3.4343434343434343,1.9240506329113924,6.862891755408494e-05,-0.00013016123325670443,4.1408990036978194e-05,1.8459694710785847e-05,0.00018902066786759503
3.5353535353535355,1.9240506329113924,-4.65516884215673e-05,1.577150051798083e-05,8.722853324246986e-06,9.23405637107594e-06,5.812275296207126e-05
3.6363636363636362,1.9240506329113924,-3.007929588007174e-05,4.009178360922877e-05,-7.882816554757299e-05,-3.0037463187471083e-06,0.0001495315579599793
3.7373737373737375,1.9240506329113924,-3.5929306078305145e-05,-5.1384812770935774e-05,-4.210472915618309e-06,2.6194235654772277e-05,4.624151381030655e-05
3.8383838383838382,1.9240506329113924,0.0001843844641563972,-0.00013771232911866606,4.902783174849666e-05,-1.4001640511319344e-05,0.0002925158373211285
3.9393939393939394,1.9240506329113924,-9.374075565604869e-05,-0.00015966709623736495,1.133441687211306e-05,7.602235556802409e-05,0.00014035313909789788
4.040404040404041,1.9240506329113924,-7.74431244617727e-05,7.616063951789834e-05,-2.7885632899341935e-05,3.8474548316230673e-07,0.0001415232277403263
4.141414141414141,1.9240506329113924,-4.636380223288756e-05,2.1668588354338017e-05,-4.036888344129294e-05,7.408564163564862e-06,9.226433912827061e-05
4.242424242424242,1.9240506329113924,6.890812036776873e-05,9.015459209500255e-05,2.0030961718237534e-05,-4.771881373883138e-05,8.869900972794547e-05
4.343434343434343,1.9240506329113924,-0.00014742413333423856,0.00011706136568963841,-2.1132147601261322e-05,9.108830293380046e-06,0.000232453461572239
4.444444444444445,1.9240506329113924,7.765490886230406e-05,-0.0001312645809063068,-1.0276040673072413e-05,1.6082901613200823e-05,0.00018376834649577937
4.545454545454545,1.9240506329113924,-3.15096338350502e-05,3.5673540850231655e-05,4.469844296370664e-05,-1.2491721045544363e-06,9.686780249980795e-05
4.646464646464646,1.9240506329113924,-0.0001479298387702034,-9.687923860233864e-05,-1.1145188686820853e-05,7.34427232117626e-05,0.0001315680037726412
4.747474747474747,1.9240506329113924,-2.5574236698889607e-05,5.6179867947504225e-06,8.843870551590157e-05,5.986874971241755e-06,0.00015586370001511603
4.848484848484849,1.9240506329113924,-2.3681357114515625e-05,0.00014970984375633624,-1.7690978247629923e-06,-3.7808545992546186e-05,0.00016287592021911867
4.94949494949495,1.9240506329113924,-1.0165229764680953e-05,0.00018489851369141568,-4.1331150479712114e-05,-5.2419985178020415e-05,0.0002032120078543944
5.05050505050505,1.9240506329113924,-1.9904771644064365e-05,-7.855741171182297e-05,-4.0602318632428034e-05,2.95386550067662e-05,9.974690152069019e-05
5.151515151515151,1.9240506329113924,-5.025441654688423e-05,-0.0002086350826435493,-4.8575616690804476e-05,7.766684975713004e-05,0.00020651402217128438
5.252525252525253,1.9240506329113924,6.102224716966108e-08,-3.291166979960798e-05,-2.856235920540196e-07,9.855194265731495e-06,3.2945937826557146e-05
5.353535353535354,1.9240506329113924,-1.9964334160689046e-05,-8.304924329560467e-06,6.741375640515932e-05,8.480777547074854e-06,0.00011804909055163144
5.454545454545454,1.9240506329113924,-0.0001287368042400645,8.784805260171155e-05,2.6857306325827382e-05,1.2266625491505884e-05,0.00019432876105135127
5.555555555555555,1.9240506329113924,-0.00014839274022220388,9.490015634192122e-05,7.334327697191354e-05,1.6047775164084797e-05,0.00024748060146687317
5.656565656565657,1.9240506329113924,-5.297697356894119e-05,3.914475809523179e-06,-7.532060693879889e-05,1.4718749327825402e-05,0.00014159393143695152
5.757575757575758,1.9240506329113924,4.143559623426075e-05,-8.549366463209664e-05,1.4921561169535275e-05,1.3217420519350767e-05,0.00011505005544981496
5.858585858585858,1.9240506329113924,-0.00023512668052752918,0.0001822088340370899,-4.932816860996692e-06,1.5875353947131783e-05,0.00036249106396370016
5.959595959595959,1.9240506329113924,0.00012352426271150697,2.0329277480736425e-05,0.00010548572023737846,-4.315606205767302e-05,0.00021573612472425654
6.0606060606060606,1.9240506329113924,-3.2841263506099535e-05,2.47125554596134e-07,-6.358564319837395e-05,9.77824138545102e-06,0.00011496141804112866
6.161616161616162,1.9240506329113924,-0.00010467763800892086,0.00021787452017109257,-6.575510904037586e-05,-3.3959064648651515e-05,0.0003069275283963343
6.262626262626262,1.9240506329113924,0.0002269524638582226,9.563568767798422e-07,-3.1069282205788883e-06,-6.837264622050074e-05,0.00022653972483691276
6.363636363636363,1.9240506329113924,-0.0001067961193162825,7.051651365934271e-05,-4.596286728080465e-05,1.088388169708194e-05,0.00017391559824304415
6.4646464646464645,1.9240506329113924,-2.0321525751381996e-05,6.275226514737843e-05,6.700468249139815e-05,-1.272922181879893e-05,0.00013818435291110278
6.565656565656566,1.9240506329113924,-8.819399390091894e-05,5.855021617233931e-05,-1.3741142245147315e-05,8.893133318573887e-06,0.00013014047315354239
6.666666666666667,1.9240506329113924,-0.00014255765022801843,7.064324895065189e-05,-0.00010174029111824881,2.157432038320996e-05,0.0002577540462266184
6.767676767676767,1.9240506329113924,0.00021118148703422126,5.497016317359719e-05,4.092781092961076e-05,-7.984549506234552e-05,0.00020257323521697705
6.8686868686868685,1.9240506329113924,2.6757400184119568e-05,-2.8511265781637908e-05,-2.9840070352338496e-05,5.26159679255502e-07,7.044875786880087e-05
6.96969696969697,1.9240506329113924,4.1667785755818876e-05,0.00010092867575565699,3.0688728438458345e-05,-4.277893845344276e-05,0.00010267775650590767
7.070707070707071,1.9240506329113924,4.991650049867715e-05,6.019132392690688e-07,7.721187763194904e-06,-1.5155524121383865e-05,5.13889495951945e-05
7.171717171717171,1.9240506329113924,6.810432775635928e-05,9.831073274686096e-05,-4.726830206452412e-05,-4.9924518150966074e-05,0.00011962729791982912
7.2727272727272725,1.9240506329113924,-0.0002380475157204021,-2.9445871033726585e-05,-6.529522767181851e-05,8.024801602623861e-05,0.0002516238519773748
7.373737373737374,1.9240506329113924,3.840826207479513e-05,-6.788673447070399e-05,-5.5840423497636686e-05,8.843541718772658e-06,0.00013433418586064044
7.474747474747475,1.9240506329113924,9.272207967812159e-05,-7.922304956036415e-05,2.8824927889508247e-05,-4.049709035327231e-06,0.0001572006073737177
7.575757575757575,1.9240506329113924,-0.00016278326088674158,5.4306912277827714e-05,-1.0811956502199897e-05,3.2542904582674155e-05,0.00019656699169892194
7.6767676767676765,1.9240506329113924,-5.882448431886028e-05,9.926712091574687e-05,8.68371291471909e-05,-1.2132790979065974e-05,0.00020439099648356785
7.777777777777778,1.9240506329113924,-9.097953391011555e-05,-6.553623554005568e-05,-1.0638372452669835e-05,4.6954730835051376e-05,8.336271649203186e-05
7.878787878787879,1.9240506329113924,1.1156981337252973e-05,-6.581405392322755e-05,-0.00010025162754734417,1.6397121775792374e-05,0.00018799313970300612
7.979797979797979,1.9240506329113924,-2.1752616252762007e-05,8.764981360057192e-05,-5.266220747167778e-05,-1.9769159204342977e-05,0.00013558098386316718
8.080808080808081,1.9240506329113924,0.00017046011723081635,-2.4317241182058833e-05,-8.224629367588713e-05,-4.384286281462726e-05,0.00023256495444914883
8.181818181818182,1.9240506329113924,-1.0694698794243842e-05,-0.00010624139237098203,-2.487378220153247e-05,3.508082734956776e-05,0.00011009770872894519
8.282828282828282,1.9240506329113924,-0.00010728468158588028,0.00017191645332282094,-8.370754681255559e-06,-1.93895315210822e-05,0.000244375695153989
8.383838383838384,1.9240506329113924,-2.4203401592612404e-05,-0.0002470609947726147,3.6714031682063244e-05,8.137931890956813e-05,0.00024431329001793975
8.484848484848484,1.9240506329113924,4.456527480722607e-05,-2.0861165991943473e-05,6.75152603618086e-05,-7.11123264458478e-06,0.00013048320468775102
8.585858585858587,1.9240506329113924,0.00012505385353385367,-7.084088373048654e-06,-2.2702196843798494e-05,-3.5390929548241505e-05,0.00013461319536424175
8.686868686868687,1.9240506329113924,4.0888173144985544e-05,4.69823598211459e-06,5.873941068745091e-05,-1.3675922738130039e-05,0.00010887042271384969
8.787878787878787,1.9240506329113924,0.00010232580888509178,3.829798009903887e-05,3.540260540425656e-05,-4.2187136695239195e-05,0.00010852865086963854
8.88888888888889,1.9240506329113924,-0.00014118974078047297,8.552908315034964e-05,7.373589061645313e-05,1.6698197289036997e-05,0.0002358739933532109
8.98989898989899,1.9240506329113924,-0.0001270175360713848,-0.0002516262362822037,2.6574744920252164e-05,0.00011359313170607654,0.00022272611861755398
9.09090909090909,1.9240506329113924,-0.00027686659086453104,-0.00014259166743154912,-2.6041170553175763e-05,0.00012583747748882404,0.00024401444957570425
9.191919191919192,1.9240506329113924,6.14634593200248e-05,8.222629616513671e-05,3.667012624111991e-05,-4.310692664554845e-05,9.756588788535644e-05
9.292929292929292,1.9240506329113924,0.00021094655958257174,2.159297579889106e-05,-2.0228772168930576e-05,-6.976186061443884e-05,0.00020405232985201783
9.393939393939394,1.9240506329113924,-3.842336646429862e-05,-3.267080995006758e-05,2.0973261905259593e-05,2.132825292430986e-05,5.106904693340343e-05
9.494949494949495,1.9240506329113924,6.284830541624867e-05,5.7565016390207126e-05,-7.831870255013046e-05,-3.612399654193674e-05,0.0001484831114360257
9.595959595959595,1.9240506329113924,-1.1063472579770735e-05,-1.9653120703622227e-05,1.5235543433068736e-05,9.214977985017888e-06,3.142577235336956e-05
9.696969696969697,1.9240506329113924,4.0449151092703594e-05,-2.6418027636898714e-05,2.9371266125447367e-05,-4.209337036741464e-06,7.739926757557851e-05
9.797979797979798,1.9240506329113924,-7.829296503758286e-05,-5.1854807824277606e-05,-5.311612687349361e-05,3.904433185855814e-05,0.00011499048488886113
9.8989898989899,1.9240506329113924,0.0001876689066732327,-6.396893759126668e-05,-2.8159068641701297e-05,-3.7109990724589796e-05,0.00023172272984665811
10.0,1.9240506329113924,-0.00013100399067606414,7.791579719843792e-05,1.6459015860494087e-05,1.5926458043287865e-05,0.00018507537654996857
0.0,2.0253164556962027,2.0719623446760007e-05,-8.175779540570687e-05,5.0825148166298995e-05,1.8311451587684058e-05,0.00012867485262629672
0.10101010101010101,2.0253164556962027,6.851698956476625e-05,-1.0647051941515996e-05,-3.16158154615711e-05,-1.7360981286975074e-05,9.239112989208627e-05
0.20202020202020202,2.0253164556962027,3.3915541839909165e-06,-1.6390955246211654e-05,-7.226697761575975e-05,3.899820318666221e-06,0.0001265041700010767
0.30303030303030304,2.0253164556962027,8.196032415381706e-05,9.651420992432817e-05,-4.136732264248975e-05,-5.3542360223443566e-05,0.00011513434617737709
0.40404040404040403,2.0253164556962027,3.6937969475075884e-05,4.946572294152867e-05,3.810675871858966e-05,-2.5921107724981365e-05,7.962715084130158e-05
0.5050505050505051,2.0253164556962027,0.0001871632356117632,-2.5086548597286127e-06,2.905700157576872e-05,-5.5396374225610376e-05,0.00019503544830664062
0.6060606060606061,2.0253164556962027,-8.186352232583255e-05,2.207484543474716e-06,2.956420200645954e-05,2.389681133470735e-05,9.75158851503009e-05
0.7070707070707071,2.0253164556962027,-0.00010343171059951575,-8.87822389034729e-06,-1.8887702683944642e-05,3.369298034695891e-05,0.00010454132039990825
0.8080808080808081,2.0253164556962027,0.00013223742757768547,1.507340756243221e-05,7.057382559751871e-05,-4.41932505420353e-05,0.0001751075977946922
0.9090909090909091,2.0253164556962027,5.9062293922687605e-05,0.00010396072470763833,-7.807010042469813e-06,-4.8906905589097786e-05,9.131744731133713e-05
1.0101010101010102,2.0253164556962027,0.00013061195448745008,-4.0032347527195165e-05,8.679499448278929e-05,-2.7173882088076476e-05,0.0002156174572213946
1.1111111111111112,2.0253164556962027,-5.627384124327977e-05,7.219125792455415e-05,-6.53759819692917e-05,-4.775225004382314e-06,0.00015894294376269063
1.2121212121212122,2.0253164556962027,-3.26884511936382e-05,7.75042377204843e-05,-4.518516874007682e-05,-1.344473595805383e-05,0.00012543537627123395
1.3131313131313131,2.0253164556962027,0.00011852136274250664,0.00012548141448346918,1.0093051050246488e-05,-7.320083316779275e-05,0.0001233948118933029
1.4141414141414141,2.0253164556962027,1.7428586526957617e-05,0.00014070683353148073,1.5410604052018647e-05,-4.74406260175315e-05,0.00013550759225737177
1.5151515151515151,2.0253164556962027,0.00014767855521255336,0.00016822752744500007,2.609978199376097e-06,-9.477182479726604e-05,0.00015901664824310473
1.6161616161616161,2.0253164556962027,-7.260684368232843e-05,1.2208409892826479e-05,5.261357475161691e-05,1.8119530136850584e-05,0.00012087918710328724
1.7171717171717171,2.0253164556962027,8.193513694398196e-06,6.434529096153942e-05,-4.485373191813542e-05,-2.1761641396781282e-05,9.85687978717095e-05
1.8181818181818181,2.0253164556962027,0.00020765700422147937,-0.0003368692986986582,-1.2875437298613324e-05,3.876368834315365e-05,0.00047650074065714833
1.9191919191919191,2.0253164556962027,0.00012888755396190464,-2.018743475932145e-05,-5.325919768754735e-05,-3.261003576077496e-05,0.00016772319335829185
2.0202020202020203,2.0253164556962027,6.163031757562784e-05,-3.392822593823399e-05,-8.63436004307473e-05,-8.310627491218155e-06,0.00017148201044183396
2.121212121212121,2.0253164556962027,8.674713191919272e-05,-0.00012363500909858376,-8.92383016998626e-05,1.1066363153817312e-05,0.00023963740585715174
2.2222222222222223,2.0253164556962027,-2.9055082192721056e-05,9.058456759257166e-05,4.8324740648537055e-05,-1.845884561995518e-05,0.00013670239727304833
2.323232323232323,2.0253164556962027,0.00016109428204289,0.00011179300667495579,-2.574515147229971e-05,-8.186618661535374e-05,0.00014976070370300033
2.4242424242424243,2.0253164556962027,7.467660941029851e-05,-0.00013851767946543682,6.1283882157377096e-06,1.9152321016541493e-05,0.00018767111016279922
2.525252525252525,2.0253164556962027,9.06544085757432e-05,-0.00010914352495439397,3.4986424164220634e-05,5.54673491359523e-06,0.0001835674866791419
2.6262626262626263,2.0253164556962027,1.1931827988577998e-05,-7.460135334341721e-05,-4.0102657031337216e-07,1.8800857606451762e-05,8.123018787715239e-05
2.727272727272727,2.0253164556962027,-8.387785861192125e-05,9.30132066288134e-05,-5.995332325625054e-05,-2.740604405067644e-06,0.00018512672220874607
2.8282828282828283,2.0253164556962027,-3.250551455968477e-05,-9.800118682083917e-06,-2.9907321494059727e-05,1.2691689972530606e-05,5.9307980401568495e-05
2.929292929292929,2.0253164556962027,7.11002973722344e-05,5.8399102821604436e-05,3.148366298840122e-05,-3.884982005815165e-05,8.536496368770034e-05
3.0303030303030303,2.0253164556962027,3.345897004878154e-05,0.00021152296363518072,3.146577509270142e-05,-7.349458010518867e-05,0.0002043389618339822
3.131313131313131,2.0253164556962027,-0.00013975061784468612,-2.706344864709155e-05,-8.139463163636482e-05,5.00442199475333e-05,0.00019067194326608425
3.2323232323232323,2.0253164556962027,5.234170370433151e-05,-1.415616158655483e-05,-6.240670155302336e-05,-1.1455662635333004e-05,0.00012395482108040477
3.3333333333333335,2.0253164556962027,8.46108030914623e-06,-3.640863765888768e-05,6.396643639184596e-05,8.384267204922435e-06,0.00011823853068001428
3.4343434343434343,2.0253164556962027,-9.2224084201269e-05,5.5668728709311754e-05,2.0871738230724083e-06,1.0966606647587172e-05,0.00012942702758868423
3.5353535353535355,2.0253164556962027,0.00010821930680686465,-9.261126849216367e-05,1.1295714808126096e-05,-4.682411494410295e-06,0.0001751952402757902
3.6363636363636362,2.0253164556962027,-5.53614751245023e-05,-6.378934523777353e-06,-4.4615391647986366e-05,1.8522122894483896e-05,9.340254827557025e-05
3.7373737373737375,2.0253164556962027,3.972269346819155e-05,5.5443173177427454e-05,7.409464231452963e-05,-2.85497599936857e-05,0.0001375482959344592
3.8383838383838382,2.0253164556962027,-0.0001753503675366745,-0.00021081288720788778,-9.860101428761569e-05,0.00011584897642336868,0.00025959620107089703
3.9393939393939394,2.0253164556962027,7.815030802966219e-05,1.6855848388870326e-05,-4.062031641969756e-05,-2.8501846925559757e-05,0.00010012158031342302
4.040404040404041,2.0253164556962027,-8.862685608938384e-06,-5.6616148887009046e-05,3.022542921193168e-05,1.9643650348784227e-05,7.431617654428227e-05
4.141414141414141,2.0253164556962027,-0.00011518846744408693,-1.5752004235626577e-05,5.239430670739102e-06,3.928214150391405e-05,0.00010855604241009584
4.242424242424242,2.0253164556962027,6.24723201601055e-05,-1.2834657381647522e-05,3.31197098585001e-05,-1.4891298833537394e-05,9.033313669255726e-05
4.343434343434343,2.0253164556962027,-0.0001292045174707716,0.0001717041423004945,5.391552963050465e-06,-1.2749887448916875e-05,0.00026162621657955387
4.444444444444445,2.0253164556962027,7.631278014653086e-05,-6.749344919426338e-05,-5.543602957678872e-05,-2.6457992856802424e-06,0.00015731839998309167
4.545454545454545,2.0253164556962027,-3.593828216576643e-05,-2.7784499090429195e-05,-2.1758007994043416e-05,1.9116834376858686e-05,4.9852222439852694e-05
4.646464646464646,2.0253164556962027,9.000059880660806e-06,7.468003840413512e-05,0.0001636140536118824,-2.5104029485438775e-05,0.00029205249530573626
4.747474747474747,2.0253164556962027,0.00011742511899207063,4.889110111717567e-06,5.776207494071345e-05,-3.6694268731136456e-05,0.00015247238942091274
4.848484848484849,2.0253164556962027,-3.39781200451815e-05,0.00022702810344968328,-1.8599140584990087e-05,-5.791499502135053e-05,0.0002478871611074457
4.94949494949495,2.0253164556962027,7.327671409968098e-06,3.1412045567254556e-05,-2.1631470220857813e-05,-1.1621915093166794e-05,4.7053116140459065e-05
5.05050505050505,2.0253164556962027,-6.333658340763376e-05,-0.00021880942162637198,-4.0231811789664504e-05,8.464380151020172e-05,0.00020708993371634877
5.151515151515151,2.0253164556962027,6.344501430585658e-05,0.0001317179890220393,-2.0114935067424102e-05,-5.854890099836876e-05,0.00011929744596066811
5.252525252525253,2.0253164556962027,4.368587897585346e-06,-1.4627523357701816e-06,-2.6636034026586054e-05,-8.717506685445492e-07,4.643327785933587e-05
5.353535353535354,2.0253164556962027,3.2078858856137414e-05,0.00019284828175648123,-2.2044684398146074e-05,-6.747814218378559e-05,0.00018300564057281398
5.454545454545454,2.0253164556962027,-2.1399519346102608e-05,-6.77092365776014e-05,1.782116977441974e-05,2.6732626777111204e-05,6.742638433506331e-05
5.555555555555555,2.0253164556962027,0.00010005633880932804,-0.0001226464073218154,-6.217326612835975e-05,6.777020553746209e-06,0.00022118206914851314
5.656565656565657,2.0253164556962027,-2.7456712488959425e-05,0.00015568765406490752,8.022547730740314e-05,-3.846928247278442e-05,0.0002203986603232388
5.757575757575758,2.0253164556962027,4.82589969761906e-05,-6.117722342722124e-05,1.611523588077516e-05,3.8754679353091906e-06,9.901028925458807e-05
5.858585858585858,2.0253164556962027,0.0002710737795037839,-8.064953134441193e-06,-1.89601162762021e-05,-7.89026479108028e-05,0.0002771474206245152
5.959595959595959,2.0253164556962027,-4.7611543668871175e-05,-5.303625770082049e-06,-2.3379983841080535e-05,1.5874550831685966e-05,6.068232576388164e-05
6.0606060606060606,2.0253164556962027,3.688875506444365e-05,0.0001500435033291583,4.5960990238237546e-05,-5.6079677518080575e-05,0.00015708645062260907
6.161616161616162,2.0253164556962027,-0.00012863688924146728,-9.561877916817801e-05,1.4881817930063969e-05,6.727670052289358e-05,0.00011855253440050871
6.262626262626262,2.0253164556962027,-0.00022312765242954883,8.442099917964256e-05,3.2874461171938654e-05,4.1611995974971874e-05,0.00028105462873960496
6.363636363636363,2.0253164556962027,0.00011395622820997927,-0.00010998784392497796,-4.04723504057263e-05,-1.1905152855003925e-06,0.00020623089255453517
6.4646464646464645,2.0253164556962027,-3.339086570550309e-05,7.252801205759241e-05,-3.590604629796354e-07,-1.1741143905626796e-05,9.379457515943881e-05
6.565656565656566,2.0253164556962027,0.00012242415694594958,-3.2140925318845994e-05,-5.7379022077881014e-05,-2.708496948813108e-05,0.00017272114952646201
6.666666666666667,2.0253164556962027,5.5138873674901325e-05,-6.146865049683863e-05,1.2554461467287704e-05,1.8989330465811925e-06,0.00010334817873069611
6.767676767676767,2.0253164556962027,-0.00016544786607346532,-4.551269155698043e-05,-2.3454039119934186e-05,6.328816728913373e-05,0.00015350797906552
6.8686868686868685,2.0253164556962027,0.0001036026493491966,0.00012051843130153922,1.354581255444057e-05,-6.723632419522074e-05,0.00011542373919860648
6.96969696969697,2.0253164556962027,5.5026148767574524e-05,0.00012687410560813207,4.9416287400741995e-05,-5.4570076312711976e-05,0.0001395329018315281
7.070707070707071,2.0253164556962027,-3.8302649421332906e-05,-6.418060703351915e-05,3.136607691703812e-05,3.074497693645562e-05,7.797081713389939e-05
7.171717171717171,2.0253164556962027,0.0001443773014335495,-0.00022021958812578488,-1.2304543068816158e-05,2.275268600767061e-05,0.0003187324698870982
7.2727272727272725,2.0253164556962027,-0.0001491975105336504,-2.2596443051699527e-05,-2.2804649396174907e-05,5.153818607560498e-05,0.00014477333815328646
7.373737373737374,2.0253164556962027,-3.064411857524719e-05,6.588695455921233e-05,4.450552368357492e-05,-1.057285079518954e-05,0.00011507139239386864
7.474747474747475,2.0253164556962027,0.0001742955105845604,-5.4259713743984275e-05,1.8780314367893597e-05,-3.6010739052172836e-05,0.00020937613684458479
7.575757575757575,2.0253164556962027,1.340892592224737e-05,0.00011464435391007999,-5.359950829854404e-05,-3.8415983949698205e-05,0.00014284464077591742
7.6767676767676765,2.0253164556962027,-7.498638349319583e-05,-3.7102286768783265e-06,5.104837385109189e-05,2.3608983651022246e-05,0.0001147881365574598
7.777777777777778,2.0253164556962027,7.210586621878217e-05,-0.000207391668866175,1.4983731106974005e-05,4.058574079421785e-05,0.0002526623295666981
7.878787878787879,2.0253164556962027,5.333355999298176e-05,3.7517124938171123e-05,3.9485838727902925e-05,-2.7255205479345862e-05,8.323746651379449e-05
7.979797979797979,2.0253164556962027,2.243284659262556e-05,0.0001096796157090282,1.6316689600577936e-05,-3.9633738690496126e-05,0.00010426470061029499
8.080808080808081,2.0253164556962027,7.782864392437855e-06,-0.0001906028032790924,3.526872974601403e-05,5.484598166599636e-05,0.00020397325133563783
8.181818181818182,2.0253164556962027,-1.2565894063974004e-05,7.606193895053016e-05,1.1960732930766428e-05,-1.9048813465966846e-05,8.560539652625514e-05
8.282828282828282,2.0253164556962027,-1.494306494016281e-05,-7.8191552359367e-05,5.119387768268969e-05,2.794038518985894e-05,0.00011415442147401025
8.383838383838384,2.0253164556962027,-6.61605900230014e-05,4.0583535646424684e-05,2.6583107466179435e-05,7.673116312973012e-06,0.00010406374252840706
8.484848484848484,2.0253164556962027,-0.0001419886469447605,-1.887020767927657e-05,-5.1146032623363905e-05,4.825765638721112e-05,0.00016026620137273603
8.585858585858587,2.0253164556962027,6.988125469715023e-05,7.321473698480128e-05,5.128804855192033e-05,-4.292879750458545e-05,0.00011410013829866403
8.686868686868687,2.0253164556962027,-3.980082095476822e-06,3.092904419427742e-05,8.468516897260551e-05,-8.084688629640177e-06,0.0001503671523140689
8.787878787878787,2.0253164556962027,5.6969769492887435e-05,-7.258278531982247e-05,9.769114915150091e-06,4.68390474808051e-06,0.00011373278651450693
8.88888888888889,2.0253164556962027,-1.6821261487348017e-05,0.0001301256416287738,5.688955483570684e-06,-3.399131404242773e-05,0.00013964815621716776
8.98989898989899,2.0253164556962027,0.00014046601486630828,-9.106066580261386e-05,6.044759017389992e-06,-1.4821604719108324e-05,0.00020229506261878493
9.09090909090909,2.0253164556962027,-2.9137076779418248e-05,6.450995117291954e-05,2.6504824714352222e-05,-1.0611862318050386e-05,9.485595207133637e-05
9.191919191919192,2.0253164556962027,-0.00013261024744091129,-7.754930372854291e-05,3.097403251059699e-05,6.304786535083626e-05,0.0001272545164177351
9.292929292929292,2.0253164556962027,3.259208999484692e-05,-3.0447864193569358e-05,-7.41208275824613e-05,-6.432677403832678e-07,0.00013951117352619755
9.393939393939394,2.0253164556962027,-2.774758256786874e-05,-2.585882799949515e-05,8.671117965858829e-05,1.6081923170209166e-05,0.00015256989674308555
9.494949494949495,2.0253164556962027,-0.00015683786859812884,0.00010929942069698772,3.050749425620027e-06,1.4261534370342336e-05,0.00023176429791579322
9.595959595959595,2.0253164556962027,-4.8803513881842535e-05,-6.143519434521762e-05,1.803651858513611e-05,3.307161246811805e-05,6.429432882770623e-05
9.696969696969697,2.0253164556962027,8.533200417987952e-05,-3.66243075461779e-05,1.4788350627174196e-05,-1.4612308990110487e-05,0.00011137415475784485
9.797979797979798,2.0253164556962027,6.578654652304876e-05,6.61866750135775e-05,-4.041075821600822e-06,-3.959196646098787e-05,6.635769555359301e-05
9.8989898989899,2.0253164556962027,3.059023899988286e-05,-0.0001530494631371459,3.70365138123928e-05,3.6737767241178905e-05,0.0001820901716483739
10.0,2.0253164556962027,-7.123017134435008e-05,0.00011571713443607436,-1.2734970263282606e-05,-1.3346088927517286e-05,0.00016490385752923072
0.0,2.1265822784810124,0.00011211649954349455,-9.858935393991214e-05,7.666040476349474e-05,-4.058143681074722e-06,0.00022577403839166673
0.10101010101010101,2.1265822784810124,-5.367865058168715e-05,-2.6119261788123245e-05,3.306034823550993e-05,2.3939373710943117e-05,7.37599248509016e-05
0.20202020202020202,2.1265822784810124,6.0530035091472105e-05,-5.207101621612066e-05,-1.2944578192545298e-05,-2.537705662605433e-06,0.00010014900214437237
0.30303030303030304,2.1265822784810124,0.00020355219931066519,-4.393157298966256e-06,-8.083961190802363e-05,-5.974771260350968e-05,0.00024890191454808884
0.40404040404040403,2.1265822784810124,-3.355535363135803e-05,0.0001397044002631868,-8.686574569832446e-05,-3.1844713989548625e-05,0.00021901617541197302
0.5050505050505051,2.1265822784810124,5.568944686470467e-05,-0.00015876654685385651,-9.639870756211286e-06,3.092312999674555e-05,0.0001934645533204841
0.6060606060606061,2.1265822784810124,-0.00011126096593055089,-0.0002933200904114986,5.796702832802735e-05,0.00012137431690261485,0.00027542899359424034
0.7070707070707071,2.1265822784810124,2.6413720439540367e-05,-3.393860337391248e-05,-4.4334547460066354e-05,2.2574648803116332e-06,9.296566303492666e-05
0.8080808080808081,2.1265822784810124,-5.175156457121717e-05,-6.783877106272563e-06,-0.00010212034856779276,1.756063250324692e-05,0.00018346352756031886
0.9090909090909091,2.1265822784810124,5.551611762826824e-05,-4.359233743365209e-06,5.9605161943626474e-05,-1.5347065165470907e-05,0.0001183274100096364
1.0101010101010102,2.1265822784810124,6.969357081753744e-05,-2.4951954174007925e-05,-0.00011970435018706591,-1.3422484993058854e-05,0.00022406735366131808
1.1111111111111112,2.1265822784810124,0.00012024077413602923,8.863166211679897e-05,-1.6379493304810256e-05,-6.266173087584846e-05,0.00011162947205508992
1.2121212121212122,2.1265822784810124,0.00015891262592305922,6.4932492213315e-05,5.9420301316136264e-05,-6.715353544091226e-05,0.0001724620972937218
1.3131313131313131,2.1265822784810124,-3.4664736111547066e-06,5.946175296629052e-05,6.184400838779161e-05,-1.6798583806540743e-05,0.0001234013096488824
1.4141414141414141,2.1265822784810124,-6.758248151249144e-05,-7.369773688835929e-05,1.8594911634803022e-05,4.238406552025521e-05,7.781635114293446e-05
1.5151515151515151,2.1265822784810124,9.986281608802549e-05,-7.209171256781695e-05,2.3541523256286303e-05,-8.33133105606256e-06,0.00015502157412212355
1.6161616161616161,2.1265822784810124,-9.535062459346965e-05,1.978553412134434e-05,2.73755671772453e-06,2.2669527141637594e-05,0.00010673450546831388
1.7171717171717171,2.1265822784810124,-6.901742108075604e-05,-4.5416592070497623e-05,-2.5818780430123594e-05,3.43302039453761e-05,7.54411257713637e-05
1.8181818181818181,2.1265822784810124,-0.00011089464604778971,-4.001312934419305e-05,-6.986087484991384e-05,4.5272332617594827e-05,0.0001552515917164038
1.9191919191919191,2.1265822784810124,-0.0001858904978704778,-5.5388899362446365e-05,-3.610486700335868e-05,7.238381916987725e-05,0.00017674168030242622
2.0202020202020203,2.1265822784810124,4.374525280844466e-05,5.3091605618657224e-05,-5.2862561276692566e-05,-2.9051057528130565e-05,0.00010389038056934626
2.121212121212121,2.1265822784810124,-2.049063670277434e-05,-9.111245200644623e-05,-4.972868635318207e-05,3.348092661276617e-05,0.00011947058085231052
2.2222222222222223,2.1265822784810124,1.966840236189338e-05,2.4436090674813714e-05,8.199435842658929e-05,-1.3231347911012128e-05,0.0001437796027145613
2.323232323232323,2.1265822784810124,-0.0001462571864298017,7.408152347266236e-05,-0.00014197976972903935,2.16526988871418e-05,0.00031335117189643704
2.4242424242424243,2.1265822784810124,0.00011172386223243934,-0.00028458666739034565,3.120727710527542e-05,5.185884154737189e-05,0.00035803435128791853
2.525252525252525,2.1265822784810124,-0.00011675193773413014,-2.0912086954084313e-05,1.5277870868095797e-05,4.129920740646434e-05,0.00011102722047444963
2.6262626262626263,2.1265822784810124,-9.060728831862017e-05,-0.00013720423868437387,-5.084549838366084e-05,6.834345810089822e-05,0.00014952850535616586
2.727272727272727,2.1265822784810124,-8.251221966032254e-06,-2.786945523357643e-05,-8.94324566730442e-06,1.0836203159882605e-05,2.9236570711040878e-05
2.8282828282828283,2.1265822784810124,-8.454653141093622e-05,-0.00010325424512954623,-5.1860360718316024e-05,5.634023296214473e-05,0.00013095135689727204
2.929292929292929,2.1265822784810124,0.00022039818714722885,0.0002645907910905589,7.197017941220624e-06,-0.00014549669347133632,0.000245812343337842
3.0303030303030303,2.1265822784810124,-4.2944951789327665e-06,3.143282024198542e-06,2.513847955370362e-05,3.453639464202673e-07,4.4018759444586785e-05
3.131313131313131,2.1265822784810124,1.5376238855274748e-05,-1.9772159902948782e-05,-2.5918195215553326e-05,1.31877631430221e-06,5.4283026920108804e-05
3.2323232323232323,2.1265822784810124,8.982442921831394e-05,-0.00019033878536222582,2.453093840660857e-05,3.0154306843173564e-05,0.00025139541536821813
3.3333333333333335,2.1265822784810124,-3.7709221963839345e-05,0.00016427651096354037,6.318974432846049e-06,-3.79701866999103e-05,0.00018634185038388562
3.4343434343434343,2.1265822784810124,-0.00010931388756801811,-5.2045267097846215e-05,-1.1615756432479259e-05,4.840774639975929e-05,9.681809107307412e-05
3.5353535353535355,2.1265822784810124,-3.452833674498245e-05,-2.1888460372408006e-05,1.9170959459514525e-05,1.6925039135217136e-05,4.492344226655746e-05
3.6363636363636362,2.1265822784810124,-1.0387127382605929e-05,-1.5093168103852281e-05,-3.109309751117619e-05,7.644088645937463e-06,5.549111295955741e-05
3.7373737373737375,2.1265822784810124,0.0001083711102688985,2.9750488394777276e-05,8.438561882767839e-05,-4.143647959910273e-05,0.00017540836250603398
3.8383838383838382,2.1265822784810124,2.3656456863775332e-05,2.403569902436347e-05,-6.884385494644509e-06,-1.430764676644164e-05,2.666322547430307e-05
3.9393939393939394,2.1265822784810124,-1.2723035541285308e-05,8.58897175574209e-05,1.2198536866943377e-05,-2.1950004604840677e-05,9.527911654541566e-05
4.040404040404041,2.1265822784810124,-5.378915149695919e-06,-3.274224524023978e-05,-3.243127178316219e-05,1.1436348116980709e-05,6.38766918446928e-05
4.141414141414141,2.1265822784810124,6.995600857454753e-05,-7.058336294930397e-06,3.233859705754985e-05,-1.886930168388514e-05,9.26001666319041e-05
4.242424242424242,2.1265822784810124,4.400840043171375e-05,0.00017322205284185362,3.028782539652964e-05,-6.516913598207021e-05,0.0001645340406602482
4.343434343434343,2.1265822784810124,-6.048892532619744e-05,-2.3901495036576425e-05,6.713732088988229e-06,2.531712610883216e-05,5.4033678380598504e-05
4.444444444444445,2.1265822784810124,4.829349900429567e-05,-0.00019454200388091357,3.068402995412913e-05,4.387455146298537e-05,0.00022890717872857015
4.545454545454545,2.1265822784810124,6.701609050746871e-06,-0.00013151090330583095,-5.1296421214539415e-05,3.744278827652522e-05,0.0001616023898347709
4.646464646464646,2.1265822784810124,0.0001689108346901412,6.30506799730209e-05,-7.609774839415995e-06,-6.958845439894863e-05,0.00014842520459166093
4.747474747474747,2.1265822784810124,0.00023346417778142984,-4.373323150501398e-05,-4.924914948486691e-05,-5.691928388292475e-05,0.0002718541832582709
4.848484848484849,2.1265822784810124,9.762082066406118e-05,0.00012779526463494335,6.387006175498814e-05,-6.762482558970135e-05,0.00016007538863096335
4.94949494949495,2.1265822784810124,6.762895293575626e-05,8.224513761926827e-05,-4.257660965730302e-05,-4.496222716650736e-05,0.00010589659326759228
5.05050505050505,2.1265822784810124,6.37607960529662e-05,-2.9473524257203723e-05,9.914078289872682e-05,-1.0286181538728741e-05,0.000190525766278189
5.151515151515151,2.1265822784810124,-3.824817814234956e-05,-0.00024698541122623787,-8.029908751910962e-06,8.557007681057623e-05,0.0002306759909187607
5.252525252525253,2.1265822784810124,-6.096933290292507e-05,7.731713105849403e-05,-0.0001003263552201698,-4.904339446670689e-06,0.00021119968008413158
5.353535353535354,2.1265822784810124,-0.00012604556497551305,6.034293168350668e-05,5.172553128864135e-06,1.971078998760191e-05,0.00016496962959313387
5.454545454545454,2.1265822784810124,-1.7294107358198883e-05,-6.838449604500795e-05,-1.5002969032787036e-06,2.570358102096205e-05,6.164113322126619e-05
5.555555555555555,2.1265822784810124,0.00020193713451548937,-4.8225006103715806e-05,-3.396950891467557e-05,-4.6113638523532066e-05,0.00023728560778589017
5.656565656565657,2.1265822784810124,-3.1712610941358834e-05,-3.911679331007382e-05,1.818970317790403e-05,2.1248821275429798e-05,4.783213845487012e-05
5.757575757575758,2.1265822784810124,-0.000149799537373973,-6.465306224181997e-05,1.161959100554383e-05,6.433577988473788e-05,0.0001316813036329532
5.858585858585858,2.1265822784810124,9.852478367261069e-05,0.00015288610529908022,9.940616908830497e-06,-7.542326669150727e-05,0.00013533170853019148
5.959595959595959,2.1265822784810124,-9.352980125194932e-05,-5.686895211961034e-05,-1.8709412639776853e-05,4.5119626011467896e-05,8.782417669545341e-05
6.0606060606060606,2.1265822784810124,2.3840594601355873e-05,9.984251052393336e-05,-2.42962917226292e-05,-3.710493153758677e-05,9.963696811775506e-05
6.161616161616162,2.1265822784810124,-4.5736085063085763e-05,-1.6949847728946842e-06,2.091857636157728e-05,1.4229320950794135e-05,5.77052943282489e-05
6.262626262626262,2.1265822784810124,-7.030839511942986e-05,-8.476816408387526e-05,-6.516138050471744e-05,4.6522967760991535e-05,0.00013750278186387582
6.363636363636363,2.1265822784810124,0.00010603684168608765,-2.0524837286305408e-05,5.980675928489853e-05,-2.565360131993467e-05,0.00015675463320372955
6.4646464646464645,2.1265822784810124,0.0003036641433923262,0.00016756702974807797,7.90105534674019e-05,-0.00014136935194212125,0.0002968745956952489
6.565656565656566,2.1265822784810124,-5.15063367119469e-05,-1.3050872596454136e-05,-1.064452649363442e-05,1.936716279252031e-05,4.990934974027106e-05
6.666666666666667,2.1265822784810124,-1.948542202462009e-05,-9.049883633439331e-05,9.495709742318916e-05,3.299527750770402e-05,0.00018400234803870113
6.767676767676767,2.1265822784810124,3.06018077324511e-05,2.1581389539029226e-05,-5.241371405673614e-05,-1.56549591814441e-05,9.4780745625473e-05
6.8686868686868685,2.1265822784810124,-0.00010781221653974389,6.713487449415667e-05,2.2049113669716125e-05,1.2203202613676167e-05,0.0001575659077203934
6.96969696969697,2.1265822784810124,-0.00011685016062574154,3.751938411781114e-05,-4.978906068680661e-05,2.3799232952379118e-05,0.00016395933024933385
7.070707070707071,2.1265822784810124,1.822460463156319e-05,-1.3827056539702243e-05,-4.1155687843718464e-07,-1.3192644275582843e-06,2.7853626018452743e-05
7.171717171717171,2.1265822784810124,3.5911008217385094e-05,-3.1596512112292765e-05,-8.633460322872304e-05,-1.2943488315276988e-06,0.00016057270577199515
7.2727272727272725,2.1265822784810124,6.476934726568221e-05,-1.524744043125041e-05,-4.108394854824709e-05,-1.485657205032954e-05,0.00010236597107475007
7.373737373737374,2.1265822784810124,0.00012644544608316925,1.9993357470628727e-05,6.369460653552621e-05,-4.393164106613939e-05,0.0001613416402519591
7.474747474747475,2.1265822784810124,-0.00014657623702265645,4.7394979683833014e-05,-3.1995754039249147e-06,2.975437720164703e-05,0.00017523860015153798
7.575757575757575,2.1265822784810124,-9.31931397938419e-05,-4.223056072923123e-05,-2.10240465827247e-06,4.062711015692193e-05,8.090762220316233e-05
7.6767676767676765,2.1265822784810124,7.065918686749045e-05,-8.536253350375437e-05,-3.8314387950113826e-05,4.411003990879176e-06,0.0001507153177127468
7.777777777777778,2.1265822784810124,2.918334906010126e-06,0.00011648588191350327,2.7261071926106024e-05,-3.582126504585401e-05,0.00012436651750461492
7.878787878787879,2.1265822784810124,-7.105021425890835e-05,0.0001277908377677734,2.8446107622721995e-05,-1.7022187052659512e-05,0.00018134426013525297
7.979797979797979,2.1265822784810124,7.190491200335368e-05,-9.002031466547972e-05,-1.554159583870337e-05,5.4346207986378114e-06,0.000143078649109007
8.080808080808081,2.1265822784810124,-0.00011170225632402487,-4.368672799386637e-05,3.330632515720365e-05,4.6616695295367365e-05,0.00011328703398355672
8.181818181818182,2.1265822784810124,7.104666369604398e-05,0.00012685550106038735,-1.9924528982778294e-05,-5.93706494269294e-05,0.0001154047096757621
8.282828282828282,2.1265822784810124,5.3967264578802315e-05,-0.000121193675134873,6.742792759367848e-05,2.0167923166821208e-05,0.0001943719113679539
8.383838383838384,2.1265822784810124,7.388290552288365e-05,-0.0001351534057660634,0.00011383959545432797,1.8381150072953924e-05,0.00026942348377154265
8.484848484848484,2.1265822784810124,3.342925935821679e-05,7.227211629093717e-05,-6.26022719320494e-05,-3.171041269474619e-05,0.00012522740996968477
8.585858585858587,2.1265822784810124,0.00017634230983437806,6.621425081964058e-05,4.385618792866154e-05,-7.27669681962056e-05,0.00017197284371302352
8.686868686868687,2.1265822784810124,0.00011246924214180576,-8.590676605066938e-05,5.022500811551942e-05,-7.968742827340916e-06,0.00019302545447277348
8.787878787878787,2.1265822784810124,0.00020921685595862188,0.00012747677555768593,-1.7732411018158394e-05,-0.00010100808945489232,0.00018518921711434535
8.88888888888889,2.1265822784810124,-1.4038771869755235e-05,-0.00013280632216265096,3.8732481142884955e-05,4.405352820972186e-05,0.00014307614737869484
8.98989898989899,2.1265822784810124,-1.2087124007718605e-05,-0.00010047193631685106,-6.842006596624283e-05,3.37677180973709e-05,0.000151888801697008
9.09090909090909,2.1265822784810124,-6.132376960355793e-05,-7.355902012846854e-05,7.1665973710307515e-06,4.046483691960794e-05,6.938802570807447e-05
9.191919191919192,2.1265822784810124,-0.00010838877479608723,-2.382277089348178e-05,3.288814724416599e-05,3.9663463706870695e-05,0.00011392287150923508
9.292929292929292,2.1265822784810124,-0.00016344979428748054,1.161438315037404e-05,-1.915623976739942e-05,4.555062334113195e-05,0.00017277147406723802
9.393939393939394,2.1265822784810124,-9.892045907769685e-05,3.047532857380161e-06,-4.3420484163264643e-05,2.8761877866095007e-05,0.00012550706499987347
9.494949494949495,2.1265822784810124,0.0001426910565299145,0.00017498013928337464,4.421770006727647e-05,-9.530135874398673e-05,0.00017853935366992618
9.595959595959595,2.1265822784810124,6.72143599240921e-05,-0.00021493129101829382,2.5367686183987438e-05,4.431507932826052e-05,0.0002590178713896728
9.696969696969697,2.1265822784810124,0.00020054435549962896,-9.337278988939428e-05,8.714679797482006e-05,-3.21514696830704e-05,0.0003007417423236317
9.797979797979798,2.1265822784810124,0.00011105306180664723,6.171308830091432e-05,1.1464398055376452e-05,-5.1829845032268465e-05,9.839795558457146e-05
9.8989898989899,2.1265822784810124,3.957128982842437e-05,9.721888236351158e-05,2.0074210938344863e-05,-4.103705165758078e-05,9.153820694270206e-05
10.0,2.1265822784810124,-2.32953044018405e-05,1.9992887635534676e-05,6.469139714814668e-05,9.90725029891747e-07,0.00011816538309276883
0.0,2.2278481012658227,-9.540551348752251e-05,-8.106813883955693e-05,-6.364304416200038e-05,5.294209569812383e-05,0.00014174349697915886
0.10101010101010101,2.2278481012658227,4.045591156816382e-06,-9.668441961706302e-05,6.640185865328932e-07,2.779164853807399e-05,9.877607098660551e-05
0.20202020202020202,2.2278481012658227,0.00020026224960341366,0.00010354513076898143,1.1415080418000016e-05,-9.114221411171852e-05,0.00017458892886365325
0.30303030303030304,2.2278481012658227,-8.622127644896268e-05,-3.5673174792579596e-05,-1.4276250663683783e-05,3.6568335372462683e-05,7.900842515646167e-05
0.40404040404040403,2.2278481012658227,-3.344055207038629e-05,-0.00015290467666826386,-3.6642947823777654e-05,5.5903568621595044e-05,0.00015301310644358593
0.5050505050505051,2.2278481012658227,0.00025040665428881454,-6.448028320063461e-05,-0.00011333964408732607,-5.5777911326453976e-05,0.00034863321153203884
0.6060606060606061,2.2278481012658227,5.929098944270767e-05,-9.321588524997326e-05,1.0401727074578928e-05,1.0177468742179677e-05,0.00013437288617381988
0.7070707070707071,2.2278481012658227,-8.27557767894473e-05,0.0002515749758909461,2.259703087803078e-05,-5.064575973044963e-05,0.0003041211058948469
0.8080808080808081,2.2278481012658227,-7.422035981805006e-05,-2.8448882181246262e-05,-7.798845869622426e-05,3.08007725997889e-05,0.00014984363018296065
0.9090909090909091,2.2278481012658227,6.255160067233853e-05,-5.670370304056432e-05,2.0702976280439486e-05,-1.7543692895322645e-06,0.000109365258446299
1.0101010101010102,2.2278481012658227,2.7842569686002296e-05,8.160296053870686e-05,-7.581577327612444e-05,-3.283365906741275e-05,0.00014968737479289533
1.1111111111111112,2.2278481012658227,3.953714209468042e-05,0.000170724320415038,7.715949027777149e-05,-6.307843875291553e-05,0.00020450131610994814
1.2121212121212122,2.2278481012658227,-5.4101790830459586e-05,-2.9709920447620422e-05,-5.584271471442509e-05,2.5143513383424005e-05,0.00010750604449262371
1.3131313131313131,2.2278481012658227,-6.961708654116473e-05,-3.264308760756958e-05,-1.6844874825807725e-05,3.067805224462029e-05,6.701374990089632e-05
1.4141414141414141,2.2278481012658227,2.591854614471874e-06,-9.268267071205023e-05,4.0347095693992625e-05,2.7027244829273507e-05,0.00011713530450401404
1.5151515151515151,2.2278481012658227,-6.193615462657336e-05,-4.1290557165691574e-05,-2.357471640141979e-05,3.096801353767948e-05,6.819765969570012e-05
1.6161616161616161,2.2278481012658227,9.696699806170839e-05,-7.750796023348362e-05,3.094076152587178e-05,-5.837711348467431e-06,0.0001606169013951658
1.7171717171717171,2.2278481012658227,-6.362848287189531e-05,1.4203244473667057e-05,-8.171517108016699e-05,1.4827571519468475e-05,0.00015870146325052827
1.8181818181818181,2.2278481012658227,-0.00017222531399420043,-6.166528197029999e-05,7.09555140183736e-05,7.016717878935011e-05,0.00019480220260519786
1.9191919191919191,2.2278481012658227,7.459295358344962e-05,5.251207303748945e-05,6.765361483175673e-05,-3.813150798628172e-05,0.00013466859586314922
2.0202020202020203,2.2278481012658227,-5.4843351610884786e-05,7.982457685833367e-05,1.0572191263899827e-05,-7.494367574234665e-06,0.00011871359360545147
2.121212121212121,2.2278481012658227,-3.027004601895675e-05,0.00021496971480341516,1.0017536746975131e-05,-5.540990063533752e-05,0.00023224222324087364
2.2222222222222223,2.2278481012658227,-0.0001412771144868033,4.8191476066284965e-05,-5.8574670360432195e-05,2.7925691526155496e-05,0.00019845143019935407
2.323232323232323,2.2278481012658227,-0.00018206396256645568,-4.3454496848042615e-05,2.0025456399154992e-05,6.765553782434948e-05,0.0001683066801592067
2.4242424242424243,2.2278481012658227,-6.1975516023921e-05,-5.971059212962332e-06,3.599520260141178e-05,2.0383972571065e-05,8.598559466313706e-05
2.525252525252525,2.2278481012658227,9.630083051450462e-05,-6.371169456474804e-05,-5.3322606263533024e-05,-9.776740784926972e-06,0.0001673272843811615
2.6262626262626263,2.2278481012658227,5.642044374852091e-05,-9.13941306210896e-05,3.697326485472504e-05,1.0492106061770607e-05,0.00014420027022329012
2.727272727272727,2.2278481012658227,-8.411760670408417e-05,-5.517982045037611e-05,6.906802640129174e-06,4.178922814633808e-05,7.498067535066018e-05
2.8282828282828283,2.2278481012658227,-2.4454337887876173e-05,9.697387032521913e-05,-1.9064025332640112e-05,-2.1755859731202886e-05,0.00011603313812986987
2.929292929292929,2.2278481012658227,8.119306313522413e-05,3.875212814480724e-05,-2.764908986881542e-05,-3.5983557384009415e-05,8.509437973020261e-05
3.0303030303030303,2.2278481012658227,-6.369924435297113e-05,-9.1683409782526e-06,-1.949956309966956e-05,2.1860275599367117e-05,6.85443994676585e-05
3.131313131313131,2.2278481012658227,-1.3294469665533063e-05,-1.0433249322173633e-05,6.8429190632893e-05,7.118315696312009e-06,0.00011914089764013979
3.2323232323232323,2.2278481012658227,-4.057463165968352e-05,8.919116593226163e-06,3.411291793390441e-05,9.496654519937206e-06,7.469146373929465e-05
3.3333333333333335,2.2278481012658227,-3.0689159258921376e-05,2.7509922597471294e-05,5.337119159660594e-05,9.537709984350246e-07,0.00010530113489634174
3.4343434343434343,2.2278481012658227,-3.072988148137342e-05,-0.00020194485261885463,6.793307355988708e-05,6.980242023006841e-05,0.00022218239169258765
3.5353535353535355,2.2278481012658227,-4.998351485001175e-05,-5.726013897040584e-05,1.8937101250661188e-05,3.217309614612528e-05,6.317320378502184e-05
3.6363636363636362,2.2278481012658227,-0.00020381195720236615,-9.652950770559805e-05,1.7304481895330916e-05,9.010243947238926e-05,0.0001791137268449376
3.7373737373737375,2.2278481012658227,8.068557760069631e-05,7.728237853864547e-05,-2.197522693277607e-05,-4.739038684180253e-05,8.772620424276449e-05
3.8383838383838382,2.2278481012658227,0.000217398488495278,1.0121033308513511e-06,-2.7231348491826346e-05,-6.55231775478388e-05,0.00022196336733998608
3.9393939393939394,2.2278481012658227,-9.643716503588673e-06,0.00010194511427240347,-4.7133167745435825e-05,-2.769041933064444e-05,0.00013466084760665282
4.040404040404041,2.2278481012658227,4.9511100905549664e-05,-4.7016850280738625e-05,-1.68278384359691e-05,-7.482751874433116e-07,8.853992196175079e-05
4.141414141414141,2.2278481012658227,-0.00014230851909252356,3.594973247057285e-05,0.00014704064080660805,3.190763598658521e-05,0.00030252752140446054
4.242424242424242,2.2278481012658227,-9.532234378843921e-05,-8.844943115284523e-06,-2.5986825965315486e-05,3.125018607111712e-05,0.00010172220459105505
4.343434343434343,2.2278481012658227,-0.00011969611786581791,-0.00017810832653594044,3.149344668817737e-05,8.934133332052751e-05,0.00016645231425412702
4.444444444444445,2.2278481012658227,-2.6535986915091514e-06,-7.219860804160485e-05,-2.154630523902072e-05,2.2455662019934197e-05,8.013004596087562e-05
4.545454545454545,2.2278481012658227,0.00014181002487756686,-8.75258774816286e-05,-3.764843109625914e-05,-1.6285244218781476e-05,0.00021079640020606408
4.646464646464646,2.2278481012658227,-3.33439989744232e-05,-0.00029512029452429504,9.771536955953065e-05,9.853928804961548e-05,0.0003271271924714153
4.747474747474747,2.2278481012658227,-2.245749056218752e-05,-8.061027747222592e-05,-2.8121699677342784e-05,3.092033041032403e-05,8.697437064549619e-05
4.848484848484849,2.2278481012658227,-1.9713646352530067e-05,-7.138808167143759e-05,-3.516227009267015e-05,2.7330518407190298e-05,8.82424069005026e-05
4.94949494949495,2.2278481012658227,5.034301790667984e-05,-7.941673068382552e-05,-2.4037690220171024e-05,8.722113833143705e-06,0.00012071845804485773
5.05050505050505,2.2278481012658227,0.00017912039031826006,0.00011945542005363138,-9.500613205180949e-05,-8.957274311156743e-05,0.00022811248436824927
5.151515151515151,2.2278481012658227,3.834742710213176e-05,-6.081283068542901e-05,-3.013184110096203e-05,6.739621074989175e-06,0.00010111639173404384
5.252525252525253,2.2278481012658227,9.977107576324312e-05,9.506741132957366e-06,1.1159375940362554e-05,-3.2783345068860145e-05,9.731260406659078e-05
5.353535353535354,2.2278481012658227,0.00010531026015110174,3.763730258264654e-05,-4.3247530991543406e-05,-4.2884268820124484e-05,0.00011897171984559903
5.454545454545454,2.2278481012658227,5.469337243505016e-05,-2.5919664558787222e-05,-2.180952450893226e-05,-8.63211236287888e-06,8.067089899202577e-05
5.555555555555555,2.2278481012658227,0.00017230489630198947,-2.4950975848714315e-05,-5.773530543153439e-05,-4.4206176135982545e-05,0.00021121268965549
5.656565656565657,2.2278481012658227,-1.7426739804943017e-05,-0.00018462893492098622,5.645452657566712e-05,6.061670241777877e-05,0.00020183011463506453
5.757575757575758,2.2278481012658227,4.444603081556586e-05,6.841735717374e-05,4.495216800134256e-05,-3.385901639679176e-05,9.837477662844523e-05
5.858585858585858,2.2278481012658227,-2.9543215435733223e-05,-0.00018516778499182517,-8.256573574334933e-06,6.441330012826752e-05,0.0001728987317329284
5.959595959595959,2.2278481012658227,3.915084859558393e-06,6.88787701940246e-05,-6.159407183576289e-05,-2.1838156516074898e-05,0.00012598188639044317
6.0606060606060606,2.2278481012658227,-4.924357538379246e-06,4.7361402058553994e-05,1.2963999293989148e-05,-1.2731113356052425e-05,5.481580075540901e-05
6.161616161616162,2.2278481012658227,3.783104052895603e-05,-1.894917916779716e-05,2.3285587577325545e-05,-5.664558408347661e-06,6.429449393368042e-05
6.262626262626262,2.2278481012658227,2.496162322964473e-05,0.00014542979811971445,-8.997251120554353e-06,-5.111742640480775e-05,0.00013559349752680243
6.363636363636363,2.2278481012658227,-0.0001457379999231504,0.00013937874557742218,8.924202442014967e-05,1.9077763037184617e-06,0.0002913266134777372
6.4646464646464645,2.2278481012658227,-3.0148254768345353e-05,-9.134398781442753e-05,3.1372835540369596e-05,3.644767277483186e-05,9.721905157304601e-05
6.565656565656566,2.2278481012658227,-0.00022904862461674177,1.5019911939409215e-05,-2.5348318060401765e-05,6.420861380319976e-05,0.0002409497293016716
6.666666666666667,2.2278481012658227,-8.221228836783188e-06,2.1032516390737294e-05,-2.5700643379865224e-05,-3.8433862661862315e-06,5.161819146378594e-05
6.767676767676767,2.2278481012658227,5.4497357575952e-06,-2.424665698081226e-05,4.398832970194037e-05,5.639076366965117e-06,8.096083817515162e-05
6.8686868686868685,2.2278481012658227,0.00016041992832322246,2.3280668110470208e-05,4.6431776139132825e-05,-5.51101789301078e-05,0.00017032201650873843
6.96969696969697,2.2278481012658227,-9.499127381776923e-05,-8.929510568892281e-05,1.7915043559404453e-05,5.528591385200761e-05,9.735270167612848e-05
7.070707070707071,2.2278481012658227,6.71215487231422e-05,-1.0705776322066619e-05,-6.506716818399872e-05,-1.6924731720322672e-05,0.00013431200007120084
7.171717171717171,2.2278481012658227,-0.00014485353427538407,0.00021554475677060516,-6.101997754892197e-05,-2.1207366748566326e-05,0.00033141336930837925
7.2727272727272725,2.2278481012658227,4.4291629069876614e-05,-0.00020105851479043288,3.315076739507101e-05,4.703006571616688e-05,0.0002336416145948378
7.373737373737374,2.2278481012658227,0.00014026563790592468,-0.00010380504171417011,7.892811705064622e-05,-1.0938178857526372e-05,0.000252386923670398
7.474747474747475,2.2278481012658227,-0.00012982923216628628,6.128006879972726e-06,-6.678185029199808e-05,3.711036758589407e-05,0.00017626180245990214
7.575757575757575,2.2278481012658227,-0.00018985612517940064,7.795427648548187e-05,-6.470718453882217e-05,3.357055460817563e-05,0.00026359699079851425
7.6767676767676765,2.2278481012658227,3.087181332567885e-05,-0.0001038437130639797,8.872396185569054e-05,2.1891569921490258e-05,0.0001963625563792556
7.777777777777778,2.2278481012658227,0.00019164820156621732,-3.247555455286758e-05,-1.993632495492573e-06,-4.775179410400493e-05,0.00020980824612866304
7.878787878787879,2.2278481012658227,-0.00012672224325298312,2.7837729515126003e-05,7.864465247028722e-05,2.9665354121357134e-05,0.00019727156342810498
7.979797979797979,2.2278481012658227,-0.00011147642269538823,8.078531520679234e-05,-2.8880752591495215e-05,9.207332246578765e-06,0.00017453140555884975
8.080808080808081,2.2278481012658227,-2.2231226946658888e-05,4.4696178562213024e-05,2.6173928495924245e-05,-6.73948548466624e-06,7.44368881510592e-05
8.181818181818182,2.2278481012658227,3.821482758868475e-05,-0.00015998638742132553,-1.6872322014779564e-05,3.653146794979224e-05,0.00018445567264281434
8.282828282828282,2.2278481012658227,-7.7332650879824e-05,2.101769598512131e-05,3.094313621853847e-05,1.6894486468410806e-05,0.00010449817998250723
8.383838383838384,2.2278481012658227,2.845571915399446e-05,0.0001314061426598028,5.28344296917564e-05,-4.795855854413917e-05,0.0001507065920032094
8.484848484848484,2.2278481012658227,-4.5559848753663606e-05,-0.00011400145533972382,5.951447670397061e-05,4.786839122801623e-05,0.00014319239290932592
8.585858585858587,2.2278481012658227,-2.029952052714415e-05,0.00026501878790333947,-9.727311055229165e-06,-7.34157802128586e-05,0.00027624381358069437
8.686868686868687,2.2278481012658227,-0.00015240699412849898,2.3539816633502794e-05,8.876338730331487e-05,3.866015324849886e-05,0.0002258461075567748
8.787878787878787,2.2278481012658227,0.0001134339271235268,-7.341320528550584e-05,3.5416832011888985e-05,-1.2006216551406291e-05,0.000174204932997011
8.88888888888889,2.2278481012658227,2.7347141808944637e-05,1.6582435809546347e-05,-5.189225845252692e-06,-1.3178873285547293e-05,2.5497947240787496e-05
8.98989898989899,2.2278481012658227,-8.747968886469911e-06,-0.00010042893436667485,-4.86451158964468e-05,3.275307097594342e-05,0.00012799605668246093
9.09090909090909,2.2278481012658227,-0.00014201872940610718,4.980101038276236e-06,7.138110080068201e-05,4.111158851034928e-05,0.00019022926479592446
9.191919191919192,2.2278481012658227,0.000257887361532522,0.0001438839813469498,2.5366321805946908e-05,-0.00012053140286384155,0.00022810739105952747
9.292929292929292,2.2278481012658227,-4.148079902952079e-05,3.959569938893747e-05,4.787334524618798e-05,5.655298921749941e-07,0.00010865776043244476
9.393939393939394,2.2278481012658227,9.012808284649438e-05,-1.2413319865632643e-05,-4.412379313748472e-05,-2.3314428894258522e-05,0.00012343693900708762
9.494949494949495,2.2278481012658227,9.858540218662413e-05,-4.759895841239238e-05,6.454089667050029e-05,-1.5295933132269525e-05,0.0001708036500022461
9.595959595959595,2.2278481012658227,-0.00010127708781577651,-0.00017948965943683626,8.111655588165708e-05,8.423002417578382e-05,0.00020984537944566153
9.696969696969697,2.2278481012658227,2.67525700530321e-05,-0.00010281989214435666,-2.095655688805385e-05,2.2820196627397366e-05,0.0001239187573463491
9.797979797979798,2.2278481012658227,4.641308160521777e-06,2.6052105382319676e-05,-8.998172346362086e-05,-9.208024062852434e-06,0.0001577005699401029
9.8989898989899,2.2278481012658227,3.248602942078239e-05,-3.735416914544997e-05,7.273957725407265e-05,1.4604419174002723e-06,0.00013977590277020716
10.0,2.2278481012658227,0.0001028684917319828,6.498485201652127e-05,-3.419448672286401e-06,-5.0356003124551226e-05,9.030582350061232e-05
0.0,2.329113924050633,-0.0002384438738531427,-5.136371989330985e-07,5.373365182634734e-05,7.168725331562274e-05,0.0002557248270574882
0.10101010101010101,2.329113924050633,0.00010761128186779057,-0.0001345852093041299,-0.00010212168781945513,8.092178230901803e-06,0.0002747048794827107
0.20202020202020202,2.329113924050633,0.00011235461860840482,-3.6420111040203e-05,1.508311770761747e-05,-2.2780352270460546e-05,0.00013683732610572348
0.30303030303030304,2.329113924050633,-8.573258381250763e-05,-3.663622441870784e-05,-2.5757242881747806e-05,3.671064246936464e-05,8.684283141908666e-05
0.40404040404040403,2.329113924050633,0.00012242504492071486,-0.00015649074893569456,8.881086542051854e-05,1.0219711204493911e-05,0.00028687583123129546
0.5050505050505051,2.329113924050633,-3.385386277154577e-05,-9.53061262768791e-05,4.572004521886827e-05,3.874799671452746e-05,0.00011521210359437102
0.6060606060606061,2.329113924050633,0.0001628805915568799,-0.00010598871796581118,-8.114570944931183e-05,-1.706756207732062e-05,0.0002734612934378071
0.7070707070707071,2.329113924050633,-9.346405186207408e-05,-3.700490990827726e-05,-6.529960980378514e-05,3.9140688531105396e-05,0.00013942159320047006
0.8080808080808081,2.329113924050633,-2.388744025307682e-06,2.7746671009618896e-05,2.519437925642396e-06,-7.607378095293364e-06,2.9341203913854144e-05
0.9090909090909091,2.329113924050633,2.569645601451204e-05,-3.747709741750558e-05,4.670968222882593e-05,3.5341924208980625e-06,9.784299928784461e-05
1.0101010101010102,2.329113924050633,-7.505753116272127e-05,0.00011760828444221981,-8.854472074548737e-05,-1.2765225983849562e-05,0.0002276252001512356
1.1111111111111112,2.329113924050633,-1.3555132224065747e-05,0.00017401278742534772,9.52999781638883e-06,-4.813729656038459e-05,0.00018192146853662192
1.2121212121212122,2.329113924050633,9.08258823027982e-05,9.630925352175126e-05,2.6225976718249252e-05,-5.614054074736484e-05,0.00010411938267892406
1.3131313131313131,2.329113924050633,-1.8282112931502795e-05,6.422873834484087e-05,-1.703649291847712e-05,-1.378398762400142e-05,8.065066523818971e-05
1.4141414141414141,2.329113924050633,6.932886392098981e-05,-6.201122594647442e-05,-2.814421768663041e-05,-2.195291392354617e-06,0.0001238036442466619
1.5151515151515151,2.329113924050633,-2.668634774423967e-05,-4.5740914399232804e-05,-1.0006715145867023e-06,2.172817864304174e-05,3.98338861855998e-05
1.6161616161616161,2.329113924050633,-0.00010488029704027596,-0.0001506360326453005,-3.0738233766489486e-05,7.665489890567295e-05,0.00014396824731452
1.7171717171717171,2.329113924050633,-1.632693734048007e-05,-8.600495582775379e-05,-1.8117606162088717e-05,3.069956795047016e-05,8.511149595804914e-05
1.8181818181818181,2.329113924050633,-5.025720228558098e-06,-0.00022636891866554306,4.56611826103928e-05,6.941839166823035e-05,0.00023745590988667278
1.9191919191919191,2.329113924050633,-3.599011443218163e-05,-6.829572757800466e-05,2.589586496737034e-05,3.128575260305589e-05,7.425234783300728e-05
2.0202020202020203,2.329113924050633,2.1890765131046657e-05,1.2176930859538639e-05,2.3349806694930388e-05,-1.022030879717559e-05,4.468289748650289e-05
2.121212121212121,2.329113924050633,-8.496662102457806e-05,-4.244880868149227e-06,8.84169569492346e-06,2.6763450567818184e-05,8.432792696482831e-05
2.2222222222222223,2.329113924050633,0.00020531761865095062,-0.00013722995796226848,1.2311633003915157e-05,-2.042629820660464e-05,0.0002993623940792755
2.323232323232323,2.329113924050633,0.00010923266190497224,8.651496416109171e-05,2.0894624995796145e-05,-5.872428781981918e-05,0.0001061890280671995
2.4242424242424243,2.329113924050633,-0.0001567968363896898,4.537559141738312e-05,-2.280189045471642e-05,3.3426373491692e-05,0.00018793275394878866
2.525252525252525,2.329113924050633,-0.00011246268328971781,-0.00015255439627097806,2.0241291645184604e-05,7.950512386820876e-05,0.00014139714234893548
2.6262626262626263,2.329113924050633,-7.597723230251449e-05,-8.74356781748758e-06,-6.0431253747105696e-05,2.5416240036000616e-05,0.0001270452164060042
2.727272727272727,2.329113924050633,2.6945499351888727e-05,-9.126384069659912e-05,-8.576790817406798e-05,1.9295502403413116e-05,0.00018325583355523507
2.8282828282828283,2.329113924050633,7.236540278857104e-05,-1.2346662933242364e-05,5.4726088414465505e-05,-1.80056219565986e-05,0.00012356171373868898
2.929292929292929,2.329113924050633,9.875208968807591e-06,-6.260298176620695e-05,4.291186311837275e-05,1.581833183921981e-05,0.00010079263164576704
3.0303030303030303,2.329113924050633,6.510500229133854e-05,-5.0999459004818364e-05,-2.0963396672399825e-05,-4.231662985956053e-06,0.00010713691258216387
3.131313131313131,2.329113924050633,-0.00010654174179565104,2.177266277826117e-07,4.69630462832217e-05,3.1897204550360526e-05,0.00013413042262102562
3.2323232323232323,2.329113924050633,7.359560188226162e-05,3.1906304157141296e-05,-2.7517947330935713e-05,-3.165057181182087e-05,7.973627454942636e-05
3.3333333333333335,2.329113924050633,-2.2385772073820577e-05,9.106859685172562e-05,-3.8191383789605396e-05,-2.0604847433371514e-05,0.0001233247678424061
3.4343434343434343,2.329113924050633,0.00010247007894723712,0.0002041866100694315,-1.1209107982002198e-05,-9.199700670500059e-05,0.00017789379714473538
3.5353535353535355,2.329113924050633,-6.0381623149800136e-05,-7.641267571251724e-05,6.488017541817702e-05,4.103828965869521e-05,0.00013228464582819112
3.6363636363636362,2.329113924050633,3.816374794138342e-05,1.1472453532480924e-05,1.7801088487991556e-05,-1.4890860442159303e-05,4.5835502355460904e-05
3.7373737373737375,2.329113924050633,-8.921861297786108e-05,-0.0001072748177732323,-8.000014249768186e-06,5.8948029225328014e-05,0.00010044370395790099
3.8383838383838382,2.329113924050633,6.728244958169323e-05,-3.3915595709955936e-05,-1.845659240551387e-05,-1.0010056161521188e-05,9.476844106627633e-05
3.9393939393939394,2.329113924050633,2.0525615277080615e-05,-4.094463148065441e-05,-5.049547682798005e-05,6.125704861072138e-06,0.00010289585522885889
4.040404040404041,2.329113924050633,-1.5050265074610157e-05,-0.00010068721171047721,9.504973712361696e-05,3.472124303552621e-05,0.00018961121653738336
4.141414141414141,2.329113924050633,-0.00011863836470202983,3.86805739722393e-05,1.931659626667868e-06,2.3987337218937157e-05,0.00014202620304203017
4.242424242424242,2.329113924050633,-1.1181846995823837e-05,4.60279062986133e-05,-1.4236983381234623e-05,-1.0453817790836837e-05,5.80202891550344e-05
4.343434343434343,2.329113924050633,-6.365935392583986e-05,0.00010811838470436648,-4.2495304797136124e-05,-1.3337709233557986e-05,0.00016745864492622234
4.444444444444445,2.329113924050633,0.0001155815805150833,7.640210696050404e-05,8.16612517523787e-05,-5.75951062426762e-05,0.00017427388656504912
4.545454545454545,2.329113924050633,0.0001506306315728026,0.00011091166897191387,-8.484806920264314e-06,-7.846269016341494e-05,0.00013601568505707822
4.646464646464646,2.329113924050633,-4.81538322876813e-05,-3.871705657988429e-05,-7.220221097266966e-06,2.6061266660269675e-05,4.593280051401112e-05
4.747474747474747,2.329113924050633,6.965910912147816e-05,-7.808851779128582e-05,-6.244470249158037e-05,2.528822600942296e-06,0.0001675941743742353
4.848484848484849,2.329113924050633,5.862195774952256e-05,-2.658813805702363e-05,4.562471864263996e-05,-9.61014590774968e-06,0.00010930213435795132
4.94949494949495,2.329113924050633,-9.510645521403242e-05,-7.729823005831539e-05,2.2463785069027553e-05,5.1721405581704345e-05,9.582566700651896e-05
5.05050505050505,2.329113924050633,7.117329852780136e-06,-9.333769325237755e-05,-1.3673521415115704e-05,2.5866109019879224e-05,9.99389417602161e-05
5.151515151515151,2.329113924050633,0.00018877917194175915,0.0001569321783863446,-2.4456643684088726e-06,-0.00010371340509843112,0.00017509340795106448
5.252525252525253,2.329113924050633,1.9134688181667478e-05,0.00010279336871161134,3.575711018426932e-05,-3.6578417067983645e-05,0.00011314330148816143
5.353535353535354,2.329113924050633,0.00016131121349564106,0.00015908805835551862,-4.141219754212841e-05,-9.611978155534791e-05,0.00017553501212173007
5.454545454545454,2.329113924050633,0.00019021810733710223,-6.844835043853051e-05,-7.490014306202943e-05,-3.653092706957152e-05,0.00026592915409854304
5.555555555555555,2.329113924050633,7.841016815082943e-05,-1.196791946491755e-05,-2.7815890409416677e-05,-1.9932674605773565e-05,9.772903059595906e-05
5.656565656565657,2.329113924050633,-2.5873788824034485e-05,8.047586182341568e-05,5.00503294180394e-05,-1.638062189981436e-05,0.00012939528261550435
5.757575757575758,2.329113924050633,2.306129663712911e-05,-7.979294554244808e-06,-5.965349007556659e-05,-4.52460062486529e-06,0.00010702860392169326
5.858585858585858,2.329113924050633,7.524707811248883e-05,-0.00016730734635265134,-2.9403165255831795e-05,2.7618080472048752e-05,0.00022099071982553808
5.959595959595959,2.329113924050633,-9.250039587963938e-05,-0.00020840892453542677,8.021029516878764e-05,9.027279612451984e-05,0.000228065274412214
6.0606060606060606,2.329113924050633,5.2294396699507856e-05,-0.00012319134293414674,8.995591011469939e-06,2.1269083870391662e-05,0.00015683044930868604
6.161616161616162,2.329113924050633,0.0001401956811047321,9.50858973643773e-05,0.00010211777183388517,-7.058447354073282e-05,0.00021598528354151215
6.262626262626262,2.329113924050633,5.192184478783806e-07,4.4363664443000364e-05,3.452419399229705e-05,-1.3464864867263625e-05,7.43043053265875e-05
6.363636363636363,2.329113924050633,-4.038232819072205e-05,-9.674418937815161e-05,3.0462130114315997e-05,4.1137955270662096e-05,9.933397765029605e-05
6.4646464646464645,2.329113924050633,1.740499618298919e-05,-0.00014680847391883542,-7.580328104789402e-05,3.882104332075387e-05,0.00020408154029106373
6.565656565656566,2.329113924050633,2.7228747246173918e-05,1.082338425460192e-05,-3.335645316567126e-05,-1.1415639450232751e-05,6.24644061244712e-05
6.666666666666667,2.329113924050633,0.00012885578495446806,-5.0227616312551495e-05,-2.9639017808812024e-05,-2.3588450592574966e-05,0.00016803023481811808
6.767676767676767,2.329113924050633,-6.954482865637843e-05,0.00011259006946639969,-4.9783407476654714e-05,-1.2913572243006378e-05,0.00018104758215647116
6.8686868686868685,2.329113924050633,9.764465120047544e-06,-0.00013266360774225354,-5.0247246406533024e-05,3.68697427866618e-05,0.00016298688316268453
6.96969696969697,2.329113924050633,6.492208042688046e-05,5.379589407642995e-05,1.998559451043569e-05,-3.561539235099312e-05,6.93873572661299e-05
7.070707070707071,2.329113924050633,1.788489866815998e-05,8.811552825977661e-05,-5.598450524111211e-05,-3.180012807838098e-05,0.00012613910221707098
7.171717171717171,2.329113924050633,7.631066896945677e-05,-4.5619246886193555e-05,-3.3168506655254845e-05,-9.207426624978963e-06,0.00012118629722050586
7.2727272727272725,2.329113924050633,-0.00011006907371599786,-1.6034364637589026e-05,1.3294817306707705e-05,3.783103150607606e-05,0.00010553516322250685
7.373737373737374,2.329113924050633,-0.000159206282765845,3.5713888766816626e-06,1.6211032588061805e-06,4.6690468166749e-05,0.00016104616346042396
7.474747474747475,2.329113924050633,6.931977230710551e-05,0.00010710301445052184,-1.104778046706364e-05,-5.29268360272882e-05,9.601088647506664e-05
7.575757575757575,2.329113924050633,-3.459906902199615e-05,3.902209965051759e-05,4.989088352294906e-05,-1.3269091885564306e-06,0.00010741158658923468
7.6767676767676765,2.329113924050633,-4.251694126959632e-05,2.539733608277064e-05,4.5152550471627215e-05,5.135881556047704e-06,9.822825695255614e-05
7.777777777777778,2.329113924050633,0.00017003703966855333,0.00021143222012169694,-8.066566798033665e-06,-0.00011444077793707506,0.00019457666423421138
7.878787878787879,2.329113924050633,0.00012674042098504296,6.22249452659029e-05,-3.6010566597068343e-06,-5.668960987528376e-05,0.00010994346362216354
7.979797979797979,2.329113924050633,2.7063484400568378e-05,-8.740960802986877e-06,-8.824145440896694e-05,-5.496757079274451e-06,0.0001562211902035897
8.080808080808081,2.329113924050633,0.00014979438457219033,1.76554768753157e-05,-2.268708442284551e-05,-5.023495843425181e-05,0.00014713766893293355
8.181818181818182,2.329113924050633,-0.00027902923641312413,-0.00014001824375932138,6.865742238792629e-05,0.00012571424405173365,0.0002693227889829007
8.282828282828282,2.329113924050633,-0.0001321013680122335,-8.405270633065343e-05,-5.285801735602894e-05,6.484622230286608e-05,0.00014762811851822655
8.383838383838384,2.329113924050633,-0.00021725410482524514,-0.00013810719897523367,-5.069070361744797e-05,0.00010660839114014364,0.0002097074888710769
8.484848484848484,2.329113924050633,5.8452513859518584e-05,-6.584109983952324e-05,4.1654530876382125e-05,2.216575794001397e-06,0.00012963650887410293
8.585858585858587,2.329113924050633,-7.855247919827808e-06,1.0869966916433895e-05,-7.946539592273549e-06,-9.04415698981826e-07,2.132345797777542e-05
8.686868686868687,2.329113924050633,0.00010651046582457905,-6.810392954170829e-05,9.03769335000305e-05,-1.1521960884861227e-05,0.00021849571193908874
8.787878787878787,2.329113924050633,3.7546905233947435e-05,-6.092890096014699e-05,6.391949075578423e-05,7.014598717859867e-06,0.0001402387130240933
8.88888888888889,2.329113924050633,3.7319976386289094e-05,0.00012595759270408614,-5.454660733775468e-05,-4.8983270727112564e-05,0.00014657202505276678
8.98989898989899,2.329113924050633,-3.134681603611541e-05,3.0200474749693468e-05,5.150636598422371e-06,3.439023859265829e-07,5.404597532654905e-05
9.09090909090909,2.329113924050633,-0.00013728802563595964,-7.688882922245311e-05,-4.7448573488511686e-07,6.425305645752382e-05,0.00011918327858783814
9.191919191919192,2.329113924050633,-0.0001224613619871771,4.564297757947741e-05,0.00014146305168148132,2.3045515322309907e-05,0.00028758468796985775
9.292929292929292,2.329113924050633,4.249225834786108e-05,8.876074967694265e-06,1.3091694391079437e-05,-1.5410499994666604e-05,4.4959867012475846e-05
9.393939393939394,2.329113924050633,-7.154531335640183e-05,6.306355419563216e-05,4.945495599921718e-06,2.5445277482308993e-06,0.00011696588929056468
9.494949494949495,2.329113924050633,-1.5381126126768665e-06,3.078647635587268e-05,-8.834981166229088e-05,-8.774509122958745e-06,0.00015625169966016253
9.595959595959595,2.329113924050633,-8.91525940409972e-06,6.073128788161303e-05,4.30537546614772e-05,-1.5544808543253992e-05,9.934829507728552e-05
9.696969696969697,2.329113924050633,-7.567914451534006e-05,0.0003099376195906673,-5.222311573768812e-05,-7.027754252259817e-05,0.0003652755621553424
9.797979797979798,2.329113924050633,7.277223189719479e-05,-3.235935754481316e-05,-6.298546325487123e-05,-1.212386230571449e-05,0.00014352454205326606
9.8989898989899,2.329113924050633,-8.612796944031158e-05,6.973198963945383e-05,4.790772463897024e-05,4.918793940257325e-06,0.00015865655489741775
10.0,2.329113924050633,-0.0001486500856756897,0.0002409416775108285,5.428181894349752e-06,-2.768747755054164e-05,0.0003406671930403417
0.0,2.430379746835443,8.867385502241228e-05,8.847274747766996e-05,4.153733770369282e-05,-5.314398075002467e-05,0.00011411096046412814
0.10101010101010101,2.430379746835443,3.755171158398375e-05,-8.22123124216051e-05,7.959783865112861e-05,1.3398180251286405e-05,0.00017396452556511658
0.20202020202020202,2.430379746835443,-7.685900740803517e-05,8.067872628599523e-05,3.35841620843989e-05,-1.1459156633880182e-06,0.00014832713354237864
0.30303030303030304,2.430379746835443,2.5468929038253504e-05,5.100627727543001e-05,2.764080167052282e-05,-2.2942561894105055e-05,6.514041113155307e-05
0.40404040404040403,2.430379746835443,-0.00014474561560919255,-6.204813539890121e-05,-6.069296846545053e-05,6.203812530242812e-05,0.00016392369582306438
0.5050505050505051,2.430379746835443,0.00012123654950423505,0.00018810533408699287,2.9523256431457847e-05,-9.280256507736838e-05,0.00017289171180417094
0.6060606060606061,2.430379746835443,-4.0844580099781047e-07,-6.31811516942363e-05,1.5653284917808612e-05,1.9076879248570234e-05,6.856598768649817e-05
0.7070707070707071,2.430379746835443,0.00018466017116122908,-3.281516185538689e-05,7.36487512666865e-06,-4.555350279175265e-05,0.00020346643758291713
0.8080808080808081,2.430379746835443,-4.611349551737762e-05,0.00012196762032577797,2.2767459599757775e-05,-2.2756237442520107e-05,0.00015550556208638366
0.9090909090909091,2.430379746835443,-3.034732117100352e-05,-0.0002516603805538055,-5.3311604981406685e-05,8.46023105174427e-05,0.00025523140544443114
1.0101010101010102,2.430379746835443,8.290609938092773e-05,-1.3382784467592957e-05,-2.2172968262903894e-05,-2.085699447400043e-05,9.816800017568526e-05
1.1111111111111112,2.430379746835443,1.5226081452832144e-06,-4.5239632722189026e-05,8.23956439269891e-06,1.3115107373071743e-05,4.818190741159341e-05
1.2121212121212122,2.430379746835443,-5.848012586387043e-05,8.107876986064894e-05,-2.537941681507526e-05,-6.779593199033554e-06,0.00012910280052395732
1.3131313131313131,2.430379746835443,-1.4257823962786354e-05,0.00011830711333690599,-1.0740993519178896e-05,-3.1214786812235885e-05,0.0001274078782144396
1.4141414141414141,2.430379746835443,-0.00012737446496064307,-0.000174041205997518,-1.5861512309054987e-05,9.042470128744832e-05,0.00015843280257646323
1.5151515151515151,2.430379746835443,2.0939870781959265e-05,0.00010129471435742739,1.7793759048730216e-05,-3.6670375541815994e-05,9.76107202044466e-05
1.6161616161616161,2.430379746835443,5.879492970218857e-05,-5.574013668452623e-06,-3.687706203253649e-05,-1.5966274810120785e-05,8.88560084705122e-05
1.7171717171717171,2.430379746835443,3.799224618041062e-05,0.00014104727972606994,0.00011463644268497508,-5.3711857771944167e-05,0.00023537966116027057
1.8181818181818181,2.430379746835443,9.703468920117431e-05,3.99098642283685e-07,3.0089225717074025e-05,-2.9230136353037398e-05,0.00010996930611829487
1.9191919191919191,2.430379746835443,1.2330294050179256e-05,9.94960703646751e-05,-5.325027154249661e-06,-3.3547909324456305e-05,9.439150442451367e-05
2.0202020202020203,2.430379746835443,3.585472702136194e-05,3.736619923940034e-05,-4.5940572065207126e-05,-2.1966277878228683e-05,8.759936019661269e-05
2.121212121212121,2.430379746835443,2.7875811710289034e-05,6.080765436385888e-05,-8.332780251601956e-06,-2.6605039822244372e-05,5.4661455014618944e-05
2.2222222222222223,2.430379746835443,-3.89163894442526e-05,-8.01603275113895e-05,2.6827796467764126e-05,3.572301508669263e-05,8.354522691719273e-05
2.323232323232323,2.430379746835443,3.925798662209653e-05,-0.00021268891154759505,-2.8210661072945353e-05,5.2029277477649554e-05,0.00023982290392629926
2.4242424242424243,2.430379746835443,-6.744472540355599e-05,-3.6728486127472478e-06,-5.669279943118819e-05,2.1335272204890974e-05,0.00011813884652218532
2.525252525252525,2.430379746835443,-6.167506102338155e-06,0.00011118395583734276,-4.86982026410717e-05,-3.1504934920501384e-05,0.00014212734682208107
2.6262626262626263,2.430379746835443,2.9078607687269607e-06,-7.885242506832065e-05,-4.053066798799414e-05,2.2783369289878108e-05,0.00010669422481765175
2.727272727272727,2.430379746835443,2.9163038950995636e-05,0.00010196108615884028,7.20183289698187e-06,-3.9337237532950774e-05,9.18076793936096e-05
2.8282828282828283,2.430379746835443,-5.0828729765539836e-06,-1.1046735282531871e-05,-2.073096218346207e-05,4.838882477725756e-06,3.716228175190261e-05
2.929292929292929,2.430379746835443,-6.134900423859447e-05,-0.00010192977922549133,-2.890931707582563e-05,4.898363503922574e-05,0.00010201634965853607
3.0303030303030303,2.430379746835443,4.659415583968542e-06,-0.00013060311790172394,2.7787271449649695e-05,3.7783110695326624e-05,0.0001414348476364699
3.131313131313131,2.430379746835443,0.00012399704332537653,-0.00021506377587192157,6.475354929089759e-05,2.7320019763963513e-05,0.00031760672728633956
3.2323232323232323,2.430379746835443,0.00013160897015974254,-3.2620340170402797e-06,5.443631091635898e-05,-3.850408084281068e-05,0.00016325076008580347
3.3333333333333335,2.430379746835443,-4.532251343807139e-05,0.00013885449724250658,-3.2272894790609295e-05,-2.8059595141330555e-05,0.000175364066046955
3.4343434343434343,2.430379746835443,-0.00018079689009808172,-8.316243716944356e-05,1.0838912829640811e-05,7.918779818025758e-05,0.0001578620996498926
3.5353535353535355,2.430379746835443,-0.00011609502196382764,-0.00014998184968850834,6.00525581882424e-05,7.98230614957008e-05,0.00017140417865927824
3.6363636363636362,2.430379746835443,8.892912673596477e-05,4.8113940867573574e-05,-4.162313268275576e-05,-4.11129202810615e-05,0.00010555598356147016
3.7373737373737375,2.430379746835443,-2.081978978888657e-05,-0.00011785092730460888,6.51948641790988e-05,4.160121512804863e-05,0.00015690692822974944
3.8383838383838382,2.430379746835443,3.7365915120089006e-05,9.657903085941478e-05,1.7760739469902072e-05,-4.0183483793851136e-05,8.978467878533258e-05
3.9393939393939394,2.430379746835443,-2.5729387659637346e-05,2.6040039446309383e-05,2.2991064297160258e-05,-9.319553600161118e-08,5.996537689233731e-05
4.040404040404041,2.430379746835443,-0.0002418036971919499,9.612545398995486e-05,-4.1921051707956745e-07,4.370347296059851e-05,0.0003015843965822333
4.141414141414141,2.430379746835443,5.1576314154850235e-05,5.037018457557815e-05,-2.3101104402866836e-05,-3.058394961912851e-05,6.481007858478699e-05
4.242424242424242,2.430379746835443,4.3677430155415846e-05,6.567838470512728e-05,2.5165447899781487e-06,-3.280674445816294e-05,5.806637628453403e-05
4.343434343434343,2.430379746835443,0.0002610743566379376,-0.0001570022316378766,4.488227199615685e-05,-3.1221637500018295e-05,0.0003739545855680561
4.444444444444445,2.430379746835443,0.00011063773107268094,-0.00011761007621131477,3.133173748037416e-05,2.0917035415901497e-06,0.00020501215297455988
4.545454545454545,2.430379746835443,0.00014684300841079134,-0.00013567409522966594,-4.201717076074502e-05,-3.3506739543376203e-06,0.0002553222463058583
4.646464646464646,2.430379746835443,0.00013496500981057083,0.00011827439576160742,4.785639680253881e-05,-7.597182167165348e-05,0.00015202692434697967
4.747474747474747,2.430379746835443,2.936042191198351e-05,0.0002030434717831486,-2.047345795209777e-05,-6.972116810853963e-05,0.00019335131562036432
4.848484848484849,2.430379746835443,-0.00014773010010581014,2.9457998120723184e-05,-5.303630018140745e-05,3.548163059552609e-05,0.00018836755705970573
4.94949494949495,2.430379746835443,0.0002265840849765827,0.00019852003400341154,8.112540566963933e-05,-0.00012753123569399826,0.000255955202225699
5.05050505050505,2.430379746835443,0.0001085649251299936,9.018027769485898e-05,-5.0929554800020195e-05,-5.9623560847455766e-05,0.00013382775875670703
5.151515151515151,2.430379746835443,9.634187587279932e-05,-0.00017442836317873098,1.2906688264666104e-05,2.34259461917795e-05,0.0002387708408659772
5.252525252525253,2.430379746835443,8.458110575560892e-05,-0.0002933864763542827,5.1275523034224424e-05,6.264161117960213e-05,0.00035486910027432715
5.353535353535354,2.430379746835443,8.921399708813164e-06,1.5523289283671152e-05,3.916600557216384e-05,-7.333406697745294e-06,6.916648315398212e-05
5.454545454545454,2.430379746835443,9.22626400710747e-05,-6.982910668807137e-05,-3.6562130069279274e-05,-6.730060014901002e-06,0.0001544068803395549
5.555555555555555,2.430379746835443,0.00023050578795201658,8.689288563281877e-05,-6.570250951174343e-06,-9.521960207545061e-05,0.00020194920989061838
5.656565656565657,2.430379746835443,7.992519102810549e-05,8.06652023392108e-05,-7.441418173099955e-05,-4.817711801019489e-05,0.00015185565729041988
5.757575757575758,2.430379746835443,-7.1614618579086385e-06,-5.090889863217395e-05,5.6168382992313626e-05,1.7421108147024774e-05,0.00010836550237051675
5.858585858585858,2.430379746835443,7.05647064694781e-05,0.00014819478389472705,-6.043397925711349e-06,-6.562784710926154e-05,0.0001288150547193719
5.959595959595959,2.430379746835443,4.467972375026049e-05,-0.00015716195123621296,-7.77232809097657e-06,3.374466824578574e-05,0.00018411772442630456
6.0606060606060606,2.430379746835443,0.00018875774774208557,6.151539931059976e-05,-3.149113352086091e-06,-7.508194411580559e-05,0.000166828877009936
6.161616161616162,2.430379746835443,-3.98371278300483e-05,9.026065419878158e-05,-2.8314984963056056e-05,-1.5127057910619982e-05,0.00012543892055440588
6.262626262626262,2.430379746835443,2.9699308206035686e-05,2.275138881361216e-05,0.0001032746837131052,-1.5735209105894354e-05,0.00018088934457424568
6.363636363636363,2.430379746835443,0.0001687892574204688,-0.0002595849574370235,7.292168118880408e-05,2.72387100049664e-05,0.0003945149306599923
6.4646464646464645,2.430379746835443,0.00011669633595326978,8.201117525149909e-06,9.247403530556405e-06,-3.746923604352591e-05,0.00011395084994787633
6.565656565656566,2.430379746835443,8.21183770048946e-05,-6.052845295008466e-05,9.108612167021881e-05,-6.476977216442983e-06,0.00020066804543846138
6.666666666666667,2.430379746835443,5.5149579972784984e-05,4.0965274165698484e-05,5.9991621052019255e-05,-2.883445624154504e-05,0.00011514076595317767
6.767676767676767,2.430379746835443,-7.985011773330058e-05,-5.996253397208631e-05,8.534010192178639e-05,4.194379551161606e-05,0.00016441511601181965
6.8686868686868685,2.430379746835443,-6.953366578155758e-05,-0.00020773615141934904,-2.87051983138011e-05,8.318094516027199e-05,0.0001897802634382932
6.96969696969697,2.430379746835443,-1.5518063198611877e-05,4.698741632867711e-05,-4.1172145803313336e-05,-9.44080593901957e-06,9.090224444399775e-05
7.070707070707071,2.430379746835443,5.3006159234061436e-05,0.00010382095387183664,-7.576315169042008e-05,-4.704813393176942e-05,0.00015907689596242065
7.171717171717171,2.430379746835443,-2.130066363173026e-06,3.100221925119552e-05,-3.5497190998914636e-06,-8.661645866406747e-06,3.270341087235105e-05
7.2727272727272725,2.430379746835443,-0.00016140714787688128,6.086762129154952e-06,4.395473062815623e-06,4.65961157243179e-05,0.00016471103036644528
7.373737373737374,2.430379746835443,9.952394420683676e-05,5.192356507559204e-05,5.018774462387877e-05,-4.543425278472864e-05,0.00012243309690739893
7.474747474747475,2.430379746835443,3.807006483826409e-05,5.2053314185568036e-05,-2.3208405576409478e-05,-2.7037013707149638e-05,6.158810418089947e-05
7.575757575757575,2.430379746835443,0.0001514694925009617,-1.8639107258579072e-05,-3.534362200171717e-05,-3.984911557271479e-05,0.00017280391906326797
7.6767676767676765,2.430379746835443,-8.53622293055288e-05,-0.00010648663543921916,5.110535129129962e-05,5.755465942342439e-05,0.00013180078876341898
7.777777777777778,2.430379746835443,-0.00013704721447265793,-0.0003142046215181014,8.036835950718532e-05,0.00013537555079722778,0.0003063051332481796
7.878787878787879,2.430379746835443,-0.0001541531711744971,-4.437725723747616e-06,7.955007619953133e-05,4.7577269069473417e-05,0.0002051425064916786
7.979797979797979,2.430379746835443,2.0894066000347443e-05,-1.2411618821991557e-05,6.744127558584914e-05,-2.544734153506766e-06,0.00012039483550628942
8.080808080808081,2.430379746835443,-7.867315656516831e-05,-3.6440230366941984e-05,-5.124208532184349e-06,3.4534016079633086e-05,6.876961933468872e-05
8.181818181818182,2.430379746835443,3.540907786136423e-05,8.884555024973966e-05,2.5490176231003926e-05,-3.727638843333117e-05,8.916637729887485e-05
8.282828282828282,2.430379746835443,5.836182245594668e-05,-3.163480478411575e-06,-1.541822625444449e-05,-1.655950259326053e-05,6.568029778891359e-05
8.383838383838384,2.430379746835443,-3.8372234040108865e-05,-1.6683319108661265e-05,-2.231708592441869e-05,1.651666594463104e-05,5.103667533039943e-05
8.484848484848484,2.430379746835443,-0.0001055315262721341,0.0001338700463849516,-1.3587274203429382e-05,-8.501556033845248e-06,0.00020913977320059923
8.585858585858587,2.430379746835443,7.914793800578786e-05,5.553979140041961e-05,2.100507988921953e-05,-4.040631882186224e-05,7.922654035241502e-05
8.686868686868687,2.430379746835443,0.00023324680709576443,2.003115653186349e-05,-7.732683290484949e-05,-7.598338908828838e-05,0.00026090502910094255
8.787878787878787,2.430379746835443,-0.0002051034832785041,9.91801183673499e-05,5.635343043469067e-06,3.177700947334626e-05,0.00026896392649407037
8.88888888888889,2.430379746835443,-4.062848264715307e-05,-0.000244533416153426,-1.7219020240447936e-06,8.554856964017372e-05,0.00022698268304603624
8.98989898989899,2.430379746835443,0.0001117039087892032,-0.00014805507502536433,-3.914401599446336e-06,1.0905349870848337e-05,0.00022579275164541943
9.09090909090909,2.430379746835443,2.066152659656989e-06,-2.897448553795049e-05,3.142852055945866e-05,8.07249986348805e-06,6.218449342904778e-05
9.191919191919192,2.430379746835443,-3.9063140520286855e-05,1.5297244879702456e-05,-2.2639882320873425e-05,7.129768692175319e-06,6.241142434711217e-05
9.292929292929292,2.430379746835443,-0.00021624036336888102,-0.00011218376955752794,-9.72696347123723e-05,9.852723987792267e-05,0.0002519336804003518
9.393939393939394,2.430379746835443,5.560709931685603e-05,-0.00012598722482747216,6.587503958063555e-05,2.111403765318484e-05,0.00019745702559557086
9.494949494949495,2.430379746835443,6.229566234854483e-05,3.82510263179437e-05,-8.053137862148825e-05,-3.0164006599946556e-05,0.00014972283182555855
9.595959595959595,2.430379746835443,-0.00012092252424084902,2.693261136191218e-05,-2.4492220112524817e-05,2.8196973863681052e-05,0.00014284252977300496
9.696969696969697,2.430379746835443,-1.7911747240335365e-05,-0.00013285358870376702,7.111175536349707e-05,4.522960078323072e-05,0.00017539074112527024
9.797979797979798,2.430379746835443,-1.5715110616378458e-05,-6.135026588269137e-05,2.4590199861804217e-05,2.3119612949720944e-05,6.971891707852065e-05
9.8989898989899,2.430379746835443,-0.00010056386976897138,2.2884344762605183e-05,-1.8843881048509173e-05,2.330385750190986e-05,0.00011833595803258776
10.0,2.430379746835443,-5.846069195234852e-05,5.050931012090574e-05,-1.927951332112685e-05,2.3854145494328336e-06,0.00010018358664890996
0.0,2.5316455696202533,0.010576216766875588,0.009342568385369112,5.5472135996342124e-05,-0.00597563554567341,0.010016992972236335
0.10101010101010101,2.5316455696202533,0.010122080020751009,0.00929206704560489,-4.1122256879925545e-05,-0.0058242441199067695,0.009733911898755799
0.20202020202020202,2.5316455696202533,0.010347298220344147,0.009261892566033016,-7.62205477946485e-05,-0.005882757235913149,0.009850436468282054
0.30303030303030304,2.5316455696202533,0.01013934248595524,0.009126940626433142,2.5511049236918145e-05,-0.005779884933716515,0.009673059848178745
0.40404040404040403,2.5316455696202533,0.009882382851818333,0.00890359631697906,-4.08597214828177e-05,-0.005635793750639218,0.00943142508816819
0.5050505050505051,2.5316455696202533,0.009880318039683058,0.00876816155149486,3.0052078388836153e-05,-0.005594543877353375,0.009373997343105855
0.6060606060606061,2.5316455696202533,0.009910156525528619,0.008646951582700905,-6.88536996957037e-05,-0.005567132432468857,0.009343583513658082
0.7070707070707071,2.5316455696202533,0.009752563567570998,0.008625126943978498,1.768223103608035e-06,-0.005513307153464849,0.009240574739678056
0.8080808080808081,2.5316455696202533,0.009376434860684199,0.008702091028242475,-1.17371748390634e-06,-0.005423557766678002,0.009058108710721588
0.9090909090909091,2.5316455696202533,0.009521378589397823,0.008624841265100727,-7.548137332848151e-05,-0.005443865956349565,0.009107208707694216
1.0101010101010102,2.5316455696202533,0.009467826870627069,0.008401785978906088,-2.078700554801718e-05,-0.005360883854859948,0.008982449250286084
1.1111111111111112,2.5316455696202533,0.009507304498232307,0.008288103489389981,5.721483226690227e-05,-0.005338622396286686,0.00896068051531514
1.2121212121212122,2.5316455696202533,0.00935831717980852,0.008305038834595251,-9.937843709348073e-06,-0.005299006804321132,0.008878675529575213
1.3131313131313131,2.5316455696202533,0.009211754328452965,0.008397292468220689,6.548985482960555e-05,-0.005282714039002096,0.00883345969178822
1.4141414141414141,2.5316455696202533,0.009069675668853175,0.008232730445945073,3.589381302605868e-05,-0.005190721834439474,0.008681735852777605
1.5151515151515151,2.5316455696202533,0.008971034539453044,0.008290325358597679,5.09362348978072e-05,-0.005178407969415216,0.008651239427056721
1.6161616161616161,2.5316455696202533,0.00901030667654081,0.00828786517880542,-7.76711124251646e-05,-0.005189451556603869,0.008672728929098776
1.7171717171717171,2.5316455696202533,0.008785942149469619,0.008263070680430782,2.73715496712763e-05,-0.00511470384897012,0.00853665643876878
1.8181818181818181,2.5316455696202533,0.009051887929200048,0.0079916328297081,1.4582366616631119e-05,-0.005113056227672444,0.008571122654476524
1.9191919191919191,2.5316455696202533,0.008914434021509316,0.00802775574587418,7.288638679621964e-05,-0.005082656930215048,0.008506764048568151
2.0202020202020203,2.5316455696202533,0.008910483330689164,0.008073571209273295,-5.029221670436137e-05,-0.005095216361988737,0.008523346261857346
2.121212121212121,2.5316455696202533,0.009018410019837258,0.00796654863095177,-1.7539632558070644e-05,-0.005095487595236708,0.00854124916475659
2.2222222222222223,2.5316455696202533,0.008801348091028317,0.007967825480357797,-0.00012327085175205252,-0.005030752071415834,0.008418310556897264
2.323232323232323,2.5316455696202533,0.008874753859505896,0.007873885066160668,-4.077921768973755e-05,-0.005024591677699969,0.008419353838359196
2.4242424242424243,2.5316455696202533,0.008836155562993357,0.008034021907457025,-5.700378816663029e-05,-0.005061053241135114,0.008464220818700739
2.525252525252525,2.5316455696202533,0.00866210135622004,0.0077287713479043075,-4.8395621061689286e-05,-0.004917261811237304,0.00823562578602458
2.6262626262626263,2.5316455696202533,0.008788725477243372,0.00786999648438097,-0.00010462696122687965,-0.004997616588487303,0.008369237837071396
2.727272727272727,2.5316455696202533,0.008764471500769462,0.007928572569196908,3.493638875248378e-05,-0.0050079132209899105,0.00837807477897459
2.8282828282828283,2.5316455696202533,0.008758415324723585,0.007667053316941769,-1.7490245877810354e-05,-0.004927640592499606,0.008266996191163252
2.929292929292929,2.5316455696202533,0.008344724390587735,0.007717442594540648,5.0222077274369325e-05,-0.004818650095538515,0.008049905631398006
3.0303030303030303,2.5316455696202533,0.008691270383477761,0.00774642967516383,-3.5530652069321865e-05,-0.004931310017592477,0.008259711015479974
3.131313131313131,2.5316455696202533,0.008571819361947204,0.007805974841469943,9.690476353294072e-05,-0.004913338261025143,0.008217426343698856
3.2323232323232323,2.5316455696202533,0.008519496970352914,0.007739557351620814,2.598396334524889e-05,-0.004877716296592118,0.008157663067136781
3.3333333333333335,2.5316455696202533,0.008520807353991551,0.007654390654505748,-9.854626777530483e-05,-0.0048525594025491895,0.008124124579120016
3.4343434343434343,2.5316455696202533,0.008589442542518706,0.007671581895183772,3.204169054640777e-08,-0.004878307331310743,0.008169276594039028
3.5353535353535355,2.5316455696202533,0.008417542741379144,0.0075809310326495445,4.8404195249042214e-05,-0.004799542132208606,0.00803241925177662
3.6363636363636362,2.5316455696202533,0.008595974352081596,0.007722024556893982,-1.2973825550227524e-06,-0.004895399672692673,0.00819402943192895
3.7373737373737375,2.5316455696202533,0.008502221024067516,0.00783015225736748,8.96741739139849e-05,-0.004899711984430499,0.00818837504904451
3.8383838383838382,2.5316455696202533,0.008407549058159616,0.007661467561240253,1.6942399194609587e-05,-0.004820704985819961,0.008060500177615703
3.9393939393939394,2.5316455696202533,0.00832463252399853,0.007656005586132004,3.965815300083919e-05,-0.004794191433039161,0.008011567474319116
4.040404040404041,2.5316455696202533,0.008416123805164218,0.007467245693292983,3.5385045735104717e-07,-0.00476501084953716,0.007984086314986318
4.141414141414141,2.5316455696202533,0.00854249830928444,0.0074155472725978425,-3.431433189358062e-05,-0.004787413674564684,0.008038709541822916
4.242424242424242,2.5316455696202533,0.008313873601660153,0.0075500584474839805,3.1322894146291035e-05,-0.00475917961474324,0.00795968520598463
4.343434343434343,2.5316455696202533,0.0083984625662076,0.007660225646764519,-5.669952638163094e-05,-0.004817606463891636,0.008055355771234424
4.444444444444445,2.5316455696202533,0.008477483915578527,0.007570402857919239,5.283466973149994e-05,-0.00481436603204933,0.008062824506002923
4.545454545454545,2.5316455696202533,0.008396577495076147,0.00753753977151321,4.3049817534253545e-05,-0.004780235179976808,0.008002064888802302
4.646464646464646,2.5316455696202533,0.008414769065448333,0.007351584860312136,-1.703061379636298e-05,-0.00472990617772814,0.007936820499673833
4.747474747474747,2.5316455696202533,0.008396743117656383,0.007595196038623211,6.0012410548099396e-05,-0.004797581746883878,0.00802671740207206
4.848484848484849,2.5316455696202533,0.00840279107512573,0.007487229110733854,1.1028136193594095e-05,-0.004767006055757875,0.00798450001685145
4.94949494949495,2.5316455696202533,0.008417077737408057,0.007672707626688622,1.1212604843199513e-05,-0.004826935609229003,0.008070702607548885
5.05050505050505,2.5316455696202533,0.008515437609658491,0.007504090771419825,-3.0269534301505714e-06,-0.004805858514323495,0.008057509956295191
5.151515151515151,2.5316455696202533,0.008262812479014078,0.007677821825704931,3.835639073287135e-05,-0.004782190291415703,0.007986678264189096
5.252525252525253,2.5316455696202533,0.008410022112849233,0.00753507943331698,-5.7881271886828003e-05,-0.004783530463849863,0.00800910482348958
5.353535353535354,2.5316455696202533,0.008539041596234663,0.007583868681396163,2.9176283058550408e-05,-0.004836873083289247,0.008103942200839266
5.454545454545454,2.5316455696202533,0.008453610901217556,0.007543761375422631,1.8399956668480533e-05,-0.0047992116829920555,0.008037466344207118
5.555555555555555,2.5316455696202533,0.008378382808188383,0.007603030496517676,-1.5496416230438393e-05,-0.004794423991411817,0.008018914616462551
5.656565656565657,2.5316455696202533,0.008359853868647136,0.007469558745047755,-2.1559816799830346e-05,-0.0047488237841084675,0.007952260021910795
5.757575757575758,2.5316455696202533,0.008281040646233615,0.007628235623700186,3.642619925696676e-05,-0.00477278288098014,0.007974952304580276
5.858585858585858,2.5316455696202533,0.008505501743524088,0.007695292075705182,5.8583140376248594e-05,-0.004860238145768781,0.008131362482737672
5.959595959595959,2.5316455696202533,0.008502697474769212,0.007783278815220311,-2.4048340206423038e-05,-0.004885792886996857,0.00816689434872924
6.0606060606060606,2.5316455696202533,0.008514968757786007,0.007680406321436498,1.557183398651277e-05,-0.004858612523766751,0.008129922618348879
6.161616161616162,2.5316455696202533,0.008633122155673797,0.007727187416915323,-3.7450791270658644e-05,-0.004908092871776735,0.008217948547308217
6.262626262626262,2.5316455696202533,0.00855721875545635,0.007648905500257228,-4.2233723246657e-05,-0.0048618372767140735,0.008141482766500379
6.363636363636363,2.5316455696202533,0.008501743878184458,0.007888143816464133,-3.118493733214908e-06,-0.004916966308394577,0.008212156392362191
6.4646464646464645,2.5316455696202533,0.008423651605017906,0.007679141391628191,1.83036709292823e-05,-0.004830837898993829,0.008077234194927018
6.565656565656566,2.5316455696202533,0.008569511960658034,0.007851160130025422,-4.434699430570643e-05,-0.004926201627205037,0.008234229773304813
6.666666666666667,2.5316455696202533,0.008610522429850716,0.007417230155219038,8.137383318536274e-05,-0.004808325775520927,0.00808146262589614
6.767676767676767,2.5316455696202533,0.008623705954460614,0.007812913010050996,2.1580930492517733e-05,-0.004930985689353483,0.008248336005210185
6.8686868686868685,2.5316455696202533,0.008690191310494118,0.007743117507127524,-8.797998028409411e-05,-0.004929992645286492,0.008258894762399514
6.96969696969697,2.5316455696202533,0.008704007266914157,0.007738690387692346,1.011015301271654e-05,-0.004932809296381951,0.00826376189720912
7.070707070707071,2.5316455696202533,0.00857059739607837,0.007818094043828243,9.814141701211553e-06,-0.004916607431971984,0.00822023641397313
7.171717171717171,2.5316455696202533,0.008772226297051275,0.007816038063161765,5.762302234403577e-06,-0.004976479308063911,0.008335373428193316
7.2727272727272725,2.5316455696202533,0.008576635877738258,0.00781637324666614,-2.4819444266092167e-05,-0.004917902737321319,0.008223018576155353
7.373737373737374,2.5316455696202533,0.008624345691971375,0.007889696073430201,-4.564982424888318e-06,-0.004954212529620473,0.008281499799013915
7.474747474747475,2.5316455696202533,0.008652456147163982,0.007840708806283542,7.2329148620165906e-06,-0.004947949486034257,0.00827650166432953
7.575757575757575,2.5316455696202533,0.008735409003262947,0.007850314241901215,-5.009856907331801e-06,-0.004975716973549249,0.008328215519529733
7.6767676767676765,2.5316455696202533,0.00858427965771674,0.007934864080725317,1.053340090478766e-05,-0.004955743121532617,0.008278717640079323
7.777777777777778,2.5316455696202533,0.008803087951207175,0.008006562412605365,9.618039398493526e-06,-0.005042895109143761,0.008433101657082347
7.878787878787879,2.5316455696202533,0.008834189457014793,0.008007132873032324,-2.1984309031715885e-05,-0.005052396699014135,0.008451153846102807
7.979797979797979,2.5316455696202533,0.008752478920558233,0.008145342411145366,-4.267143721056457e-05,-0.005069346399511079,0.008465578246641021
8.080808080808081,2.5316455696202533,0.009014249979851443,0.008030315680305553,2.179437481752115e-05,-0.005113369698047099,0.008564859873316025
8.181818181818182,2.5316455696202533,0.008963448262833136,0.008233527377570552,2.8567699668605042e-05,-0.005159092692121107,0.008621834463071616
8.282828282828282,2.5316455696202533,0.009041048222212026,0.008051720875022036,5.1689911200447336e-05,-0.005127830729170218,0.00858969038112103
8.383838383838384,2.5316455696202533,0.008956956755922637,0.008101899633210766,-4.784269790353953e-06,-0.005117656916740021,0.008561515987621988
8.484848484848484,2.5316455696202533,0.009069298199465305,0.008470380414278255,1.1005576624393786e-05,-0.005261903584123068,0.00878518478585191
8.585858585858587,2.5316455696202533,0.009251389521932867,0.008309928522306081,3.9811725240198336e-05,-0.005268395413271685,0.00881870111714257
8.686868686868687,2.5316455696202533,0.009092793450085034,0.008171427553795902,-0.0001052141186003367,-0.00517926630116428,0.008670826263171403
8.787878787878787,2.5316455696202533,0.00948997230959642,0.008321539862277499,1.9397435287098993e-05,-0.0053434536515621755,0.008963121444655936
8.88888888888889,2.5316455696202533,0.009556524806231056,0.00832806040318882,0.00018662054460636342,-0.005365375562825963,0.009011155436647069
8.98989898989899,2.5316455696202533,0.00936661590545279,0.008409706120756148,8.232653254355037e-05,-0.0053328966078626805,0.00892784948466249
9.09090909090909,2.5316455696202533,0.00948845972838614,0.008838598596092373,1.4367535510535502e-05,-0.005498117497343554,0.009180829243804114
9.191919191919192,2.5316455696202533,0.009586353889498102,0.00866830828834647,3.209675122417141e-05,-0.005476398653353371,0.009162061405899336
9.292929292929292,2.5316455696202533,0.00968817581204418,0.008752200579323362,-9.779471102198161e-06,-0.005532112917410263,0.009255765473756969
9.393939393939394,2.5316455696202533,0.010065336229286657,0.008777955491679678,5.005243520823888e-05,-0.0056529875162899,0.00948777836650085
9.494949494949495,2.5316455696202533,0.00993010848906213,0.009067108746291278,-7.582999427667051e-05,-0.005699165170606022,0.009528871530927208
9.595959595959595,2.5316455696202533,0.00989589579737011,0.009075660695473702,-1.6003230275590186e-06,-0.005691466947853143,0.009512338610466917
9.696969696969697,2.5316455696202533,0.010028097946924852,0.009143694880192628,0.00011403386683625295,-0.005751537848135244,0.009618474297318115
9.797979797979798,2.5316455696202533,0.010299290190260879,0.009360409969632902,3.775608879877465e-05,-0.005897910047968134,0.009863637828533185
9.8989898989899,2.5316455696202533,0.01046398681068638,0.009043566020186466,0.00012549684317052294,-0.005852265849261854,0.009833442894115184
10.0,2.5316455696202533,0.01055574675853175,0.009395573143652698,0.00010012779345773437,-0.005985395970655334,0.010027630343076556
0.0,2.632911392405063,0.010504028530848733,0.009406994846061556,-1.4078191464585144e-05,-0.005973307013073086,0.010000770957509229
0.10101010101010101,2.632911392405063,0.010560868644009926,0.009262841856596754,1.2809400566385343e-05,-0.005947113150182004,0.009975420888404966
0.20202020202020202,2.632911392405063,0.010145498105233363,0.009256405590046474,3.0161447259962415e-05,-0.005820571108583952,0.009731601102303351
0.30303030303030304,2.632911392405063,0.010041159048481338,0.009230814016934851,1.4759758644297264e-05,-0.005781591919624857,0.009661541508091323
0.40404040404040403,2.632911392405063,0.010022271934876804,0.008995645498075126,-2.4236864653708282e-05,-0.005705375229885579,0.00955052509179595
0.5050505050505051,2.632911392405063,0.00978391476121416,0.009027518891600058,-6.415493746412332e-05,-0.005643430095844265,0.009429154660956509
0.6060606060606061,2.632911392405063,0.00974649438934884,0.0086322972780559,1.4749872614524368e-05,-0.0055136375002214225,0.009239952644186172
0.7070707070707071,2.632911392405063,0.009697697685955645,0.008827865479285534,-8.342160764437428e-05,-0.005557668949572353,0.0092944852569694
0.8080808080808081,2.632911392405063,0.009575162758156869,0.00854175673788741,3.296318911594738e-05,-0.005435075848813283,0.009102741275247487
0.9090909090909091,2.632911392405063,0.009424175736757962,0.00871763353187745,3.8230274192453835e-05,-0.005442542780590624,0.009091759838553756
1.0101010101010102,2.632911392405063,0.009449255802735175,0.008508882315031495,-4.789249860675071e-05,-0.005387441435330001,0.009016306835991467
1.1111111111111112,2.632911392405063,0.009380554489841755,0.008337168500454337,9.533417039802018e-05,-0.005315316897088828,0.008906356356248642
1.2121212121212122,2.632911392405063,0.009184518504432698,0.008480266547333267,9.798817651985028e-05,-0.00529943551552979,0.00885505171604296
1.3131313131313131,2.632911392405063,0.009101700344661588,0.008374607211494974,3.675645612470742e-05,-0.005242892266846968,0.008761043481159527
1.4141414141414141,2.632911392405063,0.009188229328407732,0.008142073255922777,-4.320944629606272e-06,-0.005199090775299153,0.008712389730940559
1.5151515151515151,2.632911392405063,0.009014953820308293,0.00835318624016754,-1.712563616411633e-05,-0.0052104420181427495,0.008703011226001749
1.6161616161616161,2.632911392405063,0.009231444887311072,0.008240874046462673,5.423810575696989e-05,-0.005241695680132124,0.008778680452680787
1.7171717171717171,2.632911392405063,0.009065180734199863,0.008160295505804995,1.3909005556109333e-05,-0.005167642872001458,0.008648349626516906
1.8181818181818181,2.632911392405063,0.008944226853956731,0.008138726177838238,2.9937791925235497e-06,-0.00512488590953849,0.008569916654448298
1.9191919191919191,2.632911392405063,0.008941723365936596,0.007960006195720471,-4.767611735373155e-05,-0.005070518868497119,0.008493924948577588
2.0202020202020203,2.632911392405063,0.009031953239270907,0.008120549528702194,-6.738798310956176e-05,-0.005145750830391931,0.008613286467131043
2.121212121212121,2.632911392405063,0.009023366039460821,0.0079295667864016,3.8955747931778606e-05,-0.005085879847758727,0.008529497822553
2.2222222222222223,2.632911392405063,0.009091022538351683,0.00803739056260823,4.038937530633227e-05,-0.005138523930287973,0.008612963078954216
2.323232323232323,2.632911392405063,0.00874591396269808,0.008160652728225805,-5.944825093364409e-05,-0.005071970007277165,0.008469090838851211
2.4242424242424243,2.632911392405063,0.008690417014797728,0.007901899887349361,-4.319192039764902e-05,-0.004977695070644127,0.00832455170663811
2.525252525252525,2.632911392405063,0.008718294018444534,0.007892861714167268,-0.0001823942718293556,-0.00498334671978354,0.008342267711549858
2.6262626262626263,2.632911392405063,0.008783014951606969,0.0076762994528857004,7.637280939905068e-06,-0.004937794321347801,0.008285291005571127
2.727272727272727,2.632911392405063,0.00874348970164859,0.007819373304150652,-5.0438957806579946e-05,-0.004968858901739772,0.008320470740270982
2.8282828282828283,2.632911392405063,0.008768932564623803,0.007715249761247156,9.209790932501347e-06,-0.004945254697761288,0.008292466869785187
2.929292929292929,2.632911392405063,0.00870259096541939,0.007788825835885309,-3.247757768596883e-05,-0.004947425040391409,0.008283785151831867
3.0303030303030303,2.632911392405063,0.008667679314205715,0.007607317155698445,-2.9904461965055297e-05,-0.004882498940971248,0.008189312320627423
3.131313131313131,2.632911392405063,0.008631135320907849,0.007684585496309222,-3.5316283366355966e-05,-0.004894716245165121,0.008199170421072538
3.2323232323232323,2.632911392405063,0.008744208606787157,0.00771191831448306,8.216334143984895e-05,-0.004936838076381065,0.008277710927059317
3.3333333333333335,2.632911392405063,0.008392039779465711,0.007794540383886469,2.620446883283774e-06,-0.004855974049005654,0.008109816218150096
3.4343434343434343,2.632911392405063,0.008477492816406485,0.0077074992194056105,2.705639041029317e-05,-0.004855497610743629,0.008120058839021926
3.5353535353535355,2.632911392405063,0.008732540129474706,0.007465482570215785,-4.462242928794943e-05,-0.0048594068099071476,0.008173373506231388
3.6363636363636362,2.632911392405063,0.00847806697188305,0.0077076977213705765,-2.6827336225837678e-05,-0.004855729407976087,0.008120468298124942
3.7373737373737375,2.632911392405063,0.0084549143046084,0.007631925542366399,9.666737427813934e-07,-0.004826051954092439,0.008074935897331378
3.8383838383838382,2.632911392405063,0.008400856481719243,0.007619891714011054,-3.6311381234220345e-05,-0.004806224458719088,0.008039121731462425
3.9393939393939394,2.632911392405063,0.008477788598320428,0.007710322020749372,-1.470606650430439e-05,-0.00485643318572094,0.00812133818220573
4.040404040404041,2.632911392405063,0.008589480088724809,0.007535639755971874,-5.142647512926272e-05,-0.004837535953409004,0.008114538873755734
4.141414141414141,2.632911392405063,0.008356779048567768,0.007505259207911462,3.752757898826952e-05,-0.004758611476943769,0.007965494579706293
4.242424242424242,2.632911392405063,0.008522894473989514,0.0077275515405738114,1.3628371646634227e-05,-0.004875133804368997,0.008154399665327987
4.343434343434343,2.632911392405063,0.008505109407198255,0.007725914609080834,-5.4928276033322244e-05,-0.004869307204883727,0.008144074219998307
4.444444444444445,2.632911392405063,0.00827292663170465,0.007528278068101827,3.5102716740875002e-06,-0.004740361409941943,0.007926880254537411
4.545454545454545,2.632911392405063,0.008304595786502396,0.007482813082525904,-1.8365701363807043e-05,-0.00473622266070849,0.007925785557649431
4.646464646464646,2.632911392405063,0.0083078985750829,0.0075497520425334965,-7.708016752871337e-05,-0.004757295185284918,0.007957083916730345
4.747474747474747,2.632911392405063,0.008441339983754646,0.007480656054218766,5.9342022041688504e-05,-0.004776598811392024,0.008005013372531095
4.848484848484849,2.632911392405063,0.00839604896822423,0.007587311922796945,0.00013297130578756255,-0.004795008267306352,0.008025617867437353
4.94949494949495,2.632911392405063,0.008336012461524378,0.007553394702969332,-3.197520457796732e-05,-0.004766822149348113,0.007973753831658822
5.05050505050505,2.632911392405063,0.008406543795739334,0.007634227116595813,3.2448494787807844e-05,-0.004812231273700544,0.008048421980090804
5.151515151515151,2.632911392405063,0.008437493921478523,0.007493093344845898,-5.697832404552824e-05,-0.004779176179897326,0.00800778131492023
5.252525252525253,2.632911392405063,0.008564724661257258,0.007507751744130293,5.7006557540821084e-05,-0.0048217429216162655,0.008088805072685197
5.353535353535354,2.632911392405063,0.008479610218835138,0.007564247764647278,-5.531874467912272e-06,-0.0048131573950447246,0.008061008179523583
5.454545454545454,2.632911392405063,0.008202080994203578,0.007603113712540443,-6.579532554480398e-05,-0.004741558412023205,0.007920423180455079
5.555555555555555,2.632911392405063,0.008459936103515782,0.007463715810448366,1.7752995954931572e-05,-0.004777095574189244,0.008008492943750974
5.656565656565657,2.632911392405063,0.00832563636682339,0.007510485484851167,-4.42761588927268e-05,-0.004750836555502368,0.007949837934215706
5.757575757575758,2.632911392405063,0.00846742312843843,0.007676815323801669,-2.481532956825018e-05,-0.004843271535672029,0.00810121915072084
5.858585858585858,2.632911392405063,0.008426575309448127,0.0073528133897848135,1.4473957106418377e-06,-0.004733816609769882,0.007944306559437543
5.959595959595959,2.632911392405063,0.008511138594013657,0.007556773884529359,-1.3521133693391516e-06,-0.004820373743562904,0.008076358544430347
6.0606060606060606,2.632911392405063,0.008264029720130342,0.0075893813640188715,4.344892295876673e-05,-0.004756023325244764,0.007948565089421992
6.161616161616162,2.632911392405063,0.008328833762885311,0.007474649433250319,-3.1453318525778917e-06,-0.004741044958840688,0.007936294671552852
6.262626262626262,2.632911392405063,0.008259675963945567,0.007575921739906007,-2.5693373116223325e-05,-0.004750679311155472,0.007940035200614197
6.363636363636363,2.632911392405063,0.008589420225229563,0.007587438996917255,1.939734550315174e-05,-0.004853057766644045,0.008134912238662721
6.4646464646464645,2.632911392405063,0.008223236170382682,0.0076030019604068355,3.060870713747786e-05,-0.004747871439236855,0.007931505650151816
6.565656565656566,2.632911392405063,0.00842037826540463,0.007615794346198023,-1.525020580447058e-06,-0.0048108517834807955,0.008048306122820283
6.666666666666667,2.632911392405063,0.0085878399182354,0.0077127026631268495,1.2294991705297973e-05,-0.004890162774408675,0.008185461167437253
6.767676767676767,2.632911392405063,0.008673734397432789,0.0076010155242463556,2.1116957002477155e-05,-0.004882424976503743,0.008190314607302074
6.8686868686868685,2.632911392405063,0.008608051893827667,0.007727300879169698,2.156382493455017e-05,-0.004900605831899209,0.008203299599098608
6.96969696969697,2.632911392405063,0.008659688060353509,0.007878158782359276,0.00012941910502948647,-0.004961354052813835,0.00829960441658323
7.070707070707071,2.632911392405063,0.008551787536787696,0.007826398487926057,-6.0035852104818804e-05,-0.004913455807414127,0.008213811492224688
7.171717171717171,2.632911392405063,0.00867063352211475,0.007838881303338235,6.379277291031888e-05,-0.004952854447635896,0.008286862332129663
7.2727272727272725,2.632911392405063,0.008628382466092674,0.0077775777231627085,7.138528999406723e-05,-0.0049217880567766145,0.00823693338231437
7.373737373737374,2.632911392405063,0.008820857884364083,0.007865713984773023,-3.9036357838647004e-06,-0.005005971560741132,0.008384192913022753
7.474747474747475,2.632911392405063,0.00880049643709771,0.007935248570089988,-2.85525194392762e-05,-0.005020723502156309,0.008401501435994763
7.575757575757575,2.632911392405063,0.008726345198750433,0.007819498907960949,5.511509447764753e-05,-0.004963753232013414,0.008310663629828593
7.6767676767676765,2.632911392405063,0.008719196426690645,0.007919836188239738,-8.37137560476573e-06,-0.004991709784479115,0.008348280926219483
7.777777777777778,2.632911392405063,0.008944391501465976,0.008034748307701707,-7.867913952961431e-05,-0.005093741942750305,0.008527130610045697
7.878787878787879,2.632911392405063,0.009009061611138545,0.008011132720897872,-6.203171268971481e-05,-0.005106058299610924,0.008554542309655822
7.979797979797979,2.632911392405063,0.008956546144700645,0.008041664122510768,-0.00011559228380268212,-0.005099463080163424,0.008538303674395852
8.080808080808081,2.632911392405063,0.008736923051754516,0.008205378964076778,-2.8791628267808356e-05,-0.005082690604749388,0.008483795766656815
8.181818181818182,2.632911392405063,0.008972319890495925,0.008058315267524045,3.759285345310779e-05,-0.00510919054740599,0.008552276099226402
8.282828282828282,2.632911392405063,0.009089001385186925,0.008207421204119934,-1.5011644245836445e-05,-0.005188926776792058,0.00868188472378536
8.383838383838384,2.632911392405063,0.009108873773767005,0.008247952826842913,9.770373487374844e-05,-0.005207047980182975,0.008712025259833351
8.484848484848484,2.632911392405063,0.009129477843766217,0.008140015675137178,-3.149879767845153e-05,-0.005180848055671019,0.008677332807953618
8.585858585858587,2.632911392405063,0.009224868364274113,0.008438403811030018,-3.84573316176486e-05,-0.00529898165259124,0.008858110845655286
8.686868686868687,2.632911392405063,0.009420301888556568,0.008520081810476213,6.233013919997671e-05,-0.005382115109709834,0.009004654024315571
8.787878787878787,2.632911392405063,0.00918095289726221,0.008205856943932475,1.3398701031844338e-05,-0.005216042952358405,0.008734353827140514
8.88888888888889,2.632911392405063,0.009502954408517835,0.008420707587208054,2.6838386568872468e-06,-0.0053770985987177675,0.009010709188510265
8.98989898989899,2.632911392405063,0.009506498502807886,0.00853740298766745,2.510066107384477e-06,-0.0054131704471426,0.009060903582915399
9.09090909090909,2.632911392405063,0.009488179983991301,0.00857751310299981,-3.812465020502503e-05,-0.005419707926097333,0.009067450731672075
9.191919191919192,2.632911392405063,0.009446324947151013,0.00873891471122539,-2.3391855997112226e-05,-0.00545557189751292,0.009113325344041369
9.292929292929292,2.632911392405063,0.009804133438445103,0.008708375070648342,-2.8876854159503696e-05,-0.005553752552728033,0.009304905117376545
9.393939393939394,2.632911392405063,0.009850986318532354,0.008918156246418481,0.00011216713755437612,-0.00563074276948525,0.00942128184026376
9.494949494949495,2.632911392405063,0.009823895537267164,0.008853437870112701,4.660991101041835e-05,-0.005603200022213959,0.00937675606576306
9.595959595959595,2.632911392405063,0.01000651672186232,0.009058448516796151,7.980461473222817e-05,-0.005719489571597541,0.009568775063115691
9.696969696969697,2.632911392405063,0.010425238307850122,0.008958332017559537,-4.605036702355387e-05,-0.005815071097622898,0.009775015196781284
9.797979797979798,2.632911392405063,0.010258006669701905,0.009069892034376404,-1.4407095656782846e-05,-0.005798369611223492,0.009718603400797861
9.8989898989899,2.632911392405063,0.010365789169900917,0.00923927741717556,-7.742195058989492e-05,-0.005881519976122942,0.00985187357780216
10.0,2.632911392405063,0.01044421445150845,0.009477542446259472,-5.550214590007361e-05,-0.005976527069330376,0.00999645847349643
0.0,2.7341772151898733,0.010303879913334783,0.009391659603379829,-9.353717283139375e-05,-0.005908661855014384,0.009880735106364369
0.10101010101010101,2.7341772151898733,0.010143109879545132,0.009166785319888777,-3.32731182730958e-05,-0.005792968559830172,0.009692071073244364
0.20202020202020202,2.7341772151898733,0.01031581254068233,0.008822370532021272,-2.7052228833420333e-05,-0.005741454921811081,0.009656214842020625
0.30303030303030304,2.7341772151898733,0.009973337097143535,0.009032778932123774,4.515162483302485e-05,-0.005701834808780192,0.00953822388516369
0.40404040404040403,2.7341772151898733,0.010076422508232614,0.008803934606081537,-4.0010955968080797e-05,-0.005664107134294245,0.00950453538667942
0.5050505050505051,2.7341772151898733,0.009950270697930594,0.008676881559690083,-7.190499061166088e-06,-0.005588145677286203,0.009378645709270488
0.6060606060606061,2.7341772151898733,0.009667341877359356,0.009053025632201603,2.1571019256852878e-05,-0.005616110252868287,0.0093753652828394
0.7070707070707071,2.7341772151898733,0.009689003408470849,0.008728920546390349,-8.152302960296424e-05,-0.00552537718645836,0.009247499015483858
0.8080808080808081,2.7341772151898733,0.009676155008250422,0.008635098450970713,-2.192633605868801e-05,-0.00549337603776634,0.009199988704949025
0.9090909090909091,2.7341772151898733,0.009427877601835404,0.008666834769178282,9.84291493218216e-05,-0.005428413711304105,0.00907293273889935
1.0101010101010102,2.7341772151898733,0.009175124877439522,0.008513571710948898,-1.6904540626687636e-05,-0.005306608976516526,0.008862933683807398
1.1111111111111112,2.7341772151898733,0.009296803564286518,0.008600253453194479,-1.25597327928134e-05,-0.005369117105244299,0.008968864044869433
1.2121212121212122,2.7341772151898733,0.009242296947569114,0.008356579898223648,-5.214997643891534e-06,-0.005279663053737828,0.008832812075753246
1.3131313131313131,2.7341772151898733,0.009405237966709208,0.008433951763832645,6.358939131254118e-05,-0.005351756919162556,0.008959846597936472
1.4141414141414141,2.7341772151898733,0.009172050306262267,0.008528239740133246,-2.5664057384530067e-05,-0.005310087013918653,0.00886780197664285
1.5151515151515151,2.7341772151898733,0.009100924155691584,0.00822864191293452,-6.350262721452041e-05,-0.00519886982058783,0.008698345820670774
1.6161616161616161,2.7341772151898733,0.009060205930254663,0.008365183014426136,3.60484485428522e-05,-0.0052276166834042395,0.008733683992475517
1.7171717171717171,2.7341772151898733,0.009200588384446496,0.007991600743834808,-8.797974035685923e-06,-0.005157656738484392,0.008659636961504433
1.8181818181818181,2.7341772151898733,0.009004356196659147,0.008085899741667374,1.9367944101356788e-05,-0.005127076781497955,0.008582133129702626
1.9191919191919191,2.7341772151898733,0.00893990130830119,0.00804581436732283,-6.258986154849047e-05,-0.005095714702687206,0.00852877073904041
2.0202020202020203,2.7341772151898733,0.009056571583376445,0.007942923127141047,-3.0024432628326988e-05,-0.005099848413155248,0.008554447332583716
2.121212121212121,2.7341772151898733,0.009023627020754838,0.008053127664522732,3.761095226851175e-05,-0.005123026405583271,0.008579891208332085
2.2222222222222223,2.7341772151898733,0.009062826843033762,0.007640086431770232,-2.8347752073543038e-05,-0.005010873982441199,0.008442001034110958
2.323232323232323,2.7341772151898733,0.008813803712114978,0.007834846560176719,-8.88787408761655e-06,-0.004994595081687509,0.008367400658758089
2.4242424242424243,2.7341772151898733,0.008693800944068639,0.007982245593568167,-4.437516819410609e-05,-0.005002813961291042,0.00836111671731912
2.525252525252525,2.7341772151898733,0.008620091199124104,0.008008810673365185,-5.680389144605899e-05,-0.004988670561746787,0.008331867877513947
2.6262626262626263,2.7341772151898733,0.008815039581797449,0.007901532953283967,2.1642488877424986e-05,-0.005014971760524425,0.00839572660895932
2.727272727272727,2.7341772151898733,0.008704611467953547,0.008057422852005922,-4.348922867857213e-05,-0.005028610295987841,0.00840007514272147
2.8282828282828283,2.7341772151898733,0.008553600289966773,0.007804920671678799,-2.772870957404099e-05,-0.004907556288493671,0.00820505938645682
2.929292929292929,2.7341772151898733,0.008592922766022342,0.007969449471012907,-5.3794140901592226e-05,-0.004968711671110575,0.008299292992207677
3.0303030303030303,2.7341772151898733,0.008649354866768856,0.007668219999946367,3.557458358284099e-05,-0.004895272460014566,0.008203144412716166
3.131313131313131,2.7341772151898733,0.008565332267301634,0.007766860725778186,-2.18521998274598e-05,-0.004899657897923946,0.00819540921178927
3.2323232323232323,2.7341772151898733,0.008663081667200506,0.00775407699728723,-9.875862426342744e-06,-0.004925147599346321,0.008246258810464311
3.3333333333333335,2.7341772151898733,0.008640469080350145,0.00767319192026367,1.733253674417693e-05,-0.004894098300184144,0.00819978681976219
3.4343434343434343,2.7341772151898733,0.008537139333209572,0.0077294196993186355,-5.622957294606029e-05,-0.004879967709758463,0.008163885670410384
3.5353535353535355,2.7341772151898733,0.008383382067551117,0.007706086676265429,2.005980304604988e-05,-0.004826840623144963,0.008066164211504114
3.6363636363636362,2.7341772151898733,0.008531886525825007,0.007495713322925269,9.020180547289246e-05,-0.0048082799546250825,0.008065397665636352
3.7373737373737375,2.7341772151898733,0.008151127745892614,0.00756788999384796,-9.489546977419271e-05,-0.004715705321922173,0.007877437389956094
3.8383838383838382,2.7341772151898733,0.008411328967923619,0.00771192427897592,1.6569644105998986e-05,-0.0048369759740698615,0.008084399956980298
3.9393939393939394,2.7341772151898733,0.008349111112979335,0.007781952173020124,-2.2470410791095466e-05,-0.004839318985799838,0.00808056726905327
4.040404040404041,2.7341772151898733,0.008370540463593928,0.007595980164867373,1.0979715210920591e-05,-0.00478995618853839,0.008011414647206878
4.141414141414141,2.7341772151898733,0.008418799584847425,0.007570143046842257,-8.609074912771024e-06,-0.004796682789506904,0.008028197643805407
4.242424242424242,2.7341772151898733,0.008512705658670787,0.007830526143044135,-0.00012006703288212373,-0.004902969540514477,0.008195583040696817
4.343434343434343,2.7341772151898733,0.008405389430909778,0.00756318409096506,4.919847987211262e-05,-0.004790572056562452,0.008017984717378754
4.444444444444445,2.7341772151898733,0.00846664846840749,0.007512177484075302,-4.992124074982617e-05,-0.004793647785744838,0.008032524960478956
4.545454545454545,2.7341772151898733,0.008416273173528341,0.0076206354649240885,3.599955633773565e-05,-0.004811072591535729,0.00804824683370247
4.646464646464646,2.7341772151898733,0.008417845558744301,0.007531877256808648,-1.0979766130608621e-05,-0.004784916844665885,0.008011708994531783
4.747474747474747,2.7341772151898733,0.008332191686601933,0.0076935164737075845,-1.3584603573775548e-05,-0.004807712448092854,0.008031955780187647
4.848484848484849,2.7341772151898733,0.008480311335055689,0.007523693817261304,-9.622267178822051e-05,-0.004801201545695098,0.008046499825579983
4.94949494949495,2.7341772151898733,0.008440755898734428,0.007471971583051686,1.6275312117263183e-05,-0.004773818244535833,0.008000526602823464
5.05050505050505,2.7341772151898733,0.008478822326323337,0.007639634413885577,8.217403659093126e-05,-0.004835537022062675,0.008093182124643663
5.151515151515151,2.7341772151898733,0.00828559632389776,0.007630489345078597,-6.851128614333493e-05,-0.004774825700692907,0.00797912282207818
5.252525252525253,2.7341772151898733,0.00843872425984298,0.007612762033943223,6.546092449380174e-05,-0.004815445888135861,0.008058353966956793
5.353535353535354,2.7341772151898733,0.008408886655038144,0.007578609160010955,2.0182552564384085e-05,-0.00479624874451473,0.008026097940742976
5.454545454545454,2.7341772151898733,0.008374447501316723,0.0073457633789513355,-4.1667980514726184e-06,-0.004716063264080418,0.00791043316666967
5.555555555555555,2.7341772151898733,0.00842520195116893,0.007530250206222256,4.439128225242282e-05,-0.004786635647217355,0.00801565525168449
5.656565656565657,2.7341772151898733,0.008382855692942481,0.007808241764680912,-2.113403250785318e-05,-0.004857329237287018,0.008110911480066155
5.757575757575758,2.7341772151898733,0.008336852342262176,0.007524284970974631,-3.539377347155407e-05,-0.004758341193971042,0.007961964372854274
5.858585858585858,2.7341772151898733,0.008493088044446408,0.007650437023957326,3.1694005522873715e-05,-0.00484305752052112,0.008104869492795777
5.959595959595959,2.7341772151898733,0.008337796797333359,0.007744607648401102,6.921286140445161e-05,-0.004824721333720338,0.00805848679805362
6.0606060606060606,2.7341772151898733,0.008429228772433718,0.007504823285978861,-5.019450648965119e-06,-0.004780215617523773,0.008007151394987224
6.161616161616162,2.7341772151898733,0.008538906334265132,0.007670252765852897,-6.773613060512272e-05,-0.004862747730035409,0.008140263724219218
6.262626262626262,2.7341772151898733,0.008437899854403434,0.007449304495003353,1.940052592433832e-05,-0.004766161304822036,0.007989676791938547
6.363636363636363,2.7341772151898733,0.008443639463647427,0.007748024149716246,3.3221871169816576e-05,-0.004857499084009102,0.008118418209170123
6.4646464646464645,2.7341772151898733,0.008466388093635856,0.007806772058336939,4.4562862178063235e-05,-0.004881948045591838,0.008156973266139402
6.565656565656566,2.7341772151898733,0.00848779129645115,0.007790355610060568,9.369847841864117e-05,-0.004883444071953515,0.008163067272450749
6.666666666666667,2.7341772151898733,0.008515197908842656,0.007607704537501038,-1.8150796255738855e-05,-0.004836870733903108,0.008099731004302843
6.767676767676767,2.7341772151898733,0.008567701425906552,0.007505400243117928,7.69746539945149e-05,-0.004821930500707344,0.008090135194172449
6.8686868686868685,2.7341772151898733,0.008550870492873305,0.007842920113277366,-8.673577520473031e-05,-0.004918137181845201,0.008221165197139462
6.96969696969697,2.7341772151898733,0.00869931597787352,0.0077901137680817705,5.010868251921626e-05,-0.004946828923786587,0.008282683289285416
7.070707070707071,2.7341772151898733,0.008673111719400826,0.007775362224464265,-6.925654808947156e-05,-0.004934542183159528,0.008261775160073419
7.171717171717171,2.7341772151898733,0.008722140153211934,0.007889114386926141,2.2664462195331506e-05,-0.004983376362041422,0.008336991923249434
7.2727272727272725,2.7341772151898733,0.00872953361551387,0.00793858081009334,-2.9062302144163385e-05,-0.005000434327682163,0.008362311177766797
7.373737373737374,2.7341772151898733,0.008750803557462498,0.007726251784953657,-6.363654052163859e-06,-0.004943116602724847,0.008286177612654289
7.474747474747475,2.7341772151898733,0.008879369629762515,0.007865349607241702,6.624701918745853e-06,-0.005023415771101265,0.008418296424818155
7.575757575757575,2.7341772151898733,0.00891697145752785,0.007930891854799269,-7.643704529403083e-05,-0.005054358993698136,0.008468141304358495
7.6767676767676765,2.7341772151898733,0.008816578551856446,0.0079171928874549,-4.48937704464676e-05,-0.005020131431793404,0.008403421560748395
7.777777777777778,2.7341772151898733,0.008623809905401588,0.008039165569362223,-4.017909506449014e-05,-0.004998892642429143,0.008347148479986017
7.878787878787879,2.7341772151898733,0.008705481098397753,0.008131219366189334,-1.8592136268687883e-05,-0.005051010139376126,0.008433088997452778
7.979797979797979,2.7341772151898733,0.009004923423445482,0.008161742784658789,1.0378192397486355e-05,-0.005149999862431281,0.008614356939897958
8.080808080808081,2.7341772151898733,0.008942599691720511,0.008155047537471214,3.9724809207283234e-05,-0.005129294168757517,0.008576263648677003
8.181818181818182,2.7341772151898733,0.008975526484477268,0.008075038675585414,5.385787443510604e-06,-0.005115169548018804,0.00856088131035451
8.282828282828282,2.7341772151898733,0.009083081744086506,0.008059898228184507,-4.58321541776191e-05,-0.005142893991681304,0.008617535652487962
8.383838383838384,2.7341772151898733,0.009179603057380085,0.008076280822373516,6.5724025650177e-05,-0.005176765163926081,0.008681436000237689
8.484848484848484,2.7341772151898733,0.00930289891859616,0.008257216034874495,9.524265108064755e-06,-0.0052680344860411964,0.008826651174122312
8.585858585858587,2.7341772151898733,0.009270852436859678,0.00819588522622062,-7.568381939099338e-05,-0.0052400212989240896,0.008783824972483891
8.686868686868687,2.7341772151898733,0.009277173764521647,0.00860496202705565,7.3581202967329925e-06,-0.005364640737473189,0.008960008873204068
8.787878787878787,2.7341772151898733,0.009476251895121926,0.008334380990309403,-1.4865293340465269e-06,-0.005343189865629399,0.008960054098422252
8.88888888888889,2.7341772151898733,0.009257928213428012,0.008458913201031029,-2.2392808223819005e-05,-0.005315052424337712,0.00888549044692413
8.98989898989899,2.7341772151898733,0.009395873820824156,0.008602576680427267,2.8534893653909504e-05,-0.005399535150375426,0.00902554641540823
9.09090909090909,2.7341772151898733,0.009478592384090507,0.008676368967485986,-5.158710029400222e-05,-0.005446488405472948,0.00910446653646828
9.191919191919192,2.7341772151898733,0.009604110461144436,0.008893463724411466,-1.881510537603845e-05,-0.00554927225566677,0.009269298182733624
9.292929292929292,2.7341772151898733,0.00984649589275801,0.008550917528894777,-1.647438304276998e-05,-0.0055192240264958356,0.009266925695200936
9.393939393939394,2.7341772151898733,0.009864319197144127,0.008793162152060163,1.493612084827811e-05,-0.005597244404761287,0.009374785592135918
9.494949494949495,2.7341772151898733,0.009869076181504172,0.008988983216001258,0.00011128784536624159,-0.005657417819251628,0.009461748185958305
9.595959595959595,2.7341772151898733,0.009763897817783007,0.009097529186822852,4.197345723981342e-05,-0.005658428101381757,0.009448633649375053
9.696969696969697,2.7341772151898733,0.010105470838776224,0.008904984266154183,-5.792553939072592e-05,-0.005703136531479122,0.009562441787366297
9.797979797979798,2.7341772151898733,0.010175759045414559,0.00911263440837997,6.680861053483743e-06,-0.005786518036138359,0.009688051398718506
9.8989898989899,2.7341772151898733,0.010305332872924143,0.009261763332526261,-1.4988932858991798e-05,-0.005870128861635121,0.009825236156037032
10.0,2.7341772151898733,0.010607469519763168,0.009361617275735892,1.2613114288483485e-05,-0.005990726038649718,0.010042693612470748
0.0,2.8354430379746836,0.010352692471349498,0.009641284154052767,2.4687891081966377e-06,-0.005998192987620679,0.010015955768396806
0.10101010101010101,2.8354430379746836,0.010247158262661113,0.009336373573858869,4.81983117067476e-05,-0.005875059550955994,0.009823838129355018
0.20202020202020202,2.8354430379746836,0.010177270810878252,0.009262805252701279,-5.3986571746491264e-05,-0.005832022819073859,0.009752695444442282
0.30303030303030304,2.8354430379746836,0.010020504923515892,0.009147904218697288,6.252005582864679e-05,-0.005750522742663954,0.009614560703719143
0.40404040404040403,2.8354430379746836,0.009912381983450236,0.0089981289151912,-6.0403318504160455e-05,-0.005673153269592431,0.00948892487583203
0.5050505050505051,2.8354430379746836,0.009780550761375795,0.008923248873002467,8.77727430463268e-05,-0.0056111398903134786,0.009382556541255912
0.6060606060606061,2.8354430379746836,0.009618955362561975,0.008797041369945765,-4.455946461241956e-05,-0.005524799019752322,0.00923579165578335
0.7070707070707071,2.8354430379746836,0.009605444812929752,0.00868554374734764,5.5584464427937956e-05,-0.0054872965680832185,0.009180631677828665
0.8080808080808081,2.8354430379746836,0.00958107800380429,0.008609242560231354,1.3839934507175173e-05,-0.005457096169210693,0.009134049665071592
0.9090909090909091,2.8354430379746836,0.009524840273249058,0.008669571105167471,3.219045431098878e-05,-0.005458323413524958,0.00912747906271018
1.0101010101010102,2.8354430379746836,0.00936203611940825,0.008507938098430787,-2.0930399392399545e-05,-0.00536099226535171,0.00896562443187826
1.1111111111111112,2.8354430379746836,0.009306301509667629,0.00826496905085309,-1.632341835156129e-05,-0.005271381168156216,0.008831843896211656
1.2121212121212122,2.8354430379746836,0.009470905896787157,0.008447607654424667,4.948545093711126e-05,-0.0053755540653635464,0.009003387299812243
1.3131313131313131,2.8354430379746836,0.009214474995930257,0.008329042531966148,2.9913963430767534e-05,-0.005263055258368922,0.008805363668509534
1.4141414141414141,2.8354430379746836,0.009292619255027338,0.008412906748680128,4.02473630957837e-06,-0.005311657801112239,0.008885487152253678
1.5151515151515151,2.8354430379746836,0.009282582308621777,0.008383372850939172,2.5862014095806703e-05,-0.0052997865478682845,0.008867352067715207
1.6161616161616161,2.8354430379746836,0.009117586938981887,0.008221058378042519,-2.0349560421060786e-05,-0.005201593595107322,0.008704092156374271
1.7171717171717171,2.8354430379746836,0.00912741078169309,0.008354517682380522,-6.358052130137136e-06,-0.005244578539222084,0.008766561457461595
1.8181818181818181,2.8354430379746836,0.008973684490153143,0.007951459523052463,-7.594655163343285e-07,-0.005077543203961682,0.008508750472885193
1.9191919191919191,2.8354430379746836,0.009023991207773554,0.008065197997165497,1.9523730594942928e-05,-0.005126756761481715,0.008584911401071735
2.0202020202020203,2.8354430379746836,0.009049219163251947,0.008087133358586015,-6.138236735756971e-05,-0.005140905756551389,0.008609248204396108
2.121212121212121,2.8354430379746836,0.008886204650982827,0.008004979149057734,4.398479172045307e-05,-0.005067355140012168,0.008480344646081819
2.2222222222222223,2.8354430379746836,0.008772654487586368,0.0079413416424896,-3.231961978242588e-06,-0.005014198839022791,0.008387953193753555
2.323232323232323,2.8354430379746836,0.008829634623077065,0.00815127124596125,-2.0069391733457332e-05,-0.005094271760711494,0.008510824403563828
2.4242424242424243,2.8354430379746836,0.008761154732788483,0.007828322605699732,5.6432195036443516e-05,-0.004976843201546464,0.008334559088635706
2.525252525252525,2.8354430379746836,0.008747252355329941,0.007809850244325719,4.1211784124550794e-05,-0.004967130779896698,0.00831856651687174
2.6262626262626263,2.8354430379746836,0.00861805785206694,0.007798838500127566,3.816657683629141e-05,-0.004925068905658352,0.008239316220559841
2.727272727272727,2.8354430379746836,0.008714935230434318,0.0075787967960365115,4.5390357909659454e-05,-0.004888119607941249,0.008206443480459163
2.8282828282828283,2.8354430379746836,0.008596996154065435,0.007773481382106046,-4.410144177792463e-05,-0.0049111432608514435,0.008216605195383366
2.929292929292929,2.8354430379746836,0.008652495450757847,0.007717627638772029,-7.928647787276412e-05,-0.0049110369268589625,0.008226151888807157
3.0303030303030303,2.8354430379746836,0.008608447083797566,0.007796446703694288,-2.9496865344027486e-05,-0.004921468136247556,0.00823269419466577
3.131313131313131,2.8354430379746836,0.008606611923605137,0.007710418290845328,-2.985894512008915e-05,-0.004895109064335139,0.008195511923924143
3.2323232323232323,2.8354430379746836,0.008568549439185596,0.007849479607540956,-1.929709113930584e-05,-0.004925408714017966,0.008232668622327428
3.3333333333333335,2.8354430379746836,0.00850516522151513,0.0074986896319039825,7.266392843988073e-06,-0.004801156456025733,0.008049269890995322
3.4343434343434343,2.8354430379746836,0.008618522716792736,0.007758756222627939,-4.5772084675906655e-05,-0.004913183681826202,0.008222803684539176
3.5353535353535355,2.8354430379746836,0.008449837848948542,0.007629226960264088,-4.621312673024786e-06,-0.004823719442763789,0.00807088576472732
3.6363636363636362,2.8354430379746836,0.008458142877767265,0.007818379583548174,4.0008145152614836e-05,-0.004882956738394632,0.00815739361670961
3.7373737373737375,2.8354430379746836,0.008364825474644495,0.0076750149801506915,-1.9617776769668998e-05,-0.004811952136438556,0.00804221076036015
3.8383838383838382,2.8354430379746836,0.008530973923044194,0.0074060610169633945,-5.2625157896858666e-05,-0.0047811104820022765,0.008028365380087471
3.9393939393939394,2.8354430379746836,0.00830491648332,0.007636416595222426,-2.5888548376078765e-05,-0.004782399923562727,0.007991789837474372
4.040404040404041,2.8354430379746836,0.008422295536600288,0.00758990945928953,3.958614367861578e-07,-0.004803661498766945,0.008038490381532726
4.141414141414141,2.8354430379746836,0.00847312373564659,0.0075958172908363085,-1.926345158825825e-05,-0.00482068230794487,0.00807038286690457
4.242424242424242,2.8354430379746836,0.00854833349281315,0.007778395357728953,3.817143731406274e-05,-0.00489801865516263,0.00819081763101545
4.343434343434343,2.8354430379746836,0.008400935088935238,0.007655697813282223,6.515274054378255e-06,-0.0048169898706652385,0.008054224129815246
4.444444444444445,2.8354430379746836,0.008434104303864726,0.007522465890929756,3.0606146505674696e-05,-0.0047869710584383445,0.008017428312801844
4.545454545454545,2.8354430379746836,0.008314168529244811,0.007363521717438255,-4.390313712591921e-05,-0.00470330707400492,0.007882326581960575
4.646464646464646,2.8354430379746836,0.008611079495421139,0.007498830397169181,-2.0519544331098524e-05,-0.004832972967777096,0.008112421702818786
4.747474747474747,2.8354430379746836,0.008363798655962137,0.007552179687369385,-4.282900297905491e-05,-0.004774793502999457,0.00798931402809232
4.848484848484849,2.8354430379746836,0.008514032193170708,0.007542268337588977,-5.383386594009714e-06,-0.004816890159227905,0.008072145152890488
4.94949494949495,2.8354430379746836,0.008210580069750175,0.007566879986969807,-7.92101323514403e-05,-0.004733238017015994,0.007909592059201196
5.05050505050505,2.8354430379746836,0.008337895004900286,0.007467129227018364,7.450664395799243e-05,-0.004741507269575595,0.007939460072499472
5.151515151515151,2.8354430379746836,0.008491676518465038,0.007542561674470892,1.594981039021427e-05,-0.004810271457880779,0.008059192021327155
5.252525252525253,2.8354430379746836,0.00826416975484404,0.007622395882117058,-4.220022419507e-06,-0.004765969691088329,0.00796270686625611
5.353535353535354,2.8354430379746836,0.008289425208710411,0.007705285542153154,3.447893174335116e-05,-0.004798413225259069,0.008013561864344989
5.454545454545454,2.8354430379746836,0.008487033651219373,0.007545776149397679,-1.8340269772712572e-05,-0.004809842940185116,0.008057805587486476
5.555555555555555,2.8354430379746836,0.008486278783342852,0.00765937619106736,-1.4835062014022494e-05,-0.004843696492323063,0.00810456845231152
5.656565656565657,2.8354430379746836,0.008497839991407144,0.007540821259287983,-4.423588292871495e-06,-0.004811598375208538,0.008062049120618016
5.757575757575758,2.8354430379746836,0.0084911125097613,0.007622699060495987,-9.686122217240843e-05,-0.004834143471077185,0.008093669350712953
5.858585858585858,2.8354430379746836,0.008306552945024276,0.007638502807789249,-3.502545920393256e-05,-0.004783516725844057,0.007993722495049165
5.959595959595959,2.8354430379746836,0.008292451477199717,0.007719629381106183,1.0080487492230336e-05,-0.0048036242574917695,0.008021413969322712
6.0606060606060606,2.8354430379746836,0.00840742896566358,0.00733707394237561,-0.00011011084685058564,-0.004723350872411757,0.007928931898938497
6.161616161616162,2.8354430379746836,0.008388353303502596,0.007586372235275475,1.4691354474733533e-05,-0.004792417661633422,0.008017542749674431
6.262626262626262,2.8354430379746836,0.008569414259927476,0.007674419499901696,-1.3220997715177393e-06,-0.004873150127948751,0.008158817363039824
6.363636363636363,2.8354430379746836,0.008604699446296335,0.0076833869283412905,5.6724318340836637e-05,-0.004886425912391288,0.00818362419399823
6.4646464646464645,2.8354430379746836,0.00850191567457628,0.007611111427659748,-4.7446615184677145e-05,-0.004833908130670808,0.00809378238513793
6.565656565656566,2.8354430379746836,0.00852534657444787,0.0077288037698429604,3.1228936968477055e-05,-0.004876245103287249,0.008156478218133784
6.666666666666667,2.8354430379746836,0.00845842453935625,0.007497355280855585,-3.39046757235907e-05,-0.004786733946063551,0.008021403654511088
6.767676767676767,2.8354430379746836,0.00859532597698506,0.007868116768356961,-0.00014589327626086642,-0.004939032823602606,0.008259643831685372
6.8686868686868685,2.8354430379746836,0.008559498304905518,0.007753109236903365,-7.73678873158721e-05,-0.004893782262542665,0.008187242885732547
6.96969696969697,2.8354430379746836,0.008647776905512003,0.007757114664132052,-5.245832502221827e-05,-0.0049214674708932165,0.008239134171847308
7.070707070707071,2.8354430379746836,0.008504730663320786,0.007760798067524298,6.880009462777416e-06,-0.004879658619253525,0.008158251957827347
7.171717171717171,2.8354430379746836,0.008736091218922543,0.007783100638519658,1.9335051773997938e-05,-0.004955757557232661,0.008300794523609168
7.2727272727272725,2.8354430379746836,0.008665396996681821,0.007954362551368704,-1.2886472639205666e-05,-0.004985927864415158,0.008332693293833736
7.373737373737374,2.8354430379746836,0.00865100936127333,0.007841159829992866,-6.963598448359121e-06,-0.004947650757379859,0.008275865443017661
7.474747474747475,2.8354430379746836,0.008653360619420368,0.007788227736063963,-3.128925661016965e-05,-0.0049324765066452985,0.008255043012906449
7.575757575757575,2.8354430379746836,0.008838936882840353,0.007731791826956059,-1.8241720617941723e-05,-0.004971218612938924,0.00834071869838612
7.6767676767676765,2.8354430379746836,0.008831794102537907,0.007828250285207502,5.5792237934045735e-06,-0.0049980133163236235,0.008375242580284036
7.777777777777778,2.8354430379746836,0.008821981091133012,0.008032071007870305,-5.307481172905443e-05,-0.005056215629700995,0.008455246140747755
7.878787878787879,2.8354430379746836,0.008912496664679222,0.007835096651598598,2.0670461662603295e-05,-0.0050242779948833464,0.00842569554202821
7.979797979797979,2.8354430379746836,0.008898321173429077,0.008057543389484629,3.676614284640695e-05,-0.0050867593688741115,0.008509381380466417
8.080808080808081,2.8354430379746836,0.00893152230789911,0.00814062680365832,3.615505320941517e-05,-0.0051216447334672295,0.008563739087536574
8.181818181818182,2.8354430379746836,0.008861903702696449,0.00823325942903122,6.302330272731074e-05,-0.0051285489395183,0.00856559756539287
8.282828282828282,2.8354430379746836,0.009088886040915779,0.008089007995551787,-1.459896330465917e-06,-0.005153368210940269,0.008632487147695012
8.383838383838384,2.8354430379746836,0.00905431475905336,0.008271427199675815,-4.585552528198868e-05,-0.005197722587618752,0.00868972534034793
8.484848484848484,2.8354430379746836,0.009196770326867066,0.008170238814852297,-8.889548307526192e-05,-0.005210102742515808,0.008730251088127078
8.585858585858587,2.8354430379746836,0.009229145206426105,0.008316031669968377,-6.75772356570984e-05,-0.005263553062918344,0.00880893524792729
8.686868686868687,2.8354430379746836,0.00958479957136276,0.008500422537145651,-2.6649118103401575e-05,-0.005425566632552523,0.009091361304516533
8.787878787878787,2.8354430379746836,0.009283484409651035,0.008280595853626657,2.2639082795070856e-05,-0.005269224078983308,0.008824970569343454
8.88888888888889,2.8354430379746836,0.00938374410812857,0.008524498595278622,-1.3909900414452442e-05,-0.005372472811022157,0.008985020688653833
8.98989898989899,2.8354430379746836,0.009741041098260463,0.008590931511098448,-0.00014902790095088034,-0.005499591782807674,0.009223556631268564
9.09090909090909,2.8354430379746836,0.009570444431247554,0.008539201299628787,-1.2554073508330947e-05,-0.005432893719262901,0.00909878490437762
9.191919191919192,2.8354430379746836,0.009670680777141977,0.0086589259584636,-4.071608459316008e-05,-0.005498882020681673,0.009206863202468163
9.292929292929292,2.8354430379746836,0.00964855519286396,0.008725933703427951,-9.541556244727547e-05,-0.0055123466688875725,0.009223404780678169
9.393939393939394,2.8354430379746836,0.009961109549478259,0.00873902304472745,1.1824937964648768e-05,-0.005610039778261712,0.009409797065639238
9.494949494949495,2.8354430379746836,0.00985427671279586,0.008870414134039084,-9.712156898959674e-05,-0.005617407254050483,0.009402542145892437
9.595959595959595,2.8354430379746836,0.009982131485942198,0.008973020489758446,-4.92921052425873e-07,-0.005686545592710192,0.009517782099121345
9.696969696969697,2.8354430379746836,0.010039977628153084,0.00921614015694453,2.646514128833174e-05,-0.005776835335529284,0.009654566297028771
9.797979797979798,2.8354430379746836,0.010161654809377118,0.00930221153122958,3.1398711940544664e-05,-0.00583915990218201,0.00976050525996733
9.8989898989899,2.8354430379746836,0.010433785121146694,0.009164838143397433,2.7505909123594567e-06,-0.005879586979363237,0.009860740387409452
10.0,2.8354430379746836,0.010359433346359474,0.009334739323831257,-3.815110719743358e-05,-0.0059082518010572195,0.009887212660381936
0.0,2.9367088607594938,0.010483425880645495,0.009401101393166321,8.219905844567105e-06,-0.005965358182143545,0.009986359629436822
0.10101010101010101,2.9367088607594938,0.010044175289484758,0.009296702956876644,1.4801874586614276e-05,-0.0058022634739084205,0.0096921146447836
0.20202020202020202,2.9367088607594938,0.010168559580146924,0.009016512073491405,5.00049352804016e-05,-0.005755521496091498,0.009644669779865965
0.30303030303030304,2.9367088607594938,0.010225452058999971,0.009181764246875153,5.18031259865533e-05,-0.0058221648917625365,0.009746026116537226
0.40404040404040403,2.9367088607594938,0.009954473718108094,0.008967681547129626,1.0849160683565788e-05,-0.005676646579571316,0.009499613790824962
0.5050505050505051,2.9367088607594938,0.0096281046560166,0.008890698294673295,-5.231490026380722e-06,-0.005555640885206968,0.009281402043516703
0.6060606060606061,2.9367088607594938,0.009832486533571546,0.008783276056578315,2.342677940976e-05,-0.005584728777044958,0.009352215385349109
0.7070707070707071,2.9367088607594938,0.009524812340956318,0.00858181948241032,-1.5301793411982095e-05,-0.005431989547009991,0.00909011320500657
0.8080808080808081,2.9367088607594938,0.009559303103816794,0.008614758390740438,-4.2278881009706644e-06,-0.00545221844836717,0.009123776902322344
0.9090909090909091,2.9367088607594938,0.00946916591925411,0.008570002313729489,2.563402379185459e-05,-0.005411750469895079,0.009053244740761374
1.0101010101010102,2.9367088607594938,0.00946356495750009,0.008472473475237545,-2.5255874537030925e-05,-0.00538081152982129,0.009009105337791113
1.1111111111111112,2.9367088607594938,0.009463837254027779,0.008381028920556912,-3.0029483106432737e-05,-0.005353459852375407,0.008971726306684328
1.2121212121212122,2.9367088607594938,0.009366771823447282,0.008285088302873585,4.673569946280251e-05,-0.0052955580378962605,0.008875873116805044
1.3131313131313131,2.9367088607594938,0.00928237310865355,0.008360551435074933,-2.3427387303010617e-05,-0.005292877363118544,0.008857604616359956
1.4141414141414141,2.9367088607594938,0.009202848190405791,0.008125515495216314,1.9883866301631995e-05,-0.005198509105686632,0.00871433975765274
1.5151515151515151,2.9367088607594938,0.009183311007672782,0.008244226606119792,6.68689903392934e-05,-0.005228261284137771,0.0087524048604127
1.6161616161616161,2.9367088607594938,0.009025735778825426,0.00832454737832148,8.098608456234613e-05,-0.005205084947144072,0.008697500015850708
1.7171717171717171,2.9367088607594938,0.009184344460833938,0.008055955417203251,3.499397215224827e-05,-0.005172089963411157,0.008675575201723663
1.8181818181818181,2.9367088607594938,0.008956957037451757,0.008147953255263045,5.45111172364566e-05,-0.00513147308781444,0.008581623899697481
1.9191919191919191,2.9367088607594938,0.008897534736812852,0.008298464254998396,-1.7633384295213827e-05,-0.005158799697543374,0.00861369213647403
2.0202020202020203,2.9367088607594938,0.00893276531250668,0.008162589645179174,1.3122622871604022e-06,-0.0051286064873057565,0.008573661607931762
2.121212121212121,2.9367088607594938,0.008859350290871395,0.00782461452881744,1.7495073729464877e-05,-0.0050051894459066494,0.008390029638322092
2.2222222222222223,2.9367088607594938,0.00886528183379748,0.007881566128945666,1.2079360089915123e-05,-0.0050240543888229435,0.00841667626475013
2.323232323232323,2.9367088607594938,0.008940003539505656,0.007882325007750777,0.00011988568312484222,-0.00504669856417693,0.008463439908005254
2.4242424242424243,2.9367088607594938,0.008724275088019501,0.008067992588927854,-3.953216766638432e-06,-0.005037680303084206,0.008415351469563919
2.525252525252525,2.9367088607594938,0.008714254328673612,0.00789717787606957,-4.6606948823559164e-05,-0.004983429661422955,0.008336194997916055
2.6262626262626263,2.9367088607594938,0.008723218702277533,0.007733314624955323,9.145036243619203e-05,-0.004936959998169856,0.008274321383393015
2.727272727272727,2.9367088607594938,0.008795457085251014,0.007731917942124431,8.737821625026747e-05,-0.0049582125082126335,0.00831623549532031
2.8282828282828283,2.9367088607594938,0.008443823346225269,0.007787744278018527,6.812704071214e-07,-0.004869470287273138,0.008135648596472946
2.929292929292929,2.9367088607594938,0.008504029354256057,0.007727415334983541,2.3376074698580974e-05,-0.004869433406771879,0.008143643871066806
3.0303030303030303,2.9367088607594938,0.00862593196789168,0.007863465905311945,-1.6316048602445234e-06,-0.004946819361961087,0.008271099347368867
3.131313131313131,2.9367088607594938,0.008571719370276456,0.007705888604084011,8.41588941153985e-05,-0.00488328239230814,0.008174571896245155
3.2323232323232323,2.9367088607594938,0.00838718997797989,0.0076173058345328885,-3.0106157334320288e-05,-0.004801348743753834,0.008030145197383508
3.3333333333333335,2.9367088607594938,0.008412407411104534,0.007920643521211412,-3.711659383321626e-05,-0.004899915279694784,0.008177875329605616
3.4343434343434343,2.9367088607594938,0.008578196248344709,0.007502780941264721,-5.7408483969536976e-05,-0.004824293156882828,0.008094858405636644
3.5353535353535355,2.9367088607594938,0.008548969511320465,0.007732672249584368,-4.599490972591588e-06,-0.004884492528271449,0.008171461557652955
3.6363636363636362,2.9367088607594938,0.008170441803197063,0.007664951833987837,4.286720458371815e-05,-0.004750618091155469,0.007930137185734168
3.7373737373737375,2.9367088607594938,0.008404750599726297,0.007704190268295082,-1.8752229470928695e-05,-0.004832682260406414,0.008077353371876459
3.8383838383838382,2.9367088607594938,0.008457699991008646,0.007594776974012822,4.003406419747262e-05,-0.00481574308950644,0.00806125235040875
3.9393939393939394,2.9367088607594938,0.008292946628719492,0.0076560077731516515,-2.021139989385714e-05,-0.004784686320561342,0.007993608725700633
4.040404040404041,2.9367088607594938,0.008266334005184643,0.007737842445883601,-2.6232249229806093e-05,-0.004801252935320473,0.008015295244600795
4.141414141414141,2.9367088607594938,0.008554191010969074,0.007773925721053303,4.927797494440799e-05,-0.0048984350196067125,0.008192419935651897
4.242424242424242,2.9367088607594938,0.008456021655939897,0.007488378397346481,2.2872175275667143e-05,-0.004783320015985914,0.008016220604558059
4.343434343434343,2.9367088607594938,0.008389237227475027,0.007576300966168793,-0.00012193587147201145,-0.0047896614580931465,0.00801653644332387
4.444444444444445,2.9367088607594938,0.008267480064095951,0.007481793303577919,-9.531655866384898e-06,-0.004724782010302161,0.007903996028849015
4.545454545454545,2.9367088607594938,0.008366779598697905,0.007591891812638874,4.236119538814119e-05,-0.004787601423401033,0.0080078411589589
4.646464646464646,2.9367088607594938,0.008277274595587698,0.007471342703083037,1.3369256783196952e-05,-0.00472458518960122,0.007905214581375745
4.747474747474747,2.9367088607594938,0.008458663494249875,0.007551497973952045,2.5748920118933517e-05,-0.004803048440460576,0.008043663253832123
4.848484848484849,2.9367088607594938,0.008323642005712017,0.0073950188577979435,3.981903780523135e-05,-0.004715598259052988,0.007900670048543761
4.94949494949495,2.9367088607594938,0.00836838470217269,0.007552246988573703,0.00011106871095967011,-0.0047761895072239175,0.007993947567343137
5.05050505050505,2.9367088607594938,0.00827080378559206,0.0075058810521138495,-6.071511806486681e-05,-0.004733005451311773,0.00791680713323898
5.151515151515151,2.9367088607594938,0.008421863495060272,0.007672828862362241,-6.778028807731714e-06,-0.0048284077072267536,0.008073457004640456
5.252525252525253,2.9367088607594938,0.008319324077296148,0.007580557154536895,3.598516355752918e-05,-0.004769964369549913,0.007975886973698307
5.353535353535354,2.9367088607594938,0.008291889725446134,0.007544906897774433,6.381730424559061e-05,-0.004751038986966169,0.007945548267734796
5.454545454545454,2.9367088607594938,0.008434179816177556,0.0075975839659538635,-2.329125390052101e-05,-0.004809529134639425,0.008048658857318938
5.555555555555555,2.9367088607594938,0.008308308186085323,0.007677177897345097,-1.622339927228142e-06,-0.004795645825029125,0.008011410194708008
5.656565656565657,2.9367088607594938,0.008570539090058421,0.007407298576069236,-1.364870958740826e-05,-0.004793351299838297,0.008052218908669926
5.757575757575758,2.9367088607594938,0.008376628522721726,0.007602913813946165,-4.6909852184707106e-05,-0.004793862701000367,0.008018230525681342
5.858585858585858,2.9367088607594938,0.008598665551542472,0.007719287642330109,3.112745952355248e-05,-0.004895385958161774,0.008194619270958919
5.959595959595959,2.9367088607594938,0.008378028618658476,0.007620492650457367,-3.1663038445426243e-05,-0.004799556380734753,0.008026305121345535
6.0606060606060606,2.9367088607594938,0.008465078460600458,0.007683167800199293,1.2875271889809596e-05,-0.004844473878239925,0.008102499605268347
6.161616161616162,2.9367088607594938,0.008662725737072021,0.00749859312957113,1.1773132509488315e-05,-0.004848395659992945,0.008143333239108009
6.262626262626262,2.9367088607594938,0.008426490070156348,0.007589894937030335,-8.146707348577549e-05,-0.004804915502156005,0.008042137551010502
6.363636363636363,2.9367088607594938,0.008533412658926293,0.0076275410864284215,3.102342248989994e-05,-0.004848286123606414,0.008118648060329837
6.4646464646464645,2.9367088607594938,0.008533161289947465,0.007741598688225733,0.00014301258083070645,-0.0048824279934519595,0.008169959571255414
6.565656565656566,2.9367088607594938,0.008392018358451912,0.0077406118124234355,0.0001230445005661502,-0.004839789051262604,0.0080888260440607
6.666666666666667,2.9367088607594938,0.008354177066676946,0.007767458045043419,2.521771759931945e-05,-0.0048364905335161095,0.008076934249854114
6.767676767676767,2.9367088607594938,0.008520900796082356,0.0075427043839208134,3.483749900895163e-05,-0.004819081554000951,0.008076580028969072
6.8686868686868685,2.9367088607594938,0.008571028120353893,0.007881550342264496,-2.5146341818820596e-05,-0.004935773538785517,0.00824804620728652
6.96969696969697,2.9367088607594938,0.008609459006447762,0.0076559658851248396,3.564927850657211e-05,-0.00487962746747178,0.00817475909053772
7.070707070707071,2.9367088607594938,0.008702330740906247,0.007728107165238256,-3.573269287202223e-06,-0.00492913137184335,0.008258431717536827
7.171717171717171,2.9367088607594938,0.008580512176069033,0.007733292265638518,3.205076408204698e-05,-0.0048941413325122645,0.008190022697006182
7.2727272727272725,2.9367088607594938,0.008663681347928335,0.0077354494446304186,0.00012293264938439028,-0.004919739237767625,0.008241627317856662
7.373737373737374,2.9367088607594938,0.00860341411857611,0.007988561155602132,6.158808650233781e-05,-0.004977592582253472,0.00831374303647226
7.474747474747475,2.9367088607594938,0.008703606431033057,0.00793434923343127,-4.1023405352776664e-05,-0.004991386699339298,0.00834591267684829
7.575757575757575,2.9367088607594938,0.008809367560811663,0.007914574422216318,6.509610972069656e-06,-0.0050171825949083945,0.008397807872217873
7.6767676767676765,2.9367088607594938,0.008781333637723807,0.008032818577954369,-0.00010598723512069921,-0.005044245664703452,0.008434028376822706
7.777777777777778,2.9367088607594938,0.008991306845960332,0.00781469026463894,-1.2466997996797438e-06,-0.005041799133179782,0.008464556061467683
7.878787878787879,2.9367088607594938,0.008737669090774726,0.007909711606686432,1.1604048187484335e-06,-0.004994214209238347,0.008354517356362483
7.979797979797979,2.9367088607594938,0.00888069915644538,0.00792212010653568,2.2006904639639456e-05,-0.005040845778894318,0.008442410322523516
8.080808080808081,2.9367088607594938,0.008652069652660506,0.00812081219790709,-1.4732414167231288e-06,-0.005031864555170278,0.00839905195644241
8.181818181818182,2.9367088607594938,0.0089380997324923,0.007902879225080586,4.0066972942394e-05,-0.0050522936872718655,0.008468365856146026
8.282828282828282,2.9367088607594938,0.00924472665159711,0.008049778223613345,-5.569485791383935e-05,-0.005188351462563136,0.00870948946726611
8.383838383838384,2.9367088607594938,0.009153525968313458,0.008158845491229288,0.00010193748078170597,-0.005193711437862823,0.008700733709112193
8.484848484848484,2.9367088607594938,0.009040587185262423,0.008240471595374966,-1.5495611165780453e-05,-0.005184317634191217,0.00866831051616998
8.585858585858587,2.9367088607594938,0.009234749569836326,0.008498174842719268,-1.2911017456053132e-05,-0.005319877323766678,0.008889407116615736
8.686868686868687,2.9367088607594938,0.009348326174404587,0.008439383637016379,-1.0467095914716085e-05,-0.005336312943426289,0.00892864021933499
8.787878787878787,2.9367088607594938,0.009340329520670378,0.008465812393897576,3.111464175509695e-05,-0.005341842574370386,0.00893538818334113
8.88888888888889,2.9367088607594938,0.009581922989205363,0.008443177710769856,-1.7645694925994119e-06,-0.005407530209992566,0.009066345943049363
8.98989898989899,2.9367088607594938,0.009489260029639474,0.00825697073233173,-9.782822709112757e-06,-0.00532386922859136,0.008937078177980663
9.09090909090909,2.9367088607594938,0.009548149994332912,0.00873089369475969,-6.602361903658241e-05,-0.005483713106727781,0.009167598802093446
9.191919191919192,2.9367088607594938,0.009578865790243881,0.008629550276899215,-1.9027829585358754e-05,-0.005462524820142928,0.009141312271843281
9.292929292929292,2.9367088607594938,0.009621983369216878,0.00866509723611667,7.683638820321408e-05,-0.005486124181600064,0.009181980399779644
9.393939393939394,2.9367088607594938,0.009773350710093857,0.0089559169941637,8.962819377697111e-06,-0.005618780311277266,0.009391366066275152
9.494949494949495,2.9367088607594938,0.009944993825998987,0.008905125635920278,-2.742305430882981e-05,-0.005655035838575779,0.009468104424510375
9.595959595959595,2.9367088607594938,0.010008204958386483,0.008868916264416679,-3.744522724169575e-05,-0.005663136366840948,0.009490211636016687
9.696969696969697,2.9367088607594938,0.010117523472100995,0.009111766315935422,-2.4935234955719012e-05,-0.005768786936410925,0.009654114269511264
9.797979797979798,2.9367088607594938,0.010108060635991937,0.009325027164985289,-4.2901341914008805e-05,-0.005829926340293167,0.00974046215577444
9.8989898989899,2.9367088607594938,0.010387982983195968,0.009303703322871905,3.3659019343078365e-05,-0.005907505891820362,0.009890691228081028
10.0,2.9367088607594938,0.010409230899816088,0.009283949987188381,-3.335809683568233e-06,-0.00590795426610134,0.009894699065367852
0.0,3.0379746835443036,0.01040832070955979,0.009419503792827945,4.652688126500511e-05,-0.005948347350716321,0.009951154181677817
0.10101010101010101,3.0379746835443036,0.01018211907812926,0.00906909139654583,-0.00014837044378981104,-0.005775363142402527,0.00967716076728135
0.20202020202020202,3.0379746835443036,0.010219972320487611,0.00905397647970887,2.7472945192638124e-05,-0.005782184640058944,0.009689850339496297
0.30303030303030304,3.0379746835443036,0.01010326804315528,0.009175603391735123,1.6247180282884157e-05,-0.005783661430467121,0.009672896884722827
0.40404040404040403,3.0379746835443036,0.009815257694406242,0.009102532316895583,5.334547321383384e-05,-0.005675337003390547,0.009479462803570452
0.5050505050505051,3.0379746835443036,0.009840680509818964,0.008768332111167773,-3.968479592264425e-05,-0.00558270378629602,0.00935098982178681
0.6060606060606061,3.0379746835443036,0.009797251800750455,0.008896424196156275,1.5609679267372428e-05,-0.005608102799072019,0.009379377875717096
0.7070707070707071,3.0379746835443036,0.009538347957539514,0.008838499089535398,-8.457267900948936e-05,-0.0055130541141224735,0.009209556221150723
0.8080808080808081,3.0379746835443036,0.00929742754891952,0.008712413732136224,-5.4143887953785444e-05,-0.0054029523843167225,0.009019649178232137
0.9090909090909091,3.0379746835443036,0.009484909184187236,0.008689858435467247,8.694113169527757e-05,-0.005452430285896344,0.00911467498367505
1.0101010101010102,3.0379746835443036,0.00960893921992354,0.008645881606067662,1.3715498987053769e-05,-0.005476446247797361,0.009165467536776412
1.1111111111111112,3.0379746835443036,0.009489235817841654,0.008580142557260039,-1.9523207568968848e-05,-0.005420813512530508,0.009068990577780732
1.2121212121212122,3.0379746835443036,0.009497172327609934,0.00826583303856997,-8.03592965064936e-05,-0.005328901609853971,0.008946374131059419
1.3131313131313131,3.0379746835443036,0.009329649426634955,0.008461783705652037,7.873534621877259e-05,-0.0053374299396860975,0.008928452507105323
1.4141414141414141,3.0379746835443036,0.009100455880449937,0.008240220244765905,4.8080639879417946e-05,-0.005202202837564753,0.00870268357320757
1.5151515151515151,3.0379746835443036,0.009100070812070843,0.008202625339448056,-6.314176576507272e-06,-0.00519080884545567,0.008686195911713747
1.6161616161616161,3.0379746835443036,0.00907425451171144,0.008127931864299685,6.144794240501668e-05,-0.005160655912803337,0.008640704629391425
1.7171717171717171,3.0379746835443036,0.009158360963661636,0.00809088519307786,3.0452805295730767e-05,-0.005174773847021848,0.008674187786449333
1.8181818181818181,3.0379746835443036,0.00902482824021696,0.00801805802008203,-5.9546024897255924e-05,-0.005112865878089697,0.008566552393742077
1.9191919191919191,3.0379746835443036,0.00896079723705038,0.008152781809520504,7.909631899252886e-05,-0.005134073713971264,0.008586447596485216
2.0202020202020203,3.0379746835443036,0.008848962269078223,0.007986868805967813,7.203698476288621e-05,-0.00505074932251381,0.008451879899332807
2.121212121212121,3.0379746835443036,0.008990042957007062,0.00801308051175326,-3.2413660365359186e-05,-0.005100937040628097,0.008543743065787328
2.2222222222222223,3.0379746835443036,0.008762058449734272,0.007945297423429783,8.263172283305347e-05,-0.005012206761949216,0.008384792364964078
2.323232323232323,3.0379746835443036,0.008758929810069016,0.007873925282409227,-1.0371896654680834e-05,-0.004989856527743472,0.008351689327378576
2.4242424242424243,3.0379746835443036,0.008674557580153475,0.007923400934665013,3.323935555491018e-05,-0.004979387554445547,0.008324635037569401
2.525252525252525,3.0379746835443036,0.008728883120021808,0.007993485563158213,1.5782858105169155e-05,-0.005016710604954006,0.008385449186827178
2.6262626262626263,3.0379746835443036,0.008634888061957344,0.007691633221619028,-8.941687175690249e-05,-0.004897956385072911,0.008205492532870813
2.727272727272727,3.0379746835443036,0.008598083606349212,0.00783240513701207,5.603450113528269e-05,-0.004929146623008384,0.008242533428575692
2.8282828282828283,3.0379746835443036,0.008523114907413363,0.007735339613162609,-9.422528657886075e-06,-0.004877536356172792,0.008157821071660135
2.929292929292929,3.0379746835443036,0.008522586283468333,0.0077752365333202565,1.2608274534546011e-05,-0.0048893468450365764,0.008174602912949575
3.0303030303030303,3.0379746835443036,0.008508871514820616,0.007684538202963492,7.5576845013119835e-06,-0.004858022915335232,0.008128126782018675
3.131313131313131,3.0379746835443036,0.00862946268842495,0.007830765161053724,6.637963390153902e-05,-0.004938068354843603,0.008259929314876171
3.2323232323232323,3.0379746835443036,0.008556618576238802,0.007647801155930414,4.385114412567767e-06,-0.004861325919650764,0.008140351603546127
3.3333333333333335,3.0379746835443036,0.008357680837423935,0.007734552141356417,5.457853589647235e-05,-0.004827669893634106,0.008064746991659155
3.4343434343434343,3.0379746835443036,0.008426083595113291,0.007576038376058534,-2.046469330921634e-05,-0.004800636591351547,0.008034934098168453
3.5353535353535355,3.0379746835443036,0.00865822351551493,0.007777235521036315,-9.291578327712502e-05,-0.004930637710965374,0.008254640110186276
3.6363636363636362,3.0379746835443036,0.008560847233832587,0.007582120724454926,4.6962797644367516e-05,-0.004842890387486254,0.008116273733911456
3.7373737373737375,3.0379746835443036,0.008615662404044325,0.007616549624607948,-3.701938090451486e-05,-0.004869663608595682,0.008162350023062804
3.8383838383838382,3.0379746835443036,0.008409845096901706,0.007534400844188793,-3.2818992675717495e-05,-0.0047832737823271495,0.008008294318769885
3.9393939393939394,3.0379746835443036,0.008503112254540278,0.007566479356722544,7.446226305383995e-06,-0.004820877483378847,0.008075646776946508
4.040404040404041,3.0379746835443036,0.00833721347544175,0.007598782878390501,-4.3773316143320645e-05,-0.0047807989061496746,0.007993979176039511
4.141414141414141,3.0379746835443036,0.008448862200365918,0.007593077608925606,-8.32798048494061e-05,-0.004812581942787457,0.008056428503942075
4.242424242424242,3.0379746835443036,0.008421513305927249,0.007675444001686059,-1.6723947774134926e-05,-0.004829087192283993,0.008074423339602465
4.343434343434343,3.0379746835443036,0.008384819569798684,0.007705114083714804,-4.280360485543314e-05,-0.004826980096054046,0.008066813952871465
4.444444444444445,3.0379746835443036,0.00844787599776775,0.007550483833654084,4.218659901713322e-05,-0.00479950794942655,0.008037176305984724
4.545454545454545,3.0379746835443036,0.00847440874821494,0.0075328382015501915,-1.3084709632441075e-05,-0.004802174084929539,0.00804508661714277
4.646464646464646,3.0379746835443036,0.008221915804232668,0.007582966531873743,2.522833205736698e-05,-0.004741464700831924,0.007921911256145407
4.747474747474747,3.0379746835443036,0.008231112154314936,0.007538341906865468,2.0122306601981052e-05,-0.004730836218354121,0.007907596539429799
4.848484848484849,3.0379746835443036,0.008392707895674575,0.00754399255470277,-7.87198783701784e-06,-0.004781010135113203,0.008002189045089009
4.94949494949495,3.0379746835443036,0.008453872293447278,0.0076855143657541,8.609220867747862e-05,-0.0048418159977604135,0.008098454572804214
5.05050505050505,3.0379746835443036,0.008354248514001197,0.007551067042799012,9.337105020256071e-05,-0.004771594667040063,0.007984656884059412
5.151515151515151,3.0379746835443036,0.008519412024925848,0.007509208908294141,-0.00010445803270029384,-0.004808586279965996,0.008063949990522058
5.252525252525253,3.0379746835443036,0.008492864742664552,0.007395379311096371,-6.52306219429481e-05,-0.004766473216128276,0.008001574569074691
5.353535353535354,3.0379746835443036,0.008509218603353302,0.007411116220296471,-7.408215095271706e-05,-0.004776100447094932,0.008017799034167954
5.454545454545454,3.0379746835443036,0.008385192022650022,0.007613561902612433,-0.00010435628105330182,-0.004799626177578736,0.008029275326707445
5.555555555555555,3.0379746835443036,0.00839214929656376,0.00754480004042598,3.929133653543172e-05,-0.004781084801096922,0.008002482148760632
5.656565656565657,3.0379746835443036,0.008430233613164993,0.007687721409053443,-7.024275923083666e-05,-0.00483538650666553,0.0080855064121042
5.757575757575758,3.0379746835443036,0.008520260089266278,0.007614740870746583,4.73675378815114e-07,-0.004840500288003858,0.008105525180970106
5.858585858585858,3.0379746835443036,0.008484551752856895,0.0076403310496526025,-9.648614502188607e-05,-0.004837464840752849,0.008097247774645362
5.959595959595959,3.0379746835443036,0.008588000022142765,0.007708308815713764,-4.454401637802507e-05,-0.0048888926513569585,0.0081840555598607
6.0606060606060606,3.0379746835443036,0.008337382489456539,0.007558014126713472,6.243758022988982e-05,-0.0047686189848510025,0.007977039866657666
6.161616161616162,3.0379746835443036,0.008473713532902414,0.0077552876651325485,-4.426210276293755e-05,-0.0048687003594104885,0.008138679202935125
6.262626262626262,3.0379746835443036,0.00855054367028679,0.007703679271738622,-3.3283396108071503e-06,-0.004876266882607623,0.00816013839208296
6.363636363636363,3.0379746835443036,0.008399554114431825,0.007633846607508877,4.641281066116396e-05,-0.00481002021658221,0.008044481220947761
6.4646464646464645,3.0379746835443036,0.008656253843232943,0.007635020212978602,-5.080973418107448e-05,-0.004887382216863463,0.008193981698575018
6.565656565656566,3.0379746835443036,0.00854911418748947,0.0076843902573489305,9.016302074495058e-05,-0.00487005133345152,0.008152721346740294
6.666666666666667,3.0379746835443036,0.008485023439679985,0.007769898705102446,-2.4777971906582633e-05,-0.004876476643434729,0.00815113598625452
6.767676767676767,3.0379746835443036,0.008454877218577182,0.00762030762707149,6.719211271687314e-05,-0.004822555453694601,0.008070862165703038
6.8686868686868685,3.0379746835443036,0.00858216158824891,0.00769573821642536,-4.59189833233492e-06,-0.004883369941402281,0.008175076670278439
6.96969696969697,3.0379746835443036,0.008564487429292953,0.007723180395785687,-3.2474152011647865e-05,-0.004886300347523592,0.008176554448552503
7.070707070707071,3.0379746835443036,0.008592645350725561,0.007972561662607796,-9.126560482319858e-05,-0.004969562104000007,0.008301499076415095
7.171717171717171,3.0379746835443036,0.008776301583219223,0.007888000784226985,1.94919762604873e-06,-0.004999290710233862,0.008367590063970042
7.2727272727272725,3.0379746835443036,0.008523583863018588,0.007844858667673961,-7.867193027271176e-05,-0.004910532759207765,0.008206433235948576
7.373737373737374,3.0379746835443036,0.008650938134423402,0.007726539156896607,-1.4568953778538672e-05,-0.004913243187396002,0.008227816385433481
7.474747474747475,3.0379746835443036,0.008661160293191585,0.00804124850556074,3.0767973238654327e-06,-0.005010722639625697,0.0083684443768563
7.575757575757575,3.0379746835443036,0.008994449012282213,0.007658968108240271,7.835025586427665e-05,-0.004996025136156745,0.008407741888825164
7.6767676767676765,3.0379746835443036,0.008813168565681031,0.007796581692568262,0.00013854558130117257,-0.004982925077474788,0.008354856204482891
7.777777777777778,3.0379746835443036,0.008748512164961648,0.007894791994254987,-4.1357688267711234e-05,-0.004992991247764991,0.008354738374514762
7.878787878787879,3.0379746835443036,0.008920794303214208,0.007890154437004943,-2.1233474846868564e-06,-0.005043284622065745,0.008452731914165236
7.979797979797979,3.0379746835443036,0.008989665816793134,0.008039498908329131,-4.836558400054997e-05,-0.00510874941753668,0.008554662083533126
8.080808080808081,3.0379746835443036,0.009061621717773667,0.00802259540040805,1.8632211042401634e-05,-0.005125265135454515,0.00858943198816383
8.181818181818182,3.0379746835443036,0.009121155023814144,0.008254708994117803,2.3026211156668874e-05,-0.005212759205379583,0.008720366950616164
8.282828282828282,3.0379746835443036,0.00907299939903775,0.008002658987478201,-1.5554332971660142e-05,-0.005122697515954786,0.008588042535556855
8.383838383838384,3.0379746835443036,0.00918100218337736,0.008250253549622128,-1.0958125132610273e-05,-0.005229376719899846,0.008752842344818856
8.484848484848484,3.0379746835443036,0.00915550332500859,0.008514579406331853,-2.947244788407621e-05,-0.005301024819402133,0.008852606927386177
8.585858585858587,3.0379746835443036,0.009186091261583538,0.00825869268542016,3.362935212636879e-06,-0.005233435184101108,0.008759292594537048
8.686868686868687,3.0379746835443036,0.009161354761844756,0.008498775389965834,3.2149291177784405e-05,-0.005298039045543176,0.008848864816659913
8.787878787878787,3.0379746835443036,0.009494935524482698,0.008415579921657675,6.596533622806271e-06,-0.005373154633842111,0.009003917359537907
8.88888888888889,3.0379746835443036,0.009488495865978929,0.008489217987444663,-1.074943113812147e-05,-0.005393314156027077,0.009030438123845373
8.98989898989899,3.0379746835443036,0.00961656306539107,0.008459660785990725,-8.285582046738795e-05,-0.005422867155414538,0.009094607171578839
9.09090909090909,3.0379746835443036,0.009514478030951044,0.008585032370042156,-3.7167332819766875e-05,-0.00542985312029796,0.009085709402585955
9.191919191919192,3.0379746835443036,0.009473087357094165,0.008577772803332136,1.4020384248878203e-06,-0.00541525804812789,0.00905867457979285
9.292929292929292,3.0379746835443036,0.00950622579103278,0.008572542917604599,2.0213519375752395e-05,-0.0054236306125912135,0.009075545054997964
9.393939393939394,3.0379746835443036,0.009831004618580313,0.009009799136856076,3.0451812379100756e-06,-0.005652241126630917,0.009447210339010836
9.494949494949495,3.0379746835443036,0.009952945107481322,0.008848962670602227,2.1201481309126902e-05,-0.005640572333425064,0.009449516678011732
9.595959595959595,3.0379746835443036,0.009880633210216545,0.008913873270045116,-1.2278872060245866e-05,-0.0056383519440784974,0.009434499952710097
9.696969696969697,3.0379746835443036,0.010007661541705995,0.00906020966487704,-5.4057488774684817e-05,-0.00572036136197491,0.009569636540546747
9.797979797979798,3.0379746835443036,0.010402967785621374,0.009146649448353791,3.167747565958462e-05,-0.005864885170192549,0.009835326416014025
9.8989898989899,3.0379746835443036,0.010438777431797597,0.009097441584618922,-3.078420855337469e-05,-0.005860865704924956,0.009837082532846427
10.0,3.0379746835443036,0.010657880673593792,0.009630490081586363,-3.231588023339093e-05,-0.0060865112265540465,0.010183284268577949
0.0,3.1392405063291138,0.010549875991484351,0.009374699188478976,-4.143804347756768e-05,-0.005977372553988999,0.01001439492673351
0.10101010101010101,3.1392405063291138,0.010168898749284332,0.009378878947956694,-3.228871840966397e-05,-0.005864333309172307,0.009797965573223114
0.20202020202020202,3.1392405063291138,0.010200768919300857,0.009259942105388793,5.433348042004667e-05,-0.005838213307406895,0.009764862574467443
0.30303030303030304,3.1392405063291138,0.010083044822765811,0.009110728654988229,4.175760488058942e-05,-0.005758132043326212,0.009634029023161647
0.40404040404040403,3.1392405063291138,0.009951099877103775,0.008933504302090767,2.179204276842385e-05,-0.005665381253758362,0.009483412834856006
0.5050505050505051,3.1392405063291138,0.009824121452019963,0.008820796878251817,1.8442605819763506e-05,-0.005593475499081534,0.009362919439202694
0.6060606060606061,3.1392405063291138,0.009852486839362113,0.008902481341601638,4.426827326651272e-06,-0.005626490454289125,0.009413508883087783
0.7070707070707071,3.1392405063291138,0.009715593030930373,0.008922453511934292,2.4726927313410043e-05,-0.005591413962859399,0.009344401089355352
0.8080808080808081,3.1392405063291138,0.00973871865766239,0.008607229664722195,2.1612309310551213e-06,-0.005503784496715376,0.009225165011018365
0.9090909090909091,3.1392405063291138,0.00940362473820114,0.008538411727428455,1.9586622530520343e-06,-0.005382610939688878,0.009002256650866867
1.0101010101010102,3.1392405063291138,0.009369579579838045,0.008229620297972872,5.041336878770692e-06,-0.005279759963343275,0.008854810314357415
1.1111111111111112,3.1392405063291138,0.009392254679180376,0.00854446593093798,-1.2504629554267452e-05,-0.005381016183035507,0.008998389577023036
1.2121212121212122,3.1392405063291138,0.009440837372639536,0.008534906355192318,-5.62569025536033e-05,-0.005392723118349555,0.009022575486838892
1.3131313131313131,3.1392405063291138,0.009064318004324648,0.008318666959546498,-1.7716740795347643e-05,-0.005214895489161344,0.008715502270247531
1.4141414141414141,3.1392405063291138,0.009121323339010909,0.008095440707479274,2.8191557258237545e-05,-0.005165029213947054,0.008654244723260944
1.5151515151515151,3.1392405063291138,0.00913592421364132,0.008405303318307794,3.789652600977185e-05,-0.005262368259584735,0.008793652792865812
1.6161616161616161,3.1392405063291138,0.009163485877638888,0.00821367447854784,2.1950629691872946e-05,-0.005213148106856019,0.00872751266237815
1.7171717171717171,3.1392405063291138,0.009255689413246563,0.00814852018203729,-7.296206955920116e-06,-0.005221262878585156,0.008754779003090418
1.8181818181818181,3.1392405063291138,0.009035564699101321,0.008074499149269034,-1.9680269679234444e-05,-0.005133019154511106,0.008595491167244446
1.9191919191919191,3.1392405063291138,0.009066764033573644,0.008143766382228305,-5.4138863813908216e-05,-0.005163159124740585,0.008642819322786282
2.0202020202020203,3.1392405063291138,0.008980581333228318,0.007876640173363666,3.467576639759168e-05,-0.005057166451977594,0.008482871036402422
2.121212121212121,3.1392405063291138,0.008844424791103325,0.007962508849703951,-1.5212530627583944e-05,-0.0050420800922421835,0.00843814438491425
2.2222222222222223,3.1392405063291138,0.008762327479164065,0.007842035334485518,-4.977149227827681e-05,-0.004981308844094875,0.008340794383020472
2.323232323232323,3.1392405063291138,0.008866660095248002,0.007846613719143877,3.5478138500785806e-05,-0.005013982144317564,0.008403423555355052
2.4242424242424243,3.1392405063291138,0.0088084120688475,0.007911366269273917,6.905707881321392e-05,-0.005015933501436425,0.008396759609175474
2.525252525252525,3.1392405063291138,0.008786841009395514,0.007757001831690212,4.828571495242226e-05,-0.004963152852325717,0.008320282751649357
2.6262626262626263,3.1392405063291138,0.008482398929510849,0.007657039385292564,3.6842874732820205e-05,-0.004841831494441023,0.008101564864550307
2.727272727272727,3.1392405063291138,0.00879275143039992,0.007904820758301108,1.236034453343721e-06,-0.005009271656610308,0.00838412484946428
2.8282828282828283,3.1392405063291138,0.008749717890555543,0.007806084426028692,-5.808059046464287e-05,-0.004966740694975271,0.008318749950440353
2.929292929292929,3.1392405063291138,0.008641340287492182,0.0077286138743225385,-0.00010681217519493982,-0.004910986248544416,0.00822513698768972
3.0303030303030303,3.1392405063291138,0.00852298239065447,0.007721744387623536,6.794275814321401e-05,-0.004873418033483402,0.00815279844185441
3.131313131313131,3.1392405063291138,0.008581819777334989,0.0078031380363732614,-2.866559946219665e-06,-0.004915487344112475,0.008220188211411458
3.2323232323232323,3.1392405063291138,0.00847223353200958,0.007724606070013802,-1.0113903597243617e-05,-0.004859051880607014,0.008124279676562337
3.3333333333333335,3.1392405063291138,0.008567901332944817,0.007651402027686062,3.305186576290657e-05,-0.004865791008189263,0.008148601468101082
3.4343434343434343,3.1392405063291138,0.008654723983474508,0.007568277059952205,-7.053163218628773e-05,-0.0048669003130280145,0.008166801089496177
3.5353535353535355,3.1392405063291138,0.008589397967527576,0.007806596331286543,2.229392674832618e-05,-0.004918798289644236,0.008226070272035856
3.6363636363636362,3.1392405063291138,0.008533402719263273,0.007561068875031531,2.0624625469588968e-05,-0.004828341478288441,0.008091251752905523
3.7373737373737375,3.1392405063291138,0.008496347794060295,0.0075945596881715925,3.27628817476109e-05,-0.004827272244669566,0.008083468467226152
3.8383838383838382,3.1392405063291138,0.008533635869750516,0.007853208284463677,-1.4721461015879431e-05,-0.004916053246264258,0.00821462426237401
3.9393939393939394,3.1392405063291138,0.00847432975572422,0.007689891885043323,1.960494761104523e-05,-0.004849266492230262,0.0081106827982973
4.040404040404041,3.1392405063291138,0.008484720254950949,0.007644409404912778,4.9891666953763e-05,-0.004838738897959117,0.008097793846164962
4.141414141414141,3.1392405063291138,0.008412867614100178,0.007802175321629776,2.5965247979174433e-05,-0.004864512880718986,0.008124877583155417
4.242424242424242,3.1392405063291138,0.008522933057235298,0.007612484593711075,-2.969385600790654e-05,-0.004840625295283911,0.008106309775195
4.343434343434343,3.1392405063291138,0.00843802495669533,0.007457226646100715,3.99545105897862e-05,-0.004768575480838813,0.007993185783049576
4.444444444444445,3.1392405063291138,0.008348530974478827,0.007553185768170895,-1.2117187036180824e-05,-0.0047705150227949165,0.007980665374355034
4.545454545454545,3.1392405063291138,0.008448164992124425,0.007397815239463989,-8.955905345733652e-06,-0.004753794069476524,0.007975051031302543
4.646464646464646,3.1392405063291138,0.008350091834139076,0.007418766626610737,2.5381617958724803e-05,-0.004730657538224944,0.007925697568669532
4.747474747474747,3.1392405063291138,0.008412533221601117,0.007479524734448358,-9.648582538076056e-05,-0.004767617386814843,0.007988753575554286
4.848484848484849,3.1392405063291138,0.008379474235832261,0.007669512622810807,-5.422463541156524e-05,-0.00481469605759292,0.008048561974008403
4.94949494949495,3.1392405063291138,0.00843299901140959,0.007393063576240191,-2.4584052919563832e-05,-0.004747818776294935,0.007964231078140349
5.05050505050505,3.1392405063291138,0.008315595400727472,0.00768546434476354,3.678122439360951e-05,-0.004800317923647304,0.008019372524135824
5.151515151515151,3.1392405063291138,0.008297157415760155,0.007564021250729543,4.331355961551082e-05,-0.004758353599946909,0.007956317731417814
5.252525252525253,3.1392405063291138,0.00830838462814273,0.007477543369749504,7.163665758378826e-07,-0.00473577839936767,0.007925692722134075
5.353535353535354,3.1392405063291138,0.008483482802303682,0.007525717492183171,6.715232924300012e-06,-0.004802760088346056,0.008047468210080847
5.454545454545454,3.1392405063291138,0.008348513352953398,0.007538030122797733,4.271073572376666e-06,-0.004765963042725339,0.00797422616482087
5.555555555555555,3.1392405063291138,0.008420203540188036,0.007736732077375717,7.526785055740119e-05,-0.004847080685269126,0.008101172002609668
5.656565656565657,3.1392405063291138,0.008234312415736602,0.007701092251929814,3.586718279508137e-06,-0.004780621400299925,0.007981075233421422
5.757575757575758,3.1392405063291138,0.008338584269246302,0.007615225514316887,-4.006532911359383e-06,-0.0047861429350689565,0.008001468348103166
5.858585858585858,3.1392405063291138,0.008501281731644028,0.00752640317768266,3.5650681427256946e-05,-0.004808305472798006,0.008058428813835465
5.959595959595959,3.1392405063291138,0.008611340609736038,0.007427703805748342,-8.229009864345748e-05,-0.004811713324645314,0.008086024887686784
6.0606060606060606,3.1392405063291138,0.008501606353517245,0.007518568721956255,7.01516030495705e-05,-0.00480605252264205,0.008056118069097276
6.161616161616162,3.1392405063291138,0.008304602486058877,0.007482311545499969,5.852184360735907e-05,-0.004736074209467653,0.007926162998052017
6.262626262626262,3.1392405063291138,0.00848158671035859,0.007814266648219327,6.29112438938768e-06,-0.004888756007573374,0.008168403452009898
6.363636363636363,3.1392405063291138,0.008368520027831073,0.007613138049097454,-1.0654019281246365e-05,-0.004794497423078558,0.008017583220440614
6.4646464646464645,3.1392405063291138,0.008448992073124046,0.007672984136873943,1.7996538556868865e-05,-0.004836592862999396,0.008089013666262267
6.565656565656566,3.1392405063291138,0.008638410721601835,0.007584839075816192,-3.9408552892624986e-05,-0.004866974939225408,0.008163064835530948
6.666666666666667,3.1392405063291138,0.008625087996823204,0.007769691245935442,2.6197385841522905e-06,-0.004918433772827593,0.008230795520170585
6.767676767676767,3.1392405063291138,0.008446680690634685,0.007528243756702628,-6.593170520328101e-05,-0.004792477334201194,0.008027779178888441
6.8686868686868685,3.1392405063291138,0.00868148435475128,0.007675534996126579,-6.183037473279969e-06,-0.004907105805263357,0.008224784847349715
6.96969696969697,3.1392405063291138,0.008722479054965504,0.007655649208841591,5.66002861086739e-05,-0.004913438479142129,0.008241600364858001
7.070707070707071,3.1392405063291138,0.008683547980690102,0.007637840914235786,3.711342412455227e-05,-0.004896416668477767,0.008211040953206095
7.171717171717171,3.1392405063291138,0.008689248720458561,0.007735865566385571,-6.807992520748241e-05,-0.00492753428605324,0.008254798849243645
7.2727272727272725,3.1392405063291138,0.008611326996403119,0.007826038742441078,4.063032521335731e-06,-0.004931209721653259,0.008246775482829038
7.373737373737374,3.1392405063291138,0.008805409750476799,0.008118519934431714,1.3665166777435138e-05,-0.005077178905472554,0.008482881139083636
7.474747474747475,3.1392405063291138,0.00866485754517673,0.007818516670394498,-8.722345127271548e-06,-0.0049450122646713685,0.008274228319172641
7.575757575757575,3.1392405063291138,0.008837739930899468,0.007964752902804398,3.43154764834303e-05,-0.005040747850111159,0.00843540477842427
7.6767676767676765,3.1392405063291138,0.008722319477412617,0.008018219272727492,-3.197760358831132e-05,-0.005022161625042033,0.008392633373161705
7.777777777777778,3.1392405063291138,0.008802554777670205,0.007939247721696133,-5.910528912081003e-05,-0.0050225407498099015,0.008404846360417563
7.878787878787879,3.1392405063291138,0.008941147655744655,0.007948061289521946,-2.981065871055376e-05,-0.00506676268357998,0.00848844368087694
7.979797979797979,3.1392405063291138,0.008910552467708313,0.007869185282171209,2.106241663768618e-05,-0.005033921324963856,0.008438279731450123
8.080808080808081,3.1392405063291138,0.008914963775974932,0.008043192153018772,-1.4243826039721556e-05,-0.005087446778698111,0.008512658874270747
8.181818181818182,3.1392405063291138,0.008902995277695608,0.008154256138888703,9.972018377892144e-05,-0.0051171754249752935,0.00855498372533733
8.282828282828282,3.1392405063291138,0.008953370263413104,0.00836430339746199,2.899493754342006e-05,-0.005195302098262529,0.008673997187270256
8.383838383838384,3.1392405063291138,0.00915162027834205,0.008254292320427379,5.498364848900982e-05,-0.0052217737796308285,0.008738101398578817
8.484848484848484,3.1392405063291138,0.009141425049592734,0.008273026813637384,1.7599683699598928e-05,-0.005224335558969035,0.008739696750628507
8.585858585858587,3.1392405063291138,0.009252546423032575,0.008209072763358641,-7.531981990687261e-06,-0.0052384857559173645,0.00877746172328422
8.686868686868687,3.1392405063291138,0.009288799200852156,0.008299295666782442,-1.8428405547596394e-05,-0.005276428460290379,0.008835758429222363
8.787878787878787,3.1392405063291138,0.009176677360947098,0.008405940468162051,-7.210098598281314e-05,-0.0052747853487327455,0.008817495937401432
8.88888888888889,3.1392405063291138,0.009336438266884768,0.008545047255541295,3.2796600646159304e-05,-0.005364445656727819,0.008967152991493537
8.98989898989899,3.1392405063291138,0.009370154484525956,0.008608577630497782,-2.8609447592933508e-05,-0.005393619634507121,0.009013665020171584
9.09090909090909,3.1392405063291138,0.009524886836369357,0.008436843556621195,2.257093277200233e-05,-0.005388519117897166,0.009030246212180073
9.191919191919192,3.1392405063291138,0.00971469221329714,0.008562516986080373,-2.7303983180504562e-05,-0.005483162759813254,0.009193038745028985
9.292929292929292,3.1392405063291138,0.00960695697035545,0.008695137643875894,2.8483151532559854e-05,-0.005490628384269403,0.009185187072125362
9.393939393939394,3.1392405063291138,0.009706984449720518,0.009038256875906604,1.8520148628723216e-05,-0.005623572397688136,0.009390550809334866
9.494949494949495,3.1392405063291138,0.010095551436491379,0.008780803191394628,-1.4739754505724304e-05,-0.005662906388365801,0.009506643203650056
9.595959595959595,3.1392405063291138,0.01005734977038223,0.009056881912303446,6.965195845198297e-05,-0.005734269504805702,0.009597068268074443
9.696969696969697,3.1392405063291138,0.01014813844861533,0.009180430115327069,0.00011748810707004343,-0.005798570569182719,0.009702687545850424
9.797979797979798,3.1392405063291138,0.010021081328775284,0.009299211247646964,8.927134803512502e-06,-0.005796087772926673,0.009680366093354513
9.8989898989899,3.1392405063291138,0.010244919285613508,0.009157748933610694,2.9251537649884735e-05,-0.005820800465767261,0.009747045962464389
10.0,3.1392405063291138,0.010379970309938995,0.009468027045181694,2.3664521124153743e-05,-0.0059543992065362065,0.009955458812606366
0.0,3.240506329113924,0.01056151803538301,0.009358099074542,6.761667987737271e-05,-0.005975885132977502,0.010014872210576675
0.10101010101010101,3.240506329113924,0.010374217502255739,0.009183596836242595,3.259910920021986e-05,-0.0058673443015495,0.009833280058470208
0.20202020202020202,3.240506329113924,0.01002588999726306,0.009330659230918184,-3.606460615652935e-05,-0.0058069647684543734,0.009697185717364446
0.30303030303030304,3.240506329113924,0.009946016881904784,0.009076685374722284,-2.900056425688291e-05,-0.005706810676988121,0.009541232956818942
0.40404040404040403,3.240506329113924,0.009856273154722567,0.00901152832160437,5.325525677793556e-05,-0.005660340442898081,0.009462673347392618
0.5050505050505051,3.240506329113924,0.009745904783252879,0.008888900551136192,-2.1545072866160118e-05,-0.005590441600316721,0.009346990276208578
0.6060606060606061,3.240506329113924,0.00978905254080789,0.008888489165484114,-3.784560176392934e-05,-0.0056032625118876,0.009371509948296424
0.7070707070707071,3.240506329113924,0.009652717910197636,0.00887637880595988,-4.794589262876714e-06,-0.005558729014847255,0.009288915547415367
0.8080808080808081,3.240506329113924,0.009731943202644264,0.008646324873431166,-2.314272221108591e-05,-0.005513480422822629,0.009237192024275554
0.9090909090909091,3.240506329113924,0.009581218516938082,0.008655414542395132,4.595328444474457e-05,-0.005470989917799964,0.009153844339822734
1.0101010101010102,3.240506329113924,0.009466111049927417,0.008705852647536587,2.922369886989413e-05,-0.005451589109239201,0.00910994636965656
1.1111111111111112,3.240506329113924,0.009500770375782026,0.00849366205901042,-6.1006352845420625e-05,-0.005398329730437734,0.009040009145964567
1.2121212121212122,3.240506329113924,0.00938145574106128,0.008238985647679154,-4.190248355331495e-05,-0.005286132416622131,0.008865900099459584
1.3131313131313131,3.240506329113924,0.009229668179052812,0.008395554375775086,-9.598305333770699e-05,-0.00528756676644837,0.00884373027313709
1.4141414141414141,3.240506329113924,0.009395330589295203,0.008162967963241214,6.281157020667205e-05,-0.005267489565760925,0.008844452279628576
1.5151515151515151,3.240506329113924,0.009135349264399828,0.008286768796820079,-1.0040101063872191e-05,-0.0052266354183659715,0.008742020272976249
1.6161616161616161,3.240506329113924,0.009010282478138086,0.008070973082795948,-3.0486729743499165e-05,-0.00512437666828021,0.008579442744822639
1.7171717171717171,3.240506329113924,0.00908308771670323,0.00824525912326165,0.00011778915970512141,-0.005198504051989464,0.008696895507820795
1.8181818181818181,3.240506329113924,0.009093305414273988,0.008089141811449629,3.07721150817756e-05,-0.005154734167717085,0.008635289360601765
1.9191919191919191,3.240506329113924,0.009084822823141207,0.008007565176041974,-9.158776563703393e-05,-0.005127716399754954,0.008598427755338403
2.0202020202020203,3.240506329113924,0.008920000096967995,0.00788390620248247,1.7594571831365712e-06,-0.005041171889835139,0.008449730406106998
2.121212121212121,3.240506329113924,0.00902832058413489,0.008067502175273382,-7.707952276618353e-05,-0.005128746827822481,0.008589353393874908
2.2222222222222223,3.240506329113924,0.008754453314714247,0.008070608840107898,8.404195892099815e-05,-0.005047518646446643,0.008434607325185457
2.323232323232323,3.240506329113924,0.008715238889085682,0.0077799169904970164,-4.095777606030651e-05,-0.00494854676387481,0.00828756265627458
2.4242424242424243,3.240506329113924,0.008771535309614348,0.007863955748750576,3.126147398292438e-05,-0.004990647317509478,0.008354974447715257
2.525252525252525,3.240506329113924,0.008737146525018826,0.007959185112739364,-5.754489980854642e-06,-0.005008899491327456,0.008375314313577312
2.6262626262626263,3.240506329113924,0.008542213139585468,0.007941996562195375,-4.2739104865549145e-05,-0.004945262910534252,0.008258811489624639
2.727272727272727,3.240506329113924,0.00865245312704973,0.00782506377384077,-2.0937475903816365e-05,-0.0049432550702671494,0.008269938681443009
2.8282828282828283,3.240506329113924,0.0085615371888831,0.007983096597374154,-1.1845750407269405e-05,-0.004963390135877176,0.008287496177023452
2.929292929292929,3.240506329113924,0.008596475792939814,0.00765913093399822,-9.21647314839214e-05,-0.00487668201808141,0.008169800001642939
3.0303030303030303,3.240506329113924,0.008560295093105094,0.007646474144812689,-5.827079733088524e-05,-0.004862030771375334,0.008142562881820305
3.131313131313131,3.240506329113924,0.00865673990624305,0.007776774225792559,-3.893431473284852e-05,-0.0049300542396106825,0.008252296590866248
3.2323232323232323,3.240506329113924,0.008560587535681985,0.007693362307118634,9.846699931295404e-06,-0.004876184952840185,0.008161621894167895
3.3333333333333335,3.240506329113924,0.008379403374476317,0.007765709755988047,6.556775020820241e-05,-0.004843533939139309,0.00809083010460022
3.4343434343434343,3.240506329113924,0.008732897581161574,0.007815746735859252,9.013945585584859e-05,-0.004964593295106248,0.00831382323615925
3.5353535353535355,3.240506329113924,0.008402238117365526,0.007525005512568067,3.328326941272329e-05,-0.004778173088980078,0.007999984282614139
3.6363636363636362,3.240506329113924,0.008511618479402884,0.0077349154426843755,-3.28545254518035e-05,-0.004873960176626178,0.008151267084652962
3.7373737373737375,3.240506329113924,0.008399366708813147,0.007594668949370279,-8.399936612767475e-05,-0.004798210697455028,0.008028643453434682
3.8383838383838382,3.240506329113924,0.008453010940391378,0.007712471856646282,-4.526573768415329e-05,-0.004849644839111298,0.008108523544842792
3.9393939393939394,3.240506329113924,0.008635264132752452,0.007608013152387926,1.85034703456204e-05,-0.004872983185542113,0.008170279971226735
4.040404040404041,3.240506329113924,0.008396944000669827,0.007548615276753613,-1.8172158430086017e-05,-0.004783667783227032,0.008006619265791786
4.141414141414141,3.240506329113924,0.008354136257617809,0.007520590787834587,-8.281531637026488e-06,-0.004762418113635719,0.007970134502055177
4.242424242424242,3.240506329113924,0.008439170739322458,0.00769257809051913,-3.3233948329493343e-06,-0.004839524648952476,0.00809174972731911
4.343434343434343,3.240506329113924,0.0083139196484222,0.007529123257213728,-1.4707298297488937e-05,-0.004752912871690778,0.007950665385555177
4.444444444444445,3.240506329113924,0.008427407116783631,0.007384474474841598,4.663286583907798e-05,-0.004743564477487568,0.007957776392381507
4.545454545454545,3.240506329113924,0.008311489272020186,0.007668703991295507,-9.919170928458889e-05,-0.004794057978994707,0.008011307062935466
4.646464646464646,3.240506329113924,0.008468166971933835,0.007584367572654554,-1.8080770836515708e-05,-0.004815760363376516,0.008062739801255393
4.747474747474747,3.240506329113924,0.008391638437845295,0.007630603813365871,-3.965530798336078e-06,-0.004806672675363349,0.008038189419276582
4.848484848484849,3.240506329113924,0.008547038773262024,0.007351206266664379,-1.3191150120099504e-05,-0.00476947351197792,0.008016332228306612
4.94949494949495,3.240506329113924,0.008347167396184966,0.00741660241330954,-3.3274178174075774e-05,-0.004729130942848352,0.007923187146281322
5.05050505050505,3.240506329113924,0.008464096771497431,0.007607219487924163,2.230537146216709e-05,-0.004821394877826478,0.008069942575737657
5.151515151515151,3.240506329113924,0.008383046737790915,0.007479377247355566,8.30783588435533e-05,-0.004758727195543945,0.007971028391821207
5.252525252525253,3.240506329113924,0.008551328594804022,0.007390231432916353,-1.4590167758126227e-05,-0.004782468008316112,0.008033995432712564
5.353535353535354,3.240506329113924,0.00850650381605564,0.007526536599767546,-6.524147394737486e-06,-0.004809912124746956,0.008061325929777445
5.454545454545454,3.240506329113924,0.008392978656586348,0.007761251256983735,4.645850677361547e-05,-0.004846268974071025,0.008096021914139809
5.555555555555555,3.240506329113924,0.00834478152025814,0.007511025728937711,4.572930247787346e-05,-0.004756742174758755,0.007961111161634317
5.656565656565657,3.240506329113924,0.008541478810705775,0.0074256351022609895,2.969308788051976e-05,-0.004790134173890029,0.008041993353769617
5.757575757575758,3.240506329113924,0.008383896905041268,0.007598304594842984,0.00011099172247463635,-0.004794660449965276,0.008022313577857777
5.858585858585858,3.240506329113924,0.008398736905993407,0.007515828474124568,-3.2933493640779e-05,-0.004774369614035393,0.007994138298079498
5.959595959595959,3.240506329113924,0.008557372119083653,0.00749015269491474,-8.087647774359251e-07,-0.004814257444199518,0.008076817634487454
6.0606060606060606,3.240506329113924,0.008315085437282155,0.007690076428052005,-0.0001524318943080754,-0.004801548559600247,0.00802520935722601
6.161616161616162,3.240506329113924,0.008494671292842962,0.007535295920457873,-1.9322483465822402e-05,-0.00480899016399025,0.00805800118632599
6.262626262626262,3.240506329113924,0.008642928137208376,0.00760326199846108,-5.548666651664018e-05,-0.0048738570407008365,0.008173407432130589
6.363636363636363,3.240506329113924,0.008427420198038575,0.007666678121544671,-1.8606066174105866e-05,-0.004828229495874974,0.008074037720831486
6.4646464646464645,3.240506329113924,0.008299997239210403,0.007480182316717508,-6.057589043614241e-05,-0.004734053866778374,0.007922663529406902
6.565656565656566,3.240506329113924,0.008402968876612493,0.007675542228197346,-1.85539714269183e-05,-0.004823553331442952,0.008063964579104924
6.666666666666667,3.240506329113924,0.008588414280865535,0.007652392110032985,5.20282526002313e-05,-0.004872241917269556,0.008161260441995832
6.767676767676767,3.240506329113924,0.008586672184087945,0.007618129181335651,4.53825265128901e-05,-0.004861440409627079,0.008146080788052745
6.8686868686868685,3.240506329113924,0.008587180202211529,0.007907734827068648,-5.276838260921464e-05,-0.004948474508784052,0.00826892637987273
6.96969696969697,3.240506329113924,0.008544605931519534,0.007908463983611398,5.207322706458474e-05,-0.004935920974539279,0.008245454487436922
7.070707070707071,3.240506329113924,0.00860974171179308,0.007946364254387814,-0.00013393087048551037,-0.004966831789854268,0.0083012062896488
7.171717171717171,3.240506329113924,0.008662153133302673,0.007947328041420985,1.7672964540543853e-05,-0.004982844352417097,0.00832783791919545
7.2727272727272725,3.240506329113924,0.00875752604532628,0.007826945214436313,1.619464036418034e-05,-0.004975341377928778,0.008331353074544216
7.373737373737374,3.240506329113924,0.008576035645175952,0.007642913341197804,5.060020054904463e-05,-0.004865684695912127,0.008150110160124924
7.474747474747475,3.240506329113924,0.00858264042062843,0.00784497542787032,6.366352521590484e-05,-0.004928284754549625,0.008239351429630016
7.575757575757575,3.240506329113924,0.008638413553999634,0.007803052590110657,-2.0305763999425966e-06,-0.004932439843233087,0.008252504805614772
7.6767676767676765,3.240506329113924,0.008559402587355634,0.00786428698836136,5.917839784311797e-06,-0.004927106872715098,0.008233886637204556
7.777777777777778,3.240506329113924,0.008865808489120375,0.007859154612497192,1.1227047077436226e-05,-0.00501748893048527,0.008407823133716947
7.878787878787879,3.240506329113924,0.008715677710986944,0.008080342441084175,-1.675051006352697e-05,-0.005038806045621336,0.008416065182426035
7.979797979797979,3.240506329113924,0.009058991231203547,0.008080739683050666,3.0320444837489565e-05,-0.005141919274276264,0.008611799115747153
8.080808080808081,3.240506329113924,0.008985118089240086,0.00802255752627066,6.237298756101779e-05,-0.005102302684653223,0.008545280613144288
8.181818181818182,3.240506329113924,0.008853908228005867,0.008054495306331056,-1.1859600806904013e-05,-0.0050725210603010775,0.008482525875875281
8.282828282828282,3.240506329113924,0.00892450897547318,0.008199758001481722,-1.0887666059228797e-05,-0.005137280093086471,0.008585128623325911
8.383838383838384,3.240506329113924,0.009234422198975701,0.00831886853176309,-4.1172141466919333e-05,-0.005265987219221637,0.008812676562391182
8.484848484848484,3.240506329113924,0.009122923426446458,0.008341026556810158,3.3178305827140007e-05,-0.0052391849949769845,0.008758379512810298
8.585858585858587,3.240506329113924,0.009172055235030653,0.008279431958561964,6.824667572802799e-05,-0.005235446158077785,0.008760716658958091
8.686868686868687,3.240506329113924,0.009344645052780737,0.008431235171189303,2.0541761154065322e-05,-0.005332764067191011,0.008923143142129226
8.787878787878787,3.240506329113924,0.00942606424103787,0.008301151030776546,-9.406745195968959e-06,-0.005318164581544324,0.008916999387789786
8.88888888888889,3.240506329113924,0.009459663225679645,0.008533576811485016,-8.14219617136345e-06,-0.005397972011149398,0.009032308546531653
8.98989898989899,3.240506329113924,0.009521933370846114,0.008377009911723701,-5.671624750826629e-05,-0.005369682984770944,0.009004767079263832
9.09090909090909,3.240506329113924,0.009680661479898049,0.008618690496803293,-0.00014929556925940546,-0.0054898055930104024,0.009199417099441883
9.191919191919192,3.240506329113924,0.00951292627667452,0.008629299828319531,7.915030043545195e-06,-0.005442667831498216,0.009103344260735063
9.292929292929292,3.240506329113924,0.009635865248952475,0.008847098780807049,-1.9369605253580477e-05,-0.0055448892089278575,0.009266754004618991
9.393939393939394,3.240506329113924,0.009934718061924966,0.008963723923847389,-0.00014264756459444686,-0.005669532595731706,0.009489781060045104
9.494949494949495,3.240506329113924,0.009920477992421727,0.008859487842133761,2.478886354993519e-05,-0.005633989750366647,0.009434929661862467
9.595959595959595,3.240506329113924,0.009916680098203005,0.009028108255370693,-2.496678890215348e-05,-0.00568343650607211,0.0095036988274027
9.696969696969697,3.240506329113924,0.009984099257925531,0.009088488326224666,2.1745788149333655e-05,-0.005721776275245058,0.009567858022170549
9.797979797979798,3.240506329113924,0.01025134336398177,0.009344384785350693,1.3396336255496747e-05,-0.0058787184447997385,0.009829323944637534
9.8989898989899,3.240506329113924,0.010394101419688235,0.009268354500189858,1.496560087353486e-05,-0.005898736775963428,0.009879483524101139
10.0,3.240506329113924,0.010466760324188282,0.009493078246725543,-2.9605315808874384e-05,-0.005987951571274147,0.010015610863017112
0.0,3.3417721518987342,0.010567211142085376,0.009372043715499078,0.00012083369564218108,-0.005981776457275336,0.010025397363601786
0.10101010101010101,3.3417721518987342,0.010202288597488923,0.009246232486131914,7.202932589618823e-05,-0.005834556325086251,0.009760242836242628
0.20202020202020202,3.3417721518987342,0.010225810292566617,0.00915881872992975,5.0927028265694976e-05,-0.00581538870674891,0.009736662391067574
0.30303030303030304,3.3417721518987342,0.010075694805007689,0.009075636760276678,9.991569114815147e-05,-0.005745399469585311,0.009616309670892498
0.40404040404040403,3.3417721518987342,0.010082263799925642,0.008898256654699113,3.149269625477939e-05,-0.005694156136387426,0.009545649231027714
0.5050505050505051,3.3417721518987342,0.00989236847804967,0.008935297286865528,7.649165825793741e-05,-0.005648299729474559,0.009451179366033376
0.6060606060606061,3.3417721518987342,0.00961195315362304,0.00878105672068358,-1.4352164918713284e-05,-0.005517902962291986,0.009224647021686109
0.7070707070707071,3.3417721518987342,0.009707957911825991,0.008822708731893553,3.263167362101097e-05,-0.005559199993115863,0.009297168688717187
0.8080808080808081,3.3417721518987342,0.009620590370245572,0.008551167103148231,6.514497446828151e-05,-0.005451527242018141,0.00913365609239877
0.9090909090909091,3.3417721518987342,0.009441540144064007,0.008739559489120946,1.282419677515137e-05,-0.005454329889955486,0.009110882063661785
1.0101010101010102,3.3417721518987342,0.009407235378945401,0.008447001267107358,7.255165887469973e-05,-0.005356270993815827,0.008966647642518514
1.1111111111111112,3.3417721518987342,0.009280621470790501,0.008517046757535875,6.38982639305991e-05,-0.005339300468497912,0.008924056382208487
1.2121212121212122,3.3417721518987342,0.009244959746265734,0.008467916542399164,-9.615061026133638e-05,-0.00531386288659947,0.008883528495448984
1.3131313131313131,3.3417721518987342,0.009282445593541576,0.00841550252694025,-1.2211690174501402e-06,-0.005309384436144547,0.00888076793431311
1.4141414141414141,3.3417721518987342,0.009365019110600045,0.008310129316458302,3.7039015487429626e-05,-0.005302544528117505,0.00888489887415602
1.5151515151515151,3.3417721518987342,0.008995483868477115,0.00821541867858187,-1.9788295320665482e-05,-0.0051632707641176955,0.00863199528651112
1.6161616161616161,3.3417721518987342,0.009148917670291672,0.00832283607000228,-6.834317290261412e-06,-0.005241526122088185,0.008765129372793076
1.7171717171717171,3.3417721518987342,0.009122173721262467,0.008167219870985015,-2.1079865508266764e-05,-0.005186818077674244,0.008684242535835891
1.8181818181818181,3.3417721518987342,0.00890296286099904,0.008107016329076585,4.4211513588492035e-05,-0.005102993757022687,0.008533220971401264
1.9191919191919191,3.3417721518987342,0.008903726065050776,0.00814959158545211,-5.570701166941298e-06,-0.0051159952951508655,0.008551639780203705
2.0202020202020203,3.3417721518987342,0.008903937608884237,0.007983925440151713,1.8944264887557367e-05,-0.005066358914710785,0.008481501815081265
2.121212121212121,3.3417721518987342,0.008922498152259433,0.007912957053927432,-1.2687611502561733e-05,-0.00505063656185606,0.008463037329957495
2.2222222222222223,3.3417721518987342,0.009014675855277878,0.00804407408935406,3.8065105645434026e-05,-0.005117624983389582,0.008570947153972207
2.323232323232323,3.3417721518987342,0.008889424328820856,0.007962726053547647,-2.3867521936191458e-05,-0.00505564511471055,0.00846430914920684
2.4242424242424243,3.3417721518987342,0.00882290942236981,0.008008479599678134,3.613900710131325e-05,-0.005049416706614383,0.008445430962268831
2.525252525252525,3.3417721518987342,0.00858073877222477,0.007877411333175951,2.5298674881029544e-05,-0.004937445031620216,0.00825170275802012
2.6262626262626263,3.3417721518987342,0.008841841424487254,0.007877192843719351,4.577394057412084e-05,-0.0050157102804619805,0.008401530969981417
2.727272727272727,3.3417721518987342,0.008711647983240626,0.007674382618932817,0.00011305045230368466,-0.0049158091806520325,0.008244439369364894
2.8282828282828283,3.3417721518987342,0.008727431834571423,0.007966116776933384,-0.00014002303750968185,-0.005008064583451442,0.008376285640247033
2.929292929292929,3.3417721518987342,0.008574026172589866,0.007667127524105751,7.939786024096134e-05,-0.004872346109008685,0.008159628011099629
3.0303030303030303,3.3417721518987342,0.008597524144679994,0.007766770494687259,8.15812082884438e-05,-0.004909288391810177,0.008214932438059097
3.131313131313131,3.3417721518987342,0.008526150626371121,0.007791742859099947,3.3757326119143004e-05,-0.00489536804564132,0.008183907788976248
3.2323232323232323,3.3417721518987342,0.008613996518699596,0.007579193821887407,1.5949991352684706e-05,-0.0048579571021761005,0.008146086730712472
3.3333333333333335,3.3417721518987342,0.008462733683157999,0.0077250001138633425,-2.4297977615556543e-05,-0.004856320139106402,0.008119152705818726
3.4343434343434343,3.3417721518987342,0.008477431364204709,0.007545975317339728,-1.1615593617277104e-05,-0.004807022004463331,0.008052235898309052
3.5353535353535355,3.3417721518987342,0.008670293400949014,0.007488999728436969,6.068747414768613e-05,-0.004847787938815794,0.008144834471887585
3.6363636363636362,3.3417721518987342,0.008502957924379429,0.007469752774443591,1.0683171501769248e-06,-0.004791813209646906,0.008036324399398578
3.7373737373737375,3.3417721518987342,0.008266334072784863,0.007573826888991657,4.164983776932507e-05,-0.004752048288532955,0.00794308212222496
3.8383838383838382,3.3417721518987342,0.008554712436019967,0.007627162953076294,1.3709363163795722e-07,-0.004854562616728878,0.008130715458428344
3.9393939393939394,3.3417721518987342,0.008418030407506969,0.007633788815767008,-7.109440618116313e-08,-0.004815545766982193,0.008054595040409626
4.040404040404041,3.3417721518987342,0.008450333456637099,0.0076052717218226635,3.487416744737981e-05,-0.004816681553537928,0.00806131875291178
4.141414141414141,3.3417721518987342,0.008399378254156683,0.007617211514494651,4.670752904227234e-05,-0.0048049769305954,0.00803729869673882
4.242424242424242,3.3417721518987342,0.008352961411606775,0.0075907969989349915,8.179429352353941e-05,-0.00478312752316253,0.008000412484787698
4.343434343434343,3.3417721518987342,0.008461780609936012,0.007535839806762918,-1.870826526559593e-05,-0.004799286125009679,0.008038970053744383
4.444444444444445,3.3417721518987342,0.008412189501893139,0.007673416622823712,9.7407683624531e-06,-0.004825681837415055,0.008068228106140985
4.545454545454545,3.3417721518987342,0.008461101379122132,0.007757259796558764,2.059645202207775e-05,-0.004865508352704268,0.00813213546233245
4.646464646464646,3.3417721518987342,0.008318113950808764,0.007439694973757599,8.633598863467827e-05,-0.004727342677369908,0.00791695725383301
4.747474747474747,3.3417721518987342,0.008540374869499252,0.007544258213362564,-8.979807868786277e-05,-0.004825389924858544,0.008089946398577436
4.848484848484849,3.3417721518987342,0.00836580576236291,0.007578608010574821,-6.6114125610791e-05,-0.0047833241318813195,0.008002121974750984
4.94949494949495,3.3417721518987342,0.008266910657402033,0.0076207864102194565,4.4759183871977116e-05,-0.004766309120286447,0.00796390903318513
5.05050505050505,3.3417721518987342,0.008386800584950763,0.007554544981820132,-3.696559247024454e-05,-0.0047824036700312685,0.008003449945279116
5.151515151515151,3.3417721518987342,0.008510220450740959,0.007619925415959873,-8.681205981875074e-05,-0.0048390437600102495,0.008103238819025901
5.252525252525253,3.3417721518987342,0.008117762696417239,0.007387269233886242,9.070846890595128e-05,-0.004651509579091044,0.007779871682298288
5.353535353535354,3.3417721518987342,0.008579752228416383,0.007493739082732869,-6.552594776986373e-07,-0.0048220473933447755,0.008091591341320977
5.454545454545454,3.3417721518987342,0.008417369687974038,0.007589659812245662,-2.8619168520370765e-05,-0.004802108850065909,0.008035703656459094
5.555555555555555,3.3417721518987342,0.00840588311800107,0.007644549387044252,7.093311756758364e-06,-0.004815129751513597,0.008052264813851342
5.656565656565657,3.3417721518987342,0.008352125341187728,0.007449955334981784,-0.00016112772735104696,-0.004740624202850854,0.007944479712207693
5.757575757575758,3.3417721518987342,0.008475304412007318,0.007599064112697044,2.2924203278379158e-05,-0.004822310557411309,0.008073026397881463
5.858585858585858,3.3417721518987342,0.008379560789371512,0.0074366589220743184,-7.833656875310488e-05,-0.00474486591343375,0.007951314941109322
5.959595959595959,3.3417721518987342,0.008430560519026709,0.007690228347265274,2.9461432466546086e-05,-0.004836236659887595,0.008086014539889759
6.0606060606060606,3.3417721518987342,0.008294744913186524,0.007510226596204229,-5.1679091994380413e-05,-0.004741491452817226,0.007932143154978484
6.161616161616162,3.3417721518987342,0.008505411889465367,0.007484577956950419,3.9577412175950255e-06,-0.0047969969539247365,0.00804372844218383
6.262626262626262,3.3417721518987342,0.008440246998937832,0.007642034750166456,-9.67377596993794e-05,-0.004824684524731286,0.008072538525297645
6.363636363636363,3.3417721518987342,0.008449329199561813,0.007618493883200419,-5.6672247055141314e-05,-0.00482034692482867,0.00806666507161916
6.4646464646464645,3.3417721518987342,0.00845623118361087,0.007912815909755334,1.4816170174681186e-06,-0.004910714128009861,0.008198042900087295
6.565656565656566,3.3417721518987342,0.00840504462195275,0.007622889838536227,3.4105230047685795e-05,-0.004808380338146693,0.008042759777992773
6.666666666666667,3.3417721518987342,0.008446985283976614,0.007740272976374191,-1.9753079398131484e-05,-0.004856177478105242,0.008116808779535743
6.767676767676767,3.3417721518987342,0.008418608342023117,0.007545919444716837,-3.6043669533317365e-05,-0.004789358336021986,0.008018205767835442
6.8686868686868685,3.3417721518987342,0.008534525270959574,0.007668669336241404,4.0729511050006996e-05,-0.004860958382160293,0.008136530920710795
6.96969696969697,3.3417721518987342,0.008553918289868262,0.007740754728013627,-2.0447463909776573e-06,-0.004888401905364567,0.008177715510252943
7.070707070707071,3.3417721518987342,0.008806516414309082,0.007708973185782812,-3.325965585419963e-05,-0.004954646880027568,0.008312467663135382
7.171717171717171,3.3417721518987342,0.008545804639179715,0.007759997336889275,-4.4433651952819164e-05,-0.004891740592820697,0.008181615818786724
7.2727272727272725,3.3417721518987342,0.008623779189708537,0.007683906139083959,3.909703191955465e-05,-0.004892305598637748,0.008194648067056389
7.373737373737374,3.3417721518987342,0.008632466616240134,0.007792340463415623,-3.5624135309482493e-06,-0.004927442123896727,0.008244572089432098
7.474747474747475,3.3417721518987342,0.008771410281910362,0.007952272024944989,7.433588467479676e-06,-0.005017104692056605,0.008391888575457099
7.575757575757575,3.3417721518987342,0.008712686708515098,0.008110881190128745,0.00010597570267357264,-0.005047070369593153,0.008429912761720112
7.6767676767676765,3.3417721518987342,0.008790631878148015,0.007925500742718956,7.420452554606645e-05,-0.005014839786260091,0.008392563988171573
7.777777777777778,3.3417721518987342,0.008830445049919011,0.008050149659408212,-2.3077353416970107e-05,-0.005064178412798166,0.00846740000237399
7.878787878787879,3.3417721518987342,0.00897451872540035,0.008009795015579246,-8.414252897228467e-06,-0.005095294122293879,0.008533168203497503
7.979797979797979,3.3417721518987342,0.009073179889098608,0.007861824227256679,-4.250841617126129e-05,-0.005080501234906586,0.008532558168930709
8.080808080808081,3.3417721518987342,0.009003178881542399,0.008017605987941384,8.519323570070033e-05,-0.005106235460845134,0.008554359619631986
8.181818181818182,3.3417721518987342,0.008916455405315028,0.008140927340855477,0.00012358056173662705,-0.005117214823851151,0.00855777283159173
8.282828282828282,3.3417721518987342,0.009030132089851843,0.008212117505532525,-5.750150682904204e-05,-0.00517267487861531,0.008650755628404103
8.383838383838384,3.3417721518987342,0.009181291600716885,0.008253173414953649,-0.00011862897515783946,-0.00523033950470116,0.008756621130433776
8.484848484848484,3.3417721518987342,0.008968744008555034,0.008072988818671719,1.0851899216212643e-05,-0.005112519848168026,0.008556126503853624
8.585858585858587,3.3417721518987342,0.00930369973208521,0.00817378669654154,-4.5319098392415036e-05,-0.005243245928588026,0.008793709230391007
8.686868686868687,3.3417721518987342,0.009112094802513435,0.008218627352045002,-2.8196384752408613e-05,-0.00519921664636753,0.008699975906389046
8.787878787878787,3.3417721518987342,0.009372604964653676,0.008388860418204983,-5.136254840390712e-05,-0.005328439614857597,0.008921947235343746
8.88888888888889,3.3417721518987342,0.009484917789603158,0.008516995014361895,6.756959160062872e-05,-0.005400573841189515,0.009040661976517013
8.98989898989899,3.3417721518987342,0.009470406980429658,0.008536913844665473,7.325829182880838e-06,-0.005402196247528539,0.00903989042542469
9.09090909090909,3.3417721518987342,0.00959830033585489,0.008583837920513475,-4.146284433639032e-05,-0.005454641476910509,0.009133703842905688
9.191919191919192,3.3417721518987342,0.00962341669687011,0.008696132194805514,9.461284356004114e-05,-0.005495864667502687,0.009196369668513213
9.292929292929292,3.3417721518987342,0.009676186366292404,0.008763862112115748,-4.52715361296649e-05,-0.005532014543522446,0.009254147565607032
9.393939393939394,3.3417721518987342,0.009729208192362431,0.0088354313590126,-2.5642947271096517e-05,-0.005569391865412509,0.009314642283589232
9.494949494949495,3.3417721518987342,0.009866355930285514,0.009077012069720032,9.271076921274345e-05,-0.005683010400001663,0.009497677687400848
9.595959595959595,3.3417721518987342,0.009707683452915374,0.008857955896415902,7.06646020243482e-05,-0.005569691804799382,0.009312746601325689
9.696969696969697,3.3417721518987342,0.009962449672621384,0.008973782506852735,2.0612813174875287e-05,-0.005680869653842236,0.009506818291439071
9.797979797979798,3.3417721518987342,0.010340364740358932,0.009000320360898368,-2.3187539413928438e-05,-0.005802205530377189,0.009739811457961808
9.8989898989899,3.3417721518987342,0.01028246401218816,0.009170195040438853,3.446825413657058e-05,-0.0058357977157881035,0.009774093663107839
10.0,3.3417721518987342,0.010521365729867971,0.009161645009296216,6.646872910353672e-05,-0.0059049032217492565,0.009912371691165704
0.0,3.4430379746835444,0.010401605684467357,0.009414923617695456,-2.6022433196508127e-05,-0.005944958790648844,0.009945144343981374
0.10101010101010101,3.4430379746835444,0.0102028564955152,0.009498733795612547,4.060612578897604e-05,-0.005910477087338323,0.009869901375120635
0.20202020202020202,3.4430379746835444,0.01020616383364677,0.009285259548090997,3.529356890465899e-05,-0.00584742701452133,0.009778480546430655
0.30303030303030304,3.4430379746835444,0.009899699492312727,0.009113707965764802,7.892164737651727e-05,-0.005704022237423259,0.00953202175201291
0.40404040404040403,3.4430379746835444,0.010088521189708329,0.008940352959724129,8.73811596128498e-05,-0.005708662244829737,0.00956745195771368
0.5050505050505051,3.4430379746835444,0.009859516633135475,0.008849802109926799,-2.1444531369671845e-05,-0.005612795622918682,0.009395513510444025
0.6060606060606061,3.4430379746835444,0.009698772285102289,0.00883177720348303,-3.772893887983029e-05,-0.005559164846575595,0.009295877949896846
0.7070707070707071,3.4430379746835444,0.009716014267496216,0.008747878251085224,3.329455680762946e-05,-0.005539167755574432,0.009270119892788607
0.8080808080808081,3.4430379746835444,0.009577851560957714,0.008847264710508567,-3.480738255072285e-05,-0.005527534881439884,0.009234456125048182
0.9090909090909091,3.4430379746835444,0.009427273894106716,0.00848588207503602,4.6550385809668237e-05,-0.00537394679074282,0.008993967640965
1.0101010101010102,3.4430379746835444,0.009436628497219665,0.008553839078124343,4.229598534282155e-05,-0.005397140272603202,0.009027961321076557
1.1111111111111112,3.4430379746835444,0.009310722884533575,0.008635240668324882,-6.485665694647792e-05,-0.005383789065857536,0.008992731970113004
1.2121212121212122,3.4430379746835444,0.00955434369013649,0.008293825640252848,6.775771816855477e-05,-0.0053544507991168016,0.008991370293355663
1.3131313131313131,3.4430379746835444,0.00919757889977192,0.008274002936518888,3.190052235584503e-05,-0.005241474550887242,0.008772504791418214
1.4141414141414141,3.4430379746835444,0.00918936535548998,0.008305042070597344,-2.2695409191857785e-05,-0.005248322227826196,0.008780753885426493
1.5151515151515151,3.4430379746835444,0.008985907108365877,0.00826861479483412,1.590921868103788e-05,-0.005176356570959999,0.008649639994474222
1.6161616161616161,3.4430379746835444,0.009327441207673546,0.008330905495392059,8.698383905607556e-05,-0.005297504010919681,0.008872531386564774
1.7171717171717171,3.4430379746835444,0.009145712256836715,0.008223942568945786,-2.0123452374705113e-05,-0.005210896447734751,0.008721507127202825
1.8181818181818181,3.4430379746835444,0.008783394627236997,0.008214836829898733,-3.742102879355712e-05,-0.005099469437140718,0.008513613371798321
1.9191919191919191,3.4430379746835444,0.008867926779828277,0.007864226247813666,4.1346348749899436e-05,-0.005019645908292583,0.008411416400657295
2.0202020202020203,3.4430379746835444,0.008982523941589517,0.008072244446473606,-8.09722869495251e-05,-0.005116430516418936,0.008564893887013557
2.121212121212121,3.4430379746835444,0.008874978466543323,0.008104547687297521,-5.848911482551967e-05,-0.0050938578461522535,0.008516543472624765
2.2222222222222223,3.4430379746835444,0.008655921681508076,0.008068674200044446,3.40258832618838e-05,-0.005017378764465756,0.008377955886483896
2.323232323232323,3.4430379746835444,0.008794316524727662,0.007891281210572306,2.9296139532884852e-05,-0.005005679320589991,0.008379526974799663
2.4242424242424243,3.4430379746835444,0.008902378367138015,0.007866889772377494,2.1383134069778094e-06,-0.005030780441854652,0.008432453953227644
2.525252525252525,3.4430379746835444,0.00869188654610211,0.00789411998141336,-1.154853361698917e-05,-0.004975801958254641,0.008321756236359248
2.6262626262626263,3.4430379746835444,0.0085268237062701,0.007765081583596186,-0.00013780631879389588,-0.0048875715869598855,0.008176105707125103
2.727272727272727,3.4430379746835444,0.008568601286634885,0.007799341441384207,-1.0771493273306645e-05,-0.004910382818405727,0.008211063018529733
2.8282828282828283,3.4430379746835444,0.008467325432237587,0.00769466571727857,1.630976703816843e-05,-0.0048485973448548466,0.008108701485509415
2.929292929292929,3.4430379746835444,0.008655151785848756,0.007630237553507662,-3.9292406224139846e-05,-0.004885616801806925,0.00819121145197144
3.0303030303030303,3.4430379746835444,0.008466445340822122,0.007811388388871466,5.3629900980752446e-05,-0.004883350118908077,0.008159192419562694
3.131313131313131,3.4430379746835444,0.008689807680528645,0.007753551581593825,-4.6648560571402554e-05,-0.004933007778636741,0.008261959563718032
3.2323232323232323,3.4430379746835444,0.008547797770324876,0.007730269361277204,-4.082741757986551e-05,-0.0048834201394806235,0.008170075430742038
3.3333333333333335,3.4430379746835444,0.0086710576500576,0.007680380213668826,5.705015748965824e-05,-0.004905431359117928,0.008221205845340617
3.4343434343434343,3.4430379746835444,0.008694900321373565,0.00767023836587905,2.355847240192141e-06,-0.004909541606175785,0.008230547175345035
3.5353535353535355,3.4430379746835444,0.008382654781003689,0.007592891939070564,5.26685794977822e-05,-0.004792664016022276,0.00801752076386407
3.6363636363636362,3.4430379746835444,0.008449477384273967,0.007685349996266996,3.419098661861821e-05,-0.004840448214162289,0.008094725981741952
3.7373737373737375,3.4430379746835444,0.008712887042982951,0.007722227493067413,2.227951052018307e-05,-0.004930534360815109,0.008262311501082472
3.8383838383838382,3.4430379746835444,0.008239050057777643,0.007582863329116589,5.697693935970211e-05,-0.004746574016068269,0.007931955035652012
3.9393939393939394,3.4430379746835444,0.008369789435628631,0.007582629996342656,-1.7036296089666126e-05,-0.004785725829591386,0.008005342411582399
4.040404040404041,3.4430379746835444,0.008355766334800884,0.007712170226947208,1.0164830241341171e-05,-0.004820380968524427,0.00805329859572741
4.141414141414141,3.4430379746835444,0.008354573304463549,0.0073696337487858575,4.1210066185633654e-05,-0.004717262115974822,0.0079085615707462
4.242424242424242,3.4430379746835444,0.008441817227198393,0.007541234850749538,9.809114253060448e-06,-0.004794915623384379,0.008029512036876456
4.343434343434343,3.4430379746835444,0.008507857093770615,0.007478251292011813,-9.425893880127185e-05,-0.004795832515734728,0.008044292116363575
4.444444444444445,3.4430379746835444,0.008348732673795996,0.007554931723300877,1.3484529573974482e-05,-0.004771099319129062,0.007981526844735937
4.545454545454545,3.4430379746835444,0.008339158777352296,0.007565653493282741,-0.00011013434602735815,-0.004771443681190511,0.007982849421223164
4.646464646464646,3.4430379746835444,0.008518492213403128,0.007681556753240401,6.854221854857851e-06,-0.004860014689993058,0.008132397143207041
4.747474747474747,3.4430379746835444,0.008358935475359921,0.007602979090632646,-0.0001449252381455449,-0.00478857436979777,0.008011697177794073
4.848484848484849,3.4430379746835444,0.008477695499505966,0.00742738186896208,-1.900780308790715e-05,-0.004771523210540413,0.008004456537195576
4.94949494949495,3.4430379746835444,0.008278543498234467,0.0075111739717919086,2.1684563592421363e-05,-0.004736915241007912,0.007922868615551637
5.05050505050505,3.4430379746835444,0.008472410701924338,0.007651645700467949,-2.100904691762712e-05,-0.004837216920717686,0.008093383980001867
5.151515151515151,3.4430379746835444,0.008422775366320082,0.007635682477105774,4.1858470997512725e-05,-0.0048175373530277565,0.008058437186219354
5.252525252525253,3.4430379746835444,0.008428891212683849,0.007431738619111355,-9.680173633615417e-05,-0.004758188949538561,0.007978956157601842
5.353535353535354,3.4430379746835444,0.008552585223392905,0.007412742470979402,-0.00010819753611830799,-0.004789598308311692,0.008045649342521166
5.454545454545454,3.4430379746835444,0.008473970036998995,0.00743062766402829,-8.997650325382694e-05,-0.0047713793103081855,0.008004983872670892
5.555555555555555,3.4430379746835444,0.008509379344140613,0.007602367241356866,6.148294295396103e-06,-0.004833523975649244,0.0080940849470053
5.656565656565657,3.4430379746835444,0.008359813110034534,0.007533764259033582,-2.69091635942155e-05,-0.004768073210720434,0.00797905948305153
5.757575757575758,3.4430379746835444,0.008402905905065395,0.007502680489943616,4.369196413073164e-05,-0.004771675918502703,0.007991273425054742
5.858585858585858,3.4430379746835444,0.008495848003898434,0.007463130021230659,5.110133659062447e-05,-0.004787693407538728,0.00802994139239113
5.959595959595959,3.4430379746835444,0.008526188825955792,0.007558573796631041,2.7759139930725664e-05,-0.004825428786776049,0.008086063195370294
6.0606060606060606,3.4430379746835444,0.00833346626824985,0.007626940343961417,-3.91805698824806e-05,-0.00478812198366338,0.008003913687641626
6.161616161616162,3.4430379746835444,0.008464202591401425,0.007687401498526067,8.356345010342279e-06,-0.004845481226978247,0.008103786343948469
6.262626262626262,3.4430379746835444,0.008395736866201715,0.007667627899957725,5.797808357115431e-05,-0.004819009429847833,0.008057022606226233
6.363636363636363,3.4430379746835444,0.008422328423442451,0.007566039877399354,7.202275165449306e-05,-0.004796510490252541,0.008029474741019605
6.4646464646464645,3.4430379746835444,0.008617070905290162,0.007618583054368912,4.549203667942851e-05,-0.004870696187897722,0.008164132344712452
6.565656565656566,3.4430379746835444,0.00835901423141989,0.0077058990572353514,4.289901231855969e-05,-0.004819473986596572,0.008052689010004003
6.666666666666667,3.4430379746835444,0.008593664358298453,0.007660803479837544,-3.374330304399124e-05,-0.004876340351440799,0.008167497723946574
6.767676767676767,3.4430379746835444,0.008489313588831184,0.007726354130449668,3.364508539983956e-05,-0.004864700315784256,0.00813492140233677
6.8686868686868685,3.4430379746835444,0.00869369256931047,0.007570098989682769,-3.163146941079371e-05,-0.004879137467697972,0.008190090202024738
6.96969696969697,3.4430379746835444,0.008646893478605257,0.00783273738966388,-4.8010477696672735e-05,-0.004943889260480742,0.008270345277518857
7.070707070707071,3.4430379746835444,0.008709647271719662,0.007724026935817514,-2.7556880628730126e-05,-0.004930102262261153,0.008261190938344544
7.171717171717171,3.4430379746835444,0.008615601724667802,0.007831574690881693,1.0602696385065054e-05,-0.004934152924664848,0.008251591607371536
7.2727272727272725,3.4430379746835444,0.00865995908064855,0.007798401368874455,4.109906338721818e-05,-0.004937508134856902,0.008263243058187129
7.373737373737374,3.4430379746835444,0.008709632714144315,0.007894661256633741,-4.9298153106065255e-05,-0.004981288191233416,0.00833253078890926
7.474747474747475,3.4430379746835444,0.00860700100131912,0.00793784917515411,4.4116399426828895e-05,-0.00496345505294197,0.008293050026101778
7.575757575757575,3.4430379746835444,0.008679570274943,0.007849929359515517,-2.1234878471445886e-05,-0.004958849890337555,0.008296003274950876
7.6767676767676765,3.4430379746835444,0.008905896467253153,0.007881475134620414,3.1607164333966666e-05,-0.00503621148056207,0.00844061832234015
7.777777777777778,3.4430379746835444,0.008801667077639517,0.007895328474435371,-4.0733418121422154e-05,-0.005009098665622466,0.008385611486248409
7.878787878787879,3.4430379746835444,0.008822932441103068,0.00798572704283578,5.276922687908841e-06,-0.005042597845181654,0.00843555135178827
7.979797979797979,3.4430379746835444,0.009036587689877943,0.008162265085812859,-5.973502495128077e-05,-0.005159655832707241,0.008633317382766252
8.080808080808081,3.4430379746835444,0.008794182957620862,0.008021848421335014,-3.1966269922379775e-05,-0.005044809413686763,0.008434759560218674
8.181818181818182,3.4430379746835444,0.008987419007432985,0.008143671146718087,-3.4063963920445154e-05,-0.005139327046245322,0.008596858517369738
8.282828282828282,3.4430379746835444,0.009089589691954255,0.008084608025954848,4.6192929146904856e-05,-0.005152259315372731,0.008631463333949478
8.383838383838384,3.4430379746835444,0.009079833961815659,0.008142540312409338,6.710267100162825e-05,-0.005166712282267499,0.008650141140735883
8.484848484848484,3.4430379746835444,0.009086971361739495,0.008258199556025572,4.916052333847648e-05,-0.0052035512753295194,0.008702651081265137
8.585858585858587,3.4430379746835444,0.009313434697260483,0.00832064536126921,3.640790517244611e-06,-0.005290224017558907,0.00885886322520948
8.686868686868687,3.4430379746835444,0.009280283791937571,0.008420403685723216,-1.7705810465553865e-05,-0.005310206243298235,0.008881670458332965
8.787878787878787,3.4430379746835444,0.00941212449246822,0.008458354080775915,1.1447289192676302e-05,-0.00536114357197324,0.008973357940545379
8.88888888888889,3.4430379746835444,0.009618136070943036,0.00828537332378452,5.597002206385251e-05,-0.005371052818418266,0.009026378149459731
8.98989898989899,3.4430379746835444,0.009630728073843187,0.008579671326468858,-4.294282138901957e-05,-0.005463119820093613,0.009150887063673046
9.09090909090909,3.4430379746835444,0.009653361410322555,0.008641319025431159,-8.262182283036899e-06,-0.005488404130726114,0.00918924426675927
9.191919191919192,3.4430379746835444,0.009711524458813715,0.008782850063003082,-3.842336997765507e-06,-0.00554831235654504,0.009282098018715547
9.292929292929292,3.4430379746835444,0.009670426338384523,0.009036598297811758,-6.032944123303052e-06,-0.005612107390858883,0.009369610736995443
9.393939393939394,3.4430379746835444,0.00971702745373561,0.008655847802712058,-8.532455130595492e-05,-0.005511862576934299,0.00923347463435208
9.494949494949495,3.4430379746835444,0.009822343265111963,0.009046264568876384,2.4065741621340552e-05,-0.005660582350196504,0.009458305952179492
9.595959595959595,3.4430379746835444,0.009965975185696961,0.009008873006004534,-2.9208304808063035e-06,-0.005692454457510449,0.009523564196510698
9.696969696969697,3.4430379746835444,0.009945202618890463,0.009013906457115103,8.064848831888375e-05,-0.005687732722801669,0.009514827963798224
9.797979797979798,3.4430379746835444,0.010271449409756387,0.009041213109077758,2.3767312649456063e-05,-0.005793798755650243,0.009715016163840264
9.8989898989899,3.4430379746835444,0.01017722420857664,0.009262102998577354,-3.0793208153419944e-05,-0.005831798162146198,0.009752065953091553
10.0,3.4430379746835444,0.010611737396954353,0.009258484736844718,-4.692833932226721e-05,-0.005961066640139721,0.010004324479458603
0.0,3.5443037974683542,-0.0001381058465006646,4.682222188840299e-05,5.018535025708051e-05,2.738508738367848e-05,0.00018785014248184472
0.10101010101010101,3.5443037974683542,-0.00012023429375380424,8.333813220916332e-06,-2.5481033820897298e-05,3.357014415986637e-05,0.00013219529960598197
0.20202020202020202,3.5443037974683542,-4.217612886264491e-05,7.570812301481252e-05,-2.3417498968817928e-06,-1.0059598245650282e-05,0.00010353778376141125
0.30303030303030304,3.5443037974683542,-6.420524357779491e-05,-5.285880190571917e-05,1.5200364675538526e-05,3.5119213645054224e-05,6.492847795084222e-05
0.40404040404040403,3.5443037974683542,2.4642200123286722e-05,0.00013801324433068715,-9.384185313144406e-06,-4.879663333619216e-05,0.0001285228868844437
0.5050505050505051,3.5443037974683542,-6.908897221129598e-05,5.851095294809474e-05,3.0104366485812463e-05,3.1734057789603706e-06,0.00012230330307449214
0.6060606060606061,3.5443037974683542,-0.0001850814914586057,-2.7597321534477232e-05,8.882913610338709e-05,6.380364389792487e-05,0.00023147540575442935
0.7070707070707071,3.5443037974683542,-5.7098130978927534e-05,8.709348595191715e-05,-8.267743867287419e-06,-8.998606491896885e-06,0.00012658362410202477
0.8080808080808081,3.5443037974683542,-2.5317000034991228e-05,0.00010679110259528264,0.0001309338333085744,-2.4442230768087423e-05,0.00025725459480262366
0.9090909090909091,3.5443037974683542,-9.133917300627958e-06,8.486240472589283e-06,-5.554393054445657e-06,1.9430304841160264e-07,1.804192860791268e-05
1.0101010101010102,3.5443037974683542,3.4021012132297816e-05,0.00014443986058124958,3.5355529435469684e-05,-5.353826181406422e-05,0.00014441728680113667
1.1111111111111112,3.5443037974683542,3.429453886447009e-05,8.26060042142761e-05,3.5459111465705766e-05,-3.507016292362386e-05,9.454617001244745e-05
1.2121212121212122,3.5443037974683542,-0.00017094099000954476,1.1012355681861926e-05,-7.5259016356013344e-06,4.797859029830485e-05,0.00017718485999652472
1.3131313131313131,3.5443037974683542,8.69927710701166e-05,-0.00011354059583592379,7.056788051299012e-05,7.964347429742157e-06,0.00021278133720380743
1.4141414141414141,3.5443037974683542,9.986801067723385e-05,-5.737645133444728e-05,2.20352705399769e-05,-1.274746780283597e-05,0.00014301191636420575
1.5151515151515151,3.5443037974683542,1.0484492773884775e-05,2.1040785830688778e-05,-6.512901659060872e-05,-9.457583581372066e-06,0.00011426899709142108
1.6161616161616161,3.5443037974683542,9.693181919127904e-05,-2.5761541736793726e-05,-3.919119638624861e-05,-2.1351083236345594e-05,0.00013101296627686656
1.7171717171717171,3.5443037974683542,-4.0938227104649594e-05,-8.71872401730303e-05,4.434282948178405e-05,3.843764018330396e-05,0.00010773635332598799
1.8181818181818181,3.5443037974683542,0.00014631335902105404,-8.333252541902172e-05,3.2415589936628784e-05,-1.8894250080609692e-05,0.0002090379916266878
1.9191919191919191,3.5443037974683542,-5.343634354656149e-05,-2.5476334417607194e-05,-2.987759981596615e-05,2.3673803389250605e-05,6.943440920052978e-05
2.0202020202020203,3.5443037974683542,-0.00010815539361296634,0.00014921718770004829,-2.2758390926307243e-05,-1.2318538226124583e-05,0.0002272792005768887
2.121212121212121,3.5443037974683542,6.23037618290782e-05,-9.186395382562905e-05,-4.398112279864278e-05,8.868057598965252e-06,0.00015442549057150223
2.2222222222222223,3.5443037974683542,3.3590152218389107e-05,-9.628068822471176e-05,-6.199912755858488e-05,1.8807160801896797e-05,0.00015863173603763867
2.323232323232323,3.5443037974683542,2.4330393663414596e-05,1.6684283210216758e-05,-4.483518050461848e-05,-1.2304403062089406e-05,8.059142892519116e-05
2.4242424242424243,3.5443037974683542,-9.021231287884905e-05,3.358781129189513e-05,5.7458237377026284e-05,1.6987350476086173e-05,0.00014899927426311713
2.525252525252525,3.5443037974683542,0.00017149369566992937,-5.4682327636811456e-05,-3.6529971674323646e-05,-3.5043410409935376e-05,0.00021396550085507087
2.6262626262626263,3.5443037974683542,6.012965358389733e-06,-0.000164769575774748,2.1558579664076578e-05,4.762698312490748e-05,0.00017195999440578836
2.727272727272727,3.5443037974683542,-9.515038043756147e-05,2.3699182775859536e-05,-2.0785929849378534e-05,2.143535929851058e-05,0.00011474492170875569
2.8282828282828283,3.5443037974683542,-2.1455583847300744e-05,-0.00013967926611107965,-4.186167517350407e-05,4.834045498751412e-05,0.00014910043192016095
2.929292929292929,3.5443037974683542,0.0001509963185206949,-7.147375160711106e-05,-1.2111877636433028e-05,-2.3856770074075152e-05,0.0001978402170408593
3.0303030303030303,3.5443037974683542,9.804054870177284e-05,6.847817643617774e-05,4.403701898645917e-05,-4.9955617541385174e-05,0.00011578147075206204
3.131313131313131,3.5443037974683542,2.774684295021689e-05,-9.66164514083826e-05,3.224941615480931e-05,2.066088253744971e-05,0.00012611701711928583
3.2323232323232323,3.5443037974683542,4.677257615766519e-05,0.00022482595934166728,-7.503100586269654e-05,-8.147956064979974e-05,0.00024312065336186756
3.3333333333333335,3.5443037974683542,-0.00013498799291761406,-4.5006376540651614e-05,2.1551434098952017e-05,5.3998310837479705e-05,0.00012476139089755373
3.4343434343434343,3.5443037974683542,0.00011295065946193147,6.680613996421601e-05,3.1309591167944247e-06,-5.392703982784424e-05,9.851153719089175e-05
3.5353535353535355,3.5443037974683542,-7.530291988320125e-05,9.247314196388545e-05,5.499934788082464e-05,-5.151066624205261e-06,0.00017395428747291918
3.6363636363636362,3.5443037974683542,-7.869314891497426e-06,1.584722482642131e-06,-3.315320492713615e-05,1.8853777226565884e-06,5.808883828466649e-05
3.7373737373737375,3.5443037974683542,2.9346205229221113e-05,-5.4653150398494155e-05,1.965894668010711e-05,7.592083550781913e-06,8.131083403561648e-05
3.8383838383838382,3.5443037974683542,1.6211268803765448e-05,-8.71198663770897e-05,-5.7724666506360816e-05,2.1272579271997278e-05,0.00013878548661725676
3.9393939393939394,3.5443037974683542,-3.8736924837313546e-05,-3.7401483358372955e-06,6.463118412278582e-05,1.2743121951945251e-05,0.00011790346090679586
4.040404040404041,3.5443037974683542,-0.00024353891391128274,6.5983665260815e-05,1.0794074455057995e-05,5.3266574595140316e-05,0.00028299147155677146
4.141414141414141,3.5443037974683542,-0.00012211385083464693,-9.392228317421765e-06,-1.3408256258132513e-05,3.945182374562061e-05,0.00011996845151257744
4.242424242424242,3.5443037974683542,8.356189744238749e-05,-3.974491884308201e-05,4.266056551383585e-05,-1.3145093579791643e-05,0.0001316935141156076
4.343434343434343,3.5443037974683542,-0.00010493922566304976,-5.0723387534877475e-05,2.2747868889761225e-05,4.669878395937817e-05,9.906879797360171e-05
4.444444444444445,3.5443037974683542,-6.453020911662722e-05,-2.6706543816410806e-05,3.995014549566827e-06,2.7371025879911406e-05,5.658523604043642e-05
4.545454545454545,3.5443037974683542,0.00015919452230580446,-9.395386600276818e-05,3.354306579388044e-05,-1.9572196890910885e-05,0.00022913440918965317
4.646464646464646,3.5443037974683542,8.733594331304194e-05,4.478031517172433e-05,-5.5795398262658783e-05,-3.963487754542988e-05,0.0001227244554102649
4.747474747474747,3.5443037974683542,-4.9630340343884285e-05,1.7520026143320315e-05,-2.2288214041847523e-05,9.63309426016919e-06,7.162360165870452e-05
4.848484848484849,3.5443037974683542,-4.931333171362762e-05,-9.511974261077598e-05,-4.604003199027753e-05,4.332992229732108e-05,0.00011466452082556227
4.94949494949495,3.5443037974683542,-5.771451675128523e-05,-0.0002484652871486401,-1.7998651091356705e-05,9.18539411699776e-05,0.00022737142456290033
5.05050505050505,3.5443037974683542,4.550532674290279e-06,6.948635310014817e-05,-5.3146726034896e-05,-2.2211065732331536e-05,0.00011404641230334092
5.151515151515151,3.5443037974683542,7.074142944354457e-05,9.287655600800561e-05,2.565494573685053e-05,-4.908539563546505e-05,9.505110669585435e-05
5.252525252525253,3.5443037974683542,-0.00016514333598131439,0.00011372972711527285,1.0823550423230679e-05,1.542408265981246e-05,0.00024359787871840156
5.353535353535354,3.5443037974683542,0.00017208837975489288,-0.00022746392734681537,1.6258813501445175e-06,1.6612664277576748e-05,0.00034713985347550327
5.454545454545454,3.5443037974683542,0.00016911205356071057,-2.6720743246471962e-05,2.189527666778944e-06,-4.271739309427158e-05,0.0001839730051840613
5.555555555555555,3.5443037974683542,-8.07253241282574e-05,-8.77351571308652e-05,-1.7695717089589063e-05,5.053814437773678e-05,8.983875536482827e-05
5.656565656565657,3.5443037974683542,-0.00016927829602349432,-5.3064333731148916e-05,-1.1033135895817461e-05,6.670278892639296e-05,0.0001511737916717191
5.757575757575758,3.5443037974683542,2.6433007165175018e-05,7.342726794701075e-06,-6.522735302383364e-05,-1.0132720187962827e-05,0.00011542249305090849
5.858585858585858,3.5443037974683542,3.0172787108558576e-05,0.00011059568664084106,3.3864285962280995e-05,-4.223054212481989e-05,0.00011508775985535552
5.959595959595959,3.5443037974683542,-2.5657910822777147e-05,0.00018771600939796203,-6.575192481857182e-05,-4.8617429572555464e-05,0.0002316937117257765
6.0606060606060606,3.5443037974683542,0.00014464418400470064,-8.241947929925066e-05,-3.14880256750532e-05,-1.8667411411634994e-05,0.00020642406871878134
6.161616161616162,3.5443037974683542,0.00013334944064297128,6.6479992768644726e-06,-9.881265554408032e-05,-4.199923197595072e-05,0.00021501531321334525
6.262626262626262,3.5443037974683542,7.4746930699267e-05,-3.0142576475008704e-05,1.8421509575660224e-05,-1.3381306267277487e-05,9.882712019241492e-05
6.363636363636363,3.5443037974683542,3.954235344594477e-05,5.08969390164786e-05,-1.063146510709947e-05,-2.713178773872701e-05,4.980557716115023e-05
6.4646464646464645,3.5443037974683542,-9.058430868734348e-05,9.669580205577768e-05,8.550476106224914e-05,-1.8334480105302591e-06,0.00021965406891451348
6.565656565656566,3.5443037974683542,-2.2082484012142414e-05,0.0003586391294618391,2.7464611132626916e-05,-0.00010096699363490901,0.00037321872771574756
6.666666666666667,3.5443037974683542,-5.848306152160057e-05,-1.823016842543815e-05,-6.878637302216437e-05,2.3013968984111612e-05,0.00012992746747635063
6.767676767676767,3.5443037974683542,-0.00022967428010901703,-0.0001196963110561814,6.297727133704165e-05,0.00010481117734955953,0.00022690246333104897
6.8686868686868685,3.5443037974683542,5.4307630291224e-05,-0.00013050283565254497,-7.13422693272648e-05,2.2858561608396293e-05,0.00020575900162585884
6.96969696969697,3.5443037974683542,0.00010202396568627756,4.560904865823093e-05,-6.50478308379079e-05,-4.428990430335254e-05,0.00014328126105225258
7.070707070707071,3.5443037974683542,-6.935016515730656e-05,0.00011548195990280262,-8.868850042046397e-05,-1.3839538423648815e-05,0.00022304970697756797
7.171717171717171,3.5443037974683542,4.388437762657783e-05,6.244619526348327e-05,2.5275452473551714e-05,-3.1899171867018326e-05,7.072127672419216e-05
7.2727272727272725,3.5443037974683542,9.295451395453823e-05,-4.4127258258974915e-05,8.925485258587166e-05,-1.4648176708668995e-05,0.00019644050132283097
7.373737373737374,3.5443037974683542,0.00020002783440303614,-3.9530910536843755e-05,2.77228931938891e-05,-4.8149077159857716e-05,0.00022756710278866048
7.474747474747475,3.5443037974683542,1.851270990952474e-06,-7.2942338088864e-05,-2.9694105647358223e-05,2.1327320129373457e-05,9.002370607377624e-05
7.575757575757575,3.5443037974683542,-0.00015721012475869615,0.00010922825138140536,9.641308404107285e-06,1.4394562013187236e-05,0.00023258651237025455
7.6767676767676765,3.5443037974683542,-7.156527758546461e-05,8.005973720945317e-06,-5.7185807941261415e-05,1.9067791159355784e-05,0.00012477693774280154
7.777777777777778,3.5443037974683542,-0.00010097777929996961,-0.00014022506936846153,-3.20511753301005e-05,7.236085460052935e-05,0.00013704670519517901
7.878787878787879,3.5443037974683542,-7.302237291709946e-07,-9.653374506749201e-06,-2.876286605666667e-05,3.1150794707760583e-06,5.0681151667183334e-05
7.979797979797979,3.5443037974683542,6.69720814596792e-05,1.0842416624877744e-06,-5.946714396982564e-05,-2.0416896936650087e-05,0.00012256771593640138
8.080808080808081,3.5443037974683542,0.00018836095260059193,-9.250068005742167e-05,-4.355686820969726e-05,-2.8758081762951076e-05,0.0002591357613148314
8.181818181818182,3.5443037974683542,-9.003928517741448e-05,-8.519383031219336e-05,6.307498471042534e-05,5.2569934646882354e-05,0.00014010578540641318
8.282828282828282,3.5443037974683542,1.2560030707688843e-05,-0.00018213037034545105,1.7818948942623293e-05,5.087110189132866e-05,0.0001912311011372112
8.383838383838384,3.5443037974683542,0.00010732092738306052,9.338906367847242e-05,1.2742159288543179e-05,-6.0212997318459885e-05,0.00010345910118349374
8.484848484848484,3.5443037974683542,-0.00012018257607365762,-4.563961301771889e-05,2.5084723896743027e-05,4.9746656727412944e-05,0.00011370782613154134
8.585858585858587,3.5443037974683542,6.285339862677485e-05,3.418932824976792e-05,-4.442660384743507e-05,-2.911281806296283e-05,9.429588430092334e-05
8.686868686868687,3.5443037974683542,0.00019515376269510097,-7.865144070749071e-05,-2.1560900388934702e-05,-3.495069659628307e-05,0.0002470117043615987
8.787878787878787,3.5443037974683542,0.00011707230955313843,-7.19357646181552e-05,7.447310787179215e-05,-1.3540963480494969e-05,0.0002096213190180656
8.88888888888889,3.5443037974683542,0.00019427182298285042,-2.2619815404632387e-05,-8.433100915957696e-05,-5.149560227346541e-05,0.0002529481119633651
8.98989898989899,3.5443037974683542,-1.1191080013930228e-05,4.900489628921076e-05,-7.679667242161671e-06,-1.1344144882584157e-05,5.702692096275578e-05
9.09090909090909,3.5443037974683542,-0.00015115923223431305,-0.00011088977429409407,2.231731704888601e-05,7.861470195852214e-05,0.00014098875951121806
9.191919191919192,3.5443037974683542,1.4375752093784048e-05,0.00014721903001135245,-1.4568936056679871e-05,-4.847843463154095e-05,0.0001428302575096949
9.292929292929292,3.5443037974683542,-9.17185214818606e-05,-4.39981518313244e-05,2.8850803255509067e-05,4.0715001993955496e-05,9.386045844204888e-05
9.393939393939394,3.5443037974683542,0.00010499485741349082,-7.009154373429045e-05,9.747100379109092e-05,-1.0470994103760112e-05,0.00022759126953101054
9.494949494949495,3.5443037974683542,-7.556102079616807e-05,-4.111745748481526e-05,6.035790844229184e-05,3.5003543484295e-05,0.00012337936394820289
9.595959595959595,3.5443037974683542,-1.3799602357708984e-05,5.195105218142231e-06,-6.2676924103017076e-06,2.581349141870026e-06,2.0173260374211668e-05
9.696969696969697,3.5443037974683542,0.0001643304669203769,9.889203767849346e-05,6.566034902704183e-06,-7.89667513796611e-05,0.00014374456925772853
9.797979797979798,3.5443037974683542,-5.308268315633483e-06,-2.2522931457024642e-05,2.7619215686216494e-05,8.349359931797436e-06,5.200351541833803e-05
9.8989898989899,3.5443037974683542,-7.536457456906303e-05,1.6083512234249478e-05,-1.4699414424734917e-05,1.7784318700444064e-05,8.831106315839461e-05
10.0,3.5443037974683542,1.1101524524398072e-05,6.696674602204573e-05,4.960061181057712e-06,-2.342048116393314e-05,6.275478122839421e-05
0.0,3.6455696202531644,-3.765282088131899e-05,8.885001076427256e-05,-6.906828389916489e-05,-1.535915696488607e-05,0.00016422179025960402
0.10101010101010101,3.6455696202531644,0.00015406500749389984,2.8917891516059175e-05,1.914328291121813e-05,-5.489486970298771e-05,0.0001456586133826536
0.20202020202020202,3.6455696202531644,8.248204725023067e-05,-0.00013334031141309103,-2.356785344460768e-05,1.5257479248858107e-05,0.00019299595793856393
0.30303030303030304,3.6455696202531644,2.040864598083865e-05,-0.00016994555188454247,-8.047432478863734e-06,4.4861071771111145e-05,0.00018155066937097314
0.40404040404040403,3.6455696202531644,0.00010656042410807354,-7.804989844786129e-05,-1.9427108156997432e-05,-8.553157698063676e-06,0.0001640005442309298
0.5050505050505051,3.6455696202531644,2.081779392061067e-05,5.746425812577921e-05,-1.487326466498988e-05,-2.3484615613916964e-05,5.659403173116807e-05
0.6060606060606061,3.6455696202531644,0.0001106926667077122,0.00011472020836284096,-2.4972498730259104e-05,-6.762386252116594e-05,0.00012077161901386198
0.7070707070707071,3.6455696202531644,-5.93466924918187e-05,7.506215482151866e-05,-6.918811753591378e-05,-4.714638698909989e-06,0.00016724842133970756
0.8080808080808081,3.6455696202531644,-8.05055424146028e-05,0.00020216847664281145,3.0316239626141164e-05,-3.649888026846259e-05,0.00025765508210399567
0.9090909090909091,3.6455696202531644,-9.069111506183991e-05,0.00012022533571951377,-2.73804521458073e-05,-8.860266197302158e-06,0.00018929196214906478
1.0101010101010102,3.6455696202531644,0.000137803838391998,-4.407000288000591e-05,1.0831110012857487e-05,-2.8120150653597624e-05,0.00016539956897330393
1.1111111111111112,3.6455696202531644,-0.00013842792036235251,-2.0394998746441573e-05,-3.4730464751397205e-05,4.7646875732638225e-05,0.00014273620211072803
1.2121212121212122,3.6455696202531644,6.599344708926222e-05,-0.00013186264005246565,-9.118671162866134e-05,1.976075788896103e-05,0.00023535082364977631
1.3131313131313131,3.6455696202531644,9.267760472521562e-05,-1.3085664865762193e-05,1.9966043962675875e-05,-2.3877581957836025e-05,0.00010568372558315977
1.4141414141414141,3.6455696202531644,3.331461923836978e-05,2.4827188489224918e-05,4.364307500960808e-06,-1.744254231827841e-05,3.0923879961740304e-05
1.5151515151515151,3.6455696202531644,7.155209692916175e-05,1.8320195989283075e-05,1.918385522671682e-05,-2.696168787553345e-05,7.244683996516598e-05
1.6161616161616161,3.6455696202531644,6.734999697227034e-06,3.29186056373689e-05,5.7596740366973467e-05,-1.189608160037878e-05,0.00010420864417950702
1.7171717171717171,3.6455696202531644,3.541482531324564e-05,8.312587364464514e-05,-8.00529929705589e-05,-3.556220968736723e-05,0.00015635113519783038
1.8181818181818181,3.6455696202531644,7.296273536770314e-05,-0.00014040768049799712,-4.36543899778857e-05,2.0233483539088192e-05,0.00020248338999522277
1.9191919191919191,3.6455696202531644,-6.205878779066503e-05,-7.813047435181855e-05,-5.297556397004614e-06,4.2056778642745074e-05,7.20498018598372e-05
2.0202020202020203,3.6455696202531644,0.00010737026361257145,-7.966301364556669e-05,-0.000136556143596748,-8.312174990101429e-06,0.00028700304717662874
2.121212121212121,3.6455696202531644,4.348952253881784e-05,-0.0002509957717263423,-1.0571390758303532e-05,6.225187475625734e-05,0.0002759368862158364
2.2222222222222223,3.6455696202531644,0.0001408388235531448,-0.0001428093998976238,8.924270485618939e-06,5.911729033437045e-07,0.0002461343832217813
2.323232323232323,3.6455696202531644,0.0001727045459477602,7.849620291402192e-05,5.993208900497428e-05,-7.536022465853464e-05,0.00018222905601893567
2.4242424242424243,3.6455696202531644,-6.836241255417509e-05,1.7039308845068488e-05,-6.50783211887248e-05,1.539693111273198e-05,0.00013723763850809269
2.525252525252525,3.6455696202531644,0.000189307426288475,3.152910484652042e-06,-3.5801442786336735e-05,-5.7738101031938114e-05,0.00019772608082919467
2.6262626262626263,3.6455696202531644,-0.00019599263077232736,1.5174075481276864e-05,7.850994589450902e-05,5.4245566587315144e-05,0.0002451709723233133
2.727272727272727,3.6455696202531644,-0.00018985887610101942,0.00010308923996639623,1.0386828754604085e-05,2.6030890840386955e-05,0.0002580113371618623
2.8282828282828283,3.6455696202531644,2.6334067908446796e-05,0.00023283061735259887,2.218033007196965e-05,-7.77494055783137e-05,0.00022416088719304854
2.929292929292929,3.6455696202531644,3.7956513119987256e-05,6.470424950568675e-05,-5.077946001936471e-06,-3.07982287877022e-05,5.699776928824626e-05
3.0303030303030303,3.6455696202531644,1.7567125828130718e-05,-4.242832841276347e-05,-3.5091318588717283e-05,7.458360775389825e-06,8.092164522889735e-05
3.131313131313131,3.6455696202531644,-1.3276732624234084e-05,0.00025457027962955955,4.436379932566484e-05,-7.238806410159763e-05,0.00027251899109674777
3.2323232323232323,3.6455696202531644,-0.00012774318527464796,-0.00023086034514987317,9.552328404127134e-05,0.00010758105912735633,0.00025980392199863035
3.3333333333333335,3.6455696202531644,8.448359168564027e-05,2.0729700353679324e-05,0.00011183894646475894,-3.1563987611795874e-05,0.0002081819589672819
3.4343434343434343,3.6455696202531644,3.588599356699319e-05,-4.9504530044491736e-05,5.421340518662551e-05,4.085560943249563e-06,0.00011971759345107808
3.5353535353535355,3.6455696202531644,-7.058786939016462e-05,-0.0001541146295397952,7.54042246111396e-05,6.741074967898794e-05,0.0001868494963059418
3.6363636363636362,3.6455696202531644,-5.511151306739221e-05,8.699806086756223e-05,6.618097065824946e-05,-9.565964340051007e-06,0.00016893874294381995
3.7373737373737375,3.6455696202531644,0.0001743503791017475,-7.358083466530849e-05,-3.5958204575611134e-05,-3.0230863330931704e-05,0.00022917246294088342
3.8383838383838382,3.6455696202531644,-0.0001279624858570451,-3.521789913932404e-05,-5.953555022798536e-05,4.895411549891074e-05,0.0001540830085013217
3.9393939393939394,3.6455696202531644,-8.880809770192787e-05,-0.00010109290560643628,-1.619408960288377e-06,5.6970300992509235e-05,9.558583890650763e-05
4.040404040404041,3.6455696202531644,-1.0811497525410634e-05,3.499758238753319e-05,1.2268564870673487e-05,-7.255825458636765e-06,4.660095040930039e-05
4.141414141414141,3.6455696202531644,-7.058997288332552e-05,-4.593146515817322e-06,-1.5575931675949364e-05,2.255493581974285e-05,7.353665835014017e-05
4.242424242424242,3.6455696202531644,-3.694091080293637e-05,4.505552130329035e-05,3.0452057623460544e-05,-2.4343831501061946e-06,8.8549456943643e-05
4.343434343434343,3.6455696202531644,-1.23953444300463e-05,-7.667768825499646e-05,-5.00370191159774e-05,2.672190980551283e-05,0.0001122219939659226
4.444444444444445,3.6455696202531644,0.0001483066481108436,5.3918097143702195e-05,2.319721786983492e-05,-6.0667423576363736e-05,0.00013608799933967632
4.545454545454545,3.6455696202531644,0.0001590690095522853,-2.6661223943952562e-05,5.758661720177895e-05,-3.9722335682499826e-05,0.0002005078566804391
4.646464646464646,3.6455696202531644,-6.135008683614782e-05,-2.8423695698913617e-05,-9.058508823197724e-05,2.6932134760518434e-05,0.00016566507798157108
4.747474747474747,3.6455696202531644,-3.238130759785171e-05,-0.0002102855888875671,4.746367381200717e-06,7.280006894562564e-05,0.00019628255054468253
4.848484848484849,3.6455696202531644,0.00012084445358184851,-2.3387615962284476e-05,-0.0001232721607048544,-2.923705128586921e-05,0.00025212041374702204
4.94949494949495,3.6455696202531644,5.455203068913108e-05,-9.27958252857121e-05,1.2783595843077492e-05,1.1473138378974307e-05,0.0001309177257655019
5.05050505050505,3.6455696202531644,1.833858124322146e-05,-3.4884227325291844e-05,-1.740039063783942e-06,4.963693824621115e-06,4.692572133531061e-05
5.151515151515151,3.6455696202531644,1.4505116111607919e-05,0.00012060941801205663,-5.011339069248985e-05,-4.053436023709936e-05,0.00014332352310173751
5.252525252525253,3.6455696202531644,-4.824006015105525e-05,8.643702202766702e-05,2.1398973772049897e-05,-1.1459088562983529e-05,0.00012386257529121622
5.353535353535354,3.6455696202531644,6.468635972261087e-05,-2.2553132593740406e-05,1.372593760624682e-05,-1.2639968138661138e-05,8.195762967104419e-05
5.454545454545454,3.6455696202531644,-1.9391172040695923e-05,-5.241270753521182e-05,2.8618479647379258e-05,2.1541163872772322e-05,6.755603427771592e-05
5.555555555555555,3.6455696202531644,4.520116460994309e-05,8.843883291912107e-05,6.879320510970471e-05,-4.009199925871925e-05,0.000141649389032571
5.656565656565657,3.6455696202531644,8.442848988783153e-05,-4.9928168631276064e-05,-7.818704640447205e-05,-1.0350096376966638e-05,0.0001793766832238283
5.757575757575758,3.6455696202531644,8.183052821901735e-05,4.621215666874651e-05,-1.6295512426972598e-05,-3.841280546632916e-05,7.646479423897975e-05
5.858585858585858,3.6455696202531644,7.313899522617616e-05,-5.191139595018149e-05,-1.540353554611378e-05,-6.368279782798402e-06,0.00011203865277098245
5.959595959595959,3.6455696202531644,0.00014241109803201946,-0.00020556303162832306,-1.3840286883396416e-05,1.894558007889108e-05,0.00030395098040134164
6.0606060606060606,3.6455696202531644,0.0002619795013669451,0.00018239220739426387,-5.654896751652389e-05,-0.0001333115126283627,0.0002524094175933503
6.161616161616162,3.6455696202531644,-1.9882517241607503e-05,-5.357762077643713e-05,6.235852141955283e-07,2.2038041405413388e-05,4.6923177073092535e-05
6.262626262626262,3.6455696202531644,-0.00023542344655170494,6.8980588224769185e-06,-2.7123143138795902e-05,6.85576163187684e-05,0.0002435215429186678
6.363636363636363,3.6455696202531644,-6.887933347153485e-06,5.2026858586835415e-06,6.710467177116322e-05,5.055742465409829e-07,0.0001167024345928842
6.4646464646464645,3.6455696202531644,-8.021874198835319e-05,-6.817963281108946e-05,6.376227012980717e-05,4.4519512439832794e-05,0.0001334582548943115
6.565656565656566,3.6455696202531644,0.00010510651034678968,-7.261359561034196e-05,-1.9788148604164287e-05,-9.747874420934317e-06,0.0001585149421935344
6.666666666666667,3.6455696202531644,8.230164020847339e-05,2.9065340979515496e-06,6.850867326102231e-06,-2.5562452291927483e-05,8.175327851067416e-05
6.767676767676767,3.6455696202531644,9.01254059837683e-05,-0.0001287313935937358,3.0515103009843783e-05,1.1581796282990247e-05,0.00019771151748423818
6.8686868686868685,3.6455696202531644,8.741934529811178e-05,4.422618952781094e-05,-3.1050957520471836e-05,-3.949366044777682e-05,9.286742770080021e-05
6.96969696969697,3.6455696202531644,-0.0002402571610241834,-8.904684655260897e-05,1.8247272456842274e-05,9.879120227303771e-05,0.00021273831486081922
7.070707070707071,3.6455696202531644,-9.065245394585901e-06,-9.605667610304871e-05,0.00010299176091213625,3.1536576449290385e-05,0.00020064943260501782
7.171717171717171,3.6455696202531644,4.7920221464740625e-05,-7.159128541258815e-06,-4.2590057010477215e-05,-1.2228327877044543e-05,9.017985717641618e-05
7.2727272727272725,3.6455696202531644,-6.902782749489811e-05,2.802563708244265e-05,4.4364537714232065e-05,1.2300657123736638e-05,0.00011571284615070284
7.373737373737374,3.6455696202531644,2.4064203786275458e-05,0.0001618409033796401,-7.897341034273827e-05,-5.577153214977466e-05,0.00020392986552785833
7.474747474747475,3.6455696202531644,1.517659940911503e-05,6.404872052399741e-05,-5.966537349010005e-05,-2.376759597993373e-05,0.00011849217854975157
7.575757575757575,3.6455696202531644,-3.412001198878364e-05,-7.068533586714874e-05,-1.2923303444958398e-05,3.1441604356779715e-05,6.519081786064255e-05
7.6767676767676765,3.6455696202531644,-0.0001802966962100286,9.901923017063667e-05,-5.323518933474099e-05,2.438323981181758e-05,0.00026204294079287886
7.777777777777778,3.6455696202531644,-2.164469819371003e-06,1.4437580966214543e-05,2.566668973448452e-05,-3.6819333440530616e-06,4.712446570307131e-05
7.878787878787879,3.6455696202531644,-0.00017411863703879266,-3.792851118507916e-05,3.0263938292869486e-05,6.361414446716155e-05,0.00016703152078422428
7.979797979797979,3.6455696202531644,-0.0001630175206502997,-3.381142458652764e-05,-1.4308891097794382e-06,5.9048683571048196e-05,0.0001490376200719955
8.080808080808081,3.6455696202531644,-0.00010253341924052427,-2.512084589850381e-06,-6.7971929442396e-05,3.1513651149112394e-05,0.00015531384221661337
8.181818181818182,3.6455696202531644,0.00012759157539871888,0.00011600369965017275,-1.668044850304849e-05,-7.307858251466749e-05,0.0001255790019931583
8.282828282828282,3.6455696202531644,-8.203662180617453e-06,-5.966684536790362e-05,6.443072438901865e-06,2.036115226455632e-05,5.711817061065949e-05
8.383838383838384,3.6455696202531644,0.00014432169184261942,-4.869448080868841e-05,1.2665289238221117e-05,-2.86881633101793e-05,0.00017523926987326498
8.484848484848484,3.6455696202531644,4.521324221906884e-05,-7.075068130878928e-05,2.8219594420160617e-05,7.66123172691613e-06,0.00011241797185731278
8.585858585858587,3.6455696202531644,-6.373452562857293e-05,9.435301031981549e-05,-5.339446379792232e-05,-9.185545407372766e-06,0.00016592477500564713
8.686868686868687,3.6455696202531644,0.00013795933953978943,2.0269390986341873e-05,-2.8738177293983623e-06,-4.7468619157839386e-05,0.00012912030153654393
8.787878787878787,3.6455696202531644,0.0001076014625563036,1.5761997499567677e-05,6.0516306054365446e-05,-3.700903801676138e-05,0.0001453174842235668
8.88888888888889,3.6455696202531644,1.2313502211334764e-07,-6.0109257690165745e-05,7.628955156874387e-05,1.799583680041572e-05,0.00014519237794302913
8.98989898989899,3.6455696202531644,-8.715134682661986e-06,-6.987510317249516e-05,-4.577053573471815e-05,2.357707135654714e-05,0.00010312292909493949
9.09090909090909,3.6455696202531644,-3.684930269236514e-05,-0.0001338058497277508,-0.00011489779596946118,5.119654572603478e-05,0.0002322406829725829
9.191919191919192,3.6455696202531644,8.206592619996896e-05,0.00010960713817551813,6.926812296473972e-05,-5.750191931264613e-05,0.00015539545761301683
9.292929292929292,3.6455696202531644,-1.289952539049604e-05,-9.264769911430864e-05,5.096722717889555e-05,3.16641673514414e-05,0.00012388646939151548
9.393939393939394,3.6455696202531644,1.9662969131699017e-05,-4.004382296556783e-05,-6.664871805713172e-05,6.114256150160643e-06,0.00012690025777608243
9.494949494949495,3.6455696202531644,-0.0001044556691478915,1.6057512431699035e-05,-1.2222694150188272e-05,2.6519447014857738e-05,0.00011530096047040888
9.595959595959595,3.6455696202531644,0.0001136532204215512,0.00012859138244019678,-2.2641597179101758e-05,-7.267338085852439e-05,0.00012796835228190252
9.696969696969697,3.6455696202531644,-2.0493252768317112e-07,-6.665721195309206e-05,7.296369834304593e-05,2.005864334423257e-05,0.00014283091226849841
9.797979797979798,3.6455696202531644,-3.98878516377825e-05,-6.646429260391293e-05,1.5556389555231915e-05,3.1905643272508625e-05,6.390171222278513e-05
9.8989898989899,3.6455696202531644,-0.00013076935142057903,-7.464049199823511e-05,-4.082664238313076e-05,6.162295302564424e-05,0.00013383415772221798
10.0,3.6455696202531644,-1.953591392262347e-05,-2.3554517828912208e-05,6.049925673157919e-05,1.2927129525460705e-05,0.00010703638823022177
0.0,3.7468354430379747,-7.311915070232234e-05,3.101854029717137e-05,-8.113357447563961e-06,1.2630183121545291e-05,9.367010767244225e-05
0.10101010101010101,3.7468354430379747,0.00022570689301735174,-4.645594711836583e-07,-6.85839866289682e-05,-6.757270006385042e-05,0.0002552644928533513
0.20202020202020202,3.7468354430379747,4.658760976957358e-05,-4.868542387023122e-06,8.622831130309197e-06,-1.2515720214765137e-05,5.141966055892491e-05
0.30303030303030304,3.7468354430379747,-2.676500697878761e-05,0.00014084451341902303,-3.1802998090658504e-06,-3.4223851932070626e-05,0.00015605636758564718
0.40404040404040403,3.7468354430379747,-0.00014112942012029411,-7.82961674050914e-05,1.2266539700130555e-05,6.582767625761565e-05,0.00012429527078267776
0.5050505050505051,3.7468354430379747,-1.2105430880257992e-05,0.00019153020098081652,5.931394266799127e-06,-5.3827431030167563e-05,0.00019812738141874415
0.6060606060606061,3.7468354430379747,3.707134731079866e-05,1.6030234174049113e-05,-9.321137622804492e-06,-1.593047444545433e-05,3.602279334425479e-05
0.7070707070707071,3.7468354430379747,-4.4525048417712166e-05,-5.979862602580059e-05,-2.792679339756442e-06,3.1297102333053823e-05,5.402977018039076e-05
0.8080808080808081,3.7468354430379747,-8.687031679204678e-05,-8.763520671518208e-05,6.610785971703543e-05,5.235165705216866e-05,0.00014395912814122138
0.9090909090909091,3.7468354430379747,-5.220861396556379e-06,8.440732140864367e-05,-4.364298306044925e-05,-2.375593800362619e-05,0.0001153545063631119
1.0101010101010102,3.7468354430379747,0.000152099700704825,-8.7340108240886e-06,-2.1037042404025724e-05,-4.300970696422092e-05,0.00016083132092722344
1.1111111111111112,3.7468354430379747,6.649574989000283e-05,-8.524924187505565e-05,-3.6569978734087956e-06,5.626047595515847e-06,0.0001319012932464271
1.2121212121212122,3.7468354430379747,7.990206530006188e-05,-1.0103747446624113e-05,-6.909241886436743e-05,-2.0939495356031327e-05,0.00014702048521727712
1.3131313131313131,3.7468354430379747,8.03532900882645e-05,-0.00011385266135599187,2.1478114141649603e-05,1.0049811380318212e-05,0.00017306485435337554
1.4141414141414141,3.7468354430379747,0.00011776362526422348,-0.00018759619111410685,6.863886874711304e-06,2.094976975496501e-05,0.00026700926713568723
1.5151515151515151,3.7468354430379747,-0.00014557553340662814,7.150914098176958e-05,1.0282546620352808e-05,2.2219917727457567e-05,0.00019243951467264972
1.6161616161616161,3.7468354430379747,0.00011533705279968843,-3.9089341023055356e-08,4.072784947821792e-05,-3.458938903759961e-05,0.00013521619316947696
1.7171717171717171,3.7468354430379747,-1.8438112489907734e-05,-3.6843821672613626e-06,2.8994662048287087e-05,6.636748397150729e-06,5.2987516389922345e-05
1.8181818181818181,3.7468354430379747,-0.00013859008318628546,2.268841187707029e-05,3.540683421117744e-05,3.477050139276455e-05,0.00016317872351218586
1.9191919191919191,3.7468354430379747,7.815298379258594e-05,-9.058509758901429e-05,6.067990996644144e-05,3.7296341389285063e-06,0.00018010885282302423
2.0202020202020203,3.7468354430379747,9.721699261773082e-05,-0.0001307136229753529,-4.165241762224071e-05,1.0048989107286626e-05,0.00021083062369149083
2.121212121212121,3.7468354430379747,9.454630511433588e-05,-1.6424518759787736e-06,7.450505842335289e-05,-2.787115597150713e-05,0.00016046806662741838
2.2222222222222223,3.7468354430379747,-0.000155714526040681,-5.8069132972904845e-06,-2.7228033391457308e-05,4.845643180139145e-05,0.00016000190785540088
2.323232323232323,3.7468354430379747,9.745281210644141e-05,1.4997266409892425e-05,-1.4660704829141293e-06,-3.373502355490015e-05,9.092244436689867e-05
2.4242424242424243,3.7468354430379747,3.847838350220256e-05,4.5787363032401856e-05,1.101182616161955e-05,-2.5279723960381325e-05,4.6680036871551304e-05
2.525252525252525,3.7468354430379747,-4.798848936116839e-05,-0.00022607608558099007,5.148716347582244e-05,8.221937248264754e-05,0.0002247599291765113
2.6262626262626263,3.7468354430379747,-9.903306963618866e-05,-6.430606368502251e-05,3.69068036611099e-05,4.900173999636335e-05,0.0001079848521539919
2.727272727272727,3.7468354430379747,2.8989070335016606e-05,-4.5723490704268515e-05,6.123612131391929e-05,5.020326110775572e-06,0.00012452338314461068
2.8282828282828283,3.7468354430379747,-0.00011410614076141685,4.7073927696312415e-06,-2.7722639293279572e-05,3.281962439753568e-05,0.00012603629444052431
2.929292929292929,3.7468354430379747,-0.00010671001019389677,7.029227313084277e-06,4.7409308917483424e-05,2.9904234864243746e-05,0.0001375843484795241
3.0303030303030303,3.7468354430379747,3.615607006611915e-06,-0.00015040706501317797,9.628387667551254e-07,4.403743740196982e-05,0.00015225620458123368
3.131313131313131,3.7468354430379747,6.699058619293951e-06,8.018160970637292e-05,1.4832123993309372e-05,-2.606420049770006e-05,8.122070132876362e-05
3.2323232323232323,3.7468354430379747,-1.3553246509347345e-05,-0.00015969473849747408,3.4226176720521674e-05,5.197439550204643e-05,0.00016442630980573295
3.3333333333333335,3.7468354430379747,0.00018586604854744414,-3.463632716331335e-05,4.1840193076445815e-05,-4.536891641523923e-05,0.000217796661356572
3.4343434343434343,3.7468354430379747,1.2766968519534552e-05,0.00011484607098281987,-4.7313262369121145e-05,-3.828391185070633e-05,0.00013638919942784208
3.5353535353535355,3.7468354430379747,-7.557913288272172e-05,0.00021341723591800432,-5.648666228050776e-06,-4.135143091058478e-05,0.0002597782397306653
3.6363636363636362,3.7468354430379747,4.550911253505083e-05,0.00016631508457126196,-8.868540974463653e-05,-6.354725913189383e-05,0.0002139117586397861
3.7373737373737375,3.7468354430379747,-0.00011606073616103123,9.144133621862038e-05,3.88787283976117e-05,7.385819982723256e-06,0.00019229931827808048
3.8383838383838382,3.7468354430379747,3.6969180109540937e-06,1.455789665712384e-05,3.945665556174887e-05,-5.47644440042338e-06,6.958637231427824e-05
3.9393939393939394,3.7468354430379747,-6.816799662583679e-05,-7.638914445092143e-05,-5.17599951732062e-05,4.336714232302746e-05,0.00011537839275069598
4.040404040404041,3.7468354430379747,-8.623941608036585e-05,0.00024348207162675745,-6.243791114173109e-05,-4.7172796663917474e-05,0.0003152998351028706
4.141414141414141,3.7468354430379747,-1.0480705890315858e-05,-0.00022974370350165355,-4.80919863175109e-05,7.206732281759083e-05,0.0002396302479904263
4.242424242424242,3.7468354430379747,1.8412536757391134e-06,5.461671281114902e-05,-5.159248586255638e-05,-1.6937389946066438e-05,0.00010426488432165393
4.343434343434343,3.7468354430379747,-1.1599283660479398e-07,-0.0002711545205549451,-2.4799678023103866e-05,8.138115401746496e-05,0.00027447842825962073
4.444444444444445,3.7468354430379747,-0.00029000262778632643,7.408818183373309e-05,7.533942535450649e-05,6.4774333785778e-05,0.00035791680215985726
4.545454545454545,3.7468354430379747,-6.764269686418485e-05,-3.9016243747961756e-05,7.373598169086887e-05,3.1997682183643984e-05,0.00014060449051999117
4.646464646464646,3.7468354430379747,3.81753932189435e-05,-1.1898080036571377e-05,5.564630391174047e-05,-7.883193954711635e-06,0.00010650198240895582
4.747474747474747,3.7468354430379747,-8.155176915923785e-05,-6.753072404735834e-05,-7.407577930050437e-05,4.472474796197886e-05,0.00014888083476937794
4.848484848484849,3.7468354430379747,-0.00020105590117426125,7.13215963502516e-05,-2.9758169536560326e-05,3.892029144720289e-05,0.0002500130382456668
4.94949494949495,3.7468354430379747,0.00012539501610045033,-1.9194367394228575e-05,-4.5716970915697715e-05,-3.186019461186653e-05,0.0001573827693874216
5.05050505050505,3.7468354430379747,-0.00017077681423261181,-0.0001236402819768376,-2.6634769079112647e-05,8.832512886283482e-05,0.00015957750127013125
5.151515151515151,3.7468354430379747,4.371785208883864e-05,3.434523166163826e-06,-2.530810261559435e-05,-1.414571257650074e-05,6.0781549329305595e-05
5.252525252525253,3.7468354430379747,0.0003307493966378306,0.00011728951781425542,-2.398021161996659e-06,-0.0001344116743356258,0.000290475142882937
5.353535353535354,3.7468354430379747,-8.532175158215534e-05,-4.3286296927482295e-05,4.015801213818915e-05,3.8582414552891287e-05,0.00010148024407763303
5.454545454545454,3.7468354430379747,9.128141308413182e-07,-7.534390522142092e-05,5.605981451989706e-05,2.232932732717388e-05,0.00012318449852569352
5.555555555555555,3.7468354430379747,3.9257666710526814e-05,-5.958350602640901e-05,-7.557424886033652e-05,6.097751794764659e-06,0.0001567318387545925
5.656565656565657,3.7468354430379747,1.1718187606760366e-05,-0.00013717623914010548,4.528523294895974e-05,3.763741546000353e-05,0.00016344525193644771
5.757575757575758,3.7468354430379747,9.930951931908945e-05,-3.889993699557183e-05,-1.7251333156559873e-05,-1.8122874697055286e-05,0.00012701002030256127
5.858585858585858,3.7468354430379747,0.00010697978678394764,0.00010166635571014893,1.4436133314878427e-05,-6.259384274822896e-05,0.00010737636351638822
5.959595959595959,3.7468354430379747,5.614215393272919e-05,-2.666561366816836e-06,-6.213332991239064e-05,-1.6042677769773705e-05,0.00012202626993587117
6.0606060606060606,3.7468354430379747,5.491587121189078e-05,4.5542436062948246e-07,-1.1889315935325725e-05,-1.661138867175608e-05,5.8438153607075185e-05
6.161616161616162,3.7468354430379747,2.6669160152990457e-05,6.153819966744494e-06,1.2576893695618805e-05,-9.846894035920484e-06,3.255044021662174e-05
6.262626262626262,3.7468354430379747,-4.061908278885299e-05,-0.00016105494096842616,-6.6872859683622e-05,6.050220712718374e-05,0.00018564115385063943
6.363636363636363,3.7468354430379747,-3.990155102536666e-05,-1.5377704136393654e-05,1.9527615404676174e-05,1.6583776548528094e-05,4.8569502804372345e-05
6.4646464646464645,3.7468354430379747,7.49409503887665e-05,9.843866186996408e-05,-4.2133420777523574e-05,-5.201388367761917e-05,0.00011512994727539273
6.565656565656566,3.7468354430379747,-0.0001423705743289539,-7.458368258330722e-05,-3.79087745435328e-05,6.508627707367833e-05,0.0001397312061769563
6.666666666666667,3.7468354430379747,-0.00015852096120686274,6.459125532423347e-06,4.520698474083234e-05,4.5618550702331816e-05,0.00017979303835415978
6.767676767676767,3.7468354430379747,-1.36388408240381e-07,0.00011483119802563636,-3.543371529068466e-05,-3.4408442885218794e-05,0.0001302633057465523
6.8686868686868685,3.7468354430379747,0.00010353584549093336,-4.91603775166788e-06,-6.703924113229388e-05,-2.958594232177964e-05,0.00015727556837781277
6.96969696969697,3.7468354430379747,2.0514860110748246e-05,4.688611058837529e-05,-5.438255787252058e-05,-2.022029120973706e-05,0.00010261429069035894
7.070707070707071,3.7468354430379747,0.00010642249691500328,1.2658372072800511e-06,8.76128276681962e-05,-3.230650023668499e-05,0.0001849882681502362
7.171717171717171,3.7468354430379747,0.0002468696335205227,2.3325279310024726e-05,5.651940520498742e-05,-8.105847384916423e-05,0.00025556547291955326
7.2727272727272725,3.7468354430379747,1.3998282935848311e-05,3.73197835184034e-05,6.109680231954298e-05,-1.5395419936275512e-05,0.00011074639063751593
7.373737373737374,3.7468354430379747,2.2421923916047836e-05,-5.6874952623483255e-05,-4.6551447567252625e-06,1.0335908612230626e-05,7.125840221750183e-05
7.474747474747475,3.7468354430379747,4.2073341743938624e-05,0.0001057178735889144,3.8135785799668905e-05,-4.433736459985591e-05,0.00011340875245495702
7.575757575757575,3.7468354430379747,-7.189530915880014e-05,2.208889717130013e-05,9.514447970020112e-07,1.4941923596250001e-05,8.513318207371622e-05
7.6767676767676765,3.7468354430379747,1.6265880798234236e-05,-5.63017989338391e-05,-9.687700397732775e-05,1.2010775440681458e-05,0.00018029345936661795
7.777777777777778,3.7468354430379747,0.00014413400618937372,9.143351940763325e-05,1.528395228405875e-05,-7.06702576791021e-05,0.00012906129687676544
7.878787878787879,3.7468354430379747,-9.211693172851179e-05,9.978262667452763e-05,-4.086655767999828e-05,-2.2997084838047526e-06,0.0001806765001765597
7.979797979797979,3.7468354430379747,-9.154428582273373e-05,-0.00010821389466519334,-2.7473409967469365e-05,5.992745414637812e-05,0.00011157331369061423
8.080808080808081,3.7468354430379747,-0.00011423178428710477,-1.4016363154207314e-06,-1.936171703610001e-05,3.469002618075765e-05,0.00011838657849732056
8.181818181818182,3.7468354430379747,4.3653733413704114e-05,4.846154371879907e-05,-0.0001054417269573739,-2.763458313975095e-05,0.00018839457450124984
8.282828282828282,3.7468354430379747,6.692180569928633e-05,-3.738151609646008e-05,2.699623553473135e-05,-8.862086880847874e-06,0.00010278100301035721
8.383838383838384,3.7468354430379747,-7.870908473750638e-05,-1.4454743777844132e-05,4.825276561141892e-06,2.7949148554605154e-05,7.304922906303887e-05
8.484848484848484,3.7468354430379747,-0.00021720809603030275,0.00011196181517657705,8.751421409667803e-06,3.1573884256117714e-05,0.0002902818972506087
8.585858585858587,3.7468354430379747,0.0001378017307503136,0.0001133771884396508,-5.3436656929173746e-05,-7.535367575698931e-05,0.00015743747956878731
8.686868686868687,3.7468354430379747,-0.00012697166408872908,-0.00014432600249754385,9.68821444629519e-05,8.138929997588188e-05,0.00021629825592735537
8.787878787878787,3.7468354430379747,-0.00010066416001747267,-0.00011003170598003809,-6.312788333166299e-05,6.320875979925323e-05,0.00015205061373417406
8.88888888888889,3.7468354430379747,-1.2321949451241834e-05,-0.00014898088057526668,-3.610421451508005e-05,4.8390849007952553e-05,0.00015627520997542652
8.98989898989899,3.7468354430379747,0.0001452850795681992,0.0001714635825079464,3.1811286574419527e-05,-9.502459862284367e-05,0.0001692107801070646
9.09090909090909,3.7468354430379747,0.00015402738843326282,-3.0914189223665805e-05,-8.999217269387418e-06,-3.69339597628791e-05,0.00017229252174417125
9.191919191919192,3.7468354430379747,7.298812051102598e-05,1.4588780730578655e-05,3.541364961171082e-05,-2.627307037248139e-05,9.076161253155225e-05
9.292929292929292,3.7468354430379747,4.67742399936098e-05,0.00013618156686431238,4.6404726279921435e-05,-5.4886742057376656e-05,0.00014430403754824437
9.393939393939394,3.7468354430379747,-6.973523701493118e-05,0.00018572584949194386,2.0676574493425793e-05,-3.47971837431038e-05,0.00023149793256852105
9.494949494949495,3.7468354430379747,-4.4988356234392445e-05,-0.00018577726170720027,4.3439775577106365e-05,6.92296853824778e-05,0.00018395752727391396
9.595959595959595,3.7468354430379747,2.7658542652715737e-05,-7.934784975648783e-05,-3.054162298748595e-05,1.5506792131131627e-05,0.00010979113959546349
9.696969696969697,3.7468354430379747,-5.9255058230743043e-05,1.7476813640353477e-05,-6.71794959254623e-05,1.253347337711687e-05,0.0001356150602598878
9.797979797979798,3.7468354430379747,-4.3671968401444215e-05,-2.9332676410517468e-05,5.371220168161658e-05,2.1901393443588506e-05,0.000100705674321713
9.8989898989899,3.7468354430379747,-1.4106249660018894e-05,-0.00018272215152138703,-2.1684659205238665e-05,5.904852035442178e-05,0.00018005421401022818
10.0,3.7468354430379747,-6.941808789127787e-05,2.409707420980534e-05,-3.353416570075962e-05,1.3596304104441756e-05,0.00010220534983605783
0.0,3.848101265822785,-7.444816493521446e-05,-0.00011229931646512746,-5.354091134747348e-05,5.602424442010257e-05,0.0001356210723678372
0.10101010101010101,3.848101265822785,-9.62198322375083e-05,-0.00017417077108375988,9.657483581515828e-05,8.111718099638046e-05,0.0002254221106713874
0.20202020202020202,3.848101265822785,-0.00010552093102097087,8.344210935521265e-05,-7.0574144177085495e-06,6.6236464997274656e-06,0.0001644735931919933
0.30303030303030304,3.848101265822785,0.00010800863957314897,7.918025538212236e-05,6.331918411284176e-05,-5.615666848658139e-05,0.0001463256116682614
0.40404040404040403,3.848101265822785,1.1281435823320813e-05,0.00014100002506249425,-3.52842771907197e-05,-4.568443826574452e-05,0.00014883727953253237
0.5050505050505051,3.848101265822785,0.00011422300400378483,-1.678163845166074e-05,-3.646864165292988e-05,-2.923240966563723e-05,0.0001386912133512951
0.6060606060606061,3.848101265822785,-9.415844643659004e-05,-7.830556885862517e-05,-0.0001110312852522616,5.173920458856456e-05,0.0002112067313152466
0.7070707070707071,3.848101265822785,-9.448753025646355e-05,-2.2479575555710004e-06,3.7902177401654528e-06,2.9020646343610364e-05,9.361431504392957e-05
0.8080808080808081,3.848101265822785,-5.85683394365219e-05,-8.047330373472044e-05,-3.3304619805880324e-05,4.1712492951372704e-05,9.230714127770123e-05
0.9090909090909091,3.848101265822785,0.00011119652069230803,-0.00010584985288254048,4.967617824263815e-06,-1.604000342930266e-06,0.00018818348653961472
1.0101010101010102,3.848101265822785,-5.9509011030356135e-05,-3.9256531382646874e-05,-2.50381924524452e-05,2.96296627239009e-05,6.802215473506689e-05
1.1111111111111112,3.848101265822785,4.879976004821502e-05,-4.996116776285159e-05,3.8129394303374464e-05,3.4842231439096973e-07,0.00010806100126027684
1.2121212121212122,3.848101265822785,6.285737514834624e-05,-5.301987376467663e-05,-1.8823283098160768e-05,-2.9512504151008827e-06,0.00010563046284044643
1.3131313131313131,3.848101265822785,1.1628920586500564e-05,-0.00012405992661086788,4.859503334849064e-05,3.37293018073102e-05,0.00015509097980749456
1.4141414141414141,3.848101265822785,-8.019666785114937e-05,0.00021725815294092673,5.3224297300319356e-05,-4.1118445526933205e-05,0.0002820540160189653
1.5151515151515151,3.848101265822785,-0.00015729097487714527,-0.00012533239153031094,9.284461037321183e-05,8.478700992223686e-05,0.00021585960743752817
1.6161616161616161,3.848101265822785,-0.00010628857427856946,-1.193996403739811e-05,2.581497487337335e-05,3.546856149479027e-05,0.00011031763590673793
1.7171717171717171,3.848101265822785,8.33488524667129e-05,-1.0687448087113624e-05,-7.07839737851817e-06,-2.1798421313879784e-05,9.001305692140306e-05
1.8181818181818181,3.848101265822785,-6.075788168717348e-05,-3.129422253241251e-05,-2.7044110536379526e-05,2.7615631265875797e-05,7.045303134014937e-05
1.9191919191919191,3.848101265822785,4.520618500905534e-05,-9.541273475612723e-05,1.2332070783702806e-06,1.5061964924121566e-05,0.0001243583421223356
2.0202020202020203,3.848101265822785,-2.9437939990156228e-05,-8.65062770749327e-05,-4.649838610979201e-05,3.4783265119526676e-05,0.00011085874536260667
2.121212121212121,3.848101265822785,-0.00013078905399430645,2.365718427425739e-05,1.2234110816472858e-05,3.213956091601472e-05,0.00014563159055067722
2.2222222222222223,3.848101265822785,1.7146870118692316e-05,-2.3249883186225787e-05,-7.606478334595021e-05,1.8309039202600412e-06,0.00013634804269482
2.323232323232323,3.848101265822785,0.00010295551339202647,5.470298503420359e-05,-3.422402319817935e-05,-4.7297549527869015e-05,0.00010711737344055738
2.4242424242424243,3.848101265822785,0.000112011403550547,2.4126460126878557e-05,-9.160172302331494e-06,-4.084135910322767e-05,0.00010333406123793154
2.525252525252525,3.848101265822785,-5.678802500473902e-05,4.97084085935401e-05,-2.044948404192909e-06,2.123884923359677e-06,9.236445994496135e-05
2.6262626262626263,3.848101265822785,-6.703606882758138e-05,6.252428113309301e-05,-0.0001229677986120516,1.3535363083465106e-06,0.00024074413960672355
2.727272727272727,3.848101265822785,1.5083574118774805e-05,6.271326213398735e-05,3.773678989195095e-05,-2.3339050875828647e-05,8.65258530850889e-05
2.8282828282828283,3.848101265822785,-4.8611597585356585e-05,4.611826041117898e-05,4.8154972414290325e-05,7.480011522532823e-07,0.00011699815290961677
2.929292929292929,3.848101265822785,8.877980284869823e-05,-0.00016119877604656011,-8.920867551066935e-05,2.1725691959358562e-05,0.00026842626121289164
3.0303030303030303,3.848101265822785,-3.4903426129750404e-05,-3.6098393696919917e-06,-7.116505553223207e-05,1.1553979649832717e-05,0.00012766628263095403
3.131313131313131,3.848101265822785,7.881184614247685e-05,0.00020981216993136466,1.7547621213497716e-05,-8.658720482215245e-05,0.00018606591928400145
3.2323232323232323,3.848101265822785,-0.00015901820888353005,6.370427730837364e-05,-1.1422533569534127e-05,2.8594179472546922e-05,0.0001996661929299671
3.3333333333333335,3.848101265822785,-0.00018838854916573825,-0.00015538798764824568,-5.350883015137813e-05,0.00010313296104419518,0.00019736245672319136
3.4343434343434343,3.848101265822785,-0.0001581924803337477,0.00015841942424550006,-7.717720422729071e-05,-6.808317352571109e-08,0.00030504311010721356
3.5353535353535355,3.848101265822785,0.00013688306078962328,-9.637326814273694e-05,2.9122921248938646e-05,-1.21529377940659e-05,0.0002091914928756429
3.6363636363636362,3.848101265822785,-0.00020578850303971865,-0.00018509121055413432,-4.42192055944976e-06,0.00011726391407815588,0.00019640947331093977
3.7373737373737375,3.848101265822785,0.00020733682550550948,-4.5883361790658156e-05,7.2083934668394335e-06,-4.8436039114455397e-05,0.00023401503260737054
3.8383838383838382,3.848101265822785,0.0001389830968680132,3.169930500788994e-05,-3.0992079607840865e-05,-5.1204720562770936e-05,0.00013710217565634307
3.9393939393939394,3.848101265822785,1.283409578074739e-05,0.00019692061279524194,5.030484653966345e-05,-6.29264125727968e-05,0.00020977816022761442
4.040404040404041,3.848101265822785,3.14231454448038e-05,-0.00014221169709302577,2.344350992471051e-05,3.323656549446659e-05,0.00016531519644061868
4.141414141414141,3.848101265822785,-2.9306629641005584e-05,7.089321330522442e-05,-6.779294971447964e-05,-1.247597509926565e-05,0.0001474788780572392
4.242424242424242,3.848101265822785,1.9110070704203707e-05,-0.00022681384981924904,5.6951608009466895e-05,6.23111337345136e-05,0.00025666048185000925
4.343434343434343,3.848101265822785,-0.00015015758740082695,-0.00013311061891815325,1.483663007434395e-05,8.498046189569405e-05,0.0001447015732620721
4.444444444444445,3.848101265822785,-9.137973271489372e-05,-7.826882554950817e-05,2.7909883615546854e-05,5.0894567479320565e-05,9.829020834051667e-05
4.545454545454545,3.848101265822785,-0.0001492943362095478,9.615141413974959e-05,-2.250422567377465e-05,1.594287662093946e-05,0.00021773395540074797
4.646464646464646,3.848101265822785,7.739734297257137e-05,2.70668136702348e-05,2.7017237894396428e-05,-3.133924699284185e-05,8.25703038082726e-05
4.747474747474747,3.848101265822785,-8.891182866391731e-05,0.00021127212086931562,5.1395127568272974e-05,-3.670808766161949e-05,0.00028151410330292987
4.848484848484849,3.848101265822785,1.7312480814511015e-05,0.00016501890986450542,-2.3055542223073934e-05,-5.469941720370493e-05,0.00016207637081129883
4.94949494949495,3.848101265822785,-0.0001550147430530601,-1.02648030208569e-05,1.4413412560183002e-06,4.95838638221751e-05,0.00015016648539518975
5.05050505050505,3.848101265822785,0.00015343745652572695,-1.7373981519191055e-05,-2.2046604851414866e-05,-4.081904250196076e-05,0.00016723900917359707
5.151515151515151,3.848101265822785,0.00012054392768472564,-0.00016464106064964317,-2.346767180886741e-05,1.3229139889475258e-05,0.0002512691630956196
5.252525252525253,3.848101265822785,2.564179648684636e-07,1.8136592729901064e-05,5.798690074835383e-06,-5.5179032084308585e-06,2.0620999432072664e-05
5.353535353535354,3.848101265822785,-1.1362560651560256e-05,-9.228441258799482e-05,2.9049009335819745e-05,3.109409197186652e-05,0.0001006402910678649
5.454545454545454,3.848101265822785,-0.00010503956440782178,-0.00018568086494677224,-3.22327628875689e-05,8.721612880637822e-05,0.00017065670082240717
5.555555555555555,3.848101265822785,1.2628470528729125e-05,-4.208959790877477e-06,4.408604839819276e-06,-2.525853221355494e-06,1.698981238839733e-05
5.656565656565657,3.848101265822785,0.00013200252519676887,4.908373150378555e-05,0.00010604799615865217,-5.4325877010166325e-05,0.00021700975858213365
5.757575757575758,3.848101265822785,7.82530670581835e-05,-0.00013007128266795862,2.3875126115020226e-05,1.5545464682932535e-05,0.00018689735906342984
5.858585858585858,3.848101265822785,-3.184807873355915e-05,-0.00014740023985766352,-5.519857964613643e-05,5.37744955773668e-05,0.00016488591804528352
5.959595959595959,3.848101265822785,0.0001292505193252347,-0.00020204970642211708,-4.7794927294761305e-05,2.1839756129064714e-05,0.00030082864777313174
6.0606060606060606,3.848101265822785,-0.00021812139191379167,9.337679585931643e-05,4.224454276551314e-05,3.742337881634257e-05,0.0002863868860144407
6.161616161616162,3.848101265822785,3.4553501216105186e-05,-0.00011438463992840654,3.59694451947462e-05,2.3949341613690403e-05,0.0001486996404016032
6.262626262626262,3.848101265822785,-9.08951724415754e-05,0.00011993876917157463,-5.797207389768544e-05,-8.71307901899977e-06,0.00020888125786162022
6.363636363636363,3.848101265822785,9.017392895955824e-05,5.906144119367064e-05,-3.473384547960445e-05,-4.477061104596866e-05,9.95645979393921e-05
6.4646464646464645,3.848101265822785,0.00012840504307528114,-1.826090579726687e-05,1.911453024279681e-05,-3.304324118340428e-05,0.00014234536860186755
6.565656565656566,3.848101265822785,2.480502044113625e-05,3.9718546740429794e-05,-5.7214735227239894e-05,-1.9357070154469813e-05,0.00010501528656266098
6.666666666666667,3.848101265822785,-7.61322798764038e-05,-8.702943261197197e-05,5.571279731560393e-06,4.894851374651273e-05,8.268986958741356e-05
6.767676767676767,3.848101265822785,-0.00024923212996137424,-0.00016507274253595579,7.584640957460712e-05,0.000124291461749199,0.0002558950316999153
6.8686868686868685,3.848101265822785,0.00020225096306407565,-2.3036827373103488e-05,2.8256118790592135e-05,-5.3764240707291646e-05,0.0002202057963479605
6.96969696969697,3.848101265822785,8.984088850239242e-05,0.00012064932621698073,2.7984400456786108e-05,-6.314706441581194e-05,0.00011890240748504429
7.070707070707071,3.848101265822785,-5.5875350678959324e-05,-4.6982660428623016e-05,-5.433890836309066e-05,3.08574033322747e-05,0.00010752861690473516
7.171717171717171,3.848101265822785,3.603147991675022e-05,0.00020901910540901624,6.037458415421585e-05,-7.351517559772994e-05,0.0002199801298017574
7.2727272727272725,3.848101265822785,-0.00014812596459746466,0.00018200163917017105,4.887536029316066e-05,-1.0162702371811918e-05,0.0002986494080695935
7.373737373737374,3.848101265822785,-0.0002005077058630846,0.00015511395620521108,2.047395230836675e-05,1.3618124897362058e-05,0.00031084203576018976
7.474747474747475,3.848101265822785,0.00010969582289045128,-8.169965117443552e-05,2.3915597212934254e-05,-8.398851514804729e-06,0.0001714234067950878
7.575757575757575,3.848101265822785,-0.00015367249920379282,0.00011989953777358735,4.820680701635366e-05,1.013188842906164e-05,0.0002517699078941767
7.6767676767676765,3.848101265822785,5.396460217274627e-05,-8.524231347553062e-05,5.070271370786516e-05,9.383313390835302e-06,0.00014996930806448415
7.777777777777778,3.848101265822785,-0.00014177504617678022,-3.871495998643846e-05,-9.948583117515295e-06,5.41470018489656e-05,0.00012809027880174404
7.878787878787879,3.848101265822785,-5.92565199571683e-05,-7.52219233175794e-05,2.4512054004699616e-05,4.034353298242431e-05,8.071434741936086e-05
7.979797979797979,3.848101265822785,2.022880180407114e-05,5.99108445190764e-05,1.911478149806221e-05,-2.4041893896944264e-05,6.23114253478638e-05
8.080808080808081,3.848101265822785,-3.3179157988871025e-05,2.4596277506344343e-05,1.8302083319374053e-05,2.5748641447580043e-06,5.9387001362491845e-05
8.181818181818182,3.848101265822785,-6.129770893527132e-05,-7.708789756124007e-05,-2.4500967685785394e-05,4.1515681948953414e-05,8.231363080683709e-05
8.282828282828282,3.848101265822785,0.0002421503984404018,7.410609881622637e-05,1.8823242150418765e-05,-9.487694917698845e-05,0.00021736294837564326
8.383838383838384,3.848101265822785,5.940768585643944e-07,2.5098592789894766e-05,0.00012122437409168592,-7.707800894537748e-06,0.00021142712317947967
8.484848484848484,3.848101265822785,-7.431415651967318e-05,-0.00018622327229755195,3.5413288951817938e-06,7.816122864516754e-05,0.00016248168706147848
8.585858585858587,3.848101265822785,3.462365364874388e-05,0.00010910967145479174,-4.733664777689796e-06,-4.311999753106068e-05,9.691834227567271e-05
8.686868686868687,3.848101265822785,-0.00010232801894636481,2.727615427076619e-05,5.001013548280816e-05,2.2515559402679585e-05,0.00014666004172002558
8.787878787878787,3.848101265822785,-2.476428725737214e-05,7.296277728489915e-05,3.5875575040426725e-05,-1.4459547008258102e-05,0.0001077259421945996
8.88888888888889,3.848101265822785,1.1641012265527092e-05,0.0001497694745116273,1.0905450719355425e-05,-4.842314603314631e-05,0.00014553256315491937
8.98989898989899,3.848101265822785,8.615222033467886e-05,1.1412023319188125e-05,2.4584981932704216e-06,-2.9269273096160094e-05,8.116280451951189e-05
9.09090909090909,3.848101265822785,-2.942614666915169e-05,8.013360888969737e-05,-1.0889167653469461e-05,-1.5212238666163704e-05,0.00010000519299693483
9.191919191919192,3.848101265822785,2.1328012567276328e-05,1.11435701838553e-05,4.1877851632822225e-05,-9.741474825339487e-06,7.485089474233977e-05
9.292929292929292,3.848101265822785,6.2669871457497e-05,-4.166247696974359e-05,6.5268129609811e-05,-6.3022183463260245e-06,0.00014510011399147016
9.393939393939394,3.848101265822785,-2.0157802251586706e-05,-7.818118260564981e-05,-4.317717215551145e-06,2.950169545717095e-05,7.07007887674003e-05
9.494949494949495,3.848101265822785,-9.810765220153067e-05,1.8661763705807093e-05,-2.0654484740792532e-05,2.3833766548717073e-05,0.00011438556678159728
9.595959595959595,3.848101265822785,-1.2723460697009477e-05,-1.5325168888477262e-05,2.7539827422356707e-05,8.414588875646021e-06,4.977031598152351e-05
9.696969696969697,3.848101265822785,3.0198638628020557e-05,0.0001424211434547444,-4.20426124864752e-05,-5.178593462482948e-05,0.00014898845266606107
9.797979797979798,3.848101265822785,-6.254775718594126e-05,8.974781032236731e-06,5.669846357692288e-05,1.607189284611136e-05,0.00011915648687469915
9.8989898989899,3.848101265822785,5.234403528270688e-05,8.558195248153813e-05,4.683352830743272e-05,-4.1377796329273505e-05,0.00011029325455866394
10.0,3.848101265822785,0.00011021076532383923,0.00010027555971509668,8.231834812503622e-05,-6.314589751168077e-05,0.00017742346463776743
0.0,3.9493670886075947,-0.000108544520912473,0.00010432117362235035,4.622418734338146e-06,1.2670041870367944e-06,0.00018453295738917334
0.10101010101010101,3.9493670886075947,9.864705949468571e-05,-4.301839966440936e-06,-2.8381632610492143e-05,-2.830356585847343e-05,0.00011220812468828583
0.20202020202020202,3.9493670886075947,7.211896148721115e-05,2.0945612457840493e-05,-3.7991604049292772e-06,-2.791937218351549e-05,6.459557514568616e-05
0.30303030303030304,3.9493670886075947,3.9143728922003236e-05,3.037939046226553e-05,2.0821682902358664e-05,-2.085693581528063e-05,5.066165897763885e-05
0.40404040404040403,3.9493670886075947,-0.00012044000729292915,1.957272612916178e-05,3.626230433796841e-05,3.0260184349130208e-05,0.00014557159884498444
0.5050505050505051,3.9493670886075947,-1.5094759702959361e-05,-5.6112138827193116e-05,1.7964526159911067e-05,2.136206955904574e-05,5.914048733893804e-05
0.6060606060606061,3.9493670886075947,-0.00010102874005708718,5.6610418688926406e-05,5.317102522165044e-05,1.3325496410448233e-05,0.00016616948837036425
0.7070707070707071,3.9493670886075947,-0.00017669899805235653,5.283307469403357e-05,2.7435424330601154e-05,3.7159777007496885e-05,0.0002135591922193786
0.8080808080808081,3.9493670886075947,0.00010791616185848572,9.827730147896089e-05,1.1307635635629967e-05,-6.185803900123398e-05,0.00010527205077245917
0.9090909090909091,3.9493670886075947,-4.626992178025568e-05,6.754065796185862e-07,-2.810301560556322e-05,1.3678354560191128e-05,6.739400050143323e-05
1.0101010101010102,3.9493670886075947,-0.00018182263439565932,-0.00013112734054152175,7.194892948203543e-06,9.388499248115432e-05,0.00016299457282720154
1.1111111111111112,3.9493670886075947,-9.617143484556866e-05,2.095570645916872e-05,-5.3196484699469665e-05,2.2564718515919982e-05,0.0001421021633367411
1.2121212121212122,3.9493670886075947,2.510793386940908e-05,5.966067713181427e-05,-3.462847418156404e-05,-2.5430583300367e-05,7.930474182176744e-05
1.3131313131313131,3.9493670886075947,9.151877919741158e-05,0.00014706059872863646,-6.152162417979926e-05,-7.15738133778144e-05,0.00016702823385788933
1.4141414141414141,3.9493670886075947,1.4183779499942858e-06,3.3489086038545205e-06,5.835195995704903e-05,-1.430185966154642e-06,0.00010111048738490438
1.5151515151515151,3.9493670886075947,-0.00010081649778583934,-0.0001662474492461599,4.170025055075902e-05,8.011918410959978e-05,0.0001620445238069401
1.6161616161616161,3.9493670886075947,0.00022723399214829177,-0.00012054719241313402,-3.015820159495227e-06,-3.200603992054732e-05,0.00030591929993765846
1.7171717171717171,3.9493670886075947,-9.06915935558043e-05,6.129361051577736e-05,-4.7111867970582544e-05,8.81939491200808e-06,0.0001555611498904803
1.8181818181818181,3.9493670886075947,8.344128874906046e-05,0.00022279038291397706,3.222740819072774e-06,-9.186950149891124e-05,0.00019503652194135962
1.9191919191919191,3.9493670886075947,0.00021457855939072124,5.91838084753531e-06,1.2828312959099953e-05,-6.614908207147695e-05,0.00021284436705253402
2.0202020202020203,3.9493670886075947,-1.5736870234010375e-05,8.636916574925494e-05,-6.266379828345154e-05,-2.118968865457337e-05,0.00014438392250014343
2.121212121212121,3.9493670886075947,-0.00015664666022979591,0.00012314063039079245,-2.4957357297062225e-05,1.0051808951701038e-05,0.000246698132447856
2.2222222222222223,3.9493670886075947,-0.00010614689331557875,-7.261224892836872e-05,-8.522671076631364e-05,5.362774267318424e-05,0.0001749940390376629
2.323232323232323,3.9493670886075947,9.915310725817481e-05,-5.714050958275135e-05,-2.3885344359669248e-05,-1.2603779302627039e-05,0.00014308586448462642
2.4242424242424243,3.9493670886075947,4.936798588797276e-05,-6.308411191945007e-05,-4.245319203735008e-05,4.114837809443195e-06,0.0001222209445912437
2.525252525252525,3.9493670886075947,0.00010256588031733523,-0.00012724732475244974,-4.690366374540954e-05,7.4044333305343535e-06,0.00021532007886264004
2.6262626262626263,3.9493670886075947,-4.201007318736123e-06,-0.00012575924363036043,-6.64627528795069e-06,3.8988075284728965e-05,0.0001242466870531856
2.727272727272727,3.9493670886075947,8.814954519073578e-05,4.457901080354887e-05,-2.9001495563438198e-05,-3.98185667982854e-05,9.13852900029274e-05
2.8282828282828283,3.9493670886075947,-8.069908901580869e-05,-5.9525933997430636e-05,-7.212834194166351e-05,4.2067506903971796e-05,0.00014442812840164025
2.929292929292929,3.9493670886075947,-0.0001427029928105181,6.422589506826109e-05,8.72871091404076e-06,2.3543129322677104e-05,0.00018407310607265772
3.0303030303030303,3.9493670886075947,-3.4891099982385467e-06,4.1365880502691794e-06,8.418035063853173e-05,-1.942434156091898e-07,0.00014595448797786477
3.131313131313131,3.9493670886075947,-2.3069906460944678e-05,-0.0001515495842631629,3.453323423241753e-07,5.238584721723227e-05,0.00014143415466070418
3.2323232323232323,3.9493670886075947,-3.484380368810054e-05,8.188557006246682e-05,-1.317194180913194e-06,-1.4112529912309882e-05,0.00010381592830382793
3.3333333333333335,3.9493670886075947,-0.00011377546211925659,-0.00020858383191202804,-9.095364415927133e-07,9.670778820938538e-05,0.0001808945289907215
3.4343434343434343,3.9493670886075947,0.00019094032500501944,-0.00023720605303238914,-6.037009572577148e-05,1.3879718408210911e-05,0.00038594140169358063
3.5353535353535355,3.9493670886075947,1.3554476119356996e-05,-1.1745387738391318e-05,-2.6885071151132496e-05,-5.427265142897035e-07,5.14713676330089e-05
3.6363636363636362,3.9493670886075947,8.376943092483002e-05,0.00012358337666119225,8.629950875419234e-06,-6.220584227580667e-05,0.00011027732117761767
3.7373737373737375,3.9493670886075947,0.00019842588833988932,-0.00010831233363985507,-4.1069369626294886e-05,-2.7034066410010272e-05,0.00027866906029759374
3.8383838383838382,3.9493670886075947,4.77951440725599e-05,6.803768957361086e-05,3.47963674968975e-05,-3.4749850093851224e-05,8.540487923318193e-05
3.9393939393939394,3.9493670886075947,9.897508635179424e-05,-5.54805832738443e-05,3.1636730731622435e-05,-1.3048350923384982e-05,0.00014617799613239778
4.040404040404041,3.9493670886075947,-0.00021736131009888066,-0.00020965211862893995,7.6767185800464e-05,0.00012810402861834617,0.00025161338050763796
4.141414141414141,3.9493670886075947,-0.00010450005570454974,-3.5722005574222664e-05,4.524286319441206e-05,4.206661838363172e-05,0.00012084751450567423
4.242424242424242,3.9493670886075947,9.020364619416096e-06,0.00012118454349157471,-1.878861107952074e-05,-3.906147243329724e-05,0.0001213794361063255
4.343434343434343,3.9493670886075947,3.9299550844738324e-05,0.00011270967152759908,5.625641687091872e-05,-4.560276671170122e-05,0.00013897063935604739
4.444444444444445,3.9493670886075947,-2.777163196923414e-05,-1.2673672718393768e-05,7.927175853664657e-05,1.2133591406288371e-05,0.00013939853676581755
4.545454545454545,3.9493670886075947,-0.000113704012589001,-3.044007437784463e-05,3.59189640539115e-05,4.324322609005369e-05,0.00011943432480999086
4.646464646464646,3.9493670886075947,-6.833125297250853e-05,-4.263168085212959e-05,3.040072938899231e-06,3.3288880147391435e-05,6.001058495417418e-05
4.747474747474747,3.9493670886075947,1.5820629367931524e-05,4.305323144857377e-06,6.78291882599941e-07,-6.03778575383667e-06,1.4216027533356111e-05
4.848484848484849,3.9493670886075947,-3.57753036644348e-05,-1.7937321856477926e-05,-7.171778829404055e-05,1.611378765627382e-05,0.00012802433442392764
4.94949494949495,3.9493670886075947,0.00012827562055595394,-6.163766885421323e-05,5.067500265292404e-05,-1.9991385510522213e-05,0.0001893787605681136
5.05050505050505,3.9493670886075947,-9.49737370991285e-05,2.3907765368595134e-05,6.471629909992726e-05,2.131979151916001e-05,0.00015629075440925006
5.151515151515151,3.9493670886075947,-6.804164209770712e-05,-4.599528437960995e-05,2.5763574138785546e-05,3.421107794319512e-05,7.487938183364016e-05
5.252525252525253,3.9493670886075947,-8.742125389333999e-05,0.0001471023695984906,3.5694662708551454e-05,-1.7904334711545183e-05,0.00021439165844870943
5.353535353535354,3.9493670886075947,-4.421524773418841e-05,5.200086266250678e-05,-2.7111215288353004e-05,-2.3356844784955106e-06,9.572545564315204e-05
5.454545454545454,3.9493670886075947,0.00012627123369266695,4.233752996478844e-05,5.45488576976798e-05,-5.058262909723662e-05,0.0001460055217791387
5.555555555555555,3.9493670886075947,0.00013888306459081787,9.007739282746286e-05,-5.627415182439437e-05,-6.868813722548421e-05,0.0001561811718907446
5.656565656565657,3.9493670886075947,-2.1394809912668363e-05,-0.0001237395185566395,-2.05472639907805e-05,4.354029854079236e-05,0.00011995162790952118
5.757575757575758,3.9493670886075947,-0.0002109962337192596,6.976489167216963e-05,-5.068499384799412e-05,4.236940261412699e-05,0.00026798057009140704
5.858585858585858,3.9493670886075947,3.513100980593272e-05,-0.00010932530691547138,3.1373151251869645e-06,2.2258289132861597e-05,0.0001306003340348514
5.959595959595959,3.9493670886075947,-5.786687747414705e-05,-5.832551906620655e-05,7.147883743939762e-05,3.485771896210608e-05,0.0001367589069223415
6.0606060606060606,3.9493670886075947,2.054750181707027e-05,0.00018214125012781823,-3.141728922523502e-05,-6.080662558346654e-05,0.00018115249197255985
6.161616161616162,3.9493670886075947,3.9402270460766386e-05,-6.79994935097809e-05,1.761384547562328e-05,8.579166914704355e-06,9.892697876128148e-05
6.262626262626262,3.9493670886075947,9.945357598130935e-06,-0.00011110542929640256,5.183754048810986e-05,3.0348021509481487e-05,0.00014700238635446865
6.363636363636363,3.9493670886075947,8.494733294104626e-06,-4.881853738111311e-06,-5.5714730467949294e-05,-1.0838638667979945e-06,9.721037294699098e-05
6.4646464646464645,3.9493670886075947,3.615987131701121e-05,-5.7491031530925144e-05,3.5756782228778104e-05,6.399348064174181e-06,0.00010260246453307985
6.565656565656566,3.9493670886075947,8.400524601121345e-05,-0.00012142224562354997,7.456074372554046e-06,1.1225099883700955e-05,0.0001793519663668555
6.666666666666667,3.9493670886075947,4.17565403056735e-05,-4.378238785250068e-05,-0.00010715613708103918,6.077542640481549e-07,0.00019983998681394842
6.767676767676767,3.9493670886075947,-0.00010703076510038844,1.8709382169321234e-05,-0.00014964248245516625,2.6496414879320164e-05,0.0002845816628198389
6.8686868686868685,3.9493670886075947,4.629097406783018e-05,-8.699690824704744e-05,-0.00015279858380230942,1.2211780253765178e-05,0.00028944897578729367
6.96969696969697,3.9493670886075947,-4.253565038078774e-05,-0.00022101905110131784,-2.8513041129216223e-05,7.906641044463167e-05,0.00020903706360646566
7.070707070707071,3.9493670886075947,0.00013361042324300305,-2.37728456595844e-05,4.495886351691478e-05,-3.295127327502559e-05,0.00016630421397665845
7.171717171717171,3.9493670886075947,0.00010761428734989947,-6.231364414833389e-05,-4.846568442712477e-05,-1.3590192960469674e-05,0.00017092814629849303
7.2727272727272725,3.9493670886075947,0.00016631401468508258,-3.450141311826177e-06,1.344083470004528e-05,-4.885916201197692e-05,0.00016967035663557713
7.373737373737374,3.9493670886075947,-0.00011456681408382622,-5.95250395704744e-05,8.329951476758467e-05,5.2227556096290184e-05,0.00017511601458726375
7.474747474747475,3.9493670886075947,0.0001142021758508301,0.00010481422687742126,3.5999266181622004e-05,-6.57049208184754e-05,0.00012627742415925822
7.575757575757575,3.9493670886075947,-7.3236872278413445e-06,-4.714445460534039e-05,-5.6179976962305216e-05,1.634044254995452e-05,0.0001067686011383731
7.6767676767676765,3.9493670886075947,-0.00017648448960489075,1.182382946450159e-05,-1.6027746235568544e-06,4.939819804211675e-05,0.00018270469939770021
7.777777777777778,3.9493670886075947,3.182656137537878e-05,-0.00012552215929594664,1.249161707394479e-05,2.8108679376170354e-05,0.00014571136771531068
7.878787878787879,3.9493670886075947,2.9206536101733865e-05,2.2902697450229526e-05,3.0622095574829167e-06,-1.5632770065589015e-05,2.7143658997512403e-05
7.979797979797979,3.9493670886075947,0.0001836033419805832,1.8722479547335796e-05,-3.119879155749554e-05,-6.06977464583757e-05,0.00018314830710582504
8.080808080808081,3.9493670886075947,0.00011010981845520793,-0.00010828074628065874,3.075453155293091e-05,-5.487216523647559e-07,0.00019649221125432346
8.181818181818182,3.9493670886075947,-3.449702299130892e-05,-0.00017094825309282876,-2.6374298438705303e-05,6.16335828252413e-05,0.00016310412278016458
8.282828282828282,3.9493670886075947,5.066530482823744e-05,5.9391267089181536e-05,-4.690472696809344e-05,-3.301697157522569e-05,9.841432469128793e-05
8.383838383838384,3.9493670886075947,3.809021737126832e-05,5.5347935157338614e-05,2.7835588856121725e-05,-2.8031445758582078e-05,6.877865748383492e-05
8.484848484848484,3.9493670886075947,-0.0001121174302627393,6.883986857733191e-05,-9.164543439771494e-05,1.2983268505622215e-05,0.00022410723276328524
8.585858585858587,3.9493670886075947,-0.0001869001755803265,8.497734977562125e-05,-6.606582121551234e-06,3.0576847741411574e-05,0.00024117638354997776
8.686868686868687,3.9493670886075947,5.987417808457819e-06,4.949984309492504e-05,-2.767343130227626e-05,-1.6646178271014856e-05,6.698629558721863e-05
8.787878787878787,3.9493670886075947,7.923435218060274e-06,7.221399268517147e-05,-6.043403445292678e-05,-2.4041228370969524e-05,0.00012514901610912883
8.88888888888889,3.9493670886075947,1.821787545427115e-05,6.797035571774172e-05,-3.696368443808663e-05,-2.585646935160386e-05,8.8388498511575e-05
8.98989898989899,3.9493670886075947,3.4357226835155155e-05,0.00010747121330652239,4.334192277009255e-06,-4.254853204250326e-05,9.536468706832243e-05
9.09090909090909,3.9493670886075947,-1.6476332887489322e-05,5.49354542729263e-05,-4.342562246853765e-06,-1.1537736415631091e-05,6.520032250013582e-05
9.191919191919192,3.9493670886075947,6.027200248413488e-06,3.4467654396909085e-05,-6.499923738003926e-05,-1.2148456393596771e-05,0.00011700985200946132
9.292929292929292,3.9493670886075947,-2.313111989897866e-05,-0.00013991080616833026,3.624232345310181e-06,4.891257782019267e-05,0.00013005073601517593
9.393939393939394,3.9493670886075947,2.6950248017542147e-05,-8.802859607128545e-05,-2.9876913317197004e-05,1.832350441612299e-05,0.0001162997503838063
9.494949494949495,3.9493670886075947,-7.517112892938803e-06,6.952900747258264e-05,-2.3920339569151177e-05,-1.8603568373893152e-05,8.443929890864519e-05
9.595959595959595,3.9493670886075947,6.596924182597826e-05,1.0472237122252766e-05,7.687724172358149e-05,-2.2932443684469305e-05,0.00014663251330908895
9.696969696969697,3.9493670886075947,-0.000162889268029235,-5.4194956015958045e-05,3.562650397826493e-05,6.512526721355792e-05,0.00015636487309333763
9.797979797979798,3.9493670886075947,-4.5898405909357104e-05,0.00013967096304094722,4.58950751105509e-05,-2.8131767139477036e-05,0.00018532239447897086
9.8989898989899,3.9493670886075947,7.48295566569832e-05,-0.00010817065563613841,6.756349887613289e-05,1.0002329693746564e-05,0.0001977098749074911
10.0,3.9493670886075947,-0.00013580806800754804,-6.449514694265939e-05,9.039944393752281e-06,6.009096448506222e-05,0.00011869985592610855
0.0,4.050632911392405,0.00016644165570986103,-0.0001372867616079076,4.427427010113069e-06,-8.746468230586028e-06,0.00026355174426871306
0.10101010101010101,4.050632911392405,3.3527479519376734e-05,-7.905316074581507e-05,-5.396186306153757e-05,1.36577043679315e-05,0.0001369656720857077
0.20202020202020202,4.050632911392405,-3.588512025315643e-06,-0.00012511526979019512,-5.0337397110926176e-05,3.861113454465323e-05,0.00015106055456917154
0.30303030303030304,4.050632911392405,-0.00010379720961495176,0.00016881391787485926,-9.287099401604525e-05,-1.950501247797225e-05,0.0002875230039497238
0.40404040404040403,4.050632911392405,-0.00018731696987987033,5.732534115834647e-05,-3.928324968036757e-06,3.8997488616457156e-05,0.00022171636466028358
0.5050505050505051,4.050632911392405,0.00010251899960952711,-4.1084798470051e-05,2.079191352475227e-05,-1.8430260341842832e-05,0.00013306761209488173
0.6060606060606061,4.050632911392405,-8.015527915189592e-05,6.986052644642214e-05,7.481926452206249e-05,3.088425811642133e-06,0.00018357238071444205
0.7070707070707071,4.050632911392405,3.6170085648444304e-05,-0.00012084143078514583,4.674746553082783e-06,2.540140354101046e-05,0.00014264407158169225
0.8080808080808081,4.050632911392405,3.508874480337494e-05,0.00019625727563932934,9.093051815393126e-05,-6.940380613281129e-05,0.00024013911423956177
0.9090909090909091,4.050632911392405,4.9783850304652455e-05,9.646668424468723e-05,-7.591818757700208e-05,-4.3875160364801905e-05,0.00015579628868309786
1.0101010101010102,4.050632911392405,8.568006085107988e-05,-6.794519396152768e-05,-3.155617815286053e-05,-5.320460066865659e-06,0.000144106029373936
1.1111111111111112,4.050632911392405,6.485248851094797e-06,-0.00023634064105362823,-7.67042427512688e-05,6.895661766076003e-05,0.0002740115098044192
1.2121212121212122,4.050632911392405,3.826331782590144e-05,-2.7453466540598142e-05,5.679043953419315e-05,-3.2429553855909884e-06,0.000113770370041008
1.3131313131313131,4.050632911392405,0.00012008616698764614,0.0003179205636114201,-4.785019847471641e-05,-0.00013140201917971985,0.00029014691943970305
1.4141414141414141,4.050632911392405,-8.93831172269604e-05,-0.00013262651566905843,-2.436771823652338e-05,6.660288986880565e-05,0.0001245227689317764
1.5151515151515151,4.050632911392405,-7.873853511099474e-05,-1.929971908540911e-05,-1.092539712266044e-05,2.9411476258921156e-05,7.355744262972815e-05
1.6161616161616161,4.050632911392405,-0.00017474639461923088,-5.736019271203671e-06,-4.64693269081295e-05,5.4144724167130364e-05,0.0001898553414899727
1.7171717171717171,4.050632911392405,3.993895466159083e-05,9.863223304873074e-05,-1.1685055761536175e-05,-4.157135631309647e-05,8.828244897025486e-05
1.8181818181818181,4.050632911392405,-9.702625422067278e-05,-0.00013881771557324016,8.002426925608798e-05,7.075319093817387e-05,0.00018554552059653174
1.9191919191919191,4.050632911392405,-0.00014495997201700392,-1.5146807598522406e-05,1.738895468518709e-05,4.8032033884657894e-05,0.00014125956851519453
2.0202020202020203,4.050632911392405,-7.728618403666506e-05,0.0001152599915460652,-2.151478902699741e-06,-1.1392142252820042e-05,0.00016786873263728485
2.121212121212121,4.050632911392405,-5.7039701394699964e-05,9.254176297071071e-07,1.204807950981274e-05,1.6834285129497858e-05,6.117710468691783e-05
2.2222222222222223,4.050632911392405,2.606408271304307e-05,4.7866673272239555e-06,4.740934200356167e-05,-9.255225012080109e-06,8.555948589296985e-05
2.323232323232323,4.050632911392405,-0.00024693506824311845,-2.676477502918639e-06,-3.5620071691760826e-05,7.488346372381112e-05,0.0002532381168528967
2.4242424242424243,4.050632911392405,-6.761706566256776e-05,0.0002886537613723719,9.752058401836542e-05,-6.631100871294123e-05,0.00036870282719494605
2.525252525252525,4.050632911392405,3.635188247174869e-05,0.0001039318837383808,1.0832095746127775e-05,-4.208512986303885e-05,9.325866763300291e-05
2.6262626262626263,4.050632911392405,0.00010574281239203459,5.394639952963254e-06,-4.1927890292633825e-05,-3.334123570349935e-05,0.00012615087817967728
2.727272727272727,4.050632911392405,-3.32994280420065e-05,4.152012759632632e-05,-2.994808073470819e-05,-2.4662098662959476e-06,8.310253921395293e-05
2.8282828282828283,4.050632911392405,-4.9896264093639825e-05,-8.60871955134746e-05,-6.499118951959247e-05,4.0795037882134324e-05,0.000135191631046345
2.929292929292929,4.050632911392405,9.629430909460607e-05,-5.6254720143997786e-05,-5.838425911578077e-06,-1.2011876685182483e-05,0.00013400171104668284
3.0303030303030303,4.050632911392405,5.9734184354783075e-05,-5.886828884173995e-06,1.3542393183563163e-05,-1.6154206641182723e-05,6.711677656212134e-05
3.131313131313131,4.050632911392405,8.359812901970924e-05,0.00014175963237533982,-1.0925497227330173e-05,-6.760732841851472e-05,0.0001248667288699453
3.2323232323232323,4.050632911392405,-0.0001761518749235056,1.0876408394613546e-05,-1.0708267152099013e-05,4.9582639958667616e-05,0.0001827776791240656
3.3333333333333335,4.050632911392405,0.0001802855414412553,2.2639661094547972e-05,4.124014288676251e-05,-6.0877560760740976e-05,0.00018448868611578117
3.4343434343434343,4.050632911392405,5.544349665264521e-06,0.00011625109443624685,-2.833925567601401e-05,-3.6538633230453406e-05,0.00012373302021337368
3.5353535353535355,4.050632911392405,6.158572452339862e-05,-0.00012279826309264947,-1.2475855518109304e-05,1.8363761570775254e-05,0.00016401760819846585
3.6363636363636362,4.050632911392405,0.00010750281039447447,6.514531146550263e-05,-2.092865643427841e-06,-5.179443655799313e-05,9.386480725962785e-05
3.7373737373737375,4.050632911392405,1.653042613911682e-06,-3.723792991053623e-05,7.952904685679278e-05,1.0675466188987365e-05,0.00014291801755115139
3.8383838383838382,4.050632911392405,-0.00011774927086627455,0.00017579912471818449,-3.268844502675268e-05,-1.741495615557298e-05,0.00026206114765549597
3.9393939393939394,4.050632911392405,1.3825786021359498e-05,7.875920592695714e-05,6.50982256412475e-05,-2.777549758449499e-05,0.0001342333561150554
4.040404040404041,4.050632911392405,-6.837973706787827e-05,2.3483546022804938e-05,-5.665391034684524e-05,1.3468857313521998e-05,0.00012830456246955258
4.141414141414141,4.050632911392405,6.55197212188158e-05,-0.00018077210449712487,0.00010392620460868005,3.457571498349272e-05,0.00028498683046203506
4.242424242424242,4.050632911392405,-2.4266631469923993e-05,-0.000176993864998111,6.7502548451668e-05,6.037814894041049e-05,0.00020320047957111067
4.343434343434343,4.050632911392405,0.00013919445311002653,-3.7845527633003825e-05,0.00010416257662163524,-3.0404677643106808e-05,0.00024212557561176863
4.444444444444445,4.050632911392405,-1.6424638937571593e-05,2.4302499265729435e-05,7.902362920764411e-05,-2.3633580984473523e-06,0.00014139922888740323
4.545454545454545,4.050632911392405,6.896682830971988e-05,9.679493481701047e-06,-4.809081445532746e-05,-2.3593896537426274e-05,0.0001054548782229506
4.646464646464646,4.050632911392405,-0.00010921962906416722,-0.00014563350967339005,5.165623330739846e-05,7.645594162126718e-05,0.00015886191464724433
4.747474747474747,4.050632911392405,-7.557365514437614e-05,-1.684783844270079e-05,2.0939207578269227e-05,2.772644807612308e-05,7.770022858198776e-05
4.848484848484849,4.050632911392405,-2.736321433071209e-05,-7.230690742784377e-05,1.8905427735751292e-06,2.9901036527566755e-05,6.331830233577303e-05
4.94949494949495,4.050632911392405,-0.00017900232644251402,0.00010123796315878735,-0.000144891014458387,2.3329308985118e-05,0.000351273408043419
5.05050505050505,4.050632911392405,-2.271337393749396e-05,0.00010811810536216738,-4.342883587820967e-05,-2.5621419427402024e-05,0.0001425459237454472
5.151515151515151,4.050632911392405,0.00022065436752891353,-7.152322132523701e-05,-6.566741931237265e-05,-4.4739343861102955e-05,0.00028726723123411634
5.252525252525253,4.050632911392405,0.00014841647304303463,0.00013070913809098582,2.3185335533532727e-05,-8.373768334020612e-05,0.00014603293577981175
5.353535353535354,4.050632911392405,-9.312079362163118e-05,-7.515414797654767e-05,3.7824121005021164e-05,5.048248247945366e-05,0.00010776458902940741
5.454545454545454,4.050632911392405,-0.00010865132681505908,3.92047313334057e-05,-2.4794031289381483e-05,2.0833978644496013e-05,0.00013944891472197348
5.555555555555555,4.050632911392405,-0.00011979819771133478,-0.00012902068582966518,-3.578462468371065e-05,7.464566506229998e-05,0.00013922326676324288
5.656565656565657,4.050632911392405,0.00017715685118844152,-0.00012794343672042864,1.08512319842802e-05,-1.4764024340403863e-05,0.0002660326615458837
5.757575757575758,4.050632911392405,-0.00023549495536748,-8.811500700966625e-05,-4.2311194091780214e-05,9.708298871314389e-05,0.00021872859954133862
5.858585858585858,4.050632911392405,5.909309649304735e-05,4.815971614023268e-05,-6.212987814623613e-06,-3.2175843789984006e-05,5.550900117679868e-05
5.959595959595959,4.050632911392405,-0.00013426239157149402,6.762103356425779e-05,5.130864844286478e-05,1.999240740217087e-05,0.000198936391524451
6.0606060606060606,4.050632911392405,9.39923815892611e-06,2.2254633659715425e-05,0.00010882759996112319,-9.49616154559246e-06,0.0001894855597012179
6.161616161616162,4.050632911392405,-0.00010389760829423911,-0.00021965340525668167,-3.629068167525148e-05,9.706530406527623e-05,0.0002004293110291706
6.262626262626262,4.050632911392405,-1.7944746775353408e-05,0.00012162376713694339,-5.408950265994881e-07,-3.1103706108477e-05,0.00013152087315266496
6.363636363636363,4.050632911392405,2.4316627157115753e-05,-3.9717846329710265e-05,3.7574826445581114e-06,4.620365751778354e-06,5.6364578961652035e-05
6.4646464646464645,4.050632911392405,-0.0002212909166799109,-1.1950787508939493e-06,3.611122721835373e-05,6.674579862924145e-05,0.00022938766344250688
6.565656565656566,4.050632911392405,-5.802485742293703e-05,8.333326174889999e-05,-2.2574058363671847e-05,-7.592521297788887e-06,0.00012913358028510808
6.666666666666667,4.050632911392405,-2.7874083062471968e-05,-0.00010614122310969244,-3.4996323188886984e-05,4.0204591851649324e-05,0.00011295380644629133
6.767676767676767,4.050632911392405,6.063164211099067e-05,0.00017132437143589126,1.3510107226215218e-05,-6.958680406406458e-05,0.0001522764830529606
6.8686868686868685,4.050632911392405,-0.00010405313098565983,-0.00011692688284742868,3.45106443385805e-05,6.629400414992655e-05,0.00012611619825247982
6.96969696969697,4.050632911392405,-0.00013948587204302545,-4.1171693241156906e-06,-1.0430491816048047e-05,4.308091241014234e-05,0.00013865553760271376
7.070707070707071,4.050632911392405,-3.217256214294922e-05,8.51100864903907e-05,-5.509707257091387e-05,-1.5881257304232444e-05,0.00014185933998683782
7.171717171717171,4.050632911392405,3.58180680730968e-05,6.64026794278886e-05,9.802306973390068e-05,-3.066622425029562e-05,0.00017927465170480535
7.2727272727272725,4.050632911392405,-0.00013175063555108052,0.00013986778329368998,8.382543821900852e-05,-2.435144322782839e-06,0.0002764579685802078
7.373737373737374,4.050632911392405,2.9469842480442284e-05,5.478207649926866e-05,-0.00010923383323030652,-2.5275575693913284e-05,0.0001950672174476482
7.474747474747475,4.050632911392405,-5.137019351575618e-05,0.00014317357897981195,-6.000013237766866e-05,-2.754101563921673e-05,0.00020320549356325068
7.575757575757575,4.050632911392405,-1.6294365596228804e-05,6.032306187086448e-05,6.694257321671608e-06,-1.3208608882390702e-05,7.086426046275913e-05
7.6767676767676765,4.050632911392405,-8.508978207648286e-05,0.00010117667158842052,1.2732439661194654e-05,-4.826066853581296e-06,0.0001630105391788976
7.777777777777778,4.050632911392405,-1.6752401695809735e-07,0.00018933198623865776,9.217658059648594e-06,-5.67493386665099e-05,0.00019008745985087686
7.878787878787879,4.050632911392405,-3.769328417742639e-05,5.6788966722799975e-05,-3.8205436082067996e-05,-5.728704763612076e-06,0.00010566597897625973
7.979797979797979,4.050632911392405,-6.252858423653916e-05,0.0001997144923716173,-1.7065738154432743e-05,-4.1155772440523445e-05,0.00023907589804424468
8.080808080808081,4.050632911392405,0.00021099473877890992,8.007356503566395e-05,2.2977547155048897e-05,-8.732049114437216e-05,0.00018873091345058618
8.181818181818182,4.050632911392405,-0.00017218191243942183,-1.5073622463729703e-05,8.440404312577384e-05,5.617666047094546e-05,0.00022056869091104803
8.282828282828282,4.050632911392405,1.8024541641653802e-05,0.0001137270577660969,6.125017221630296e-05,-3.952547982232521e-05,0.0001498786191243347
8.383838383838384,4.050632911392405,-0.00011731900695118867,4.761827370347324e-05,6.810234771499224e-06,2.091021997431463e-05,0.0001475022571320932
8.484848484848484,4.050632911392405,-3.788558695215324e-05,-6.808380032271665e-05,5.5039780290436e-05,3.1790816182460964e-05,0.0001121581877135673
8.585858585858587,4.050632911392405,5.959905419887957e-06,3.727575804296376e-05,2.0717663709464566e-05,-1.2970699038855515e-05,4.990498358517204e-05
8.686868686868687,4.050632911392405,7.988931076350497e-05,0.00011099674798212038,1.536592908298736e-05,-5.726581762368761e-05,0.00010268135991182795
8.787878787878787,4.050632911392405,0.00015540120767046727,-3.222286721726892e-05,5.8278105779680256e-05,-3.69535021359595e-05,0.00020095853760692265
8.88888888888889,4.050632911392405,0.0002049202844937242,-2.619269135141732e-05,2.380464484611058e-05,-5.3618277942692056e-05,0.00022303761384429442
8.98989898989899,4.050632911392405,-5.2221562369102885e-05,-0.00014165906661039898,3.8753263395154144e-05,5.816418869385056e-05,0.0001410750552662599
9.09090909090909,4.050632911392405,-0.00013862665851333662,0.00021049463321727775,-2.4061481161405765e-05,-2.1560392411182338e-05,0.0003073147788974575
9.191919191919192,4.050632911392405,5.5974675634119055e-05,-9.663338867978123e-05,9.115233532750172e-06,1.219761391369865e-05,0.00013464568746873677
9.292929292929292,4.050632911392405,8.810358418516207e-05,-7.62894027817026e-05,2.9127431872126217e-05,-3.5442544210378398e-06,0.00015115854658559778
9.393939393939394,4.050632911392405,9.362012478035094e-05,-6.077240029166847e-05,-1.4514654552909509e-05,-9.854317346604742e-06,0.00013703852629818228
9.494949494949495,4.050632911392405,6.948671088735707e-05,7.20472629271784e-05,-1.1427769877049431e-05,-4.246019214436064e-05,7.351643033419993e-05
9.595959595959595,4.050632911392405,8.372244315717612e-06,4.022521175603155e-05,-2.266950063068332e-05,-1.4579236821524748e-05,5.3787597192664466e-05
9.696969696969697,4.050632911392405,0.00014817672550810498,2.356467788571888e-05,4.222291019298467e-05,-5.152242101814716e-05,0.00015610324037282968
9.797979797979798,4.050632911392405,3.173873992617553e-05,-5.673234518422922e-05,3.0592257104845373e-06,7.498081577416106e-06,7.78112866957698e-05
9.8989898989899,4.050632911392405,6.006479422718384e-05,-6.770702379875369e-05,-1.4172995479714619e-05,2.2926688714709545e-06,0.00011340833493200643
10.0,4.050632911392405,-3.194618194065205e-05,-0.00016201947674476726,-6.026477348424087e-05,5.818969760562579e-05,0.0001816328562582674
0.0,4.151898734177215,0.00014229824358582391,-1.3055434972769862e-05,-2.949321948241252e-05,-3.8772842583916214e-05,0.00015775471454801616
0.10101010101010101,4.151898734177215,-0.00022855555707355468,5.901938347115228e-05,4.406722349336435e-07,5.086085208072072e-05,0.00026307930541561174
0.20202020202020202,4.151898734177215,7.998722851683202e-05,0.00010668623885163198,3.66061086270914e-05,-5.60020402105392e-05,0.00011517983888658557
0.30303030303030304,4.151898734177215,2.7929579833591653e-05,-0.00014184602034142705,-8.128333084278152e-05,3.4174932152350623e-05,0.00021138352415520914
0.40404040404040403,4.151898734177215,1.0252791923976888e-05,9.084627741763592e-05,-2.5391059175858334e-05,-3.032972080248384e-05,9.67515144153483e-05
0.5050505050505051,4.151898734177215,2.147751535618606e-05,7.158230346743896e-05,4.642394977163464e-05,-2.7917945647087502e-05,0.00010253511179505492
0.6060606060606061,4.151898734177215,6.005285943221937e-05,9.094364916637616e-05,3.221731165367426e-05,-4.529895257957866e-05,9.761932483177331e-05
0.7070707070707071,4.151898734177215,1.3822575427747722e-05,8.06014450593426e-05,0.00011553489958075374,-2.8327206146127097e-05,0.00021358482166716885
0.8080808080808081,4.151898734177215,-6.409910395676604e-05,0.00011984558938898505,-1.6598986967405684e-05,-1.67239456296657e-05,0.00016425661150191266
0.9090909090909091,4.151898734177215,0.0002344878857957483,-3.2625430686648557e-06,0.00010783835082902076,-6.936760281812504e-05,0.00030107734774853533
1.0101010101010102,4.151898734177215,-7.078136313885209e-05,-0.00011807935034707984,3.786746044250197e-05,5.665821404577958e-05,0.00012205224558015894
1.1111111111111112,4.151898734177215,3.506079590292771e-05,-3.488269880087737e-05,1.8337328684505995e-05,-5.3429130615102737e-08,6.839481075367608e-05
1.2121212121212122,4.151898734177215,-0.0003270623813037247,1.7763366679174755e-05,3.950608496676401e-05,9.278970438736497e-05,0.0003431869165835252
1.3131313131313131,4.151898734177215,-0.00012793297303049028,1.871148433889168e-05,-7.903878855552357e-05,3.276644660747958e-05,0.00019455634491027758
1.4141414141414141,4.151898734177215,-2.9520679940844166e-05,5.708155917125981e-05,9.003164895484332e-05,-8.268263769124692e-06,0.0001735855835632537
1.5151515151515151,4.151898734177215,0.00011724857893988326,-9.664877905619389e-05,-4.915478538983305e-06,-6.179939965106809e-06,0.00018572192532086815
1.6161616161616161,4.151898734177215,-0.0001465088876952956,-6.32005845967138e-05,-5.453467813196179e-06,6.291284168760282e-05,0.00012762813815805216
1.7171717171717171,4.151898734177215,-4.7569831821268825e-05,-0.00020217534237369086,4.6709657759653333e-05,7.49235522584879e-05,0.0002001641509171181
1.8181818181818181,4.151898734177215,-8.177168494889784e-05,5.156735614168795e-05,-4.218115338583301e-05,9.061298642162967e-06,0.0001374783596853291
1.9191919191919191,4.151898734177215,4.721782026717318e-06,-1.1130294214279948e-05,-3.837726133580971e-05,1.922553656268789e-06,6.794980545143917e-05
2.0202020202020203,4.151898734177215,2.434267376379488e-05,-7.682051681741036e-05,3.0568617102920274e-05,1.5743352916084643e-05,0.0001056754247877517
2.121212121212121,4.151898734177215,-0.0001900359034447494,-0.00012549854969199354,-3.90612259714771e-05,9.466033594102288e-05,0.00018053154412544226
2.2222222222222223,4.151898734177215,0.00018213689488405226,5.279808004950245e-05,9.11056299588543e-05,-7.048049248006641e-05,0.00022637516385297444
2.323232323232323,4.151898734177215,-9.512557775619486e-05,6.215351807935974e-06,6.919157438054416e-06,2.6673067784477667e-05,9.910786695410188e-05
2.4242424242424243,4.151898734177215,-6.137911128391488e-07,-4.587303876182326e-05,-3.427961350378231e-05,1.394604896239872e-05,7.484538507596236e-05
2.525252525252525,4.151898734177215,1.1312244603579515e-05,-7.537115280501419e-05,-4.178309526658416e-06,1.92176724604304e-05,8.193759382123564e-05
2.6262626262626263,4.151898734177215,0.00010961030312338683,3.688900817528413e-05,-1.9901389740385016e-05,-4.394979338960128e-05,0.00010256704172266567
2.727272727272727,4.151898734177215,-0.0001109504003218967,-0.00017831421658614488,4.610729919544424e-05,8.677938507241248e-05,0.0001752129178237044
2.8282828282828283,4.151898734177215,-0.00017195165838174387,6.611128802167543e-05,2.636842075818544e-05,3.175211110802053e-05,0.00021769681136167153
2.929292929292929,4.151898734177215,0.0002251482747799656,-0.00017357337974285207,4.673511988698325e-05,-1.5472468511134057e-05,0.00035560051333080817
3.0303030303030303,4.151898734177215,1.1130530927924792e-05,3.6781733041549303e-06,-4.598243921357577e-05,-4.4426112696239166e-06,8.024731649072944e-05
3.131313131313131,4.151898734177215,-0.00010741558855506864,5.0012907305884945e-05,-5.579838454216774e-05,1.7220804374755108e-05,0.0001695639837582776
3.2323232323232323,4.151898734177215,-0.0001958810618786603,6.221105587862259e-05,5.538717765356366e-05,4.010100180001131e-05,0.00025224748146933834
3.3333333333333335,4.151898734177215,-1.522323001174051e-06,0.00018639188520062544,5.718116592798434e-06,-5.5460868659835415e-05,0.00018741956024423558
3.4343434343434343,4.151898734177215,-4.593896000542283e-06,-1.4774013923300036e-05,4.399904752181881e-06,5.810372977152696e-06,1.5151982374602861e-05
3.5353535353535355,4.151898734177215,0.00010440877566354442,0.00011779183079621951,-4.879993397766443e-05,-6.666018193792917e-05,0.00014007821982720266
3.6363636363636362,4.151898734177215,5.3696774542602455e-05,0.00013459107502816916,-8.70927267185184e-05,-5.648635487123148e-05,0.00019111887296675552
3.7373737373737375,4.151898734177215,-3.1053374729122016e-05,0.00014418190370922137,7.112839784751992e-05,-3.393855869402981e-05,0.00020348910306301003
3.8383838383838382,4.151898734177215,0.00013784211838092114,3.942798332556796e-05,2.872980935665872e-05,-5.318103051194673e-05,0.00013265136471513243
3.9393939393939394,4.151898734177215,-6.306076430838344e-05,0.0001869005733854655,-1.7387252812334168e-06,-3.715194272312462e-05,0.00022517470291119875
4.040404040404041,4.151898734177215,-2.6786160274393628e-05,-0.00020721549906306059,8.629628939449794e-06,7.020049780123627e-05,0.0001957770807624195
4.141414141414141,4.151898734177215,3.529036353251075e-06,-0.00015906290907729572,4.586832632684347e-05,4.666016181721339e-05,0.00017940599769901693
4.242424242424242,4.151898734177215,1.87004073859162e-05,-3.958495959148978e-05,-6.224800559471189e-05,6.265365661672073e-06,0.0001195046933577625
4.343434343434343,4.151898734177215,-1.4604520145421214e-05,4.6240204907812626e-05,-2.859152922517618e-05,-9.490705428717424e-06,7.40215589744054e-05
4.444444444444445,4.151898734177215,0.00026349414658386356,-2.245117181178132e-05,-1.1670323201434229e-05,-7.231289243162467e-05,0.00027614771787380665
4.545454545454545,4.151898734177215,5.639974070210199e-05,-0.00017196295076851134,-9.82250179216509e-05,3.4668963019922806e-05,0.00026719901844714195
4.646464646464646,4.151898734177215,-6.971228961173138e-05,-0.00010299107365889913,-7.23039821678362e-05,5.181100898118915e-05,0.00015482512242517583
4.747474747474747,4.151898734177215,1.4317791547048329e-05,6.80883993874427e-05,-1.610344424845497e-05,-2.472185728034731e-05,6.814775511134869e-05
4.848484848484849,4.151898734177215,0.00011531706671387666,1.2573045034380022e-05,-1.748114975906314e-05,-3.8367033524477e-05,0.00011367934049157495
4.94949494949495,4.151898734177215,7.392245501251515e-05,-8.428972274838504e-05,-4.049153692136804e-05,3.110180320760969e-06,0.0001540093621853079
5.05050505050505,4.151898734177215,-0.000150983365840475,3.450315453174295e-05,1.1838157066961609e-05,3.494406339261962e-05,0.00017209379048850889
5.151515151515151,4.151898734177215,6.0912536684618285e-05,8.952135390940149e-05,4.6350120951726074e-05,-4.513016717820593e-05,0.00011276718633442566
5.252525252525253,4.151898734177215,-5.250638325892994e-05,3.6252847234894306e-05,-4.817671344833508e-05,4.87606080721069e-06,0.00011374393286132669
5.353535353535354,4.151898734177215,-0.00012893752364518754,7.383001797406453e-05,-7.167121069557222e-05,1.6532251701336904e-05,0.0002168075265616184
5.454545454545454,4.151898734177215,-0.0001436802065915851,-3.383105099154887e-05,3.923647717539476e-06,5.3253377274940184e-05,0.0001302838225412166
5.555555555555555,4.151898734177215,-8.782162440384437e-05,7.605553585335655e-05,3.1436803552644675e-06,3.529826565146346e-06,0.00014214799023885613
5.656565656565657,4.151898734177215,4.3291299740336386e-07,-0.00012075288518487775,-7.028485373209794e-05,3.6095991656242317e-05,0.00017162052377275066
5.757575757575758,4.151898734177215,6.81894269804233e-05,-6.671934463215805e-05,5.3269064980762986e-05,-4.4102470447957463e-07,0.00014887445257939202
5.858585858585858,4.151898734177215,0.00020538665107419627,-0.00011518146458656364,3.306600615763155e-05,-2.7061555946289785e-05,0.00028703181668707824
5.959595959595959,4.151898734177215,0.0002196933662681966,1.4538236717910292e-05,-2.1384180197299882e-05,-7.026948089583207e-05,0.00021599636763864374
6.0606060606060606,4.151898734177215,8.205192619286191e-05,7.696419663712159e-05,-1.9135228757397034e-07,-4.7704836848995044e-05,7.963074419524312e-05
6.161616161616162,4.151898734177215,-0.00011784662382391347,9.646594242818144e-05,8.882810090541338e-05,6.4142044187196105e-06,0.00024131511547309314
6.262626262626262,4.151898734177215,-6.065903152938354e-05,-9.071004297454932e-05,-1.0232499538466497e-06,4.5410722351179855e-05,8.005365555117736e-05
6.363636363636363,4.151898734177215,9.098843601135486e-05,0.00020507409789074447,4.4731621237127505e-05,-8.88187601706298e-05,0.00019410735044166218
6.4646464646464645,4.151898734177215,-0.00016731779447597727,-4.498126087116919e-05,-1.6107528737840423e-05,6.368971660414394e-05,0.00015254753443525072
6.565656565656566,4.151898734177215,2.7023441730473365e-05,3.767447110446903e-05,5.402697657545548e-05,-1.9409373850482716e-05,9.943983555395787e-05
6.666666666666667,4.151898734177215,-0.00010538009605702614,3.605930019417411e-05,-4.997593342430288e-06,2.0796238758855608e-05,0.00012759348773092513
6.767676767676767,4.151898734177215,6.173513747222866e-05,-4.668180819836369e-05,2.135736151432152e-06,-4.515998782159491e-06,9.426563726346724e-05
6.8686868686868685,4.151898734177215,-0.00014080773018531356,-0.00010129671119031232,-9.036271722102007e-05,7.263133241268775e-05,0.0002008002554546846
6.96969696969697,4.151898734177215,0.00015177715868559612,0.00012151447474230501,-5.075825419165604e-05,-8.198749002837032e-05,0.00016458478927521074
7.070707070707071,4.151898734177215,-0.00016548998958267755,1.753080654370712e-05,-5.371957791486747e-05,4.438775491169113e-05,0.0001981232393650381
7.171717171717171,4.151898734177215,2.7118023051868757e-05,1.4577535710860766e-05,-2.0887681841514363e-05,-1.2508667628818858e-05,4.3144681367852635e-05
7.2727272727272725,4.151898734177215,-2.7939097957816214e-05,-3.758980446738705e-06,-9.714775974050367e-05,9.509423521366474e-06,0.00017030197378060052
7.373737373737374,4.151898734177215,7.97484928263954e-05,-0.0001952897410625808,6.3505103266198e-05,3.466237447085562e-05,0.00026864597895580116
7.474747474747475,4.151898734177215,-1.9019824447938046e-05,-1.859968755734402e-05,2.4392691523024217e-05,1.1285853601584618e-05,4.6248778430854486e-05
7.575757575757575,4.151898734177215,2.8594808984062883e-05,0.00017094944431104015,1.3515946161597826e-05,-5.9863275988530904e-05,0.00016031578620651245
7.6767676767676765,4.151898734177215,-3.39824242026007e-05,-7.007808909939068e-05,1.3193387226540421e-05,3.121815399059741e-05,6.485766550649829e-05
7.777777777777778,4.151898734177215,-6.25265863154064e-05,-6.862693016316797e-05,2.3734329515109396e-05,3.9346054943572315e-05,7.757691061175992e-05
7.878787878787879,4.151898734177215,0.00010101983220213862,2.5623039916013032e-05,4.3939728249502566e-05,-3.799286163544549e-05,0.0001185968407495828
7.979797979797979,4.151898734177215,-0.00022562032603065806,4.273238900179597e-05,-3.9842680434583124e-05,5.486638110865863e-05,0.0002591026855886915
8.080808080808081,4.151898734177215,-3.4066538872054064e-05,-3.8562128872289835e-05,-3.8649079012477966e-05,2.1788600323303172e-05,7.625708175117596e-05
8.181818181818182,4.151898734177215,1.574073778590137e-05,-3.1721295923865284e-05,1.0064225567775943e-05,4.794167441389173e-06,4.535630001816403e-05
8.282828282828282,4.151898734177215,-0.00011323823209974092,5.8041661882659916e-05,-8.252769926762851e-06,1.65589710651243e-05,0.00015155392287001808
8.383838383838384,4.151898734177215,-9.299028228688248e-05,-0.00011226278710974638,-3.871496979227744e-06,6.157592081898866e-05,0.00010419089774243875
8.484848484848484,4.151898734177215,2.3900561007715267e-05,0.00013630752601846566,-4.000800872297688e-05,-4.806242610785428e-05,0.00014385782707338702
8.585858585858587,4.151898734177215,8.316032787317789e-05,0.00014785557505328533,-3.321854585760007e-05,-6.930477087793897e-05,0.00014068265164434495
8.686868686868687,4.151898734177215,-0.00010501179748418702,0.00011261006950281383,-8.307874647409886e-05,-2.2794816055880433e-06,0.00023715000637723152
8.787878787878787,4.151898734177215,1.731618313944389e-05,-8.942316441878128e-06,-2.3309455696429745e-05,-2.5121600092697283e-06,4.6525844276652624e-05
8.88888888888889,4.151898734177215,-4.816906894491606e-05,3.7671129128722816e-05,-2.0451898810298244e-05,3.149381944857973e-06,8.2515434216438e-05
8.98989898989899,4.151898734177215,0.0001288522739622208,-2.8281592643294112e-05,-5.1065975308221315e-06,-3.0171204395678005e-05,0.0001453448882006639
9.09090909090909,4.151898734177215,-4.7678882616725576e-05,-1.92265997664558e-05,-1.2348916278874758e-06,2.0071644714954415e-05,4.1603005477648426e-05
9.191919191919192,4.151898734177215,0.00015218137165829576,-5.899945637989652e-06,-6.54406008048846e-05,-4.388442780609183e-05,0.0001921958838251824
9.292929292929292,4.151898734177215,-1.1309405119001484e-05,-0.0002888034660351636,0.00014258909925967016,9.003386134624952e-05,0.0003758511712419669
9.393939393939394,4.151898734177215,-3.574938213060631e-05,0.00010731819077777244,-2.0584126646206033e-05,-2.1470642594149833e-05,0.00013380168240936105
9.494949494949495,4.151898734177215,-6.469421676898198e-05,-3.659708791110446e-05,-2.1258606450309948e-06,3.038739140402593e-05,5.6308315895051684e-05
9.595959595959595,4.151898734177215,0.00010686597942095245,4.992440364655093e-05,-2.6647338642292336e-05,-4.703711492025101e-05,0.00010347852586173889
9.696969696969697,4.151898734177215,-9.932695306395705e-05,8.76788849085442e-05,-4.918288468289517e-06,3.4944204466238557e-06,0.0001622802379655584
9.797979797979798,4.151898734177215,1.9966438173585873e-05,-0.0001108950816759944,-4.809731512888862e-05,2.7278593050722556e-05,0.00014781952764478194
9.8989898989899,4.151898734177215,-0.00022847551265091075,-1.0862801345359608e-05,2.757479753715155e-05,7.18014941988811e-05,0.00022829429385248304
10.0,4.151898734177215,1.6159638375189908e-05,0.0001361361181571378,2.2812610239953748e-05,-4.568872695969831e-05,0.0001347423901300914
0.0,4.253164556962025,0.00012116767625395025,3.6808835277940426e-05,-1.0499083448549185e-05,-4.73929534595672e-05,0.0001091198760393219
0.10101010101010101,4.253164556962025,3.449347750040752e-05,6.343578251750039e-05,3.3991659544631343e-06,-2.937877800537237e-05,5.532125038580136e-05
0.20202020202020202,4.253164556962025,0.00022984905248871359,-0.000270345191170407,2.156035133827184e-05,1.2148841604508023e-05,0.000435258821396891
0.30303030303030304,4.253164556962025,-7.250583270040637e-05,6.228542957517027e-05,-8.176103242246906e-06,3.0661209375708322e-06,0.0001176995048506012
0.40404040404040403,4.253164556962025,1.4140495684102678e-05,8.124499073085743e-05,-2.1184142185047176e-05,-2.861564592448803e-05,8.365501381634858e-05
0.5050505050505051,4.253164556962025,-6.202553697070982e-05,0.00012229387675471732,-1.644035916643658e-05,-1.808050193520225e-05,0.0001649216757455136
0.6060606060606061,4.253164556962025,0.0001365572905546057,-6.470094130248745e-05,-3.5918889994728404e-05,-2.1556904775635474e-05,0.00018852053104371258
0.7070707070707071,4.253164556962025,5.5787945785789665e-05,0.00012247832170480302,9.836905851502975e-06,-5.34798802471778e-05,0.00010756725506219525
0.8080808080808081,4.253164556962025,0.00011574980068216776,-3.629110808183947e-05,-1.9635478454071813e-05,-2.383760778009849e-05,0.000141677116900148
0.9090909090909091,4.253164556962025,-0.00010470408253278363,-1.9002126442047505e-05,4.763092301104689e-05,3.7111862692449335e-05,0.00012704542484370628
1.0101010101010102,4.253164556962025,-0.00012504077899615508,-2.3458089784839856e-05,0.00010057815470458509,4.4549660634298476e-05,0.00020880650415923145
1.1111111111111112,4.253164556962025,4.5166116176199656e-05,4.323296535407657e-05,9.03927440451761e-05,-2.6519724459082867e-05,0.00016269279866046644
1.2121212121212122,4.253164556962025,5.5822102241893325e-05,-7.053969942353273e-05,6.933737319113077e-05,4.4152791544918215e-06,0.00016264268987549986
1.3131313131313131,4.253164556962025,8.496847905308738e-06,-5.068607434321284e-05,2.2661494092378818e-06,1.265676793137123e-05,5.5563951629613845e-05
1.4141414141414141,4.253164556962025,-8.700290079640033e-05,5.907815936371409e-05,-3.916171602067078e-05,8.37742242980587e-06,0.00014422421746779841
1.5151515151515151,4.253164556962025,3.0036546209489763e-05,0.0001732857655375294,4.528500888911424e-05,-6.099669352410575e-05,0.00017854254628062492
1.6161616161616161,4.253164556962025,-0.00016632722593646989,-7.232276469595394e-05,4.489419261659123e-05,7.159499718972715e-05,0.00016405044696415953
1.7171717171717171,4.253164556962025,-5.8604588873921464e-05,0.00019812459554762854,6.437221510349631e-05,-4.185600200211212e-05,0.0002583219113777728
1.8181818181818181,4.253164556962025,-0.00014098073700991766,1.2027033231326765e-05,-4.489993698519368e-05,3.8686111133577264e-05,0.00016662476037199669
1.9191919191919191,4.253164556962025,-4.666378451331711e-05,1.9296536063225635e-05,0.00011647505078130292,8.210174535027443e-06,0.00021011812595150795
2.0202020202020203,4.253164556962025,-2.783560089505525e-05,-5.789713412644285e-06,2.0580730464333405e-05,1.008759429230986e-05,4.379361490074623e-05
2.121212121212121,4.253164556962025,4.278410026373528e-05,0.00012122334377399511,-6.055179409183401e-06,-4.920223321131911e-05,0.00010700066452983314
2.2222222222222223,4.253164556962025,2.4733367777110282e-05,5.563553108569814e-05,-2.550273365851429e-06,-2.4110669658842526e-05,4.8482052676116874e-05
2.323232323232323,4.253164556962025,-7.814949306485185e-05,-4.4650521116398664e-05,-3.737966373730262e-05,3.684000425437516e-05,9.382597985245196e-05
2.4242424242424243,4.253164556962025,5.3967845662264424e-05,-1.7563998883292718e-05,-7.872007453305953e-05,-1.0921154033691512e-05,0.00015086240090431867
2.525252525252525,4.253164556962025,2.4185555806571713e-05,3.600015721302155e-05,6.631170649244842e-05,-1.805571390587798e-05,0.00011917212707481583
2.6262626262626263,4.253164556962025,-1.9289558414301783e-05,8.757036302679133e-05,4.1487604681425656e-05,-2.0484241383746866e-05,0.00012203898231317911
2.727272727272727,4.253164556962025,0.00015246902518412377,0.00010144671701085395,-3.577514922570593e-05,-7.617472265849331e-05,0.00014802142374827797
2.8282828282828283,4.253164556962025,-2.365897376439524e-05,0.0001145836416866835,-6.969408843328702e-05,-2.727740037668648e-05,0.00017598831564027547
2.929292929292929,4.253164556962025,-0.0001277586663806118,3.2978630032493565e-05,9.62676348394285e-05,2.843401090443547e-05,0.0002223185669684747
3.0303030303030303,4.253164556962025,-8.837727289862294e-05,1.693582145838459e-05,4.476273367258902e-05,2.1432435432071504e-05,0.00012492082734991537
3.131313131313131,4.253164556962025,-0.00010630298989896927,5.300122000062292e-05,3.921581195421471e-06,1.5990530969503904e-05,0.0001406761512644944
3.2323232323232323,4.253164556962025,0.00011258087128756504,6.447182970493488e-05,9.11016404579108e-06,-5.3115810297749975e-05,9.910479257083381e-05
3.3333333333333335,4.253164556962025,0.00010742197067286798,0.00011111379671205377,4.335702113213761e-06,-6.556073021547652e-05,0.00010957229362252323
3.4343434343434343,4.253164556962025,1.7967144651901084e-06,-3.692525653984593e-05,-3.4345951359759e-05,1.0538562622396746e-05,7.051226858057857e-05
3.5353535353535355,4.253164556962025,-0.00014168253023955288,0.00010400330501159621,-5.1824568845810426e-05,1.1303767568387002e-05,0.00023169686239545473
3.6363636363636362,4.253164556962025,1.5536226763514204e-05,4.723730451523336e-05,-4.819075178349214e-06,-1.8832059383624268e-05,4.252667706264065e-05
3.7373737373737375,4.253164556962025,-9.962392561189516e-05,6.461925193964371e-05,1.2552893959331807e-05,1.0501402101675436e-05,0.0001449514514041085
3.8383838383838382,4.253164556962025,-6.916461482438914e-06,6.962727849390393e-07,-1.963509013204205e-05,1.8660566092499624e-06,3.478143574678386e-05
3.9393939393939394,4.253164556962025,0.00012231664509653804,-3.3838738431775176e-05,9.512509015075221e-05,-2.6543371999428857e-05,0.0002176966034970844
4.040404040404041,4.253164556962025,-5.6549814388751575e-05,-0.00010543319593532983,6.299402240245054e-05,4.8594903097224427e-05,0.00014232551853868457
4.141414141414141,4.253164556962025,7.761381087326975e-05,6.530333161929631e-05,2.0069858713707485e-05,-4.2875142747769814e-05,8.01772163118771e-05
4.242424242424242,4.253164556962025,3.6624320641266834e-05,9.49100335268063e-05,2.2196710489975916e-05,-3.946030625042194e-05,9.138556612650655e-05
4.343434343434343,4.253164556962025,-0.00016916694717168787,-7.612264540143882e-05,-8.876004818222533e-07,7.3586877771938e-05,0.0001467550378315971
4.444444444444445,4.253164556962025,0.00014326296722838716,-0.0001393274412510236,-1.759842403253236e-05,-1.1806577932090641e-06,0.00024662925596912914
4.545454545454545,4.253164556962025,5.127410373368706e-05,-0.00022314034655294593,5.386141429132603e-05,5.155987284577766e-05,0.00026937914748208317
4.646464646464646,4.253164556962025,-3.875553587903942e-05,3.782884353291473e-06,2.9405141536482195e-06,1.0491795457724383e-05,4.109561236975975e-05
4.747474747474747,4.253164556962025,8.456413073517281e-05,3.095404323909826e-06,3.800141249280624e-05,-2.629786051772479e-05,0.0001059775240951768
4.848484848484849,4.253164556962025,8.663990453236506e-05,-9.051528900937569e-05,-2.9053101968251006e-05,1.1626153431031876e-06,0.00016147437816029094
4.94949494949495,4.253164556962025,7.824517588400539e-05,8.516218039362729e-05,0.00010267761672098525,-4.90222068832898e-05,0.0001958046313585446
5.05050505050505,4.253164556962025,-5.775817060014348e-05,-1.2808172219271906e-05,-8.900752168547904e-07,2.1169902845824615e-05,5.256097080754939e-05
5.151515151515151,4.253164556962025,2.6563139258063878e-05,2.8911205813815813e-06,1.3228334509869932e-05,-8.836277951833638e-06,3.409000159224602e-05
5.252525252525253,4.253164556962025,7.389622572699279e-05,8.27812521502381e-05,-3.505407530815398e-05,-4.700324336316926e-05,9.941091678748397e-05
5.353535353535354,4.253164556962025,-0.00014514983705553598,-0.00011481854942930614,-1.063328669482734e-05,7.799051594545264e-05,0.0001338845812910697
5.454545454545454,4.253164556962025,-0.00016178337768691235,-9.549291062896981e-05,2.6434008438463742e-05,7.718288649476465e-05,0.0001481211060444921
5.555555555555555,4.253164556962025,7.36339089545942e-05,1.515492761068155e-05,-8.918427741551868e-06,-2.6636650969582726e-05,6.909647515658032e-05
5.656565656565657,4.253164556962025,0.00013059270207743486,-0.00011634510941063772,1.0430706744581303e-05,-4.274277800039141e-06,0.00021473439282207045
5.757575757575758,4.253164556962025,-0.0001597582860291952,5.527648424615353e-05,2.0148477631669012e-05,3.13445405349125e-05,0.0001965374251869305
5.858585858585858,4.253164556962025,-1.1162177364764068e-05,0.00017011421349337472,1.586741675990228e-05,-4.7685610838583194e-05,0.00017809438397425564
5.959595959595959,4.253164556962025,-3.4793307904351426e-05,0.00011941641892762523,3.9499766096271906e-05,-2.538693330698214e-05,0.00015590523462023187
6.0606060606060606,4.253164556962025,0.00010426929053056586,-0.00010732132429369883,8.568152831257046e-05,9.156101289398897e-07,0.00023580551906335657
6.161616161616162,4.253164556962025,-0.00017706529455197796,0.00010096685398598937,-8.858570666453573e-06,2.2829532169796577e-05,0.00024425309148991384
6.262626262626262,4.253164556962025,4.719666610747012e-05,-1.4389477781694297e-05,1.0021229182756738e-05,-9.842156497732747e-06,5.8437940105836924e-05
6.363636363636363,4.253164556962025,1.275483425748552e-05,-0.00013795532386293947,2.4194142795202596e-05,3.756014688163619e-05,0.00015069845422783186
6.4646464646464645,4.253164556962025,-1.7099408250896173e-05,1.9252048562256702e-05,-7.989680068962643e-05,-6.457920934081587e-07,0.00014192507197715307
6.565656565656566,4.253164556962025,0.00014571178663857665,-5.338365836078662e-05,-0.0001242145745425626,-2.7698438483337006e-05,0.0002795499053278509
6.666666666666667,4.253164556962025,4.274790927686894e-05,4.488685862296884e-05,-3.2824327616051566e-05,-2.629043036995133e-05,7.180323053164914e-05
6.767676767676767,4.253164556962025,-2.256400557910661e-06,-1.5794141607917814e-05,-7.107648511500827e-05,5.415162649748542e-06,0.00012399398594925825
6.8686868686868685,4.253164556962025,1.0701668372217535e-05,0.0001449667911062478,9.025459933388464e-06,-4.67005378435396e-05,0.0001407937728992849
6.96969696969697,4.253164556962025,-0.00019337757003356517,-0.00019407649178077686,-7.248044932926978e-05,0.0001162362185443026,0.0002308479488272163
7.070707070707071,4.253164556962025,-2.0949476205437576e-05,-8.509377179611972e-05,3.7782089638456636e-05,3.181297440046719e-05,0.00010089410040554237
7.171717171717171,4.253164556962025,3.1242852399240205e-05,-0.00013416483431785193,2.7010084673619228e-05,3.087659457558352e-05,0.00015923769883908388
7.2727272727272725,4.253164556962025,-2.9559276651719524e-05,0.0001239198178597628,2.4386533173620675e-05,-2.830816236241298e-05,0.00014723097932840563
7.373737373737374,4.253164556962025,7.674260163364423e-06,5.7785661129780665e-05,-5.325718513103469e-05,-1.9637976387943524e-05,0.00010706819326150416
7.474747474747475,4.253164556962025,6.160613957113162e-05,1.3548902289904684e-05,-2.3202601935275643e-05,-2.2546512558310892e-05,6.898750488539365e-05
7.575757575757575,4.253164556962025,-2.3718393116943687e-05,-3.5703081264544886e-06,-3.335633308280474e-05,8.186610373019452e-06,6.187537612547405e-05
7.6767676767676765,4.253164556962025,-9.21880507521839e-05,-0.00017803445389215537,2.1815427311517595e-05,8.106675139330177e-05,0.00015877654993565706
7.777777777777778,4.253164556962025,-0.00013860368340198992,-6.394495903615818e-05,5.963312067884444e-06,6.076459273144443e-05,0.0001205969122896231
7.878787878787879,4.253164556962025,-0.0001149739576575642,-5.10939493802687e-05,-2.9864855273796627e-05,4.982037211134987e-05,0.00011238708899017954
7.979797979797979,4.253164556962025,-0.0001278131803583648,3.320141372510757e-05,-2.92743357427625e-06,2.838352998997717e-05,0.00014733577579549684
8.080808080808081,4.253164556962025,0.00011777172441497514,-6.020826588021061e-05,1.1648053229640286e-05,-1.726903756042936e-05,0.00015809198930005373
8.181818181818182,4.253164556962025,-6.845549613771364e-05,6.276926850274022e-05,3.0689212472707855e-05,1.7058682904920273e-06,0.00012549311026495075
8.282828282828282,4.253164556962025,-0.0001055486830091198,-1.861676244769462e-05,-3.1001959431292473e-05,3.7249633637044325e-05,0.00011137997143330688
8.383838383838384,4.253164556962025,0.0002655157373522406,0.0001310940298152549,1.417124767955903e-05,-0.00011898293015024863,0.00023125569447782072
8.484848484848484,4.253164556962025,-4.6954050418740646e-05,-0.00013939568249639442,-3.784640310566216e-05,5.590491987454052e-05,0.00013923971390871067
8.585858585858587,4.253164556962025,1.0546208146547174e-05,2.629100165195821e-05,0.00010047805416191692,-1.1051162939551615e-05,0.00017553542948027935
8.686868686868687,4.253164556962025,-5.569421523674165e-06,-5.488457640662835e-06,2.2045103245442296e-05,3.3173637493010998e-06,3.858152175034916e-05
8.787878787878787,4.253164556962025,-5.490183114614564e-05,0.00010547617319451757,-6.395246367556586e-06,-1.5172302614511577e-05,0.00014160849816989094
8.88888888888889,4.253164556962025,-3.526630660483688e-05,-2.6952460769105147e-05,5.3175308097784235e-05,1.8665630212182605e-05,9.748063372640356e-05
8.98989898989899,4.253164556962025,-2.5489759218114466e-05,4.721575442441729e-05,-8.146627020072768e-06,-6.517798561890846e-06,6.543451763295035e-05
9.09090909090909,4.253164556962025,-7.769815827197605e-05,-4.429203239628489e-05,9.499069134762368e-05,3.6597057200478284e-05,0.0001778400205730844
9.191919191919192,4.253164556962025,-6.393207418477856e-05,-0.00010092893925173064,-2.7158901462896986e-07,4.9458304030952764e-05,8.843972941044942e-05
9.292929292929292,4.253164556962025,9.999202155728081e-06,7.403509376948673e-05,-0.00011741471746088942,-2.5210288777564443e-05,0.00021494077070963036
9.393939393939394,4.253164556962025,-3.6424984301908564e-05,-0.0001941874020888049,-6.262935432991216e-05,6.918371591721404e-05,0.00020911614382927352
9.494949494949495,4.253164556962025,5.955691061978239e-05,-0.0001522611917481695,6.34487374227053e-07,2.7811284338516133e-05,0.0001892086415194534
9.595959595959595,4.253164556962025,-1.759672157475485e-05,3.7632356023270586e-05,-2.378500847864394e-05,-6.01069033455472e-06,6.391576336219937e-05
9.696969696969697,4.253164556962025,-0.0002486314411035419,-6.749155256158504e-05,5.354563029788132e-05,9.483689809953807e-05,0.00024123346527521225
9.797979797979798,4.253164556962025,-0.00016735558705335384,7.690349180691102e-05,-0.00013335488387336596,2.7135628573932847e-05,0.0003164535412134038
9.8989898989899,4.253164556962025,-0.0002396086984492923,-0.00019845008435377283,4.562083980026963e-05,0.00013141763484091954,0.00023555929403373002
10.0,4.253164556962025,0.00016273169630360356,3.687882554289635e-05,-1.558406742981323e-05,-5.988315655394997e-05,0.00015022945247175187
0.0,4.3544303797468356,-6.219100856575214e-05,-0.00013708527973247647,-5.583812391095314e-05,5.978288648946859e-05,0.00015325897006492208
0.10101010101010101,4.3544303797468356,8.637248852040867e-05,-2.855707183291485e-06,-5.1204438547258464e-06,-2.5055034401135156e-05,8.828178299309276e-05
0.20202020202020202,4.3544303797468356,-5.950713409983567e-05,-7.678216556722806e-05,-4.473649017041773e-05,4.088678990011912e-05,0.00010426684033472899
0.30303030303030304,4.3544303797468356,-0.0001535201904323178,-0.0001930407763135147,-6.47080224753545e-05,0.00010396829002374973,0.00020918632356647804
0.40404040404040403,4.3544303797468356,-4.309346471892965e-05,-4.892071763851193e-05,6.877321046555069e-06,2.7604254707232474e-05,4.779134576992869e-05
0.5050505050505051,4.3544303797468356,0.00010753809439931741,-8.277586127623899e-05,5.0783628053097307e-05,-7.428669936923527e-06,0.0001872292017172392
0.6060606060606061,4.3544303797468356,5.206314669233056e-05,4.526696472421168e-05,6.555180872780714e-05,-2.919903342496267e-05,0.00012366910526302843
0.7070707070707071,4.3544303797468356,-5.305856543128934e-05,4.530957907076466e-05,-1.796687928223276e-05,2.3246959081574032e-06,9.077806365203879e-05
0.8080808080808081,4.3544303797468356,-3.710306647441029e-06,7.864910785838651e-06,7.549584728435129e-05,-1.2463812415192865e-06,0.00013116277406110223
0.9090909090909091,4.3544303797468356,-0.00015913420584580845,-5.695589284208841e-05,-2.990398376071203e-05,6.482702960636905e-05,0.000148952284837238
1.0101010101010102,4.3544303797468356,-8.860549939181055e-05,8.453006635631864e-05,7.533782570188924e-05,1.2226299106475726e-06,0.00019877992687458408
1.1111111111111112,4.3544303797468356,-0.00011527412469894496,-2.935595363512842e-05,-3.0571171860770606e-05,4.338902350022201e-05,0.00011648907084257218
1.2121212121212122,4.3544303797468356,0.00017166281159032652,-0.00011568451187312197,4.757801198736278e-05,-1.6793489915161363e-05,0.00026362996303535375
1.3131313131313131,4.3544303797468356,-0.00010711631062380676,-0.00018509321690345014,1.6102702345329303e-06,8.766285825817707e-05,0.00016098036942378585
1.4141414141414141,4.3544303797468356,6.236036840600577e-05,-0.00012032974165837239,0.00010184189494553385,1.7390811975709988e-05,0.00023871988604557112
1.5151515151515151,4.3544303797468356,-6.152828186722137e-05,-9.707346967098304e-05,-2.3190651396348763e-05,4.7580525461461325e-05,9.40725417766046e-05
1.6161616161616161,4.3544303797468356,-0.00013195697317625548,-5.092331210811245e-05,3.285157066477525e-05,5.486408558531037e-05,0.00012854500161978732
1.7171717171717171,4.3544303797468356,-0.00010427379264594105,-1.3067271857503177e-05,4.1971134303653283e-05,3.520231935103327e-05,0.0001223353251299684
1.8181818181818181,4.3544303797468356,-5.290843021526204e-05,3.888490137629961e-05,-2.3107083073872963e-05,4.2070586516887275e-06,8.927759236410721e-05
1.9191919191919191,4.3544303797468356,-8.427144764832068e-05,4.498730301907519e-05,4.791410905143167e-05,1.1785243388773647e-05,0.00014072656114416473
2.0202020202020203,4.3544303797468356,-0.00017333842963304744,-1.2023234521734162e-05,5.156039780182356e-06,5.5608499246434483e-05,0.00016788816219005074
2.121212121212121,4.3544303797468356,-8.560968518206836e-05,3.215754593066088e-05,-2.548302217195887e-05,1.6035641775422246e-05,0.00011429906647762633
2.2222222222222223,4.3544303797468356,7.877696179394888e-05,4.658917218137556e-05,-6.189810769362378e-05,-3.760984019259733e-05,0.00012728053443178793
2.323232323232323,4.3544303797468356,3.992111042092124e-05,0.00014046989195812558,-6.649126987406312e-05,-5.4117300713714045e-05,0.00017023818151251538
2.4242424242424243,4.3544303797468356,7.356986161060528e-05,-1.3215266591587608e-05,2.171845827210277e-05,-1.81063785057053e-05,8.929998562111814e-05
2.525252525252525,4.3544303797468356,7.915132760117048e-05,-0.00024359555416221288,3.5152934651317494e-05,4.9333267968312724e-05,0.00029764378814634246
2.6262626262626263,4.3544303797468356,-3.857592975848932e-05,-0.00014109256719344385,7.326368835685339e-05,5.390054908557995e-05,0.00017903949845612154
2.727272727272727,4.3544303797468356,-0.00010847783384337821,1.236241084512955e-05,-6.893016821376566e-05,2.8834626899474598e-05,0.0001658777304424888
2.8282828282828283,4.3544303797468356,5.458588805407151e-05,6.066775721838792e-07,-4.424268854345303e-05,-1.6557769687876616e-05,9.391015742158587e-05
2.929292929292929,4.3544303797468356,0.00018538082284898986,-6.081673048174721e-06,-8.322370315157925e-05,-5.3789744940244544e-05,0.00023729520871688318
3.0303030303030303,4.3544303797468356,9.391945592125567e-05,-7.798600042138002e-05,-1.8418394619078512e-05,-4.780036649962695e-06,0.00015246243790636204
3.131313131313131,4.3544303797468356,9.391439957714609e-05,-0.00019153846292356433,8.062022573544632e-07,2.928721900392547e-05,0.00025198624338382595
3.2323232323232323,4.3544303797468356,7.148041063653766e-05,-0.00021016259801429256,-6.403569006293174e-05,4.160465621332647e-05,0.0002767706348601599
3.3333333333333335,4.3544303797468356,5.19570620243556e-06,0.00010047094497138478,7.440926144779795e-06,-3.1699995352146105e-05,9.88204977730272e-05
3.4343434343434343,4.3544303797468356,0.00018158655461803557,2.7730850080819183e-05,-3.928593278061798e-05,-6.279522140965642e-05,0.00018258499632986866
3.5353535353535355,4.3544303797468356,0.0001375443070664257,5.794739234501601e-05,1.6081303839029986e-05,-5.864750982343251e-05,0.0001228080932148142
3.6363636363636362,4.3544303797468356,-6.581027636728803e-05,-0.0001351658173657056,-3.12077447474332e-06,6.029282811989809e-05,0.00011719517295263178
3.7373737373737375,4.3544303797468356,1.460525069284672e-05,-2.609578667561488e-05,-3.343821662911946e-05,3.447160794830448e-06,6.804250091268153e-05
3.8383838383838382,4.3544303797468356,9.756258099155287e-05,-6.839509413883594e-05,5.1958206196209436e-06,-8.750246055815077e-06,0.00014474162386498378
3.9393939393939394,4.3544303797468356,3.1469238407989707e-05,8.814023141461678e-05,-7.226191328964262e-05,-3.588284094678194e-05,0.00014714163156944612
4.040404040404041,4.3544303797468356,9.755310400907863e-05,-9.29040633702106e-05,5.939970608711487e-05,-1.3947121916604098e-06,0.0001944114916845949
4.141414141414141,4.3544303797468356,9.928460734431973e-05,-0.00015064352555743378,5.0906857662042376e-05,1.5407675463934216e-05,0.0002351212725443895
4.242424242424242,4.3544303797468356,5.029272952479718e-06,-1.829209953515253e-05,5.3476503678610404e-05,3.978847974801843e-06,9.50320987368793e-05
4.343434343434343,4.3544303797468356,-4.961732834085469e-05,-0.0001301158017692047,5.980022337562814e-05,5.391993903301782e-05,0.00015383173544602566
4.444444444444445,4.3544303797468356,-9.299887983911468e-05,7.153551285258081e-05,-3.953978930815219e-06,6.439010095960162e-06,0.0001430585392857569
4.545454545454545,4.3544303797468356,-0.00010846499237456047,2.8683966088583463e-05,-7.397272078036224e-05,2.3934307885793102e-05,0.00017920524797952522
4.646464646464646,4.3544303797468356,-8.610988336536416e-05,5.239601090821791e-05,-2.5039894717478717e-05,1.0114161737143874e-05,0.00012865868545416963
4.747474747474747,4.3544303797468356,-8.673115187626529e-05,2.6565353833014995e-05,-3.274484772258786e-05,1.8049739412975085e-05,0.00011725497697377896
4.848484848484849,4.3544303797468356,5.94381904588582e-05,6.225093204404112e-05,-4.507578551628511e-05,-3.650673675086979e-05,9.901249209079927e-05
4.94949494949495,4.3544303797468356,-8.991238107859537e-05,7.731367514708116e-05,-5.294955320364046e-05,3.779611779454265e-06,0.00017153443622718294
5.05050505050505,4.3544303797468356,0.00010578243547102045,9.390860578387977e-05,-5.021275486936857e-05,-5.990731237647006e-05,0.0001328112612607074
5.151515151515151,4.3544303797468356,-2.8026212331612673e-05,4.112978575795873e-05,-9.929286282884556e-06,-3.931072027903818e-06,6.26547056590401e-05
5.252525252525253,4.3544303797468356,2.2107961183299074e-05,9.283863021548362e-05,0.00010586811742831882,-3.448397741963481e-05,0.00020169153487021685
5.353535353535354,4.3544303797468356,5.085196219233839e-05,8.520792155491347e-05,3.054057163562975e-05,-4.081796512417556e-05,9.11674366021893e-05
5.454545454545454,4.3544303797468356,0.0001195737480814053,-9.275647231097381e-05,3.213721186390839e-05,-8.045182731129446e-06,0.0001925909774574117
5.555555555555555,4.3544303797468356,-7.815103754053737e-05,0.00012928563135680354,1.4039942501700209e-05,-1.534037814487985e-05,0.00018307792147050545
5.656565656565657,4.3544303797468356,8.65208477038547e-05,-0.00010787956346006412,3.5658670798406896e-05,6.4076147268628264e-06,0.0001796449581523
5.757575757575758,4.3544303797468356,-2.1541816445201908e-05,-0.0001644982385073015,-7.586360632484824e-05,5.5812016485751024e-05,0.00020309108735273233
5.858585858585858,4.3544303797468356,0.00010474662663906487,0.00022714902456447876,-9.674649576956277e-05,-9.956869536106309e-05,0.0002585635210474298
5.959595959595959,4.3544303797468356,9.656028791381032e-05,9.530924328166133e-05,-2.5762409347017486e-05,-5.756085935864149e-05,0.00010581001035292512
6.0606060606060606,4.3544303797468356,-0.0001987701755113809,2.955615481702373e-05,2.4685717924843836e-05,5.076420620830715e-05,0.0002192856243560194
6.161616161616162,4.3544303797468356,6.987447142371444e-05,-6.197645735152508e-05,1.3948068214482685e-05,-2.3694042216568085e-06,0.00011678073917170021
6.262626262626262,4.3544303797468356,0.0001284214373255806,4.3205798664594864e-05,7.8361170391904e-06,-5.148817079705264e-05,0.00011399328940100939
6.363636363636363,4.3544303797468356,6.627203647880952e-05,0.00011707015543511401,-4.53099377267796e-06,-5.5002657574177055e-05,0.00010198292119163277
6.4646464646464645,4.3544303797468356,-4.466238804721184e-05,8.296062150730933e-05,-1.094363009575992e-06,-1.1489470038029245e-05,0.00011218737000458772
6.565656565656566,4.3544303797468356,0.00011189739810606194,-5.260222604216558e-05,-2.875941970679643e-05,-1.7788551619168908e-05,0.0001538030779334987
6.666666666666667,4.3544303797468356,0.00013263712522337487,1.8145176492914986e-05,-0.00010198860306099884,-4.5234690514886956e-05,0.00021614845785661112
6.767676767676767,4.3544303797468356,-7.932207330746498e-05,-0.00019847753247552997,-5.141670144619365e-05,8.333988173489848e-05,0.00019460910665557813
6.8686868686868685,4.3544303797468356,-9.370863510788545e-05,-2.853154712507623e-05,4.603353917293801e-05,3.66720546698885e-05,0.00011523439296878912
6.96969696969697,4.3544303797468356,0.00029131370417764146,2.757188739595304e-06,-7.758558271961855e-05,-8.822126787517101e-05,0.0003195725855019859
7.070707070707071,4.3544303797468356,1.123740477834054e-05,4.261347376057024e-05,-1.106449744287849e-05,-1.6155263561673232e-05,4.278541655081497e-05
7.171717171717171,4.3544303797468356,-7.298195411080013e-05,-2.384474255069232e-05,3.2767275053419534e-05,2.9048008998447733e-05,8.588238707558502e-05
7.2727272727272725,4.3544303797468356,-0.0001598897313125654,9.685372274723576e-05,-3.404701509457316e-05,1.8910802569598894e-05,0.00023218286587608114
7.373737373737374,4.3544303797468356,6.644398464802648e-06,0.00017223095109192963,-8.064240606528087e-06,-5.366260486701968e-05,0.00016958293961257702
7.474747474747475,4.3544303797468356,-0.00015202144642771125,3.5957495310997365e-05,-1.8404764579309432e-06,3.481918533501417e-05,0.0001728581330192072
7.575757575757575,4.3544303797468356,5.940796696295788e-05,0.00015363639633420056,7.620801110086689e-05,-6.391330898914752e-05,0.00018822647456548432
7.6767676767676765,4.3544303797468356,-5.22608081668724e-05,7.956586539531983e-05,-1.699813902328759e-05,-8.19151716853423e-06,0.00011868827079868435
7.777777777777778,4.3544303797468356,-4.6270547517324904e-05,-2.863394548670187e-05,-0.00010774748438697817,2.247134790120803e-05,0.00019095685177967253
7.878787878787879,4.3544303797468356,2.3415122824294784e-05,0.00019552378049180063,5.698945276532552e-05,-6.568167099482863e-05,0.00020962584897590874
7.979797979797979,4.3544303797468356,-8.574404085486058e-05,-6.698712830862796e-05,-2.375203249132628e-05,4.581935074904656e-05,8.82499063858929e-05
8.080808080808081,4.3544303797468356,4.0333619975381405e-05,0.00015683045896459514,8.169135243071798e-06,-5.914922368199296e-05,0.00014176479795344194
8.181818181818182,4.3544303797468356,3.600690586728043e-05,-2.1083084818797034e-05,-2.2442233273071736e-06,-4.477146314545019e-06,5.0152168458627856e-05
8.282828282828282,4.3544303797468356,-1.6675424939982747e-05,0.0001088468350819622,-2.4324172552857927e-05,-2.7651423042593835e-05,0.00012536254083176697
8.383838383838384,4.3544303797468356,0.00011661593310374452,0.00012131985634282011,-2.3095973817607487e-05,-7.138073683396939e-05,0.000125579565077365
8.484848484848484,4.3544303797468356,-0.0001259031713417179,-0.0001549788602796215,-4.014402750060501e-06,8.426460948640182e-05,0.00014284982315586586
8.585858585858587,4.3544303797468356,3.5714493635674855e-05,-0.00016581097419066508,-1.9617592707957636e-06,3.902894416649707e-05,0.00018628527772874935
8.686868686868687,4.3544303797468356,-0.00011544318273720459,8.250801192280873e-05,1.28834179665058e-05,9.880551244318755e-06,0.00017365953859531377
8.787878787878787,4.3544303797468356,7.991699008102064e-05,-0.0001306491945533783,-5.574423625379833e-06,1.52196613417073e-05,0.00018436444972536785
8.88888888888889,4.3544303797468356,-0.00012260529712253312,2.193585022002818e-05,-7.124768290266499e-05,3.020083407075148e-05,0.0001828425245894351
8.98989898989899,4.3544303797468356,-4.9615849573139505e-05,-3.143863240370756e-05,4.54997247245851e-05,2.431634459305412e-05,9.000522501605858e-05
9.09090909090909,4.3544303797468356,-1.4964683618172764e-05,-7.754755282044634e-05,-3.0230800820364513e-05,2.775367093158573e-05,8.842394509199451e-05
9.191919191919192,4.3544303797468356,-3.723292949199333e-05,0.0002609608891856961,1.6569654928373886e-06,-6.711838790811084e-05,0.0002814452908014223
9.292929292929292,4.3544303797468356,-9.157340356721739e-05,-2.2901352136027663e-05,3.1428684451492694e-05,3.434242671097352e-05,9.88751335180382e-05
9.393939393939394,4.3544303797468356,0.00015800940123076527,3.7089877889905136e-05,-5.758496732275468e-05,-5.852978373620112e-05,0.00017444244296264342
9.494949494949495,4.3544303797468356,-0.0001060321984191839,-6.40416105120958e-05,2.7249797382989335e-05,5.102214267938391e-05,0.00010383321529225342
9.595959595959595,4.3544303797468356,4.15361671755426e-05,-3.431447747740466e-05,1.2940558220036875e-05,-2.166506909441382e-06,6.950109756229247e-05
9.696969696969697,4.3544303797468356,-0.00010904461043037783,9.631224957371415e-05,-6.355321478506672e-05,3.8197082569991045e-06,0.00020925138361514297
9.797979797979798,4.3544303797468356,-1.5871499106628908e-05,0.00011814078497031912,2.7537177468097036e-06,-3.068078575910706e-05,0.00012691323731075116
9.8989898989899,4.3544303797468356,1.6580201333724683e-05,0.00018271593037784493,-1.2552630839247511e-05,-5.9788839513470884e-05,0.0001763611436811525
10.0,4.3544303797468356,6.222595747229028e-05,5.466245275383861e-05,-6.819951139791336e-05,-3.506652306783866e-05,0.0001319551064898961
0.0,4.455696202531645,3.371881876877485e-05,-4.313740054971619e-05,1.9598925148759112e-05,2.825574534282401e-06,7.486447660673287e-05
0.10101010101010101,4.455696202531645,-0.00016208134406039157,4.9112678420912845e-05,-1.1911021248471193e-05,3.389059969184362e-05,0.00019253125326686827
0.20202020202020202,4.455696202531645,1.688615335061938e-05,9.044824472339523e-05,-5.713544233579897e-05,-3.220031942220438e-05,0.00012935254357975516
0.30303030303030304,4.455696202531645,-4.672482953061451e-05,0.00013193058869971378,-5.8663943380997964e-05,-2.556172775072978e-05,0.00018994130397365544
0.40404040404040403,4.455696202531645,-1.779335524318846e-05,8.008932370922761e-05,-2.731183464596518e-05,-1.8688790539811745e-05,0.00010194984054005373
0.5050505050505051,4.455696202531645,-0.00020310516593658817,8.225006364747857e-05,-1.0276484125167633e-05,3.625653068673288e-05,0.00025502747421304205
0.6060606060606061,4.455696202531645,8.505244370776477e-05,0.00010407517633330543,2.864883909928091e-05,-5.673828601232106e-05,0.00010805545047898519
0.7070707070707071,4.455696202531645,-5.943358764619228e-05,3.197459422751411e-05,-4.494568079282549e-05,8.237698025603452e-06,0.0001118723984313194
0.8080808080808081,4.455696202531645,-3.3316086694906195e-05,2.965736497167661e-05,-2.5968146969110983e-05,1.0976165169688755e-06,7.071507790628978e-05
0.9090909090909091,4.455696202531645,-8.34144085792981e-06,3.4535059225722444e-05,7.780147471334652e-06,-7.85808551033779e-06,4.161627313196257e-05
1.0101010101010102,4.455696202531645,-6.258896346323308e-05,8.593321301882443e-06,3.907658570524764e-05,1.619869264840519e-05,9.544636840932894e-05
1.1111111111111112,4.455696202531645,7.647461697421307e-06,2.6091211133753757e-06,4.6065093501235854e-05,-3.076974843239005e-06,8.007069718350229e-05
1.2121212121212122,4.455696202531645,4.4824743227279095e-05,1.9615878777906984e-05,-3.906588010472279e-05,-1.9332186601555822e-05,7.805890430497765e-05
1.3131313131313131,4.455696202531645,5.7630627060299934e-05,3.299650046440291e-05,3.876635739455885e-05,-2.718813825741085e-05,8.376718093997017e-05
1.4141414141414141,4.455696202531645,9.840243556450961e-05,8.78202004379961e-05,0.00012272983457815517,-5.586679080075171e-05,0.00023225318555808666
1.5151515151515151,4.455696202531645,0.0001105738324666172,-6.102725595456737e-05,7.2905224983418955e-06,-1.486397295361495e-05,0.00015118985126791413
1.6161616161616161,4.455696202531645,0.00020900315261430984,5.777883492873953e-05,-2.5359930360535443e-05,-8.00345962629148e-05,0.0001920263813063931
1.7171717171717171,4.455696202531645,-0.00011329455298052245,0.00011225615198157788,-3.608066669764138e-05,3.1152029968336977e-07,0.0002050866974693211
1.8181818181818181,4.455696202531645,2.6832980554771704e-05,0.00010799065859932251,-0.00011948174991760842,-4.0447091746228264e-05,0.00022871804834336386
1.9191919191919191,4.455696202531645,-2.3227737913738556e-05,-5.230741569855311e-05,-1.2898504232443667e-05,2.26605460836875e-05,5.0593723298080204e-05
2.0202020202020203,4.455696202531645,-0.00011342667122767919,2.7344518210893983e-05,-1.7849261466379667e-05,2.582464590503556e-05,0.00013293125480356324
2.121212121212121,4.455696202531645,0.00011043912397223943,-1.9947663954479938e-05,-2.668464364564976e-05,-2.714743800532785e-05,0.00013013040595075335
2.2222222222222223,4.455696202531645,-0.00011503381445060178,-3.972394896545674e-05,-2.32688398174794e-05,4.642732902481755e-05,0.00010892882967003138
2.323232323232323,4.455696202531645,-5.1302537212712375e-05,5.138652637324771e-05,2.8117991875441036e-05,-2.5196748160599994e-08,0.00010139353529682202
2.4242424242424243,4.455696202531645,7.298307071127504e-05,8.405795075682319e-05,4.869540652785395e-05,-4.711230644042947e-05,0.00011563385396453871
2.525252525252525,4.455696202531645,7.820158582299117e-05,-1.757638310224881e-05,6.495661269222162e-05,-1.8187560816222706e-05,0.00014302797942066374
2.6262626262626263,4.455696202531645,-0.00010212810711989665,-9.164545532298169e-05,-7.908302826276853e-06,5.81320687328635e-05,9.827047688776542e-05
2.727272727272727,4.455696202531645,-0.00010821566191576797,0.00012161838228313931,3.8106901369882167e-05,-4.020816110211401e-06,0.00020980724946715313
2.8282828282828283,4.455696202531645,-5.998771637555373e-06,1.0546680452241677e-05,3.733951133338171e-05,-1.3643726444058913e-06,6.628123548287046e-05
2.929292929292929,4.455696202531645,-0.00010264979345801744,-1.1212612285010245e-05,-0.00010000602045672864,3.4158721722908305e-05,0.00019878466444578
3.0303030303030303,4.455696202531645,5.5745974570877025e-05,-5.289895212819404e-05,1.380514295717796e-05,-8.541067328048964e-07,9.709048549413346e-05
3.131313131313131,4.455696202531645,3.280621908110799e-05,4.263017646434072e-05,8.312464194641043e-05,-2.263091866363461e-05,0.00014907770907610513
3.2323232323232323,4.455696202531645,7.356083836870379e-05,0.00011172747019207708,-9.701406398242743e-05,-5.5586492568234254e-05,0.0001947065586775239
3.3333333333333335,4.455696202531645,-4.7177489918669705e-06,-0.0001036892301356931,2.38030248600731e-05,3.252209373826802e-05,0.00010947276290571382
3.4343434343434343,4.455696202531645,-0.0001680356931977544,-9.33227174939499e-05,2.808057980194077e-05,7.84075232075113e-05,0.00015371770603853953
3.5353535353535355,4.455696202531645,0.0001390191903010995,-0.0001835451205198369,9.12321250738682e-05,1.3357779065621225e-05,0.0003217162453366041
3.6363636363636362,4.455696202531645,6.786427031926633e-05,6.676329577958812e-05,-1.7354087169323013e-05,-4.038826982965633e-05,7.372616578643911e-05
3.7373737373737375,4.455696202531645,0.0001330069610661541,2.518334082756145e-05,2.1945857134994753e-05,-4.7457090568114663e-05,0.00012814193166365255
3.8383838383838382,4.455696202531645,-0.00024534768223529005,-1.4639671342461842e-05,0.00017690913814946994,7.799620607332558e-05,0.000388211959121624
3.9393939393939394,4.455696202531645,-0.0002074682460038996,0.00011915467202793687,-4.973430900192204e-05,2.649407219278882e-05,0.00029896860077694077
4.040404040404041,4.455696202531645,-6.269658201020763e-06,0.00013067731196992718,-1.988327857876164e-05,-3.732229613067192e-05,0.00013827944481897817
4.141414141414141,4.455696202531645,-0.00013849162911950768,2.8484486178259865e-06,-3.5708900948380825e-05,4.069295415050451e-05,0.0001529964316775833
4.242424242424242,4.455696202531645,3.6100828769069157e-05,-0.00018181347470562945,3.558606986697744e-06,4.371379378096809e-05,0.00020238828422530528
4.343434343434343,4.455696202531645,7.690235514891596e-05,-0.00013856938049909928,-4.149181463200458e-05,1.8500107605054992e-05,0.0002023276283546838
4.444444444444445,4.455696202531645,0.00018038116534883504,7.838932685919249e-06,3.0111385479016526e-06,-5.646602941042628e-05,0.000176669235384503
4.545454545454545,4.455696202531645,-0.00014816205528886108,8.981718672415266e-05,1.2048308299597254e-05,1.7503460569412525e-05,0.00020919394313034288
4.646464646464646,4.455696202531645,-0.0001758883444505105,0.00018019248688357054,6.464097802506918e-05,-1.2912427299180102e-06,0.00032807799128151095
4.747474747474747,4.455696202531645,0.00020402539991221729,-8.100203988646853e-05,2.185516031529287e-05,-3.690700800772463e-05,0.000257190808455265
4.848484848484849,4.455696202531645,2.8245644518113974e-05,4.5120628450898026e-05,-3.786059437181101e-05,-2.20098818907036e-05,7.654737182261784e-05
4.94949494949495,4.455696202531645,9.197767741953082e-05,-4.428520675839881e-06,-1.026392238378461e-05,-2.626474702310728e-05,9.593161258488673e-05
5.05050505050505,4.455696202531645,-0.00010168917057080704,-9.088090426786762e-06,2.6052419054302173e-06,3.323317829927814e-05,9.756783423633599e-05
5.151515151515151,4.455696202531645,-0.00010950920365457804,2.1027297643067742e-05,7.779384230027742e-05,2.6544571803453086e-05,0.00018136356097808468
5.252525252525253,4.455696202531645,4.6025952873297275e-05,-9.062015230832113e-05,-3.190542319240408e-05,1.3378259830507156e-05,0.00013249583876126563
5.353535353535354,4.455696202531645,-0.00013961344807698352,0.00010902665682480515,6.541885630805951e-06,9.176037375653511e-06,0.00021616822864790997
5.454545454545454,4.455696202531645,2.6877367140392527e-05,0.0001748608788987119,2.7220472098208914e-06,-6.0521473811731324e-05,0.00016315988605050729
5.555555555555555,4.455696202531645,2.8606862769676452e-05,5.052070499722303e-05,-1.4948010446417599e-05,-2.3738270330069845e-05,5.0948841056252686e-05
5.656565656565657,4.455696202531645,-0.00026657919268138785,-9.13258337979415e-05,-0.00010810312500835716,0.00010737150794379881,0.0003001968749911587
5.757575757575758,4.455696202531645,5.767127998551237e-05,-1.431034586208381e-05,2.0619094962333343e-05,-1.300828023702857e-05,7.5043319009481e-05
5.858585858585858,4.455696202531645,-0.00014871895860418515,-5.4099800797211506e-05,-5.442368350617375e-05,6.084562782041899e-05,0.00016088586960481222
5.959595959595959,4.455696202531645,0.00010192945857608312,-6.205773357313202e-06,-3.3700146809784686e-05,-2.8717105565630974e-05,0.00012028207244612856
6.0606060606060606,4.455696202531645,2.7981409752827916e-05,0.00012058436290884574,5.2105413746181776e-05,-4.456973179850209e-05,0.00014175454076160705
6.161616161616162,4.455696202531645,0.00010600858964140864,-6.028973639019567e-05,4.96614053245174e-06,-1.3715655975363889e-05,0.000146074949843226
6.262626262626262,4.455696202531645,5.179328267142606e-05,-0.0001586423882255165,3.324172830296954e-05,3.205473166622713e-05,0.00019844797562715868
6.363636363636363,4.455696202531645,-0.00014670607997892734,-1.583684966026657e-06,-7.665749404709734e-06,4.44869294834862e-05,0.00014652350285662412
6.4646464646464645,4.455696202531645,-0.0003051207956597403,3.665694695115329e-05,-0.00011505898833703237,8.05391546125761e-05,0.00038123869283616723
6.565656565656566,4.455696202531645,-8.728606190232122e-05,3.1562195875105524e-05,1.2231047857218178e-06,1.6717159808164707e-05,0.00010665109727402056
6.666666666666667,4.455696202531645,-8.122254011594378e-06,6.812519742758623e-05,-5.0739333099793506e-05,-1.8000883024797556e-05,0.00011394640610001148
6.767676767676767,4.455696202531645,0.00012733601446681121,3.9848659154415846e-05,9.803631550900245e-05,-5.015540208636812e-05,0.00020386653539477504
6.8686868686868685,4.455696202531645,-9.971360749862341e-05,1.991585321592802e-06,3.9283315765463e-05,2.9316606653109182e-05,0.00012155202500216629
6.96969696969697,4.455696202531645,-8.523903959586073e-06,1.660259885614986e-05,-6.89840590255095e-05,-2.4236084689691363e-06,0.00012151635027651533
7.070707070707071,4.455696202531645,-8.2131013477635e-05,2.948578378445011e-05,-1.8688347937119052e-05,1.5793568907955467e-05,0.00010528235926071647
7.171717171717171,4.455696202531645,5.8446599185036076e-05,7.331896514942295e-05,0.00013598141248049437,-3.9529669300337714e-05,0.000244906645599297
7.2727272727272725,4.455696202531645,5.494121170461393e-06,0.00021971460869314187,6.440086709335292e-05,-6.756261895908098e-05,0.00024400813716895316
7.373737373737374,4.455696202531645,-0.0002625893432160648,-7.24515472504211e-05,-9.167617117443832e-07,0.00010051226713994577,0.00023490403789261878
7.474747474747475,4.455696202531645,0.00010237917168139026,-6.426704584778954e-05,-4.0923837938847046e-07,-1.1433637750080216e-05,0.00014557423303809496
7.575757575757575,4.455696202531645,0.00017781440123667744,-0.00012402233401744668,-4.176132022881555e-05,-1.613762016576923e-05,0.0002725517956046919
7.6767676767676765,4.455696202531645,-7.174852313211337e-05,-1.4032880116125713e-05,-4.87145336151672e-05,2.5734420974471724e-05,0.000107038550197584
7.777777777777778,4.455696202531645,-3.215385416433685e-05,1.991897959613453e-05,4.3184232520577837e-05,3.670462370460696e-06,8.755422243377628e-05
7.878787878787879,4.455696202531645,3.700388671232415e-05,3.679602813894184e-05,-1.1329895245698646e-05,-2.2139974455379797e-05,4.179400484206961e-05
7.979797979797979,4.455696202531645,2.6661746007967607e-05,0.00017647758949092395,3.3193142515584544e-05,-6.094180064966746e-05,0.0001745145889483019
8.080808080808081,4.455696202531645,8.740352210752442e-06,8.689227573648361e-06,-5.0474234348442587e-05,-5.22887393532024e-06,8.785723944187008e-05
8.181818181818182,4.455696202531645,2.6423186421345653e-05,-2.9817879973177275e-05,-2.003726723545147e-05,1.0184080655494866e-06,5.983017953146435e-05
8.282828282828282,4.455696202531645,-8.367296474986918e-06,0.00011106587299721583,3.33569837416962e-05,-3.080957295666867e-05,0.0001291240720221691
8.383838383838384,4.455696202531645,0.0002472253704014679,-4.50655789074206e-06,-2.30177643842305e-05,-7.281564375321775e-05,0.000252674258106527
8.484848484848484,4.455696202531645,-0.00011466677687989595,8.001910664672493e-05,-0.00010110697321993596,1.0394301069951304e-05,0.00024371073078065917
8.585858585858587,4.455696202531645,-0.0001618327498351711,-0.0001017663208660262,5.697685216075335e-06,7.907972121035918e-05,0.00014203693282356937
8.686868686868687,4.455696202531645,5.400526508637948e-05,-4.308698958768344e-05,3.709059650454973e-05,-3.275482649608812e-06,0.00010595809865426109
8.787878787878787,4.455696202531645,-0.00012225671932397119,0.00019275471826976312,5.836856554166044e-05,-2.1149399683737577e-05,0.000293065376077023
8.88888888888889,4.455696202531645,2.8975827981529347e-05,5.0328192884245905e-05,-3.636857224941088e-05,-2.3791206259732573e-05,7.66957866440899e-05
8.98989898989899,4.455696202531645,3.99461213289472e-05,3.4666780155695915e-05,-1.5450125599243162e-06,-2.2383870445392935e-05,3.768071178783552e-05
9.09090909090909,4.455696202531645,-0.00011717823090816742,4.929313830350322e-05,8.522735355493406e-05,2.036552778139926e-05,0.00020911178686727687
9.191919191919192,4.455696202531645,5.164862843602186e-06,-6.32545629215669e-05,-4.7055999046406745e-06,1.7426910023389417e-05,6.649018492756092e-05
9.292929292929292,4.455696202531645,-7.85312067643916e-05,2.656794372159957e-05,7.672872968980932e-05,1.5588978912837608e-05,0.00016316038928185616
9.393939393939394,4.455696202531645,6.544694927893867e-06,3.270894433753772e-05,3.8023038007446167e-06,-1.1776091779629475e-05,3.0692190404924924e-05
9.494949494949495,4.455696202531645,0.00016987291331671623,-3.819863907208164e-05,5.947293410139295e-05,-3.950228227339038e-05,0.00021775202979871827
9.595959595959595,4.455696202531645,-5.302732277678646e-05,5.595234107100293e-06,7.842186192161253e-05,1.4229626600905848e-05,0.00014693491474919443
9.696969696969697,4.455696202531645,-0.00015351954525487076,7.433717115918093e-05,1.672272135720466e-05,2.3754712228706947e-05,0.00020333573894393172
9.797979797979798,4.455696202531645,0.00013904654875935784,2.2406780630054474e-06,1.626785288806543e-05,-4.2386168046708985e-05,0.0001407882591741656
9.8989898989899,4.455696202531645,-5.620184454471913e-05,1.6337359712930974e-05,-5.32374422519324e-06,1.1959345449536447e-05,6.654902825136979e-05
10.0,4.455696202531645,-6.16340965162638e-05,0.00015296906952455298,-8.127853958080344e-06,-2.7400491902486753e-05,0.00019189735409732637
0.0,4.556962025316456,0.010579046372635011,0.009256048691450747,-2.3691823449009592e-05,-0.005950528519225728,0.009983595299597185
0.10101010101010101,4.556962025316456,0.010301478804021718,0.009484915934632455,1.858572929584618e-05,-0.005935918421596251,0.009918491400722675
0.20202020202020202,4.556962025316456,0.010289652514758009,0.009063630309624196,-3.051870765407643e-05,-0.005805984847314661,0.009734861633854551
0.30303030303030304,4.556962025316456,0.010071065546719203,0.009027704962190231,2.345608792463167e-05,-0.005729631152672831,0.009592124909747103
0.40404040404040403,4.556962025316456,0.009817062646630108,0.009052050136499115,9.74601958874039e-05,-0.005660733834938766,0.009459296109143249
0.5050505050505051,4.556962025316456,0.009888154779122285,0.00896249317325843,1.909520087380626e-06,-0.005655194385714214,0.009459354103287262
0.6060606060606061,4.556962025316456,0.009735571338172369,0.008858455859295256,2.8921745052063986e-05,-0.005578208159240287,0.009328127889856376
0.7070707070707071,4.556962025316456,0.009837549299757446,0.008816886383170179,-6.0391373729378674e-05,-0.005596330704878287,0.009369591699116667
0.8080808080808081,4.556962025316456,0.009650013771631313,0.008624238130606653,9.267188551218271e-05,-0.0054822755706713895,0.009181611875427691
0.9090909090909091,4.556962025316456,0.009573905900459931,0.008458318450402628,-7.581038665207556e-05,-0.005409667305258768,0.009068678069221401
1.0101010101010102,4.556962025316456,0.009521751275786089,0.008361203526986018,-6.108241191380298e-05,-0.005364886440831632,0.008998409004405546
1.1111111111111112,4.556962025316456,0.009393909202206396,0.008544921616432248,2.5791236143512582e-05,-0.005381649245591594,0.008999610729866004
1.2121212121212122,4.556962025316456,0.009455434977471535,0.008399712897046191,-5.547802531555426e-05,-0.005356544362355317,0.008974782541790394
1.3131313131313131,4.556962025316456,0.009265171227207594,0.008361879954154482,-5.103155225426411e-06,-0.005288115354408623,0.00884817850222009
1.4141414141414141,4.556962025316456,0.009233872131685002,0.008314074117792898,7.73343128068925e-05,-0.00526438387484337,0.0088110764082048
1.5151515151515151,4.556962025316456,0.009258310896270286,0.008235007618543904,2.7361177252530136e-05,-0.005247995554444257,0.008791567338415905
1.6161616161616161,4.556962025316456,0.009083634298569315,0.008153985490828628,8.606297812639833e-05,-0.005171285936819384,0.008657614549566938
1.7171717171717171,4.556962025316456,0.00896587029941158,0.008107298526764438,8.69625309460242e-05,-0.0051219506478528045,0.008570228701950292
1.8181818181818181,4.556962025316456,0.008939568444309902,0.008163481318659408,8.671484756964759e-06,-0.005130914928890792,0.008577909815482157
1.9191919191919191,4.556962025316456,0.00873964839364037,0.008151898882401512,-6.334277264628309e-05,-0.005067464182812565,0.008461809285324279
2.0202020202020203,4.556962025316456,0.009035842646153832,0.007911340092488133,-1.5394583060454924e-05,-0.0050841548215925896,0.0085294103646556
2.121212121212121,4.556962025316456,0.008900595729895747,0.008111125490992348,2.562934926873987e-05,-0.0051035163662664276,0.00853340979670618
2.2222222222222223,4.556962025316456,0.008750309585166528,0.008021455198709889,-3.9091973937099726e-05,-0.005031529435162925,0.008409876906125975
2.323232323232323,4.556962025316456,0.008747341958031615,0.007944634533538957,-4.271891395254444e-07,-0.005007592947471172,0.00837488953677955
2.4242424242424243,4.556962025316456,0.008803007813264083,0.007930300553400823,-2.5948873637731002e-05,-0.0050199925099994715,0.008400841370164489
2.525252525252525,4.556962025316456,0.008810708400021874,0.008011153874349882,9.039122200269281e-05,-0.005046558682311526,0.008440837629830956
2.6262626262626263,4.556962025316456,0.008605873455537625,0.007731822145556297,-0.00010588335869773262,-0.004901308680328177,0.008205893157652511
2.727272727272727,4.556962025316456,0.00861614120479822,0.008004708422017594,-0.00013500886258168435,-0.004986254888044744,0.008330560022839209
2.8282828282828283,4.556962025316456,0.008730594922171177,0.007942618373122712,4.50693726329881e-05,-0.005001963988588167,0.008364854118514415
2.929292929292929,4.556962025316456,0.008719473267319847,0.007702623975289963,1.8524862622520775e-05,-0.004926629172782943,0.008258198098560302
3.0303030303030303,4.556962025316456,0.0086282598987154,0.007628668205792975,1.55631988286457e-05,-0.004877078431352512,0.008174475038354546
3.131313131313131,4.556962025316456,0.008616718503063274,0.007629591949225831,-6.30303228220038e-05,-0.004873893135686732,0.00816874429871525
3.2323232323232323,4.556962025316456,0.008654847676935123,0.007714225526178604,3.334442904852871e-05,-0.004910721960934118,0.008225177959043806
3.3333333333333335,4.556962025316456,0.008474306915224241,0.007586056441411881,-9.112846622237116e-06,-0.004818109006990836,0.008066957827885718
3.4343434343434343,4.556962025316456,0.008565625129944738,0.007565974355303621,2.429141223064533e-05,-0.004839479845574508,0.008112235940828596
3.5353535353535355,4.556962025316456,0.008509527554097418,0.0076882054618232255,8.226859910088565e-06,-0.004859319904776193,0.008130053458734241
3.6363636363636362,4.556962025316456,0.008337307308292234,0.007699673087542706,-7.739619565931574e-07,-0.004811094118750482,0.0080374821866523
3.7373737373737375,4.556962025316456,0.008302495860381716,0.007603904668538631,-9.008749436320102e-05,-0.004771920158676103,0.007977704178303546
3.8383838383838382,4.556962025316456,0.008576041261604106,0.007729280729309698,2.6238330231665227e-05,-0.0048915965972741405,0.00818570089888783
3.9393939393939394,4.556962025316456,0.008695824211884993,0.00762967739647075,-5.910549987853617e-06,-0.004897650482506723,0.008214810239373972
4.040404040404041,4.556962025316456,0.008338410010651075,0.007598219515684982,4.076564693061695e-05,-0.004780988857900817,0.00799436909051985
4.141414141414141,4.556962025316456,0.00847991206775391,0.007582379900305961,-8.211800799593613e-06,-0.004818687590417961,0.008068685215790744
4.242424242424242,4.556962025316456,0.008325485223349294,0.007679776378650211,-2.621118957926344e-05,-0.0048015784805998515,0.008022273103714395
4.343434343434343,4.556962025316456,0.008451186548842029,0.0074818145150174695,-6.258243068234861e-05,-0.004779900319157849,0.00801134458203479
4.444444444444445,4.556962025316456,0.008357309609098572,0.007491026699471678,1.633693488328913e-05,-0.004754500892571075,0.007959653019029435
4.545454545454545,4.556962025316456,0.008544078645462545,0.007470767868609676,-3.471399702136705e-05,-0.004804453954221666,0.008061416712952615
4.646464646464646,4.556962025316456,0.00833421662524631,0.007498386734186731,-7.652245898424934e-05,-0.004749781007829912,0.007950431312171755
4.747474747474747,4.556962025316456,0.008367481809313208,0.007589188847790603,1.8973848962550507e-05,-0.004787001197131143,0.00800682331428136
4.848484848484849,4.556962025316456,0.00834585694284157,0.007668519686799618,5.5695991475855844e-05,-0.004804312988892356,0.008029225377221375
4.94949494949495,4.556962025316456,0.008439465931505788,0.007498247959944101,4.228989399276651e-06,-0.004781314167434966,0.008010440257999291
5.05050505050505,4.556962025316456,0.008458193774248451,0.00760405258095171,-1.7344200153361474e-05,-0.004818673906560049,0.008065172647946657
5.151515151515151,4.556962025316456,0.008518984127935258,0.007529080781845649,0.00011500658134675386,-0.004814419472934272,0.008072156332377617
5.252525252525253,4.556962025316456,0.008436836208006074,0.007501768054365277,-9.012407022168771e-06,-0.004781581278711405,0.00801035482781671
5.353535353535354,4.556962025316456,0.00850650740637651,0.007531244148932215,7.927175961633333e-05,-0.004811325466592618,0.008064401688225885
5.454545454545454,4.556962025316456,0.00843824350225435,0.00744298000017407,3.999545481413217e-05,-0.004764367050728527,0.00798755444248541
5.555555555555555,4.556962025316456,0.008486243613969272,0.007821077813793278,-7.405425485254069e-05,-0.004892196428328765,0.008174990476530785
5.656565656565657,4.556962025316456,0.008339879866462351,0.007499487980697309,-1.9787864258960417e-05,-0.004751810354147898,0.007953129070961278
5.757575757575758,4.556962025316456,0.008367265549766254,0.0078079656042649055,-4.017072447055182e-05,-0.004852569346209348,0.008102405760308285
5.858585858585858,4.556962025316456,0.008413114154827346,0.007532028955397631,7.753199045040987e-06,-0.004783542933067493,0.008009014351601928
5.959595959595959,4.556962025316456,0.008574853062492617,0.007521640211570798,-3.4205032154204594e-05,-0.004828947982219024,0.008099983139808153
6.0606060606060606,4.556962025316456,0.008412391859844322,0.007777215798915572,2.754721002555978e-06,-0.004856882297627968,0.008113473872077878
6.161616161616162,4.556962025316456,0.008586799558777058,0.007523401816020204,-5.141832280667533e-05,-0.004833060412439179,0.008108063251194205
6.262626262626262,4.556962025316456,0.008453509274775409,0.007613859656651019,1.2543044602415394e-05,-0.004820210679427928,0.008066555441417224
6.363636363636363,4.556962025316456,0.00851968799215162,0.007673644702110743,-4.004698646658493e-05,-0.004857999808278708,0.00813004668846429
6.4646464646464645,4.556962025316456,0.008496534411211948,0.00756685149182528,5.6575360280457546e-05,-0.0048190157709111685,0.008072541528514788
6.565656565656566,4.556962025316456,0.008555055954593823,0.007764912623862806,1.1840967335362452e-05,-0.004895990573536988,0.008188651237432162
6.666666666666667,4.556962025316456,0.008431350116204262,0.00754896928457932,-6.92552732379437e-05,-0.004794095820235075,0.008027514426358458
6.767676767676767,4.556962025316456,0.008661520771752241,0.0077368047920502135,-5.055016293309476e-05,-0.004919497669140736,0.00823864436745325
6.8686868686868685,4.556962025316456,0.008627214268107322,0.007547082118889007,-6.423422879767695e-05,-0.004852288916098899,0.008141827688355948
6.96969696969697,4.556962025316456,0.00860796503701239,0.0077666903297016286,-2.0940683202698048e-05,-0.004912396610014205,0.00821976018392104
7.070707070707071,4.556962025316456,0.008745222203253335,0.007952728802988016,2.6939109809559158e-05,-0.0050093853018724046,0.008377267062754963
7.171717171717171,4.556962025316456,0.008423473100112256,0.007767812051729676,7.562714049750407e-06,-0.004857385545552579,0.008115541809316876
7.2727272727272725,4.556962025316456,0.008635811611236974,0.007814870630178543,2.1454695073488114e-05,-0.004935204672424655,0.008256093236792687
7.373737373737374,4.556962025316456,0.00887669996674888,0.007977353355119027,-9.048695219541948e-05,-0.005056215996560373,0.008464393673236854
7.474747474747475,4.556962025316456,0.008801293092729288,0.007773408545697877,-4.043334639921244e-05,-0.00497241049152815,0.008335316319657138
7.575757575757575,4.556962025316456,0.008691720678419924,0.00796066322121396,6.295957772474659e-05,-0.004995715169890165,0.00835093993899972
7.6767676767676765,4.556962025316456,0.008684618056859376,0.008011786569418158,7.595560721518197e-05,-0.005008921387883261,0.008369546957976102
7.777777777777778,4.556962025316456,0.008934356458745584,0.007966828909313668,1.302283576109477e-05,-0.005070355610417776,0.008492061449572248
7.878787878787879,4.556962025316456,0.008706324893416916,0.008020679831707015,3.5687905526235523e-05,-0.005018101417537179,0.008384782317470592
7.979797979797979,4.556962025316456,0.008997197269983716,0.007979094103423871,-4.80797037393023e-06,-0.005092887412022276,0.008533820193311137
8.080808080808081,4.556962025316456,0.008741406030270791,0.008128513764997822,-3.544198490991004e-05,-0.005060975938580584,0.008451866336745132
8.181818181818182,4.556962025316456,0.00915182855437562,0.0081343321980073,-7.453089213512072e-05,-0.005185848225714876,0.008688842102223425
8.282828282828282,4.556962025316456,0.009131077050225297,0.008181309339564864,-6.0970669018928914e-05,-0.005193715916937048,0.008695825258303529
8.383838383838384,4.556962025316456,0.00898816121876229,0.008170754676408864,2.7154586334120495e-05,-0.0051476747685513455,0.008608741248328812
8.484848484848484,4.556962025316456,0.00912800768193518,0.008176669055115897,-2.6969212643673925e-05,-0.005191403021115323,0.008691600839080786
8.585858585858587,4.556962025316456,0.009242229685193141,0.008286989075771831,1.9316575381116622e-05,-0.005258765628289491,0.00880362768687492
8.686868686868687,4.556962025316456,0.009238443523181327,0.00836842149059226,8.710296197371806e-05,-0.005282059504132076,0.008836904912590024
8.787878787878787,4.556962025316456,0.009276864268258824,0.008386924541559313,1.9488138993420876e-05,-0.00529913664294544,0.008865522696379323
8.88888888888889,4.556962025316456,0.00941940973289373,0.008506651005125609,-1.6935213782898322e-05,-0.005377818221405802,0.00899786753467314
8.98989898989899,4.556962025316456,0.009276760891008332,0.008551178918097369,-0.00011025299746110456,-0.00534838194273171,0.008938130594771002
9.09090909090909,4.556962025316456,0.009599046444578797,0.008606037899934936,-3.900020977796857e-05,-0.00546152530335412,0.009143324697510459
9.191919191919192,4.556962025316456,0.009683379962383455,0.008616623377730637,4.2309192841350464e-05,-0.005490001002034227,0.009196813468458437
9.292929292929292,4.556962025316456,0.009720295672608886,0.008666065519729864,-6.201351599078637e-05,-0.005515908357701624,0.009239029029812128
9.393939393939394,4.556962025316456,0.009733423523007887,0.008740837551774261,-1.2611706800541795e-05,-0.005542278322434644,0.009277067312085503
9.494949494949495,4.556962025316456,0.009869006487178188,0.008759269024474162,4.011837375633824e-05,-0.005588482653495705,0.009363846886474693
9.595959595959595,4.556962025316456,0.0099696241281579,0.009076063663196405,-2.6654789232730194e-05,-0.005713706337406292,0.009554345871026932
9.696969696969697,4.556962025316456,0.010160587875539216,0.009119872449109744,9.226024399273125e-05,-0.005784138097394688,0.009683588688578304
9.797979797979798,4.556962025316456,0.010156204587800968,0.009018576926066292,-0.00015345716294487186,-0.005752434454160178,0.009641543255686384
9.8989898989899,4.556962025316456,0.010210617851870314,0.009235684250409602,-0.00011849440899507387,-0.005833890630683974,0.009761898421086762
10.0,4.556962025316456,0.010460366629627958,0.009524490414734101,3.496928228417867e-05,-0.005995457113308617,0.010025427399378563
0.0,4.658227848101266,0.010505575488533515,0.009303081778971546,8.75394105550348e-06,-0.005942597180251518,0.009958938142240584
0.10101010101010101,4.658227848101266,0.010050198641436942,0.009144121314553276,4.311772926531933e-05,-0.005758295986797065,0.009629475019474403
0.20202020202020202,4.658227848101266,0.010194282051115314,0.009128462201144157,8.599440111127896e-05,-0.005796823275677842,0.009706506860609972
0.30303030303030304,4.658227848101266,0.010201564562464061,0.00914559385026814,3.7834753976192824e-05,-0.0058041475238196595,0.009716930311390813
0.40404040404040403,4.658227848101266,0.01001735104640301,0.009044281739489214,-9.029908972301813e-05,-0.005718489835767667,0.009569277443982279
0.5050505050505051,4.658227848101266,0.00980137516251386,0.008990095750652004,8.191449902908123e-05,-0.005637441273949759,0.009423035892886454
0.6060606060606061,4.658227848101266,0.009698063819104114,0.008814070582496773,0.00010237805554278153,-0.005553640320480266,0.009289365255833123
0.7070707070707071,4.658227848101266,0.009567795821909987,0.008778168725270683,-5.231431415759699e-05,-0.0055037893641542,0.009198882941303804
0.8080808080808081,4.658227848101266,0.009606605850856594,0.008576047095385704,9.802731387336935e-05,-0.00545479588387269,0.009136606788902947
0.9090909090909091,4.658227848101266,0.009414602666183564,0.008630286560507721,9.53152551169642e-06,-0.005413466768007386,0.009047991112177467
1.0101010101010102,4.658227848101266,0.009488406903543262,0.008392785778149591,-6.410304259592938e-05,-0.0053643578045078555,0.008991489296438792
1.1111111111111112,4.658227848101266,0.009480029338590773,0.008364816859035758,3.040835854431445e-05,-0.005353453859287959,0.00897469677008427
1.2121212121212122,4.658227848101266,0.009138591459333946,0.008458440818859802,8.312266516428412e-05,-0.005279109683458124,0.008819385922650356
1.3131313131313131,4.658227848101266,0.009092983083447668,0.008442332341168495,-6.53209591559334e-05,-0.005260594627384849,0.00878647438024102
1.4141414141414141,4.658227848101266,0.009333177018130745,0.00829876117920545,-3.285989219047326e-05,-0.0052895814592008586,0.008861549670462822
1.5151515151515151,4.658227848101266,0.009120101507867198,0.008336891739415693,-2.5776120842824014e-05,-0.005237097974184868,0.008754924882041286
1.6161616161616161,4.658227848101266,0.009014939968275662,0.00819008842086407,-2.9148938678231257e-05,-0.00516150851674192,0.00863226995095176
1.7171717171717171,4.658227848101266,0.009111471687686338,0.008288027081602516,-4.181484434067381e-05,-0.005219849630786656,0.008729228520534288
1.8181818181818181,4.658227848101266,0.009174360807920522,0.008177619203692511,6.889388024620381e-05,-0.005205594003483909,0.008719642312059593
1.9191919191919191,4.658227848101266,0.00900213325807972,0.007925819493123806,-1.2392114911721666e-05,-0.005078385825361058,0.008515174412233486
2.0202020202020203,4.658227848101266,0.00889791584701245,0.0080343558024108,-6.414954902185016e-05,-0.0050796814948269745,0.008499829601783733
2.121212121212121,4.658227848101266,0.008705104025202425,0.008032094382682394,-2.4986810180050917e-05,-0.005021159522365445,0.008388982783536282
2.2222222222222223,4.658227848101266,0.008747416808325834,0.007950132923568458,3.734131168453134e-05,-0.005009264919568288,0.00837752774257514
2.323232323232323,4.658227848101266,0.008841656432605495,0.007815052618959324,3.1910687207115646e-05,-0.004997012715469446,0.008375857002458856
2.4242424242424243,4.658227848101266,0.008685283987777235,0.007902077509551696,-4.366071488101387e-05,-0.0049762084491986784,0.008321713671203197
2.525252525252525,4.658227848101266,0.00849342461882518,0.007850668416512977,1.1145789807038322e-05,-0.004903227910601447,0.008191005348829085
2.6262626262626263,4.658227848101266,0.008823545351719085,0.00773250987124558,4.301565431188789e-05,-0.004966816566889399,0.008332110236353727
2.727272727272727,4.658227848101266,0.008501727815181052,0.007702963285850369,5.463627922867981e-05,-0.0048614073303094255,0.008132372185836874
2.8282828282828283,4.658227848101266,0.008651760517561845,0.007768604173022055,-2.715911791575785e-05,-0.004926109407175171,0.008245864469094626
2.929292929292929,4.658227848101266,0.008615677450786256,0.00775472626465841,3.2098184508602505e-05,-0.0049111211146334,0.00821927904628372
3.0303030303030303,4.658227848101266,0.008472332075292749,0.0077550806488641336,-1.7235368115178747e-05,-0.004868223817247065,0.008137503260233436
3.131313131313131,4.658227848101266,0.008737788543771632,0.007683116558152975,3.5916983923981503e-06,-0.004926271530577382,0.008261102804131663
3.2323232323232323,4.658227848101266,0.00854028162521572,0.007693670782498711,1.75837339208017e-05,-0.004870185722314329,0.008150079306137736
3.3333333333333335,4.658227848101266,0.0084994723925767,0.007646498235272609,-0.0001188107642674124,-0.004843791188354793,0.008109322632423257
3.4343434343434343,4.658227848101266,0.008594614772042871,0.007827707135245034,-3.856032672574371e-05,-0.004926696572186372,0.00823824832082481
3.5353535353535355,4.658227848101266,0.00869545733400878,0.007537893187799818,-5.80897201340776e-05,-0.0048700051565425785,0.008178967331037151
3.6363636363636362,4.658227848101266,0.008704043044183707,0.007567961619233537,-2.4706835585642243e-05,-0.004881601399025173,0.00819538748186013
3.7373737373737375,4.658227848101266,0.008461209770647252,0.00763368077996568,2.310725922409505e-05,-0.004828467165183879,0.008079392332852315
3.8383838383838382,4.658227848101266,0.008593968770085668,0.0076111545769887694,4.5621731942625544e-05,-0.004861537004122331,0.008147526772239849
3.9393939393939394,4.658227848101266,0.008474913032605544,0.007658485136621609,8.749842265055553e-06,-0.004840019450768146,0.008097640377476026
4.040404040404041,4.658227848101266,0.008434725837758394,0.007574063786670819,7.712274495054312e-05,-0.004802636887328763,0.00804013273757411
4.141414141414141,4.658227848101266,0.008343262796129926,0.007551035915187962,-9.02340199454074e-06,-0.004768289613395366,0.007976725187673594
4.242424242424242,4.658227848101266,0.00846411989572872,0.007663755938783015,-4.34995314128816e-05,-0.00483836275035352,0.008094022992847233
4.343434343434343,4.658227848101266,0.008352577710144516,0.007624880374655852,-2.1063214412630606e-05,-0.00479323742544011,0.008013630902964667
4.444444444444445,4.658227848101266,0.008431094178306035,0.007565202748643011,5.525351731515852e-05,-0.004798889078084714,0.008033795097790326
4.545454545454545,4.658227848101266,0.008431104648651747,0.007519439118121856,9.906565141850623e-05,-0.004785163130032081,0.008016093447152437
4.646464646464646,4.658227848101266,0.00834567277411405,0.007672358880890946,8.168498853783435e-05,-0.004805409496501499,0.00803146098392741
4.747474747474747,4.658227848101266,0.008473521112122654,0.007709498280117901,-2.57761749244416e-05,-0.004854905817672167,0.008118640314846945
4.848484848484849,4.658227848101266,0.00836678166815364,0.007266256980515327,1.4737149874766721e-05,-0.0046899115946006905,0.007874451843749491
4.94949494949495,4.658227848101266,0.00844059231737546,0.007597056568327197,-3.9803166636280334e-05,-0.004811294665710797,0.008052326542151315
5.05050505050505,4.658227848101266,0.008363064151027503,0.007508869501035503,1.1728029418693578e-06,-0.004761580095618901,0.007970370754571519
5.151515151515151,4.658227848101266,0.008323430512861774,0.007567607715622642,-2.046641280737222e-05,-0.004767311468545325,0.007972514138749939
5.252525252525253,4.658227848101266,0.008402231479082182,0.007610729920946284,1.553086041692414e-05,-0.004803888420008539,0.008035814386854325
5.353535353535354,4.658227848101266,0.00858029880772455,0.007466990591661509,-9.581635707844668e-05,-0.0048141868198158175,0.00808306921767521
5.454545454545454,4.658227848101266,0.008438698273392164,0.0074792576328847294,1.4230823100269237e-05,-0.004775386771883068,0.00800227045059808
5.555555555555555,4.658227848101266,0.008405632860786967,0.007522555620394593,5.6810048317336995e-05,-0.004778456544354467,0.008001334156073906
5.656565656565657,4.658227848101266,0.008384945763455331,0.007700872669274591,2.9224207462767455e-05,-0.004825745529818977,0.008064856962416036
5.757575757575758,4.658227848101266,0.008430270018445254,0.007682154795305305,9.878911740246009e-06,-0.0048337274441251675,0.008082240309079098
5.858585858585858,4.658227848101266,0.008190586229719073,0.007398115705736948,-0.00018918936676153657,-0.004676610580636806,0.007831365909350988
5.959595959595959,4.658227848101266,0.008457718469073876,0.00774777731331069,-0.00010193468574086827,-0.00486164873471537,0.008127958400618019
6.0606060606060606,4.658227848101266,0.00827447495469631,0.0075663397459035135,2.2440711626231994e-05,-0.0047522444101799465,0.007944208894329802
6.161616161616162,4.658227848101266,0.00841276498064514,0.007569663464885024,-3.403805616238836e-05,-0.004794728533659048,0.008024717792317225
6.262626262626262,4.658227848101266,0.008566159745078553,0.007720625629830738,-8.799084265149051e-05,-0.004886035612472786,0.008177668835450435
6.363636363636363,4.658227848101266,0.008230437457322734,0.007662975785917246,4.380016083395759e-05,-0.0047680239729719935,0.007962249120302124
6.4646464646464645,4.658227848101266,0.008440364720540761,0.007525070893229429,-7.702926977021884e-06,-0.004789630684131057,0.008021987514472214
6.565656565656566,4.658227848101266,0.00853235928721714,0.007638939414098317,7.378166009824756e-05,-0.004851389610394637,0.008123589472896512
6.666666666666667,4.658227848101266,0.008462357626623609,0.007561930763400162,-5.1278523205566355e-05,-0.004807286517007132,0.008050491877177438
6.767676767676767,4.658227848101266,0.008487771349596633,0.007584325550831938,-2.6148360403433118e-05,-0.0048216290701285705,0.00807417405298684
6.8686868686868685,4.658227848101266,0.008595319162460114,0.007678480134622893,0.00011860060144549086,-0.0048821397891249015,0.008178128120214838
6.96969696969697,4.658227848101266,0.008639987953422995,0.007610337939403353,0.00010278937725856766,-0.004875097767847904,0.008175885532315458
7.070707070707071,4.658227848101266,0.008479637853475358,0.007653948237048928,3.040633360715302e-05,-0.004840075827157286,0.008098595321255767
7.171717171717171,4.658227848101266,0.008558713122838757,0.007760842122926281,-2.576803779348295e-05,-0.004895866573729511,0.008189103212781329
7.2727272727272725,4.658227848101266,0.008868551015054179,0.007843844664180753,7.857774411887096e-06,-0.005013718703770479,0.00840319849211144
7.373737373737374,4.658227848101266,0.008670628028001679,0.007885401201942956,-5.926475312200087e-06,-0.00496680876898339,0.008305905562387274
7.474747474747475,4.658227848101266,0.008710469726161194,0.007925082987573323,3.6542499715684765e-07,-0.004990665814120355,0.008345539417576826
7.575757575757575,4.658227848101266,0.008907587650653597,0.007860942116483628,5.570344108898205e-06,-0.005030558930141167,0.008433124621377935
7.6767676767676765,4.658227848101266,0.00875736576135965,0.00789427090237721,3.615992668937533e-05,-0.0049954909991210585,0.008359537850136956
7.777777777777778,4.658227848101266,0.008964145315017071,0.008048313551039679,6.138893323271195e-05,-0.0051037376598170245,0.008543787557964033
7.878787878787879,4.658227848101266,0.008837156157512011,0.007925603581358449,3.925170381800739e-05,-0.005028827921661138,0.008418749709954033
7.979797979797979,4.658227848101266,0.00888466554433498,0.008093310306185212,2.6951753501962658e-05,-0.005093392755156057,0.008516735144465425
8.080808080808081,4.658227848101266,0.00907569962844077,0.008120871218811441,4.439181906607564e-06,-0.005158971254175663,0.008637959499443465
8.181818181818182,4.658227848101266,0.009011298329992817,0.008120913216803027,-9.51407016528063e-06,-0.005139663464038754,0.008600757461466811
8.282828282828282,4.658227848101266,0.009123623417398224,0.00819455864991389,5.659264499957614e-05,-0.005195454620193635,0.008696944102279974
8.383838383838384,4.658227848101266,0.00901908792078272,0.008134117776987918,5.953388410498239e-05,-0.005145961709331191,0.008611395264075027
8.484848484848484,4.658227848101266,0.009228361403765987,0.008324584579826504,3.149439803767313e-05,-0.005265883795077747,0.008811473388580926
8.585858585858587,4.658227848101266,0.009127330316126166,0.008417678339188613,4.892472719052843e-05,-0.005263502596594433,0.008794413994794545
8.686868686868687,4.658227848101266,0.009268099382598784,0.008266121669722628,-0.00010824687810057932,-0.005260266315696424,0.00881194352232235
8.787878787878787,4.658227848101266,0.009368486982271622,0.008377764206703086,5.0970731118411e-05,-0.005323875356692412,0.008914948153262669
8.88888888888889,4.658227848101266,0.009302741877409574,0.008430448015221,0.0001485454474386289,-0.0053199569677891715,0.008902436499543082
8.98989898989899,4.658227848101266,0.009439959235472153,0.008610649517455287,-2.625691228198429e-05,-0.005415182625878231,0.009053949597851803
9.09090909090909,4.658227848101266,0.009750498192430242,0.008578880511598884,2.6319356353598888e-05,-0.005498813611208738,0.009220798503221573
9.191919191919192,4.658227848101266,0.009709589121425064,0.008734062516094996,5.6095761005525075e-06,-0.005533095491256018,0.009260448420668478
9.292929292929292,4.658227848101266,0.009784391705574304,0.008764014893445058,1.4885315995718564e-05,-0.005564521979705808,0.009316243244333063
9.393939393939394,4.658227848101266,0.009712394811539718,0.008919367206516897,1.098557554326131e-05,-0.005589528605416985,0.009341181435435804
9.494949494949495,4.658227848101266,0.009920707807592364,0.008978593202946377,7.123369574296628e-05,-0.005669790303161622,0.009485610277477179
9.595959595959595,4.658227848101266,0.010070233840509778,0.00896859685152773,3.18503001636023e-05,-0.005711649207611253,0.009567262664759392
9.696969696969697,4.658227848101266,0.010315459521143119,0.009093221652868138,2.1035579897031718e-05,-0.005822604352203377,0.009761964595841022
9.797979797979798,4.658227848101266,0.010133878673039342,0.009169700081535096,-1.7738300901956176e-05,-0.0057910736263723315,0.009687889986612535
9.8989898989899,4.658227848101266,0.010030137558546254,0.00925737193923411,-3.9506860547264704e-05,-0.005786252849334109,0.00966719002914632
10.0,4.658227848101266,0.0103879169237054,0.009381116886642478,6.979613365261546e-05,-0.005930710143104363,0.009923634600561448
0.0,4.7594936708860756,0.010520372951556771,0.009517644700403857,8.321496827389355e-05,-0.0060114052955881885,0.010057604585941477
0.10101010101010101,4.7594936708860756,0.01032485684784261,0.009243720648434664,-1.3114818069667887e-05,-0.005870573248883182,0.009829011339578565
0.20202020202020202,4.7594936708860756,0.010101940803633358,0.009303130913329202,-9.975104211714183e-05,-0.005821521515088768,0.009728701137714183
0.30303030303030304,4.7594936708860756,0.010036751594201499,0.009027916745230251,6.439578827230054e-05,-0.0057194005018295245,0.009572938210922945
0.40404040404040403,4.7594936708860756,0.00989733699311595,0.008895526751729261,-3.7613521465355353e-05,-0.005637859123453564,0.009436625142702285
0.5050505050505051,4.7594936708860756,0.009749730766554363,0.008923762272735463,6.374174832093026e-05,-0.005602047911786948,0.009364758009053118
0.6060606060606061,4.7594936708860756,0.009936497944350161,0.008797240000252402,0.00013176314539421277,-0.005620121383380769,0.009421451609019992
0.7070707070707071,4.7594936708860756,0.009598620488379407,0.008734420323065982,2.2504466617666225e-05,-0.005499912243433616,0.009197105367770861
0.8080808080808081,4.7594936708860756,0.009592603177162512,0.008659075557868691,-1.967172662475938e-05,-0.0054755036205093605,0.009161643436314853
0.9090909090909091,4.7594936708860756,0.009685530892931381,0.008418779445186002,-2.9211712656097616e-05,-0.005431293101435215,0.009118528806773529
1.0101010101010102,4.7594936708860756,0.009343028164795167,0.00823078648775604,-7.246421072922216e-05,-0.005272144395765362,0.008840435775863813
1.1111111111111112,4.7594936708860756,0.009403573825049596,0.008278635195547931,0.00010022361172914418,-0.005304662706179258,0.008896312633286784
1.2121212121212122,4.7594936708860756,0.009502529221690348,0.008400450822144339,7.4053217947735e-05,-0.005370894013150405,0.00900314155441368
1.3131313131313131,4.7594936708860756,0.009063024690652337,0.00846784975076108,-2.8333995072770315e-05,-0.005259262332424024,0.008780715974383114
1.4141414141414141,4.7594936708860756,0.009275220826028286,0.008363305501594582,-3.8010597361937448e-06,-0.00529155789828686,0.00885455466220235
1.5151515151515151,4.7594936708860756,0.009291538221219049,0.008195776990780366,2.7588552434162574e-05,-0.005246194563599824,0.00879513224580689
1.6161616161616161,4.7594936708860756,0.008994628799157061,0.008091822992791297,8.915949960736572e-07,-0.005125935537584507,0.00857892795385732
1.7171717171717171,4.7594936708860756,0.008960090998169943,0.008208313722173339,4.143568236683116e-06,-0.0051505214161029845,0.008608859301462548
1.8181818181818181,4.7594936708860756,0.008938477010555433,0.007883158378452805,-5.018547883562805e-05,-0.005046490616702471,0.008460773197438202
1.9191919191919191,4.7594936708860756,0.008953219035181785,0.008153764498301474,-5.5303542721996185e-05,-0.0051320950600449765,0.00858200107880636
2.0202020202020203,4.7594936708860756,0.008944146697769422,0.008021999224948822,2.4460740999910872e-05,-0.005089843776815473,0.008520685936150626
2.121212121212121,4.7594936708860756,0.00884865560027298,0.008064367323992955,-1.580164328313582e-06,-0.0050739068772797805,0.008483744731849072
2.2222222222222223,4.7594936708860756,0.008898436504791803,0.008027056366811735,3.1130498149842965e-05,-0.005077647861481062,0.00849649704696414
2.323232323232323,4.7594936708860756,0.00875326679564834,0.008045002373326227,-1.598081471274529e-05,-0.00503948075069237,0.008421547173565703
2.4242424242424243,4.7594936708860756,0.008750662906628808,0.007765274238527342,-3.7797948663615573e-06,-0.004954781143546845,0.008301947417723865
2.525252525252525,4.7594936708860756,0.008899946511287397,0.007885234637737196,-0.0001318450198722925,-0.005035554344707378,0.008441561231130818
2.6262626262626263,4.7594936708860756,0.008736380238910121,0.00786513130870562,2.69944123564343e-05,-0.004980453464284722,0.00833510878963718
2.727272727272727,4.7594936708860756,0.008715654693400174,0.007803035848515355,1.8087527022289164e-05,-0.0049556071625746585,0.008297133278899582
2.8282828282828283,4.7594936708860756,0.008588775797164806,0.007857398496172358,6.065592473514057e-05,-0.004933852288001149,0.008248113979124424
2.929292929292929,4.7594936708860756,0.008653380677496285,0.007732833049266357,8.419796404810428e-05,-0.004915864118028793,0.008233093216897002
3.0303030303030303,4.7594936708860756,0.008529011409651845,0.007770058685074458,-5.464382497180417e-07,-0.00488972102841789,0.008175997144849807
3.131313131313131,4.7594936708860756,0.008611097115238544,0.00764414796781904,1.8614765268332642e-05,-0.004876573524917275,0.008170711761915016
3.2323232323232323,4.7594936708860756,0.008660496809261562,0.007816943247277677,-6.826877179996483e-05,-0.004943232016961772,0.008271890747511838
3.3333333333333335,4.7594936708860756,0.008655978745828324,0.007701573610898917,-5.971251796508768e-06,-0.004907265707018172,0.008220441205586047
3.4343434343434343,4.7594936708860756,0.008502906277150701,0.007790330743887139,5.122810578577981e-05,-0.004887971106311352,0.008170439953292054
3.5353535353535355,4.7594936708860756,0.00852256875394861,0.0076377576077224195,1.4124966530463168e-05,-0.004848097908501309,0.008116452651641166
3.6363636363636362,4.7594936708860756,0.008402539494981025,0.0076579632778992325,9.51182382304785e-05,-0.004818150831864077,0.008057783508784454
3.7373737373737375,4.7594936708860756,0.008636910064438499,0.007727966031517062,9.198858859991877e-07,-0.004909462828786668,0.008220214680213781
3.8383838383838382,4.7594936708860756,0.008469256457974087,0.007640789174596227,-9.147153714770935e-05,-0.004833013689771093,0.00808846476328602
3.9393939393939394,4.7594936708860756,0.008610204807339934,0.0077017543444124915,2.7030265168093162e-05,-0.004893587745525727,0.008193970736493384
4.040404040404041,4.7594936708860756,0.008584760289096141,0.007597610606032158,-2.9447401207977805e-05,-0.0048547112685384895,0.008136383211708231
4.141414141414141,4.7594936708860756,0.00849976789532223,0.007619363489382764,-2.0674700414963364e-07,-0.004835739415411497,0.008095550210830428
4.242424242424242,4.7594936708860756,0.008297009088397627,0.00758646003877873,-5.9548203409095584e-05,-0.004765040738152907,0.007966206487909702
4.343434343434343,4.7594936708860756,0.008478460211433368,0.007598489261801011,-7.987557838106084e-05,-0.004823084841970314,0.008075702945839798
4.444444444444445,4.7594936708860756,0.008323216641617113,0.0075747361673656624,3.218950928950127e-05,-0.0047693858426948324,0.007975556509607183
4.545454545454545,4.7594936708860756,0.008551634047565194,0.007625540198989122,-3.0945907463483767e-06,-0.004853152273966294,0.008128253671152158
4.646464646464646,4.7594936708860756,0.008612517995924001,0.007561729179761838,-3.48634467279425e-05,-0.004852274152705752,0.00813838633618036
4.747474747474747,4.7594936708860756,0.008407499382542385,0.007608113275046322,9.942133181211511e-06,-0.0048046837972766125,0.008037693845199553
4.848484848484849,4.7594936708860756,0.008501485137192375,0.007489920134737218,-0.00010879684067699265,-0.004797421581578878,0.00804575780868666
4.94949494949495,4.7594936708860756,0.008310623447712728,0.007482909100746836,5.98042985042345e-05,-0.004738059764537868,0.007929910499640052
5.05050505050505,4.7594936708860756,0.008290654306211318,0.007295389483415289,-9.202158310718136e-06,-0.004675813136887982,0.007840558547885072
5.151515151515151,4.7594936708860756,0.00843188045263818,0.007486470928709655,-2.1955506234960648e-05,-0.00477550541440435,0.008001266973656598
5.252525252525253,4.7594936708860756,0.008365055343179346,0.007495084050414088,-1.4352617566710782e-05,-0.00475804181807803,0.007965818283555267
5.353535353535354,4.7594936708860756,0.008476060676314876,0.007415182273574238,2.8282680029795334e-05,-0.004767372884966734,0.007998712245863097
5.454545454545454,4.7594936708860756,0.00850279537063737,0.0074543187906995585,8.530534131639513e-06,-0.0047871342484010785,0.00803007277386271
5.555555555555555,4.7594936708860756,0.008190874963479172,0.007664679946464623,5.313074339651048e-05,-0.0047566664729831384,0.007941396911135375
5.656565656565657,4.7594936708860756,0.008502111490736574,0.007585159045788116,-0.0001589943026048711,-0.004826181160957407,0.00808742896310929
5.757575757575758,4.7594936708860756,0.008548224251004445,0.007451558677582314,-4.790620684680217e-06,-0.0047999348785760275,0.008056074653673504
5.858585858585858,4.7594936708860756,0.00831153463004761,0.007502501822202427,-0.00010255373374982184,-0.004744210935675011,0.00793998675038685
5.959595959595959,4.7594936708860756,0.008369371887942019,0.007597364406411124,5.0707494453900886e-05,-0.0047900208883059426,0.008011796139879597
6.0606060606060606,4.7594936708860756,0.008352677264386437,0.007666174721713542,-5.59932227978869e-05,-0.004805655595829994,0.008032046735855372
6.161616161616162,4.7594936708860756,0.008519436413475637,0.0077775991758581116,5.138811438685016e-05,-0.004889110676800125,0.008174289347107821
6.262626262626262,4.7594936708860756,0.008464552822329741,0.007604285317803575,5.4876325853092035e-05,-0.0048206514420399945,0.008069446645302014
6.363636363636363,4.7594936708860756,0.0083739265452849,0.007515944420526786,0.00010156913991989756,-0.004766961289743506,0.007981544254897784
6.4646464646464645,4.7594936708860756,0.008481903217317198,0.007744695736164195,-2.8848580190207996e-05,-0.004867979686044418,0.008138533729961362
6.565656565656566,4.7594936708860756,0.008583485283648485,0.007803283706679031,-6.96425387074572e-05,-0.004916030697098255,0.008222082194353931
6.666666666666667,4.7594936708860756,0.008657113333035907,0.007579489227532501,-7.047690623134342e-05,-0.0048709807681705216,0.008172678382572723
6.767676767676767,4.7594936708860756,0.008590200665882992,0.007736070272889311,-1.1567653980811775e-05,-0.004897881281631691,0.00819660516125931
6.8686868686868685,4.7594936708860756,0.00867051755441418,0.007934217872174002,-3.5375341406814656e-05,-0.004981420627976455,0.008327044302010008
6.96969696969697,4.7594936708860756,0.008749471990030783,0.007777734070474911,4.323420596375231e-05,-0.004958161818151708,0.008306680959897705
7.070707070707071,4.7594936708860756,0.008578970254636732,0.007961098063051716,1.3155415186127732e-05,-0.004962020495306535,0.008287358367848408
7.171717171717171,4.7594936708860756,0.008792771934390023,0.007596505431840819,2.9507626184388742e-05,-0.004916783209869252,0.00826002454025784
7.2727272727272725,4.7594936708860756,0.008596506986013596,0.0077907793786129425,5.711287314672291e-05,-0.004916185909387962,0.008223896398478134
7.373737373737374,4.7594936708860756,0.008859038644737131,0.007790092465652573,-6.767663653460265e-05,-0.0049947393331169114,0.008376700813236026
7.474747474747475,4.7594936708860756,0.008816062087219257,0.00783516997667135,-2.0696290365903942e-05,-0.0049953696191671814,0.008368917452101601
7.575757575757575,4.7594936708860756,0.008757638940853374,0.007985894460822499,-3.9089934670966315e-06,-0.005023060020502761,0.008398405544553815
7.6767676767676765,4.7594936708860756,0.008949951634737684,0.008042412808890249,-1.7982606875828157e-05,-0.0050977093330883795,0.00853251443063727
7.777777777777778,4.7594936708860756,0.008855886144110566,0.007934776151090617,3.3942917394083695e-05,-0.005037198688560354,0.008433348928938445
7.878787878787879,4.7594936708860756,0.008824607547721958,0.007945849909262798,4.310589936657679e-06,-0.005031137237095427,0.008419695826634916
7.979797979797979,4.7594936708860756,0.008792725175713185,0.008009671753542193,2.0920017633782824e-05,-0.005040719078776614,0.008428601786770823
8.080808080808081,4.7594936708860756,0.009044678465686296,0.007980219212172146,4.5015640084204344e-05,-0.005107469303357532,0.008562573771112162
8.181818181818182,4.7594936708860756,0.008971709087260192,0.008114332641776622,-2.287503486963201e-05,-0.005125812518711044,0.008575319006906404
8.282828282828282,4.7594936708860756,0.009092664617108148,0.008285056794834152,-1.9765935968976274e-06,-0.00521331642358269,0.008716965348358616
8.383838383838384,4.7594936708860756,0.009270057939114404,0.008313468339221756,1.1757899778554506e-05,-0.0052750578835008485,0.008830731090165935
8.484848484848484,4.7594936708860756,0.009344755362398647,0.008326925624891134,0.00012189288032807155,-0.005301504296186934,0.008882208840309642
8.585858585858587,4.7594936708860756,0.009278364495498528,0.008217731045773285,-2.5523060717943076e-05,-0.005248828662381544,0.00879624928951085
8.686868686868687,4.7594936708860756,0.009306890512006958,0.008611449101515156,-2.0415396921681707e-05,-0.005375501884056634,0.008979460064961784
8.787878787878787,4.7594936708860756,0.009364580290826938,0.00839528829480249,3.0733681777315476e-05,-0.005327960575688829,0.008919681157556099
8.88888888888889,4.7594936708860756,0.009310507128116529,0.008440896795527219,2.1707642308632856e-05,-0.005325421177093124,0.00890767453257033
8.98989898989899,4.7594936708860756,0.00944722991796082,0.008661716672624982,-4.218036404963711e-05,-0.005432683977175741,0.009080286201351524
9.09090909090909,4.7594936708860756,0.009575883253805446,0.008505116685289197,2.9625069173273228e-05,-0.005424299981728393,0.009088078917832126
9.191919191919192,4.7594936708860756,0.009595173251692884,0.008599717952923563,1.2243289846231412e-05,-0.005458467361384934,0.00913822546341914
9.292929292929292,4.7594936708860756,0.00978328561568009,0.008694636335883858,7.170876051995915e-05,-0.005543376585469184,0.009287771223056086
9.393939393939394,4.7594936708860756,0.009836813981759883,0.008929451093736314,5.796594163531589e-05,-0.005629879522648859,0.00941651405404558
9.494949494949495,4.7594936708860756,0.009669353601622379,0.00889888152144423,-8.170931629160386e-05,-0.0055704705369199825,0.009309140054442631
9.595959595959595,4.7594936708860756,0.010043091526967864,0.008972291316449431,3.2563400480288505e-05,-0.005704614853025188,0.009552975301638723
9.696969696969697,4.7594936708860756,0.009914094151141833,0.009123489009947531,8.937613824210217e-06,-0.005711274948326809,0.00954339694048367
9.797979797979798,4.7594936708860756,0.01009425344380566,0.0091920532987613,-4.263222287963226e-05,-0.005785892022770089,0.00967503660394458
9.8989898989899,4.7594936708860756,0.010433403334272146,0.009285448081065515,1.2233157425315837e-05,-0.005915655424601298,0.00990944373731373
10.0,4.7594936708860756,0.010452477280830584,0.00951121173680288,1.3316788306822828e-05,-0.005989106705290039,0.01001510047014145
0.0,4.860759493670886,0.010396922949505345,0.009443381602925158,-8.031161178564615e-06,-0.005952091365729151,0.00995447364287418
0.10101010101010101,4.860759493670886,0.010061185869259644,0.00927425271003104,1.352904849266839e-05,-0.005800631573787204,0.009691738400135454
0.20202020202020202,4.860759493670886,0.009929754029340265,0.009025449129346172,1.567603805160238e-05,-0.005686560947605931,0.00950994187287131
0.30303030303030304,4.860759493670886,0.01020379867458533,0.008942050912926188,-1.996096152520438e-05,-0.005743754876253455,0.009635148674898467
0.40404040404040403,4.860759493670886,0.009959988598410754,0.008950913475211873,-6.238777482101828e-06,-0.0056732706220867886,0.009495754079048367
0.5050505050505051,4.860759493670886,0.009823661027664946,0.00880346442300165,-4.930683510192822e-06,-0.0055881376351999785,0.00935537943686745
0.6060606060606061,4.860759493670886,0.009826517614794174,0.00892811080074951,6.907918243295197e-05,-0.005626388524663105,0.009410296948250775
0.7070707070707071,4.860759493670886,0.009519168737276037,0.008760706934930262,-2.6613590427460494e-05,-0.005483962701661889,0.009163625741300736
0.8080808080808081,4.860759493670886,0.009657479302852509,0.008757350691376746,6.297945146748137e-06,-0.005524448998268776,0.00924036165738812
0.9090909090909091,4.860759493670886,0.00959463549556862,0.008634060183912669,8.290057516972455e-05,-0.005468608703844386,0.00915335909690522
1.0101010101010102,4.860759493670886,0.009529135947883606,0.008461097953645679,7.976322321007612e-05,-0.005397070170458785,0.00904360239844255
1.1111111111111112,4.860759493670886,0.009565111023752095,0.008586064383856841,-2.1506306504274147e-05,-0.005445352622282682,0.009115183979241609
1.2121212121212122,4.860759493670886,0.00938229236773227,0.008375064340742684,-4.319301908307152e-06,-0.005327207012542486,0.00892142738079939
1.3131313131313131,4.860759493670886,0.009297294363083252,0.00837398889387956,1.9977121388391037e-05,-0.005301384977088843,0.008871816611336516
1.4141414141414141,4.860759493670886,0.009162782324129305,0.008246599708553985,-4.2979970850451575e-05,-0.005222814609804986,0.008741094351537092
1.5151515151515151,4.860759493670886,0.00924451004261099,0.00835851380486795,-1.7491744131383102e-05,-0.005280907154243682,0.008834946068145378
1.6161616161616161,4.860759493670886,0.0091089341725267,0.008240441469107029,2.374013863406436e-07,-0.005204812692490119,0.008707233696164737
1.7171717171717171,4.860759493670886,0.009077651838700733,0.008209167849911327,-0.00011959336788400874,-0.0051860459065836174,0.00867854479660384
1.8181818181818181,4.860759493670886,0.008919404298294957,0.008175640926171594,-5.073493699883724e-05,-0.005128513567339965,0.00857220816787718
1.9191919191919191,4.860759493670886,0.009024215136315596,0.008049108269689756,8.594933386161906e-05,-0.005121997021801605,0.0085796200350885
2.0202020202020203,4.860759493670886,0.009009708722858176,0.008206880233546245,-2.3009654330036604e-06,-0.005164976686921325,0.008636327338296678
2.121212121212121,4.860759493670886,0.008853265404156508,0.008003419459375383,-3.0336542851138955e-05,-0.005057005459059566,0.0084605789200266
2.2222222222222223,4.860759493670886,0.008927807653471486,0.007815144042787532,-1.3240240457950919e-08,-0.005022885508877705,0.008426750447785123
2.323232323232323,4.860759493670886,0.00877035945036291,0.008018376321536541,-3.807680662762184e-05,-0.005036620731569835,0.008419849802924192
2.4242424242424243,4.860759493670886,0.008958353682479702,0.008111121359044638,-5.6633842180223784e-05,-0.005120842512457302,0.008566779948262401
2.525252525252525,4.860759493670886,0.008807141804594883,0.007929779919000979,5.208642914178174e-05,-0.0050210765170787585,0.00840336831826772
2.6262626262626263,4.860759493670886,0.00858636655581045,0.007873240193713075,-7.616785938544856e-06,-0.004937882024857058,0.008252953988709915
2.727272727272727,4.860759493670886,0.008491348799308948,0.00783808396755765,2.706244514786997e-05,-0.004898829830059979,0.00818442771090432
2.8282828282828283,4.860759493670886,0.008601513794745412,0.007808526889143924,-5.740709682148389e-06,-0.0049230122051668,0.008233715980850343
2.929292929292929,4.860759493670886,0.008464336204761556,0.00778285436782609,-3.649561276916156e-07,-0.004874157171776293,0.008145005457065627
3.0303030303030303,4.860759493670886,0.008525608475596259,0.007848714950179221,1.668650952418745e-05,-0.004912297027732644,0.008208172200029605
3.131313131313131,4.860759493670886,0.008320836466937952,0.007525795623527922,-3.837627857350182e-05,-0.004753989627139762,0.007953453515670708
3.2323232323232323,4.860759493670886,0.008536680483520489,0.0077384698603106886,2.0499547713554376e-05,-0.004882545103149353,0.008166960604912952
3.3333333333333335,4.860759493670886,0.00856314038043882,0.007718471484555552,3.332809222651157e-05,-0.004884483559498312,0.008173808945254974
3.4343434343434343,4.860759493670886,0.008544930967147922,0.007651583179986111,-5.823775041492266e-05,-0.004858954244140209,0.00813575412840866
3.5353535353535355,4.860759493670886,0.008460892312478199,0.0075806857782214476,-3.2962536863831264e-05,-0.004812473427209894,0.008057132812218279
3.6363636363636362,4.860759493670886,0.008570793453953965,0.007547793384010984,1.8615922351029077e-05,-0.004835576051389484,0.0081079064454566
3.7373737373737375,4.860759493670886,0.008462974133015395,0.007516646940849288,-2.34850738461097e-05,-0.004793886322159405,0.008031835308827645
3.8383838383838382,4.860759493670886,0.00866654308970835,0.007489990519711804,-1.869753727741814e-05,-0.004846960082826046,0.00814233690805383
3.9393939393939394,4.860759493670886,0.008518537970853616,0.007602510443792999,-8.555346139545233e-05,-0.004836314524393984,0.008100823322592886
4.040404040404041,4.860759493670886,0.008391936474795851,0.007497677224716341,3.322912903283919e-05,-0.004766884109853657,0.00798267142689368
4.141414141414141,4.860759493670886,0.008527884132321707,0.007621559553298806,-8.100115636892246e-05,-0.004844833105686153,0.008113993134250371
4.242424242424242,4.860759493670886,0.00854363594747673,0.007629882311337605,4.6160336965296274e-05,-0.004852055477644301,0.008125778413656413
4.343434343434343,4.860759493670886,0.008334852396265325,0.007570383722387328,6.7943228793610164e-06,-0.004771570835595796,0.007980136700019555
4.444444444444445,4.860759493670886,0.008394351348668408,0.007421795504862244,-0.00010474290386059677,-0.004744844056059195,0.007954868773451293
4.545454545454545,4.860759493670886,0.008446577033467687,0.007440916088651417,8.316881143173371e-05,-0.00476624793663573,0.007992645121102083
4.646464646464646,4.860759493670886,0.00847739811253939,0.007661110309474672,-8.205131242318269e-05,-0.004841552526604218,0.008101407600444505
4.747474747474747,4.860759493670886,0.008300911981844857,0.007552646266712739,4.831279407458612e-06,-0.004756067474567278,0.007953227237682568
4.848484848484849,4.860759493670886,0.008580644708452441,0.0074873265055195445,6.725126932130772e-05,-0.0048203913641915955,0.008090426530942753
4.94949494949495,4.860759493670886,0.008368963428068522,0.007573393993261351,7.406367192331273e-07,-0.004782707226398961,0.008000899307401993
5.05050505050505,4.860759493670886,0.008424534521531373,0.007730252615757527,9.463560593982339e-05,-0.00484643614118667,0.008101399575383703
5.151515151515151,4.860759493670886,0.008310633739554523,0.00761048118718258,7.242269348206662e-05,-0.004776334478021131,0.00798460208555386
5.252525252525253,4.860759493670886,0.008296749304189976,0.007587380997934067,4.734646547733894e-05,-0.004765239090637213,0.007966211550827261
5.353535353535354,4.860759493670886,0.008523317254182436,0.007513641460195211,7.070716680721089e-05,-0.004811087614313294,0.00806694450326143
5.454545454545454,4.860759493670886,0.008467807355163417,0.007520898239127296,-0.00011426975136333158,-0.004796611678287214,0.008038739144230264
5.555555555555555,4.860759493670886,0.008305353466828203,0.007474790088885158,-3.325727932663831e-05,-0.004734043066714008,0.007922999901754399
5.656565656565657,4.860759493670886,0.008459744886115002,0.007743249490597942,-1.8647369640192134e-06,-0.004860898313013883,0.008125225619238369
5.757575757575758,4.860759493670886,0.008414371806528757,0.007709564175713861,2.0165584645001026e-05,-0.004837180794672786,0.008085116770314326
5.858585858585858,4.860759493670886,0.008488941488415495,0.007391116424645488,9.215310891220656e-06,-0.004764017373918295,0.00799676368910501
5.959595959595959,4.860759493670886,0.00840559275552385,0.007603344150138801,0.00010413373607987734,-0.004802681071698795,0.008036588134026372
6.0606060606060606,4.860759493670886,0.008524184962573475,0.007561802989077917,-6.160869997800787e-05,-0.004825796385495418,0.008086765316743728
6.161616161616162,4.860759493670886,0.008594358777324725,0.007520574447416008,7.683562351946464e-05,-0.0048344799674222205,0.008112042833895553
6.262626262626262,4.860759493670886,0.008566728050811556,0.007713033906592248,-2.3435652364605714e-05,-0.004883928587221141,0.008173487952260285
6.363636363636363,4.860759493670886,0.008542550662966835,0.007664237619609254,-3.605651650765444e-05,-0.004862036484772826,0.00813925501368574
6.4646464646464645,4.860759493670886,0.008435175974944087,0.007723834553865765,-9.665675015866746e-06,-0.004847703158642956,0.008102974179668458
6.565656565656566,4.860759493670886,0.008629882959332657,0.007699458239033628,-0.0001138156350538056,-0.004898802359509885,0.00820670309013439
6.666666666666667,4.860759493670886,0.008555100966724778,0.007704211116824346,2.140848245306676e-08,-0.004877793625064737,0.00816298459581018
6.767676767676767,4.860759493670886,0.008453189559915615,0.007902433881889725,4.1764663759994005e-05,-0.004906687032541602,0.008192028824815522
6.8686868686868685,4.860759493670886,0.008418115988115779,0.007933263992663798,-6.907035461325231e-05,-0.004905413994233872,0.008187339620031608
6.96969696969697,4.860759493670886,0.008530163104035121,0.007772324147915914,-3.7587708961256426e-05,-0.00489074617558531,0.00817788182050586
7.070707070707071,4.860759493670886,0.008602482342796747,0.007786446967155557,2.1451783269425575e-05,-0.004916678792985691,0.008224966067978222
7.171717171717171,4.860759493670886,0.008674797944662957,0.007631763660914209,5.3657811092989564e-05,-0.004891968481673149,0.008203692200405935
7.2727272727272725,4.860759493670886,0.008594785016945489,0.007820366435251738,8.362660675307407e-05,-0.004924545435659168,0.00823620498970665
7.373737373737374,4.860759493670886,0.008631899302070879,0.007735871760847365,-2.181048086520395e-05,-0.0049103313188754725,0.008220678712808693
7.474747474747475,4.860759493670886,0.008730668293216056,0.007793767073879203,-2.3315876978475865e-06,-0.004957330610128578,0.00830196333889321
7.575757575757575,4.860759493670886,0.008690115459441063,0.007902173144234604,-8.394523167236717e-07,-0.0049776865811027,0.008324160751092366
7.6767676767676765,4.860759493670886,0.008718205654752717,0.007980346836585087,1.070851175584965e-05,-0.00500956574740134,0.008373713905419976
7.777777777777778,4.860759493670886,0.009021172540733865,0.008017096940403695,2.2236737476402915e-05,-0.005111480844341269,0.008563484454579834
7.878787878787879,4.860759493670886,0.00885967998297321,0.007879294756670681,5.688756136818731e-05,-0.0050216924218931674,0.00841301930411957
7.979797979797979,4.860759493670886,0.008966076346335863,0.00801639906506027,-4.305337647301971e-05,-0.005094742623418839,0.008531300824509355
8.080808080808081,4.860759493670886,0.009082169466011453,0.00793515977585389,1.2617688709911966e-05,-0.005105198772559603,0.008566479712910254
8.181818181818182,4.860759493670886,0.008904464392591068,0.008150569080223461,4.458065677877535e-06,-0.005116510041844358,0.008552477414133414
8.282828282828282,4.860759493670886,0.009106155365957788,0.008282018977227698,0.00011805947219565008,-0.005216452302955646,0.008725730138767797
8.383838383838384,4.860759493670886,0.009046473775526136,0.008134915509659158,-3.8194346074145544e-05,-0.005154416785555588,0.008627144065131804
8.484848484848484,4.860759493670886,0.009197357664339526,0.008450762535005185,2.8605331556720116e-05,-0.005294436059803413,0.008847855370256084
8.585858585858587,4.860759493670886,0.009288304127013813,0.0084133588798762,-3.2314751117698464e-05,-0.005310498902067005,0.008883383247440726
8.686868686868687,4.860759493670886,0.009233915734090254,0.008401082480637598,2.7120494711985784e-05,-0.005290499464418356,0.008847073272732982
8.787878787878787,4.860759493670886,0.009367588840384989,0.00830115510334199,-1.6623052964717756e-05,-0.005300623183118094,0.008882562569526006
8.88888888888889,4.860759493670886,0.009304308292064679,0.008563925088308753,5.233749660449232e-05,-0.005360470014112029,0.008957554584864568
8.98989898989899,4.860759493670886,0.009467475804834665,0.008363349129554273,-4.487761635961885e-05,-0.005349247480316681,0.008966880352043082
9.09090909090909,4.860759493670886,0.009461886014899315,0.008708780816729484,-7.491554181078762e-06,-0.0054512000494886395,0.009108722590259223
9.191919191919192,4.860759493670886,0.009634379692349832,0.00859871624662165,1.3522335078597017e-05,-0.005469928781691444,0.009160591930666144
9.292929292929292,4.860759493670886,0.009689668877665484,0.008600588689874792,2.024975141339513e-05,-0.005487077270262083,0.009193703408888969
9.393939393939394,4.860759493670886,0.009983300111828838,0.009014008506985945,4.400613529856205e-05,-0.0056991925856444345,0.009535978605831158
9.494949494949495,4.860759493670886,0.00985959111334365,0.008704908322728773,-6.696978667159487e-06,-0.005569349830821727,0.00933596613301268
9.595959595959595,4.860759493670886,0.009980835288830384,0.009122541488031396,-3.7591823950501794e-05,-0.005731013033058534,0.009580787634205067
9.696969696969697,4.860759493670886,0.009916492290082504,0.009100531324491078,-2.8557745524447604e-05,-0.005705107084372074,0.009534861700456242
9.797979797979798,4.860759493670886,0.01032628593506805,0.00912286122587144,1.1227727365194769e-05,-0.005834744148281847,0.009780280301739018
9.8989898989899,4.860759493670886,0.010361389872191389,0.009467351639660431,2.3526242786091464e-05,-0.005948622453555546,0.009944641079957491
10.0,4.860759493670886,0.010487574074096149,0.009428492621906155,-1.2827341715378666e-05,-0.005974820008800691,0.0100002080940233
0.0,4.962025316455696,0.010461315415460932,0.009317624102440103,2.426813263797071e-05,-0.005933681855370311,0.009939034223937028
0.10101010101010101,4.962025316455696,0.01022363287210761,0.009266547860004496,3.0865489300098834e-05,-0.0058470542196336316,0.00978042192689978
0.20202020202020202,4.962025316455696,0.010297325341011765,0.009281505272052848,8.362203469039466e-06,-0.005873649183919383,0.009828874789744977
0.30303030303030304,4.962025316455696,0.009989556514874195,0.00911774934750686,4.75794692677807e-07,-0.0057321917587143155,0.0095834399258091
0.40404040404040403,4.962025316455696,0.010107147822730773,0.008952985223588145,-8.089797045950573e-05,-0.005718039913895675,0.009583364224512328
0.5050505050505051,4.962025316455696,0.010110718438123835,0.009008502790498227,1.3102290102448095e-05,-0.005735766368586619,0.009607175943411725
0.6060606060606061,4.962025316455696,0.009602982594707276,0.008762605653908231,7.277808297010004e-05,-0.005509676474584652,0.009212452058462692
0.7070707070707071,4.962025316455696,0.009717816789566465,0.008737783103951261,-4.913117328846971e-05,-0.005536679968055318,0.009267139957542152
0.8080808080808081,4.962025316455696,0.009648982360885362,0.00866916547438619,2.058491229083991e-05,-0.005495444350581466,0.00919836600124499
0.9090909090909091,4.962025316455696,0.009599972197428343,0.00865628166412758,5.419061465411005e-05,-0.005476876158466777,0.00916512002101035
1.0101010101010102,4.962025316455696,0.00961700015707474,0.008733775072898546,-6.198991960847073e-05,-0.005505232568991985,0.009207840737525709
1.1111111111111112,4.962025316455696,0.00952748009735149,0.00859039018438953,1.839424602226283e-05,-0.005435361084522306,0.009095269323120127
1.2121212121212122,4.962025316455696,0.009419598195450818,0.008425912073201765,9.797131422621432e-05,-0.005353653080595774,0.008965763403332848
1.3131313131313131,4.962025316455696,0.009536732609605119,0.00835458913246101,-4.77312560663478e-06,-0.005367396522619839,0.009004055428979321
1.4141414141414141,4.962025316455696,0.009206779126545574,0.008107745123641104,-9.496118261136583e-06,-0.005194357275056003,0.00870944113224361
1.5151515151515151,4.962025316455696,0.00909747221781262,0.008359012261736791,-9.917633523724681e-06,-0.005236945343864823,0.008751656986228215
1.6161616161616161,4.962025316455696,0.008941546440886723,0.008483507748840302,-1.087782532742011e-05,-0.005227516256918107,0.008721572847975364
1.7171717171717171,4.962025316455696,0.009045426633509586,0.008194361724552564,8.039454301138473e-05,-0.005171936507418645,0.008652467804896783
1.8181818181818181,4.962025316455696,0.008949400652114019,0.008028320498755955,-1.8431974175084964e-05,-0.005093316345260992,0.008526316002170749
1.9191919191919191,4.962025316455696,0.008882489571929462,0.008018900171110501,2.170004126344865e-05,-0.005070416922911989,0.00848380789957032
2.0202020202020203,4.962025316455696,0.008977204137631162,0.007945642784335957,-2.1173619639700494e-05,-0.005076854076590136,0.008508532251322675
2.121212121212121,4.962025316455696,0.008880349381652644,0.00807124662610524,3.59720366144771e-05,-0.005085478802327365,0.008504940870846113
2.2222222222222223,4.962025316455696,0.008685135093501542,0.0079667932055735,-9.71347546648203e-06,-0.004995578489722512,0.008349189983175912
2.323232323232323,4.962025316455696,0.008808838585069997,0.007927760647004303,-3.116583541775472e-05,-0.0050209797696222904,0.008403188450901775
2.4242424242424243,4.962025316455696,0.00874401186653287,0.007780186063598539,-9.368746658488078e-05,-0.004957259379039422,0.008305740874029636
2.525252525252525,4.962025316455696,0.008732736071998693,0.007803291855596892,-7.261409592023492e-05,-0.0049608083782786755,0.00830805472056403
2.6262626262626263,4.962025316455696,0.008644905695783352,0.007973751657695358,-3.607685908805934e-05,-0.004985597206043613,0.008329866954789817
2.727272727272727,4.962025316455696,0.008796032199865245,0.007923014937232352,-9.451163018495523e-05,-0.005015714141129279,0.008395239781774238
2.8282828282828283,4.962025316455696,0.008673227511643714,0.00791066634977525,-1.518402570348065e-05,-0.0049751681584256895,0.008318245019822675
2.929292929292929,4.962025316455696,0.008560174413824477,0.007907963400279779,-3.391363894709248e-05,-0.004940441344231277,0.008253628025022951
3.0303030303030303,4.962025316455696,0.008673643429363284,0.007773170203474662,-6.42492792753259e-05,-0.0049340440898513836,0.008261049727540376
3.131313131313131,4.962025316455696,0.008621869261849878,0.007571285609088857,-2.0293239337821328e-05,-0.004857946461281621,0.008147612909547599
3.2323232323232323,4.962025316455696,0.00873314488671488,0.007681568966985795,5.650176479245056e-05,-0.004924414156110203,0.00825830757535754
3.3333333333333335,4.962025316455696,0.008547500023558252,0.00758277379895856,-8.039942114483378e-06,-0.004839082146755044,0.008108307458136572
3.4343434343434343,4.962025316455696,0.00847537125880427,0.007766208808920038,1.637683232570193e-05,-0.004872474020317292,0.008144029648228836
3.5353535353535355,4.962025316455696,0.008617191735117897,0.007796018610160119,-7.832015491001367e-05,-0.004923963103583405,0.008238477685558503
3.6363636363636362,4.962025316455696,0.00864708571595127,0.007695989656799535,6.082218032561522e-05,-0.004902922611825241,0.008213620636358403
3.7373737373737375,4.962025316455696,0.008380225631642927,0.007689663497364904,1.0068771010530039e-05,-0.004820966738702349,0.008057189047122697
3.8383838383838382,4.962025316455696,0.008458414193172992,0.0076661814811142,-9.527885480296373e-06,-0.004837378702286158,0.008091454953168651
3.9393939393939394,4.962025316455696,0.008469671290901782,0.00764626552563458,-6.123941142114702e-05,-0.004834781044960909,0.00809015472385344
4.040404040404041,4.962025316455696,0.008515638728851607,0.007403367076198217,-2.2174208464528163e-05,-0.004775701741514948,0.00801766940661922
4.141414141414141,4.962025316455696,0.008540728554599072,0.007507959299289227,5.743196310271808e-05,-0.0048146063561664895,0.00807464859916999
4.242424242424242,4.962025316455696,0.008423087472331031,0.007583809745668219,-5.2029088862266076e-05,-0.0048020691653997746,0.00803689001057099
4.343434343434343,4.962025316455696,0.00853015873830365,0.00740501216126304,1.9363061064665613e-05,-0.004780551269870007,0.008027017428588922
4.444444444444445,4.962025316455696,0.008518470279386216,0.007452740145037149,1.2752318962779761e-05,-0.004791363127327009,0.008038794313183037
4.545454545454545,4.962025316455696,0.008271118092641328,0.007485399320811822,8.425157905150095e-06,-0.004726955224035945,0.007907603220399606
4.646464646464646,4.962025316455696,0.00814262737368114,0.007539798221243134,3.703395567972517e-05,-0.004704727678477282,0.00785883483202031
4.747474747474747,4.962025316455696,0.008449304355608391,0.007724654246871752,-5.887822092759982e-05,-0.004852187580744043,0.008111933954887279
4.848484848484849,4.962025316455696,0.00826413522704937,0.007442251740770092,-2.9122248249260046e-05,-0.0047119160903458385,0.007885544468235244
4.94949494949495,4.962025316455696,0.008298754124801366,0.007470877837251655,3.0216364042068636e-05,-0.004730889588615905,0.00791751832970623
5.05050505050505,4.962025316455696,0.008523107722325111,0.007720537892781318,8.067024534849728e-05,-0.004873093684531929,0.008152706147728851
5.151515151515151,4.962025316455696,0.008366174803737397,0.0074804004469761045,-3.974387361981219e-05,-0.0047539725752140495,0.007960632680819047
5.252525252525253,4.962025316455696,0.008442013225969384,0.00752739038548257,7.435666402239966e-05,-0.0047908210834355855,0.008024926845278555
5.353535353535354,4.962025316455696,0.008314546103660002,0.007445062113396447,6.143156855022555e-05,-0.004727882465116935,0.007916415609896652
5.454545454545454,4.962025316455696,0.008513926327698054,0.00751936931396044,-4.2272811847170915e-05,-0.0048099886924975474,0.008063117324909252
5.555555555555555,4.962025316455696,0.008339607514171203,0.007515216140537512,-4.9401412182061354e-05,-0.0047564470964126145,0.00795995575563996
5.656565656565657,4.962025316455696,0.008327207977022666,0.007432316085279213,8.549855323883911e-06,-0.004727857218690563,0.007917795942753091
5.757575757575758,4.962025316455696,0.008455397891641153,0.007489062609891599,-2.534557082146941e-05,-0.004783338150459826,0.00801615464376036
5.858585858585858,4.962025316455696,0.008420497852948426,0.007602139054218891,3.091624351614004e-05,-0.004806791072150195,0.008042783980044661
5.959595959595959,4.962025316455696,0.00848810512981831,0.007562048431607628,-1.1742558053543055e-05,-0.004815046068427782,0.008065076363902142
6.0606060606060606,4.962025316455696,0.008379869750887326,0.007551135571749945,3.0868036103137634e-05,-0.00477930159679118,0.007997949200212871
6.161616161616162,4.962025316455696,0.00857501530590343,0.007609518435594345,-1.0031827939795369e-05,-0.004855360122449332,0.00813536865637126
6.262626262626262,4.962025316455696,0.008406792578308562,0.00767759113415932,-3.404221374793372e-05,-0.004825315113740365,0.00806716353677289
6.363636363636363,4.962025316455696,0.008339217333430172,0.0076389656390839795,8.096562004019691e-05,-0.004793454891754246,0.008013302277915567
6.4646464646464645,4.962025316455696,0.008568371953033912,0.007531843331874703,9.75054879309919e-05,-0.004830064585472585,0.008101762073925208
6.565656565656566,4.962025316455696,0.008557876886186182,0.007495294563909133,4.747693010184927e-05,-0.0048159514350285945,0.008079582382272382
6.666666666666667,4.962025316455696,0.00841696101582325,0.007548332925063735,0.0001002925780719588,-0.0047895881822660955,0.008019894920036174
6.767676767676767,4.962025316455696,0.008672820470208606,0.0074761684120798035,3.984102114728813e-06,-0.004844696664686523,0.008140730324144484
6.8686868686868685,4.962025316455696,0.00858455230799203,0.007691223783539994,-3.0620237332708894e-05,-0.004882732827459607,0.00817475146604923
6.96969696969697,4.962025316455696,0.00873276673015208,0.0076210380681247065,1.4345293927266531e-05,-0.004906141439483036,0.008233426119841526
7.070707070707071,4.962025316455696,0.008512769441773961,0.0077222164609325105,2.1963734329239214e-05,-0.004870495770811942,0.008146402245395479
7.171717171717171,4.962025316455696,0.008654453889707215,0.007830181049945689,8.768954838845869e-05,-0.0049453904818958705,0.008274565543270078
7.2727272727272725,4.962025316455696,0.008559629345296648,0.007724081741176512,-7.718658776302953e-05,-0.004885113325941948,0.008175040663139658
7.373737373737374,4.962025316455696,0.008636977424576284,0.007813834915875825,1.1324086691642728e-05,-0.004935243702135632,0.008256262112011302
7.474747474747475,4.962025316455696,0.008828450919176258,0.007921210624336266,-5.650813809596972e-05,-0.0050248984630537575,0.008412174729462341
7.575757575757575,4.962025316455696,0.008926981901224637,0.007919688032228306,-6.591154116946079e-05,-0.005054000980035883,0.008469154955445262
7.6767676767676765,4.962025316455696,0.008659490851745038,0.00789764939534155,2.6849106979288197e-05,-0.004967142074125976,0.008304949591513584
7.777777777777778,4.962025316455696,0.008771509267853844,0.007988074825005744,-6.638415297745084e-05,-0.005027875227857877,0.008407999908027364
7.878787878787879,4.962025316455696,0.008834176772638227,0.00814691287511573,-3.1131399035283234e-05,-0.0050943268943261875,0.008511551424206412
7.979797979797979,4.962025316455696,0.008891172110623286,0.007924291106694981,-5.596187387163103e-05,-0.00504463896519548,0.008449881073366987
8.080808080808081,4.962025316455696,0.009029111445282876,0.008046194711392922,8.301320823143959e-05,-0.005122591847002739,0.008581188008871261
8.181818181818182,4.962025316455696,0.009035731080407105,0.008154349035128825,-6.534556804815569e-05,-0.005157024034660779,0.008629608882025346
8.282828282828282,4.962025316455696,0.00883581742266184,0.00806682074906524,5.8505419168920185e-05,-0.005070791451518124,0.008478123604683982
8.383838383838384,4.962025316455696,0.009116520588634928,0.008025408781111326,-4.789375822837441e-05,-0.005142578810923876,0.008623294660277015
8.484848484848484,4.962025316455696,0.009269495230130067,0.008119795969675573,6.963705264186824e-05,-0.0052167873599416915,0.008752300632252562
8.585858585858587,4.962025316455696,0.009122235387037774,0.008313643553622936,-2.639266128290147e-05,-0.005230763682198213,0.008746137655608423
8.686868686868687,4.962025316455696,0.00927467762412393,0.00824325966885633,-2.6339978937567462e-05,-0.005255381187894079,0.008804514772689336
8.787878787878787,4.962025316455696,0.009321667835985648,0.008541309603081537,7.767475534042338e-05,-0.005358893231720155,0.00895803047989642
8.88888888888889,4.962025316455696,0.009262807498708484,0.008490581471788232,0.00010599107816628965,-0.005326016691149015,0.008903743992719072
8.98989898989899,4.962025316455696,0.009483897375185145,0.008595528573611752,-7.681915991184842e-05,-0.005423827784639069,0.009073368368759369
9.09090909090909,4.962025316455696,0.00942238575962344,0.008426125595739168,6.565729873073168e-05,-0.005354553406608782,0.008966586461907556
9.191919191919192,4.962025316455696,0.009552994883176548,0.008767437071602765,-5.956176476223262e-05,-0.005496129586433794,0.0091860233708816
9.292929292929292,4.962025316455696,0.009627317253820327,0.008748855905348022,-9.22307458385867e-05,-0.005512851947750504,0.00922091238874649
9.393939393939394,4.962025316455696,0.010064225461158696,0.008899170282310388,1.2205271198688556e-05,-0.005689018723040726,0.009535253358674398
9.494949494949495,4.962025316455696,0.009725605246051336,0.009045605938843425,-4.394868438235899e-05,-0.0056313633554684285,0.009404370584515946
9.595959595959595,4.962025316455696,0.010002599753082545,0.009108817793282827,-6.054144048513989e-05,-0.0057334252639096115,0.009587580539410147
9.696969696969697,4.962025316455696,0.010139415845030269,0.00920033624662174,-5.337086617741365e-05,-0.005801925627495602,0.009704455211850867
9.797979797979798,4.962025316455696,0.010246850816230968,0.009245432821222834,6.290454576361526e-05,-0.005847685091236141,0.009785258289739474
9.8989898989899,4.962025316455696,0.010399588165344299,0.00944365685824219,5.538162901900907e-05,-0.005952973507075947,0.009956563068596729
10.0,4.962025316455696,0.010443066479333542,0.009488466757540613,-1.8843003607907402e-05,-0.005979459971062246,0.01000005074692849
0.0,5.063291139240507,0.010242809672215995,0.009308936997604279,-4.304709252834661e-05,-0.005865524000946082,0.009809553875993663
0.10101010101010101,5.063291139240507,0.010074312495303035,0.009233845548980704,1.4766368768817126e-05,-0.0057924474132851215,0.0096815125067623
0.20202020202020202,5.063291139240507,0.010256282496433688,0.009333185548113656,-7.347736556450694e-05,-0.005876840413364203,0.009828127610019855
0.30303030303030304,5.063291139240507,0.010178557762734165,0.009176226731330558,1.923148951848087e-05,-0.005806435348219416,0.009716302325261154
0.40404040404040403,5.063291139240507,0.009991493625165805,0.009074961919538068,-3.527351647144558e-05,-0.005719936663411162,0.00956640931583009
0.5050505050505051,5.063291139240507,0.010129242664022759,0.008735515976809976,5.957109820229462e-05,-0.005659427592249821,0.009509851804861538
0.6060606060606061,5.063291139240507,0.009679268320071963,0.009017727812557224,1.391590756424381e-05,-0.005609098839788756,0.009366067687970756
0.7070707070707071,5.063291139240507,0.009756890106188808,0.008677378013547466,-6.252538883954326e-05,-0.005530280435920882,0.009265057923129734
0.8080808080808081,5.063291139240507,0.009503165572938663,0.008615712417850419,-5.258287175120539e-05,-0.005435663397236724,0.009092436945799354
0.9090909090909091,5.063291139240507,0.009419143984791229,0.008799443860591052,1.084143701316892e-05,-0.005465576353614683,0.009125108742540966
1.0101010101010102,5.063291139240507,0.009390140646796791,0.00838841878354982,5.956010298505448e-05,-0.005333567829103983,0.008932106195667101
1.1111111111111112,5.063291139240507,0.009241091780168784,0.008479311607674558,-2.5170357985296132e-05,-0.005316121016353003,0.008884835759378996
1.2121212121212122,5.063291139240507,0.009502718985235463,0.008305890438277402,3.773668240058643e-05,-0.00534258282705386,0.00896466471762965
1.3131313131313131,5.063291139240507,0.009474581657613404,0.008370921456442205,-3.194682924514708e-05,-0.005353650934216683,0.008973968270942097
1.4141414141414141,5.063291139240507,0.009222354088075764,0.008288486548667422,7.066331828636083e-05,-0.005253252191022955,0.00879354571835948
1.5151515151515151,5.063291139240507,0.009280074721926015,0.008242224514068868,-4.1727224525481956e-05,-0.005256689770798464,0.008807429585480564
1.6161616161616161,5.063291139240507,0.009207303094413456,0.00804694167438353,-1.947299527787701e-06,-0.005176273430639096,0.008685452261116649
1.7171717171717171,5.063291139240507,0.008927798312668853,0.008169156776206133,-0.00011575087664619819,-0.005129086526662496,0.00857603147497256
1.8181818181818181,5.063291139240507,0.009042964604168454,0.008147303994196494,-4.5980165638895236e-05,-0.005157080579509484,0.008630430585670163
1.9191919191919191,5.063291139240507,0.008845446623691964,0.008036150852111264,6.278948180387483e-06,-0.005064479242740968,0.00846985367900509
2.0202020202020203,5.063291139240507,0.008975841068017996,0.008013687909798017,-6.16854065105039e-05,-0.0050968586933448036,0.008536201908052909
2.121212121212121,5.063291139240507,0.00897335260476861,0.00823772975066972,4.315574968196777e-05,-0.005163324706631499,0.008629413766601786
2.2222222222222223,5.063291139240507,0.00888120322697842,0.007907197905996134,-8.987875205709669e-05,-0.005036520339892366,0.008437911619269645
2.323232323232323,5.063291139240507,0.008788625763488067,0.008080425631556405,4.992161406461531e-05,-0.0050607154185133415,0.008457237185686969
2.4242424242424243,5.063291139240507,0.008881815296524433,0.007845407962366678,-2.5775119229299817e-05,-0.005018166977667333,0.008411753543716838
2.525252525252525,5.063291139240507,0.008852636086061618,0.007939978834155887,-4.86451644516698e-05,-0.005037784476065251,0.008433847607429455
2.6262626262626263,5.063291139240507,0.008571372335657993,0.007853327428791707,5.940301620352335e-05,-0.004927409929334909,0.008236502176852028
2.727272727272727,5.063291139240507,0.008644993318534586,0.007667461027425819,5.701865740734154e-05,-0.004893736303788121,0.008200638518692219
2.8282828282828283,5.063291139240507,0.008773489444220125,0.00777448244068572,-3.461438790942699e-05,-0.004964391565471753,0.00831931181578697
2.929292929292929,5.063291139240507,0.008624455462549661,0.007843268101238917,2.7994624540600568e-06,-0.004940317069136574,0.00826160962672609
3.0303030303030303,5.063291139240507,0.008607672335512797,0.007752622958363299,-2.8256428352355892e-06,-0.004908088588162828,0.008213596749080222
3.131313131313131,5.063291139240507,0.008391835204995247,0.007697675743436361,-3.1748137313257046e-05,-0.004826853284529482,0.008067373022933024
3.2323232323232323,5.063291139240507,0.008540091173949663,0.007940469306814794,3.124650209354338e-05,-0.004944168144229337,0.00825680369509732
3.3333333333333335,5.063291139240507,0.008580732653966982,0.007612814928884807,2.5628764957891443e-05,-0.004858064274855537,0.008140169830672898
3.4343434343434343,5.063291139240507,0.008612154195916802,0.007680315740030004,-1.0973043925237344e-05,-0.0048877409807840414,0.008186131415840679
3.5353535353535355,5.063291139240507,0.008475648231651901,0.007690745621177155,4.5966196748299117e-07,-0.0048499181558487175,0.008111727760841844
3.6363636363636362,5.063291139240507,0.008410249557510229,0.0076934698605766886,9.484527336653422e-08,-0.004831115825426075,0.008075752265365523
3.7373737373737375,5.063291139240507,0.008448355703124471,0.007795980087917972,-7.472890329548441e-05,-0.004873300737312732,0.008142822606902713
3.8383838383838382,5.063291139240507,0.00850436798241524,0.00781527838285671,2.5730733508567358e-05,-0.0048958939095815855,0.008181737831352759
3.9393939393939394,5.063291139240507,0.008347152396952346,0.00760651950577774,-5.11967264175382e-05,-0.004786101570819026,0.008003073029717691
4.040404040404041,5.063291139240507,0.008389494743317375,0.007700396266072869,-1.2821452516265244e-05,-0.004826967302817073,0.008067080257190556
4.141414141414141,5.063291139240507,0.0082997264438951,0.007648695116578615,-1.4539811985144865e-05,-0.0047845264681421135,0.007994157437022616
4.242424242424242,5.063291139240507,0.008559780190903811,0.0074961756723064205,4.587522904391751e-06,-0.0048167867589630695,0.008080651813772422
4.343434343434343,5.063291139240507,0.008342534698574919,0.0074436724307103685,-5.676741055353166e-05,-0.004735862138785586,0.007932005832784052
4.444444444444445,5.063291139240507,0.008498188514577225,0.007688417014156555,-6.95528833207274e-05,-0.004855981658620134,0.00812452213109261
4.545454545454545,5.063291139240507,0.008362320312857293,0.007519805406862163,3.5489269913377055e-05,-0.0047646377159158365,0.007974749609498627
4.646464646464646,5.063291139240507,0.00831013935735612,0.007682382449589647,8.443236292867128e-05,-0.00479775654208373,0.008016054762760454
4.747474747474747,5.063291139240507,0.008397891531132637,0.007496436339267268,1.414687585375466e-05,-0.004768298361119971,0.007985454346024266
4.848484848484849,5.063291139240507,0.008482786167082462,0.0076902088805455735,-4.649684354810545e-05,-0.004851898514288411,0.008115975735447999
4.94949494949495,5.063291139240507,0.008348683389695818,0.007546842009058787,9.961865009618723e-06,-0.004768657619626381,0.00797806002996048
5.05050505050505,5.063291139240507,0.00821202794025123,0.007562920913606896,-2.0158266774838046e-05,-0.004732484656157438,0.007907558210449502
5.151515151515151,5.063291139240507,0.008365920296274885,0.007612928379990493,1.643994887982033e-05,-0.004793654602879613,0.008016043892718944
5.252525252525253,5.063291139240507,0.008559026719917826,0.007483266197661011,-8.934377799248271e-05,-0.004812687875273652,0.008076551428133336
5.353535353535354,5.063291139240507,0.008501690606111558,0.007419990599714503,5.308073945942474e-05,-0.004776504361747818,0.00801629540233972
5.454545454545454,5.063291139240507,0.008228666333026947,0.007655445323748807,-2.190252013599811e-05,-0.004765233497032726,0.007957645800518089
5.555555555555555,5.063291139240507,0.00845142418517549,0.007315595962468889,5.549076434114213e-05,-0.004730106044293313,0.007945221713234947
5.656565656565657,5.063291139240507,0.008433011865435781,0.007511077614702898,-5.062362290653541e-05,-0.004783226844041604,0.008012406483901174
5.757575757575758,5.063291139240507,0.008351128192429185,0.007614805065678089,-3.3430943284076077e-05,-0.004789779977432182,0.008008603991628751
5.858585858585858,5.063291139240507,0.008333523911964291,0.007645008720607948,4.7221897388480095e-05,-0.004793559789771672,0.008011904010400351
5.959595959595959,5.063291139240507,0.008518435495829202,0.007583429543334014,-6.0422029851603515e-05,-0.004830559511748964,0.008092227381773938
6.0606060606060606,5.063291139240507,0.008600508109615707,0.007715771078295088,-3.4722019016924656e-05,-0.004894883756373238,0.008194261907043188
6.161616161616162,5.063291139240507,0.008411810129116262,0.007659282189166074,1.458929240393426e-06,-0.0048213276954847005,0.008061931045749288
6.262626262626262,5.063291139240507,0.00844832026110503,0.007607811639284649,-3.270267531077294e-05,-0.004816839570116904,0.008061196707258236
6.363636363636363,5.063291139240507,0.00857534835788615,0.007535962795114215,0.00013131400227522485,-0.00483339334590011,0.008108980122669751
6.4646464646464645,5.063291139240507,0.008400768190905702,0.007762396986381401,-9.597734860064564e-07,-0.0048489495531861306,0.008100470248487824
6.565656565656566,5.063291139240507,0.008622361128381556,0.007405270258712738,-8.199008547193776e-05,-0.004808289416128288,0.008084082615316535
6.666666666666667,5.063291139240507,0.00861852440179483,0.007530160235293182,2.4450343795545168e-05,-0.004844605391126403,0.008129280395838205
6.767676767676767,5.063291139240507,0.008512866537989454,0.007501791635200199,7.867671716072356e-06,-0.004804397451956895,0.008055073503456684
6.8686868686868685,5.063291139240507,0.008688604927752553,0.007543213450430222,-6.0601505290221995e-06,-0.004869545513454833,0.008176309275528496
6.96969696969697,5.063291139240507,0.008586274851940906,0.007781886326748278,-9.414386163210983e-06,-0.004910448353606755,0.008213691110547292
7.070707070707071,5.063291139240507,0.008605406027759705,0.007580720706497431,-5.85745712366128e-05,-0.0048558380202771406,0.00814220195102362
7.171717171717171,5.063291139240507,0.008594018869382158,0.00792620849496821,1.1922924483165386e-05,-0.00495606820930511,0.008280361256187653
7.2727272727272725,5.063291139240507,0.008694323682697973,0.007883244671775374,-4.226135288408788e-07,-0.004973270506342004,0.008318493285690925
7.373737373737374,5.063291139240507,0.00882797358711974,0.007817998531500505,2.100204889620173e-06,-0.004993791635586073,0.008368819951808151
7.474747474747475,5.063291139240507,0.008766759071925936,0.007694438032004202,-0.00011916113076743072,-0.004938359131179041,0.008285394073812116
7.575757575757575,5.063291139240507,0.00888464126434116,0.007973298621310692,-3.992580937933204e-05,-0.005057381965695555,0.008466122227299876
7.6767676767676765,5.063291139240507,0.008739569661289784,0.00791103326216061,5.980968307528135e-05,-0.004995180877035117,0.008356807431470695
7.777777777777778,5.063291139240507,0.008908111057504673,0.0077874614547274535,-5.313483405239471e-05,-0.005008671753669638,0.00840451646192231
7.878787878787879,5.063291139240507,0.008986578997056356,0.007825101889446464,1.236196197620039e-05,-0.005043504265950845,0.008465836273832558
7.979797979797979,5.063291139240507,0.008942696521972845,0.008152795373621595,1.4714844402894656e-05,-0.005128647568678332,0.00857511330748149
8.080808080808081,5.063291139240507,0.008924002663653938,0.008122451252764392,-2.1234885962109598e-05,-0.005113936174925499,0.008551527000513603
8.181818181818182,5.063291139240507,0.009121768933121208,0.008134520055050378,2.430045250408802e-05,-0.005176886696451476,0.00867050426487628
8.282828282828282,5.063291139240507,0.009007226399088228,0.008053741010794728,9.488070584389878e-06,-0.005118290222964887,0.00857037181807121
8.383838383838384,5.063291139240507,0.009149398075297533,0.008364718022840884,-3.692420079841802e-05,-0.005254234829441525,0.008783618158431305
8.484848484848484,5.063291139240507,0.00917081510769147,0.008234572673037384,-5.370691836934339e-05,-0.0052216163342186555,0.008740877911912725
8.585858585858587,5.063291139240507,0.00931367320943691,0.008119240081420617,-6.254755291145007e-05,-0.005229873987257258,0.008778288894411141
8.686868686868687,5.063291139240507,0.009189958919326943,0.008318702074895462,5.767522472428708e-05,-0.005252598298266721,0.008787354443404385
8.787878787878787,5.063291139240507,0.009268398514831177,0.008361455703036164,8.517970712652553e-06,-0.005288956265360203,0.00884986251594842
8.88888888888889,5.063291139240507,0.009254408086714122,0.00850821112761632,1.7196427081654858e-05,-0.005328785764299133,0.008904838848399418
8.98989898989899,5.063291139240507,0.009393517700451291,0.008340724941505642,7.188735964176771e-06,-0.005320272792587079,0.00891388102902947
9.09090909090909,5.063291139240507,0.009638578199857464,0.008578673848580024,3.745974129328082e-05,-0.005465175614531245,0.009154989113653872
9.191919191919192,5.063291139240507,0.009638649175959928,0.008563348195246066,-8.675418083068144e-07,-0.005460599211361798,0.009148518103090631
9.292929292929292,5.063291139240507,0.009632137209909193,0.008725239452444234,-6.795638016834622e-05,-0.005507212998706028,0.009212981132433061
9.393939393939394,5.063291139240507,0.009816936355039364,0.008702332077143424,6.715096906955612e-05,-0.005555780529654836,0.00931053761047016
9.494949494949495,5.063291139240507,0.010077209584107497,0.008961141046227791,0.00012546207665971188,-0.005711505189100585,0.009570586586770426
9.595959595959595,5.063291139240507,0.00996939521838494,0.009041098940136048,-2.2416971376964955e-05,-0.005703148247556296,0.009539262554556583
9.696969696969697,5.063291139240507,0.010055673051677566,0.008967224717444471,3.126808720935752e-05,-0.005706869330736611,0.009558197151956604
9.797979797979798,5.063291139240507,0.010200981522171321,0.009189882340297417,3.419775723615194e-05,-0.0058172591587406204,0.009735073187176792
9.8989898989899,5.063291139240507,0.01030544372192653,0.009336904285766997,6.714738228871659e-05,-0.005892704402308058,0.009857613129263459
10.0,5.063291139240507,0.01043364566148085,0.009417781588104418,1.5646396641876203e-05,-0.00595542817487558,0.009964663077709175
0.0,5.1645569620253164,0.010347882333350801,0.009268453750998043,-2.1286159902548443e-05,-0.005884900825304654,0.009852684618602277
0.10101010101010101,5.1645569620253164,0.010351177819966828,0.009333782217547328,2.2261412372980003e-06,-0.005905488011254247,0.009881839309845798
0.20202020202020202,5.1645569620253164,0.01033306047819346,0.009189601900382746,-1.2298448618538866e-05,-0.005856798713572862,0.009811455726947997
0.30303030303030304,5.1645569620253164,0.009886482539163072,0.009073258954392748,1.1397810077806089e-05,-0.005687922448066746,0.009506015913881024
0.40404040404040403,5.1645569620253164,0.00987551282810036,0.008729749246044388,3.180351815678281e-05,-0.0055815786222434246,0.009355563010459497
0.5050505050505051,5.1645569620253164,0.010003606936002428,0.008813868406465187,-5.706592122085738e-05,-0.005645242602740285,0.009465501700950014
0.6060606060606061,5.1645569620253164,0.009633217285995355,0.008699056170275173,-1.243544181369755e-05,-0.005499682036881158,0.009201794345783991
0.7070707070707071,5.1645569620253164,0.009618371542226837,0.00872422146212835,-7.793433312193454e-05,-0.005502777901306556,0.009204918744127922
0.8080808080808081,5.1645569620253164,0.009632584162536612,0.008604681594617601,-5.6053240624910805e-05,-0.005471179727146264,0.009162495797459988
0.9090909090909091,5.1645569620253164,0.009713203184227703,0.008460029878781148,0.00010150404698213267,-0.0054519699189026554,0.009152887069410594
1.0101010101010102,5.1645569620253164,0.009428669122019775,0.008750718082829992,-6.522774191130021e-05,-0.00545381616145493,0.009109336252963895
1.1111111111111112,5.1645569620253164,0.009456537068829436,0.008424734190315572,7.056629734298953e-05,-0.005364381377743502,0.00898600952329929
1.2121212121212122,5.1645569620253164,0.009346676224875592,0.008486275268261704,3.7873385896419604e-05,-0.005349885447941188,0.008947796392063875
1.3131313131313131,5.1645569620253164,0.009285539987207414,0.008307168265215157,4.548829495561682e-05,-0.005277812475726771,0.008837418281853799
1.4141414141414141,5.1645569620253164,0.009125514248979985,0.008378820626467706,1.279931678949328e-05,-0.005251300462634307,0.008776052065132123
1.5151515151515151,5.1645569620253164,0.009075391239064983,0.008289319845473429,-3.0828387152970304e-05,-0.005209413325361524,0.008709166441606419
1.6161616161616161,5.1645569620253164,0.009217865025896539,0.00817876480007177,-4.028004807200202e-05,-0.005218988947790494,0.008745018395163178
1.7171717171717171,5.1645569620253164,0.00910219593148414,0.008260689205960264,-4.6413216286150276e-05,-0.005208865541233321,0.00871234800790157
1.8181818181818181,5.1645569620253164,0.00905746012941481,0.008144611886251596,1.3509607461340726e-05,-0.005160621604699921,0.008637322320766387
1.9191919191919191,5.1645569620253164,0.008848941757347937,0.008099826562762867,-1.1099359408387034e-05,-0.00508463049603324,0.008499202119058259
2.0202020202020203,5.1645569620253164,0.008923924711886858,0.008022218213157288,-2.3273318813271405e-05,-0.005083842877513243,0.008509075796377656
2.121212121212121,5.1645569620253164,0.008831847795399403,0.008043242597843604,1.097112196621798e-05,-0.005062527117972902,0.008465161171518899
2.2222222222222223,5.1645569620253164,0.008934709913813087,0.007849470773585861,-1.0448363216299894e-05,-0.005035254206219684,0.00844457315885809
2.323232323232323,5.1645569620253164,0.008794275272665665,0.008146176903835435,2.4531107140536094e-05,-0.00508213565295033,0.008488907994170576
2.4242424242424243,5.1645569620253164,0.008739167902906266,0.007796365787212039,-4.880651081906738e-06,-0.004960660107035491,0.008307989945741537
2.525252525252525,5.1645569620253164,0.008911993218206614,0.0076146286294879175,5.831219572134358e-05,-0.004957986554308359,0.008339956505745639
2.6262626262626263,5.1645569620253164,0.00877145197225522,0.007658054831426663,-1.6830359319394103e-05,-0.004928852041104564,0.00827120082762749
2.727272727272727,5.1645569620253164,0.00872182850886119,0.007849285970205974,3.702800200974354e-05,-0.0049713343437201496,0.008320190493594965
2.8282828282828283,5.1645569620253164,0.008470337945794873,0.007742352320583821,9.25001169262727e-05,-0.004863807079913607,0.008132402629983475
2.929292929292929,5.1645569620253164,0.008703555648477908,0.00780212074708612,-0.00011674797695908018,-0.004951702918669209,0.008292144912519764
3.0303030303030303,5.1645569620253164,0.008577979217509425,0.007667405453665695,-2.695727476152996e-05,-0.004873615401352536,0.008161015212407767
3.131313131313131,5.1645569620253164,0.008680745108267654,0.007837134276084595,-6.754033952487266e-05,-0.004955363815305675,0.008292016000860351
3.2323232323232323,5.1645569620253164,0.00850949488635414,0.007857039637371789,6.955822770622294e-05,-0.004909960357117779,0.008203636480802069
3.3333333333333335,5.1645569620253164,0.008536620067895186,0.00775451062968923,6.905719144465382e-05,-0.004887339209275325,0.008174552765657159
3.4343434343434343,5.1645569620253164,0.00863842122961826,0.007566049360170867,-3.613354162308742e-05,-0.004861341176936738,0.008155526944478355
3.5353535353535355,5.1645569620253164,0.008437532623503573,0.007710019648186713,-5.437882320219479e-05,-0.004844265681507085,0.008098869588277236
3.6363636363636362,5.1645569620253164,0.008534462057914268,0.007655896929750528,-7.19043942973275e-06,-0.0048571076962994385,0.008130866722431327
3.7373737373737375,5.1645569620253164,0.008752872983286891,0.007756515349924382,-4.2119125578848435e-05,-0.004952816499963382,0.008299990617258644
3.8383838383838382,5.1645569620253164,0.008285124370426219,0.007767209390917614,-2.336803044510651e-05,-0.00481570012840315,0.008038791571836837
3.9393939393939394,5.1645569620253164,0.008366699532965234,0.0075702736377911035,2.6090938342034644e-05,-0.004781091951226901,0.007998408674694014
4.040404040404041,5.1645569620253164,0.008448766816266542,0.007778344823347587,1.591650284733053e-05,-0.004868133491884238,0.008134349837740924
4.141414141414141,5.1645569620253164,0.008598524029182954,0.00749541239980697,1.8910171258684473e-05,-0.004828180928696977,0.008103543155865324
4.242424242424242,5.1645569620253164,0.008390686664860529,0.00763987485482513,2.9572230922477806e-05,-0.004809168455905697,0.008041774554798108
4.343434343434343,5.1645569620253164,0.008454977153492497,0.0076860528169951006,-4.550238368101157e-06,-0.004842308991146279,0.00809794466006627
4.444444444444445,5.1645569620253164,0.008475396988428346,0.007519656831082688,1.7447923872097434e-05,-0.00479851614585331,0.00804030033012936
4.545454545454545,5.1645569620253164,0.008302539002010653,0.007551531949020699,-7.622912681884304e-05,-0.004756221285309405,0.007954767926510566
4.646464646464646,5.1645569620253164,0.008448928694538945,0.007802360540469671,2.1527233255525957e-05,-0.004875386770502584,0.008145000214774956
4.747474747474747,5.1645569620253164,0.008407990737632652,0.00741224279866679,4.717077196509454e-05,-0.004746070060889832,0.007957402716930495
4.848484848484849,5.1645569620253164,0.008298276780681377,0.007599265484370606,-9.004775052510119e-06,-0.0047692626795155955,0.007971804586759345
4.94949494949495,5.1645569620253164,0.008403569974886237,0.007599976097851081,-6.26190883755137e-05,-0.004801063821821195,0.008032711716204543
5.05050505050505,5.1645569620253164,0.008291585281073491,0.007507339548464317,1.3141925279025474e-05,-0.0047396774488613425,0.007928638319395297
5.151515151515151,5.1645569620253164,0.008371682250061883,0.007581567755148712,-5.721480585509208e-05,-0.004785975001563178,0.00800653343966782
5.252525252525253,5.1645569620253164,0.0083113945919454,0.0074775188098938255,-1.3046054396537862e-05,-0.0047366740205517675,0.007927450335146833
5.353535353535354,5.1645569620253164,0.008322244086908515,0.007512638336683432,-2.956497954898085e-05,-0.004750464727077584,0.007948590674414594
5.454545454545454,5.1645569620253164,0.008420143846880763,0.007561330520756728,-2.1779535401489432e-05,-0.004794442310291248,0.008025364417407886
5.555555555555555,5.1645569620253164,0.008266744644124658,0.007632457203651408,-2.4105965059145123e-05,-0.00476976055433282,0.007968666046434142
5.656565656565657,5.1645569620253164,0.008308064167490057,0.0074834749166951976,4.081486111526401e-05,-0.004737461725255577,0.007928312228645894
5.757575757575758,5.1645569620253164,0.008659310384683643,0.00773544055598031,5.859077595675624e-05,-0.004918425282199186,0.008236954220703991
5.858585858585858,5.1645569620253164,0.008265753377774028,0.007678067609232861,-7.454269567732183e-05,-0.004783146296102067,0.007989183793027684
5.959595959595959,5.1645569620253164,0.008246423011043866,0.007712869205115389,2.1495880754299337e-05,-0.004787787664847777,0.007993100022940045
6.0606060606060606,5.1645569620253164,0.008329147650687749,0.007414782659115203,-2.5606600642883522e-05,-0.004723179092940885,0.007911817110963356
6.161616161616162,5.1645569620253164,0.008346386562287086,0.00745832356370661,6.91816795539662e-05,-0.004741413037798108,0.007940596059057245
6.262626262626262,5.1645569620253164,0.008542157157434876,0.007781603276395608,5.677067197210941e-05,-0.0048971281301491455,0.008189004155410705
6.363636363636363,5.1645569620253164,0.008650719494261293,0.0074083231025374495,7.253742212180993e-05,-0.004817712779039622,0.0081022625796687
6.4646464646464645,5.1645569620253164,0.008693455919680402,0.007760715504233116,2.1981205192809618e-05,-0.004936251427174056,0.008266734079670449
6.565656565656566,5.1645569620253164,0.00860180521662229,0.007677383170791201,-2.033172799710871e-05,-0.0048837565162240465,0.00817894558392636
6.666666666666667,5.1645569620253164,0.008433327490079284,0.007655311325709618,-3.9410345979327866e-05,-0.00482659164473667,0.008072776234131187
6.767676767676767,5.1645569620253164,0.00843436817568353,0.007754868755376825,0.0001174833561792797,-0.004856771079318107,0.008118530945687614
6.8686868686868685,5.1645569620253164,0.008515442428007194,0.007689507834950458,1.1451390163755202e-05,-0.004861485078887296,0.008134010242386514
6.96969696969697,5.1645569620253164,0.00864481449738427,0.007651256133518795,-1.0029871213694342e-05,-0.004888821189270919,0.008193360114360917
7.070707070707071,5.1645569620253164,0.008644472745186569,0.007629096966708351,3.633183289269182e-05,-0.004882070913568476,0.008184403996434934
7.171717171717171,5.1645569620253164,0.008540435399515635,0.007804179325513535,0.00011950067362397944,-0.004903384417508751,0.008199756314383896
7.2727272727272725,5.1645569620253164,0.008510511115188933,0.007880753119793782,1.661356322428944e-05,-0.004917379270494814,0.00821380911552478
7.373737373737374,5.1645569620253164,0.008707101711939353,0.00776604359560816,5.272081501585939e-05,-0.004941943592264254,0.008277297887453133
7.474747474747475,5.1645569620253164,0.008771945946531098,0.007918415132928016,-2.425621894939171e-05,-0.005007108323837734,0.008377958550296218
7.575757575757575,5.1645569620253164,0.008665744504156178,0.008090273703448692,5.6248358746034894e-05,-0.00502680546228146,0.00839338448772791
7.6767676767676765,5.1645569620253164,0.008820220161342679,0.007935537027229966,-3.6891159052306805e-06,-0.005026727156571794,0.008412840706632157
7.777777777777778,5.1645569620253164,0.008601229273854667,0.008017041498610164,-4.220614460401493e-05,-0.00498548123173945,0.008324844230388073
7.878787878787879,5.1645569620253164,0.008775735802782809,0.008036202292213347,-2.4919180198985016e-05,-0.005043581428498847,0.00843044250819982
7.979797979797979,5.1645569620253164,0.008870259046188581,0.00810216146284971,2.8739280281192404e-05,-0.005091726152711488,0.008512386430710686
8.080808080808081,5.1645569620253164,0.008782173013005613,0.007945811856060282,-4.8666779621286384e-05,-0.005018395460719769,0.008395719135361527
8.181818181818182,5.1645569620253164,0.009086567770078637,0.008255031010370211,0.00011136743267116796,-0.005202479634134654,0.008702790369631763
8.282828282828282,5.1645569620253164,0.009199903204073129,0.008003188804819225,6.823963523755969e-05,-0.005160927602667707,0.00866456332570155
8.383838383838384,5.1645569620253164,0.009221897585355895,0.008183186257530615,-1.8258089447083275e-05,-0.005221525152865954,0.00874896718961058
8.484848484848484,5.1645569620253164,0.009266387663689037,0.008270713516155027,8.688652024803971e-05,-0.0052611303539532184,0.008812130985537785
8.585858585858587,5.1645569620253164,0.009320853501658025,0.008154645093082443,4.261571417747988e-05,-0.00524264957842214,0.008796234570550792
8.686868686868687,5.1645569620253164,0.009204312421687642,0.008338792770660935,-3.3796983265113014e-05,-0.005262931557704573,0.008803715400637416
8.787878787878787,5.1645569620253164,0.0093097623812508,0.008668235529113721,1.3291759341722315e-06,-0.005393399373109357,0.009006152066387923
8.88888888888889,5.1645569620253164,0.009493142383629184,0.008521544258536594,-1.0141509841260142e-05,-0.005404405992649733,0.009046576393422802
8.98989898989899,5.1645569620253164,0.00948665694455529,0.008496501184041405,8.108296871185357e-05,-0.005394947438579008,0.009033466872443429
9.09090909090909,5.1645569620253164,0.009376915574236932,0.00855840345870184,5.665142690219632e-05,-0.005380595709881631,0.00899616679026642
9.191919191919192,5.1645569620253164,0.009552762735927459,0.008702715457080056,-9.565407134891217e-06,-0.005476643457902254,0.009157392138982097
9.292929292929292,5.1645569620253164,0.009639324138138523,0.008827669256085184,5.7474662735102846e-05,-0.005540098018267112,0.009260748295997242
9.393939393939394,5.1645569620253164,0.009752594503502526,0.00871092483978865,-9.168745117828221e-05,-0.005539055802987353,0.009277090770675843
9.494949494949495,5.1645569620253164,0.009821580855487929,0.008939150991973342,2.099406246974258e-06,-0.005628219554238381,0.00941144462522218
9.595959595959595,5.1645569620253164,0.010077200504562905,0.009057589571725068,-8.391836018269688e-05,-0.005740437022886393,0.009609156025905775
9.696969696969697,5.1645569620253164,0.010157587928697455,0.008875407265648498,-0.00010413360438145077,-0.005709898558303786,0.009582757869173463
9.797979797979798,5.1645569620253164,0.010304790148929419,0.009076576726426401,-5.37134596382066e-05,-0.005814410062606746,0.009749327261659458
9.8989898989899,5.1645569620253164,0.0103496837312566,0.009205923181711343,2.4415826600244825e-05,-0.005866682073890383,0.009827938236345285
10.0,5.1645569620253164,0.010435508581709402,0.009471202729047582,4.228602854259867e-05,-0.005972013393227095,0.009988596871442611
0.0,5.265822784810126,0.01021510060312395,0.009248822439948304,4.650555565797321e-05,-0.005839176912921676,0.00976820523296135
0.10101010101010101,5.265822784810126,0.01026975537648676,0.009326079723976253,-4.773142891522456e-05,-0.0058787505301389036,0.009832289458305695
0.20202020202020202,5.265822784810126,0.010212784500736942,0.009087366970578407,9.848619800706313e-05,-0.005790045441394605,0.009700669242913799
0.30303030303030304,5.265822784810126,0.010104182302335861,0.009298685794547868,-1.3943150100503025e-05,-0.005820860429065118,0.00972651141461394
0.40404040404040403,5.265822784810126,0.010033564488651597,0.008976399713146925,-4.3998790907229934e-05,-0.0057029892605395555,0.009549276959076277
0.5050505050505051,5.265822784810126,0.009739232681584843,0.008722364428146705,3.186632752938199e-05,-0.005538479132919463,0.009272874642344758
0.6060606060606061,5.265822784810126,0.00970291260779688,0.008815231749154932,-3.339921451932688e-05,-0.005555443307085544,0.009291111188061283
0.7070707070707071,5.265822784810126,0.0095635865150688,0.008602294266141435,2.877542188664391e-05,-0.005449764234363071,0.00912114862859311
0.8080808080808081,5.265822784810126,0.009669183017827654,0.008636015537542641,3.139263933771678e-05,-0.005491559566611088,0.00919639093954989
0.9090909090909091,5.265822784810126,0.009562011182582538,0.008547155248784763,3.56177857742378e-05,-0.005432749929410189,0.009097347553793022
1.0101010101010102,5.265822784810126,0.009510974065195119,0.008451048499373393,-4.0110235246362904e-05,-0.005388606769370553,0.009028065783945282
1.1111111111111112,5.265822784810126,0.009316011727145116,0.008513025652871771,-0.00010587113861234556,-0.005348711214005065,0.008943481399605567
1.2121212121212122,5.265822784810126,0.009463310522920024,0.008417467390641925,-2.6034588429633566e-05,-0.005364233374068585,0.008986263349741942
1.3131313131313131,5.265822784810126,0.009158500715912518,0.008456260724169452,5.894522938777899e-05,-0.005284428432024591,0.008828943001427458
1.4141414141414141,5.265822784810126,0.00917714652184165,0.008278976365514357,-2.3983038749673748e-05,-0.0052368368662068015,0.008762751528221561
1.5151515151515151,5.265822784810126,0.008977718683588197,0.00812802140712932,4.245782410034188e-05,-0.005131722027215255,0.00858478206534641
1.6161616161616161,5.265822784810126,0.009003406462064675,0.008146000072271512,-8.75195135454206e-05,-0.005144821960300855,0.00860812839144959
1.7171717171717171,5.265822784810126,0.009191583367962393,0.008165434323485703,3.11609328906746e-05,-0.005207105307434429,0.008724056693570756
1.8181818181818181,5.265822784810126,0.009019976776862336,0.00829306763631089,3.469385553158816e-05,-0.005193913323951967,0.008679590161863924
1.9191919191919191,5.265822784810126,0.008994701302524595,0.007992004914816504,-3.806951682171776e-05,-0.00509601186520233,0.008537882930055841
2.0202020202020203,5.265822784810126,0.008808684474009577,0.008131278511408333,2.2108075984125935e-05,-0.005081988895625372,0.008490359940339936
2.121212121212121,5.265822784810126,0.008828133298842059,0.00791680857498751,-5.233338538765243e-06,-0.005023482562148871,0.008409591923346277
2.2222222222222223,5.265822784810126,0.008875887480244949,0.008051171705891378,-5.794980644218136e-05,-0.005078117755840898,0.008494205365676726
2.323232323232323,5.265822784810126,0.008768618798454069,0.007849560217717095,-4.535955351579172e-05,-0.004985453704851349,0.008347493182194464
2.4242424242424243,5.265822784810126,0.008780625329626297,0.007781664524426249,-5.3207708072619445e-05,-0.004968686956215764,0.008326721833996404
2.525252525252525,5.265822784810126,0.008652769154161386,0.007855109372628784,4.224769189330262e-05,-0.004952363558037051,0.008283119207854725
2.6262626262626263,5.265822784810126,0.008876131828096876,0.007788623174293914,3.405122774759573e-05,-0.004999426500717237,0.008385642467028559
2.727272727272727,5.265822784810126,0.00852040901939305,0.007808343240861476,-5.032096493516306e-06,-0.004898625678076357,0.008187636521908749
2.8282828282828283,5.265822784810126,0.008623309442088114,0.008025600923315779,-3.735878100650323e-06,-0.004994673109621167,0.008340535807981919
2.929292929292929,5.265822784810126,0.008733380512522771,0.007771514508414125,3.3617404710987054e-05,-0.004951468506281069,0.008294586786581376
3.0303030303030303,5.265822784810126,0.008644864134271573,0.007593601109506688,2.3479709101150092e-05,-0.004871539573133478,0.008170217727759489
3.131313131313131,5.265822784810126,0.008533931425822495,0.007725249845374941,-8.192474756501175e-05,-0.004877754381359231,0.008160934586131756
3.2323232323232323,5.265822784810126,0.008575869301535952,0.0076450126986706115,3.64857191578819e-05,-0.004866264600061968,0.008150651345174028
3.3333333333333335,5.265822784810126,0.008424147374378977,0.00762790489181215,-2.259600316823871e-05,-0.0048156156798573385,0.008055689219147769
3.4343434343434343,5.265822784810126,0.00843103055072121,0.0076130757662594885,-2.7900697577414114e-05,-0.00481323189509421,0.008053412925368274
3.5353535353535355,5.265822784810126,0.008540920703252134,0.007693923132543447,-4.37258831386412e-05,-0.004870453150738674,0.008150848306484793
3.6363636363636362,5.265822784810126,0.008572970069453756,0.007509662725097745,2.6879385885243955e-06,-0.00482478983836545,0.008093871629668863
3.7373737373737375,5.265822784810126,0.008456001577300558,0.0075316775785046475,4.286213879493603e-05,-0.004796303746741562,0.008034162297783809
3.8383838383838382,5.265822784810126,0.008506406715307334,0.007534370921868567,4.216997663129052e-05,-0.00481223329115277,0.0080647759987437
3.9393939393939394,5.265822784810126,0.008187895863412262,0.0076125559292437965,-2.5989374896498775e-05,-0.004740135537796818,0.007916050630568331
4.040404040404041,5.265822784810126,0.008489073401222838,0.0077045270005337545,-5.017744420752587e-05,-0.004858080120526977,0.008125722220934585
4.141414141414141,5.265822784810126,0.008325429068791221,0.007741311406204935,3.053078967333736e-05,-0.004820022142498847,0.008049455189196541
4.242424242424242,5.265822784810126,0.008347895591070128,0.0074308408103153645,7.031724125790516e-05,-0.004733620920415647,0.007930176937025751
4.343434343434343,5.265822784810126,0.00832332451401836,0.007524698634104993,-3.6242463496735116e-05,-0.004754406944437006,0.007954385736585504
4.444444444444445,5.265822784810126,0.008567572541486214,0.007587290228838017,7.033731545756967e-05,-0.004846458831097269,0.008122835395058026
4.545454545454545,5.265822784810126,0.008600444363129848,0.007619916782183112,-4.880121688071666e-05,-0.004866108343593888,0.008154952443156834
4.646464646464646,5.265822784810126,0.00831828085421301,0.007678052961542521,-8.856169313740389e-06,-0.004798900144726659,0.008017376628136582
4.747474747474747,5.265822784810126,0.00843938593036285,0.007532471589488981,-8.252765862714718e-05,-0.004791557255955549,0.008025731170316467
4.848484848484849,5.265822784810126,0.008414871620206876,0.007647689016573768,6.0395117385962096e-05,-0.004818768191034194,0.008059394091596707
4.94949494949495,5.265822784810126,0.008438295264065811,0.007667562033214697,-6.344211780410689e-06,-0.004831757189184152,0.008080550900279877
5.05050505050505,5.265822784810126,0.008403767683516687,0.0075184608142055895,4.8941903399477904e-05,-0.004776668549316683,0.007998396852043664
5.151515151515151,5.265822784810126,0.008463993500165455,0.0075859589529655245,5.338562730537118e-05,-0.004814985735939294,0.008061451607006463
5.252525252525253,5.265822784810126,0.00845659396227123,0.0075638024880138495,-1.726866403845238e-05,-0.004806118935085524,0.008047482692664192
5.353535353535354,5.265822784810126,0.008401443822633511,0.007390266610455916,3.837008831278833e-05,-0.004737513129926828,0.007944545670300361
5.454545454545454,5.265822784810126,0.008490834718753346,0.0075921520358591095,-4.905051772840395e-05,-0.004824896026383737,0.008079514621592605
5.555555555555555,5.265822784810126,0.008455363381606374,0.007609966086584907,1.4141673185809404e-05,-0.004819598840457384,0.008065998086471845
5.656565656565657,5.265822784810126,0.008355752788171212,0.007577628060471633,3.923582237191544e-05,-0.004780014254592853,0.007995428896259375
5.757575757575758,5.265822784810126,0.00855076904558904,0.007585830319320191,-4.0774973791583536e-05,-0.004840979809472769,0.008111767848037217
5.858585858585858,5.265822784810126,0.008545742556430235,0.007524362664895832,-7.638885013023616e-06,-0.00482103156639782,0.008083604281255898
5.959595959595959,5.265822784810126,0.00849236185099606,0.007625390094995777,6.1026939443886955e-05,-0.004835325583797551,0.008094466309116448
6.0606060606060606,5.265822784810126,0.008405720663002401,0.007643392452860201,-9.907788482179674e-05,-0.00481473393475878,0.008053497094939842
6.161616161616162,5.265822784810126,0.008438932300027983,0.007573907938768227,6.653559769440059e-05,-0.004803852071638862,0.008042216388829888
6.262626262626262,5.265822784810126,0.008317663135060093,0.007741400763645681,-5.294906417602894e-05,-0.0048177191696117325,0.008045548637377145
6.363636363636363,5.265822784810126,0.008414301108235458,0.007566548838619503,3.50563214935556e-05,-0.004794254984056488,0.00802431249553398
6.4646464646464645,5.265822784810126,0.008188079512389543,0.007583049248548345,-7.099826815396513e-06,-0.004731338628281366,0.00790296292767882
6.565656565656566,5.265822784810126,0.008523124356828457,0.00764970501943336,-2.564581700376319e-05,-0.004851848812878545,0.008121836100070626
6.666666666666667,5.265822784810126,0.008552064122297318,0.007813039971827983,4.266550287711324e-05,-0.004909531228237591,0.0082078764951435
6.767676767676767,5.265822784810126,0.008249354351319458,0.007529737154833379,-1.1098678044145862e-05,-0.004733727451845851,0.00791414483149999
6.8686868686868685,5.265822784810126,0.008454743761721433,0.007565518492328602,8.280881685924975e-05,-0.00480607867621501,0.00804834229872084
6.96969696969697,5.265822784810126,0.008585770537539695,0.007653550075769907,-8.599008754103088e-05,-0.00487179618399288,0.008161056464878686
7.070707070707071,5.265822784810126,0.008619606360279662,0.007639592986319739,-2.9875937490835658e-05,-0.00487775980397982,0.008173945694882778
7.171717171717171,5.265822784810126,0.008859062950116486,0.007933098974446764,-4.294071498391551e-05,-0.005037648577368975,0.008434617015809104
7.2727272727272725,5.265822784810126,0.008586692018721332,0.007936269717909335,-4.288665295412326e-05,-0.0049568885209892,0.008280994554375113
7.373737373737374,5.265822784810126,0.008652821436761417,0.007872356677765922,-3.950801845815432e-05,-0.004957553434358202,0.00829047070496038
7.474747474747475,5.265822784810126,0.008633904024602911,0.0077976991222938625,1.189583523476995e-06,-0.004929480944069032,0.008247655952971616
7.575757575757575,5.265822784810126,0.008818492233914363,0.0077528140615720775,6.767062078320691e-05,-0.004971391888645932,0.008337717823164429
7.6767676767676765,5.265822784810126,0.008867751520540397,0.007954538305632699,-9.09554883160903e-06,-0.005046686947851929,0.008448258738809963
7.777777777777778,5.265822784810126,0.008764666592603136,0.007804841586827463,6.693796459326223e-05,-0.0049708524538291795,0.008327156803594504
7.878787878787879,5.265822784810126,0.00892938570323417,0.007927991432142754,-2.145405875245254e-05,-0.005057213140613077,0.008473267649828139
7.979797979797979,5.265822784810126,0.009000200570560682,0.007859460076953819,8.904287145031224e-06,-0.0050578981942543495,0.008487534612691826
8.080808080808081,5.265822784810126,0.008899268659114218,0.00803732471355057,2.962245506066161e-05,-0.005080978011799436,0.00850128765312938
8.181818181818182,5.265822784810126,0.008876471462839848,0.008230026377045552,-1.5961610046746302e-05,-0.005131949351965621,0.00857159552488319
8.282828282828282,5.265822784810126,0.00896481984321939,0.00807818601210226,-5.1243992422728026e-05,-0.005112901756596495,0.008556487576644482
8.383838383838384,5.265822784810126,0.00915025329758756,0.00831049473351535,-1.7146051843982003e-05,-0.005238224409330873,0.008760662546128976
8.484848484848484,5.265822784810126,0.008908341157085437,0.008342588494849798,8.90933113792909e-06,-0.00517527889558057,0.008639383001619306
8.585858585858587,5.265822784810126,0.009365800875396565,0.008218845306943482,1.0886181751806361e-05,-0.005275393854702015,0.008848272779101307
8.686868686868687,5.265822784810126,0.00918549451809144,0.008358663330941523,-5.53779754454009e-05,-0.005263247354709889,0.00880177858034797
8.787878787878787,5.265822784810126,0.009363249684359807,0.008477382620426103,-1.5097074061713559e-05,-0.005352189691435773,0.008953283998891145
8.88888888888889,5.265822784810126,0.00930610049761526,0.00851373857159551,-5.55927817963292e-05,-0.005345951720763231,0.008936823588482683
8.98989898989899,5.265822784810126,0.009637011233526345,0.00845217909947169,-6.277064590522373e-05,-0.005426757099899411,0.009103262743502236
9.09090909090909,5.265822784810126,0.009416543896469082,0.008459078196615002,-3.624617097914305e-05,-0.005362686627925225,0.008976411481389359
9.191919191919192,5.265822784810126,0.009686575643617914,0.00862593482816319,-9.464558217244084e-05,-0.005493753141534331,0.009203673316019196
9.292929292929292,5.265822784810126,0.009764220188133464,0.008858586820717962,-7.047403661678401e-06,-0.005586842102655427,0.009344384038932625
9.393939393939394,5.265822784810126,0.00968618121001516,0.008748531887369045,4.890736914843778e-05,-0.005530413929215261,0.009253444073812858
9.494949494949495,5.265822784810126,0.00999181113841136,0.008843702465872988,4.7643575503162105e-05,-0.005650654081285305,0.009470457647765697
9.595959595959595,5.265822784810126,0.009891615261205427,0.0089462656250725,6.885121078016833e-05,-0.005651364265883378,0.009455206237305402
9.696969696969697,5.265822784810126,0.010261083061931723,0.009179465852066042,-1.7110040464738796e-05,-0.005832164674199329,0.009765348719904848
9.797979797979798,5.265822784810126,0.010237410303252014,0.009273378909061904,7.635983863984104e-05,-0.005853236763694175,0.009791947395357355
9.8989898989899,5.265822784810126,0.010280049615335437,0.009443914369514986,-8.589218738059328e-05,-0.005917189195455126,0.009889649277626361
10.0,5.265822784810126,0.010335928550432054,0.009227231125658505,2.426202507044812e-05,-0.005868947902827167,0.00982868137393873
0.0,5.367088607594937,0.010433433135215175,0.009326760232447306,-1.4581187006627192e-05,-0.005928058010298744,0.009926504520735742
0.10101010101010101,5.367088607594937,0.01033132846630332,0.009211585217098741,3.830300445527053e-05,-0.005862874105020618,0.009819681200414869
0.20202020202020202,5.367088607594937,0.010041648326940515,0.009133668937105807,2.325742811096994e-05,-0.005752595179213897,0.009619934547457623
0.30303030303030304,5.367088607594937,0.010184676385973089,0.008942038518506817,5.110793199004056e-05,-0.005738014471343971,0.00962412351716748
0.40404040404040403,5.367088607594937,0.009840022798093397,0.009062374900467778,-7.311387232367375e-05,-0.005670719309568352,0.009476009117404456
0.5050505050505051,5.367088607594937,0.009974007759660697,0.008911331158722514,5.243284320401006e-05,-0.0056656016755149636,0.009487845661335634
0.6060606060606061,5.367088607594937,0.009736749249778832,0.008678471756886234,-1.4467391574613162e-05,-0.00552456630199952,0.009253144467493674
0.7070707070707071,5.367088607594937,0.009618200614815837,0.00883145438475047,2.861702691294116e-05,-0.005534896499869892,0.009250087914519249
0.8080808080808081,5.367088607594937,0.009530149879737871,0.008470072193161841,0.00012169698518395812,-0.005400066621869913,0.009049268073342583
0.9090909090909091,5.367088607594937,0.009401627940320786,0.008530223216460624,-4.2543873539048675e-05,-0.005379555347034422,0.008997930932461205
1.0101010101010102,5.367088607594937,0.009426750149618635,0.00869760228279796,-5.338327628342047e-05,-0.005437305729724978,0.009084620495922681
1.1111111111111112,5.367088607594937,0.009265991099386233,0.00851401144533518,-1.6312849249138744e-05,-0.005334000763416424,0.008913867062044785
1.2121212121212122,5.367088607594937,0.009448634235887788,0.008461803904083865,6.620402176350908e-05,-0.005373131441991496,0.008996636765300518
1.3131313131313131,5.367088607594937,0.009227251230419294,0.00828033552668409,-3.0749013565281405e-05,-0.0052522760271310155,0.008792281958193015
1.4141414141414141,5.367088607594937,0.009311077995538753,0.008273062918991722,-2.998728869307665e-05,-0.005275242274359143,0.008838060144190004
1.5151515151515151,5.367088607594937,0.009282407627835965,0.008203966953339772,5.203977100815417e-05,-0.005245912374352722,0.008793390934554361
1.6161616161616161,5.367088607594937,0.009093253102374167,0.008306540704473755,3.390751947648645e-06,-0.005219938142054376,0.008726535848752345
1.7171717171717171,5.367088607594937,0.009162512896420895,0.00799984864389003,-2.7668951901826467e-05,-0.005148708462093278,0.008640185255297991
1.8181818181818181,5.367088607594937,0.009079712613461743,0.00812014768549977,6.671842333497333e-05,-0.005159958089688454,0.00864075958803484
1.9191919191919191,5.367088607594937,0.008966355306650848,0.007874913580386776,2.4504047246548438e-05,-0.005052380666111287,0.008473624936102757
2.0202020202020203,5.367088607594937,0.008918898205606872,0.0082141658169974,1.7882909298230064e-05,-0.00513991920678128,0.008588301106776913
2.121212121212121,5.367088607594937,0.008854114707292129,0.008052312524916092,-2.4697609534514138e-05,-0.005071928169662465,0.008481793171846701
2.2222222222222223,5.367088607594937,0.0089107286659795,0.007968778577956264,-4.5105550705811895e-05,-0.005063852173180728,0.008479445571962748
2.323232323232323,5.367088607594937,0.009008690483658828,0.007883426179952488,-5.02301242924058e-05,-0.005067634999083395,0.008502536995233824
2.4242424242424243,5.367088607594937,0.00889665645654573,0.007801243752217678,5.603459930902517e-05,-0.005009370062629022,0.008403233557328804
2.525252525252525,5.367088607594937,0.008678355449219964,0.007811184974870533,3.106753880215292e-05,-0.004946862127227149,0.008279077237169483
2.6262626262626263,5.367088607594937,0.008620895692727228,0.007601029788346729,6.923921802810736e-06,-0.004866577644322187,0.008158918754813466
2.727272727272727,5.367088607594937,0.008994761367043743,0.007831110462485595,-8.75206610293467e-05,-0.005047761548858802,0.008474434074026274
2.8282828282828283,5.367088607594937,0.008621864071456294,0.0077293201264198265,-7.334701081252889e-05,-0.004905355259362836,0.008213033638100466
2.929292929292929,5.367088607594937,0.00874727596310712,0.007856006930756334,-2.1001814093939933e-05,-0.004980984868159036,0.008337526270304702
3.0303030303030303,5.367088607594937,0.00870743370285865,0.0077618807949476325,-1.7043443502611012e-05,-0.0049407943493418845,0.00827532501899814
3.131313131313131,5.367088607594937,0.008592456782767025,0.007708023241720742,7.750940588107161e-05,-0.004890144007346329,0.00818725243275038
3.2323232323232323,5.367088607594937,0.008614978107966579,0.007748656899461103,9.107016328871121e-05,-0.004909090502228305,0.008217658018878145
3.3333333333333335,5.367088607594937,0.00852994950887948,0.007774624820465089,3.0077212520605603e-05,-0.00489137229880337,0.008178654319025579
3.4343434343434343,5.367088607594937,0.008575717068318082,0.007514937870001863,-7.809056582314003e-05,-0.0048271964814959835,0.008098736190055647
3.5353535353535355,5.367088607594937,0.008434110168455715,0.007687113016622539,-6.959214668953947e-05,-0.004836366955523476,0.00808742802163048
3.6363636363636362,5.367088607594937,0.008547069429568689,0.007735636347914349,-7.422104016127317e-05,-0.004884811733244911,0.00817263549180618
3.7373737373737375,5.367088607594937,0.00865117727752555,0.0076530368783727844,-1.5371825208168788e-05,-0.0048912642467695,0.008197851662581804
3.8383838383838382,5.367088607594937,0.008468964651748654,0.007648457175780296,-2.2982577904445968e-05,-0.004835226548258684,0.008090076055073774
3.9393939393939394,5.367088607594937,0.008191473149832514,0.007688962158518913,5.429871238910117e-05,-0.004764130592505428,0.00795269070305631
4.040404040404041,5.367088607594937,0.00825888418686418,0.007614445038282131,-9.222467780294442e-06,-0.004761998767543893,0.007956279073560437
4.141414141414141,5.367088607594937,0.008398700631243466,0.007805340046696015,-5.295970724176994e-05,-0.0048612122033818445,0.008118817977533652
4.242424242424242,5.367088607594937,0.008521779998988207,0.007579985477402422,5.21076191056943e-05,-0.004830529642917188,0.008092594835202405
4.343434343434343,5.367088607594937,0.00833802036485175,0.00757020208354342,-4.553661385816982e-05,-0.0047724667345185505,0.00798224685169185
4.444444444444445,5.367088607594937,0.008635720660229608,0.0075446178964159935,-1.5653573316944955e-05,-0.00485410156699368,0.008145210432265832
4.545454545454545,5.367088607594937,0.008458815705012635,0.007425270446950635,-6.723545073829757e-05,-0.004765225845588981,0.007993170327761232
4.646464646464646,5.367088607594937,0.00822661051147746,0.007646498156416244,-7.759381752215703e-06,-0.00476193260036811,0.007952450759236243
4.747474747474747,5.367088607594937,0.008399410035918764,0.007415596955669785,-4.0770303504993955e-05,-0.0047445020974765635,0.007953584998074395
4.848484848484849,5.367088607594937,0.00833915302385345,0.007589901808361986,-2.1961819798898778e-05,-0.004778716449664631,0.007991006004531263
4.94949494949495,5.367088607594937,0.00843544170067151,0.007553161690394885,0.00010578305836797628,-0.004796581017319918,0.00803282287106583
5.05050505050505,5.367088607594937,0.008524462340161213,0.007594662092897281,4.3134613834858517e-05,-0.004835737329917548,0.00810003217781861
5.151515151515151,5.367088607594937,0.008179156660590528,0.007496378482015474,1.3517233870514681e-05,-0.0047026605427818,0.00786007558357152
5.252525252525253,5.367088607594937,0.008363839538625475,0.00750700260355011,-1.0182908467598403e-05,-0.0047612526426526755,0.007970059334805527
5.353535353535354,5.367088607594937,0.008404237807750584,0.007549631911823803,-2.475565030097093e-06,-0.004786160915872317,0.008011196637866867
5.454545454545454,5.367088607594937,0.008440815712676908,0.007661601856165028,6.767565843601119e-05,-0.00483072527065258,0.00808028981845371
5.555555555555555,5.367088607594937,0.008397751975106919,0.007407016703668491,-8.486046755578598e-05,-0.0047414306036326235,0.007950185496440667
5.656565656565657,5.367088607594937,0.008313483999899332,0.007567265528701124,0.00010248599025638399,-0.004764224858580136,0.007968606718693077
5.757575757575758,5.367088607594937,0.008462037117251544,0.007467622550009502,-4.374599318414157e-05,-0.004778897900178313,0.008011610366406194
5.858585858585858,5.367088607594937,0.008342428586121721,0.007515158127523804,1.547340398093918e-05,-0.004757276014093657,0.007961140915888919
5.959595959595959,5.367088607594937,0.008456975188040542,0.007875086765780649,-1.8136387487551716e-05,-0.004899618586146357,0.008181625407184492
6.0606060606060606,5.367088607594937,0.008479172135815635,0.007462220220849858,5.5079999447672646e-05,-0.004782417706999648,0.008019771965855396
6.161616161616162,5.367088607594937,0.008353497671747645,0.007633127532993653,-5.323321041659568e-05,-0.004795987561422389,0.008018151129524658
6.262626262626262,5.367088607594937,0.008400264091999461,0.007716353138676777,1.4397902879795203e-05,-0.004834985169202871,0.008080084175484227
6.363636363636363,5.367088607594937,0.00828831627875479,0.007794981569559575,-4.37919770852294e-05,-0.00482498935449431,0.008053347439583245
6.4646464646464645,5.367088607594937,0.008633859124507412,0.007569660826586457,3.22204555847349e-05,-0.004861055985328161,0.008154202455643465
6.565656565656566,5.367088607594937,0.008471523935048995,0.007783986187478596,2.2557139272828402e-05,-0.004876653036758277,0.0081496294348422
6.666666666666667,5.367088607594937,0.008547261480424171,0.0077721132582632075,0.00013355764535193692,-0.004895812421606214,0.008190522081898216
6.767676767676767,5.367088607594937,0.008737059440073571,0.007703686820617504,0.00010035943584891174,-0.004932223878207322,0.00827077050093761
6.8686868686868685,5.367088607594937,0.008429621288061533,0.0077645932870385095,1.288171319574821e-05,-0.004858264372530012,0.00811759452814125
6.96969696969697,5.367088607594937,0.008694977519618894,0.007786145310594535,-3.998417107015193e-05,-0.004944336849064029,0.008278353134897916
7.070707070707071,5.367088607594937,0.008681104602394822,0.0076588708461293896,1.845866002321406e-05,-0.004901992634557263,0.00821787338490436
7.171717171717171,5.367088607594937,0.008816365861070027,0.007758169605330745,-1.650153071648869e-05,-0.004972360639920232,0.00833783292408991
7.2727272727272725,5.367088607594937,0.008600323319881278,0.00791052495123217,-2.833784125837817e-05,-0.004953254481334033,0.00827715549568312
7.373737373737374,5.367088607594937,0.00875009543915182,0.007891656803951975,1.3128470243446467e-05,-0.004992525672931139,0.008354051961067047
7.474747474747475,5.367088607594937,0.008720665082607756,0.007794996735867168,-4.019085273507193e-05,-0.004954698545542477,0.00829694303075575
7.575757575757575,5.367088607594937,0.008577820649199364,0.007901476926391985,2.1169356617320943e-05,-0.004943789272677405,0.008260522816065409
7.6767676767676765,5.367088607594937,0.008916164186109177,0.007838012535294248,-5.946430427781975e-05,-0.005026253016421027,0.008429592258826644
7.777777777777778,5.367088607594937,0.008826097245396649,0.0078008016228271766,-1.2353224342566351e-05,-0.004988069660467148,0.008360760888533755
7.878787878787879,5.367088607594937,0.008772611503360887,0.007974763881776885,-4.9099501512782724e-05,-0.005024212615541331,0.008402576894993373
7.979797979797979,5.367088607594937,0.00882262865047288,0.007963380132487525,-8.673050553122173e-05,-0.005035802634888121,0.008427266476676768
8.080808080808081,5.367088607594937,0.009158335041645337,0.008108560592674738,-2.2573485712234643e-06,-0.005180068690296022,0.008681184037547918
8.181818181818182,5.367088607594937,0.00890473842473674,0.00812519442166721,-3.011465712754605e-05,-0.005108979853921185,0.008541846434203791
8.282828282828282,5.367088607594937,0.008959530817762393,0.008093397813083339,1.459898317563218e-05,-0.0051158785892537195,0.008559431809381658
8.383838383838384,5.367088607594937,0.00893559021113962,0.008104461473182148,-5.2122309603307116e-05,-0.00511201550529653,0.0085508521090508
8.484848484848484,5.367088607594937,0.009234426932078132,0.008141856753879712,-2.2041832977783823e-05,-0.005212885105787353,0.008739596581458472
8.585858585858587,5.367088607594937,0.009246579114749284,0.008236862079053801,-4.379347970092908e-05,-0.005245032358140926,0.008785674645126341
8.686868686868687,5.367088607594937,0.009397787113908755,0.008293378206811548,-2.0934207853234315e-05,-0.005307349596216091,0.008897215103615077
8.787878787878787,5.367088607594937,0.009327563139703659,0.008434256511686984,6.36745082159009e-05,-0.005328545895417192,0.008915224069526531
8.88888888888889,5.367088607594937,0.009556732505838939,0.008393510243666708,-5.735902092479982e-05,-0.005385072824851694,0.009032025707824307
8.98989898989899,5.367088607594937,0.009539209375319406,0.008495098406642336,-0.00010413111569691952,-0.005410292334588522,0.009064172325567521
9.09090909090909,5.367088607594937,0.009532689991559616,0.008550308966799855,2.6540504818990257e-05,-0.005424899687507841,0.009081554403600279
9.191919191919192,5.367088607594937,0.009670855083154644,0.008615484852816315,1.3109520269061053e-06,-0.005485901980791287,0.009188738594691359
9.292929292929292,5.367088607594937,0.00968424211921682,0.008582845688203227,-2.8288321557472046e-05,-0.005480126342226014,0.009183345278388225
9.393939393939394,5.367088607594937,0.009881305406494833,0.008675398778193606,4.3941533824594986e-05,-0.005567011255406531,0.009337251641774924
9.494949494949495,5.367088607594937,0.009776049909279794,0.008959259855730444,5.0619342228923414e-05,-0.0056205929295030715,0.009394732803269495
9.595959595959595,5.367088607594937,0.0100714850841386,0.009030447977153775,6.529583042387353e-07,-0.005730579918387713,0.009593423874830967
9.696969696969697,5.367088607594937,0.01005909956078645,0.00920884171942696,2.7093891478830256e-05,-0.005780382384064023,0.009662183828146688
9.797979797979798,5.367088607594937,0.010068034880499342,0.009169230443676244,-7.859939372447297e-05,-0.005771179597252676,0.00965103698801343
9.8989898989899,5.367088607594937,0.010345321851172087,0.009280512568582535,2.8357830059772483e-05,-0.005887750325926386,0.009856273168581522
10.0,5.367088607594937,0.010321126073252666,0.009522594077083035,8.091203587533357e-05,-0.00595311604510071,0.009946918499492103
0.0,5.468354430379747,0.010357960546627718,0.009262122666049167,-2.4756469077147135e-05,-0.005886024963803066,0.009855932247218322
0.10101010101010101,5.468354430379747,0.010331745962993888,0.009221461698930934,3.0440227707169133e-05,-0.005865962298577447,0.009823915240383889
0.20202020202020202,5.468354430379747,0.010099389668085096,0.009123415777774712,1.0069356175950905e-05,-0.005766841633757943,0.009648510779082515
0.30303030303030304,5.468354430379747,0.010197959304770517,0.008999245689204275,1.1503509689366194e-05,-0.005759161498192438,0.009654597487025863
0.40404040404040403,5.468354430379747,0.01001609743756688,0.00912018664922782,-8.071486796887313e-05,-0.00574088522603841,0.009600566594626509
0.5050505050505051,5.468354430379747,0.009872602565006149,0.008771924540654445,4.643998400301128e-05,-0.005593358131698177,0.009371215868271247
0.6060606060606061,5.468354430379747,0.00974556173809963,0.008756687175930245,7.498685994307781e-05,-0.005550674674208962,0.00929158638131571
0.7070707070707071,5.468354430379747,0.00983010581153003,0.008785745023193436,-3.311693346243812e-05,-0.00558475525041704,0.009351940058681714
0.8080808080808081,5.468354430379747,0.00958361400533357,0.008621075276914397,1.3109319580841382e-05,-0.005461406784674389,0.009140462468133558
0.9090909090909091,5.468354430379747,0.009622774806051946,0.00846038614740265,6.491826207439404e-05,-0.005424948286036378,0.009098141634680451
1.0101010101010102,5.468354430379747,0.009383167891023085,0.008524029281264637,4.7798299778452765e-05,-0.005372159151686317,0.008984841180414139
1.1111111111111112,5.468354430379747,0.009400800059381835,0.00826767110787155,-3.040783534699955e-05,-0.005300541350176015,0.00888872759015207
1.2121212121212122,5.468354430379747,0.009360574414004197,0.00831845390629557,5.126120089716312e-05,-0.005303708496089929,0.008885910481435357
1.3131313131313131,5.468354430379747,0.009291761869318139,0.008402843129388366,5.7362089930569174e-05,-0.005308381499611952,0.00888128735813647
1.4141414141414141,5.468354430379747,0.009129065654353327,0.008517935983201417,1.610597841569843e-05,-0.005294100491266423,0.008839403515668285
1.5151515151515151,5.468354430379747,0.009129935886278445,0.008202043790218258,1.9980913402743962e-06,-0.0051995939029490105,0.008703167794554977
1.6161616161616161,5.468354430379747,0.009233358780561036,0.00830156727158964,-1.6864251600542639e-07,-0.005260477815645204,0.008804520688888318
1.7171717171717171,5.468354430379747,0.008755860921384112,0.008202805318068142,8.716853890173926e-05,-0.005087599871835676,0.00849419143256594
1.8181818181818181,5.468354430379747,0.009129182542318575,0.008191910721187374,5.690382717158945e-05,-0.005196327979051785,0.008699059773758486
1.9191919191919191,5.468354430379747,0.009066993947852174,0.008129552973235378,-2.1861945583437522e-05,-0.005158964076326266,0.008636598695201335
2.0202020202020203,5.468354430379747,0.008833349770706956,0.008220964922189699,-1.0806210797306608e-05,-0.005116294407868996,0.008543654027152738
2.121212121212121,5.468354430379747,0.008739116966422237,0.008002339237254744,4.2875317782041525e-05,-0.005022436861103094,0.008395340070549926
2.2222222222222223,5.468354430379747,0.008848290922130774,0.007858040467544188,3.480898181723773e-05,-0.005011899416902489,0.008397288794197917
2.323232323232323,5.468354430379747,0.008682586078469834,0.007992559236598805,-4.356693126742685e-06,-0.0050025435945205915,0.008358963903730282
2.4242424242424243,5.468354430379747,0.008754491097207249,0.007759720249202359,9.023249383296752e-05,-0.004954263403922882,0.00830339668974879
2.525252525252525,5.468354430379747,0.0087811377133275,0.00763506339825315,3.405912004284926e-05,-0.004924860333474196,0.008268101931924558
2.6262626262626263,5.468354430379747,0.008852531676005516,0.007987926025182864,4.9747397975539076e-05,-0.005052137310356514,0.008453894694504457
2.727272727272727,5.468354430379747,0.008895875799657484,0.007831753518239937,-5.704452951006756e-05,-0.005018288795369226,0.008415011886898518
2.8282828282828283,5.468354430379747,0.00861392414859029,0.007817888214879883,-1.309819996084625e-05,-0.004929543709041052,0.008244809517594577
2.929292929292929,5.468354430379747,0.008812344445654666,0.007766212718778995,-0.00012309384367198357,-0.0049735671493300986,0.008341366158437741
3.0303030303030303,5.468354430379747,0.008397957959537112,0.007714670794440497,-6.671276135093604e-05,-0.0048337886261932824,0.008078843613472601
3.131313131313131,5.468354430379747,0.008456354188630527,0.007823907780110027,4.999472073242205e-05,-0.004884078590622166,0.008158996396846011
3.2323232323232323,5.468354430379747,0.00863606340422374,0.007664742732452336,-7.05702879660231e-05,-0.004890241841002823,0.008194608505509142
3.3333333333333335,5.468354430379747,0.008493347143250791,0.007668456828480719,9.989641775973753e-06,-0.004848541191519453,0.008112435473244063
3.4343434343434343,5.468354430379747,0.008532648166142392,0.0077710493615053555,5.6202646260461244e-05,-0.004891109258294324,0.008179067124985298
3.5353535353535355,5.468354430379747,0.008439620661720508,0.007687997938598709,-2.4716984872742627e-05,-0.004838285580095765,0.00809015177581972
3.6363636363636362,5.468354430379747,0.008483615727511173,0.00764917161365716,2.1766457245124204e-05,-0.004839836202350499,0.008098787002951894
3.7373737373737375,5.468354430379747,0.008478287514764484,0.007409994882918099,-2.2107724344878325e-05,-0.004766484719304775,0.007997923636919625
3.8383838383838382,5.468354430379747,0.008351046390361246,0.007544534266081483,-3.997308545349226e-05,-0.004768674196932819,0.007978722391398812
3.9393939393939394,5.468354430379747,0.00830540775336252,0.007618686844700671,8.345804115755661e-06,-0.004777228379418958,0.007984240436895069
4.040404040404041,5.468354430379747,0.008470665644999542,0.00753692635064032,-3.5637361082994984e-05,-0.004802277598691959,0.008044778570079233
4.141414141414141,5.468354430379747,0.008476309957485516,0.007596041583864672,-6.502943627260507e-05,-0.004821705462405057,0.008073039192716028
4.242424242424242,5.468354430379747,0.008489964849712374,0.007747196315181592,5.158102294310905e-05,-0.00487114834946819,0.00814451418449164
4.343434343434343,5.468354430379747,0.008404959223723345,0.007636234350181598,-8.30348662398789e-06,-0.004812358072171482,0.008048191294380619
4.444444444444445,5.468354430379747,0.008329068046271195,0.007281152529007556,3.7901623314397795e-06,-0.004683066172583625,0.007857695902533832
4.545454545454545,5.468354430379747,0.008353037857325536,0.00752158301470853,3.071627345566825e-06,-0.004762386261610219,0.007969906720211474
4.646464646464646,5.468354430379747,0.008392536547434264,0.0075765782681978784,-6.191051417710809e-05,-0.004790734444689642,0.0080164828116262
4.747474747474747,5.468354430379747,0.008377716717839236,0.00761029435031766,-5.1961873322935825e-05,-0.0047964033204470685,0.008022089964924593
4.848484848484849,5.468354430379747,0.008638339806670243,0.007556766870630682,-1.618798957949807e-05,-0.0048585320031902775,0.00815159531854281
4.94949494949495,5.468354430379747,0.00832247722032881,0.007447008579302557,-5.996085974592369e-05,-0.00473084573988941,0.00792179212781827
5.05050505050505,5.468354430379747,0.008354155312591816,0.007565326092844809,8.544338508555074e-05,-0.0047758444216309875,0.007990373109193353
5.151515151515151,5.468354430379747,0.008182899724670366,0.007646006199374394,8.657282764641738e-05,-0.0047486717772134285,0.007929517087733241
5.252525252525253,5.468354430379747,0.008238787584320211,0.007625135507097835,-5.216608451986049e-05,-0.004759176927425414,0.007950258141572422
5.353535353535354,5.468354430379747,0.008426040281870257,0.007589973478532122,3.001978396893718e-05,-0.004804804128120714,0.008040841593413669
5.454545454545454,5.468354430379747,0.008451823577145889,0.007644890541160457,3.673588199954684e-05,-0.004829014235491903,0.008078889504141214
5.555555555555555,5.468354430379747,0.008552858427708348,0.007506355830752663,3.516782529369744e-05,-0.0048177642775383035,0.008080821538783868
5.656565656565657,5.468354430379747,0.008413750206174908,0.0076409941645102,7.432023120257573e-05,-0.004816423311205532,0.00805624842077603
5.757575757575758,5.468354430379747,0.008419001241805635,0.0076205014300330725,1.5588518473945682e-05,-0.004811850801551612,0.008049555388824622
5.858585858585858,5.468354430379747,0.008385371453499279,0.007639267201063696,0.00011922525526565181,-0.004807391596368892,0.008040983065113047
5.959595959595959,5.468354430379747,0.00823824171329476,0.0076044105784894836,-3.1605022349803763e-05,-0.004752795687535273,0.007940510750102523
6.0606060606060606,5.468354430379747,0.00829541978722957,0.0075924269283605276,5.4133094842309975e-05,-0.004766354014677029,0.00796776999605969
6.161616161616162,5.468354430379747,0.008380933523116004,0.0075206654583915965,1.32900563722683e-05,-0.00477047969445228,0.00798566141758806
6.262626262626262,5.468354430379747,0.008329147015863422,0.007529593704266057,4.781519200022468e-05,-0.0047576222160388435,0.007959977217831468
6.363636363636363,5.468354430379747,0.008648623902636264,0.007703915691561743,-2.108484725404031e-05,-0.004905761878259402,0.008217181798546159
6.4646464646464645,5.468354430379747,0.008559459300060664,0.007546376839769981,6.651112095222367e-05,-0.004831750841949194,0.008101389552534253
6.565656565656566,5.468354430379747,0.008644496470034627,0.007678878931311735,-2.75558288219052e-05,-0.004897012620403909,0.008204555869621646
6.666666666666667,5.468354430379747,0.008549994469322194,0.007624636766920126,-2.499550204126451e-05,-0.004852389370872696,0.008127039029715523
6.767676767676767,5.468354430379747,0.008699293349604578,0.007680977644740441,-3.967644571590111e-05,-0.004914081298303505,0.008237764701614076
6.8686868686868685,5.468354430379747,0.008484290485756956,0.007562610811301144,7.105388878227009e-06,-0.004814070389117429,0.008063065907938698
6.96969696969697,5.468354430379747,0.008571526162037407,0.007731297148581669,-6.175932923329601e-05,-0.004890846993185723,0.008184524617523479
7.070707070707071,5.468354430379747,0.008680624600598494,0.007882301570139116,-2.7324431436581734e-05,-0.004968877851221283,0.008310406756212814
7.171717171717171,5.468354430379747,0.008685238460668692,0.00768066419040268,-1.6415405867015846e-05,-0.004909770795321411,0.00822911768606428
7.2727272727272725,5.468354430379747,0.008665935321417757,0.007814123642242559,-3.906635492819376e-05,-0.004944017689098095,0.008273261252630474
7.373737373737374,5.468354430379747,0.008798767619538638,0.007898424436872513,-0.00011337694802024407,-0.005009157616923346,0.008387227314442306
7.474747474747475,5.468354430379747,0.008771976063488701,0.007976978019250416,-5.045100057545824e-05,-0.0050246862248217354,0.008403184994069812
7.575757575757575,5.468354430379747,0.008767264601001775,0.007957732606189207,3.451568222294513e-05,-0.0050174991621572945,0.00839204763035002
7.6767676767676765,5.468354430379747,0.008756979740606893,0.008010793393398209,1.0130392948008548e-05,-0.00503033194020153,0.008408772644775226
7.777777777777778,5.468354430379747,0.008903005897040447,0.008001465791540308,1.6184076185933904e-05,-0.005071341506574226,0.00848826586894178
7.878787878787879,5.468354430379747,0.008883079843757538,0.008012101323202982,2.0810750467686767e-06,-0.005068554350088156,0.008481199935514723
7.979797979797979,5.468354430379747,0.00881705767241631,0.008005376124080532,-1.4351188173978271e-05,-0.005046730138949052,0.00844057508592379
8.080808080808081,5.468354430379747,0.008960235210990791,0.008243034866086935,-0.00013376175021045998,-0.005160981023123318,0.008627142296538593
8.181818181818182,5.468354430379747,0.009076861676290132,0.008169573678463543,-5.041563284791049e-05,-0.005173930606426102,0.008659381441695526
8.282828282828282,5.468354430379747,0.008945122199664085,0.008216088424469484,1.6573921548314993e-05,-0.00514836318724007,0.008603849678494275
8.383838383838384,5.468354430379747,0.009037703463920545,0.008316372889618236,8.950472103911298e-06,-0.0052062229060616345,0.008699509767914143
8.484848484848484,5.468354430379747,0.009038192512465184,0.008175480755730132,8.127933932192624e-06,-0.0051641019804585945,0.008639215167906293
8.585858585858587,5.468354430379747,0.009373858094108603,0.008495178761263466,1.4828276462206404e-05,-0.0053607110566116205,0.008966902318832671
8.686868686868687,5.468354430379747,0.00938959808253096,0.008387164372421131,-7.536014333442125e-05,-0.005333028736485627,0.008931629935567871
8.787878787878787,5.468354430379747,0.009404008581740748,0.008491508604031719,6.936578842400693e-05,-0.00536865515573174,0.008983390831493958
8.88888888888889,5.468354430379747,0.00931752980298396,0.008604647042097823,3.596428826386938e-05,-0.005376653053524535,0.008982546263714086
8.98989898989899,5.468354430379747,0.009566378535533772,0.008646940259033687,5.5474624700921985e-05,-0.005463995638370238,0.009141909140781987
9.09090909090909,5.468354430379747,0.009389497066230223,0.00874328891325057,-7.650987762026598e-05,-0.005439835793844238,0.009084615119049747
9.191919191919192,5.468354430379747,0.009642233542145032,0.008621734805335686,5.8839049270357736e-05,-0.005479190504244215,0.009175215763374376
9.292929292929292,5.468354430379747,0.009693958556557344,0.008761818723295001,6.423161469711283e-05,-0.005536733183955703,0.009263798861882963
9.393939393939394,5.468354430379747,0.009783436223742899,0.00879537092232709,-5.514319750681421e-06,-0.005573642143820996,0.00932873596720256
9.494949494949495,5.468354430379747,0.009911014164174444,0.008930111343664738,-2.3216028720099313e-05,-0.005652337652351754,0.009458871354975106
9.595959595959595,5.468354430379747,0.009941515011382485,0.008928561515729207,-3.9134685986247246e-05,-0.005661022958133508,0.009475974762206355
9.696969696969697,5.468354430379747,0.010092022909527187,0.009088691424634546,2.6898469161389777e-05,-0.00575421430024852,0.009629752163297957
9.797979797979798,5.468354430379747,0.010046365624297254,0.00917924773105924,-3.3394501518148644e-05,-0.005767684006606949,0.00964226725833663
9.8989898989899,5.468354430379747,0.01021738503753928,0.009270774669580515,0.00011491432061731969,-0.005846447912135938,0.009780529714046473
10.0,5.468354430379747,0.010371072494682136,0.009212620155205246,-4.170939298164924e-05,-0.005875107794966214,0.009843372508385101
0.0,5.5696202531645564,-5.540041340649539e-05,2.4513248204861605e-05,-2.465272219576661e-05,9.266149560490134e-06,8.277330102535502e-05
0.10101010101010101,5.5696202531645564,2.1972445016402064e-05,-0.00011174725906703429,5.787397143322617e-05,2.6932444215189666e-05,0.00015960510161940115
0.20202020202020202,5.5696202531645564,-0.00017983728405593442,8.366349337054788e-05,-3.864335054422012e-06,2.885213720561596e-05,0.00023330590120742352
0.30303030303030304,5.5696202531645564,5.231177613957537e-05,0.0001287850056567212,5.846437567600229e-05,-5.432903453888897e-05,0.0001511270223632577
0.40404040404040403,5.5696202531645564,0.00023066367923984507,-2.4777301653754564e-05,-3.409023999566316e-05,-6.176591327582714e-05,0.0002510404440477262
0.5050505050505051,5.5696202531645564,-5.09059700917271e-05,-9.570683370211885e-05,6.932164062348023e-05,4.398384113815378e-05,0.00014593024419373702
0.6060606060606061,5.5696202531645564,8.079592194941223e-05,-8.698146075390957e-06,1.655751797942587e-05,-2.1629332762206383e-05,9.01602333910758e-05
0.7070707070707071,5.5696202531645564,8.504893124292076e-05,-0.00010603765295048241,5.591596261946096e-05,6.296616512268492e-06,0.00019202988889946052
0.8080808080808081,5.5696202531645564,2.4332018280430697e-05,-5.845067480849861e-05,-1.0559126716592226e-05,1.0235596958420373e-05,7.592915683822073e-05
0.9090909090909091,5.5696202531645564,-0.00016267465373295177,7.878785448027507e-06,-3.5086249643050925e-06,4.6438760485477276e-05,0.00016686440084477677
1.0101010101010102,5.5696202531645564,-5.410325386890252e-05,-8.765977522613629e-05,5.3312828629702615e-05,4.2528908728511646e-05,0.00011998121639760611
1.1111111111111112,5.5696202531645564,0.00010821877701977288,5.079615787451726e-05,9.42009873489543e-07,-4.7704480468287046e-05,9.379294973392135e-05
1.2121212121212122,5.5696202531645564,-7.51008458108733e-05,4.2961749109654805e-05,-5.368413912882502e-05,9.641729010365546e-06,0.00013913401095967952
1.3131313131313131,5.5696202531645564,-3.6244423467198204e-05,7.674970261987456e-05,9.022039467278842e-05,-1.2151583745802907e-05,0.00018548607131584343
1.4141414141414141,5.5696202531645564,-4.103575789356985e-05,-0.00017781560257618722,4.331214595799299e-05,6.565540814092712e-05,0.0001778576675065656
1.5151515151515151,5.5696202531645564,-4.717176531738712e-05,0.00016952797259979662,-7.64903881507664e-06,-3.670686218472285e-05,0.0001978316609128825
1.6161616161616161,5.5696202531645564,0.00020761365574212918,3.631390102976206e-05,5.0871635811126636e-05,-7.317826703156737e-05,0.00021129750992821382
1.7171717171717171,5.5696202531645564,0.00016172702078173464,3.5132583656170136e-05,-0.00013070275657228695,-5.905788133137143e-05,0.00027010677763617756
1.8181818181818181,5.5696202531645564,-9.009856907975182e-05,-8.985074906623978e-05,2.57564974675376e-05,5.3984795443797476e-05,0.00010042747045384028
1.9191919191919191,5.5696202531645564,-0.00015302044486490126,3.7322247348162344e-05,9.33255561026858e-05,3.4709459255021676e-05,0.00023800893229450454
2.0202020202020203,5.5696202531645564,0.00017080283135480415,-1.714065196922652e-05,2.499025312959199e-05,-4.6098653815673285e-05,0.00018511785243677134
2.121212121212121,5.5696202531645564,-4.118412136535925e-05,0.00011930028638954351,3.4004447424201084e-06,-2.343484950725528e-05,0.0001444875660124136
2.2222222222222223,5.5696202531645564,-7.347542588742698e-05,2.1770923492380853e-05,6.854960600008136e-05,1.551135071851384e-05,0.0001468651920739367
2.323232323232323,5.5696202531645564,0.00014613760651874724,-6.41948488696026e-05,9.420924954415153e-06,-2.458282729474339e-05,0.0001874159056911817
2.4242424242424243,5.5696202531645564,-0.00016973340305456486,1.9581598866467905e-05,8.95643908992579e-05,4.504554125642909e-05,0.00023786941562750524
2.525252525252525,5.5696202531645564,-0.00018790968742596684,0.0001738234468202124,-6.71501568671928e-05,4.225872181726331e-06,0.00033423821079305076
2.6262626262626263,5.5696202531645564,-0.00010578084343375413,0.00014725813781549558,-1.3157200125169938e-05,-1.2443188314522434e-05,0.00022129385837942346
2.727272727272727,5.5696202531645564,0.00014646191452592384,5.7624853306704595e-05,7.42377333723805e-05,-6.122603034978853e-05,0.0001812887005702472
2.8282828282828283,5.5696202531645564,9.168614376313488e-05,6.319165762146776e-05,8.459014522081942e-05,-4.646334041538079e-05,0.00016754764442160415
2.929292929292929,5.5696202531645564,-8.199301939066286e-05,2.5017582055545985e-05,-6.252999792768628e-05,1.7092631200535065e-05,0.00014536163061069736
3.0303030303030303,5.5696202531645564,-6.163887086084449e-05,1.9351849200724597e-05,0.00010158495642388437,1.2686106498035968e-05,0.00019059165962134048
3.131313131313131,5.5696202531645564,-6.104154764349296e-06,-9.178275963150224e-06,5.320823845083217e-05,4.5847292182498555e-06,9.251392195348621e-05
3.2323232323232323,5.5696202531645564,1.7539167919802306e-05,0.00013443980008438037,-6.035346501219006e-05,-4.5593690401254804e-05,0.0001641686396550679
3.3333333333333335,5.5696202531645564,-2.591375336483699e-06,-2.572036954183486e-05,-8.05803353065957e-05,8.493523463495567e-06,0.0001417080548825553
3.4343434343434343,5.5696202531645564,-6.450570559338219e-05,8.439844156546473e-06,9.843182443378224e-05,1.6819758431050713e-05,0.00018396496218028011
3.5353535353535355,5.5696202531645564,-0.00010595306296080463,9.460483294715858e-05,-1.033575010933749e-05,3.4044690040938127e-06,0.00017470054659431011
3.6363636363636362,5.5696202531645564,-0.0001006299250500768,-6.069003050988326e-06,-4.340475499317276e-05,3.200967843031954e-05,0.0001233061618878773
3.7373737373737375,5.5696202531645564,8.148490810683704e-05,4.1332207166083465e-06,-6.981846702084058e-05,-2.5685438647033612e-05,0.00014472019093345054
3.8383838383838382,5.5696202531645564,3.67894824683109e-05,0.00023146270741094998,1.2645627719217665e-05,-8.047565696377826e-05,0.0002165474392071387
3.9393939393939394,5.5696202531645564,-7.902233332711105e-05,-4.306091382303881e-05,3.21792389140664e-05,3.662497414504496e-05,8.833180531104149e-05
4.040404040404041,5.5696202531645564,8.767891961716867e-05,-1.8627644046834178e-05,-5.3156504176338886e-05,-2.0715382671100347e-05,0.00013470217363411953
4.141414141414141,5.5696202531645564,-0.00014910168109060195,-0.00013254347098623753,6.628366835366125e-05,8.449354562305185e-05,0.00018225587160568016
4.242424242424242,5.5696202531645564,-0.00011519247319019681,0.0002755964448521382,1.803659097580584e-05,-4.812119149858242e-05,0.00034920666978429965
4.343434343434343,5.5696202531645564,-2.8868528011208797e-05,0.0001439382659314275,-5.246824285597156e-05,-3.452092137606561e-05,0.00018429772569401434
4.444444444444445,5.5696202531645564,-6.539867235682924e-05,0.00016459029780948545,-1.0800819834798492e-05,-2.975748763579686e-05,0.00020610898225433512
4.545454545454545,5.5696202531645564,-8.07974888447436e-05,3.3937408858319336e-05,2.6636966090413472e-05,1.4058023995927276e-05,0.00011202956406586732
4.646464646464646,5.5696202531645564,7.029253774315348e-05,0.00017800287347723455,-6.373891714540634e-05,-7.448862336611641e-05,0.0001905301519519776
4.747474747474747,5.5696202531645564,3.277289590333013e-06,-8.396440797599934e-05,5.806293919645298e-06,2.4206135515699897e-05,8.623849060182532e-05
4.848484848484849,5.5696202531645564,-3.798411870106127e-05,-2.7413764731203384e-05,-3.7771269836943103e-06,1.9619365029679396e-05,3.4580632460872395e-05
4.94949494949495,5.5696202531645564,-0.00012830472949804927,5.3324323343583584e-05,9.809633994977044e-06,2.2494121846339704e-05,0.0001625916255876356
5.05050505050505,5.5696202531645564,1.283539745862495e-05,0.00013745152801333154,5.983787816706329e-05,-4.508607764158695e-05,0.00016743697315223732
5.151515151515151,5.5696202531645564,0.00010415962705921509,4.829094339446588e-05,3.433577808056121e-05,-4.573517113610429e-05,0.00010811157864877237
5.252525252525253,5.5696202531645564,-3.772388038439604e-05,7.759313676940482e-05,7.293979281493474e-07,-1.1960776915502634e-05,0.00010184545301152946
5.353535353535354,5.5696202531645564,0.00016308510954872536,-7.40651891302783e-05,4.8550660241261695e-05,-2.6705976125534117e-05,0.00022634671305338063
5.454545454545454,5.5696202531645564,-0.00019434584654921602,2.669234142350527e-06,-1.0278680434237353e-05,5.750298372205964e-05,0.00019650226783749547
5.555555555555555,5.5696202531645564,9.407149500115582e-05,-4.105783334218171e-05,5.4863620561703674e-05,-1.590409849769223e-05,0.00015306081862426443
5.656565656565657,5.5696202531645564,-2.0662721926260633e-05,6.876293424905474e-05,4.3487915478723705e-05,-1.443006369683823e-05,0.00011067843046961593
5.757575757575758,5.5696202531645564,6.555750246419266e-05,-0.0002735992121256258,-6.451825560833458e-05,6.241251289842994e-05,0.0003310266030826826
5.858585858585858,5.5696202531645564,-2.485415161289721e-05,7.187185221696444e-05,-4.1182452365516946e-05,-1.4105310181220169e-05,0.00011250595119240782
5.959595959595959,5.5696202531645564,4.753770808816643e-05,-9.519236132100879e-07,1.0324319738669963e-05,-1.3975735342486903e-05,5.124223697192576e-05
6.0606060606060606,5.5696202531645564,-4.1335864723772886e-07,1.5709188882086043e-05,-1.4128208821590102e-05,-4.5887490704544934e-06,2.919352433827016e-05
6.161616161616162,5.5696202531645564,-1.4897291561474841e-05,-6.551046562950674e-05,4.762197494063235e-05,2.4122327157294474e-05,0.0001016915895627081
6.262626262626262,5.5696202531645564,-6.126663759855243e-05,-0.00013347798492041268,-1.1410653326431785e-05,5.8423386755689526e-05,0.00011740031958879128
6.363636363636363,5.5696202531645564,-6.76244145130904e-06,-8.192890878928219e-06,-4.9410960839193246e-05,4.486599699071177e-06,8.591728163534713e-05
6.4646464646464645,5.5696202531645564,-8.109625891089442e-05,4.556400387663464e-06,3.984324924831933e-05,2.2961957556969283e-05,0.00010830200622041253
6.565656565656566,5.5696202531645564,-4.928909874218029e-05,3.904371116534289e-05,-2.4510371940867707e-05,3.0736162730512194e-06,8.763863856375164e-05
6.666666666666667,5.5696202531645564,-0.00012171954288610485,0.00019317586341856803,-3.153484320390199e-05,-2.1436896159738952e-05,0.00028040894801616503
6.767676767676767,5.5696202531645564,-4.806101704597446e-05,0.00017563021426732139,8.294558393383466e-05,-3.8270759166404075e-05,0.00024947286410979244
6.8686868686868685,5.5696202531645564,1.5410355251660215e-05,3.070105263685313e-05,2.429319543918e-06,-1.3833422366554005e-05,2.6918847200405104e-05
6.96969696969697,5.5696202531645564,-0.00014986813736604838,-1.0805164454164346e-05,-5.743020526112123e-05,4.8201990546063814e-05,0.00017564892750818146
7.070707070707071,5.5696202531645564,8.12436430904206e-05,-5.1360613456088244e-05,-1.5940855407322724e-05,-8.964908890299708e-06,0.00011905250152379142
7.171717171717171,5.5696202531645564,5.865519715725514e-06,7.85436374119582e-05,-2.374249478858071e-05,-2.5322747138305114e-05,8.622021933403692e-05
7.2727272727272725,5.5696202531645564,3.5250017052989266e-05,1.9145077696747894e-05,1.6215650540762315e-05,-1.631852842492115e-05,4.150994283710537e-05
7.373737373737374,5.5696202531645564,-0.00012521779032633764,-5.998942491873601e-05,3.7566221888323375e-05,5.556216457352209e-05,0.00012649168338633058
7.474747474747475,5.5696202531645564,-9.226356515699033e-05,-0.00020550926239910972,-1.170297282104651e-05,8.933184826683002e-05,0.0001794337869079553
7.575757575757575,5.5696202531645564,-5.7770714721124174e-05,2.1628613092314045e-05,-4.334909370768785e-05,1.0842630488643037e-05,0.00010340302024742742
7.6767676767676765,5.5696202531645564,-2.7582004353348744e-05,7.609873744127371e-06,5.250858700946119e-05,5.991639182766412e-06,9.643665196635111e-05
7.777777777777778,5.5696202531645564,-0.00013024282250767227,8.552858610583368e-05,-5.050315681979286e-05,1.3414270920551578e-05,0.0002075319803351668
7.878787878787879,5.5696202531645564,4.079922632255054e-05,9.190721760947316e-07,6.729170540245219e-05,-1.2515489549593581e-05,0.0001233387407766739
7.979797979797979,5.5696202531645564,-7.681902653252261e-05,0.00011556774208918028,4.9208052776360444e-05,-1.1624614666997301e-05,0.00018814665734200912
8.080808080808081,5.5696202531645564,3.2602744972649945e-05,0.00012110840915288592,-9.245748330984561e-06,-4.611334623766075e-05,0.00010971859804171444
8.181818181818182,5.5696202531645564,-6.0245826637487645e-05,-0.00015786332205255254,-0.00010323603897157552,6.543274460701206e-05,0.00022586018013702225
8.282828282828282,5.5696202531645564,0.00020480573621231468,1.5506208760841502e-07,1.946614648295938e-05,-6.148823948997693e-05,0.00020748602025533208
8.383838383838384,5.5696202531645564,1.5242452739756594e-05,-7.952972312864978e-05,0.00012793996521496347,1.9286181116667956e-05,0.00023848572571593454
8.484848484848484,5.5696202531645564,9.069260518687084e-05,4.3205615033237166e-05,7.929143491454876e-05,-4.01694660660324e-05,0.00015822401515680538
8.585858585858587,5.5696202531645564,4.685279989716142e-05,-9.2000321653069e-05,-3.949044085864801e-05,1.3544256526772273e-05,0.00014017204236576016
8.686868686868687,5.5696202531645564,5.310412163084973e-05,-5.1324934472446626e-05,8.415803516564993e-06,-5.337561475209317e-07,9.160971259748338e-05
8.787878787878787,5.5696202531645564,0.00045958282968981505,-4.965657145407587e-05,-3.769553757768387e-05,-0.00012297787747072176,0.000490679448026552
8.88888888888889,5.5696202531645564,2.664311391081228e-05,0.00015236401433808968,2.2331120705382562e-05,-5.370213847467059e-05,0.00014615482698165962
8.98989898989899,5.5696202531645564,8.666329930811278e-05,5.9984831825522336e-05,-7.068259740071891e-05,-4.399443934009054e-05,0.0001445624874841258
9.09090909090909,5.5696202531645564,-0.00011663750559289259,-0.0001367459295772769,-1.161483484137019e-05,7.601503055105083e-05,0.00012945565266216696
9.191919191919192,5.5696202531645564,-7.173671972085123e-06,-8.935496579990629e-05,-3.809352233055691e-05,2.895859133159742e-05,0.00010838873372996846
9.292929292929292,5.5696202531645564,-5.08292487402244e-05,-4.952316029139537e-05,-3.592907983535711e-05,3.0105722709485932e-05,7.994765308210054e-05
9.393939393939394,5.5696202531645564,8.188478971443717e-05,-9.072383147790819e-05,2.4340061136250028e-05,2.6517125290413055e-06,0.00015537744358694796
9.494949494949495,5.5696202531645564,7.337888415739018e-05,-3.435357010126159e-05,-2.0381070617419498e-05,-1.1707594216838576e-05,0.00010164457279302206
9.595959595959595,5.5696202531645564,-9.428236799909158e-05,7.436228546226936e-05,-8.294719316257474e-05,5.976024761046667e-06,0.00020511137788661017
9.696969696969697,5.5696202531645564,0.00021653676564196742,-1.519361290788704e-05,4.419426588836844e-05,-6.040294582022411e-05,0.0002372095949948154
9.797979797979798,5.5696202531645564,0.0001359605816923828,-3.3031902150377855e-05,-5.06630023262109e-05,-3.087860386260149e-05,0.00017823479564521466
9.8989898989899,5.5696202531645564,-2.7062822122723352e-05,0.00011836931087731368,-0.00010619525836937179,-2.7391946626377097e-05,0.00022755086553184382
10.0,5.5696202531645564,6.985825936832111e-05,2.9770729709107193e-05,7.008925667083631e-06,-2.988869672322849e-05,6.192024312614947e-05
0.0,5.670886075949367,0.00012270618497518026,-5.395152623467484e-05,-3.8383910300586525e-05,-2.0626397622151627e-05,0.0001703165719533765
0.10101010101010101,5.670886075949367,6.833171708873451e-05,-3.933584889380185e-06,-3.579666752839585e-05,-1.9319439659806296e-05,9.379599926754868e-05
0.20202020202020202,5.670886075949367,-0.00015335276077083843,-2.9857451922345658e-05,-0.00011738625769613913,5.4963063807955226e-05,0.0002473224908437808
0.30303030303030304,5.670886075949367,-0.0001579766518718896,-8.568672416451637e-07,3.324499529515119e-05,4.765005573406043e-05,0.0001677429011216632
0.40404040404040403,5.670886075949367,0.00012458076587336451,0.00011048977594833772,1.6996050591241264e-06,-7.052116254651067e-05,0.00011820373461933667
0.5050505050505051,5.670886075949367,-1.8004354568320653e-05,-5.6611898882972515e-05,-2.158213894361556e-05,2.2384876035387946e-05,6.250735430673212e-05
0.6060606060606061,5.670886075949367,4.2387945097979504e-05,-2.0039841487572357e-05,-1.8025571342802416e-05,-6.704431083122144e-06,6.342353272979328e-05
0.7070707070707071,5.670886075949367,3.086175745271087e-05,0.00011377165697720725,-4.6245271732083315e-05,-4.3390024328975435e-05,0.00012961913514025755
0.8080808080808081,5.670886075949367,2.3326089561823764e-05,-7.925177533986562e-05,1.0194718984527762e-05,1.6777705733412558e-05,9.479125088212768e-05
0.9090909090909091,5.670886075949367,-0.00015686773743612528,8.671381261638913e-05,-4.886340585219151e-05,2.1046177445920843e-05,0.00022998319336599456
1.0101010101010102,5.670886075949367,-0.00016454426657960182,-0.00010375534441074058,4.822199128718396e-05,8.048988329710272e-05,0.00016656446631660337
1.1111111111111112,5.670886075949367,-5.7713190172979314e-05,4.863837890419428e-05,9.872730464059935e-05,2.7224433806355104e-06,0.0001942802673422259
1.2121212121212122,5.670886075949367,6.107770616447214e-06,5.642339196373689e-05,1.2427002213071914e-05,-1.8759348774055228e-05,5.77890477434203e-05
1.3131313131313131,5.670886075949367,-1.1678501307475873e-05,-7.024068306155598e-05,-3.3199202890949306e-05,2.4575755310709557e-05,8.692753452476117e-05
1.4141414141414141,5.670886075949367,7.150307188742311e-05,-9.612369907243079e-05,2.0983399807038742e-05,7.386188155502304e-06,0.00015015493258615375
1.5151515151515151,5.670886075949367,-3.306914226190038e-05,-4.499368788836981e-06,-1.2290372043318058e-07,1.1270553315221207e-05,3.106553619113069e-05
1.6161616161616161,5.670886075949367,-7.285730374402935e-06,0.00015257323656517273,3.723044107778692e-05,-4.358625185723094e-05,0.00016912007295281123
1.7171717171717171,5.670886075949367,-1.3505010429303444e-05,-6.194530400852775e-05,1.317978361010273e-05,2.2635094331349358e-05,6.0861762271153275e-05
1.8181818181818181,5.670886075949367,0.0001183220482367731,-9.214046947443895e-05,2.744178722349232e-05,-7.854473628700248e-06,0.0001888157232480575
1.9191919191919191,5.670886075949367,-0.0001309731074711427,-0.00016145104491257007,-3.400328688979994e-05,8.772724571511382e-05,0.00015982277774233562
2.0202020202020203,5.670886075949367,-4.93524600957658e-05,1.8566704482475275e-06,-4.289577278919058e-05,1.4248736894255481e-05,8.972672827207767e-05
2.121212121212121,5.670886075949367,-2.668947876929151e-05,1.190955105057029e-05,6.133747685931543e-05,4.433978315616366e-06,0.00011161936926680674
2.2222222222222223,5.670886075949367,4.7432012905905554e-05,-0.00014463994636168903,-4.111910714931378e-05,2.9162380036735042e-05,0.00018735905810135156
2.323232323232323,5.670886075949367,-1.5154128915117938e-05,6.923452148397e-05,-9.481453798769498e-05,-1.622411777065562e-05,0.000181773610003474
2.4242424242424243,5.670886075949367,9.696490941434166e-05,4.2482966030215956e-05,4.4197522587896226e-05,-4.1834362633367284e-05,0.0001137888488227485
2.525252525252525,5.670886075949367,-7.56655497412664e-05,1.4354951222241369e-05,-4.795981519754376e-05,1.8393179555707506e-05,0.0001179743486497323
2.6262626262626263,5.670886075949367,-5.243055780950575e-06,3.3452981866495495e-05,3.075350915553684e-05,-8.462977825663475e-06,6.449280933395958e-05
2.727272727272727,5.670886075949367,-0.00010535114243677711,-3.8137471311425195e-05,8.213485691128853e-05,4.3046584124460695e-05,0.00016962873553136258
2.8282828282828283,5.670886075949367,4.003760197495421e-05,1.770576673897359e-06,-3.070870953497604e-06,-1.254245359465547e-05,3.9541694637009066e-05
2.929292929292929,5.670886075949367,1.614488456921339e-05,-0.0001506177629384908,1.6642374314954013e-05,4.034186351078322e-05,0.00016189187773196296
3.0303030303030303,5.670886075949367,-4.852660900542237e-05,-9.745668473154762e-05,-9.355797401322008e-05,4.3794988121091e-05,0.000182709272479182
3.131313131313131,5.670886075949367,4.061749348469179e-05,-0.00010972271381435486,0.00010291105373727932,2.073156609889892e-05,0.00022342240545924358
3.2323232323232323,5.670886075949367,2.3829048744529976e-05,-2.4581093727767315e-05,-5.230556907345078e-05,2.2561349497120156e-07,9.982692763902877e-05
3.3333333333333335,5.670886075949367,0.00010390629720038811,0.00010589386645137983,-5.818915430193677e-05,-6.294004909553038e-05,0.00014548169309520215
3.4343434343434343,5.670886075949367,-3.35355061300713e-05,0.00015693648223944303,-2.346380923293276e-05,-3.702029283281152e-05,0.00018074369981391363
3.5353535353535355,5.670886075949367,0.0002962515339772064,0.0001443925170098113,2.0031572545871684e-05,-0.0001321932152961053,0.00025892365166062297
3.6363636363636362,5.670886075949367,9.73345012847608e-05,-2.4790105580544624e-05,-2.9524793237094584e-05,-2.1763318711264853e-05,0.0001229496941257118
3.7373737373737375,5.670886075949367,0.00023264138242827986,-8.489607029156033e-05,-8.10436586785072e-05,-4.432359364101586e-05,0.00031746483043077834
3.8383838383838382,5.670886075949367,-8.912388747298312e-05,1.5723968870363718e-06,-8.618812129951168e-05,2.6265447175784022e-05,0.0001742723576271017
3.9393939393939394,5.670886075949367,-0.00013579058468279152,-1.978997927547924e-06,-1.0183205076635283e-07,4.133087478310183e-05,0.00013481209569220242
4.040404040404041,5.670886075949367,9.21016678128615e-05,0.00015854439763909257,5.9908657075440576e-05,-7.519381963558622e-05,0.0001725803620620135
4.141414141414141,5.670886075949367,0.00014983931822976234,-2.6552718401526773e-05,1.228036519180471e-05,-3.698597994847067e-05,0.0001660961512866408
4.242424242424242,5.670886075949367,9.555797726577802e-06,0.00017836008375987468,5.249653132410675e-06,-5.6374764445935744e-05,0.0001740170578999307
4.343434343434343,5.670886075949367,-3.905229365242977e-05,2.5097737085412613e-05,-4.0823199140936606e-06,4.186366970105147e-06,5.643667471279761e-05
4.444444444444445,5.670886075949367,5.172070227251503e-06,-8.377738091517955e-05,6.13994331647603e-05,2.3581593206378414e-05,0.0001370706881132973
4.545454545454545,5.670886075949367,-6.793671670515109e-05,-2.3658897625607876e-05,-0.00011738576522725575,2.7478684299227685e-05,0.00021191056302589795
4.646464646464646,5.670886075949367,-2.000682086242219e-05,-4.566849939552112e-05,0.00010390340040343436,1.970259607738299e-05,0.00018428226468596251
4.747474747474747,5.670886075949367,0.00010169901329788854,-0.000137386440293814,8.402608262858418e-06,1.0706228098777637e-05,0.00020833050707377723
4.848484848484849,5.670886075949367,-8.175819518309042e-05,-4.226188734955573e-05,-1.4103079128860748e-06,3.720602475979385e-05,7.086029122463116e-05
4.94949494949495,5.670886075949367,-7.96571669500833e-06,-5.216964302676097e-05,2.9009834038037476e-05,1.8040607916530788e-05,6.995903881784928e-05
5.05050505050505,5.670886075949367,0.0001237580990101859,9.41124532014245e-05,-3.832190485889233e-05,-6.536116566348312e-05,0.0001301220496028782
5.151515151515151,5.670886075949367,-1.2447750259335701e-05,2.343684922404966e-05,5.5906110956700035e-06,-3.296729689414188e-06,3.3011107696431376e-05
5.252525252525253,5.670886075949367,-0.00015110527322679252,7.784378565528014e-05,-2.7262443567906676e-05,2.1978446271453713e-05,0.000207086425316624
5.353535353535354,5.670886075949367,-9.623897848810964e-05,3.894491502368328e-05,5.0008723630764223e-05,1.7188219039327907e-05,0.00014842265171919252
5.454545454545454,5.670886075949367,9.74554339138163e-06,-8.287526346102021e-05,1.3830091191182287e-05,2.1938916020891574e-05,9.134967790270322e-05
5.555555555555555,5.670886075949367,-7.171283903510513e-05,-0.00013070007859031474,4.6615997862103555e-05,6.0723875287625956e-05,0.00013918161479953249
5.656565656565657,5.670886075949367,-0.00013507915439474842,0.00011558780845460982,-2.5699540570303217e-06,5.8474037820415805e-06,0.0002173481926110646
5.757575757575758,5.670886075949367,0.00015651185461965637,-0.00014443409530634296,-4.688490920468767e-05,-3.623327793994023e-06,0.00027305201113258544
5.858585858585858,5.670886075949367,0.00015305162336041835,6.51437074324425e-05,-2.5286725105480608e-05,-6.545859923785825e-05,0.0001400585850875696
5.959595959595959,5.670886075949367,-0.00018546657353896956,2.9481686118884504e-05,-1.3428213476599024e-05,4.6795466226025514e-05,0.00020316455836301442
6.0606060606060606,5.670886075949367,-4.009984529007769e-05,5.577896212450564e-05,2.361959520194702e-06,-4.703735050328386e-06,8.350302101082389e-05
6.161616161616162,5.670886075949367,4.4305928168494974e-05,0.0001541321216686705,8.100895915576056e-05,-5.953141495114964e-05,0.00019641312043839354
6.262626262626262,5.670886075949367,-1.7936958735244462e-06,-6.0720209866380264e-05,-8.567685045614432e-06,1.8754171721971414e-05,6.165600799881252e-05
6.363636363636363,5.670886075949367,0.00019779366744552784,0.00015464859686444094,-2.1481154844370304e-05,-0.00010573267929299063,0.00018394110550639067
6.4646464646464645,5.670886075949367,-0.00017682232846463598,-7.227887051766394e-05,4.295283936630296e-05,7.473035969468998e-05,0.00017101079501633765
6.565656565656566,5.670886075949367,0.0001100600849988102,2.193627211913761e-05,3.6651215546516696e-05,-3.9598907135384336e-05,0.00011920591081633722
6.666666666666667,5.670886075949367,-7.455975910017782e-06,-6.638972100588263e-05,-6.26694951044464e-05,2.2153709074770125e-05,0.00012550132796690133
6.767676767676767,5.670886075949367,0.00013021146491212928,0.00024981447095716677,9.673958557777939e-05,-0.0001140077807607888,0.00027369550512909785
6.8686868686868685,5.670886075949367,-3.771992475150145e-05,3.6649685480812474e-05,3.722191759604031e-05,3.210717812066932e-07,9.113083449734836e-05
6.96969696969697,5.670886075949367,-5.248403961442939e-05,-0.0001158702788850204,4.913799375997206e-06,5.050629554983494e-05,0.00010085431031407461
7.070707070707071,5.670886075949367,1.7981686119821737e-05,-1.298386990618852e-05,-2.9978496281152345e-06,-1.4993448640899652e-06,2.7429092108647543e-05
7.171717171717171,5.670886075949367,-6.336154700469571e-07,-0.0001547092289969119,-1.9305588164032962e-05,4.660285334008766e-05,0.00015797290289036622
7.2727272727272725,5.670886075949367,-3.393111022568878e-05,-0.0001383215510393938,4.691388843490228e-05,5.167579837952477e-05,0.0001489748526175909
7.373737373737374,5.670886075949367,1.7754189257869738e-05,3.285361432387965e-05,2.0108667189109558e-05,-1.5182341074524816e-05,4.4992859569073646e-05
7.474747474747475,5.670886075949367,-2.3909909806488595e-05,-2.022036188507526e-05,8.798304143619465e-05,1.3239081507469158e-05,0.00015401339725452636
7.575757575757575,5.670886075949367,4.217416453658171e-06,4.746645044265983e-05,-0.00010272156270924958,-1.55051600688954e-05,0.00018364591764143934
7.6767676767676765,5.670886075949367,-0.00017347013490809043,-2.834556784233903e-05,7.05822814606696e-05,6.0544710825128835e-05,0.00020229637864346042
7.777777777777778,5.670886075949367,-8.89995333863929e-06,5.8413139814177486e-05,-5.5335205137002e-05,-1.4853955942661458e-05,0.00011487877555820515
7.878787878787879,5.670886075949367,1.0557046829420229e-05,-2.6726307372523296e-05,-8.867564990651711e-06,4.85077816293092e-06,3.6657860666283676e-05
7.979797979797979,5.670886075949367,-3.8150990516852464e-05,4.272912873181335e-05,-6.978021926717341e-05,-1.3734414644882665e-06,0.0001397113886108145
8.080808080808081,5.670886075949367,-5.453685466696592e-05,-2.7029400268612192e-05,-5.1388847178562684e-05,2.4469876480673432e-05,0.00010076308532735127
8.181818181818182,5.670886075949367,4.904978748247216e-05,0.00010872467358277719,-8.388870283421422e-08,-4.733233831957481e-05,9.430819305004281e-05
8.282828282828282,5.670886075949367,0.00016860894251207297,-3.0387269507869125e-05,6.59388632441153e-05,-4.146650190126116e-05,0.0002179902017947435
8.383838383838384,5.670886075949367,-5.318897664836959e-05,-1.1786664736792675e-05,-6.763872694250218e-05,1.9492692415548677e-05,0.00012675197913357425
8.484848484848484,5.670886075949367,4.863336332574507e-05,8.871883889609876e-06,4.153110392782954e-05,-1.7251574164606486e-05,8.477583724110284e-05
8.585858585858587,5.670886075949367,0.00011043185901550536,-1.4292745433113566e-05,3.557828078513534e-05,-2.8841734074717537e-05,0.0001333240214557307
8.686868686868687,5.670886075949367,-2.3158302155221356e-05,0.0002443253351783511,-8.869019695500811e-05,-6.635010990693892e-05,0.00029914409473147976
8.787878787878787,5.670886075949367,2.896466104392567e-06,5.907951924155407e-05,9.3563924445954e-06,-1.8592795603783993e-05,5.991897465320922e-05
8.88888888888889,5.670886075949367,3.220958314571311e-05,1.4729949101956814e-05,-1.1922225662856474e-05,-1.4081859674300975e-05,3.47332912477851e-05
8.98989898989899,5.670886075949367,-4.308378124678253e-05,0.00018995148737104809,-2.0781843683610733e-05,-4.406031183727966e-05,0.00021775505314701506
9.09090909090909,5.670886075949367,-9.872122604149092e-05,0.00016641442274394465,1.143024802484921e-05,-2.0307959010736116e-05,0.00023293824959060152
9.191919191919192,5.670886075949367,-7.510203806908335e-05,7.29709590797329e-05,-3.841773773482185e-05,6.393236968051374e-07,0.00014447530050453047
9.292929292929292,5.670886075949367,-2.593134037858153e-05,1.8928262005335557e-06,1.7309151441334696e-06,7.211554253414392e-06,2.709407549718912e-05
9.393939393939394,5.670886075949367,0.000162944334408083,4.623587337102225e-05,-3.778660675924685e-05,-6.275406233373158e-05,0.0001594936407540772
9.494949494949495,5.670886075949367,6.9634549298549e-05,-1.7746259500676734e-05,5.133566466320895e-05,-1.5566486939361682e-05,0.00011960645619523407
9.595959595959595,5.670886075949367,0.00011695958403889548,9.483393524454224e-05,8.078925040278625e-05,-6.353805578503131e-05,0.00017652759244796994
9.696969696969697,5.670886075949367,-7.30121986236774e-05,0.0001455440026404759,4.228049253594892e-05,-2.1759541205039547e-05,0.0002061631529371651
9.797979797979798,5.670886075949367,2.307684677810876e-05,0.00011960482307936527,6.364357306395343e-05,-4.280450095724221e-05,0.0001556575265188985
9.8989898989899,5.670886075949367,-0.00011111966317113978,8.482403681819747e-05,-6.437902623813641e-05,7.888687905882693e-06,0.00020347553224790666
10.0,5.670886075949367,9.015130206775992e-06,-0.00016412753925770026,-8.792126781874148e-05,4.6533722715277275e-05,0.0002273525914893507
0.0,5.772151898734177,-5.332864772340304e-05,1.6714564804265524e-05,2.8429515561643347e-06,1.0984224875741253e-05,6.355260500995669e-05
0.10101010101010101,5.772151898734177,0.00012208981713938304,-6.856787981793435e-05,4.0196144620614054e-05,-1.6056581196434607e-05,0.00018117976605445057
0.20202020202020202,5.772151898734177,8.71537874560858e-05,-0.000149776700100339,5.70511711239882e-05,1.8786873793275965e-05,0.0002298846615743688
0.30303030303030304,5.772151898734177,5.7794609355197136e-05,-1.4546317668702395e-05,-1.3876352674039836e-05,-1.2974487505948423e-05,7.049943592725332e-05
0.40404040404040403,5.772151898734177,-3.035156242867853e-05,4.696248406442904e-05,-1.4090984929170385e-06,-4.983276490725152e-06,6.751321125482985e-05
0.5050505050505051,5.772151898734177,-3.948505000242116e-05,-0.00015492445567643189,5.2893411068788766e-05,5.8322851703655914e-05,0.00016684302522079313
0.6060606060606061,5.772151898734177,5.924071844066627e-06,7.433482655047011e-06,-1.4525120908226355e-05,-4.007266349734092e-06,2.6062467620933544e-05
0.7070707070707071,5.772151898734177,0.0002643322580812672,-8.350890296464776e-05,-3.7152959855158185e-05,-5.424700653498583e-05,0.0003210302224171929
0.8080808080808081,5.772151898734177,0.00011269934452539397,-7.537488953160483e-05,0.00010969759496913306,-1.1197336498136743e-05,0.0002509539876118266
0.9090909090909091,5.772151898734177,7.656362112500265e-05,-9.277428946542392e-05,-6.616873174608989e-05,4.863200502126383e-06,0.0001862984047087287
1.0101010101010102,5.772151898734177,8.929514092215249e-05,0.00010340917165096398,6.8254117187153e-05,-5.781129377193493e-05,0.00015300005214908445
1.1111111111111112,5.772151898734177,-4.118636655506821e-05,-2.59049434999805e-05,1.657739852661107e-07,2.0127393016514612e-05,3.6062928780253933e-05
1.2121212121212122,5.772151898734177,-6.295448115092887e-05,0.00010703748999594268,-5.545443572414787e-05,-1.3224902653504143e-05,0.00017715632625581691
1.3131313131313131,5.772151898734177,3.800334544225399e-05,7.604920499522044e-05,-3.616019379627613e-05,-3.421576513124233e-05,9.088614021576083e-05
1.4141414141414141,5.772151898734177,4.949918633370863e-05,-0.00012876828131939264,-8.769426072447832e-05,2.3780728495705203e-05,0.00022017314769196496
1.5151515151515151,5.772151898734177,0.00014775293042968901,-4.7735601466759396e-05,-5.8634151424949946e-05,-3.0005198688878882e-05,0.0002036580031338399
1.6161616161616161,5.772151898734177,-3.888698129506268e-05,1.2407674968175681e-05,1.6026119643767785e-05,7.943791898066098e-06,5.402919830304899e-05
1.7171717171717171,5.772151898734177,8.475780363377063e-05,9.08485052276592e-05,-8.262810274036877e-05,-5.268189265842895e-05,0.0001679863878408966
1.8181818181818181,5.772151898734177,0.00012825308467968267,-0.00018480070891840574,4.3941598309725076e-08,1.696428727161692e-05,0.00027258287273592416
1.9191919191919191,5.772151898734177,0.00017004197371061207,-8.428911267469768e-05,-2.108065186653691e-05,-2.5725858310774317e-05,0.0002273429041552969
2.0202020202020203,5.772151898734177,-6.0574259810151915e-05,-2.144782408128585e-05,4.551545724949325e-05,2.460662516743133e-05,9.510538674017719e-05
2.121212121212121,5.772151898734177,-0.00010722075044065018,5.7854238232202695e-05,1.044010027780668e-05,1.4809953662534245e-05,0.00014619700450879818
2.2222222222222223,5.772151898734177,-0.00010937945269980765,-0.0002018952921785497,-1.4958191385034538e-05,9.33824234635072e-05,0.00017695654716383866
2.323232323232323,5.772151898734177,0.00012574695498949364,-8.26919801876876e-05,-1.1577236234504073e-05,-1.291649244054181e-05,0.00018289511251980587
2.4242424242424243,5.772151898734177,7.146647989105351e-05,-0.00015743911195265181,3.3228695181239256e-05,2.579178961847949e-05,0.00021085205571497433
2.525252525252525,5.772151898734177,0.00022123348108660226,-3.8787309640715154e-05,6.217785417744801e-05,-5.4733851433766135e-05,0.0002657593210538363
2.6262626262626263,5.772151898734177,0.00014262841339387447,7.550084545611859e-05,5.201609377844383e-05,-6.543877765499791e-05,0.00015294344775257268
2.727272727272727,5.772151898734177,-0.00011234556905087501,5.381308822239698e-05,4.330627896146245e-05,1.7559744248543408e-05,0.00016489190022736275
2.8282828282828283,5.772151898734177,-8.986501444999806e-05,0.00010817984038368531,2.7736165029657495e-05,-5.494447780106174e-06,0.00017834815995258695
2.929292929292929,5.772151898734177,-0.00012096268774553748,-0.00012061089120708401,6.658479236331306e-05,7.247207368578644e-05,0.0001670034282725792
3.0303030303030303,5.772151898734177,-4.5293136657286644e-05,-6.872883659626782e-05,-2.8442382741111324e-06,3.4206591976066336e-05,6.071610736831537e-05
3.131313131313131,5.772151898734177,-9.825367677059388e-05,0.000187754684673223,1.3725565324114307e-06,-2.6850302370788735e-05,0.00025171183216136933
3.2323232323232323,5.772151898734177,3.102552965379128e-05,-4.0822530418535696e-05,1.602965903273223e-05,2.939100229423325e-06,6.831144131278882e-05
3.3333333333333335,5.772151898734177,-6.611657672033576e-06,6.465994332921947e-06,3.95875292098528e-05,4.369900173348871e-08,6.94967009846293e-05
3.4343434343434343,5.772151898734177,0.0002431048090037934,-3.098345132389339e-05,5.68950874630501e-07,-6.363640730397001e-05,0.0002599867680255624
3.5353535353535355,5.772151898734177,0.00016980749278894196,-7.874049196579279e-05,-8.44741545464678e-05,-2.732010024694475e-05,0.00026422154257929527
3.6363636363636362,5.772151898734177,0.0001717768247928401,-8.573111489933149e-05,3.4989552315089095e-06,-2.5813712968052582e-05,0.00022720133882591026
3.7373737373737375,5.772151898734177,5.560681738652922e-05,0.0001336734263823545,-2.841332609950768e-05,-5.6784073130665115e-05,0.0001262913320481386
3.8383838383838382,5.772151898734177,-0.00011446536413947431,-6.70557084443743e-05,-3.7183335006678715e-05,5.4456321775154585e-05,0.00011862138401022115
3.9393939393939394,5.772151898734177,-8.605013317405156e-05,-9.603029722387834e-05,2.583874414594428e-06,5.462412911937897e-05,9.155901244711591e-05
4.040404040404041,5.772151898734177,1.2320151335444182e-05,8.354521240913077e-05,-2.627026644309918e-06,-2.8759609123372483e-05,7.824961847927725e-05
4.141414141414141,5.772151898734177,4.5271691451131094e-05,0.00024035840023821142,-3.220930117146974e-05,-8.568902750680276e-05,0.00022815032878457613
4.242424242424242,5.772151898734177,5.762047319802343e-05,-0.00012189050023462636,-8.396151690810272e-05,1.9281008110980878e-05,0.00021528913174009365
4.343434343434343,5.772151898734177,-5.125044439835671e-05,7.331290223974757e-06,9.104025896898456e-06,1.3175746252314585e-05,5.7486847295389474e-05
4.444444444444445,5.772151898734177,9.427193801967732e-05,9.167103523290853e-06,5.507137802779823e-05,-3.103171246289045e-05,0.000131170131903063
4.545454545454545,5.772151898734177,4.893816236418686e-05,3.450409908532346e-05,-3.402795522946018e-06,-2.5032678434853096e-05,4.395049986198938e-05
4.646464646464646,5.772151898734177,-5.63728939194552e-05,6.263254125433808e-05,2.73661772975581e-05,-1.877894200464865e-06,0.00011348232891737535
4.747474747474747,5.772151898734177,-4.672313436624012e-05,6.111858031806534e-05,-2.134621426362122e-05,-4.318633785547565e-06,0.00010070335831411788
4.848484848484849,5.772151898734177,4.93429960974382e-05,9.119393952514145e-05,-7.325557951828831e-05,-4.21610806867739e-05,0.0001495005801312111
4.94949494949495,5.772151898734177,-4.056280765501074e-05,-5.143981077393985e-05,-3.384365995334795e-05,2.7600785528685176e-05,7.5106805977862e-05
5.05050505050505,5.772151898734177,-0.00014066779897175087,-1.5435695960749043e-05,-7.25704518915418e-05,4.683104847974998e-05,0.00018344971099508887
5.151515151515151,5.772151898734177,2.8727780894636004e-05,1.1996013741222193e-05,3.748850536003915e-05,-1.2217138390757458e-05,6.95753906840054e-05
5.252525252525253,5.772151898734177,0.0001235192029344808,1.6083799133159314e-06,6.538411300397111e-05,-3.7538274854339015e-05,0.00016699150060573318
5.353535353535354,5.772151898734177,4.675842027505557e-05,-0.00012735524399779867,8.991488066661347e-05,2.4179047116822925e-05,0.00022048740408311967
5.454545454545454,5.772151898734177,1.1063834078616196e-05,-5.327995410580547e-05,3.852546790143245e-05,1.2664836008156783e-05,8.94610392128982e-05
5.555555555555555,5.772151898734177,4.621133274736063e-06,-9.712060729203078e-05,-1.2995846415211962e-05,2.7749842205188414e-05,0.00010202573486958497
5.656565656565657,5.772151898734177,-3.4263776750853505e-05,-3.4083180845769355e-05,1.3317705057623433e-05,2.0504087278986856e-05,4.12302670176278e-05
5.757575757575758,5.772151898734177,-6.234836547772783e-05,-6.052253965174567e-05,3.1158623603413146e-05,3.686127153884205e-05,8.178871888207848e-05
5.858585858585858,5.772151898734177,-1.1634923555855291e-05,-1.8482169531823798e-05,-2.5838793420507435e-05,9.035127926303727e-06,4.759047324189495e-05
5.959595959595959,5.772151898734177,-9.164180293746501e-05,5.440181476646147e-05,-7.614820340777113e-05,1.1171996451301062e-05,0.00018368153018329293
6.0606060606060606,5.772151898734177,-8.740726613352707e-05,-4.628782825871587e-06,6.842723245711668e-05,2.7610814687819595e-05,0.00014595795619380225
6.161616161616162,5.772151898734177,2.3554375215175087e-05,5.2702573518483875e-05,-3.185309230667988e-05,-2.2877084620097687e-05,7.1657882499292e-05
6.262626262626262,5.772151898734177,-2.445717273870653e-05,-5.086135123515242e-05,2.6197470156973168e-05,2.2595557192157688e-05,6.324577316177597e-05
6.363636363636363,5.772151898734177,-9.666399632961307e-05,-3.0707138633679185e-05,-5.517627418460196e-05,3.8211340488987676e-05,0.00012826474773679507
6.4646464646464645,5.772151898734177,2.5084373044238274e-05,3.8531419853827466e-05,6.5888903439869145e-06,-1.9084737869419725e-05,3.574353095781266e-05
6.565656565656566,5.772151898734177,6.09305313556037e-05,-9.155230479832839e-05,6.416648131363498e-06,9.186532032817406e-06,0.00013340241700613882
6.666666666666667,5.772151898734177,-0.00018209033144832415,-1.6701965976020698e-05,-9.07440342440618e-05,5.9637689227303456e-05,0.0002347296683563346
6.767676767676767,5.772151898734177,0.00011651558788073978,-5.777587676177063e-05,-2.131526734023008e-06,-1.7621913335690745e-05,0.00015381597647728972
6.8686868686868685,5.772151898734177,3.177345743827194e-05,6.572243406636777e-05,-8.355444164506707e-05,-2.924876745139191e-05,0.00015551461709916248
6.96969696969697,5.772151898734177,0.00012062855677127082,-5.926271898246122e-05,2.0152686344844832e-05,-1.840975133664288e-05,0.00016257455868570167
7.070707070707071,5.772151898734177,-0.00016549379453529407,-2.268646064268021e-05,-2.4722160323188005e-05,5.645407655339228e-05,0.00016118920157065573
7.171717171717171,5.772151898734177,7.700581004220918e-05,9.863808930361767e-05,4.595592912400241e-05,-5.269316980374805e-05,0.00011999793222733219
7.2727272727272725,5.772151898734177,7.560132305366133e-06,-3.61068745070727e-05,-3.143962599777829e-05,8.56402266051197e-06,6.781729118883611e-05
7.373737373737374,5.772151898734177,2.4355804464765e-05,-6.79449637199797e-05,-5.341734010212418e-05,1.307674777656441e-05,0.00012419667558965743
7.474747474747475,5.772151898734177,-6.683974873137834e-06,-9.006046303870001e-05,-1.5611265007157806e-05,2.9023331373551354e-05,9.102052206072589e-05
7.575757575757575,5.772151898734177,6.7981720187717964e-06,-6.884329166816764e-05,6.79945319905097e-05,1.861353589481875e-05,0.00013828735166828974
7.6767676767676765,5.772151898734177,5.1639788866810266e-05,-1.2266986000863463e-05,3.502189388420345e-05,-1.1811840859784041e-05,8.444057354483121e-05
7.777777777777778,5.772151898734177,-4.558965015483553e-05,-0.0001576883604726177,4.178388881613864e-05,6.098340318823597e-05,0.00015809098056544714
7.878787878787879,5.772151898734177,0.00013263370267648365,-1.5344483564032953e-05,-7.242083854025072e-05,-3.518676573373521e-05,0.00018867082842054854
7.979797979797979,5.772151898734177,6.707045185284925e-05,2.2335734557658584e-05,-2.5547342559379217e-05,-2.682185592315235e-05,7.387328932886973e-05
8.080808080808081,5.772151898734177,0.00018147709115320636,-0.00017557802399099373,-6.729237733037873e-05,-1.7697201486637897e-06,0.00033046899752722157
8.181818181818182,5.772151898734177,0.00013285817691922698,5.5170258614958626e-05,-1.6973577002469887e-05,-5.640853066025568e-05,0.00011928763380574148
8.282828282828282,5.772151898734177,0.00011943668771159657,-0.00013435079031811815,1.5829175252734763e-05,4.474230781956471e-06,0.0002216153401396145
8.383838383838384,5.772151898734177,-7.550722337043866e-05,2.168289563632804e-05,-2.4178917326167232e-06,1.6147298320233184e-05,8.846605331827182e-05
8.484848484848484,5.772151898734177,4.627690312536227e-05,-8.03555875725313e-05,3.8581558079462636e-05,1.022360533415071e-05,0.00012954840728543655
8.585858585858587,5.772151898734177,6.671865957199818e-05,0.00012273149487543265,5.571096352978349e-05,-5.6835046334229246e-05,0.0001436560229031025
8.686868686868687,5.772151898734177,0.00012021361754317431,-0.00011095349503215038,-1.0846260351077124e-05,-2.7780367533071775e-06,0.00020112940364439374
8.787878787878787,5.772151898734177,-0.00030768108065398265,-5.818292890509308e-05,-6.0504883259437285e-05,0.00010975920286772272,0.0003018834822608869
8.88888888888889,5.772151898734177,-3.812463873423751e-05,3.286244541805085e-05,-0.00012629716965347377,1.5786579948559974e-06,0.00022724265102394903
8.98989898989899,5.772151898734177,4.923846416245051e-05,3.5299094876261526e-05,-2.1315533877363896e-05,-2.536126771161361e-05,5.740588112344968e-05
9.09090909090909,5.772151898734177,-0.00016547937636032748,-4.574615941830887e-05,-2.899464689625438e-05,6.33676607335909e-05,0.00015629509850478927
9.191919191919192,5.772151898734177,3.2963838925346546e-05,0.00018974058713658388,-3.1086111345300405e-05,-6.681132781857912e-05,0.00018366427493494208
9.292929292929292,5.772151898734177,2.4105930727828186e-05,4.6533277613760034e-05,-2.2631331860924138e-05,-2.1191762502476463e-05,5.622495353876119e-05
9.393939393939394,5.772151898734177,-2.1904026210884045e-05,0.00015491960128796598,5.417432564009538e-05,-3.9904672523124575e-05,0.0001915145031331519
9.494949494949495,5.772151898734177,-0.00010657708593297689,-0.0002887426151193271,-2.987117843563909e-05,0.0001185959103156912,0.00025813656934117133
9.595959595959595,5.772151898734177,-7.766162908427285e-05,2.9025235887306535e-05,-4.086493376975533e-05,1.4590917959089893e-05,0.0001189023485466959
9.696969696969697,5.772151898734177,-0.0001019617671497383,-4.533781035678731e-05,8.681205445320057e-05,4.418987325195768e-05,0.00017446487939044955
9.797979797979798,5.772151898734177,-9.623317758024991e-05,9.436042889103236e-05,4.4379091035719886e-05,5.618246067652663e-07,0.00018208193233042343
9.8989898989899,5.772151898734177,-0.00017392728840081686,-5.423583182840824e-06,9.019686138506877e-05,5.38052614750973e-05,0.0002318258596441438
10.0,5.772151898734177,0.00017589427661895727,2.7941991842666892e-05,1.4448147611735272e-05,-6.115088053848724e-05,0.00016562295107023874
0.0,5.8734177215189876,5.9334142912028726e-05,3.5788717047138656e-05,-4.681588171095424e-05,-2.8536857987750212e-05,9.619282859025562e-05
0.10101010101010101,5.8734177215189876,-3.511463594883598e-05,-3.520878574083526e-05,8.34534893469514e-05,2.109702650690137e-05,0.00014876090618915483
0.20202020202020202,5.8734177215189876,0.00012716375237381363,-2.3078140397247076e-05,-5.228073938050615e-05,-3.122568359296996e-05,0.0001668464879559186
0.30303030303030304,5.8734177215189876,-4.881930557063117e-05,6.081457287931132e-06,2.1409128774336576e-05,1.2821354484810012e-05,6.397072475301669e-05
0.40404040404040403,5.8734177215189876,-7.764139170271346e-05,-0.00018448006215648956,-8.229769247960164e-05,7.86364361577609e-05,0.00021460783031838505
0.5050505050505051,5.8734177215189876,-0.00014992999336208961,-0.00011853271634132939,-6.206840076207847e-06,8.053881291102569e-05,0.00013737893932389778
0.6060606060606061,5.8734177215189876,7.289823702747238e-05,-4.617624297190232e-05,-2.3318131756313548e-05,-8.016598216671016e-06,0.00011155165121024426
0.7070707070707071,5.8734177215189876,3.795522609695642e-05,-9.423236372119925e-05,-6.9346183286967295e-06,1.6883141287272847e-05,0.00011849563293783578
0.8080808080808081,5.8734177215189876,-2.3227669530518195e-05,-0.00019094325377902072,-2.6883834950033087e-05,6.425127699286168e-05,0.00018636497992525144
0.9090909090909091,5.8734177215189876,0.00012984800688920468,-0.00014214952193062662,3.287714885526657e-05,3.6904545124265804e-06,0.00024242018136224524
1.0101010101010102,5.8734177215189876,-5.4622127710266e-05,0.00014016235666704615,1.7172759070263274e-05,-2.5662068687034046e-05,0.0001765495402722761
1.1111111111111112,5.8734177215189876,4.3782336985953114e-05,7.742905600683638e-05,6.072021559065374e-05,-3.636341789783684e-05,0.00012483172860932522
1.2121212121212122,5.8734177215189876,1.7250831285743874e-05,-4.696527589185026e-05,0.000120536471904704,8.914333381831916e-06,0.00021656555946882695
1.3131313131313131,5.8734177215189876,6.642359862012681e-05,-6.699632573585594e-05,-4.442866396873612e-05,1.7181813471873747e-07,0.00013882527763917855
1.4141414141414141,5.8734177215189876,-0.00016245705322765416,-9.756584328847158e-05,1.5322157373277168e-06,7.800686895483772e-05,0.00014166217412875043
1.5151515151515151,5.8734177215189876,-0.00014085440939666662,8.570499234413108e-05,2.621220868154884e-05,1.6544825115760662e-05,0.00020326946669400436
1.6161616161616161,5.8734177215189876,4.423297233175384e-05,-3.6016952802489077e-05,-4.0679512190587565e-05,-2.4648058587794295e-06,9.905241917014191e-05
1.7171717171717171,5.8734177215189876,0.0001254645637517469,0.00013870761525448856,3.27064308149753e-05,-7.925165370187063e-05,0.00014417836418831407
1.8181818181818181,5.8734177215189876,0.0001562105291694422,2.269302908132382e-05,-1.7312024239636112e-05,-5.3671067475229805e-05,0.00014923448482456416
1.9191919191919191,5.8734177215189876,-6.689451108097555e-05,6.609713763858593e-05,-1.1169511655526545e-05,2.392120327168883e-07,0.00011678834228993455
2.0202020202020203,5.8734177215189876,-1.4450192177058586e-05,1.6699896112399895e-05,-2.481685368659963e-05,-6.749111806023926e-07,5.076061438739929e-05
2.121212121212121,5.8734177215189876,5.037262606284609e-06,6.394333547260862e-05,4.187905494355946e-05,-2.0694179423667966e-05,9.515035744613349e-05
2.2222222222222223,5.8734177215189876,-9.745658332046655e-06,-4.571200038229717e-05,-8.3106217380552e-06,1.6637297614303146e-05,4.411655697008754e-05
2.323232323232323,5.8734177215189876,-0.00010982411071817676,-8.071591428259506e-05,7.742123322777805e-06,5.7162007500231535e-05,9.945683499517916e-05
2.4242424242424243,5.8734177215189876,6.277616198793662e-05,-2.3370329221570448e-05,5.580021871625224e-05,-1.1821749829909854e-05,0.0001236734070086602
2.525252525252525,5.8734177215189876,-0.0001283785466121035,-1.5053785802925144e-05,-3.1318725917033455e-05,4.302969972450859e-05,0.00013310774708500525
2.6262626262626263,5.8734177215189876,-8.381351356329765e-05,-5.0065445227867014e-05,-3.5106922305575716e-05,4.01636876373494e-05,9.503989146847998e-05
2.727272727272727,5.8734177215189876,3.051190450326724e-05,8.184964016470854e-05,0.0001002478038770452,-3.3708463400392735e-05,0.0001878345496805312
2.8282828282828283,5.8734177215189876,-2.405806616657955e-05,-5.5824293023510254e-05,7.144440884876526e-06,2.396470775702694e-05,5.005244060643403e-05
2.929292929292929,5.8734177215189876,-8.761714101613181e-07,6.88519192325027e-05,1.6365521108814496e-05,-2.0392724346702418e-05,7.486769253152173e-05
3.0303030303030303,5.8734177215189876,-4.115919168552389e-06,-9.816877993456809e-05,-5.985500976156272e-05,3.068540973093614e-05,0.00014141379692953558
3.131313131313131,5.8734177215189876,7.83543622942662e-06,-5.334530144512276e-05,-6.004625821402924e-05,1.3652959564708842e-05,0.00011891912517045713
3.2323232323232323,5.8734177215189876,-0.0001622686770286375,-2.5031142291540876e-05,-1.8396190844732532e-05,5.618994579605351e-05,0.0001546323730583838
3.3333333333333335,5.8734177215189876,2.452097460896273e-05,1.518659668248571e-05,9.338105636880769e-05,-1.191227138743453e-05,0.00016315509746430055
3.4343434343434343,5.8734177215189876,-0.00012175660811158654,5.607988944890982e-05,4.17414465968297e-05,1.9703015598803015e-05,0.0001732765645839055
3.5353535353535355,5.8734177215189876,-3.763688148222205e-05,0.00011244547619599068,-2.2982808301703837e-05,-2.2442578414130587e-05,0.00014098668539173854
3.6363636363636362,5.8734177215189876,-7.357791294948784e-06,-9.799730563108078e-05,-3.339765246388443e-05,3.160652907780887e-05,0.00011082768089103866
3.7373737373737375,5.8734177215189876,1.6743981097770945e-05,6.719779488185652e-05,6.804886239726046e-07,-2.518253279388824e-05,6.059814458360047e-05
3.8383838383838382,5.8734177215189876,-3.769126679989034e-05,3.4062448807748446e-05,-8.973870743446786e-06,1.088645397642569e-06,6.408065172883093e-05
3.9393939393939394,5.8734177215189876,7.102139042316947e-05,-0.00012063788397650475,3.140380647943277e-05,1.4884948066000584e-05,0.00017641996596157208
4.040404040404041,5.8734177215189876,-0.00010760014932997033,1.8332983356939165e-05,-3.7208224309954834e-05,2.6780149791909346e-05,0.0001343126130725182
4.141414141414141,5.8734177215189876,-0.00016477336561976632,-6.795154958503719e-05,-3.4461712283327834e-05,6.981747456144105e-05,0.00015535088807266134
4.242424242424242,5.8734177215189876,4.035700266954286e-05,-0.00010026037497953105,-2.4209541601976668e-05,1.7971011692996456e-05,0.00013223216095162887
4.343434343434343,5.8734177215189876,4.055486498929796e-05,0.00017473568859360247,3.6764670493571304e-06,-6.458716607487012e-05,0.00015852894030034414
4.444444444444445,5.8734177215189876,-0.00011397444321629742,5.9646135902478694e-05,5.9778716418136704e-05,1.6298492194145618e-05,0.00018457100306887482
4.545454545454545,5.8734177215189876,0.00014407706228515202,6.36224419764337e-05,-2.845662426531936e-05,-6.23098512784757e-05,0.0001344203067178647
4.646464646464646,5.8734177215189876,0.00010528680838872709,-8.95840790181539e-05,8.383905294403011e-05,-4.710818811171954e-06,0.00022277702168791103
4.747474747474747,5.8734177215189876,-9.919061647256933e-06,7.521348581823986e-05,-2.572459584852554e-05,-1.9588327251294876e-05,9.212365564901769e-05
4.848484848484849,5.8734177215189876,-4.6585172304305476e-05,0.00014701807335321628,-0.00012949502077863183,-3.0129870314673237e-05,0.00028449997481457706
4.94949494949495,5.8734177215189876,-0.000102317062656119,0.00010615939566363744,-4.48251794159008e-06,-1.1526999022555338e-06,0.00018072297871932905
5.05050505050505,5.8734177215189876,-0.00018590304383770672,-3.217103398950359e-05,-1.3410963752460432e-06,6.54222233481631e-05,0.00017210351423630534
5.151515151515151,5.8734177215189876,0.00010307782827225394,-0.00011358751420064641,-2.433937163595897e-05,3.1529057785177416e-06,0.00019238693141986732
5.252525252525253,5.8734177215189876,-4.0336573863547395e-05,6.380141847885749e-05,1.0493059330259877e-05,-7.0394533845930285e-06,9.274429202037345e-05
5.353535353535354,5.8734177215189876,1.3136993808903455e-05,-5.0707078770095794e-05,-1.7074054432544787e-06,1.12710254883577e-05,5.846941699423007e-05
5.454545454545454,5.8734177215189876,0.0001620662407043078,9.825870662766696e-05,1.2644742195534709e-05,-7.809748419959242e-05,0.0001430925893263859
5.555555555555555,5.8734177215189876,8.977729907972456e-05,-6.864434227659223e-06,4.7943891279685104e-05,-2.4873859455619602e-05,0.000124976815390298
5.656565656565657,5.8734177215189876,0.00014887902164255917,-4.257419062255098e-05,6.220132469015189e-05,-3.1891449306002455e-05,0.000204750929226583
5.757575757575758,5.8734177215189876,-0.00012324162678969126,8.600121557899665e-06,5.602996145269208e-05,3.439245156953747e-05,0.00016043822293062003
5.858585858585858,5.8734177215189876,1.9207666969010726e-05,-0.00021800645254573128,-3.414284915489082e-05,5.963963567301616e-05,0.00023575484216618192
5.959595959595959,5.8734177215189876,-0.00012558602885261917,0.00011293338415272088,2.512095858101378e-05,3.795793409969489e-06,0.00021119148377685942
6.0606060606060606,5.8734177215189876,0.00011212091232936935,3.233182280046071e-05,3.3862403833347644e-05,-4.333582053894901e-05,0.0001158937420986548
6.161616161616162,5.8734177215189876,-5.924120670069776e-06,-0.00012785479902168725,-1.0661729570245476e-05,4.013367590752711e-05,0.0001263547981408887
6.262626262626262,5.8734177215189876,-1.8772153230868612e-05,8.133211956497348e-05,-1.5319721536159888e-05,-1.876798990023146e-05,9.590708015968271e-05
6.363636363636363,5.8734177215189876,7.2743765626270344e-06,-9.801851512665402e-05,1.032263599523403e-05,2.722324156920809e-05,0.00010340812295376094
6.4646464646464645,5.8734177215189876,-7.49407232922836e-05,8.210504482530307e-05,6.372129742192768e-05,-2.1492964599058427e-06,0.0001751901055250853
6.565656565656566,5.8734177215189876,-0.00020026618686622366,-4.102393353438176e-05,-1.936036556771108e-05,7.238703612018162e-05,0.00018627472520482425
6.666666666666667,5.8734177215189876,5.536185934508473e-05,5.4805376415595086e-05,2.781675618285522e-05,-3.3050170728203944e-05,7.318301023690305e-05
6.767676767676767,5.8734177215189876,-2.5081426686033412e-05,0.00016097711512985335,7.950573822302848e-05,-4.076870653314598e-05,0.00022258421440560805
6.8686868686868685,5.8734177215189876,2.1364092026851093e-05,0.00012195467127663651,-7.341375925083665e-05,-4.2995628991046284e-05,0.00016997839743945466
6.96969696969697,5.8734177215189876,8.872206520227279e-05,-3.941526549824233e-05,-4.2910013428887946e-05,-1.4792039911209137e-05,0.00013581597667783882
7.070707070707071,5.8734177215189876,3.09135498843027e-05,8.775271299902187e-05,1.2029243072153427e-05,-3.559987886499737e-05,7.985954170308432e-05
7.171717171717171,5.8734177215189876,0.0001237558605830275,0.0001488873392721802,1.7514615083563997e-06,-8.179295995656231e-05,0.00013808140669509036
7.2727272727272725,5.8734177215189876,1.3238662610114617e-05,-4.3711957575189026e-05,-2.5056051271883516e-06,9.141988489522323e-06,5.180269734565297e-05
7.373737373737374,5.8734177215189876,2.622705851746685e-05,-5.776929776175666e-05,8.630295648493004e-05,9.462671773286943e-06,0.00016698763430085138
7.474747474747475,5.8734177215189876,-0.00011403047377256732,7.099310873442839e-05,-4.7067630023020396e-05,1.2911209511441679e-05,0.00018106472226278808
7.575757575757575,5.8734177215189876,3.6693564640075604e-05,2.971437386227107e-05,-5.1732345983845074e-05,-1.9922381550704002e-05,9.574832773967576e-05
7.6767676767676765,5.8734177215189876,2.6858795228511174e-05,-8.913932195384882e-05,-2.6984847076338554e-05,1.8684158017601292e-05,0.00011509098274793685
7.777777777777778,5.8734177215189876,5.144443051107997e-05,-5.276619213180053e-05,-3.0206681509606054e-05,3.9652848621616845e-07,0.00010431997886611394
7.878787878787879,5.8734177215189876,4.966917741576222e-06,-0.00010817880905168756,-8.38656840359529e-05,3.0963567393033404e-05,0.0001826608855833381
7.979797979797979,5.8734177215189876,0.000172252114787651,0.0002445961289492619,6.329354613432775e-05,-0.00012505447312107385,0.0002436884810822488
8.080808080808081,5.8734177215189876,4.8270595919729114e-05,-3.215502578572145e-05,4.0670729045156786e-05,-4.834671040202299e-06,9.939045715465289e-05
8.181818181818182,5.8734177215189876,-6.292116078279348e-05,5.340999323218636e-05,0.00015618658638527616,2.853350265182136e-06,0.0002887127775539951
8.282828282828282,5.8734177215189876,-7.010914933170822e-05,3.088147174428883e-05,-1.665611193487164e-05,1.1768303276225815e-05,9.416108551611578e-05
8.383838383838384,5.8734177215189876,0.0002877130815647403,-8.208732952933402e-05,-2.6532230936340823e-05,-6.168772561062187e-05,0.0003394799306946131
8.484848484848484,5.8734177215189876,1.7948797162919257e-05,-5.1619819467833375e-05,-1.7281861186293934e-06,1.0101306691474234e-05,6.262777844123046e-05
8.585858585858587,5.8734177215189876,0.00010837812310648243,-1.360414005350787e-05,7.727082952989727e-05,-2.8432194915892368e-05,0.0001769678633223319
8.686868686868687,5.8734177215189876,-5.5761434729026706e-05,0.00013155158127898113,-2.3160099548796224e-05,-2.2737043964986324e-05,0.00017134710877735434
8.787878787878787,5.8734177215189876,0.0002485684683965624,-8.434832123436601e-05,3.256186509976505e-05,-4.92660441486589e-05,0.0003050378353146411
8.88888888888889,5.8734177215189876,-1.9520941169681855e-05,-0.0003016290238482451,6.258126437904951e-05,9.634498950537809e-05,0.00031180490165490774
8.98989898989899,5.8734177215189876,8.380436205853181e-05,-4.1770775957724875e-05,2.3286278190852136e-05,-1.261007583024208e-05,0.00011787830297353364
9.09090909090909,5.8734177215189876,0.00021756888241668891,5.681021901629592e-05,1.5212259409551815e-05,-8.231373042989545e-05,0.00019722505476874426
9.191919191919192,5.8734177215189876,0.0001471940094719906,-9.559244439413744e-06,-6.16458075248515e-06,-4.129042950977305e-05,0.00015257301616870128
9.292929292929292,5.8734177215189876,1.063888169363098e-05,5.064411059259313e-05,4.734429280792034e-05,-1.8384897685867232e-05,9.414701920283197e-05
9.393939393939394,5.8734177215189876,0.00011679964914044183,7.981576816163874e-05,-1.0988476048661691e-05,-5.898462519062417e-05,0.00010513087551725497
9.494949494949495,5.8734177215189876,7.558426319694617e-06,7.00783221175268e-05,2.6922689622678564e-05,-2.3291024531166426e-05,8.131981833761188e-05
9.595959595959595,5.8734177215189876,-4.561919567936914e-05,0.0001747442213239675,4.836056767991975e-05,-3.87375076933795e-05,0.0002181847342183721
9.696969696969697,5.8734177215189876,5.7897999495285715e-05,5.5025317499651505e-05,-0.00010266535146316239,-3.387699509848117e-05,0.0001865867928869425
9.797979797979798,5.8734177215189876,-9.115161655243845e-05,0.0001914733087687938,-4.588319974087941e-05,-3.00965076649066e-05,0.0002621822855329793
9.8989898989899,5.8734177215189876,-7.623131857718286e-05,0.00016502275642477657,1.555282149649956e-05,-2.663743135427811e-05,0.0002152888690969763
10.0,5.8734177215189876,0.00017558757384053637,-5.9539260705959154e-05,-1.2988528889306779e-05,-3.4814493940373164e-05,0.0002129234126073542
0.0,5.974683544303797,4.5609025455227264e-05,1.5395429874568776e-05,-6.278233135752601e-05,-1.8301336598938812e-05,0.00011593056241998286
0.10101010101010101,5.974683544303797,-0.00011411707087806887,-0.00013711548536427315,1.5033062564178152e-05,7.53697668727026e-05,0.00012982343217173974
0.20202020202020202,5.974683544303797,-0.00013206588273290376,-0.00011972883646321526,9.754838037088287e-05,7.55384157588357e-05,0.0002109771474015747
0.30303030303030304,5.974683544303797,-4.191030522730035e-06,-7.702192948387141e-06,-9.099470841091094e-05,3.567967041335153e-06,0.0001577489120839764
0.40404040404040403,5.974683544303797,-0.000202484215468954,-2.7602805449403223e-05,-1.6318148331655724e-05,6.902610627550717e-05,0.0001922797073835733
0.5050505050505051,5.974683544303797,3.973358022584692e-05,-9.618891848998044e-05,-6.158718490493959e-05,1.6936601479240053e-05,0.0001613441650046281
0.6060606060606061,5.974683544303797,-1.797703950201568e-06,-3.4355720767954204e-05,-4.869628204674534e-05,1.0846027415446731e-05,9.07511406516202e-05
0.7070707070707071,5.974683544303797,0.00011534397888103123,1.5413815067990612e-05,-1.798788475783299e-07,-3.922733818470655e-05,0.00010846209231145682
0.8080808080808081,5.974683544303797,-8.705580817187812e-07,4.908218482461998e-05,-2.762284298456259e-05,-1.4463488022870359e-05,6.885936388646562e-05
0.9090909090909091,5.974683544303797,-5.4233295874404255e-05,-6.125461482615171e-06,-1.8247993642294943e-05,1.8107627207105827e-05,6.0378270186627984e-05
1.0101010101010102,5.974683544303797,-9.323061352337586e-05,-0.00016123970225379933,-2.1300522916946248e-05,7.634109473315256e-05,0.00014497878929345777
1.1111111111111112,5.974683544303797,0.00020512369625855703,4.0530229707794784e-05,3.9148251314342795e-05,-7.369617778990554e-05,0.00020000619115912626
1.2121212121212122,5.974683544303797,-7.968274901882929e-05,-8.905145632563566e-05,-1.9547769838764216e-05,5.0620261603339475e-05,9.126874293954843e-05
1.3131313131313131,5.974683544303797,0.00010467653707096104,6.815828899290447e-05,2.34077435567585e-05,-5.185044781915965e-05,0.0001005580602557867
1.4141414141414141,5.974683544303797,8.915714735087259e-06,5.9641344265143154e-05,5.010969598381258e-05,-2.0567117700069124e-05,0.00010313961216659675
1.5151515151515151,5.974683544303797,7.888011247626881e-05,0.0001996210055320972,-9.236826154051335e-05,-8.35503354025098e-05,0.00023647447609618827
1.6161616161616161,5.974683544303797,-2.7779889117519663e-05,-0.00012090902955050633,-9.069030937425825e-05,4.46066756004078e-05,0.00019158829002630342
1.7171717171717171,5.974683544303797,8.22018070958207e-05,-0.00012572704580665086,5.98422953717624e-05,1.3057571613249046e-05,0.00020890839726850545
1.8181818181818181,5.974683544303797,-0.00011732546344650095,-0.00011990126394923881,4.573588362800001e-05,7.116801821872193e-05,0.00014265139067880643
1.9191919191919191,5.974683544303797,4.708610397594577e-05,-9.078100588978463e-05,-6.553598324705718e-05,1.3108470574151657e-05,0.00016618577376188885
2.0202020202020203,5.974683544303797,-0.0001709653887494295,-0.00010056879314199829,-3.3172247818359578e-06,8.146025456742833e-05,0.00014893782403895453
2.121212121212121,5.974683544303797,0.00013327625619732195,-8.313734264375237e-05,9.429381344737077e-05,-1.5041674066070871e-05,0.0002498571226700069
2.2222222222222223,5.974683544303797,2.319458350418843e-05,-9.693673217007065e-05,1.4087176083753758e-05,2.2122644599764664e-05,0.00011304190137612992
2.323232323232323,5.974683544303797,-9.230234860922292e-05,-7.78167996535884e-05,-2.8544603746840197e-06,5.103574447884339e-05,8.612170649678037e-05
2.4242424242424243,5.974683544303797,-0.00011033091387603749,0.00020480023594988476,-5.430490610931323e-05,-2.8340796622154177e-05,0.0002925045518942448
2.525252525252525,5.974683544303797,-6.572690632718066e-05,0.00013645907183682,-3.6965043333539274e-05,-2.1219649652891803e-05,0.00018976137757713602
2.6262626262626263,5.974683544303797,4.085774565733064e-05,0.00010354313592121372,9.612545710352625e-05,-4.332026447356331e-05,0.00018942098029165694
2.727272727272727,5.974683544303797,0.00011752091303578718,-8.824930356614949e-05,-3.5514562653647854e-05,-8.781482840891307e-06,0.000189087534734528
2.8282828282828283,5.974683544303797,4.406232983794357e-05,3.1159406598846156e-05,-6.606930583443763e-05,-2.2566520931036918e-05,0.00012097479489364864
2.929292929292929,5.974683544303797,3.758988624149733e-05,-7.166281355434197e-06,-3.7303664860946705e-05,-9.127081465818941e-06,7.686628046948011e-05
3.0303030303030303,5.974683544303797,-4.5735140402380804e-05,0.00016853145369331033,1.8061675627698775e-05,-3.6838893987278854e-05,0.0001979420016770756
3.131313131313131,5.974683544303797,-1.2956617004923058e-05,0.0001818534536996519,-2.4621108569857975e-05,-5.0669051008418645e-05,0.0001934253216591323
3.2323232323232323,5.974683544303797,6.686400997937462e-05,8.005645493329997e-05,-1.3789899025589725e-05,-4.4076139473802377e-05,7.80859792206242e-05
3.3333333333333335,5.974683544303797,-3.0507506086767303e-05,0.00020677877650612634,-5.951727335885784e-05,-5.288138112580771e-05,0.0002462181809048606
3.4343434343434343,5.974683544303797,9.024803895863942e-05,-0.00016665270269071385,6.333467964111018e-05,2.2921399119622327e-05,0.00025098158576023025
3.5353535353535355,5.974683544303797,4.000251021678406e-05,0.00021078101240558548,-1.2393386241597074e-05,-7.523505678671087e-05,0.00019508422406670713
3.6363636363636362,5.974683544303797,-6.951535405026988e-05,3.873709813011881e-05,2.9826702828373722e-05,9.233476776045322e-06,0.00010814188326688431
3.7373737373737375,5.974683544303797,-9.440921262458844e-05,-3.705755492295174e-05,8.194057720016686e-05,3.944003026426205e-05,0.00016410533750881942
3.8383838383838382,5.974683544303797,-6.571182035569847e-06,6.0976810144371754e-05,-6.624913510483545e-05,-1.632168843264057e-05,0.00013163922376917384
3.9393939393939394,5.974683544303797,0.00012503521240857238,4.964351801303625e-05,7.007094143999467e-05,-5.240361912648259e-05,0.00016315914288252492
4.040404040404041,5.974683544303797,-2.3657764712006403e-06,-8.191198410942982e-05,-5.678026491669446e-05,2.528332817418914e-05,0.00012725321232239968
4.141414141414141,5.974683544303797,-5.049108174880813e-05,0.00010743176999011455,-5.83456702362866e-05,-1.7082206472391925e-05,0.0001724179008291431
4.242424242424242,5.974683544303797,3.4323168896872335e-05,0.00021127398782575516,4.431353301697764e-05,-7.367914701678825e-05,0.0002108417717450736
4.343434343434343,5.974683544303797,2.9610227445939882e-05,7.71930654307255e-05,2.8498177492237332e-05,-3.204098786299961e-05,8.358390429069849e-05
4.444444444444445,5.974683544303797,4.597741415304453e-05,-4.292295442875231e-05,-1.1460947027546126e-05,-9.163379172876656e-07,7.952263201027104e-05
4.545454545454545,5.974683544303797,-2.135677086785961e-05,-3.542862569789876e-05,-7.26352492547186e-05,1.7035618969727512e-05,0.00012954650301122056
4.646464646464646,5.974683544303797,6.371487175769874e-05,-4.198960867128986e-05,3.122616476707967e-05,-6.5175789259226634e-06,0.00010687981450815522
4.747474747474747,5.974683544303797,6.796714945229256e-06,-6.1291775017152864e-06,-5.997969102231642e-05,-2.0026123305419094e-07,0.00010448976231487821
4.848484848484849,5.974683544303797,-0.0001413572598685102,-0.00013532449641632702,8.053437767807197e-06,8.300452688545117e-05,0.00013914046076180658
4.94949494949495,5.974683544303797,4.9022466838964654e-05,-1.3433641811593741e-05,2.2266604560236782e-05,-1.0676647508211273e-05,6.877223482962325e-05
5.05050505050505,5.974683544303797,-6.544579557498223e-05,0.00021434951356498662,-3.02226873143575e-05,-4.467111539700132e-05,0.00025883850767585573
5.151515151515151,5.974683544303797,2.7001635870994013e-05,7.841820748255962e-05,-4.042757210878162e-05,-3.162595300606609e-05,9.830691471213814e-05
5.252525252525253,5.974683544303797,4.442629457376919e-05,-5.447059158003913e-05,0.00015462653796475184,3.0132891018809822e-06,0.0002812272502313237
5.353535353535354,5.974683544303797,-9.075795105831179e-07,6.0294808791711036e-05,3.3799424941110145e-05,-1.7816168784338374e-05,8.436950503529178e-05
5.454545454545454,5.974683544303797,-4.318927519893537e-05,6.160085158777947e-05,-8.948180539673241e-06,-5.523472916653228e-06,9.25239663285905e-05
5.555555555555555,5.974683544303797,8.21028267840925e-06,3.2985773114501736e-05,9.799388759336348e-06,-1.2358816737873295e-05,3.4245167661360105e-05
5.656565656565657,5.974683544303797,-2.1855059027057022e-05,-0.0001726807608954155,-1.4189155919645158e-05,5.8360745976741754e-05,0.0001647007498569007
5.757575757575758,5.974683544303797,5.92971707388143e-05,-8.48359036812943e-05,-2.3446083275445932e-05,7.661619882744e-06,0.0001318824117890581
5.858585858585858,5.974683544303797,4.245239986381877e-05,-0.00015876915669223008,-6.0878405368658625e-06,3.489502704852339e-05,0.00018401404431212917
5.959595959595959,5.974683544303797,-6.247143290629293e-05,-8.452092628360988e-05,3.566370760547086e-05,4.409770775697084e-05,9.788781157123787e-05
6.0606060606060606,5.974683544303797,5.249151453065427e-05,7.972205000753068e-05,2.992988485226207e-05,-3.966406936145548e-05,8.72561013944026e-05
6.161616161616162,5.974683544303797,3.404325907904921e-05,5.8929534922122254e-05,6.669500258847537e-05,-2.7891838200351434e-05,0.00012637305987009027
6.262626262626262,5.974683544303797,0.00010644613622868776,-5.6974832676631155e-06,1.9545515685170696e-05,-3.022459588830739e-05,0.00011452422391734315
6.363636363636363,5.974683544303797,-4.468720263138176e-05,-7.662608514674283e-05,-7.668553975257672e-06,3.639398633343737e-05,6.797586167417347e-05
6.4646464646464645,5.974683544303797,3.134338647908775e-05,-0.00019351129469686776,2.4110051200277543e-05,4.8650372465334e-05,0.0002150307235155666
6.565656565656566,5.974683544303797,5.436968837083527e-05,-8.877104496593555e-05,-1.336272486153122e-05,1.0320406978530084e-05,0.00012727333867001433
6.666666666666667,5.974683544303797,-0.00016798179999084477,0.00013164625312257563,-5.399197594112914e-05,1.0900664060480743e-05,0.00027642032495647
6.767676767676767,5.974683544303797,9.482946749767341e-05,-5.112703237345563e-05,-3.044277417012261e-05,-1.3110730537265335e-05,0.00013869116084826402
6.8686868686868685,5.974683544303797,1.2470474658073369e-05,-1.3127609086438304e-05,-3.7104197675372696e-05,1.9714032850948045e-07,6.798322462458594e-05
6.96969696969697,5.974683544303797,9.620376774181501e-05,-5.421371201249389e-05,1.2138220691854031e-05,-1.2597016718796337e-05,0.000133610868051438
7.070707070707071,5.974683544303797,3.688666884502923e-05,8.177269187483714e-05,6.5881647077551e-06,-3.559780821595991e-05,7.184211168831068e-05
7.171717171717171,5.974683544303797,-2.556241818724306e-05,3.1193593487702876e-06,-4.2856452728369765e-05,6.732917651541831e-06,7.907548682020734e-05
7.2727272727272725,5.974683544303797,7.942195215502954e-05,-8.736933055438723e-05,7.60446948532943e-05,2.3842135198073067e-06,0.00019552154879382737
7.373737373737374,5.974683544303797,-5.5343518568453825e-05,-0.0001354644592478206,-0.00010241595287258483,5.724239334488232e-05,0.00021303409858398838
7.474747474747475,5.974683544303797,8.436902975809523e-05,0.00027106130946541213,-2.2403885060426812e-05,-0.00010662910176705221,0.0002433700663275439
7.575757575757575,5.974683544303797,-2.2111176133150256e-05,9.891159230785935e-06,-4.124900255401258e-05,3.666005070709296e-06,7.687577602818529e-05
7.6767676767676765,5.974683544303797,0.0001643896556456978,-4.5861052216881786e-05,-6.439914688837656e-06,-3.55585810286448e-05,0.0001918090067719234
7.777777777777778,5.974683544303797,0.00015721712341190168,-9.770966187632942e-05,-5.146236558638687e-05,-1.7852238460671678e-05,0.00023993990727448115
7.878787878787879,5.974683544303797,0.00012943266117984223,7.04484938991274e-05,-5.035684107710056e-05,-5.996434652369089e-05,0.00014214394943531144
7.979797979797979,5.974683544303797,3.0429415915681686e-05,-3.650385020102286e-05,-5.207628065307004e-05,1.8223302856023513e-06,0.00010726177461113942
8.080808080808081,5.974683544303797,7.374682372931436e-06,0.0002157271189769833,-0.00010357569643304927,-6.693054040497442e-05,0.00027782266195417143
8.181818181818182,5.974683544303797,-0.00019062279427790513,0.00010233585825962326,1.0210148315623726e-05,2.648608080548456e-05,0.00025812780986598165
8.282828282828282,5.974683544303797,0.00015224734773629388,-0.00010657648581287176,-1.0563707972007308e-05,-1.3701258577026637e-05,0.00022604991770707478
8.383838383838384,5.974683544303797,8.997366411527894e-05,-4.336290075407786e-06,-1.1918415515901004e-05,-2.5691212211961347e-05,9.450058961682346e-05
8.484848484848484,5.974683544303797,-0.00013187846918122066,2.7996579988938486e-05,4.5762824070712866e-05,3.116456675768465e-05,0.00016778138584685445
8.585858585858587,5.974683544303797,2.2242563490369394e-05,4.7154601501426375e-05,5.506521909062142e-05,-2.081914949753873e-05,0.00010375925942351992
8.686868686868687,5.974683544303797,-4.301523792477898e-06,-0.00016866899589953953,2.3597226673480053e-05,5.189115590760523e-05,0.0001715012737731697
8.787878787878787,5.974683544303797,-0.0001397563675982275,9.397273777943516e-05,1.2658012316890963e-05,1.3735088945637696e-05,0.00020488211743041813
8.88888888888889,5.974683544303797,3.5171840935630524e-05,-2.58723254082385e-05,-1.117340668166923e-05,-2.789854658217607e-06,5.648847653589559e-05
8.98989898989899,5.974683544303797,-4.1937297162648e-05,-1.1485664944982911e-05,-2.2834126861496248e-05,1.6026888632289273e-05,5.4526797973189383e-05
9.09090909090909,5.974683544303797,8.815694314338025e-05,-8.726103605523882e-05,-2.3068102448368995e-05,-2.687721264424281e-07,0.00015708345961201118
9.191919191919192,5.974683544303797,3.224885751604463e-05,5.125916014619244e-05,0.00010526427630127491,-2.505240529867112e-05,0.0001877661965150541
9.292929292929292,5.974683544303797,9.507873696005021e-05,5.4772365887057783e-05,-3.897749462464735e-06,-4.49553308541324e-05,8.293291427741694e-05
9.393939393939394,5.974683544303797,-5.710592624786969e-06,-4.545210596819596e-05,-1.6314435275156135e-05,1.5348809577894878e-05,5.1355902669402535e-05
9.494949494949495,5.974683544303797,-0.00015171246739304294,6.102575130912074e-05,2.5778138448388915e-05,2.720601482517666e-05,0.00019491721231471997
9.595959595959595,5.974683544303797,-0.00013355559439128306,7.816053812435734e-05,-2.1049038149866747e-05,1.6618516880077716e-05,0.00018898182362688418
9.696969696969697,5.974683544303797,-0.0002054523711669865,8.139926566005924e-05,9.082121520437377e-05,3.721593165207817e-05,0.0003005090161756253
9.797979797979798,5.974683544303797,-4.724468124319479e-05,-1.3581726671014744e-05,-1.5223958332625002e-05,1.824792237426286e-05,4.970076035407761e-05
9.8989898989899,5.974683544303797,-6.806627655650308e-05,-4.3860561540193336e-05,-4.9821859582385566e-05,3.357805142900892e-05,0.00010496663673715549
10.0,5.974683544303797,1.5960045536094477e-05,0.00010231869991011835,5.519436452434864e-05,-3.548362363386385e-05,0.00013501882061694813
0.0,6.075949367088607,5.796317116508338e-05,1.0089030437897412e-05,9.405464261347432e-06,-2.0415660480894237e-05,5.605456112077269e-05
0.10101010101010101,6.075949367088607,9.521587943845811e-05,-1.8684327549214968e-05,-8.647334351637585e-06,-2.2959465566772944e-05,0.00010685757645898157
0.20202020202020202,6.075949367088607,0.00015429440376961594,0.0002074879494470388,1.9206852464128183e-05,-0.00010853470596499642,0.0001896061504692912
0.30303030303030304,6.075949367088607,2.595227610546747e-05,3.273818661633649e-05,-4.303425121982767e-05,-1.7607138816541188e-05,8.032135067262456e-05
0.40404040404040403,6.075949367088607,-0.00030411595450811397,5.8366862854676974e-05,3.883794373046068e-05,7.37247274960311e-05,0.0003437566818175372
0.5050505050505051,6.075949367088607,-8.355508562415602e-05,-5.8347301655893606e-05,1.847729509730094e-05,4.2570716184014885e-05,8.083858893329017e-05
0.6060606060606061,6.075949367088607,-2.486068642060948e-05,-1.0771629447184629e-05,-1.835440412521232e-05,1.0689694760338231e-05,3.8431030180060286e-05
0.7070707070707071,6.075949367088607,8.082869472227041e-05,1.6480966643935887e-05,7.822625633005306e-05,-2.919289840986189e-05,0.0001543722989032663
0.8080808080808081,6.075949367088607,1.5952292915046997e-05,-2.805830775273095e-06,3.0118924057162706e-05,-3.94393864193217e-06,5.503232258470963e-05
0.9090909090909091,6.075949367088607,-0.00016996604707257229,-9.776571200841381e-05,-4.795129999861506e-05,8.031952772429584e-05,0.00016949254115551489
1.0101010101010102,6.075949367088607,-5.245245693626545e-05,-1.2419459069736617e-05,1.4323900798904244e-05,1.946157480180062e-05,5.3568595860813096e-05
1.1111111111111112,6.075949367088607,0.00011735660518567533,-0.00014723885618151886,1.0975905282783267e-05,8.96467529875306e-06,0.00023041856989740062
1.2121212121212122,6.075949367088607,-7.590522935777003e-05,0.0001399041878401253,2.5865519004021872e-05,-1.9199687544706586e-05,0.00019483665031307698
1.3131313131313131,6.075949367088607,0.00011805070164933372,-5.6303700360017654e-05,-5.3436306154690646e-06,-1.852410038679482e-05,0.00015439698614787894
1.4141414141414141,6.075949367088607,2.288500051710653e-05,-3.47795451713349e-05,-5.25026040182989e-05,3.568363396268511e-06,0.00010391746824442225
1.5151515151515151,6.075949367088607,-0.00013820635447721018,4.4092918439747504e-05,-2.309304990905252e-07,2.8234030811238802e-05,0.0001647399871825878
1.6161616161616161,6.075949367088607,0.00011741262012849538,-5.224895411010932e-05,-4.066331914058581e-05,-1.9549099805515817e-05,0.00016616521820967084
1.7171717171717171,6.075949367088607,0.00010513215851915396,-8.231208116398173e-05,-6.549283355773492e-06,-6.846023206551671e-06,0.0001631268695305536
1.8181818181818181,6.075949367088607,-0.00012692944446025947,-8.82358107650246e-05,3.152681471373721e-05,6.454957656758521e-05,0.00012521477496058172
1.9191919191919191,6.075949367088607,2.2612161430126444e-05,-1.507825861328671e-05,-7.937351774492484e-05,-2.26017084505192e-06,0.0001413509168799827
2.0202020202020203,6.075949367088607,5.6307640994087806e-05,-1.4186846599022305e-05,5.683194589469499e-05,-1.263623831851965e-05,0.00011772958480522994
2.121212121212121,6.075949367088607,3.164930112752961e-05,-2.5906663062795054e-05,5.476901089992805e-05,-1.7227914194203667e-06,0.00010719932321737577
2.2222222222222223,6.075949367088607,-4.345771896011844e-05,-6.083058681212533e-05,2.1571776932222997e-06,3.128649173167313e-05,5.439977325379337e-05
2.323232323232323,6.075949367088607,-3.0498488622194594e-05,4.677263181633279e-05,-1.2230051685627017e-05,-4.882242958241459e-06,7.066154518013463e-05
2.4242424242424243,6.075949367088607,-1.7447749390616392e-05,-8.044482811474326e-05,-1.7141791674860187e-05,2.936777325160789e-05,7.908056773926201e-05
2.525252525252525,6.075949367088607,-0.00017096433212453505,0.00011202180522004031,6.09453012107671e-05,1.7682758071348422e-05,0.00026846305152736997
2.6262626262626263,6.075949367088607,-0.0002357897221810866,-7.237079809233987e-05,-6.19060410086582e-05,9.244815608202794e-05,0.00023508957626112837
2.727272727272727,6.075949367088607,9.28409028797172e-05,-4.3193896472633904e-05,-6.411857806172231e-05,-1.4894101922124988e-05,0.00016379524549080658
2.8282828282828283,6.075949367088607,-4.526539359705173e-05,-6.770745696469454e-07,4.122404081609133e-05,1.3782740450009601e-05,8.436249678737314e-05
2.929292929292929,6.075949367088607,4.5041023452773345e-05,-7.045889454213403e-05,-4.92016940687092e-05,7.625361326808206e-06,0.0001320193562815474
3.0303030303030303,6.075949367088607,3.4506763744121e-05,-0.00012559973886126094,-8.319980546233694e-05,2.7327892535141983e-05,0.00020510162005267166
3.131313131313131,6.075949367088607,0.0001957166170334482,-0.00010502993639358985,0.00010596450028694969,-2.7206004191957504e-05,0.00032183506882134443
3.2323232323232323,6.075949367088607,0.0001073868521304173,-3.558506022034513e-05,3.921179996166319e-05,-2.154053757302165e-05,0.00014571306012159778
3.3333333333333335,6.075949367088607,8.402735466259005e-05,-3.632691450963041e-05,-6.257146541351983e-06,-1.4310132045887893e-05,0.00010747162987133326
3.4343434343434343,6.075949367088607,3.308232670599872e-06,5.248474287104784e-05,-1.4830778285864828e-05,-1.6737892662494313e-05,5.702470385948739e-05
3.5353535353535355,6.075949367088607,-5.100478650826223e-05,-0.0001570290936308882,1.3372807143884671e-05,6.241016404174512e-05,0.00014066586298667094
3.6363636363636362,6.075949367088607,0.0001752861340203009,-7.161482147948827e-05,-1.6818840390297205e-05,-3.110139376224379e-05,0.0002219360646835891
3.7373737373737375,6.075949367088607,9.210894861433532e-05,0.00018630767572803446,6.069065814000837e-05,-8.352498730271092e-05,0.00019257225209342343
3.8383838383838382,6.075949367088607,-3.3685416235942056e-05,-0.00023631632047864382,4.9275561394195476e-06,8.100052101437577e-05,0.00022156836281700003
3.9393939393939394,6.075949367088607,0.00014990708123881647,-0.00020735053810044533,7.47332773287868e-05,1.723303705848866e-05,0.0003366079037053723
4.040404040404041,6.075949367088607,0.00010719900355308963,-9.784060880770687e-05,-2.7094219461352982e-05,-2.807518423614827e-06,0.00018372565702838497
4.141414141414141,6.075949367088607,4.076811749015025e-05,-4.287607655008587e-05,5.8333913870859004e-05,6.323877179806858e-07,0.00012432582512418122
4.242424242424242,6.075949367088607,4.202416058571713e-05,-5.470722649266051e-05,-8.012285325894712e-06,3.8049197720830147e-06,8.515002127545714e-05
4.343434343434343,6.075949367088607,4.294502703139421e-05,0.00012149580695101263,-6.979319579452571e-05,-4.933225019472205e-05,0.00016124867837390676
4.444444444444445,6.075949367088607,-1.8114635596738753e-05,-3.1949767677205586e-05,9.990511714083521e-05,1.50193209821833e-05,0.00017525200875119525
4.545454545454545,6.075949367088607,6.368421926798208e-05,8.416475339546814e-05,-1.6942472909620485e-05,-4.4354691799035066e-05,8.148963770259028e-05
4.646464646464646,6.075949367088607,0.000118438812005861,1.555777293614848e-05,-1.9907599736351023e-05,-4.019897548260285e-05,0.00011668800249325706
4.747474747474747,6.075949367088607,-8.73280344124888e-05,-9.556278279237296e-06,-3.9271534036032366e-05,2.906529380751783e-05,0.00010728344330372811
4.848484848484849,6.075949367088607,6.873249981204218e-05,-1.1795843571175976e-05,7.043289136839413e-06,-1.7080996872259862e-05,7.630779801306105e-05
4.94949494949495,6.075949367088607,0.00013243019755530234,7.494235711250927e-05,5.253073489954392e-05,-6.221176640034349e-05,0.00014665577821451202
5.05050505050505,6.075949367088607,5.249604149870119e-06,-0.00012479646940908337,6.618634283718081e-05,3.5864059577763974e-05,0.00017146062264812928
5.151515151515151,6.075949367088607,-0.0002831510335805004,0.0001187765871575387,3.6346946976513093e-06,4.931233392688851e-05,0.00035770620893402856
5.252525252525253,6.075949367088607,-4.492002008869462e-05,-2.6317611272096988e-05,1.8945458270003714e-05,2.137128940823748e-05,5.103947891573971e-05
5.353535353535354,6.075949367088607,0.00015522208145618053,3.0400891028424926e-05,5.4493432292150015e-05,-5.5686891745381634e-05,0.00017090295975287872
5.454545454545454,6.075949367088607,-7.119038687972315e-07,0.00012624164346175634,-5.993442374380619e-05,-3.765892187788774e-05,0.00016371846784628093
5.555555555555555,6.075949367088607,0.00013177129094035737,2.7579544740453627e-05,-3.2374013133198695e-07,-4.78052507042433e-05,0.00012037618789943456
5.656565656565657,6.075949367088607,-4.8080831931768375e-05,2.1652626084767765e-05,4.391398515890992e-05,7.928461754100182e-06,9.80152700801857e-05
5.757575757575758,6.075949367088607,0.00018955571799734354,-0.00010706392273789052,-6.43265134488019e-05,-2.4747538577835906e-05,0.0002830235564774477
5.858585858585858,6.075949367088607,-0.0002453732039865145,-9.963475456281795e-05,7.619845536589841e-05,0.00010350238756479974,0.00025120909298104323
5.959595959595959,6.075949367088607,-2.274693921194305e-05,5.7217318420084595e-05,-1.540060851094913e-05,-1.0341113762442463e-05,7.618595580677448e-05
6.0606060606060606,6.075949367088607,2.0227318379855813e-05,0.00016666156858807237,1.1363756339674167e-05,-5.606666609037845e-05,0.00015874983816685338
6.161616161616162,6.075949367088607,-0.00018962623729210453,0.0001107194238304454,2.1018380977732947e-05,2.367204403849774e-05,0.0002655890160300306
6.262626262626262,6.075949367088607,0.00016959469880917677,-0.00015231821598714153,-3.8558872867785e-05,-5.182944846610573e-06,0.0002868029337013018
6.363636363636363,6.075949367088607,-6.904845925225002e-05,0.00010834640401749141,1.9572879247662757e-05,-1.1789383429572418e-05,0.00015854676930701376
6.4646464646464645,6.075949367088607,5.087615902494326e-05,3.427046789198793e-06,6.399725682481667e-05,-1.6290961744242613e-05,0.00012129600105814742
6.565656565656566,6.075949367088607,0.00010342380054354641,8.754285070917026e-05,7.136901535592745e-05,-5.7289995375815e-05,0.00015680187485175197
6.666666666666667,6.075949367088607,-6.976247206258688e-05,-1.4620745518001644e-05,-2.6755866492490806e-06,2.5314965274176557e-05,6.389104513783225e-05
6.767676767676767,6.075949367088607,-4.9427748938278154e-05,6.623643108657179e-05,7.614808511989613e-05,-5.04260464448809e-06,0.0001658308700356695
6.8686868686868685,6.075949367088607,-2.2391453411857237e-05,5.120468965136251e-05,-1.8436723130440708e-05,-8.643970871851582e-06,7.272952035006417e-05
6.96969696969697,6.075949367088607,-3.806986801361264e-05,-0.00013343410276150968,-6.0861802425560973e-05,5.1451191232536695e-05,0.000159017712639698
7.070707070707071,6.075949367088607,-0.00023961475395126253,-7.148309178008816e-05,2.8811094706314784e-05,9.332935371940521e-05,0.0002188307492276439
7.171717171717171,6.075949367088607,3.6184378768238167e-05,-2.714067906289938e-05,2.332271168160299e-05,-2.7131099116016356e-06,6.826302790403686e-05
7.2727272727272725,6.075949367088607,1.0447000430852751e-05,-1.9434543331055583e-05,-7.609852617355776e-05,2.6962628700608493e-06,0.00013439803210019426
7.373737373737374,6.075949367088607,3.0113735035777833e-05,-7.929287297578716e-05,-4.2906646254821364e-05,1.4753741382002795e-05,0.00012290216510740126
7.474747474747475,6.075949367088607,0.0001008032556454759,-7.618727893401165e-05,-2.5832311714230873e-05,-7.384793013439275e-06,0.00016014883253061195
7.575757575757575,6.075949367088607,-6.332990373804798e-05,-2.1138445959810857e-06,5.155760024748395e-05,1.963312450020872e-05,0.00010888449798526775
7.6767676767676765,6.075949367088607,-2.858399771976779e-05,-6.709158112613768e-06,2.8585468263082543e-05,1.0587946749714467e-05,5.587190846472246e-05
7.777777777777778,6.075949367088607,3.276513758801787e-05,-0.00018123278303963395,-1.2360589202545739e-05,4.454029363548483e-05,0.0002007868159454401
7.878787878787879,6.075949367088607,8.064121709765333e-05,3.475210550762496e-05,-1.4782474802828863e-05,-3.4617996781583486e-05,7.459106736903437e-05
7.979797979797979,6.075949367088607,-3.663538401566214e-05,2.655369614278097e-05,-1.0720844921510189e-05,3.024506361864351e-06,5.8007452482740304e-05
8.080808080808081,6.075949367088607,0.00014459068409834784,6.414435871827126e-05,-2.7646423869390886e-05,-6.262051284498572e-05,0.00013431032065176489
8.181818181818182,6.075949367088607,-3.755809458782399e-05,-1.130385157588423e-05,5.841841335699786e-05,1.4658583849112465e-05,0.00010654562149741757
8.282828282828282,6.075949367088607,7.10526162410902e-05,-4.276570672227366e-06,-8.984272069914416e-05,-2.003281367065885e-05,0.00017200514019671953
8.383838383838384,6.075949367088607,0.00013808480182584182,6.19614545982782e-05,-0.00010198317289709565,-6.0013876927235996e-05,0.00021343008652635896
8.484848484848484,6.075949367088607,1.9428004641874654e-05,-0.0002791459555926835,4.066631640372653e-06,7.791538528524265e-05,0.00028943526614396483
8.585858585858587,6.075949367088607,0.0001862532845175811,6.030120232264654e-05,-2.648612122998489e-05,-7.39663460520683e-05,0.00017087939564388688
8.686868686868687,6.075949367088607,4.118169920644944e-05,0.00014882268452850943,2.126886155632134e-05,-5.700131512048766e-05,0.00013810302736058763
8.787878787878787,6.075949367088607,-9.65004689047638e-05,-1.2427282180624016e-07,-3.2637805782524e-05,2.898742251797101e-05,0.00011178569969316457
8.88888888888889,6.075949367088607,-4.807278088501478e-05,5.153644563350508e-05,-7.668372115848031e-05,-1.0390994245470899e-06,0.00015838458580689132
8.98989898989899,6.075949367088607,-6.332848411264991e-05,-0.00012837944207840313,8.305950072005405e-06,5.751237785731591e-05,0.00011211007541747148
9.09090909090909,6.075949367088607,-8.528619851634524e-05,7.114778449990211e-05,8.472871753444627e-05,4.241524204932941e-06,0.0001998512789415337
9.191919191919192,6.075949367088607,-1.3448655416658752e-05,-3.1074364132217306e-05,-2.3154602766407966e-05,1.3356905864662818e-05,4.834233042626441e-05
9.292929292929292,6.075949367088607,0.00012533632150639915,-3.8862902698891705e-05,5.0710880625889986e-05,-2.594202564225223e-05,0.00017264191902269555
9.393939393939394,6.075949367088607,0.00014529991362669084,8.445307325454875e-05,-2.7842738851171406e-06,-6.892589606437188e-05,0.0001264777402386266
9.494949494949495,6.075949367088607,4.935017416492564e-05,-7.329577445772086e-05,4.24564296988819e-05,7.183680087838567e-06,0.00012974018169725028
9.595959595959595,6.075949367088607,1.7853160807269217e-05,-0.00015411682183354378,1.0166821928593318e-05,4.087909830788237e-05,0.0001647188372062078
9.696969696969697,6.075949367088607,0.00023281746973525684,-0.00013851410319018546,2.6516571428928367e-05,-2.8291009963521413e-05,0.00032824993481329467
9.797979797979798,6.075949367088607,-1.248780690162905e-05,-4.820503645642139e-05,7.500954941461891e-06,1.820785300741513e-05,4.5238132688308816e-05
9.8989898989899,6.075949367088607,5.4091400590097465e-05,1.3613485700929266e-05,9.826773092438239e-06,-2.031146588730802e-05,5.16190905623305e-05
10.0,6.075949367088607,-0.00021198318933049378,3.272436245557739e-05,6.405612736370025e-05,5.377764806247492e-05,0.000255449277817527
0.0,6.177215189873418,-6.495170557851114e-05,8.374751493732943e-05,-7.5906985756890186e-06,-5.6387428076454856e-06,0.00012978740448702292
0.10101010101010101,6.177215189873418,-8.559821038026513e-05,4.73226686792777e-06,3.5516960630024905e-05,2.4259783053701206e-05,0.00010741920229704778
0.20202020202020202,6.177215189873418,7.571173005600398e-05,-4.664928789163108e-05,4.017671840333363e-05,-8.71873264931187e-06,0.00012760417910871017
0.30303030303030304,6.177215189873418,5.4409623331210304e-05,-0.00017518873100667726,-1.4810072797290187e-06,3.623373230264009e-05,0.0002078221152726725
0.40404040404040403,6.177215189873418,3.102927313988299e-05,-4.7338251788437424e-05,3.004797262435397e-06,4.8926935945663305e-06,6.855424012012648e-05
0.5050505050505051,6.177215189873418,0.00010336624905301125,-0.00011461070665546251,8.625590028468363e-06,3.3733372807353805e-06,0.00018944729288554487
0.6060606060606061,6.177215189873418,-8.548972637502109e-05,9.89016400464496e-05,3.0179190793253104e-05,-4.023574101428553e-06,0.00016815900967825657
0.7070707070707071,6.177215189873418,-9.407730251318921e-05,-0.00013050830300617738,-2.145765216482551e-05,6.737568165580997e-05,0.00012241886867879126
0.8080808080808081,6.177215189873418,-7.496703765655424e-05,1.5046500672319353e-05,-1.8997460194676496e-05,1.7976161095270467e-05,8.976166209205028e-05
0.9090909090909091,6.177215189873418,-8.41794786404704e-06,-5.405795232278251e-05,-3.351579736910748e-05,1.8742770056048865e-05,7.686347019973098e-05
1.0101010101010102,6.177215189873418,6.474887211784715e-05,0.00011554745826820368,1.5398831157023002e-05,-5.408889911581525e-05,0.00010379516345588028
1.1111111111111112,6.177215189873418,9.854041707753965e-05,-8.54124810426744e-05,3.110333721232655e-05,-3.938380810459573e-06,0.0001682983659412187
1.2121212121212122,6.177215189873418,-0.00012028741958174609,4.122183386651773e-05,3.758937984717121e-05,2.371967571456851e-05,0.0001592659893231114
1.3131313131313131,6.177215189873418,0.00014034590556215442,-0.0002479924591205698,-1.07455002198827e-05,3.2293966067524606e-05,0.00034109874898849614
1.4141414141414141,6.177215189873418,0.0001208763420926106,1.2121837488950544e-05,-1.75685256041535e-05,-3.9899453874468335e-05,0.00011924237888605009
1.5151515151515151,6.177215189873418,-0.00013863945444179764,0.00012991986447816116,-1.616846599432963e-05,2.6158769890909435e-06,0.00023429969382006665
1.6161616161616161,6.177215189873418,0.00020873445270565673,7.824091436572996e-06,-3.0469511918745637e-05,-6.496756324266891e-05,0.00021162066103976135
1.7171717171717171,6.177215189873418,4.479659929787176e-06,-7.044517516317516e-05,-2.0103526800279242e-05,1.9789654570016394e-05,8.068838735971196e-05
1.8181818181818181,6.177215189873418,6.161869222569746e-05,-4.362477427896386e-05,-3.8388737472729686e-05,-5.3981753840200805e-06,0.00011317760907731376
1.9191919191919191,6.177215189873418,6.328756614126099e-05,-1.550398788912201e-05,-5.8633478977407466e-05,-1.4335073475641694e-05,0.00012466175796337423
2.0202020202020203,6.177215189873418,-0.00015646647699192644,0.00013142353885796555,2.933951545782468e-05,7.512881440188267e-06,0.0002547542043009957
2.121212121212121,6.177215189873418,8.579960588285235e-05,-7.618260632156554e-05,-9.527868967684915e-06,-2.8850998683860417e-06,0.00014132989893973026
2.2222222222222223,6.177215189873418,-8.157955492888507e-05,-8.290639849707928e-05,-1.3752830790693544e-05,4.93457860277893e-05,8.56308861817704e-05
2.323232323232323,6.177215189873418,-8.017228427449226e-05,0.00010415682112822291,4.660951180789364e-06,-7.195361056119195e-06,0.00016028693715856903
2.4242424242424243,6.177215189873418,-2.7845917884432237e-05,1.2217056962741178e-05,2.1587923974730594e-05,4.688658276507318e-06,5.1603896880444716e-05
2.525252525252525,6.177215189873418,-0.0001961690374981138,0.00011801506252379283,-8.630698439915036e-06,2.344619249229629e-05,0.0002752893284304452
2.6262626262626263,6.177215189873418,-9.294542723472069e-05,-0.00017088188982043934,-6.405714521385049e-05,7.914819511654801e-05,0.00018511276567340597
2.727272727272727,6.177215189873418,-0.00027107243362851604,0.0002293924250547023,6.832951799278978e-05,1.2504002572144123e-05,0.00044976647379353375
2.8282828282828283,6.177215189873418,5.291364280750666e-05,-5.815932411341777e-05,3.7336239841891115e-05,1.573704391773333e-06,0.00011593863331584958
2.929292929292929,6.177215189873418,9.75578912118139e-05,9.204768715027881e-05,0.00010008717199174201,-5.6881673508627815e-05,0.00019764277520319172
3.0303030303030303,6.177215189873418,-3.214084675490483e-05,0.00011200638915797219,3.2856966512554583e-06,-2.3959662720920207e-05,0.00013119006379782815
3.131313131313131,6.177215189873418,-3.240804226046823e-06,-9.024028894410024e-05,1.1778487410197931e-05,2.8044327951044116e-05,9.098109555282961e-05
3.2323232323232323,6.177215189873418,-7.809690630886063e-06,0.00010691813830730331,4.8614190676117005e-05,-2.9732534302925172e-05,0.00013934667471863726
3.3333333333333335,6.177215189873418,-4.8879116339028686e-05,-1.4338415085268128e-05,9.947624241468942e-05,1.896525942728904e-05,0.0001777089685891227
3.4343434343434343,6.177215189873418,6.113485414199898e-05,-0.00011003418477014829,-6.239317820294768e-05,1.4669799188444792e-05,0.00018506929000875795
3.5353535353535355,6.177215189873418,2.3419814607132397e-05,-7.593988034762576e-05,2.8120130805712485e-05,1.5756019722148007e-05,0.00010230384319303221
3.6363636363636362,6.177215189873418,-0.00011027916111325026,-6.022024730231497e-05,7.5183738819904385e-06,5.1149822524669565e-05,9.652207542293421e-05
3.7373737373737375,6.177215189873418,0.00011569675725200424,5.34091844705225e-05,7.015839907793082e-05,-5.073178251675802e-05,0.00015756146120564048
3.8383838383838382,6.177215189873418,-5.110668966678223e-06,-0.0001468392421976373,8.943512319021235e-06,4.558497334929466e-05,0.00014518055815457797
3.9393939393939394,6.177215189873418,1.1505661447849363e-05,-0.00021136199015221307,1.461405755019154e-05,5.995689861130911e-05,0.00021881234577219975
4.040404040404041,6.177215189873418,-1.0162470515594308e-06,1.1724927141192653e-05,-2.9348778278350858e-05,-3.212604026889967e-06,5.229220263546434e-05
4.141414141414141,6.177215189873418,6.379733942438588e-05,1.9257012979449613e-05,6.140814462388743e-05,-2.4916305721150645e-05,0.00012052081791796828
4.242424242424242,6.177215189873418,-6.443177674086562e-05,-0.00014221944571417581,1.9722355180685826e-05,6.199536673651243e-05,0.00012798940151585245
4.343434343434343,6.177215189873418,0.00012039730521505826,-5.7313745530471286e-05,2.5617317824529314e-05,-1.892506790537609e-05,0.00016324686202496722
4.444444444444445,6.177215189873418,-0.00013244756440858817,-0.00014112530519751982,-1.5391485415404235e-05,8.207186088183238e-05,0.00013956252937270756
4.545454545454545,6.177215189873418,-1.9136564862380226e-05,-7.71843126497599e-05,-8.085476681067589e-05,2.8896263253642036e-05,0.0001563939371478125
4.646464646464646,6.177215189873418,0.0001247154776348502,5.184306709973932e-05,-1.8934860494476343e-06,-5.296756342037686e-05,0.0001085669238804143
4.747474747474747,6.177215189873418,9.856674671025959e-05,6.96580384048947e-05,7.5661113498484855e-06,-5.0467435534546284e-05,8.873228142310093e-05
4.848484848484849,6.177215189873418,-4.453499443377474e-05,-2.602943926829054e-05,-6.797848264835736e-05,2.1169330110619582e-05,0.00012395522907255444
4.94949494949495,6.177215189873418,-5.2148843019829965e-05,6.578831852043206e-05,5.3896241806542536e-05,-4.09184265018063e-06,0.00013853809591488252
5.05050505050505,6.177215189873418,-0.00012824300522111274,5.2645674974230095e-05,5.807920846841072e-05,2.2679199074064793e-05,0.00018997067779311406
5.151515151515151,6.177215189873418,3.349498525023277e-05,1.1767472853346963e-05,-4.586910658645845e-06,-1.357873743107392e-05,3.0485330452258415e-05
5.252525252525253,6.177215189873418,-7.919163462405016e-05,-5.336012348590099e-05,-7.550906740541786e-05,3.9765527432985344e-05,0.00014831655386900617
5.353535353535354,6.177215189873418,-0.00014679043697853842,8.826150981675736e-05,0.00010637525769019951,1.7558678148534317e-05,0.0002761169289338128
5.454545454545454,6.177215189873418,0.00016678879598956844,0.00021718872193211537,-2.552688808363113e-05,-0.00011519325537650513,0.0002017911395832027
5.555555555555555,6.177215189873418,9.338679328455347e-06,-0.00018147204967702024,2.3752312644568773e-06,5.164001110456947e-05,0.00018636241626269174
5.656565656565657,6.177215189873418,8.27386322184518e-05,-5.665244863143859e-05,-4.149418700163731e-05,-7.825855076103963e-06,0.00014109510967319134
5.757575757575758,6.177215189873418,2.8892933670848633e-05,-7.680993972664152e-05,0.00010154838220618566,1.4375101816737864e-05,0.00019972494770754802
5.858585858585858,6.177215189873418,-6.545043881772962e-05,-0.000187360085651507,-3.330133067233328e-05,7.584315734077099e-05,0.00017450414805270136
5.959595959595959,6.177215189873418,4.3054195597437794e-05,-9.816232887428552e-05,-1.4441001847829353e-07,1.6532439983054317e-05,0.00012536295002503586
6.0606060606060606,6.177215189873418,0.00011498185279076738,0.00015714114909905322,7.606177543279288e-05,-8.163690056694617e-05,0.0001928781163954456
6.161616161616162,6.177215189873418,7.11647308504799e-05,-0.0001249657163832175,-5.857098464136302e-05,1.6140295659821276e-05,0.0001996639213421329
6.262626262626262,6.177215189873418,5.958076918649534e-05,9.015118811856516e-05,2.115440655211354e-05,-4.491958719151815e-05,8.745487061667358e-05
6.363636363636363,6.177215189873418,5.403027884893446e-05,0.0001319514838102919,-4.447363566964368e-06,-5.5794528797767904e-05,0.00011515392644422028
6.4646464646464645,6.177215189873418,-9.819889068746889e-05,0.0001644823676965698,3.740435898475812e-05,-1.9885043102730275e-05,0.00023884454290176393
6.565656565656566,6.177215189873418,-0.00011939952784111756,0.00027936697057793163,5.349303168031453e-05,-4.799023282104422e-05,0.0003663917973904909
6.666666666666667,6.177215189873418,-0.00015076933864669498,-0.00013937035805802072,-3.979370242639963e-05,8.70419090114147e-05,0.00016091404453379564
6.767676767676767,6.177215189873418,9.00793252670907e-05,-1.904365662387925e-05,-7.074765591117165e-05,-2.1310700592963435e-05,0.00015877051958174216
6.8686868686868685,6.177215189873418,0.00020240930837158146,0.00011036821496587053,4.7492929129800555e-05,-9.383325700123561e-05,0.00019385007579248315
6.96969696969697,6.177215189873418,-0.00028514621087858197,-6.440066690436265e-05,-4.084203277663594e-05,0.00010486406333488338,0.00026850775827579005
7.070707070707071,6.177215189873418,-3.5530778145686416e-05,3.39524040884819e-05,2.511155493253681e-06,4.7351221716135385e-07,6.033634876208529e-05
7.171717171717171,6.177215189873418,8.091707342092232e-05,-0.00013027553150620505,-0.0001066024375704607,1.4807537425584818e-05,0.0002610613734660115
7.2727272727272725,6.177215189873418,0.00014536746614405598,-7.047393821498139e-05,0.00012187198002931605,-2.2468058378722377e-05,0.000284431419778081
7.373737373737374,6.177215189873418,0.0002145239980820453,-2.923078317481374e-05,7.049149566064687e-05,-5.558796447216946e-05,0.0002608693960457488
7.474747474747475,6.177215189873418,7.732761774590414e-05,8.2875493274703e-05,3.604893035189605e-05,-4.806093330618214e-05,0.0001016755601208082
7.575757575757575,6.177215189873418,-6.302519143860386e-05,5.569552478078628e-05,-3.1174261056081745e-06,2.198899997345275e-06,0.00010302204805105646
7.6767676767676765,6.177215189873418,-9.133753043886037e-05,-6.601075922816235e-05,-5.532461675932706e-05,4.720448690010681e-05,0.00012590927181487804
7.777777777777778,6.177215189873418,-3.187215008145627e-05,0.0001562237408487068,-4.457679716939625e-06,-3.730547723017515e-05,0.00017452933964113809
7.878787878787879,6.177215189873418,3.752518374303156e-05,1.733925621431408e-05,3.507749452229673e-05,-1.645933198720369e-05,6.891605264007467e-05
7.979797979797979,6.177215189873418,-7.428086381329174e-05,2.5064235628441596e-05,4.7387846393857974e-05,1.4764988455455044e-05,0.00012142684903813899
8.080808080808081,6.177215189873418,-0.0001102385242852374,7.528865646077205e-05,5.523836459178183e-05,1.0484960347339603e-05,0.00018781494929912421
8.181818181818182,6.177215189873418,7.470211126342117e-06,8.694469256989817e-05,3.13747202132994e-06,-2.8324471108872083e-05,8.363742943555874e-05
8.282828282828282,6.177215189873418,0.00012435416995533157,8.63074116022673e-05,3.9296068754514294e-05,-6.319847446727965e-05,0.0001296641253803384
8.383838383838384,6.177215189873418,-7.748302505144162e-05,5.5264975968377876e-05,-4.695249903887011e-05,6.665414724919124e-06,0.00014125702019835386
8.484848484848484,6.177215189873418,6.869633696119969e-05,3.830298209355422e-05,-2.8165440128075206e-06,-3.2099795716426166e-05,5.982331773778911e-05
8.585858585858587,6.177215189873418,0.00011477613188584326,-6.142235211217692e-05,7.10937996614668e-05,-1.60061339320999e-05,0.00019788650996808494
8.686868686868687,6.177215189873418,-0.00010310114528345409,9.247615107948601e-05,-2.1695657784520576e-05,3.1874982611904235e-06,0.00017357472876270225
8.787878787878787,6.177215189873418,8.789437149838672e-05,0.00015817839420558772,-1.047360394666363e-05,-7.382182971119234e-05,0.00013846271530677578
8.88888888888889,6.177215189873418,8.87432410851773e-05,-2.390508486117218e-07,3.3225933176953585e-05,-2.6551257070969672e-05,0.00010587030762748468
8.98989898989899,6.177215189873418,-3.578136297952414e-05,6.527153127853628e-05,-6.932042151143816e-05,-8.847050489703642e-06,0.00014930554444023318
9.09090909090909,6.177215189873418,0.00018926934305932565,3.5635945445418854e-05,1.2140974061305316e-05,-6.747158655142335e-05,0.0001754714295821888
9.191919191919192,6.177215189873418,-4.468033084054628e-05,-9.034446373600142e-05,-8.478752385719061e-06,4.050743837296431e-05,7.960842473309642e-05
9.292929292929292,6.177215189873418,4.710266606974245e-05,9.530972734713458e-05,1.0045128255559669e-05,-4.272371802506311e-05,8.435624945695755e-05
9.393939393939394,6.177215189873418,-1.2841437113698611e-05,-0.00014128124653385124,4.3038211995919595e-05,4.623680509426495e-05,0.0001544924009846817
9.494949494949495,6.177215189873418,-0.00017444280102900319,-9.329834883429287e-05,3.3754553411262775e-05,8.032234495898882e-05,0.00016210415494982258
9.595959595959595,6.177215189873418,-2.630926825223431e-05,-4.702381612113489e-05,4.64450307143035e-07,2.1999925312010764e-05,4.082770907424353e-05
9.696969696969697,6.177215189873418,7.68608874332567e-05,-8.251694974114332e-05,-2.6186209186407806e-05,1.6968186923659863e-06,0.00014531387288095645
9.797979797979798,6.177215189873418,0.00010681556436341847,0.00010393454452836451,2.7492341704715735e-05,-6.322503266753489e-05,0.00011566163522607067
9.8989898989899,6.177215189873418,-8.139788046308587e-05,-0.00015488673763704633,8.195510014119362e-06,7.088538543003965e-05,0.0001349428154345647
10.0,6.177215189873418,3.692579066407249e-05,0.0002527917833222152,4.3094346744566903e-07,-8.69152721958863e-05,0.00023650205156754012
0.0,6.2784810126582276,5.288363492989785e-05,4.98219029627054e-05,1.7514217164128533e-05,-3.0811661367780976e-05,5.9702436625720726e-05
0.10101010101010101,6.2784810126582276,-9.524374288415784e-05,-3.6966481575061375e-05,-7.163591254638483e-05,3.966306733776577e-05,0.000149372611784141
0.20202020202020202,6.2784810126582276,-7.771251763828685e-06,-0.0001885192627904356,6.438650165699732e-06,5.888715436627928e-05,0.00018509252494744097
0.30303030303030304,6.2784810126582276,0.00014159436501808063,-0.00011339581098386503,-2.238470506558355e-05,-8.45956621026468e-06,0.0002246486302387621
0.40404040404040403,6.2784810126582276,-5.997113849639864e-05,-8.316273830481472e-05,-4.056487993095277e-05,4.2940163040364005e-05,0.00010228266153033646
0.5050505050505051,6.2784810126582276,-5.2449333167763525e-05,-0.00014604681880716082,1.5608472552408682e-05,5.95488455924773e-05,0.00013096343314827937
0.6060606060606061,6.2784810126582276,-0.00013366666965948865,-0.00011453938590539688,1.2118869032041292e-05,7.446181666946566e-05,0.00012695098346398985
0.7070707070707071,6.2784810126582276,-2.745465254455532e-05,7.479658643843254e-05,-9.944853309540693e-05,-1.4202580168163166e-05,0.00019512004967674356
0.8080808080808081,6.2784810126582276,1.1537226517908178e-05,-2.7557964921120344e-06,1.2761254169223697e-05,-2.634429007738843e-06,2.5710796998786354e-05
0.9090909090909091,6.2784810126582276,3.713887588794499e-05,-0.0001396771877175782,-3.201326995442319e-05,3.076149354888996e-05,0.0001707366831394367
1.0101010101010102,6.2784810126582276,1.3267890614254517e-05,-1.4535713007742451e-05,8.197367491619052e-05,3.803467180463803e-07,0.00014401122269454576
1.1111111111111112,6.2784810126582276,-0.00010045398687252041,-3.588842443410984e-05,-5.7516560127399334e-05,4.090272339198908e-05,0.00013303500004372546
1.2121212121212122,6.2784810126582276,0.0001346482391864754,0.00012974863997812752,1.634678668805954e-05,-7.931906374938089e-05,0.00013526301892007292
1.3131313131313131,6.2784810126582276,-0.00011200328897728067,-8.722103908043604e-05,-2.2480958747296795e-05,5.976729841731501e-05,0.00010908429618220675
1.4141414141414141,6.2784810126582276,-3.601951191248527e-07,-0.00011649717405110073,5.929839055708469e-05,3.505721075106767e-05,0.0001551729904233108
1.5151515151515151,6.2784810126582276,-2.47688892045525e-05,-0.00012993110401377254,2.481441421361143e-07,4.6409997965497515e-05,0.0001194885989108111
1.6161616161616161,6.2784810126582276,8.894448106633306e-05,4.5486931276665724e-07,-1.3017059139364507e-05,-2.6819805113729915e-05,9.153797566686237e-05
1.7171717171717171,6.2784810126582276,7.311488197087978e-05,5.336653705939002e-05,-1.7633430350965864e-05,-3.794442570908094e-05,7.228207788146478e-05
1.8181818181818181,6.2784810126582276,-2.5451848335793043e-05,-5.532235129787889e-05,-2.012402825696624e-06,2.423225989010158e-05,4.808796457971237e-05
1.9191919191919191,6.2784810126582276,-0.00019086101589020394,-9.884966433045495e-05,5.224215370058991e-06,8.691320406619766e-05,0.00016557328724485206
2.0202020202020203,6.2784810126582276,-6.647865505084542e-05,-0.0001692019844780212,-2.658823683156367e-05,7.070419185865997e-05,0.00015466481753156048
2.121212121212121,6.2784810126582276,9.80693047737156e-05,-9.364339611781876e-05,-1.709969381473458e-05,-1.3277725967690506e-06,0.00016866361645261787
2.2222222222222223,6.2784810126582276,0.0002427777112489955,-0.00020088158572052514,1.8538923602946436e-06,-1.2568837658541107e-05,0.0003848042501387452
2.323232323232323,6.2784810126582276,0.0002449418143958719,0.000109695857680768,-6.48051194030494e-06,-0.00010639130162299196,0.00021280639634383105
2.4242424242424243,6.2784810126582276,0.00014384679135972416,0.00010465761559859082,5.955512428021124e-06,-7.45513220874945e-05,0.00012921632279590164
2.525252525252525,6.2784810126582276,4.454815820170674e-05,0.000202428154847628,2.4217095426453193e-05,-7.409289391480043e-05,0.00018895316335068238
2.6262626262626263,6.2784810126582276,-7.194476427224476e-05,-2.3131403900292605e-05,5.9913191494936506e-05,2.852285045176121e-05,0.00012171975639567104
2.727272727272727,6.2784810126582276,-7.444306028855105e-05,-7.577467294373689e-05,9.741408146433632e-05,4.506531996968638e-05,0.0001846921263648788
2.8282828282828283,6.2784810126582276,1.493897542264557e-05,-6.819921524611085e-05,1.56240237683227e-05,1.5978071947039586e-05,8.139694529531481e-05
2.929292929292929,6.2784810126582276,-4.840768113147344e-05,9.654691843192018e-05,7.740561818428118e-06,-1.444177119013402e-05,0.0001285222641595601
3.0303030303030303,6.2784810126582276,-0.00012506172374130732,8.700870919841929e-05,-1.6854285695789883e-05,1.141590436286641e-05,0.00018693477529162022
3.131313131313131,6.2784810126582276,0.00014066237543224687,1.5968222273415477e-05,-8.923115873341378e-05,-4.698917931169871e-05,0.00020416013071883034
3.2323232323232323,6.2784810126582276,7.103461712271175e-05,3.1553235460530664e-06,1.2725675073999879e-05,-2.225698220062944e-05,7.292162995110189e-05
3.3333333333333335,6.2784810126582276,-5.699517110106561e-05,0.00018509809005986833,6.272414844786768e-05,-3.843087568764081e-05,0.00024466795086734174
3.4343434343434343,6.2784810126582276,-2.0827865799118563e-06,6.903524572144958e-05,-4.874100782430766e-05,-2.0085737742461317e-05,0.00010973170173780957
3.5353535353535355,6.2784810126582276,5.013956306824764e-05,0.00018437986398745027,-3.251380675495031e-05,-7.035582811670937e-05,0.00017446096153262057
3.6363636363636362,6.2784810126582276,0.00037626488255060726,6.482829569635111e-05,9.7541438323873e-05,-0.0001323279534740875,0.0003872058306229931
3.7373737373737375,6.2784810126582276,3.6367149756693096e-05,0.00010777620684428132,-0.00013338243833378429,-4.324300698029233e-05,0.00024978268846389265
3.8383838383838382,6.2784810126582276,-0.00011802695539210928,-0.000110050453464472,-1.7482213252593695e-07,6.842322265697438e-05,0.00011424813448484968
3.9393939393939394,6.2784810126582276,6.281256854199658e-05,5.0456657148552486e-05,1.4926940672598664e-05,-3.398076770716472e-05,6.31697827717965e-05
4.040404040404041,6.2784810126582276,7.24560560092332e-05,-1.2707767270090318e-05,2.453702973922604e-05,-1.7924486621742867e-05,9.02126353885578e-05
4.141414141414141,6.2784810126582276,2.895355406312114e-05,0.00016723107074258169,4.984548024351118e-05,-5.8855387441710846e-05,0.00017724649832630336
4.242424242424242,6.2784810126582276,0.00017499677726575004,5.2701880262962364e-05,3.1501425783446134e-05,-6.830959725861373e-05,0.00016478992843604306
4.343434343434343,6.2784810126582276,-2.0135490020246266e-05,6.50344106222563e-05,6.11652310116906e-05,-1.3469676180603012e-05,0.0001310265954054258
4.444444444444445,6.2784810126582276,-0.00014475094134350913,-5.19581215085851e-05,3.471943136225207e-05,5.9012718855628266e-05,0.00014052690544546687
4.545454545454545,6.2784810126582276,6.798218354306763e-05,-0.00022709664017528858,-1.9460369971804816e-05,4.773433698966628e-05,0.00026975749244630235
4.646464646464646,6.2784810126582276,-0.00010118655836837774,-4.967721616221812e-05,3.710731919174726e-05,4.5259132359178754e-05,0.00010867722061261367
4.747474747474747,6.2784810126582276,-0.0001381611357474982,5.9962294877138535e-05,-8.067424349675619e-05,2.34596522611079e-05,0.00022470744467316858
4.848484848484849,6.2784810126582276,1.7959087377956377e-05,-1.0847016115757984e-05,-1.5843487917562602e-05,-2.1336213786595177e-06,3.72563741722063e-05
4.94949494949495,6.2784810126582276,2.1608318961115313e-07,-0.00011887419626051104,-0.00017747748732294157,3.559743392126997e-05,0.0003296233964138657
5.05050505050505,6.2784810126582276,-0.00019727135250705802,3.062286669381518e-05,5.048147558226935e-05,4.9994545743972856e-05,0.00023138690314218987
5.151515151515151,6.2784810126582276,0.00015366898729474128,4.020352974968231e-06,2.068713052028646e-05,-4.7306802080912854e-05,0.00015587299134710292
5.252525252525253,6.2784810126582276,9.686915349384384e-05,-3.5148895725174035e-05,-4.692257399956714e-06,-1.8516077330600938e-05,0.00011870119368808545
5.353535353535354,6.2784810126582276,5.5465237059884254e-05,-0.0002148942869204189,3.884395204055494e-05,4.7828714958160394e-05,0.00025632336504967135
5.454545454545454,6.2784810126582276,2.6607867025801402e-05,-1.0681046795688326e-05,9.894179444358096e-05,-4.778046069033922e-06,0.00017457004119922164
5.555555555555555,6.2784810126582276,-3.179053153334066e-06,0.00012460581291086977,1.1364799747282843e-05,-3.642802792726071e-05,0.00012775100591571082
5.656565656565657,6.2784810126582276,-0.00014238678814820026,-8.679266576817004e-05,-5.377946042708182e-05,6.875383617491109e-05,0.00015532394035769223
5.757575757575758,6.2784810126582276,-1.7475247165624784e-05,-3.091996663026345e-06,1.8490047059557915e-05,6.170173148595338e-06,3.586860495943729e-05
5.858585858585858,6.2784810126582276,0.00014459868314088562,1.9613290407549425e-05,1.5332081321426123e-05,-4.926359206453051e-05,0.00013842912451734343
5.959595959595959,6.2784810126582276,-6.155918984044139e-05,-0.00019474011726030273,1.6598581293347665e-06,7.688979213022323e-05,0.00017243395449684416
6.0606060606060606,6.2784810126582276,2.6973992052021722e-05,-4.6216211770717145e-05,-7.885822551132174e-06,5.772665915608627e-06,6.554943782032014e-05
6.161616161616162,6.2784810126582276,1.1094354157796901e-05,-0.0001656579849013679,1.3917259699499064e-05,4.6369089223071296e-05,0.00017316059413721445
6.262626262626262,6.2784810126582276,-0.00010253773239264075,-7.846644582556715e-05,-7.479508677499673e-05,5.4301253465462365e-05,0.0001593992260893876
6.363636363636363,6.2784810126582276,-4.2282217621031194e-05,-6.771285887697138e-05,-4.996992140447105e-05,3.299852294940077e-05,0.00010488444348412039
6.4646464646464645,6.2784810126582276,4.491836877374806e-05,-4.866322511887981e-05,-8.838183088842481e-05,1.1234569035395233e-06,0.00017322149438636457
6.565656565656566,6.2784810126582276,5.912105938007593e-05,0.00011180345401622559,4.126352306210204e-05,-5.127735401889045e-05,0.0001203885723600033
6.666666666666667,6.2784810126582276,4.3205335764594104e-05,1.4656731224214149e-05,9.378818032383084e-05,-1.7358620096642476e-05,0.00016684405928987347
6.767676767676767,6.2784810126582276,-8.277160296810001e-05,-0.00017814640788913806,9.22027010410393e-06,7.827540325717142e-05,0.00015523162467775986
6.8686868686868685,6.2784810126582276,-0.00013991435465756676,5.167399728246885e-06,2.6369275881473493e-05,4.0424086478795965e-05,0.00014970550487196518
6.96969696969697,6.2784810126582276,-0.00012688565095690917,9.196953178591981e-05,-8.813711430998646e-05,1.0474835751296809e-05,0.00024399268403215156
7.070707070707071,6.2784810126582276,4.807986268124434e-05,1.2685321438392637e-05,-9.006168161403047e-05,-1.8229555235891092e-05,0.0001618517888318145
7.171717171717171,6.2784810126582276,-8.156339454159202e-05,-0.00022898358063374845,5.808074915401833e-06,9.316409255260214e-05,0.00020127242881450922
7.2727272727272725,6.2784810126582276,1.9311756440424962e-05,-8.689450880194132e-06,-7.737459010915636e-05,-3.186691668069249e-06,0.00013629651732928767
7.373737373737374,6.2784810126582276,-2.0449786684842947e-05,0.00015957608978988712,-6.413605406448399e-05,-4.1737890931513254e-05,0.0002036819076333916
7.474747474747475,6.2784810126582276,0.0001948348908369854,3.6041429269772414e-05,2.1254235447218783e-05,-6.926289603202735e-05,0.00018328316602247033
7.575757575757575,6.2784810126582276,2.9582422716289766e-05,-3.904994507070082e-05,3.985935683129855e-06,2.8402567063233163e-06,6.002393668970337e-05
7.6767676767676765,6.2784810126582276,-0.00012261918489223463,6.849107150320476e-05,3.785468298358047e-05,1.623843401670896e-05,0.0001800659373973156
7.777777777777778,6.2784810126582276,0.00011031325017976804,-4.0465626079239816e-05,-7.021261762407616e-06,-2.0954287230158467e-05,0.0001357139239089999
7.878787878787879,6.2784810126582276,-1.98387424819293e-05,-7.627093570628253e-05,1.4303329076948285e-05,2.883290345646355e-05,7.287981580996132e-05
7.979797979797979,6.2784810126582276,4.1854275321028435e-06,0.0001208322026385856,-1.3034970300572327e-05,-3.7505289051206535e-05,0.00012092119716013788
8.080808080808081,6.2784810126582276,0.00012080882573238331,0.00012180833847766497,-7.926004189380219e-06,-7.278514926301448e-05,0.00012208597785518853
8.181818181818182,6.2784810126582276,6.847077238580874e-05,4.695466351024519e-05,-7.113420364836155e-05,-3.462763076881618e-05,0.0001373251244487587
8.282828282828282,6.2784810126582276,-6.904359080350385e-05,-1.3897617472485366e-05,7.449871705515982e-08,2.4882362482796766e-05,6.32505844930767e-05
8.383838383838384,6.2784810126582276,0.00019130515093334477,0.00011880730624082808,4.1140375460518446e-05,-9.303373715225185e-05,0.0001818295317503273
8.484848484848484,6.2784810126582276,-3.918211898478521e-05,3.219422424005345e-05,1.6808006504064017e-05,2.0963684234195285e-06,6.841543462754085e-05
8.585858585858587,6.2784810126582276,-3.898167800768828e-06,0.0001436960966276834,7.189070176125726e-05,-4.193937864807437e-05,0.0001916474220916728
8.686868686868687,6.2784810126582276,2.8209816077537436e-05,-4.650041267996134e-05,-3.883553635468042e-05,5.487178980727172e-06,9.377871210266012e-05
8.787878787878787,6.2784810126582276,-3.797997112749035e-05,0.00011254993754860099,9.856423275006845e-05,-2.237098992633319e-05,0.00021801223351079337
8.88888888888889,6.2784810126582276,-2.0214221719795938e-05,-2.4802601849946522e-05,-1.019766684063425e-05,1.3505047070922738e-05,2.888590923303462e-05
8.98989898989899,6.2784810126582276,2.2838949169858888e-05,1.298506865552695e-05,-5.143545130201537e-05,-1.074720534761575e-05,9.127147000080267e-05
9.09090909090909,6.2784810126582276,-6.907325168230348e-05,-8.664972845731361e-05,-3.272040098823681e-05,4.671689404188513e-05,9.749864081232503e-05
9.191919191919192,6.2784810126582276,-5.6845308925132615e-05,-0.00010443979925210837,7.478219005629263e-05,4.838553245317229e-05,0.00015804833441354562
9.292929292929292,6.2784810126582276,-6.370366368411104e-05,-7.336230957907983e-05,-5.9456207146034824e-05,4.111979197895726e-05,0.00012398330146280322
9.393939393939394,6.2784810126582276,1.087538308511666e-05,-6.923581591191321e-05,-6.030899004642081e-05,1.7508129848038964e-05,0.00012874921756945515
9.494949494949495,6.2784810126582276,4.910493256471535e-05,7.740978435721942e-05,-5.406073304846807e-05,-3.7954415076580437e-05,0.00011562895592765344
9.595959595959595,6.2784810126582276,9.431853452479068e-05,-3.347521111562268e-05,1.0949745092473458e-05,-1.8252997022750402e-05,0.00011633399899532205
9.696969696969697,6.2784810126582276,-4.9965587612423645e-05,-2.485443843350974e-05,-6.740371035316957e-05,2.2446007813780017e-05,0.00012450789911613934
9.797979797979798,6.2784810126582276,0.00010538391607178174,-0.00018568193925502647,6.702238083554356e-05,2.408940695497342e-05,0.0002804058502121933
9.8989898989899,6.2784810126582276,-5.741186995138432e-05,8.48154813701054e-05,3.043707061248556e-05,-8.221083425616324e-06,0.00013467906251548608
10.0,6.2784810126582276,0.0001025788627543705,1.932346649936705e-05,4.315600905638374e-05,-3.6570698776121266e-05,0.00012041994675542303
0.0,6.379746835443038,1.9941927650203812e-05,7.042036153105305e-05,2.1730572661156488e-05,-2.710868675437706e-05,7.327375660058743e-05
0.10101010101010101,6.379746835443038,9.762352354206448e-05,-6.81539190098915e-05,-0.00014083334449838583,-8.840881359651892e-06,0.00028342693504662545
0.20202020202020202,6.379746835443038,3.415999268330139e-05,1.4946979147600225e-06,4.284676764382626e-05,-1.0696407179418423e-05,8.139789213929163e-05
0.30303030303030304,6.379746835443038,-7.571016620527622e-05,2.9805791524902283e-05,-5.855309157472293e-05,1.3771312404112181e-05,0.00013842835513131087
0.40404040404040403,6.379746835443038,-7.878444033858768e-06,-0.00023528085750802377,-1.44168013027517e-06,7.294779046256475e-05,0.00023145569780583163
0.5050505050505051,6.379746835443038,6.850672507145978e-05,-4.033854542463196e-05,2.8600305487957546e-05,-8.450453894048346e-06,0.00010741398274988693
0.6060606060606061,6.379746835443038,3.986689520049221e-05,4.7104987323581204e-05,7.134135107981242e-06,-2.609156475722202e-05,4.563997394662754e-05
0.7070707070707071,6.379746835443038,-0.00012023014553004974,-0.00010142573973405545,-5.0958925747766404e-05,6.649676557923156e-05,0.00014261301997418738
0.8080808080808081,6.379746835443038,-1.1754428256644377e-05,-0.00011488789844647816,-7.149554184707771e-05,3.799269801093676e-05,0.000165293048085105
0.9090909090909091,6.379746835443038,3.4877075757452684e-05,-8.124266443364241e-06,1.9931684432244766e-05,-8.025842794226533e-06,5.251267378236019e-05
1.0101010101010102,6.379746835443038,5.67554816934009e-06,-1.404439740883334e-05,-1.7909352878421366e-05,2.5106547718479747e-06,3.565671551299127e-05
1.1111111111111112,6.379746835443038,-0.0001769300679834661,-7.768073667231983e-05,3.078225863942535e-05,7.638324139673579e-05,0.00016259498801310694
1.2121212121212122,6.379746835443038,2.8483312188559165e-05,-9.449679014102167e-05,0.00011946496634151608,1.9804043385738753e-05,0.0002350492683322571
1.3131313131313131,6.379746835443038,-2.452555520152459e-05,-4.14317461353375e-06,-8.742896963189498e-05,8.600618944517501e-06,0.00015312912619358843
1.4141414141414141,6.379746835443038,-0.0002053925223340158,-1.1124837515894619e-05,0.00011006786411736398,6.495520795497311e-05,0.0002763506756579655
1.5151515151515151,6.379746835443038,0.00013404286645075057,-0.00018535667166697225,5.164692562790025e-06,1.5394141564866504e-05,0.0002779394673514496
1.6161616161616161,6.379746835443038,0.00021251642716647154,-7.1801999985733546e-06,2.6319095256173897e-05,-6.160086815036946e-05,0.00022094972700361027
1.7171717171717171,6.379746835443038,-0.00013692783294080795,6.630811721703503e-05,-4.202026428359304e-05,2.1185914717131874e-05,0.00019370733716366184
1.8181818181818181,6.379746835443038,1.159948675270825e-05,-1.527373112893543e-05,0.00011286928154382502,1.102273312868154e-06,0.00019688429735780733
1.9191919191919191,6.379746835443038,6.32300898926451e-05,6.56525037420621e-05,-3.0431116296980168e-05,-3.866477809041216e-05,8.327809027221174e-05
2.0202020202020203,6.379746835443038,-8.523895588123156e-05,-8.825516142148802e-05,9.983784126714908e-05,5.204823519081587e-05,0.00019348038389772654
2.121212121212121,6.379746835443038,-0.00019603265082055309,0.00017358418878573198,3.380171676830456e-06,6.73453861044633e-06,0.00032034780494648383
2.2222222222222223,6.379746835443038,0.00014471436585967174,-0.0002274810316308378,7.22193608711615e-05,2.4829999731349814e-05,0.000348219110517322
2.323232323232323,6.379746835443038,-0.00014720050275857118,5.406078155915233e-05,4.687283876550334e-05,2.7941916359825652e-05,0.00019783710314802338
2.4242424242424243,6.379746835443038,-0.00022665812611477986,-5.793664986727535e-05,-2.9721702615887552e-05,8.537843279461656e-05,0.00021035419619913392
2.525252525252525,6.379746835443038,6.466470023573752e-05,0.00017114794198031758,-0.00013076135978956963,-7.074379266481653e-05,0.0002714802217079674
2.6262626262626263,6.379746835443038,1.97572792455155e-05,3.84214691247561e-05,-3.7855038625830666e-05,-1.745362451108148e-05,7.352868505867966e-05
2.727272727272727,6.379746835443038,9.776881306616999e-05,2.4576534015975916e-05,-6.582087889843538e-05,-3.670360412464377e-05,0.0001440732194735416
2.8282828282828283,6.379746835443038,-3.945620956365613e-06,6.072938477209379e-05,4.361649088831752e-06,-1.7035129144718454e-05,6.324802906869599e-05
2.929292929292929,6.379746835443038,0.00012147677424276341,0.00017472024377050468,-3.8392523375089396e-05,-8.885910540398042e-05,0.0001687639659667373
3.0303030303030303,6.379746835443038,-2.5028763071198126e-05,8.129829909490319e-05,3.071993735990772e-05,-1.688086080711152e-05,0.00011000814486630616
3.131313131313131,6.379746835443038,4.149359995403473e-05,9.301993634020203e-05,-5.747641906640958e-05,-4.035406088827102e-05,0.00012816127189491832
3.2323232323232323,6.379746835443038,-8.192635762140962e-05,0.0002765396762937957,8.598172417714272e-05,-5.838399560171583e-05,0.0003577996362935065
3.3333333333333335,6.379746835443038,0.0001491365294012532,-6.048185849710427e-05,-5.4951112229494615e-05,-2.659640127124468e-05,0.0002097109636687743
3.4343434343434343,6.379746835443038,0.00014160602180619795,-0.00014603111898133707,-4.3462242718076545e-05,1.327529152541737e-06,0.00026023669719666467
3.5353535353535355,6.379746835443038,1.7662697737639584e-06,6.905055895757633e-06,3.471352324377065e-05,-2.6013977008564777e-06,6.044575586680869e-05
3.6363636363636362,6.379746835443038,8.047639977685639e-05,-2.6548311406689174e-06,3.4856967212284486e-05,-2.334647059085624e-05,0.00010169648367254998
3.7373737373737375,6.379746835443038,0.00017781410961182354,-2.375806654308916e-05,5.850998260404583e-05,-4.621681292062032e-05,0.00021604878371411058
3.8383838383838382,6.379746835443038,-8.197394356942998e-05,-0.00019992528331248184,4.8843537678457265e-05,8.456976806457354e-05,0.0001935413546464454
3.9393939393939394,6.379746835443038,6.585125000501063e-05,1.874008390464477e-05,8.225076966083388e-05,-2.537740017289662e-05,0.00015410738869715027
4.040404040404041,6.379746835443038,0.00013341300541831882,0.00014181766609629458,0.00010070482236796916,-8.256920145438402e-05,0.0002222956210115774
4.141414141414141,6.379746835443038,-1.9159412324149827e-05,-0.0001517291467026179,4.195148402204733e-05,5.126656770803032e-05,0.00016050407094962026
4.242424242424242,6.379746835443038,-1.8239070748817123e-05,-2.908610919724723e-05,1.3552938988689173e-05,1.4197553983819306e-05,3.462958723767188e-05
4.343434343434343,6.379746835443038,-2.3518407822641757e-05,-4.080913267498845e-05,-3.228492699592673e-05,1.9298262149289063e-05,6.62245009377586e-05
4.444444444444445,6.379746835443038,-0.0001827780709846229,-3.383388667222928e-05,-1.5777126815248164e-05,6.498358729705564e-05,0.00017063181348148402
4.545454545454545,6.379746835443038,-0.0001402300989707265,5.984265667854453e-05,-2.1606713415612555e-06,2.4116232687654593e-05,0.00017790832298217007
4.646464646464646,6.379746835443038,7.567339228205241e-05,8.647617550970898e-05,3.419985174412418e-05,-4.8644870337528423e-05,0.00010084411363992338
4.747474747474747,6.379746835443038,0.00010877607734347794,-3.392521687786302e-05,5.1090301789573434e-05,-2.2455258139684474e-05,0.0001565377403960275
4.848484848484849,6.379746835443038,0.00011267325201145665,7.030414938428776e-05,-5.232416819349162e-05,-5.4893220418723324e-05,0.0001339029265172383
4.94949494949495,6.379746835443038,-0.00012070511045835678,4.810795586521027e-05,9.666778049020682e-05,2.1779146377943952e-05,0.00022522201177868365
5.05050505050505,6.379746835443038,0.0001226825891096593,-0.00012618985660995178,-0.00010452896141280393,1.0521802500877452e-06,0.0002814873127377033
5.151515151515151,6.379746835443038,6.379676661427724e-05,0.0001607768817800623,4.983846491819134e-05,-6.737209451830185e-05,0.00016466270281295696
5.252525252525253,6.379746835443038,1.0941131511990865e-05,-6.634516468027774e-05,6.078038602218502e-05,1.6621209950486066e-05,0.00012778906988543634
5.353535353535354,6.379746835443038,9.333687525091687e-05,-0.0002818043089176055,-7.258829849680809e-05,5.6540230100006585e-05,0.0003608813623183289
5.454545454545454,6.379746835443038,0.00011298372811732869,-3.555999622751713e-05,-3.53868152835236e-05,-2.3227119566943467e-05,0.00014766251109995783
5.555555555555555,6.379746835443038,4.053812088889604e-05,-9.930718537923874e-05,-0.00011161976394954565,1.7630719347102808e-05,0.0002300171691670987
5.656565656565657,6.379746835443038,9.825487484150257e-05,0.00013196061374792635,2.7296531265644078e-05,-6.906464657682867e-05,0.00012781687009329884
5.757575757575758,6.379746835443038,3.427552392766401e-05,5.107869967041256e-05,-8.212919932177715e-05,-2.560626707942297e-05,0.00014922704865907347
5.858585858585858,6.379746835443038,-3.051583661853813e-05,9.231843727633071e-05,-4.6883713240642286e-05,-1.854078019733777e-05,0.0001373511273931478
5.959595959595959,6.379746835443038,-4.440945889985308e-05,-6.958598682976225e-05,4.6154139324511074e-05,3.41986337188846e-05,0.00010057210006302285
6.0606060606060606,6.379746835443038,-3.4386661144540617e-05,9.488295689599844e-06,-9.813540698955169e-05,7.469509636482231e-06,0.00017461504901781824
6.161616161616162,6.379746835443038,-7.434054491132815e-05,1.6787136492516418e-06,1.8109893115284533e-05,2.179854937862295e-05,8.147414234348173e-05
6.262626262626262,6.379746835443038,3.476676116164374e-05,4.550114800262959e-05,-2.8719552825796386e-06,-2.4080372749282e-05,4.149577071793423e-05
6.363636363636363,6.379746835443038,3.2624714153667665e-05,-0.0001250453745123308,6.0102985521434264e-05,2.772619810759894e-05,0.0001778128056862326
6.4646464646464645,6.379746835443038,-3.08901208633489e-05,0.0002903946376211497,-2.0030990829989494e-05,-7.785135502734023e-05,0.000308961635743259
6.565656565656566,6.379746835443038,-0.00011049921555475676,6.966840774659213e-05,-7.031668268505845e-05,1.2249242342449387e-05,0.00019898586802233716
6.666666666666667,6.379746835443038,-3.402550478324679e-05,2.5529661934201525e-05,3.8781791770599e-05,2.54875285471358e-06,8.479528505347757e-05
6.767676767676767,6.379746835443038,8.28920643364542e-05,-4.300101505900792e-05,-2.039126374666745e-05,-1.1967314783233887e-05,0.00011632727730169941
6.8686868686868685,6.379746835443038,-3.044395648692086e-05,0.00012085211442560379,8.234124819964977e-05,-2.712244738160488e-05,0.00019887565971196978
6.96969696969697,6.379746835443038,-1.0203275056412875e-05,9.667731717064088e-05,-0.0001251038532051283,-2.5942212634268398e-05,0.00023956201284074336
7.070707070707071,6.379746835443038,-7.760247142155989e-05,4.881628786765315e-05,-3.415230908348162e-05,8.635855066172021e-06,0.00012527002340252346
7.171717171717171,6.379746835443038,-0.0001757954376461042,-9.623791230732126e-05,1.4062976691199299e-05,8.161000498602764e-05,0.00015440494710499295
7.2727272727272725,6.379746835443038,-6.560730530750409e-05,5.251761564146555e-05,6.26607464138779e-05,3.926906899811562e-06,0.00014928852979791008
7.373737373737374,6.379746835443038,5.183108924254478e-05,5.698380113534805e-05,-4.88709787199137e-05,-3.2644467113367844e-05,0.00010072338658426184
7.474747474747475,6.379746835443038,-0.00011833321306668348,1.6080181307396114e-05,5.03507572092182e-05,3.067590952778621e-05,0.0001541743731006803
7.575757575757575,6.379746835443038,-4.803832457009701e-05,5.5477610280089834e-05,4.531819975035649e-05,-2.2317857129978465e-06,0.00011921289781202139
7.6767676767676765,6.379746835443038,9.53197722394994e-05,3.491163694590127e-05,-3.536064496521381e-05,-3.90694227556202e-05,0.00010357624114104913
7.777777777777778,6.379746835443038,-3.284031391352725e-05,9.203159481027964e-05,-3.342524018488656e-05,-1.7757384269025718e-05,0.00012618394180341134
7.878787878787879,6.379746835443038,0.00010753537184034857,-1.316719831786821e-05,-4.0964568542367735e-05,-2.8310452056744107e-05,0.00013486088574222958
7.979797979797979,6.379746835443038,-9.396857836434733e-05,3.57208934879256e-05,7.44679807047202e-05,1.747430546292652e-05,0.0001734910890537972
8.080808080808081,6.379746835443038,1.1289918026109055e-05,3.593588947820357e-05,4.55821096200191e-05,-1.4167742251293787e-05,8.512533880964002e-05
8.181818181818182,6.379746835443038,5.750084106751783e-05,5.107235653230776e-05,-1.2101618242608607e-05,-3.2571959279947676e-05,5.845833013007455e-05
8.282828282828282,6.379746835443038,0.0001845779882131891,0.0001923920029936195,-2.8447415625978065e-06,-0.00011309099736204257,0.00018867078563341715
8.383838383838384,6.379746835443038,2.8901092784233818e-05,5.467889273081194e-05,1.1360446131100232e-05,-2.5073995654513726e-05,5.130257236368423e-05
8.484848484848484,6.379746835443038,8.725384962283599e-05,0.00012914670109421284,-7.224759156546254e-05,-6.492016521511466e-05,0.0001693596802724672
8.585858585858587,6.379746835443038,-0.00010149750984961266,-0.00010706928042512426,-5.102447903178398e-05,6.257003708242107e-05,0.00013678012411633868
8.686868686868687,6.379746835443038,2.566861290061632e-05,-2.9052407515241203e-05,-7.261404601063701e-05,1.0151383843874652e-06,0.0001344137422554619
8.787878787878787,6.379746835443038,-2.3517611204432594e-05,-5.872105627639727e-05,-8.131884124827237e-06,2.467160024424896e-05,5.309090443960814e-05
8.88888888888889,6.379746835443038,-7.687981245441658e-05,-3.798928625944832e-05,-7.06606206610515e-05,3.4460729614159466e-05,0.0001393264230763142
8.98989898989899,6.379746835443038,-3.472175666962601e-05,8.434085891645408e-05,5.072971143257781e-05,-1.488573067404842e-05,0.0001377241972773563
9.09090909090909,6.379746835443038,0.00015309454468978795,0.0001340055693673259,2.5682110833061506e-08,-8.613003421713416e-05,0.0001444988324719635
9.191919191919192,6.379746835443038,0.00012190075057601574,6.492855145027017e-05,-2.263649272138285e-06,-5.604879060788577e-05,0.00010571680544221316
9.292929292929292,6.379746835443038,7.865653265364436e-05,-4.359552743624273e-05,4.3722927990318235e-05,-1.051830156522049e-05,0.00013134525672828595
9.393939393939394,6.379746835443038,-4.015414049570309e-05,0.00013138178052053123,8.783415777694491e-05,-2.736829200744844e-05,0.0002174708429708371
9.494949494949495,6.379746835443038,0.0001430411482616119,-8.019442628088799e-05,-5.460389323346096e-05,-1.885401659421717e-05,0.00021750350431814708
9.595959595959595,6.379746835443038,-5.616098905277418e-05,0.00016288985602239817,9.299656602196731e-07,-3.2018660090887194e-05,0.00019707311286842977
9.696969696969697,6.379746835443038,2.4173065089341232e-05,-0.00022234916989447373,4.072001356094074e-05,5.945283144153975e-05,0.00024570858735136787
9.797979797979798,6.379746835443038,9.441915390852512e-05,8.453494868379792e-05,3.6807522834496036e-05,-5.368623077769691e-05,0.00011019889770313111
9.8989898989899,6.379746835443038,-9.321827268992419e-05,-0.00016254214300502696,-3.590611245678699e-05,7.672812470848535e-05,0.00015435492716784504
10.0,6.379746835443038,-7.572339414838984e-05,-5.551395856223178e-05,3.5853917054129985e-05,3.937120581318649e-05,9.202519631073671e-05
0.0,6.481012658227848,-0.00015684892266871935,-6.85439209927644e-05,1.0836947125746245e-05,6.761785309844513e-05,0.00013748138693370088
0.10101010101010101,6.481012658227848,7.21335400965794e-05,-0.00010290482803054844,-5.6478406785069046e-05,9.231386380190714e-06,0.00018106620909676645
0.20202020202020202,6.481012658227848,-0.00011057509527091939,4.6255712585556076e-05,-0.00010021085247947875,1.9295814805608995e-05,0.00022272812424777917
0.30303030303030304,6.481012658227848,-2.8625729147537017e-05,0.00010572050739103714,2.5574409535451784e-06,-2.3128433473050036e-05,0.00012264667209042042
0.40404040404040403,6.481012658227848,-0.0003728269560330043,-0.00010316669181303917,-2.3505971771122335e-05,0.00014279809435381304,0.0003359130451449396
0.5050505050505051,6.481012658227848,0.000241460777897088,3.405893868034508e-05,5.300028894577852e-05,-8.265591497322993e-05,0.00024426729749109084
0.6060606060606061,6.481012658227848,-0.00010509243135027417,0.00014290490136853947,3.3717395971566526e-05,-1.134374100547959e-05,0.00022337198094717534
0.7070707070707071,6.481012658227848,-0.00013317951051150203,-7.245531960285668e-05,-5.76393229415707e-05,6.169044903430761e-05,0.00015265603822862866
0.8080808080808081,6.481012658227848,6.671351785568608e-05,-6.0752235528837174e-05,-8.26539266005315e-05,-1.788384698054671e-06,0.00018080248251508142
0.9090909090909091,6.481012658227848,0.00013634854747580287,0.0001224620071912005,8.821017431288337e-05,-7.7643166400101e-05,0.00020058279427581817
1.0101010101010102,6.481012658227848,-8.585806704306795e-05,-0.00015766202803252886,-3.762068895793706e-05,7.305602852267904e-05,0.00015145400126688132
1.1111111111111112,6.481012658227848,3.340314067014376e-07,0.0001094148319319511,0.00010148913661620667,-3.292465900159576e-05,0.00020696691423211278
1.2121212121212122,6.481012658227848,-9.029549469336193e-05,-7.137520521425628e-06,6.661619218736115e-05,2.9229904564436268e-05,0.0001444745160897827
1.3131313131313131,6.481012658227848,-5.1092427470651275e-05,-0.00013872890926736706,-1.514672844461945e-05,5.69464010214055e-05,0.00012432385058490082
1.4141414141414141,6.481012658227848,-5.4373433743598224e-05,-3.9908114369462e-05,2.933751365236706e-05,2.8284464433918063e-05,7.043618245620722e-05
1.5151515151515151,6.481012658227848,0.00019150874270766212,6.738023643272969e-05,0.00010166472823462612,-7.766669374211753e-05,0.00024355480149995846
1.6161616161616161,6.481012658227848,1.2731927237349933e-05,-3.3700307723717275e-05,-3.9871069562761914e-05,6.290514145910202e-06,8.059769935860998e-05
1.7171717171717171,6.481012658227848,5.9101997304878955e-05,0.00012089915876739509,7.821373015690928e-05,-5.4000346821682204e-05,0.000171220424236218
1.8181818181818181,6.481012658227848,-4.2875088790722996e-05,-0.0002765924076992272,3.176077803010393e-06,9.584024894698506e-05,0.00025790108880606927
1.9191919191919191,6.481012658227848,-1.4180749694968956e-05,0.0002901325446833841,-2.763553148731184e-05,-8.278553849652454e-05,0.0003013029238866515
2.0202020202020203,6.481012658227848,-3.002286638296213e-05,-1.4229318290067858e-05,0.00010852048421721018,1.3275655401908994e-05,0.0001897543874784433
2.121212121212121,6.481012658227848,0.0001707663808221408,7.681628246722451e-05,-1.9858823226484247e-05,-7.427479898680959e-05,0.0001520768822203424
2.2222222222222223,6.481012658227848,-0.00010937106535329715,-0.0002053243622915371,-4.528855712036018e-05,9.440862829345027e-05,0.0001944652659429498
2.323232323232323,6.481012658227848,8.017327462830125e-05,2.192612610590818e-05,-2.4905243413644007e-05,-3.062982022026283e-05,8.373430055414588e-05
2.4242424242424243,6.481012658227848,-0.00013457846935790614,-2.864411233955702e-05,-3.42159799835806e-05,4.896677450923894e-05,0.00013634210153278008
2.525252525252525,6.481012658227848,1.875968196666742e-05,-3.0316862176636873e-05,-2.8449182941967745e-05,3.4671540629908355e-06,6.532871131887835e-05
2.6262626262626263,6.481012658227848,1.1149182756567312e-05,0.00011350447283394903,-2.6535804024293652e-05,-3.73960966771549e-05,0.00011770528536894866
2.727272727272727,6.481012658227848,-2.2623535045255392e-05,-3.7594623390112825e-05,4.6386130591682283e-05,1.8065447530610464e-05,8.677370626989912e-05
2.8282828282828283,6.481012658227848,-2.3369643259079828e-05,-0.00017166508325692568,-4.9871710661700674e-05,5.851041795480165e-05,0.00018293400955777048
2.929292929292929,6.481012658227848,-0.00013912822226059784,2.923979034025739e-05,4.571108856332508e-05,3.296652957610214e-05,0.000174780486527477
3.0303030303030303,6.481012658227848,-0.00012185151446283276,-2.2003223510149458e-05,1.7427737730503295e-05,4.315642139189466e-05,0.00011645593776685344
3.131313131313131,6.481012658227848,-1.5604705445257523e-05,0.0001080278542864372,3.247363189466849e-05,-2.77269446523539e-05,0.00012947153078989723
3.2323232323232323,6.481012658227848,5.094270278728156e-05,6.704096116194296e-05,-4.878076540081615e-05,-3.539509918476735e-05,0.00010398601300661684
3.3333333333333335,6.481012658227848,0.00012939405402559957,9.858771275434908e-06,-3.7456168300656955e-05,-4.177584759031035e-05,0.0001406173667670636
3.4343434343434343,6.481012658227848,-0.0001999517387670157,-0.00020867606665757072,0.00011737058549517443,0.00012258834162737594,0.00028832068826711865
3.5353535353535355,6.481012658227848,-8.89008867450491e-05,1.5444979196123392e-05,-8.814916657890003e-07,2.203677226467771e-05,9.755674489951734e-05
3.6363636363636362,6.481012658227848,0.00012527052831363733,6.50088122046578e-05,3.511840422039126e-05,-5.708380215548854e-05,0.00012439883288551843
3.7373737373737375,6.481012658227848,0.000204972423779934,4.067500300537669e-05,-1.1428831968917647e-05,-7.36942280355932e-05,0.00018900463228969117
3.8383838383838382,6.481012658227848,1.0610070732781279e-05,-0.00012160666439273228,-3.7066896763932434e-05,3.32989780979853e-05,0.00014252324106471127
3.9393939393939394,6.481012658227848,8.87606814454368e-05,-0.0002073555194114079,-3.557490401920167e-05,3.5578451389791326e-05,0.0002703266701481531
4.040404040404041,6.481012658227848,1.4449123251333352e-05,-5.307421410045605e-05,3.2615576519339916e-05,1.1587527254736808e-05,8.356944849156996e-05
4.141414141414141,6.481012658227848,0.00017858765250080468,-3.9087030064739e-05,-2.078293369578409e-05,-4.18501867308197e-05,0.00020419989590234899
4.242424242424242,6.481012658227848,-0.00012727314375339665,0.0001263194628308322,-1.7341007421649791e-06,2.861042767693329e-07,0.00021963869485729296
4.343434343434343,6.481012658227848,-0.00010499986154375408,-4.649089001473698e-05,1.813902907497546e-05,4.5447225467547316e-05,9.639455322436549e-05
4.444444444444445,6.481012658227848,8.182715429003518e-05,-3.460203271989288e-06,-9.818313362321134e-05,-2.3510085305413768e-05,0.00018950086532024273
4.545454545454545,6.481012658227848,-4.871909586122448e-05,6.675390428998505e-06,-6.532037075615488e-05,1.2613111629667792e-05,0.00012467390517787122
4.646464646464646,6.481012658227848,0.00012042159464707872,0.0001283816476942661,2.861829421245501e-05,-7.464097270240345e-05,0.00013409066139805905
4.747474747474747,6.481012658227848,0.00012235645971190036,0.00019974803036930275,2.9729229957112396e-05,-9.663134702436092e-05,0.000181882924929091
4.848484848484849,6.481012658227848,-0.00012536442437281913,-5.581431124460472e-05,3.186951279292724e-05,5.435362068522715e-05,0.00012198911744114028
4.94949494949495,6.481012658227848,-0.0001620729394058984,0.0001014206864295679,-1.4010224283552251e-06,1.8195675892899145e-05,0.00023021127400987772
5.05050505050505,6.481012658227848,5.122201325898162e-05,-0.00010812654820043055,7.236753805626029e-05,1.707136048243468e-05,0.00018858601816302962
5.151515151515151,6.481012658227848,-9.197981431181485e-06,-8.653110995197517e-05,-3.286688350362866e-05,2.8718727414946994e-05,0.0001000850658344924
5.252525252525253,6.481012658227848,-1.9451286383422843e-05,4.8301693357417085e-05,5.438661767740465e-05,-8.655122092198272e-06,0.00011191357710585354
5.353535353535354,6.481012658227848,-6.385887774714485e-05,1.6762448866758703e-05,-1.6468585903874732e-05,1.4128928664115843e-05,7.901272110920182e-05
5.454545454545454,6.481012658227848,1.2403892970223723e-05,0.0001091695710900414,-1.0500898932376107e-05,-3.6472039218079534e-05,0.00010511199157355073
5.555555555555555,6.481012658227848,-0.0001843701436569248,0.0001259245594317753,2.647560955242191e-05,1.753367526754485e-05,0.00027416955949931797
5.656565656565657,6.481012658227848,-0.00018589247654979987,-1.3930465202895212e-05,6.82743586568617e-05,5.994688252580852e-05,0.00021481309590559724
5.757575757575758,6.481012658227848,8.404549266576071e-06,-8.814167036354221e-06,2.050524920176724e-05,1.2288533093344512e-07,3.852013531258238e-05
5.858585858585858,6.481012658227848,5.1176877204334594e-05,0.00011978566738753698,-2.528245628721631e-06,-5.1288763377561475e-05,0.00010419500256255759
5.959595959595959,6.481012658227848,4.895707794142668e-06,2.6891917431214464e-05,3.114302022201582e-05,-9.536287567607139e-06,5.9372984882117105e-05
6.0606060606060606,6.481012658227848,-6.971656549714977e-05,-8.671515977448975e-05,9.521438375426484e-06,4.692951758149186e-05,8.127981723423576e-05
6.161616161616162,6.481012658227848,2.5294651064721902e-05,-6.21622458932019e-05,-2.8253112109641756e-05,1.1060278448543998e-05,9.203831559671696e-05
6.262626262626262,6.481012658227848,-0.00017555687296228002,6.881821072971412e-05,1.805886290888614e-05,3.202159866976977e-05,0.00022049045158370722
6.363636363636363,6.481012658227848,8.006021632449509e-05,4.4073284492327824e-05,0.000104442287399141,-3.7240050245046875e-05,0.00019377345056734198
6.4646464646464645,6.481012658227848,-1.3356700425005693e-05,-2.6954390494211856e-05,7.090233068334009e-05,1.2093327275765264e-05,0.0001250053614177293
6.565656565656566,6.481012658227848,-4.2868384579409656e-05,0.00016807379198713,6.213639272495038e-05,-3.7561622222316106e-05,0.0002210754256008863
6.666666666666667,6.481012658227848,0.0002866980380173198,8.7041798792519e-05,-4.1809387394898006e-05,-0.00011212195104295163,0.0002646911434553759
6.767676767676767,6.481012658227848,0.00013107003230275008,-5.305552233673183e-05,-2.2751230527022367e-05,-2.3404352989805474e-05,0.00016882264752178029
6.8686868686868685,6.481012658227848,4.729976272623059e-05,1.5805036156409926e-05,-1.6041573018829815e-05,-1.893143966479215e-05,5.011475288316604e-05
6.96969696969697,6.481012658227848,6.164895941816776e-05,0.0001078856864932389,4.833454324818041e-05,-5.0860393773421995e-05,0.00012568834254642766
7.070707070707071,6.481012658227848,6.495681527600669e-05,6.2385667815520295e-06,8.341855167104915e-05,-2.1358614617267617e-05,0.00015725468013690189
7.171717171717171,6.481012658227848,-4.1286206618798775e-05,2.5710691041937373e-05,-0.00013727637500348676,4.67265467305842e-06,0.00024487036732889387
7.2727272727272725,6.481012658227848,0.00010248928482931331,4.6775891072104875e-05,7.043949362912374e-05,-4.4779552770425454e-05,0.00015094097076460628
7.373737373737374,6.481012658227848,-6.863068291566035e-05,-6.386196090441206e-05,-6.919385881369213e-05,3.974779314602172e-05,0.00013700000361828844
7.474747474747475,6.481012658227848,4.171462852362097e-05,-4.904165015521764e-05,-5.659475570326004e-05,2.198106489479002e-06,0.00012569744237873653
7.575757575757575,6.481012658227848,0.00016263120193736846,1.323692999613176e-05,2.1245731261316875e-05,-5.276043958005007e-05,0.0001607032346114047
7.6767676767676765,6.481012658227848,9.110915449315641e-05,0.00011260549435985014,-2.878773782424928e-05,-6.111439465590196e-05,0.0001149246951581225
7.777777777777778,6.481012658227848,0.00012633199761785303,0.00013203416612495597,2.167663354956357e-05,-7.750984912284271e-05,0.00013461903287493465
7.878787878787879,6.481012658227848,-0.00010921635854843681,-0.0001908263508643565,2.1826263414520903e-05,9.001281282383799e-05,0.0001700902916871389
7.979797979797979,6.481012658227848,-0.0001377141442158399,-5.65159011499973e-06,2.3205900763447185e-05,4.3009720299251886e-05,0.0001408345255344445
8.080808080808081,6.481012658227848,1.8421076590551618e-05,-0.00019277995072535277,-0.00012792821100718587,5.230766224044034e-05,0.00030025246246509973
8.181818181818182,6.481012658227848,0.00010874044144746358,4.8094582558635e-05,4.3430557231667393e-05,-4.7050507201829566e-05,0.00012069128486920906
8.282828282828282,6.481012658227848,-6.675657521680991e-06,-1.570629202454444e-05,-3.078076644563948e-05,6.7145848638676284e-06,5.50342523793927e-05
8.383838383838384,6.481012658227848,7.068389579102499e-05,-0.0002181843443570983,2.1812685035607626e-05,4.4250134569821986e-05,0.00026353390748040645
8.484848484848484,6.481012658227848,-0.00017069918670123614,-0.00012047183215610689,3.319934737412075e-05,8.73513056572029e-05,0.00016246175215188345
8.585858585858587,6.481012658227848,-3.217002604044286e-05,1.1355719430632447e-06,1.8822263617905243e-05,9.310336229213883e-06,4.621216615963315e-05
8.686868686868687,6.481012658227848,-0.00021800096669114262,-0.0001345361711325513,1.380211001195793e-05,0.00010576114134710816,0.0001920075055350837
8.787878787878787,6.481012658227848,9.629612009207969e-05,-0.00017111228144599524,-1.1284733706517855e-05,2.2444848406174664e-05,0.0002353971963602712
8.88888888888889,6.481012658227848,6.086240283858198e-05,-0.00011064492443881267,-1.6742635113175898e-05,1.4934756480069207e-05,0.00015336751558982342
8.98989898989899,6.481012658227848,0.000130991066890726,3.028280201119636e-05,2.682781485514035e-05,-4.838216067057671e-05,0.0001275465644721088
9.09090909090909,6.481012658227848,-1.1482513527807225e-05,9.910638101177963e-05,3.0176684529993592e-05,-2.628716024519172e-05,0.0001175747000952856
9.191919191919192,6.481012658227848,3.3456276037843034e-05,-3.0369922700453207e-05,-4.8297378015296665e-05,-9.259060012169483e-07,0.00010027776073349242
9.292929292929292,6.481012658227848,4.7719656421039136e-05,5.533031595394491e-05,2.12125851272984e-05,-3.0914991712495214e-05,6.362536529454463e-05
9.393939393939394,6.481012658227848,-8.614002592870081e-05,-3.5865110000973726e-05,-1.7052119204054487e-05,3.660154077890236e-05,8.055627216429184e-05
9.494949494949495,6.481012658227848,0.000136574704763674,-2.9814191885108446e-05,5.8117804552326026e-05,-3.2028153863569664e-05,0.00018370203616582505
9.595959595959595,6.481012658227848,-3.0301432658127966e-05,-0.00016516812025605453,4.904606716151177e-06,5.8640865874254744e-05,0.0001525320281054621
9.696969696969697,6.481012658227848,0.0002517569382237894,-0.00010302457269755243,-8.02171643373976e-05,-4.46197096578711e-05,0.00034530732669678377
9.797979797979798,6.481012658227848,-4.1890579990195376e-07,0.00013576828470000845,4.9402566820028386e-06,-4.0604813670031945e-05,0.00013624718398046813
9.8989898989899,6.481012658227848,-0.0001452131890583382,-9.343173146323215e-05,1.4913781395421716e-05,7.159347615647111e-05,0.00013006191472611522
10.0,6.481012658227848,0.00017608847839094676,3.411937572723254e-05,3.14218838811148e-05,-6.306235623545379e-05,0.00017066124172322313
0.0,6.582278481012658,-0.00017326092717298043,0.0001261721171987155,2.4376861483986214e-05,1.4126642992279482e-05,0.00026378427583899496
0.10101010101010101,6.582278481012658,0.00023088853152414415,-0.0001685353018146559,4.6437787137169866e-05,-1.870596891284647e-05,0.0003565051675862336
0.20202020202020202,6.582278481012658,-4.4214593653421676e-05,3.317161090635527e-05,-7.393296970665705e-05,3.3128948241199207e-06,0.00014463819477596553
0.30303030303030304,6.582278481012658,-4.4429093730544814e-05,-0.00011762503790678596,-6.149007993783422e-05,4.861623949119923e-05,0.0001480767026589754
0.40404040404040403,6.582278481012658,-4.531093195027797e-06,-9.528897863483098e-05,-9.044898391670312e-06,2.9946021548957633e-05,9.441497536357668e-05
0.5050505050505051,6.582278481012658,7.057794396801157e-05,8.005225608777528e-05,4.3511486454983876e-05,-4.518906001673605e-05,0.0001068617545962322
0.6060606060606061,6.582278481012658,8.205930939516672e-05,-4.120536508407052e-05,9.650074199540491e-06,-1.225618329332886e-05,0.00010996484878572647
0.7070707070707071,6.582278481012658,3.0368289185414128e-05,4.942658760993195e-05,0.00010266261787378426,-2.393846303860382e-05,0.00018298376696013376
0.8080808080808081,6.582278481012658,-6.036689480321947e-05,0.00010347877423402874,-0.00011618242120229668,-1.293356382924278e-05,0.0002471715517064927
0.9090909090909091,6.582278481012658,-0.0001413922926876947,7.562394326854245e-05,-3.596161539221567e-06,1.9730504825745672e-05,0.0001908984051301591
1.0101010101010102,6.582278481012658,5.121163940188589e-05,4.681497186607804e-05,1.9485418050304925e-05,-2.9407983380389175e-05,5.96309206118847e-05
1.1111111111111112,6.582278481012658,-5.424510380088074e-05,-8.269626870228072e-05,-9.648049463782498e-06,4.108241175094844e-05,7.466318396180395e-05
1.2121212121212122,6.582278481012658,0.00030859575560325336,-9.985368183107788e-05,2.4152026743053117e-05,-6.262262213165264e-05,0.0003711690743224505
1.3131313131313131,6.582278481012658,-1.5996932148340314e-05,-1.2837591176842588e-06,1.285964329107153e-05,5.1842073798073715e-06,2.707628011472839e-05
1.4141414141414141,6.582278481012658,-8.265396474173215e-05,-9.072198466912189e-05,-1.0146970793723315e-05,5.201278482325621e-05,8.872715320890413e-05
1.5151515151515151,6.582278481012658,2.2858849037927892e-05,-1.5370432420256788e-05,4.320338492711883e-05,-2.246524985301331e-06,8.191291091121824e-05
1.6161616161616161,6.582278481012658,-0.0001120525600359877,-1.6969010305805423e-05,0.00012669265937604603,3.870647110253793e-05,0.00024309543865457263
1.7171717171717171,6.582278481012658,-0.00016081698762990794,-0.00011455976490882154,-3.145604622213321e-05,8.261302576161885e-05,0.00015339926819213397
1.8181818181818181,6.582278481012658,1.43661000762075e-05,-6.438700082373255e-05,3.68663239767195e-05,1.5006270224257516e-05,9.671834538796076e-05
1.9191919191919191,6.582278481012658,7.022393818540806e-05,2.8360286978235823e-06,-1.2314752901558186e-06,-2.1917990064969492e-05,6.88827775517631e-05
2.0202020202020203,6.582278481012658,0.0001032658332529308,-4.390713070734775e-06,3.2957860689654255e-05,-2.9662536054658807e-05,0.00011997992776390374
2.121212121212121,6.582278481012658,-8.673209662489774e-05,-0.00012382786153889003,5.803173601999824e-05,6.316798744913632e-05,0.00014906036690845735
2.2222222222222223,6.582278481012658,-3.7050996438427266e-05,6.305863771291427e-05,8.93925572757892e-06,-7.802292382346101e-06,8.902406622644994e-05
2.323232323232323,6.582278481012658,-0.0001416357140423533,1.615349715897299e-06,-6.261080954787143e-05,4.20061092979368e-05,0.0001790318867524739
2.4242424242424243,6.582278481012658,5.4389086307218564e-05,-5.613184178082861e-05,-6.646550561488306e-05,5.228266420830138e-07,0.00014971608553581952
2.525252525252525,6.582278481012658,-2.104359934082073e-05,9.003574120108922e-05,2.7036095937063015e-05,-2.0697642558080547e-05,0.00011241350133142495
2.6262626262626263,6.582278481012658,-7.772350423322325e-05,1.34738829379619e-05,1.0922138473201992e-05,1.9274886388578403e-05,8.733616293247492e-05
2.727272727272727,6.582278481012658,-9.024485265887151e-05,0.00010484697910003265,2.537377402566641e-05,-4.380637932348341e-06,0.00017472952773744653
2.8282828282828283,6.582278481012658,-9.453728374376913e-05,-0.00013163582593441538,-7.37935829681693e-06,6.785193290345534e-05,0.00011825464069750834
2.929292929292929,6.582278481012658,2.4571971388390436e-05,-5.916401003714064e-05,-4.2917256695157375e-05,1.037761159462506e-05,0.00010527872999877949
3.0303030303030303,6.582278481012658,-0.00013023512839316017,-6.251222007094136e-05,-6.173999106932124e-05,5.782420453923046e-05,0.000155445034692073
3.131313131313131,6.582278481012658,6.388756762849384e-06,5.07504913261935e-05,-4.4472164923167756e-06,-1.7141774426712866e-05,4.849256893314017e-05
3.2323232323232323,6.582278481012658,-0.0002038906237386392,-0.0001646787116732596,-1.177458030384797e-05,0.00011057080062356963,0.0001884938765884844
3.3333333333333335,6.582278481012658,0.00013318420127404174,-6.469747262894958e-05,2.6453386728193596e-05,-2.0546018593527647e-05,0.00018066494031296739
3.4343434343434343,6.582278481012658,-0.00021449252388723507,-4.381574768660333e-05,-4.0757179188344206e-05,7.749248147215152e-05,0.0002085956739909022
3.5353535353535355,6.582278481012658,1.519633139417956e-05,-0.00016148007622341542,7.682726844434052e-05,4.388512344877076e-05,0.00021556422659306542
3.6363636363636362,6.582278481012658,0.00014715705695773006,3.936038887835351e-05,1.7270913017342877e-05,-5.595523375082507e-05,0.00013530385784013487
3.7373737373737375,6.582278481012658,5.242491280908191e-06,-0.00020703227207354545,3.87194108004237e-05,6.053693423779118e-05,0.00022016536647296054
3.8383838383838382,6.582278481012658,-4.637372516607053e-05,-0.00010009251128373582,2.1327116117400347e-05,4.39398709349419e-05,9.429691531044099e-05
3.9393939393939394,6.582278481012658,4.1182807091752954e-05,5.589185254949195e-05,5.87694651659598e-05,-2.912239789237347e-05,0.00011348871973682295
4.040404040404041,6.582278481012658,3.9691916620284385e-05,8.758222263202385e-05,-6.127442878597558e-05,-3.8182241775692465e-05,0.00013051227741929226
4.141414141414141,6.582278481012658,7.446256335895772e-05,2.8794039194088522e-05,2.263810312265267e-06,-3.097698076591387e-05,6.515417545051987e-05
4.242424242424242,6.582278481012658,-1.465887356533763e-05,-0.00012146768529590404,-1.543840845320116e-05,4.083796765837251e-05,0.00011791410039103076
4.343434343434343,6.582278481012658,-4.679015574866695e-05,3.130145941117916e-05,7.143695930465196e-06,4.646608901246337e-06,6.918668493217963e-05
4.444444444444445,6.582278481012658,3.271385745477264e-05,9.647634571814744e-05,-3.8776921855080515e-05,-3.875706095187602e-05,0.00010831766862697384
4.545454545454545,6.582278481012658,-0.00014849038055255392,-2.880724799437316e-05,-9.334524578889253e-06,5.3189288564078125e-05,0.00013734282465289912
4.646464646464646,6.582278481012658,-0.00015751454332729208,-1.2725957935730352e-05,5.2408068148512336e-05,5.107215037890673e-05,0.0001766580729361548
4.747474747474747,6.582278481012658,3.802582992709718e-05,-4.951091716959001e-05,3.406038086881517e-05,3.4455261727478483e-06,9.62305409484442e-05
4.848484848484849,6.582278481012658,0.00010080216034535653,7.645093832016461e-05,1.3055736895950607e-05,-5.317592959965634e-05,9.38656409710776e-05
4.94949494949495,6.582278481012658,-3.7304699912286705e-05,6.590048561772335e-06,-4.508746708748288e-05,9.21439540515431e-06,8.820174728819804e-05
5.05050505050505,6.582278481012658,0.0002229766708234545,4.8528126734115695e-05,6.313329065174718e-05,-8.145143926727107e-05,0.0002306737346143157
5.151515151515151,6.582278481012658,-0.00010891328893263131,-3.2034438559434707e-06,-4.7630941018120436e-06,3.3635019836572434e-05,0.00010766396866485708
5.252525252525253,6.582278481012658,8.739551769486644e-05,9.503429560861514e-05,6.0734262099707895e-05,-5.4728943991044474e-05,0.0001393910835379563
5.353535353535354,6.582278481012658,-0.00018320471850853846,8.512210536983837e-05,-5.0615373827160303e-05,2.9424783941610027e-05,0.000253160544442675
5.454545454545454,6.582278481012658,-0.00017500237852333995,-6.026989426031053e-05,-6.572516342760528e-05,7.058168183509515e-05,0.00019149493235286178
5.555555555555555,6.582278481012658,-4.470484646208207e-05,-0.00012799901360803232,2.998664351023647e-05,5.1811158021034316e-05,0.000123926150986031
5.656565656565657,6.582278481012658,-9.954981855163998e-05,-0.00013099809842509482,-6.436773966305407e-05,6.916437509302044e-05,0.00016266360675891618
5.757575757575758,6.582278481012658,-4.416374224618453e-05,1.6833285087187036e-06,-7.535856346575948e-05,1.2744124121239747e-05,0.00013807371608419574
5.858585858585858,6.582278481012658,-3.5875943754808706e-06,-8.578213467705946e-05,3.854167592883573e-05,2.68109187157621e-05,0.00010733161840521262
5.959595959595959,6.582278481012658,-8.52093814793256e-05,-0.0001180756191647163,8.640209742717203e-05,6.098550019321256e-05,0.00018313193980256436
6.0606060606060606,6.582278481012658,9.39045685572789e-05,4.029492999778319e-05,3.4104314175164236e-06,-4.0259849566518625e-05,8.180931786983744e-05
6.161616161616162,6.582278481012658,-2.1939121723400173e-05,-1.7575681471106854e-05,7.946185340990816e-05,1.1854440958352108e-05,0.0001390941877578458
6.262626262626262,6.582278481012658,-3.8408972010802903e-05,-2.2835610727702514e-06,2.7777554816360885e-05,1.2207759925071947e-05,6.088950815615546e-05
6.363636363636363,6.582278481012658,0.00023110962493978594,-1.8299901304124046e-05,-6.301258136148181e-05,-6.384291709069856e-05,0.00026436260076624396
6.4646464646464645,6.582278481012658,-9.23069308285618e-05,-8.824964180678003e-05,6.063209043350373e-05,5.416697179060255e-05,0.0001385325461655845
6.565656565656566,6.582278481012658,8.192328591434704e-05,0.00017528916843069365,6.963577206780599e-06,-7.71637363035122e-05,0.00015239070478095595
6.666666666666667,6.582278481012658,0.00018136565202943355,0.00011493157030571436,-2.2305428740883294e-06,-8.888916670054437e-05,0.00015897500547657108
6.767676767676767,6.582278481012658,-1.7776313125620577e-05,4.863579414182824e-05,-9.325508741876094e-05,-9.257844304862301e-06,0.00017214975130498157
6.8686868686868685,6.582278481012658,0.00013279408057431248,-0.00011379005739284785,2.2719186822931888e-05,-5.701206954439391e-06,0.00021735127190037774
6.96969696969697,6.582278481012658,7.29797446995396e-05,-0.00013039535650329732,3.34771960850994e-05,1.722468354112731e-05,0.00018763629695453022
7.070707070707071,6.582278481012658,2.1409064275007274e-05,-1.7875743898433034e-05,2.539460186062378e-05,-1.059996112972272e-06,5.563497653560816e-05
7.171717171717171,6.582278481012658,-0.00012795304079049567,-0.00010009843908856254,3.823989023474231e-05,6.841544396371746e-05,0.00013405463852934202
7.2727272727272725,6.582278481012658,-2.7236005030392947e-05,5.0367903893848144e-05,-2.6024538328560572e-05,-6.9395696590365585e-06,8.174580100618541e-05
7.373737373737374,6.582278481012658,-0.00016723853726741431,4.942082996060266e-05,-1.9168060803128883e-05,3.53453121920435e-05,0.0001994453753771926
7.474747474747475,6.582278481012658,-0.00011255485653109478,-7.008684116573653e-05,1.816829126031611e-05,5.4792509309049395e-05,0.0001033557308675162
7.575757575757575,6.582278481012658,3.068624777739806e-05,-0.00021838577504437994,-2.3793638718526248e-05,5.6309858180094566e-05,0.00023881759625049532
7.6767676767676765,6.582278481012658,-5.7385542833649017e-05,-0.00011932780469639661,-6.312557430553614e-05,5.3014004259013685e-05,0.0001504627829283204
7.777777777777778,6.582278481012658,0.00010394784112057274,1.002617036306356e-06,3.5665514774614636e-05,-3.148513744706373e-05,0.00012049077089374662
7.878787878787879,6.582278481012658,-8.559760534285886e-05,-0.00013411465953044882,-6.320623906216494e-05,6.59136794619923e-05,0.00016068255727791808
7.979797979797979,6.582278481012658,4.916253801340792e-05,-3.0740618136149167e-05,1.0135794430263594e-06,-5.526575963177626e-06,6.983057772099833e-05
8.080808080808081,6.582278481012658,-7.667325952820005e-05,3.583517629065895e-05,-4.0891893326650885e-05,1.2251424971262331e-05,0.00012217605812084626
8.181818181818182,6.582278481012658,-4.2522019362023056e-05,-1.9184767031439687e-06,3.625080649546262e-05,1.3332148819550108e-05,7.531658578747789e-05
8.282828282828282,6.582278481012658,1.6216696447621536e-05,8.62107134527698e-05,-2.5973782745655334e-05,-3.0728222970117394e-05,9.122021463178511e-05
8.383838383838384,6.582278481012658,0.0002059204059892916,-5.4616734665806855e-05,1.2046627701708292e-05,-4.539110139704542e-05,0.00023888965067891257
8.484848484848484,6.582278481012658,0.00024516749551276045,-0.00017393768620367278,-7.347122685309046e-05,-2.13689427927263e-05,0.000386263316878034
8.585858585858587,6.582278481012658,-7.349935500690766e-05,9.059010973934601e-05,-0.00011016322979963014,-5.127226419731507e-06,0.00023806480085162413
8.686868686868687,6.582278481012658,-5.4273975361913455e-05,5.782602400811219e-06,2.8680062845216664e-05,1.454741188833067e-05,7.589852255978082e-05
8.787878787878787,6.582278481012658,-8.182444766815571e-05,-7.260965598967821e-05,2.545835358285288e-05,4.633023109735018e-05,8.927788462915454e-05
8.88888888888889,6.582278481012658,-6.401342980340814e-05,-0.00011290144867902641,-1.3562415199249029e-05,5.3074463544730365e-05,0.00010084178036613204
8.98989898989899,6.582278481012658,7.031425085189905e-05,-0.00012656478775452184,4.014068418974581e-05,1.687516107078684e-05,0.00018626827746307873
9.09090909090909,6.582278481012658,-1.3503950942507538e-05,9.625824346380333e-05,2.519434527012564e-05,-2.4826287756388737e-05,0.00011248172217792782
9.191919191919192,6.582278481012658,0.00020156087570163882,-0.0001477125327847904,-4.462098552578313e-05,-1.615450287505453e-05,0.0003133559373354765
9.292929292929292,6.582278481012658,1.83310424857739e-05,-2.2766426737686663e-05,6.116772423085959e-05,1.3306152755738289e-06,0.00011178614003329285
9.393939393939394,6.582278481012658,-4.3204055362354615e-05,0.00012516001862841774,-5.469452014351096e-05,-2.4586788979818935e-05,0.00017864353511387295
9.494949494949495,6.582278481012658,-8.523281451338163e-05,-0.00013082807204263403,-4.049611233789071e-05,6.48182659668047e-05,0.00013472036835668612
9.595959595959595,6.582278481012658,-4.126894841613541e-05,5.3005290879952894e-05,1.8127188205604104e-05,-3.520902739145246e-06,8.766951828585159e-05
9.696969696969697,6.582278481012658,0.00010087899480629182,6.12707934914185e-07,4.081063296155151e-05,-3.0447510822361798e-05,0.00012292949577593168
9.797979797979798,6.582278481012658,7.835590314848042e-05,-0.0001541899135666582,-6.142408700639814e-05,2.275020312545333e-05,0.00023089959361488255
9.8989898989899,6.582278481012658,6.602992970197425e-05,-5.33966965479024e-05,-1.4133682136222817e-05,-3.789969946221554e-06,0.00010647169506603823
10.0,6.582278481012658,2.42056403301083e-05,4.63855466608082e-05,2.443113417816623e-05,-2.117735609727495e-05,5.8355642876420155e-05
0.0,6.6835443037974684,-0.0001079250126086065,3.805926638233382e-05,-7.996331568292043e-05,2.0959723867881804e-05,0.00019075182429884169
0.10101010101010101,6.6835443037974684,0.00011874284882432922,-6.346862748752824e-05,-2.6308766150176873e-05,-1.6582266401040294e-05,0.00016655638681822274
0.20202020202020202,6.6835443037974684,-4.374821590188872e-06,-8.643647132108183e-06,4.2494516396527336e-05,3.9055406166891164e-06,7.398235638936527e-05
0.30303030303030304,6.6835443037974684,-3.1866025106719326e-05,3.9862001090122376e-05,-4.363523950854866e-05,-2.398792795020915e-06,9.791204520107888e-05
0.40404040404040403,6.6835443037974684,0.00019338353715038452,-5.607683405881392e-05,1.0211524787435282e-05,-4.119201092747118e-05,0.00022737406623622603
0.5050505050505051,6.6835443037974684,-2.143481666566395e-05,1.90090777176595e-05,-0.00010042960225652897,7.277216844013345e-07,0.00017744454774729445
0.6060606060606061,6.6835443037974684,-0.0001059401358727636,0.00010574613054769847,-9.30446087957045e-05,5.820159751953848e-08,0.00024409058488731133
0.7070707070707071,6.6835443037974684,4.559677259539376e-05,-0.00012997313984927278,7.568442668300138e-06,2.5312910176163707e-05,0.00015833597957470473
0.8080808080808081,6.6835443037974684,6.575432322363939e-05,0.00025024038687126743,-2.1146643372064954e-05,-9.479841302847204e-05,0.00022766430668827832
0.9090909090909091,6.6835443037974684,-7.098135102940604e-05,-2.059565686783477e-05,-1.6344840187724272e-05,2.747310236917224e-05,6.929709321643378e-05
1.0101010101010102,6.6835443037974684,0.00013656056962536674,0.0003093078058133746,1.6457944147676553e-05,-0.00013376051263162242,0.0002699878692436871
1.1111111111111112,6.6835443037974684,9.686517105327975e-05,-2.2162803671191888e-05,0.00014856057518199792,-2.2410710214626358e-05,0.00027969910349087175
1.2121212121212122,6.6835443037974684,-1.7615890596523764e-05,-0.00012324596155090492,5.5568573202130935e-06,4.22585556442286e-05,0.00011585091823029858
1.3131313131313131,6.6835443037974684,-5.08209127128152e-05,-6.572450190597741e-05,3.64175980899098e-05,3.496362438563778e-05,8.683904937993093e-05
1.4141414141414141,6.6835443037974684,3.027075352989269e-05,-2.2055239647803875e-05,-1.1761142627368442e-05,-2.464654164626645e-06,4.9853327535028876e-05
1.5151515151515151,6.6835443037974684,-0.00017722263123672044,1.994946224065177e-05,-1.4042204115467125e-05,4.71819506988206e-05,0.00018955972342632552
1.6161616161616161,6.6835443037974684,-5.508852955892684e-05,-1.6898814101109316e-05,-2.6714569684966202e-05,2.1596203098010846e-05,6.730817102869147e-05
1.7171717171717171,6.6835443037974684,-6.719518111035981e-06,0.00011573087697146239,5.3168629865481864e-05,-3.270340765812792e-05,0.000150655743791473
1.8181818181818181,6.6835443037974684,-8.487755151432888e-05,7.512116240122042e-05,6.925410945641138e-05,2.92691673393254e-06,0.0001833354388897732
1.9191919191919191,6.6835443037974684,-0.0001352738811701214,6.892961788885434e-05,6.349888740942156e-06,1.9903278984380115e-05,0.00018026551347830616
2.0202020202020203,6.6835443037974684,7.958014948766053e-05,9.098550981956086e-06,6.485536170719177e-05,-2.6603610140884986e-05,0.00013531582908771802
2.121212121212121,6.6835443037974684,0.000195182712694211,8.074960582746795e-05,4.1879637777761596e-05,-8.277969555650368e-05,0.00018470943463385527
2.2222222222222223,6.6835443037974684,3.551008273883417e-05,-4.424593527183958e-06,-3.064264288601582e-05,-9.325646763495063e-06,6.522710613966672e-05
2.323232323232323,6.6835443037974684,4.082593498970795e-05,-0.00010182125439418835,-5.4802121514498186e-05,1.829859582134412e-05,0.00015874851273044104
2.4242424242424243,6.6835443037974684,4.364759905734173e-05,-6.248303410799645e-05,4.6775305850198905e-05,5.6506305151964155e-06,0.0001228831338613339
2.525252525252525,6.6835443037974684,-0.00016037622906180343,-0.00017184949445205722,-2.0931835497238807e-05,9.966771705415819e-05,0.00017031334333211782
2.6262626262626263,6.6835443037974684,3.4508037239423014e-05,0.00023944995243482687,-5.8305715613326495e-05,-8.218739690227497e-05,0.00024589185813911265
2.727272727272727,6.6835443037974684,5.482954844189522e-05,5.6908759435295166e-05,-9.696698551360489e-05,-3.3521492363157115e-05,0.00017700958600981963
2.8282828282828283,6.6835443037974684,9.240192654258129e-05,8.76953059126567e-06,4.386356732888293e-05,-3.035143714015409e-05,0.00011651925502040863
2.929292929292929,6.6835443037974684,7.277019599254352e-05,-0.00013524534871888603,-4.3934350224941736e-05,1.874254581790275e-05,0.00019803867727619023
3.0303030303030303,6.6835443037974684,7.9114929906414e-05,0.00013899120096380404,-2.8554598853621705e-05,-6.54318392610654e-05,0.00013048962527600216
3.131313131313131,6.6835443037974684,0.00011142132796890705,0.00011060431882195428,6.764204780260161e-06,-6.66076940372584e-05,0.00011163158596523037
3.2323232323232323,6.6835443037974684,-3.2209534607148504e-05,-0.00029234799083835086,6.82619057107249e-05,9.73672576336498e-05,0.00030177387635839365
3.3333333333333335,6.6835443037974684,-0.0001898302125229509,2.2482140626790607e-05,-2.8504832937428597e-06,5.0204421568848084e-05,0.00020207207014293128
3.4343434343434343,6.6835443037974684,0.00015261230920948955,-6.48578927755663e-05,5.6043241480043364e-05,-2.6326324930176974e-05,0.00021637400655173834
3.5353535353535355,6.6835443037974684,-0.00011382857817933901,5.910364977138494e-05,-2.6723686382293333e-05,1.641747852238622e-05,0.00015912365407723736
3.6363636363636362,6.6835443037974684,9.926670853228466e-05,0.000129874788301301,3.901333498841616e-05,-6.87424490500757e-05,0.0001356289726566526
3.7373737373737375,6.6835443037974684,0.00012080908037656034,0.00013990506567036456,9.523520442763094e-05,-7.821424381407745e-05,0.00021089260647333795
3.8383838383838382,6.6835443037974684,0.00015703515567427428,4.71027562387471e-05,-4.307062271655148e-06,-6.12413735739064e-05,0.00013977687026302702
3.9393939393939394,6.6835443037974684,3.7266075996144075e-05,-1.3965118772492261e-05,-7.027454677098335e-05,-6.990287167095544e-06,0.0001300759236428958
4.040404040404041,6.6835443037974684,-7.469860047456522e-05,0.0002019353532818419,2.277854640843773e-05,-3.8171025842183e-05,0.0002509953039876554
4.141414141414141,6.6835443037974684,2.3647540742633202e-05,-4.429612069302507e-05,1.1072851104818738e-05,6.1945739851175605e-06,6.274289525693651e-05
4.242424242424242,6.6835443037974684,1.056811428730573e-05,7.05227654911564e-05,-3.952403702243825e-05,-2.432726393353864e-05,9.500684898572315e-05
4.343434343434343,6.6835443037974684,3.855438396430605e-05,-1.4916512939735936e-05,-2.9131034268514407e-05,-7.091361307371034e-06,6.949741952832242e-05
4.444444444444445,6.6835443037974684,-9.137451963092275e-06,-0.00010014809480285725,9.882341688474869e-05,3.278566402978486e-05,0.0001962045837637186
4.545454545454545,6.6835443037974684,-0.00013937960838129128,0.000152706081189552,4.3207699044304045e-05,-3.997941842478217e-06,0.00026387620587795153
4.646464646464646,6.6835443037974684,1.3597780856161519e-05,0.00016003496033001357,-2.046270251848775e-05,-5.2089822355852525e-05,0.00015772169931632606
4.747474747474747,6.6835443037974684,7.880274358648363e-05,3.734420475397814e-05,-5.047838189986689e-05,-3.484408450213853e-05,0.00011093167875535678
4.848484848484849,6.6835443037974684,1.1704774864922326e-05,9.884676924454897e-05,-2.0342865601801563e-05,-3.3165463232841387e-05,9.996100693405474e-05
4.94949494949495,6.6835443037974684,-4.035523411116528e-05,-3.058256459157289e-05,-3.977611542741863e-05,2.128133961082145e-05,7.794927644845665e-05
5.05050505050505,6.6835443037974684,-0.00013702140636580017,0.0001663840804286224,1.359270001069939e-05,-8.808802218846666e-06,0.00026421770039210637
5.151515151515151,6.6835443037974684,-8.979701010149775e-06,2.889529947779939e-05,1.6117483404541946e-05,-5.974679540294886e-06,4.4208192973020614e-05
5.252525252525253,6.6835443037974684,1.6437130488694294e-05,8.173591181364438e-05,-1.1935886460204004e-05,-2.94519126907016e-05,7.768417372534497e-05
5.353535353535354,6.6835443037974684,0.0001650790477130153,0.00011304731654798274,-3.552557704083007e-05,-8.343790927829942e-05,0.00015860404875833048
5.454545454545454,6.6835443037974684,-0.0001458316711809306,-6.178000899163646e-05,2.622730384909558e-05,6.228350405177012e-05,0.00013467656913949372
5.555555555555555,6.6835443037974684,5.9886354503540654e-05,3.14554161801163e-05,8.712647878096438e-05,-2.7402531205097084e-05,0.00015957800090450665
5.656565656565657,6.6835443037974684,-1.657547421542707e-05,-5.437753557989499e-06,-7.408604832245054e-05,6.603968332024971e-06,0.00012915266096152585
5.757575757575758,6.6835443037974684,2.5061258615135623e-05,-2.4365211399714335e-05,-3.9753788555419506e-05,-2.0881416462638652e-07,8.107677958302969e-05
5.858585858585858,6.6835443037974684,0.00010158064807490044,-7.275048275944008e-05,6.183825651305445e-05,-8.649049594638107e-06,0.0001856696310580627
5.959595959595959,6.6835443037974684,-9.158009144711393e-05,-8.040588481798834e-05,-3.740744595277223e-05,5.1595792879530684e-05,0.0001081036179618268
6.0606060606060606,6.6835443037974684,8.546397508870634e-05,2.7673076245164703e-05,5.862113847725288e-05,-3.394111540016131e-05,0.00012654703756744708
6.161616161616162,6.6835443037974684,9.011424772840688e-06,2.241392064516818e-05,2.7344951930006536e-05,-9.427603625402661e-06,5.1233265009456635e-05
6.262626262626262,6.6835443037974684,0.0001602281225350255,-0.0002640584215135422,6.414056255675578e-05,3.1149089693555e-05,0.00038736484305792546
6.363636363636363,6.6835443037974684,0.000190923510104527,-1.855116865550063e-05,7.476720381923764e-05,-5.171170243470791e-05,0.0002389732016486572
6.4646464646464645,6.6835443037974684,-2.2065490205932564e-05,-2.203185651212297e-05,5.335719157380862e-06,1.322920401541666e-05,2.390720690694427e-05
6.565656565656566,6.6835443037974684,6.688041478263543e-05,0.00011642767006573243,6.055664247195019e-05,-5.499242545451036e-05,0.00014574972457842656
6.666666666666667,6.6835443037974684,0.00019087112838230344,1.9899319136730176e-05,-2.7788537722588382e-05,-6.323113425571008e-05,0.0001880057806043503
6.767676767676767,6.6835443037974684,6.997891080393669e-06,-0.00019667350598110033,-5.704341952410427e-05,5.690268447021199e-05,0.00022331053119083915
6.8686868686868685,6.6835443037974684,-0.00015808568264483752,8.315156761710065e-05,5.60061514018554e-05,2.248023450832106e-05,0.0002333675332361936
6.96969696969697,6.6835443037974684,-7.298486587514707e-05,-2.38953655810975e-05,3.4425476332424726e-05,2.906406943687337e-05,8.780159083545414e-05
7.070707070707071,6.6835443037974684,0.00011345199176517291,1.19260775713272e-06,-7.663854448486664e-05,-3.439337985669169e-05,0.00017423510704098235
7.171717171717171,6.6835443037974684,4.012372559199991e-06,1.2924043829193034e-05,-1.266992197161799e-07,-5.080924916517907e-06,1.1459586454815965e-05
7.2727272727272725,6.6835443037974684,5.556020811847551e-05,0.00014455978020062174,2.9263863295544783e-06,-6.003599649572917e-05,0.00012640564273465872
7.373737373737374,6.6835443037974684,-4.3117276847913254e-05,0.00014869346828065227,1.1785633181317636e-05,-3.16728574298217e-05,0.00017549019333824883
7.474747474747475,6.6835443037974684,-2.3121553228738947e-05,7.924299304537431e-05,-5.5149957130848496e-06,-1.683643194499061e-05,9.347472805709517e-05
7.575757575757575,6.6835443037974684,0.0001295883342878854,0.00013650984200310265,2.074656347898371e-05,-7.982945288729643e-05,0.00013794654760703075
7.6767676767676765,6.6835443037974684,-2.2206969525222624e-05,3.392416335785674e-05,3.4022685889705655e-06,-3.515158149790234e-06,4.9316097894458375e-05
7.777777777777778,6.6835443037974684,-5.840619612557481e-05,-6.929564747409687e-09,9.793285649929954e-05,1.7523937707096665e-05,0.00017939735842731203
7.878787878787879,6.6835443037974684,0.0001700559651488921,-1.7771239090855136e-05,2.8893643668069913e-05,-4.568541781741109e-05,0.00018644431171340364
7.979797979797979,6.6835443037974684,0.00014460711401508453,-0.0001825085138200683,2.8164478717172782e-05,1.1370419941495128e-05,0.00028808387336245355
8.080808080808081,6.6835443037974684,-2.1233464071022377e-06,-3.0122567443741704e-05,-8.025360963238295e-06,9.673774155253183e-06,3.226664345394118e-05
8.181818181818182,6.6835443037974684,6.00700565684605e-05,-9.022856495806058e-05,-5.404390612714947e-05,9.047552516880023e-06,0.0001610337604357892
8.282828282828282,6.6835443037974684,1.4341226428577748e-05,0.00015408257998102704,4.8906157757399174e-05,-5.052714192288144e-05,0.00017003768952985932
8.383838383838384,6.6835443037974684,-7.451369412140894e-06,0.00015277646879199172,8.841936296622128e-05,-4.359752981395525e-05,0.0002190628162677895
8.484848484848484,6.6835443037974684,9.528497810183603e-05,-9.105918811297395e-05,-5.3181150033892236e-05,-1.2677369966586243e-06,0.00018582862990873904
8.585858585858587,6.6835443037974684,-9.759162898204418e-05,0.00010870523157328936,-4.6599908918763515e-05,-3.3340807773735555e-06,0.00019612324844492618
8.686868686868687,6.6835443037974684,-7.371850466900273e-05,-3.778350868700573e-05,3.4849171025516074e-05,3.3450604006802534e-05,8.786388257570618e-05
8.787878787878787,6.6835443037974684,-0.00010923999740372877,-0.00017352919491274955,4.618871383585683e-05,8.483075769494349e-05,0.00017172542495369112
8.88888888888889,6.6835443037974684,-0.00012689968982234443,0.00010773302163052568,-1.3904335764109657e-05,5.750000457545627e-06,0.00020484436510265902
8.98989898989899,6.6835443037974684,1.8373985402997344e-05,7.376585805113227e-05,1.4182397548905688e-05,-2.7641953036238884e-05,7.090171757612008e-05
9.09090909090909,6.6835443037974684,-4.885792962476896e-05,-0.00016994385069069476,5.6993258306625385e-05,6.564053409463911e-05,0.00018085795380576712
9.191919191919192,6.6835443037974684,8.849538825507246e-05,0.00016563418110058698,3.802808206142773e-05,-7.623887080669783e-05,0.00015794511579115918
9.292929292929292,6.6835443037974684,8.214470422029885e-05,-0.00011571524255826183,-9.826405184104526e-05,1.0071161501388896e-05,0.00024209633582139404
9.393939393939394,6.6835443037974684,-8.891168217399197e-05,0.00018192277152259353,7.220837594962509e-05,-2.7903326804580468e-05,0.0002698488286784779
9.494949494949495,6.6835443037974684,-2.3193180524264028e-05,-5.768125261556687e-05,-5.7706617528115116e-05,2.426232994194927e-05,0.00011188118671591712
9.595959595959595,6.6835443037974684,5.7873253458098395e-05,-0.00011359555285239352,-5.104986174538904e-06,1.6716689818288537e-05,0.00015134592814850458
9.696969696969697,6.6835443037974684,-9.542658484706308e-06,8.448988357783186e-05,6.38690142758814e-05,-2.2484167527937662e-05,0.00014238544102563783
9.797979797979798,6.6835443037974684,-3.892445512524368e-06,-7.837303845120805e-05,4.753641125357991e-05,2.4679645189119726e-05,0.00011239018058055001
9.8989898989899,6.6835443037974684,-0.00025960990957913326,-9.838120826028051e-05,-1.8663807823599203e-05,0.00010739733535182414,0.00022930426048621482
10.0,6.6835443037974684,-0.00011917257106733128,-7.317589349519933e-05,-1.254709242487461e-05,5.770453936875918e-05,0.00010634163013891508
0.0,6.784810126582278,0.00010299838199262337,-4.373227685062017e-05,5.6203947978568695e-05,-1.777983154260096e-05,0.00016279491329042797
0.10101010101010101,6.784810126582278,-6.481153406693401e-05,-0.00013615356667978805,-6.39958280051354e-07,6.0289530224016614e-05,0.00011796285763890176
0.20202020202020202,6.784810126582278,4.318701111114864e-05,7.813035162918212e-05,1.3794693379356144e-05,-3.639520882209923e-05,7.187582421633881e-05
0.30303030303030304,6.784810126582278,1.2206106799779022e-05,-0.0001556655563021387,-4.398198441651629e-05,4.30378348507079e-05,0.00017912026609788432
0.40404040404040403,6.784810126582278,4.279975052860157e-05,2.777940659480365e-05,6.402301582981689e-05,-2.1173747137021564e-05,0.00011709569621388617
0.5050505050505051,6.784810126582278,-1.839495200783785e-05,-9.460235800805154e-05,-2.5520636235727514e-05,3.389919300476681e-05,9.747657762917608e-05
0.6060606060606061,6.784810126582278,-7.891268397192678e-05,9.362449094571996e-05,9.063431674110529e-06,-4.4135420921379545e-06,0.0001504239151320837
0.7070707070707071,6.784810126582278,-0.00014030208894801678,0.00013702361854817186,5.424572912976916e-07,9.835411199534766e-07,0.00024017853963348912
0.8080808080808081,6.784810126582278,2.190997281055004e-05,0.00016486180108943337,-7.26815811329266e-05,-5.603153216999502e-05,0.00019973777683650562
0.9090909090909091,6.784810126582278,-3.5651902990328264e-05,9.243985914994388e-05,-3.199421196254137e-05,-1.7036386847884686e-05,0.0001272113651945404
1.0101010101010102,6.784810126582278,-6.13480548254025e-05,4.571125419421998e-06,-4.35693849021581e-05,1.7033078821794148e-05,9.879161185830695e-05
1.1111111111111112,6.784810126582278,-0.00014111070785626968,2.9427672097904408e-05,-1.2608998162736849e-05,3.350491072750958e-05,0.0001593980548849341
1.2121212121212122,6.784810126582278,3.453230163834962e-05,-0.0001328862809465538,6.519691189562165e-05,2.9506193792461257e-05,0.00019024201591570042
1.3131313131313131,6.784810126582278,0.0001259944471135287,5.18309098970991e-05,-2.543599505691932e-05,-5.3347607103188335e-05,0.00011820155084403814
1.4141414141414141,6.784810126582278,5.085726659790724e-05,9.925089535985481e-05,7.351998275312685e-05,-4.503244858732861e-05,0.00015363963076695588
1.5151515151515151,6.784810126582278,-0.00018040706525927823,8.933844994828691e-05,-4.088566681649425e-05,2.7320584593297394e-05,0.0002483148579076563
1.6161616161616161,6.784810126582278,5.120755451730056e-05,-0.00014201299729063157,3.790237156927933e-05,2.72416328319993e-05,0.000185396366339159
1.7171717171717171,6.784810126582278,2.062253044610181e-05,0.00013742249844183536,-2.3929372730011824e-05,-4.741350866638115e-05,0.00013488542107898842
1.8181818181818181,6.784810126582278,-0.00014843348830502766,-0.00010161919201825476,8.068506321029211e-06,7.501580409698473e-05,0.0001321762908754486
1.9191919191919191,6.784810126582278,-7.063744861876684e-05,-0.00014812890116909576,3.384566891954768e-05,6.562990493635878e-05,0.00014108494171059214
2.0202020202020203,6.784810126582278,-0.00013000180842356318,-5.337052440125952e-05,2.46747118688649e-05,5.5011699847446805e-05,0.0001209840592682322
2.121212121212121,6.784810126582278,-4.0667891801000616e-05,0.00015386794875059024,5.881283754698874e-05,-3.396001708487688e-05,0.00020485008603529688
2.2222222222222223,6.784810126582278,-2.978632215520145e-05,-3.2167407879337665e-05,8.247777025944724e-05,1.8586119010361737e-05,0.0001461901710243472
2.323232323232323,6.784810126582278,-5.801648078696631e-05,-7.232742727319064e-06,3.44880348828044e-05,1.9574767054285614e-05,8.103628805060138e-05
2.4242424242424243,6.784810126582278,5.261498602565502e-05,0.0001930716252570754,-4.257773315197404e-05,-7.370598338481913e-05,0.0001879497764034824
2.525252525252525,6.784810126582278,1.854265092320605e-05,-0.00017780835381223857,-2.6360323577953994e-05,4.777971086670976e-05,0.00019323891637569192
2.6262626262626263,6.784810126582278,0.00010694372939052654,-8.982074606327816e-05,-6.049984276439493e-06,-5.136894998174514e-06,0.0001709394634635314
2.727272727272727,6.784810126582278,-9.276430726278223e-05,4.38324083207706e-05,2.476761584409532e-05,1.4679569682603489e-05,0.00012819081128723843
2.8282828282828283,6.784810126582278,3.9175104832123976e-05,-3.688088786343376e-05,-5.165858848124451e-05,-6.882650906070646e-07,0.00011111044356035399
2.929292929292929,6.784810126582278,-7.793079691056829e-05,-8.75315698099165e-05,-7.370269779244965e-06,4.963871001614543e-05,8.412218768102294e-05
3.0303030303030303,6.784810126582278,0.00011860981040555672,5.4992161219430036e-05,-0.00013020076478957192,-5.208059148749602e-05,0.0002478437664323349
3.131313131313131,6.784810126582278,-0.0001414551311747715,3.769794597659872e-05,-7.132778631218677e-05,3.112715555945184e-05,0.00020500296695476515
3.2323232323232323,6.784810126582278,6.801986786805833e-07,0.00010299740188461508,-7.873211868195802e-05,-3.110328016898869e-05,0.00017069009433767302
3.3333333333333335,6.784810126582278,2.966511432123651e-05,0.00013145181478602068,1.0897579553590985e-07,-4.8335078732177154e-05,0.00011941566535442927
3.4343434343434343,6.784810126582278,-9.407342251184306e-05,5.1523797442132125e-05,-6.825226963200583e-05,1.2764887520913282e-05,0.00017414547775322216
3.5353535353535355,6.784810126582278,8.190577705811616e-05,0.00011203310179971554,4.522645420811539e-05,-5.8181663657349505e-05,0.00012735819736451516
3.6363636363636362,6.784810126582278,-1.4909583783397365e-05,-5.559280942730447e-05,1.28242597238422e-06,2.1150717963210547e-05,4.988912053572238e-05
3.7373737373737375,6.784810126582278,-7.065183959957357e-05,0.00010035310278081574,6.675538138428248e-05,-8.910378954372652e-06,0.00018847122281349368
3.8383838383838382,6.784810126582278,9.62499663297074e-05,8.212887245074236e-05,-2.3129737210941413e-05,-5.3513651634134924e-05,9.853558103934311e-05
3.9393939393939394,6.784810126582278,-2.2383229860089708e-05,-0.0001799549445281809,2.753898945059636e-05,6.070145231648118e-05,0.000176442642156471
4.040404040404041,6.784810126582278,-8.870367879320218e-05,-8.981423551373563e-05,-5.2599362865778306e-06,5.355537429208135e-05,8.972785087983281e-05
4.141414141414141,6.784810126582278,-4.203676282989271e-05,2.4162702876800847e-05,-1.272668037011479e-05,5.362217985927558e-06,6.206893449560455e-05
4.242424242424242,6.784810126582278,-3.5543538254402605e-05,1.775880832510194e-05,-3.769983208347875e-05,5.335418978790199e-06,8.045968732970094e-05
4.343434343434343,6.784810126582278,-8.306556974176642e-05,0.00017279594519791768,3.8902324631226145e-05,-2.6919112636845378e-05,0.00023590653610156296
4.444444444444445,6.784810126582278,6.646559364778525e-05,-0.00017208467015368233,5.062009066253345e-05,3.168572295176912e-05,0.00023055519802500936
4.545454545454545,6.784810126582278,-0.0001640607660229781,2.208461504219683e-06,-0.00012147755793048312,4.8555691355627524e-05,0.00026749490720131137
4.646464646464646,6.784810126582278,9.786381121342024e-05,-1.5232820200122571e-05,3.651520696981792e-06,-2.47892973039893e-05,0.00010648993852462987
4.747474747474747,6.784810126582278,-0.00014216231770319395,-8.02687506220051e-05,0.00012042703074516473,6.672932049755972e-05,0.00024238402273229172
4.848484848484849,6.784810126582278,-5.442199527757147e-06,0.0002122995817457615,3.388550410946517e-05,-6.20572146654013e-05,0.00022293673720341105
4.94949494949495,6.784810126582278,-8.204981382674528e-05,-5.131894324319296e-05,2.163702994313779e-07,4.001062712098147e-05,7.179997628155429e-05
5.05050505050505,6.784810126582278,2.3132201677464122e-05,-1.1508855197740215e-05,-9.667841828019546e-05,-3.4870039439171718e-06,0.00017021729449559928
5.151515151515151,6.784810126582278,-0.00013050686942453604,-2.6823299462153622e-05,-1.4538115294153695e-05,4.71990506660069e-05,0.00012200400776001203
5.252525252525253,6.784810126582278,-7.428978941654833e-05,-8.375902488662845e-05,-4.037772455342664e-06,4.741464429095304e-05,7.975598761318333e-05
5.353535353535354,6.784810126582278,-9.403531764705034e-05,-0.00015660822364793432,8.978883332554144e-06,7.519306238849541e-05,0.0001374188257116474
5.454545454545454,6.784810126582278,-0.00016914922688402424,0.00017418425344130703,6.380772695621382e-05,-1.5105079671848368e-06,0.00031722078268186154
5.555555555555555,6.784810126582278,3.721282641624165e-05,7.502994485291885e-06,3.6958196162367736e-05,-1.341474627046006e-05,7.252314482616309e-05
5.656565656565657,6.784810126582278,-3.125777970204867e-05,-0.00012956548709097974,-3.9813559826014835e-06,4.8246980037908525e-05,0.00011731107522705073
5.757575757575758,6.784810126582278,-6.043702032719205e-05,-2.7306849683978032e-05,1.3604910302093852e-05,2.6323161003351024e-05,5.747376435604942e-05
5.858585858585858,6.784810126582278,-6.583520619704639e-05,-3.4414067372332146e-05,-2.371979130834489e-05,3.0074782070813557e-05,7.029104271322768e-05
5.959595959595959,6.784810126582278,2.5168710424010046e-05,0.00027240528027670227,4.115314834148154e-06,-8.927219721021369e-05,0.000260831015292149
6.0606060606060606,6.784810126582278,0.00019032200666357552,-1.572559652939666e-05,-2.465866276652402e-05,-5.237892304025365e-05,0.00020319162542391223
6.161616161616162,6.784810126582278,-6.57184496317425e-05,0.00010529219209935501,-3.568157313641895e-05,-1.1872122740283751e-05,0.00016169268365220923
6.262626262626262,6.784810126582278,-3.212812617490807e-05,-0.00015470570277723443,-5.589065360689368e-05,5.6050148685642744e-05,0.00017136791445985836
6.363636363636363,6.784810126582278,3.3682670747258124e-05,-0.00011642331803049841,-3.249448981431204e-05,2.4822194184972085e-05,0.00014757382960166297
6.4646464646464645,6.784810126582278,-0.00018681973366707942,-3.261282963978229e-05,6.360739513950933e-05,6.58297689920585e-05,0.00020496387863821032
6.565656565656566,6.784810126582278,-0.00012440007959905544,0.00011461458474507507,-4.8669947731958725e-05,2.9356484561941115e-06,0.0002235536574130071
6.666666666666667,6.784810126582278,-8.371149674525033e-05,-6.14572827873702e-05,3.096878287406278e-05,4.355063385978615e-05,9.228828584935636e-05
6.767676767676767,6.784810126582278,-0.00011263740911660225,3.6095856801713135e-05,1.1085707016160144e-05,2.2962465694466735e-05,0.00013573694891548096
6.8686868686868685,6.784810126582278,6.11720931162548e-05,0.00012791959966124055,4.1578116017220964e-05,-5.67275078332486e-05,0.0001321611080706757
6.96969696969697,6.784810126582278,-0.0001523212265678074,-6.028692070548728e-05,2.3228912606369186e-05,6.37824441819884e-05,0.0001388237670791211
7.070707070707071,6.784810126582278,-2.9360903660232174e-05,-6.551669217839142e-06,-8.186589544084607e-05,1.0773771863421394e-05,0.0001442868622347903
7.171717171717171,6.784810126582278,0.00019219741141502335,-0.00022006648389481752,1.6988901944001877e-05,8.36072174393825e-06,0.0003585124533402463
7.2727272727272725,6.784810126582278,8.523284985586838e-05,0.00013355565900299637,-1.264872729959636e-05,-6.563655265765942e-05,0.00011915701499270768
7.373737373737374,6.784810126582278,0.0001479921037357823,5.582068343236448e-06,-2.7330306233385676e-05,-4.6072251623705625e-05,0.00015279907438937762
7.474747474747475,6.784810126582278,0.00012499736530773953,-5.1860848630963865e-06,2.3019179288559846e-06,-3.594338413339294e-05,0.00012773167278590963
7.575757575757575,6.784810126582278,3.4906103348347344e-05,-5.379616214622978e-05,-6.7343130778791e-05,5.66701763936473e-06,0.0001399841751681873
7.6767676767676765,6.784810126582278,-2.318766370323288e-06,3.4923821113452606e-05,2.0209914750423208e-05,-9.781516422938795e-06,5.031254419350865e-05
7.777777777777778,6.784810126582278,0.00013352049600472762,0.0001193774194252819,-8.875335611737224e-05,-7.586937462900286e-05,0.0001994262608957291
7.878787878787879,6.784810126582278,6.960628946346195e-05,-0.00010026513795468982,3.7261959123119035e-05,9.197654547368362e-06,0.00016137713106444574
7.979797979797979,6.784810126582278,0.00014164757785488873,-0.00023592446655821978,-5.158077383070123e-06,2.8283066610999313e-05,0.0003304880281711957
8.080808080808081,6.784810126582278,-6.737419657016803e-05,-9.571905426966367e-05,5.758721977734286e-05,4.892797525194951e-05,0.0001311536845877062
8.181818181818182,6.784810126582278,-0.00019308620756373953,9.059130550927083e-06,-2.9996168824701864e-05,5.5208123103843726e-05,0.00020448191849664756
8.282828282828282,6.784810126582278,-0.0001878606908245175,1.6025753110858706e-05,5.074563243801161e-05,5.1550481314097634e-05,0.00021513816631371004
8.383838383838384,6.784810126582278,7.302738431600539e-05,6.0842967054008714e-05,1.7242181210137162e-05,-4.016110541100423e-05,7.40509365277929e-05
8.484848484848484,6.784810126582278,0.00010804612389920135,7.81357506904712e-06,4.033499975174141e-05,-3.475790969047454e-05,0.00012558474015545904
8.585858585858587,6.784810126582278,-3.2697067159430376e-05,1.193678749631957e-05,0.00013840790136270285,6.228083898933242e-06,0.0002430475766550217
8.686868686868687,6.784810126582278,-2.2974011245375285e-05,1.2242966627202483e-05,2.213231440653838e-05,3.2193133854518404e-06,4.927964590454285e-05
8.787878787878787,6.784810126582278,2.662356062162566e-05,-3.664604947323247e-05,4.214447559506242e-05,3.0067466554820434e-06,9.141042452264462e-05
8.88888888888889,6.784810126582278,-6.701944134913086e-05,-5.863805329470928e-06,7.404521576661673e-05,2.1864974003580534e-05,0.00014346108429851213
8.98989898989899,6.784810126582278,0.00010290387108260764,7.591135284335204e-05,-7.888036030859316e-06,-5.36445671777879e-05,9.341751144655692e-05
9.09090909090909,6.784810126582278,1.4612768357585045e-06,-4.386658051435074e-05,2.161626448113075e-05,1.272159110357767e-05,5.824347263287862e-05
9.191919191919192,6.784810126582278,-0.00012389916552151654,-6.737895299415625e-05,2.519467140323682e-05,5.738343555470183e-05,0.00011596139389977452
9.292929292929292,6.784810126582278,6.740865889918778e-05,0.0003244764844787704,5.269065710987583e-05,-0.00011756554301338745,0.0003102987393646053
9.393939393939394,6.784810126582278,-2.9100019430319915e-05,-0.00017058427316451005,-3.1376455645824794e-05,5.990528777844898e-05,0.0001671384026039443
9.494949494949495,6.784810126582278,-1.1395810002217782e-05,8.790877056243957e-05,-1.2993910965948658e-05,-2.2953888168066534e-05,9.677878507626249e-05
9.595959595959595,6.784810126582278,-7.38853376738778e-05,-7.124279007730709e-05,-5.047347113120899e-05,4.3538438325355466e-05,0.00011363755771570476
9.696969696969697,6.784810126582278,-3.92519067077855e-05,0.0001632549935307978,3.574960112403889e-05,-3.7200926046903686e-05,0.00019604865929195275
9.797979797979798,6.784810126582278,0.00015484677797296176,-0.00011367929047411422,-4.952832617493049e-05,-1.2350246249654259e-05,0.00024872181823182635
9.8989898989899,6.784810126582278,9.22800955039018e-05,1.4817162645848896e-05,-2.8938886976708762e-05,-3.212917744492521e-05,9.939925899813925e-05
10.0,6.784810126582278,-5.33661222307757e-05,3.2090657372566076e-05,2.7944923565147023e-05,6.382639457462887e-06,8.906774666258013e-05
0.0,6.886075949367089,-0.0001583882369185155,-1.9740983100092308e-05,-5.7017867666426385e-05,5.3438766005582334e-05,0.00017917285564317612
0.10101010101010101,6.886075949367089,3.349992402403859e-05,-3.158474224854971e-05,3.661120125659178e-05,-5.745545326466655e-07,8.484731869965566e-05
0.20202020202020202,6.886075949367089,0.00011110159379104084,0.0002221899503563012,-7.10151442663338e-05,-9.99874632442026e-05,0.0002283762963155597
0.30303030303030304,6.886075949367089,8.217833690966442e-05,-4.084307328424089e-05,-4.993602558296363e-05,-1.2400579087627058e-05,0.0001387756155900086
0.40404040404040403,6.886075949367089,-2.4394462606618794e-05,-6.37205344771345e-05,-8.18367811034846e-06,2.6434499125125987e-05,5.746203865668688e-05
0.5050505050505051,6.886075949367089,3.152912651001639e-05,-0.00014747568671839956,-3.974492785686173e-05,3.478396806251495e-05,0.00017925379060506794
0.6060606060606061,6.886075949367089,-7.453083591817397e-05,4.0792469559832794e-05,-6.614504114041433e-05,1.0121509907502354e-05,0.00015292046080663625
0.7070707070707071,6.886075949367089,-0.00020513016417921187,-0.00010938646527654071,-8.057616901628539e-05,9.435498883672577e-05,0.00022601521298520766
0.8080808080808081,6.886075949367089,4.854818544418898e-06,6.172005395344959e-05,8.606226150504192e-05,-1.9972461749360544e-05,0.00016047876254105052
0.9090909090909091,6.886075949367089,-4.055596976726952e-05,5.717200670082089e-05,3.620071610380757e-05,-4.984811080065411e-06,0.00010565778129669594
1.0101010101010102,6.886075949367089,9.028963931070655e-05,5.3660594132134025e-05,4.969435164877432e-05,-4.318507003285217e-05,0.00011659874955358065
1.1111111111111112,6.886075949367089,-0.00016498956291504944,8.790400507657462e-05,-1.564824628019543e-05,2.3125667351542445e-05,0.00022402347240948838
1.2121212121212122,6.886075949367089,9.946397942141502e-05,-0.00014386931383099472,9.642750041465582e-06,1.332160032287391e-05,0.00021255640432574745
1.3131313131313131,6.886075949367089,-0.0001614856805342856,-0.00017284525748350612,3.252094677550065e-05,0.00010029928140533752,0.00017667458775341152
1.4141414141414141,6.886075949367089,-3.8050686855236307e-06,-0.00012147859840369036,-1.5735795426870623e-06,3.758510012676419e-05,0.00011965250713967903
1.5151515151515151,6.886075949367089,-4.1981997594876935e-05,-6.883061883304968e-05,5.0635638819642074e-05,3.3243784928377985e-05,0.00010631274191137002
1.6161616161616161,6.886075949367089,-1.5867227182298375e-06,-1.5964746748833068e-06,5.096171588275641e-05,9.549592179339433e-07,8.828262974606463e-05
1.7171717171717171,6.886075949367089,-6.211971271807258e-05,0.00012051150955991637,-7.143675673041969e-06,-1.7517539052553136e-05,0.00016131062985443265
1.8181818181818181,6.886075949367089,-1.480445299988677e-05,0.00013240054398930406,-7.159074501959255e-06,-3.5278827296825185e-05,0.00014093598032834765
1.9191919191919191,6.886075949367089,1.3312592561034168e-05,-0.00013747414709361466,1.0443891536411089e-05,3.724846635977415e-05,0.0001457179747286478
2.0202020202020203,6.886075949367089,-0.00010259698173500857,-4.746842590811488e-05,4.7537660826699306e-05,4.501962229293703e-05,0.00012119720493504093
2.121212121212121,6.886075949367089,-0.00014976775786110805,1.7977628561303213e-05,4.31937708422061e-05,3.953703878994145e-05,0.00017619066678863817
2.2222222222222223,6.886075949367089,1.5277169234146624e-05,4.371143488007933e-05,-1.9399365705640587e-05,-1.7696581234267786e-05,5.1042145529918435e-05
2.323232323232323,6.886075949367089,-0.00012908934533337088,8.360740169540368e-05,-4.266069562299962e-05,1.3644583091390159e-05,0.00019976708012045766
2.4242424242424243,6.886075949367089,1.896421388370728e-05,0.00023931469154659456,-2.700583907302723e-05,-7.748367162909055e-05,0.0002351184680844539
2.525252525252525,6.886075949367089,-5.585926919169716e-05,-0.00013092189948408508,1.1307600784602297e-05,5.603435060273467e-05,0.00011546075350218944
2.6262626262626263,6.886075949367089,-0.00014621803818734612,-7.69563441510151e-05,5.99302312623343e-05,6.695231470150836e-05,0.00016378182373537247
2.727272727272727,6.886075949367089,-1.4510296627706254e-05,-2.0954136478927602e-05,5.1972298967615485e-05,1.0639329931990156e-05,9.191807976591158e-05
2.8282828282828283,6.886075949367089,-7.98417447936176e-05,9.737088137855214e-05,-7.951238186831344e-05,-5.258740975480362e-06,0.0002063897052292064
2.929292929292929,6.886075949367089,0.00011560669602190552,5.3532153214481414e-05,1.1603415103667324e-06,-5.0741654770916076e-05,0.00010022955355621113
3.0303030303030303,6.886075949367089,-4.0719323819775094e-06,0.00010684137672605756,4.874510529458712e-05,-3.083083330322401e-05,0.00013782223023231703
3.131313131313131,6.886075949367089,0.00011274762223221888,-3.463984147641822e-05,2.403483656876612e-05,-2.3432334226740202e-05,0.00013982319122434432
3.2323232323232323,6.886075949367089,-0.00011316308016915682,4.822888551529034e-05,0.0001328288420403764,1.9480258396159944e-05,0.00027114597762610397
3.3333333333333335,6.886075949367089,0.00014944543548594923,0.00011086578938010763,8.523265827376712e-06,-7.809336745981706e-05,0.00013518399849519197
3.4343434343434343,6.886075949367089,-6.259846580757974e-05,-0.00010262548750375243,6.64295606796703e-05,4.9567185993399645e-05,0.0001458253069005436
3.5353535353535355,6.886075949367089,4.478580620985383e-05,7.934059457351222e-05,2.752314371054165e-05,-3.723792023500982e-05,8.37850595937874e-05
3.6363636363636362,6.886075949367089,-7.155973302989346e-05,5.092418257175488e-05,6.872640370005517e-05,6.190665137441572e-06,0.00015977529335958128
3.7373737373737375,6.886075949367089,0.00010139679756830729,-0.00010552691875503888,2.526155476131351e-06,1.2390363560194774e-06,0.00017926649754631096
3.8383838383838382,6.886075949367089,-7.818991690363936e-05,-0.00014269185096726317,-6.2559576157894135e-06,6.626453036127076e-05,0.00012423757275871312
3.9393939393939394,6.886075949367089,-7.56343440899892e-05,3.2750393342107166e-05,-4.33796448127517e-05,1.2865185224364609e-05,0.00012212934758421717
4.040404040404041,6.886075949367089,8.968497802123574e-05,-0.00011501210071863406,4.8030160720273366e-05,7.598136809219498e-06,0.00019623130569803454
4.141414141414141,6.886075949367089,6.493497716385534e-05,-0.0001352664170863317,-7.977290849293945e-05,2.1099431976742905e-05,0.00022447322188503914
4.242424242424242,6.886075949367089,0.0001250920731519572,-0.0001115770356199711,-9.086322522190706e-05,-4.054511259595826e-06,0.0002585019176683761
4.343434343434343,6.886075949367089,-4.794397387940626e-05,0.00015853392515971336,-2.1379693728080172e-05,-3.317698538409213e-05,0.00019079740652448967
4.444444444444445,6.886075949367089,5.763795157999704e-05,-0.00015925586196856854,-3.450655063499733e-05,3.0485373116571446e-05,0.0002035579789761182
4.545454545454545,6.886075949367089,3.788275414313071e-05,-3.87407187617935e-06,3.5858695213310375e-06,-1.0202604680085408e-05,4.0440665022485016e-05
4.646464646464646,6.886075949367089,-3.4289145070488184e-05,5.629761009280592e-05,-3.1196486750703516e-05,-6.60253950669532e-06,9.589173920719682e-05
4.747474747474747,6.886075949367089,7.118936171912374e-05,9.143578957635892e-06,-1.0368873295125196e-05,-2.409988220302789e-05,6.944886830279765e-05
4.848484848484849,6.886075949367089,5.516490693798534e-05,-7.23948158131509e-05,-1.2328578341720485e-05,5.1689726625496694e-06,0.00011284418958460159
4.94949494949495,6.886075949367089,4.0590064754527244e-05,8.373835183269014e-05,3.872642828673415e-05,-3.7298524976165215e-05,9.879235063833901e-05
5.05050505050505,6.886075949367089,-7.941621040119012e-05,-2.1463542183817463e-05,-7.275669867097494e-05,3.0263925775502274e-05,0.00014471930258274079
5.151515151515151,6.886075949367089,-8.241410173168697e-05,-0.00010487289168883931,-3.647175309764959e-05,5.6186098026157884e-05,0.00011462097858999205
5.252525252525253,6.886075949367089,-0.0001710121886133371,-0.0001482168690596455,6.509222073262816e-05,9.576871730189477e-05,0.00019641158153371928
5.353535353535354,6.886075949367089,0.0001967359873179881,1.2250413995828096e-05,-7.95113110117184e-05,-6.269592039414486e-05,0.0002353957726743113
5.454545454545454,6.886075949367089,4.563266308047091e-05,7.232926695911412e-05,4.6005399811742365e-05,-3.538857901187551e-05,0.00010179772180245819
5.555555555555555,6.886075949367089,-0.00010438319193249042,8.513815161608287e-05,4.7104722362864e-05,5.773512094922263e-06,0.0001835426714586687
5.656565656565657,6.886075949367089,-0.0002285317644380981,-1.6521304646387005e-05,8.28637047474391e-05,7.351592072534552e-05,0.00026329310408015476
5.757575757575758,6.886075949367089,-5.1961005455894274e-05,-7.214820153373598e-05,-2.0614174594967372e-05,3.723276209688907e-05,7.36970051067751e-05
5.858585858585858,6.886075949367089,-5.335316940903775e-05,-9.988097132070633e-05,-5.17335162064555e-06,4.5970242218923225e-05,8.702926769378715e-05
5.959595959595959,6.886075949367089,-0.00016947463531635565,-0.00010488102984996302,-1.8036458327273816e-05,8.23066995498956e-05,0.00015140326825913877
6.0606060606060606,6.886075949367089,0.00014638389710937185,9.881312079536151e-05,4.401761133712903e-05,-7.355910537142001e-05,0.00015013420259941233
6.161616161616162,6.886075949367089,8.071383176942594e-05,0.0001283010075483813,-2.4009854084819283e-05,-6.270445179534217e-05,0.00011978991826213102
6.262626262626262,6.886075949367089,0.00012907240048356687,5.775603706169881e-05,1.4515807295683684e-05,-5.604853126357971e-05,0.00011477308056346465
6.363636363636363,6.886075949367089,-9.803677398034585e-05,-3.749799114594097e-05,-4.28191048645719e-05,4.066042953788605e-05,0.000113320578598825
6.4646464646464645,6.886075949367089,-1.681733207110145e-05,4.328633915297544e-05,2.12831132711732e-05,-7.940702124562196e-06,6.514140992083903e-05
6.565656565656566,6.886075949367089,0.0001820676484272934,0.00010029215606482767,-3.582514320096486e-05,-8.470794134763632e-05,0.00016969829350249485
6.666666666666667,6.886075949367089,0.00011000292320007122,4.3983108942862566e-05,6.34522400236255e-05,-4.619580964288014e-05,0.00014586105279253183
6.767676767676767,6.886075949367089,-1.5560694682469588e-06,3.6906029742089826e-07,7.773730324823862e-05,3.5610275124781817e-07,0.00013465658836492084
6.8686868686868685,6.886075949367089,3.842004761546299e-05,-3.831864249413278e-05,6.557075117785097e-05,-3.042153639906342e-08,0.00013158720576345945
6.96969696969697,6.886075949367089,-2.958759171631188e-05,-8.665527808375526e-05,3.809354675189428e-05,3.487286094002014e-05,0.00010086623185067819
7.070707070707071,6.886075949367089,8.259049152522973e-05,9.888918108660381e-05,-1.7958085333544853e-05,-5.444390178355006e-05,9.695582416971526e-05
7.171717171717171,6.886075949367089,0.00013907145118639955,5.470756231494072e-05,-3.515166362606309e-05,-5.813370405040208e-05,0.000135766137878945
7.2727272727272725,6.886075949367089,-0.00010918612300679176,0.0001268825894547212,7.095937396891978e-05,-5.308939934378835e-06,0.00023870550317451014
7.373737373737374,6.886075949367089,9.719552052081428e-05,0.00013361078407793836,-1.6474612250818093e-05,-6.924189137962579e-05,0.000122990567410792
7.474747474747475,6.886075949367089,-1.5646677672463967e-05,8.491133130901527e-05,-5.9730056835266025e-05,-2.077939609096539e-05,0.0001395935958675026
7.575757575757575,6.886075949367089,-8.347267068501729e-05,1.8028596100990154e-05,-6.703466331862111e-05,1.9633222375208142e-05,0.0001492600092209423
7.6767676767676765,6.886075949367089,3.6387018606445414e-05,8.26230329955923e-05,-4.5394263385383734e-05,-3.5703015480611313e-05,0.00010642411526731026
7.777777777777778,6.886075949367089,2.2168523635297522e-05,-0.00014411215497276341,-9.748204662910157e-05,3.658308940123977e-05,0.00023013639131981036
7.878787878787879,6.886075949367089,0.00011050296056112145,0.00010604779572678151,3.185842314498821e-05,-6.496522688637088e-05,0.00012158668207639726
7.979797979797979,6.886075949367089,0.00016802549971622357,3.827999116451202e-05,2.3827243104534767e-05,-6.189164726422068e-05,0.00015801621491410244
8.080808080808081,6.886075949367089,-2.237803915836771e-05,-0.00015623259654367372,3.5425171150505945e-05,5.358319071061243e-05,0.00015867592744084365
8.181818181818182,6.886075949367089,-0.00010280166329773,0.000103143348626468,-1.546791971054175e-05,-1.0250559862140079e-07,0.0001803546776772779
8.282828282828282,6.886075949367089,-5.119120242557819e-05,-4.205360080010573e-05,0.00011974704534145869,2.7973440967705172e-05,0.0002127306624790526
8.383838383838384,6.886075949367089,7.190345428959561e-05,-0.00013298169599521614,1.67401239295515e-05,1.8323472511686158e-05,0.00018236440649264647
8.484848484848484,6.886075949367089,4.507617492070883e-05,-7.015942852471959e-05,4.1533646002284276e-05,7.524976081203228e-06,0.00012366024777447278
8.585858585858587,6.886075949367089,-0.00018540098363309054,-0.00011323538854461026,-2.921391650604825e-05,8.959091165331023e-05,0.00016959417527022413
8.686868686868687,6.886075949367089,1.5632556752799962e-05,0.00010779007843025353,-1.970179600206574e-06,-3.7026790554916046e-05,0.00010094398517569649
8.787878787878787,6.886075949367089,1.2394085024467898e-05,-3.381421593132961e-05,4.226030507205638e-05,6.426039272058514e-06,8.410654531178155e-05
8.88888888888889,6.886075949367089,-0.00010702744039953032,-0.00020331761133525385,-3.3381089395862604e-05,9.310351552043525e-05,0.000185405641596887
8.98989898989899,6.886075949367089,-3.613419444413699e-05,0.0001199081057233944,1.517277787874623e-05,-2.5132173383777224e-05,0.0001438994655987645
9.09090909090909,6.886075949367089,-0.00027951020030598,-8.455827202696274e-05,9.974126232878735e-05,0.00010922054169988281,0.00030246671242355064
9.191919191919192,6.886075949367089,0.00012768535270624344,0.00013732040067479648,-2.483487351086236e-05,-7.950172601431197e-05,0.0001395598465540213
9.292929292929292,6.886075949367089,7.806198181933289e-05,9.511836240431623e-05,-8.862936740674935e-05,-5.1954103267094736e-05,0.00017686588788150173
9.393939393939394,6.886075949367089,-0.00013916717180836706,-0.00013563622828256067,3.3408150452199754e-06,8.244102002727832e-05,0.0001375574824664931
9.494949494949495,6.886075949367089,-0.00012953827624986964,0.0001360767266263741,6.103710193290558e-05,-1.961535112951336e-06,0.00025318129588329676
9.595959595959595,6.886075949367089,0.00015648656057414798,-0.00012444958570451072,1.999094871907671e-05,-9.611092460891179e-06,0.00024627087677229245
9.696969696969697,6.886075949367089,-3.1272915668205752e-06,-0.00018245958735527365,-3.517431572315888e-05,5.567606367662827e-05,0.00019089885830291474
9.797979797979798,6.886075949367089,-0.00010197137094080977,-6.353958077029037e-05,-2.107988605522709e-05,4.9653285513330033e-05,9.638104297093764e-05
9.8989898989899,6.886075949367089,-2.334393540792068e-05,-5.692942405358038e-05,-8.682081967566118e-06,2.4082007838450318e-05,5.1798431321414106e-05
10.0,6.886075949367089,-4.580681533991323e-05,9.034457349586915e-05,-5.736640045301235e-05,-1.3361327446786775e-05,0.00015579318081877024
0.0,6.987341772151899,-2.3517117743073746e-05,-1.6027913265096998e-05,-1.4326913614059661e-05,1.1863509302451222e-05,3.238517976263511e-05
0.10101010101010101,6.987341772151899,8.510127647169123e-05,-6.304458846257483e-06,9.488303843279126e-05,-2.3639045287630124e-05,0.00018661956998249345
0.20202020202020202,6.987341772151899,0.00016925189275665662,2.655980554728259e-05,-3.874592811839267e-05,-5.874350949118176e-05,0.00017134780404067301
0.30303030303030304,6.987341772151899,0.0002376439160493547,3.2104789682752426e-05,4.553830856135848e-05,-8.092461171963214e-05,0.00023684816455185967
0.40404040404040403,6.987341772151899,-7.466463464006243e-06,-5.4241058348004845e-05,6.83299263154221e-05,1.8512256543603328e-05,0.00012884016492452824
0.5050505050505051,6.987341772151899,-2.741909176911567e-05,-9.120277248177792e-05,1.601161163020959e-05,3.558655927526807e-05,8.566312062095612e-05
0.6060606060606061,6.987341772151899,1.7281159897191353e-05,-5.022766664036479e-05,5.769330529097721e-06,9.88395202295203e-06,6.155732975255517e-05
0.7070707070707071,6.987341772151899,8.737834427892976e-05,-5.440814736290295e-05,-3.2266976585824834e-05,-9.891059074808043e-06,0.00013591463760101604
0.8080808080808081,6.987341772151899,-6.276119343675785e-05,-0.00017940413756387658,-6.502811576367058e-05,7.264959930019033e-05,0.00019378122126502181
0.9090909090909091,6.987341772151899,-1.3121825231142557e-05,4.838339634554789e-06,4.9998127053534846e-05,2.4850456789763302e-06,8.808244888451802e-05
1.0101010101010102,6.987341772151899,0.00016871066478088816,9.014190103494826e-05,-5.86727336246183e-06,-7.765576974475092e-05,0.0001465749820907853
1.1111111111111112,6.987341772151899,8.666545622719777e-06,-7.411239356526321e-05,-9.132693291690994e-05,1.9633754382763027e-05,0.0001767254377871923
1.2121212121212122,6.987341772151899,-0.00011322018121618932,-0.00016865229927377523,-3.204814604210951e-05,8.456174414698937e-05,0.0001588987557939429
1.3131313131313131,6.987341772151899,7.972400614740193e-05,7.279670002913318e-05,-6.0192983842699315e-05,-4.5756211852960536e-05,0.00012931054884405903
1.4141414141414141,6.987341772151899,-2.6858935983776862e-05,7.29696477690324e-05,-0.00012373673498402028,-1.383321353557666e-05,0.00023224598551841854
1.5151515151515151,6.987341772151899,-4.276134109594444e-05,-3.752201439724844e-05,-1.1404832203328233e-05,2.4085006647957864e-05,4.496835324160276e-05
1.6161616161616161,6.987341772151899,-5.7161974344353894e-05,3.9281093758761563e-05,4.059235833607117e-05,5.364264175677699e-06,0.00010954039974976218
1.7171717171717171,6.987341772151899,0.00025817954938933425,-8.880801745807052e-05,-1.1388788840964575e-05,-5.0811459579379115e-05,0.00031282754218736825
1.8181818181818181,6.987341772151899,6.772628358196689e-05,0.00014693797525529203,0.00011392849832330699,-6.439927765117768e-05,0.0002348726533027231
1.9191919191919191,6.987341772151899,-4.65253788296433e-05,-2.994640567349103e-05,6.977394201161529e-06,2.2941535350940295e-05,4.259321904919813e-05
2.0202020202020203,6.987341772151899,9.674390715852315e-05,2.8845557120500055e-05,-6.354025074935474e-05,-3.767683928370696e-05,0.00013968861168241336
2.121212121212121,6.987341772151899,1.092251228304764e-05,3.329637774060373e-05,-8.562727917481749e-05,-1.326566700709541e-05,0.00015119643767963568
2.2222222222222223,6.987341772151899,-6.177289864284023e-05,-5.802825319772959e-05,-4.796898097439914e-05,3.594034555217095e-05,0.00010247763258331452
2.323232323232323,6.987341772151899,0.00013987465652510656,1.880618139932614e-05,-9.434917232693549e-06,-4.7604251377329814e-05,0.00013249579926406964
2.4242424242424243,6.987341772151899,3.4496639164720665e-05,-7.922092289754984e-05,-5.6612551554053094e-05,1.341728511984875e-05,0.00014076139850923038
2.525252525252525,6.987341772151899,5.602320789892781e-05,-4.37544477977687e-05,-5.933098221993325e-05,-3.6806280303477326e-06,0.00013440540318155903
2.6262626262626263,6.987341772151899,-5.43153197321993e-05,6.990421650021451e-07,2.823302222237224e-05,1.6084883270159145e-05,7.334795121668201e-05
2.727272727272727,6.987341772151899,8.453949790836178e-05,0.00013385680318349743,-2.826774469930197e-05,-6.551889032755776e-05,0.00012706525765726422
2.8282828282828283,6.987341772151899,-0.00014081822252866373,3.984545433987885e-05,-7.919108509462519e-05,3.029183045663546e-05,0.00021410764105716756
2.929292929292929,6.987341772151899,-9.898622675354115e-06,-5.6485085930286865e-05,-0.0001386273215980348,1.9915112581692292e-05,0.00024572754422601256
3.0303030303030303,6.987341772151899,7.67244707838741e-05,3.8570085314108464e-05,1.9897780082190056e-05,-3.458836682939477e-05,7.485179671181519e-05
3.131313131313131,6.987341772151899,0.00010237908476073993,9.717797581092816e-05,7.471569346970918e-05,-5.9867118171500425e-05,0.0001634727754358829
3.2323232323232323,6.987341772151899,-4.8660896921684884e-05,9.097820179084224e-05,5.292633527816483e-05,-1.2695191460747206e-05,0.00015321745294747795
3.3333333333333335,6.987341772151899,7.15382378422368e-05,7.60452616490405e-05,-3.978804602046795e-05,-4.4275049847383185e-05,0.0001010431744186608
3.4343434343434343,6.987341772151899,6.38704491110837e-05,0.00018907899334727607,-2.9563432920423063e-05,-7.588483273750792e-05,0.00017428634332738104
3.5353535353535355,6.987341772151899,0.00022815455014372197,-2.3122530824919346e-05,4.258263956476115e-05,-6.150960579564078e-05,0.0002516038639975237
3.6363636363636362,6.987341772151899,9.862635264620252e-06,6.276845713660848e-05,-5.367161453191898e-05,-2.1789327720368618e-05,0.00010981809962934415
3.7373737373737375,6.987341772151899,-2.72308950616411e-06,-4.664088313430335e-05,-3.737698867511007e-05,1.4809191792140238e-05,7.90373186782231e-05
3.8383838383838382,6.987341772151899,-5.617449410694557e-05,3.877366140034166e-05,-1.500304390084406e-05,5.220249811981175e-06,8.667372957978538e-05
3.9393939393939394,6.987341772151899,-0.00010684739881314924,-8.172452192084727e-05,-5.0008184804465194e-05,5.6571576220198954e-05,0.00012986788352841174
4.040404040404041,6.987341772151899,-5.668955691249029e-05,-0.00013657501179901223,-2.9715633122905972e-05,5.797937061345075e-05,0.00012951107814513827
4.141414141414141,6.987341772151899,-9.874292174939367e-05,0.0002484999213296289,-0.00010214782047444566,-4.492709987407057e-05,0.00035685083083279967
4.242424242424242,6.987341772151899,-0.00014563566741753484,-2.8435974190544228e-05,5.055459585072981e-05,5.222149248242372e-05,0.0001598260356052802
4.343434343434343,6.987341772151899,-3.982298826775049e-05,-2.925235232039479e-05,7.095469209710985e-05,2.0722602176443583e-05,0.0001279857781918667
4.444444444444445,6.987341772151899,-0.00013014140457346562,0.00015148855427398478,-2.261802137836607e-05,-6.404144910155749e-06,0.0002472553844987268
4.545454545454545,6.987341772151899,-8.17465079415822e-05,0.0001653619916323181,-3.2232791346324555e-05,-2.508464510722077e-05,0.00022508154902920016
4.646464646464646,6.987341772151899,4.479710236428308e-05,0.00011600470155578007,6.526973918456652e-06,-4.824054117601894e-05,0.00010195587692009673
4.747474747474747,6.987341772151899,7.443406268597733e-05,1.2569893459681894e-05,-1.676079959655536e-05,-2.6101186843697767e-05,7.487040056752338e-05
4.848484848484849,6.987341772151899,-9.43318386549854e-06,0.00010048233133840732,1.7297454532615157e-05,-2.731474424187263e-05,0.00010968663535597482
4.94949494949495,6.987341772151899,-6.642451771607686e-05,-5.523517185906035e-05,-2.877307657538315e-05,3.649790687254116e-05,7.923282728294647e-05
5.05050505050505,6.987341772151899,-3.747788020240815e-05,-9.496928954177167e-05,-4.002446014071923e-05,3.9734150923253945e-05,0.00010802954240784626
5.151515151515151,6.987341772151899,8.875750402290285e-05,-0.00014814502327046243,6.077845738786504e-06,1.7816255774267875e-05,0.0002075684117720132
5.252525252525253,6.987341772151899,5.549569165270937e-05,0.000113462595854176,1.088223569520303e-06,-5.068748625206561e-05,9.828733340544507e-05
5.353535353535354,6.987341772151899,3.3106968183047544e-06,-2.8332809789762172e-05,-1.65803279044152e-05,7.5066338914372245e-06,4.162009115179787e-05
5.454545454545454,6.987341772151899,0.0002598985750173263,-4.385019569485382e-05,7.644664457865789e-06,-6.481451379674173e-05,0.0002846788278356106
5.555555555555555,6.987341772151899,5.8498638924310275e-06,6.195065985911073e-05,-3.541374955742574e-05,-2.0340157125462525e-05,8.527662756855085e-05
5.656565656565657,6.987341772151899,-0.00027272516334135094,2.7940349336415728e-05,6.424562574012105e-05,7.343544420148057e-05,0.00030848373613112087
5.757575757575758,6.987341772151899,0.00014758808140866633,2.084819525572304e-06,-4.277441414684083e-05,-4.490187028027159e-05,0.00016421889431274088
5.858585858585858,6.987341772151899,1.641082202329298e-05,0.0001321745962104539,4.8131819136622705e-05,-4.4575625470124064e-05,0.00015006785541436926
5.959595959595959,6.987341772151899,4.942126964539245e-05,-0.00013824188340035262,-2.266322600466692e-05,2.664618412648805e-05,0.00017299200864222267
6.0606060606060606,6.987341772151899,-8.280878532864509e-05,0.00016567254627612103,5.8603680206481406e-05,-2.485912828424278e-05,0.00024150984211389613
6.161616161616162,6.987341772151899,0.00036227271145774977,7.934100752790087e-05,-4.126850519375868e-06,-0.00013248411569569517,0.0003299159342941742
6.262626262626262,6.987341772151899,0.00012097965984910118,-0.00019478330250341722,0.0001111401292773669,2.2141092796294812e-05,0.00033644883076013125
6.363636363636363,6.987341772151899,-0.00011239143927854941,-0.00014818148258325016,-3.5896589477088246e-05,7.817187655853986e-05,0.0001476514568501542
6.4646464646464645,6.987341772151899,-0.0001230373785909184,-6.0153699955015896e-05,-2.7103989739381914e-05,5.4957323563780284e-05,0.00011644479109505425
6.565656565656566,6.987341772151899,-7.403260823316448e-05,2.6131590652971494e-05,-8.586114009038281e-05,1.4370305274057895e-05,0.00017382371258847733
6.666666666666667,6.987341772151899,-0.0001769585826305258,-7.784296975314167e-05,-2.518091847542563e-05,7.644046571510024e-05,0.00015969070817403375
6.767676767676767,6.987341772151899,5.484570137214304e-05,2.1848494991035368e-07,1.1344564990014822e-05,-1.6519255896616016e-05,5.815679838846487e-05
6.8686868686868685,6.987341772151899,-0.00026812095368350516,8.764749470979906e-05,1.5741980433079216e-05,5.414203769211183e-05,0.0003222025587211936
6.96969696969697,6.987341772151899,1.8665720527818892e-05,-2.328788224987431e-05,4.302251642156521e-05,1.3866485166166256e-06,8.29350977692744e-05
7.070707070707071,6.987341772151899,-9.307156129902468e-05,0.00014570032439162808,-0.00015103489607775204,-1.5788628927781018e-05,0.0003344937611122501
7.171717171717171,6.987341772151899,-1.1608867338660572e-05,4.814580091771983e-05,4.580726278795474e-06,-1.0961080073717777e-05,5.54495385227546e-05
7.2727272727272725,6.987341772151899,9.000755785493811e-05,0.00010146963693508635,1.1207470105138343e-05,-5.7443158437007334e-05,9.818979393127694e-05
7.373737373737374,6.987341772151899,-8.434642995743723e-05,0.00016763688840661225,6.172014411023321e-05,-2.4987137534752507e-05,0.00024654441432417557
7.474747474747475,6.987341772151899,7.33796214946681e-05,-0.000123766710647437,-1.687608982667382e-05,1.5116126745830672e-05,0.00017504036425821924
7.575757575757575,6.987341772151899,0.00017539731261397666,0.00012841064636442203,7.030060047360725e-05,-9.11423876935196e-05,0.00019888979956106249
7.6767676767676765,6.987341772151899,3.455623721821465e-05,2.1927204325964828e-05,6.998263863860978e-05,-1.694503246325384e-05,0.00012493967855921732
7.777777777777778,6.987341772151899,-3.84934789849702e-05,3.7117470301275446e-05,-3.084271290000543e-05,4.1280260510842685e-07,8.451067332619172e-05
7.878787878787879,6.987341772151899,-4.8289817583897605e-06,-0.0001731408703665013,2.546878142751918e-05,5.339095563746732e-05,0.00017638299927620333
7.979797979797979,6.987341772151899,-3.680788577349397e-05,-0.0001497616630416607,-2.7923935912072234e-05,5.59708646445464e-05,0.00014356254586798435
8.080808080808081,6.987341772151899,7.950701852812159e-05,-5.1756576297636596e-05,-1.7633694303645185e-05,-8.325132669145498e-06,0.00011852409788863912
8.181818181818182,6.987341772151899,4.839872975366038e-05,6.770074020857952e-05,-1.6870558806623336e-05,-3.4829840988671966e-05,6.710472934468052e-05
8.282828282828282,6.987341772151899,4.892450277246848e-05,2.2522746881125274e-05,-4.339029751052023e-05,-2.1434174896078128e-05,8.629670133052404e-05
8.383838383838384,6.987341772151899,-4.3151054071254256e-05,-1.3497566536031483e-05,2.091875158803926e-05,1.699458618218572e-05,5.2673959889442e-05
8.484848484848484,6.987341772151899,-0.00010581229970828755,-6.0157910355170025e-05,7.814100764914488e-05,4.979106301903727e-05,0.00016360874468317012
8.585858585858587,6.987341772151899,-0.00010061343644189996,-0.0001316367011524921,-7.072915726962207e-05,6.967504127831762e-05,0.00017092309639818695
8.686868686868687,6.987341772151899,-0.00010373210435818206,2.057474535690942e-05,-0.00011176698618429364,2.4947207700381793e-05,0.00022537415303389307
8.787878787878787,6.987341772151899,0.0001001116277241013,0.00012072658995002966,6.249203364320053e-05,-6.625146530223928e-05,0.00015564984710446318
8.88888888888889,6.987341772151899,-1.989876782043645e-05,-6.61915799088155e-05,4.2006006231792925e-05,2.5827104318775584e-05,9.356104429707718e-05
8.98989898989899,6.987341772151899,9.093183438436341e-05,-4.2903873986285605e-05,-2.4319920721282587e-05,-1.4408388119423343e-05,0.0001256385470425908
9.09090909090909,6.987341772151899,-6.244488929576753e-05,-0.00015368748131510125,-3.385761438712085e-05,6.483971118326063e-05,0.00014615478955967996
9.191919191919192,6.987341772151899,0.0002180252132584151,0.00010674455024760866,5.401859185278883e-05,-9.743092905180712e-05,0.00021073778514852932
9.292929292929292,6.987341772151899,-2.395578994084113e-05,-4.67329130312247e-05,2.5438610141783854e-05,2.1206610891619747e-05,5.983050929092201e-05
9.393939393939394,6.987341772151899,-0.00020107494954556837,-1.4569937015135554e-05,-4.920493863728733e-05,6.469346596821117e-05,0.00021207816249693183
9.494949494949495,6.987341772151899,0.00011096748281358245,-6.209184472931087e-05,-6.686620607852401e-06,-1.4662691425281472e-05,0.00015229408334598908
9.595959595959595,6.987341772151899,-6.760445051524155e-05,-0.0001575326849890091,-4.164339045769347e-05,6.75411406512752e-05,0.00015472399254439262
9.696969696969697,6.987341772151899,-8.140428791293153e-05,0.000119304179808574,6.737503748959313e-05,-1.1369967568692743e-05,0.000210214662292937
9.797979797979798,6.987341772151899,5.716623529980692e-05,1.7909332615238026e-05,3.8506042194190335e-05,-2.2522670374513485e-05,8.374401105221325e-05
9.8989898989899,6.987341772151899,2.801924792928404e-06,5.9018539360666017e-05,4.663474672319699e-05,-1.8546139246078326e-05,9.924752927879281e-05
10.0,6.987341772151899,2.3973167451142745e-06,-3.6452538522327875e-06,-3.7870469215951095e-05,3.743811321355539e-07,6.58049477412806e-05
0.0,7.0886075949367084,-1.8389879671182532e-05,2.0560476162488644e-06,-9.033164345058085e-06,4.9001496164801e-06,2.5000392969639086e-05
0.10101010101010101,7.0886075949367084,8.036976789357815e-06,-2.770834442146345e-05,6.846100474965073e-05,5.90141028963169e-06,0.0001229461840866688
0.20202020202020202,7.0886075949367084,-0.00015110932113038524,2.261105020135216e-05,3.759845415146272e-05,3.8549481278709925e-05,0.0001760765692345358
0.30303030303030304,7.0886075949367084,-1.832310386996703e-05,3.8511489024181465e-05,-2.8636833004379682e-05,-6.05651554626433e-06,7.06025888295083e-05
0.40404040404040403,7.0886075949367084,7.851133436760597e-05,5.755933734130897e-05,4.079092998726349e-05,-4.082120151267448e-05,9.974841586235237e-05
0.5050505050505051,7.0886075949367084,-7.852214055949795e-06,0.0001410206272408371,5.432801624393233e-05,-3.9950523955466195e-05,0.00017294623086781008
0.6060606060606061,7.0886075949367084,-4.323325472518997e-05,-0.00012479785249233503,-1.4162373933636297e-05,5.0409332165257496e-05,0.00011247186075273402
0.7070707070707071,7.0886075949367084,-0.0001683702203007415,-6.937911473085644e-05,-2.00296891862728e-06,7.132480050947938e-05,0.00014660372255478307
0.8080808080808081,7.0886075949367084,5.731674557706295e-05,4.953713744062833e-06,-4.984884314728208e-05,-1.8681137796337735e-05,0.00010237450533429125
0.9090909090909091,7.0886075949367084,-7.254063016487221e-05,-3.439701308867435e-05,1.005664082941107e-05,3.208129297606397e-05,6.521905092235505e-05
1.0101010101010102,7.0886075949367084,-2.098163274530738e-05,5.609383356209041e-05,3.689263161721239e-05,-1.0533660245034908e-05,9.405788693329577e-05
1.1111111111111112,7.0886075949367084,-4.950405579895168e-05,-4.6984456786229206e-05,1.6685001851149385e-05,2.8946553775554266e-05,5.6279991204089673e-05
1.2121212121212122,7.0886075949367084,0.00021855010991742848,-3.395854482821471e-05,-3.2958069376133946e-05,-5.537746952676413e-05,0.00024412636077985998
1.3131313131313131,7.0886075949367084,5.133302172469611e-05,-1.4335619026348709e-05,4.8376423442303594e-06,-1.1099220809504221e-05,6.0387814048244296e-05
1.4141414141414141,7.0886075949367084,9.532620525708601e-05,1.6022551383396149e-06,-2.9462943616787142e-05,-2.907853811862769e-05,0.0001074295623548322
1.5151515151515151,7.0886075949367084,6.531463821478571e-05,-4.278078078137024e-05,0.00010318696568018375,-6.760157230024641e-06,0.00020207191305949353
1.6161616161616161,7.0886075949367084,0.0002670173579004309,-1.1612240380674457e-05,0.0001008679477355537,-7.662153525592694e-05,0.0003241246857826243
1.7171717171717171,7.0886075949367084,9.115106306914268e-05,-6.897303821096594e-05,4.24571496119882e-05,-6.6534074574530194e-06,0.00015735498312493504
1.8181818181818181,7.0886075949367084,-9.673499212222088e-06,-0.00010501506047586506,-4.201830957058481e-05,3.4406567906426145e-05,0.00012410677429730506
1.9191919191919191,7.0886075949367084,-7.717173010771151e-05,-7.843365265705636e-05,-4.046137315684485e-06,4.668161482943036e-05,7.812532754660944e-05
2.0202020202020203,7.0886075949367084,0.00011536690415184106,3.506833685337107e-05,1.7349598723111057e-05,-4.513057230156364e-05,0.00010675491133560639
2.121212121212121,7.0886075949367084,-4.86892324003908e-05,0.00012086882116382427,4.591662396381257e-05,-2.1653876629030042e-05,0.00017085061449576648
2.2222222222222223,7.0886075949367084,0.00011845607965911998,7.678256945521876e-05,-6.978147508853999e-05,-5.857159473430162e-05,0.00015950049032254274
2.323232323232323,7.0886075949367084,2.216538803273124e-05,0.00012380012801086515,-7.42968790224581e-05,-4.378965481307891e-05,0.00017214463960204754
2.4242424242424243,7.0886075949367084,-0.00011322925552856696,-6.315217576519326e-05,3.91568696141906e-05,5.291442938812807e-05,0.00011940757546520029
2.525252525252525,7.0886075949367084,4.1391188399977894e-05,0.00018894745113887923,4.431314553307245e-05,-6.910159186165712e-05,0.0001883734981953736
2.6262626262626263,7.0886075949367084,4.246648609468412e-06,4.598936334525709e-05,1.0716770434562361e-05,-1.507080358641765e-05,4.7773448745670775e-05
2.727272727272727,7.0886075949367084,8.731819131280729e-05,6.850461589591964e-05,0.00011449861720021409,-4.674684216261808e-05,0.00021369475847306292
2.8282828282828283,7.0886075949367084,0.00017941847395835852,-3.4044815088778374e-05,5.702180522033226e-06,-4.361209766087404e-05,0.00019888652943202557
2.929292929292929,7.0886075949367084,3.9219636925202655e-05,-0.00012155194599783157,-3.6284182579133006e-05,2.4699692721788672e-05,0.0001582084207692462
3.0303030303030303,7.0886075949367084,-0.00027938924321918395,-4.050076117437926e-05,5.237251521472769e-05,9.596700131806896e-05,0.0002767884118198093
3.131313131313131,7.0886075949367084,-3.080458376230384e-05,-8.593357808792748e-05,-9.436533260530049e-06,3.502144855506939e-05,7.715891782218018e-05
3.2323232323232323,7.0886075949367084,0.00012956700997560885,-6.616142562129901e-05,-4.286359765175018e-05,-1.9021675306292954e-05,0.00018774756035349949
3.3333333333333335,7.0886075949367084,-8.372786111426847e-05,8.963126050656274e-06,2.391981126200237e-05,2.2429420519083658e-05,9.776312106780684e-05
3.4343434343434343,7.0886075949367084,8.433921522987958e-05,-0.0001004364920503835,-4.0387835743056043e-05,4.829183046151175e-06,0.0001748280838680511
3.5353535353535355,7.0886075949367084,0.00015117315226929672,-3.622414716096299e-05,0.0001166977917018283,-3.448470153250012e-05,0.0002655122465789755
3.6363636363636362,7.0886075949367084,-0.00012572691387076852,-1.4852617473458282e-05,-6.353703239982849e-05,4.217385940326804e-05,0.00016208438178297787
3.7373737373737375,7.0886075949367084,5.244903905765034e-05,-0.0001694024077997138,2.8529639360823956e-05,3.508601062261904e-05,0.00020682091754881734
3.8383838383838382,7.0886075949367084,-0.0002449458725932175,-9.997326410213964e-05,6.24111521566816e-05,0.00010347574100860714,0.00023914546068192787
3.9393939393939394,7.0886075949367084,6.835713243540075e-05,-6.690105505054317e-05,-3.7093774731524714e-05,-4.368232154572729e-07,0.00013360186141414367
4.040404040404041,7.0886075949367084,0.00016109855578035268,-2.8853276210269297e-05,-4.3522942192360353e-05,-3.967358387102501e-05,0.00019265569506460512
4.141414141414141,7.0886075949367084,6.009394177334148e-06,-3.2126262469477756e-05,-2.508301884850783e-06,7.835060487643083e-06,3.577909540914329e-05
4.242424242424242,7.0886075949367084,1.8098200135920723e-05,-0.00017417881253531628,-5.18638683418028e-07,4.6824183719818666e-05,0.00018389924837074697
4.343434343434343,7.0886075949367084,6.295881419667701e-05,-8.92372929150825e-06,-6.528668831414926e-05,-1.621052547155063e-05,0.00013187997443513537
4.444444444444445,7.0886075949367084,-3.414591509729199e-05,7.348935397611448e-05,-3.936796332290942e-05,-1.1803031663646747e-05,0.00011715587700010269
4.545454545454545,7.0886075949367084,0.00016328791250328718,-4.9374290381781465e-05,1.0337376145285744e-05,-3.417408663645171e-05,0.0001936067451429966
4.646464646464646,7.0886075949367084,-0.00015826148444253202,0.00011453862195765573,3.899625377413321e-05,1.3116858745462889e-05,0.00024668799958689307
4.747474747474747,7.0886075949367084,-3.550668504329981e-05,7.637239871609927e-05,5.975181706272037e-05,-1.2259714101839839e-05,0.00014323420542076948
4.848484848484849,7.0886075949367084,-3.1789049123649454e-05,0.00013045082573812685,-7.077165502933167e-05,-2.9598532984343218e-05,0.0001928749614499691
4.94949494949495,7.0886075949367084,-2.297819776955587e-05,-4.209853632366991e-05,-8.628699034257399e-05,1.9523020227967734e-05,0.00015384820423721698
5.05050505050505,7.0886075949367084,-9.447855248156207e-05,0.00014434156525503725,4.3547925101034665e-05,-1.4958903832042554e-05,0.00022155615953820893
5.151515151515151,7.0886075949367084,-0.00010768669485610272,5.3404118597474525e-05,-3.27237570143956e-05,1.628477287758846e-05,0.00015300937871608224
5.252525252525253,7.0886075949367084,0.0001889720977611749,-8.91167633615365e-05,9.887006759242199e-06,-2.9956600319891517e-05,0.0002465483556432344
5.353535353535354,7.0886075949367084,-1.4106870365852908e-05,4.474659491253662e-06,7.344300676884112e-06,2.889663262379774e-06,2.107050231374505e-05
5.454545454545454,7.0886075949367084,0.00014110907169139001,8.930502427686624e-05,-4.457100042586915e-05,-6.912422879047688e-05,0.0001457570946420803
5.555555555555555,7.0886075949367084,-6.0499894384332875e-05,0.00013983394468003736,1.1888235860397956e-05,-2.3800215088711347e-05,0.00017915830610217167
5.656565656565657,7.0886075949367084,8.233205132567057e-05,-0.0001238253862552049,2.1563438615286567e-05,1.2448000478860295e-05,0.0001835784210305605
5.757575757575758,7.0886075949367084,0.00012371855869941208,-9.663459918431383e-05,-1.6915429628611787e-05,-8.125187854529474e-06,0.00019354176845402934
5.858585858585858,7.0886075949367084,5.7619277650650747e-05,1.122574636856167e-05,-4.0387412446554054e-05,-2.0653507205763728e-05,8.770751617764765e-05
5.959595959595959,7.0886075949367084,0.00016412711985937752,-0.00020239952271100138,5.590490715857487e-05,1.1481720855487158e-05,0.0003324133043722402
6.0606060606060606,7.0886075949367084,0.00017485084987549948,5.1346504356849686e-05,-6.119626113144973e-05,-6.785920626970474e-05,0.00018832485342175896
6.161616161616162,7.0886075949367084,-5.18855696209038e-05,-7.817034360176895e-05,4.6031648236313206e-05,3.901677396680182e-05,0.00010537333660143704
6.262626262626262,7.0886075949367084,-0.00014287783513113235,-1.7775839959313602e-05,-2.437508060849169e-06,4.819610252713378e-05,0.00013493741906392783
6.363636363636363,7.0886075949367084,0.0001389697227537701,-6.754164301466642e-05,-3.130856379145393e-05,-2.14284239217311e-05,0.00019026660055699026
6.4646464646464645,7.0886075949367084,-0.00020733719396580854,-4.0093691720804503e-07,4.059554341046403e-05,6.232143926490497e-05,0.00021874582979117176
6.565656565656566,7.0886075949367084,7.069813342211527e-06,-0.00018495911333928536,-7.516326887378337e-05,5.336678999912215e-05,0.00022916376947191276
6.666666666666667,7.0886075949367084,7.378206740251343e-05,-8.589569005825994e-05,-5.601083028130638e-05,3.6340867967239536e-06,0.0001690297724090095
6.767676767676767,7.0886075949367084,-6.787556105665721e-05,4.672614306232719e-05,6.447399120896807e-05,6.344825398299007e-06,0.00014977541199358602
6.8686868686868685,7.0886075949367084,-0.00024092138598385168,-7.194567167102888e-06,7.579058428394721e-05,7.443478594528636e-05,0.00027128248916204667
6.96969696969697,7.0886075949367084,0.0002677527689796522,-2.9499160782554568e-05,5.997270099508971e-06,-7.147608245912929e-05,0.00028384525627741315
7.070707070707071,7.0886075949367084,-5.172475601804333e-05,8.804859706562334e-06,-5.053406698524764e-05,1.2875968893444299e-05,0.0001042568028374258
7.171717171717171,7.0886075949367084,-7.6424100324312e-06,-0.00021733569665064663,-7.66066363312205e-06,6.749343200492334e-05,0.00021402873700308771
7.2727272727272725,7.0886075949367084,-4.6797701839499386e-05,3.708229994717729e-05,-4.728509716240805e-06,2.9146205676966276e-06,7.32636655900573e-05
7.373737373737374,7.0886075949367084,-6.169378928414938e-05,0.00012310105651433127,6.125691030806971e-05,-1.8422180169054566e-05,0.00019445254324360382
7.474747474747475,7.0886075949367084,-4.9857671949117523e-05,-3.374583711637615e-05,3.4443938648284765e-05,2.50810527196481e-05,7.417030960630129e-05
7.575757575757575,7.0886075949367084,-1.9783138592610255e-05,-2.308863474409802e-05,-7.528755082371433e-05,1.2861532001012482e-05,0.00013218297126696863
7.6767676767676765,7.0886075949367084,-0.00011250650363157398,5.547525217792707e-05,1.456082098117257e-05,1.7109375436094073e-05,0.00015037485211019053
7.777777777777778,7.0886075949367084,0.0001381496600375886,-2.800390804035849e-05,6.229830335116682e-05,-3.3043725599169035e-05,0.00018809974378195094
7.878787878787879,7.0886075949367084,9.95827043630291e-05,4.469534499972317e-05,-1.174122857558482e-05,-4.328341480882568e-05,8.875288666167485e-05
7.979797979797979,7.0886075949367084,7.236596870305301e-05,1.3768381586692431e-05,5.7006721479159994e-05,-2.584030508692363e-05,0.00011907702703822139
8.080808080808081,7.0886075949367084,5.976351248350126e-05,8.240888519112906e-05,-2.7336658469410332e-05,-4.26517193023891e-05,8.763410313775334e-05
8.181818181818182,7.0886075949367084,1.1457406276946504e-05,-4.672114472713833e-05,-6.52448890448919e-05,1.0579121535057547e-05,0.00012498050767824887
8.282828282828282,7.0886075949367084,-9.338566126532307e-05,0.00014505796690711953,7.502791998072704e-05,-1.550169169253894e-05,0.0002453499459639567
8.383838383838384,7.0886075949367084,3.5051120105650517e-06,0.00012177462977698553,5.9462839237902325e-05,-3.758392253626517e-05,0.0001581834387690852
8.484848484848484,7.0886075949367084,0.00012562304049269194,-5.623164418626164e-05,6.595920678666328e-05,-2.081741889192909e-05,0.0001976334665608982
8.585858585858587,7.0886075949367084,0.00012140141893970221,-4.536695836140936e-05,0.00016282955670140809,-2.2810338173487853e-05,0.00031913080728178476
8.686868686868687,7.0886075949367084,-3.6432324653237636e-05,5.324806580256784e-05,4.197113619480404e-05,-5.04472234479906e-06,0.00010671152905041695
8.787878787878787,7.0886075949367084,6.430282535596316e-05,-5.227698351358978e-05,2.2492512621681605e-05,-3.6077525527120136e-06,0.00010838373248398527
8.88888888888889,7.0886075949367084,0.00012257633232747535,0.0001469060304607213,8.182107214305306e-05,-8.0844708836459e-05,0.0001966804519057106
8.98989898989899,7.0886075949367084,0.00016629330835618252,-0.0001898050513921231,-4.6000572483087045e-05,7.05352291078217e-06,0.00031873325820039165
9.09090909090909,7.0886075949367084,-0.00018832783211071303,0.00017821724907445327,7.432914403193833e-06,3.033174910877927e-06,0.00031773852934085443
9.191919191919192,7.0886075949367084,3.5301041784916755e-06,0.00015230295016442744,6.046974068308892e-05,-4.674991630287573e-05,0.00018341421318525747
9.292929292929292,7.0886075949367084,-0.00010058813337497149,-0.00022350294540885788,3.887863151427581e-05,9.722732363514881e-05,0.00020524239100409866
9.393939393939394,7.0886075949367084,3.385255312327254e-05,-1.335970281449034e-05,4.017784186017672e-05,-6.14785509263466e-06,8.136039571633281e-05
9.494949494949495,7.0886075949367084,6.097720981430621e-05,0.00014535282136267163,3.819260404502166e-05,-6.189900935309334e-05,0.0001426831395810769
9.595959595959595,7.0886075949367084,-4.25791002462074e-06,2.5628904117392165e-05,1.6049608031638298e-05,-6.411298227831428e-06,3.9457139350254736e-05
9.696969696969697,7.0886075949367084,2.7111550985031043e-05,0.0001909652992631426,-8.202345844932693e-05,-6.542305507445209e-05,0.0002284927996241819
9.797979797979798,7.0886075949367084,-0.0001281877431584851,5.0577093200388745e-05,-4.251571532162652e-05,2.3283194987428903e-05,0.00017577332400984375
9.8989898989899,7.0886075949367084,-0.00021696247395906922,4.323197188259014e-05,-1.343156109296003e-05,5.2119150622943724e-05,0.00024261627021544593
10.0,7.0886075949367084,0.00010323538883678694,5.0675421673141444e-05,-4.974857522397835e-05,-4.617324315297851e-05,0.00012417249783903798
0.0,7.189873417721519,7.361942935601124e-05,7.95920505287202e-06,-1.4550451368604056e-05,-2.4473590322664975e-05,7.437986350316063e-05
0.10101010101010101,7.189873417721519,1.021074774767451e-05,7.487827259835374e-05,-1.532329243932399e-05,-2.5526706103808476e-05,7.517221426258339e-05
0.20202020202020202,7.189873417721519,3.6863779329543406e-06,-0.00012718039509572156,7.820143687955194e-06,3.704820514883017e-05,0.00012977188147998199
0.30303030303030304,7.189873417721519,-7.274674518342214e-07,-3.895303349689408e-05,4.386776450412489e-05,1.190415028461849e-05,8.522131922971218e-05
0.40404040404040403,7.189873417721519,-6.389092679253928e-05,6.536815099197659e-05,6.882344067726262e-06,-4.431672598311924e-07,0.00011257698441382765
0.5050505050505051,7.189873417721519,0.00018464529621608656,0.00010027060573373094,-9.580646124671507e-05,-8.547477058494525e-05,0.00023058668248907924
0.6060606060606061,7.189873417721519,8.94130482061707e-05,-2.7211049029144542e-05,6.978684280023951e-05,-1.8660599753107845e-05,0.0001605576765571952
0.7070707070707071,7.189873417721519,-7.470350577777585e-05,-0.0001106886330679631,-7.639188047819927e-05,5.5617641653721685e-05,0.00016453241788475642
0.8080808080808081,7.189873417721519,6.586004636505203e-05,2.984126228084453e-05,-6.170353474768648e-05,-2.8710392593768965e-05,0.00012118035453566603
0.9090909090909091,7.189873417721519,-3.672512652542959e-05,6.0498942166752035e-06,4.262580757057194e-05,9.202569692626316e-06,8.401427070471372e-05
1.0101010101010102,7.189873417721519,-1.4790407869266873e-05,-9.702908247831822e-05,1.5902281389816316e-05,3.3545847104275524e-05,9.464114838003175e-05
1.1111111111111112,7.189873417721519,-0.00012491664271715463,0.00015331376399779182,1.4290372140506459e-05,-8.519136384191158e-06,0.00024263833734093358
1.2121212121212122,7.189873417721519,1.3504267376824553e-05,-0.0001453081171370181,-9.700383362330536e-05,3.954115492805807e-05,0.00022691038985023384
1.3131313131313131,7.189873417721519,9.050028872733115e-05,6.046877222727387e-05,4.4620944212181e-05,-4.52907182863815e-05,0.00011111894220162658
1.4141414141414141,7.189873417721519,2.9021298719179433e-05,-9.891406697413184e-05,-5.7917707365406546e-05,2.0967830476485725e-05,0.00015349340568666359
1.5151515151515151,7.189873417721519,7.109861149100013e-05,-0.00010972929834443398,-1.0651039601225689e-05,1.1589206056030153e-05,0.00015886304213706082
1.6161616161616161,7.189873417721519,-7.964388748416082e-05,7.628898532623579e-05,3.572546201692248e-05,1.00647064737751e-06,0.00014855313988020423
1.7171717171717171,7.189873417721519,0.00019687022306940884,-5.904990848506985e-06,-3.102330071180979e-06,-5.728956966627055e-05,0.00019996035574458204
1.8181818181818181,7.189873417721519,2.426228037137204e-05,8.607021290248599e-06,5.671850118037478e-06,-9.86079049848619e-06,2.34610901683601e-05
1.9191919191919191,7.189873417721519,-0.0001379653847343139,-1.3243135309295357e-05,3.758010946747063e-05,4.5362556013082774e-05,0.00014703580394731506
2.0202020202020203,7.189873417721519,-0.00013111063155248802,-8.949529458446024e-07,-7.965001508853227e-05,3.960167534949979e-05,0.0001900153559892946
2.121212121212121,7.189873417721519,9.071459497254832e-07,1.3572810885680895e-05,-7.823486169431812e-05,-4.343987050621913e-06,0.00013614261765398255
2.2222222222222223,7.189873417721519,0.00014999413227230132,3.545390358899833e-05,-2.0476340777049695e-05,-5.56344107583899e-05,0.00014033952788211377
2.323232323232323,7.189873417721519,3.881424772573699e-05,-4.430906259731874e-06,-4.453078459457558e-06,-1.0315002439801535e-05,4.192434583044101e-05
2.4242424242424243,7.189873417721519,-0.00016396365559339488,0.000131902608145956,1.2137401379399087e-05,9.618314234231665e-06,0.0002575879689385803
2.525252525252525,7.189873417721519,-0.00011708272742245734,-4.446789778319439e-05,-3.822447223160703e-06,4.8465187561695516e-05,0.00010258250117373903
2.6262626262626263,7.189873417721519,-0.00012646079170148815,-8.781845464245761e-05,3.4288773014688556e-05,6.428377390318372e-05,0.00012698811510542492
2.727272727272727,7.189873417721519,-6.037331691790139e-06,-0.00013562366476516473,-2.719533872579517e-06,4.249829893708646e-05,0.00013279160501439595
2.8282828282828283,7.189873417721519,0.00011055862803682766,-2.9347983905742703e-05,8.648227504557262e-06,-2.4363193239325485e-05,0.00012866064956269614
2.929292929292929,7.189873417721519,-7.5487084014572755e-06,-6.358758953917865e-05,-2.7715894382500672e-05,2.1340889382190777e-05,7.69731951708923e-05
3.0303030303030303,7.189873417721519,1.9826245248100314e-05,0.00016308756622603087,3.568530567805986e-05,-5.487414344223935e-05,0.00016606487677189432
3.131313131313131,7.189873417721519,9.405304874383098e-05,-2.559314908994618e-05,-5.339569300061774e-05,-2.053796989616544e-05,0.00014304334675287474
3.2323232323232323,7.189873417721519,-4.228405218853604e-05,0.00012573724731969386,5.361782145684068e-05,-2.503595853934735e-05,0.00017759248039840662
3.3333333333333335,7.189873417721519,0.00010109436113470507,8.545488295120469e-05,5.2315912975573156e-05,-5.596477322577293e-05,0.0001307458004184014
3.4343434343434343,7.189873417721519,-0.00011844280818438025,-9.618248821826654e-05,2.735920477524978e-06,6.438758892079403e-05,0.00010913341207120915
3.5353535353535355,7.189873417721519,2.4785897606326642e-05,5.416818368517339e-05,-4.733572437374342e-05,-2.368622438745001e-05,9.448776743855055e-05
3.6363636363636362,7.189873417721519,-0.0001463056429635355,-4.7387394810585326e-05,6.759480276407229e-05,5.810791133223624e-05,0.00017442773622884555
3.7373737373737375,7.189873417721519,-4.921963196514124e-05,4.374318503155289e-06,7.94198188805628e-05,1.3453594038595784e-05,0.00014689973476163533
3.8383838383838382,7.189873417721519,-7.631136080374057e-05,-8.097854454640304e-05,1.667158695437083e-05,4.718697160504308e-05,8.387604526360048e-05
3.9393939393939394,7.189873417721519,4.77742373728152e-05,3.436339417937272e-05,9.490201424522142e-05,-2.4641289465656374e-05,0.000169825535738948
4.040404040404041,7.189873417721519,-8.256785150087068e-05,-4.189168786691668e-05,-5.178908904677899e-05,3.733786181033621e-05,0.00011471611126506257
4.141414141414141,7.189873417721519,-0.00021146678487863097,-7.53392160315779e-05,3.4057051686577974e-05,8.604180027306266e-05,0.00019478733300302232
4.242424242424242,7.189873417721519,-1.6325026091265413e-05,2.371339001828133e-05,-1.589555868376602e-05,-2.2165091781047754e-06,4.442926300770208e-05
4.343434343434343,7.189873417721519,-0.00022625171035235676,-1.6379417596490803e-06,-2.156719664851879e-05,6.836689563360175e-05,0.00022851119027265213
4.444444444444445,7.189873417721519,-7.135346994744731e-05,0.00015016033897770727,6.53150152882064e-05,-2.3642060709077988e-05,0.00022616821168387362
4.545454545454545,7.189873417721519,-2.7348413619853157e-05,2.8792034910207156e-05,-7.243194172045284e-05,-4.330863871061996e-07,0.0001345492178559949
4.646464646464646,7.189873417721519,-7.268548576001155e-05,-0.00011902807197875492,-7.840109304356407e-05,5.751406732162993e-05,0.00017099544642934752
4.747474747474747,7.189873417721519,1.7558009489243223e-05,-8.354329870892731e-05,2.98688143208531e-05,1.9795586765905225e-05,0.00010691612925414124
4.848484848484849,7.189873417721519,-5.3466525074728e-05,-0.00011587610475086273,-1.012375505784662e-05,5.0802788947677214e-05,0.00010197018949177962
4.94949494949495,7.189873417721519,-0.00011932040691734796,-2.4197388408232283e-05,4.3532160832666096e-05,4.3055338597674076e-05,0.0001327432784052597
5.05050505050505,7.189873417721519,-4.226272226805188e-05,1.6013011862943872e-05,5.191070639127048e-05,7.874913121532403e-06,0.00010393975192191848
5.151515151515151,7.189873417721519,-7.43454926593324e-05,1.4219996505661783e-05,-3.645418545446404e-05,1.8037648846101187e-05,0.00010379487529089607
5.252525252525253,7.189873417721519,-9.161072249787758e-05,4.550598856543005e-05,8.250394615316432e-06,1.3831420179734258e-05,0.00012180460991393023
5.353535353535354,7.189873417721519,-3.110790804251683e-05,-0.0001244452429627825,2.550418318178836e-05,4.66659453015898e-05,0.0001205590284621745
5.454545454545454,7.189873417721519,6.327071051230516e-05,0.00010173048088742103,6.827380957635988e-05,-4.950035741991786e-05,0.00014798531334568103
5.555555555555555,7.189873417721519,1.143063467290565e-05,0.000125296152455017,-3.123386436950355e-05,-4.1018036138376796e-05,0.00013162155421806847
5.656565656565657,7.189873417721519,-0.00012127431745679485,-4.441961864537795e-05,0.0001089417833337798,4.9708180830651836e-05,0.00021656070772449836
5.757575757575758,7.189873417721519,-0.00014016600438061225,-6.555028215177779e-05,7.962835707146727e-05,6.1714885959717e-05,0.00018378643281991822
5.858585858585858,7.189873417721519,-3.276503632579145e-05,-0.00022085733171431918,-8.84489777273679e-06,7.60867104120332e-05,0.00020700194861593142
5.959595959595959,7.189873417721519,0.00022928249996705992,-7.96306925962316e-06,-7.584220525344217e-05,-6.639582921223103e-05,0.0002677980358097336
6.0606060606060606,7.189873417721519,0.00017925079087077598,-2.051468807064793e-05,-5.660696431573177e-05,-4.762083084003841e-05,0.00021410749109429392
6.161616161616162,7.189873417721519,-4.7238942405748996e-05,-0.00010653303943763082,-0.00010316069505920822,4.613159455301395e-05,0.00020118321270033116
6.262626262626262,7.189873417721519,-0.00017999730173235204,8.539471946973322e-05,-4.3195017575946004e-05,2.8380774678785644e-05,0.00024629156392605856
6.363636363636363,7.189873417721519,0.00014504502837454144,3.8948332064369275e-05,-6.936273426122302e-05,-5.519800813167321e-05,0.00017702919987936885
6.4646464646464645,7.189873417721519,-7.101520262522457e-05,-2.7284109396425263e-05,-7.725506283221617e-05,2.9489793606494948e-05,0.00014749586188043
6.565656565656566,7.189873417721519,0.00012150713587285514,8.996953145559034e-05,2.3294828978113277e-05,-6.344300019853364e-05,0.00011642382808828289
6.666666666666667,7.189873417721519,0.00013339024017387422,8.410439716313804e-05,2.6471408644402928e-05,-6.524839120110368e-05,0.00012549902981858358
6.767676767676767,7.189873417721519,-2.706495040331631e-05,0.0002028631426822579,5.272969133763831e-05,-5.2739457683682475e-05,0.00023604598734208577
6.8686868686868685,7.189873417721519,-0.00010036851281408324,-6.439780748527985e-05,3.248738770253055e-05,4.9429896089808926e-05,0.00010451648141245657
6.96969696969697,7.189873417721519,4.8619996942892656e-05,-5.489575776203353e-05,1.4988966942629543e-05,1.8827282457422618e-06,9.338354934132846e-05
7.070707070707071,7.189873417721519,-0.00012100333373366415,4.155247339348995e-05,-6.849328319649403e-05,2.383525810205226e-05,0.00018833584936058843
7.171717171717171,7.189873417721519,-7.581383645010666e-05,-0.00023735203195157892,-7.00317485292361e-05,9.394976052050568e-05,0.00024249225584239975
7.2727272727272725,7.189873417721519,5.660679357277662e-05,0.0001328951704910636,-2.546572666561993e-06,-5.6850589219152066e-05,0.00011559472752972539
7.373737373737374,7.189873417721519,0.00022048671243450287,9.324231102106643e-05,1.1211711087451794e-05,-9.411870703667078e-05,0.00019268351176065783
7.474747474747475,7.189873417721519,1.6923381509624564e-06,0.00010852591355886043,4.719595790612144e-06,-3.3065475512946865e-05,0.00010799953301565256
7.575757575757575,7.189873417721519,0.00022125634565165378,8.639211421658153e-05,8.547114443400631e-06,-9.229453796047058e-05,0.0001937067987995765
7.6767676767676765,7.189873417721519,8.94767396586798e-05,-2.993350905915015e-05,-8.315139403641536e-05,-1.7862969179858895e-05,0.00017978575497601398
7.777777777777778,7.189873417721519,-0.00012798253214422193,0.0001269845395818693,-1.4246808582624277e-05,2.9939776870578755e-07,0.00022218307633591663
7.878787878787879,7.189873417721519,1.557688351362957e-05,-0.0001411175869390277,-5.2592909252938973e-05,3.766221102761943e-05,0.00017508005931010125
7.979797979797979,7.189873417721519,-9.213532639422088e-05,-0.00011063511995334352,3.3663425489993946e-05,6.083113390426931e-05,0.00011804797286042806
8.080808080808081,7.189873417721519,0.00012099442374295647,0.00013375028779113698,5.603083574154194e-05,-7.642341346022803e-05,0.00016051203919346932
8.181818181818182,7.189873417721519,-3.1442225618812636e-05,2.2936123938019683e-05,4.065931134170163e-05,2.551830504237886e-06,8.482559114553262e-05
8.282828282828282,7.189873417721519,-8.50758206364723e-05,4.6815713298441524e-05,-8.10980735658866e-05,1.1478032201409234e-05,0.0001820526959549121
8.383838383838384,7.189873417721519,-2.4181702004735502e-05,6.741856239795447e-05,7.38743493523753e-05,-1.2971058117965691e-05,0.0001520939555993534
8.484848484848484,7.189873417721519,-5.391202037845762e-05,5.287375028284204e-05,-9.481264110063754e-05,3.114810286846732e-07,0.0001884701059861445
8.585858585858587,7.189873417721519,-1.8822413032604427e-06,-2.610331021380138e-05,1.8048905574055954e-06,8.395665455118547e-06,2.540798688558473e-05
8.686868686868687,7.189873417721519,-5.671056743514419e-05,0.00010678908986623484,8.96516378928159e-06,-1.5023556729327193e-05,0.00014462776545593703
8.787878787878787,7.189873417721519,0.00010180694066351872,-3.6625275924363804e-05,-4.8495724007655006e-05,-1.9554499421746477e-05,0.00014996758662356893
8.88888888888889,7.189873417721519,-3.481275917474665e-05,7.591123005551664e-05,-8.952071341007542e-05,-1.2329541264230996e-05,0.00018346388420838728
8.98989898989899,7.189873417721519,2.9030007334342773e-05,0.00011285501597563228,-6.51205940497178e-05,-4.2565506992992513e-05,0.00015173954436259078
9.09090909090909,7.189873417721519,-9.356205728619148e-05,3.788650258632386e-05,-1.576503273067071e-05,1.6702666409960286e-05,0.00012033118273415471
9.191919191919192,7.189873417721519,0.0002072469915265352,1.5155249456968284e-05,4.9495067137747753e-05,-6.672067229505105e-05,0.00021769107064834408
9.292929292929292,7.189873417721519,-7.30298756017649e-05,-4.778177210353233e-06,3.202349844700812e-05,2.334241584363544e-05,8.990971793384799e-05
9.393939393939394,7.189873417721519,-5.7187271421853065e-05,0.00020700799869309466,3.44416258667013e-05,-4.494621818137248e-05,0.0002480314393789204
9.494949494949495,7.189873417721519,-9.795654747682929e-05,-6.2304364891408e-05,-1.5179999822782986e-05,4.807827371047119e-05,8.980810533833901e-05
9.595959595959595,7.189873417721519,1.5040908447058674e-05,-0.00014505828406710083,-7.583554196725632e-05,3.9005212686012645e-05,0.00020174992280035128
9.696969696969697,7.189873417721519,-0.00011244225689508254,0.0001410220684567535,3.682842705690989e-05,-8.573943468501291e-06,0.000229033455406038
9.797979797979798,7.189873417721519,1.5979889506698994e-05,-6.603303164683891e-06,5.553269460060645e-05,-2.812975902604531e-06,9.826556388224001e-05
9.8989898989899,7.189873417721519,2.636884214775645e-05,-8.339873196325923e-05,-4.795515838781547e-06,1.710896694465083e-05,9.959308833566263e-05
10.0,7.189873417721519,0.00018555467979220706,-8.07150406585228e-06,-2.9835140969999137e-05,-5.324495271790643e-05,0.00019663112834226792
0.0,7.291139240506329,2.3475440290284383e-05,3.230792793809029e-05,7.142511762884586e-06,-1.67350104685124e-05,3.145635220604778e-05
0.10101010101010101,7.291139240506329,-3.205889759643707e-05,-8.019351483831358e-05,1.749776792338615e-05,3.36757237304252e-05,7.619955842407389e-05
0.20202020202020202,7.291139240506329,-1.5260897338917167e-05,-5.746295909830788e-05,-1.3851961552016871e-05,2.1817156931167515e-05,5.686458346676569e-05
0.30303030303030304,7.291139240506329,-5.145985612653077e-05,0.00016756639874547546,3.423113728359492e-05,-3.4831962785683405e-05,0.00020703832937733763
0.40404040404040403,7.291139240506329,0.00017131626754553927,-1.6279045623976196e-05,2.6147423205122932e-05,-4.6511166576468916e-05,0.0001856184242161021
0.5050505050505051,7.291139240506329,6.240849566622881e-05,2.4648205069453587e-05,6.819151871267679e-05,-2.611701022070472e-05,0.00013005516759527193
0.6060606060606061,7.291139240506329,4.5696875315334724e-05,-2.616980527854501e-05,0.00010227900334293894,-5.858121011036914e-06,0.00018802107601334806
0.7070707070707071,7.291139240506329,2.187719226284572e-05,-6.111295570047106e-06,1.1675462423296478e-05,-4.729769007839584e-06,3.253623720414541e-05
0.8080808080808081,7.291139240506329,-5.770692450094156e-05,0.00013332166234891112,-1.512010661375081e-05,-2.2684421354390867e-05,0.00017170961173555967
0.9090909090909091,7.291139240506329,-1.4834666001294636e-05,-6.635442129229408e-05,-6.638564496082874e-05,2.4356726188076616e-05,0.00012984526342312399
1.0101010101010102,7.291139240506329,4.825381437611015e-05,-0.00011710851194854702,-7.617673678953197e-07,2.0656409271731065e-05,0.0001472939490903924
1.1111111111111112,7.291139240506329,3.7680410655066076e-05,-2.3190758902899578e-05,2.7959313246629523e-06,-4.346895525649949e-06,5.343139208749303e-05
1.2121212121212122,7.291139240506329,-0.00010072505548369946,-0.0001267929714881133,3.106774988902965e-05,6.825540809154382e-05,0.00012785296469929204
1.3131313131313131,7.291139240506329,-9.849342519474228e-05,0.0001455047472153666,4.897123565907477e-05,-1.4103396606187291e-05,0.00022890695264684847
1.4141414141414141,7.291139240506329,-1.9442496254791564e-05,2.5242030197275673e-05,5.883592074678709e-05,-1.7398601827452325e-06,0.00010904556633370412
1.5151515151515151,7.291139240506329,0.0001798677115729711,-0.00015871334054305634,7.611727437768038e-05,-6.3463113089744255e-06,0.00032166946057789837
1.6161616161616161,7.291139240506329,3.956307947579698e-05,-9.28704106361211e-06,-4.972237198670274e-05,-9.08281152365546e-06,9.713831973517066e-05
1.7171717171717171,7.291139240506329,3.9851159785081815e-05,-0.0001733740457519175,3.548195969222937e-05,4.005686579005071e-05,0.00020574921595780827
1.8181818181818181,7.291139240506329,-9.442644144190032e-05,6.530028350935449e-05,-3.198056457167366e-06,8.737847379763749e-06,0.00013920214065174408
1.9191919191919191,7.291139240506329,3.0128370889110202e-05,-7.522936321602222e-05,-4.9349985201413605e-05,1.3530297698073606e-05,0.00012704320956738737
2.0202020202020203,7.291139240506329,0.0001461715716778757,-5.669283088953771e-05,2.0630562732480945e-05,-2.6843622236501396e-05,0.00018478080525589859
2.121212121212121,7.291139240506329,-2.60253002989033e-05,0.0001634609663592758,4.859361447795471e-05,-4.123069981811174e-05,0.00019681194734949843
2.2222222222222223,7.291139240506329,-4.567483170914951e-05,1.0987729511335873e-06,-7.48604048263926e-05,1.3372817627404776e-05,0.000137658361371916
2.323232323232323,7.291139240506329,-0.00020056734181072772,5.4288598347076224e-05,-6.967388270339875e-06,4.388362303909545e-05,0.00023282754104818402
2.4242424242424243,7.291139240506329,-9.285918944207543e-05,5.1400297602387696e-05,9.77499880791464e-06,1.243766755190632e-05,0.00012776721580662486
2.525252525252525,7.291139240506329,-5.535229363115277e-05,-0.00014039455196574306,3.137237946952616e-05,5.872405367906875e-05,0.00013400009234328526
2.6262626262626263,7.291139240506329,0.00012861849966777698,9.900117753153119e-05,-7.233282189259973e-05,-6.828590315979245e-05,0.00017119193923433016
2.727272727272727,7.291139240506329,-2.3869899571034126e-05,2.659250315092704e-05,9.281431180903712e-05,-8.167810739678739e-07,0.00016659886895976773
2.8282828282828283,7.291139240506329,0.00016532493965337147,1.5384428879342024e-05,5.912421675358408e-05,-5.421281055981405e-05,0.00018844788554778222
2.929292929292929,7.291139240506329,3.052430444082341e-05,3.592766085885427e-05,-4.654433024575384e-05,-1.9935589589903302e-05,8.73211724186064e-05
3.0303030303030303,7.291139240506329,0.00013731167171916953,0.00020996374049101632,6.729482722083312e-05,-0.00010418262366305576,0.0002183908803409745
3.131313131313131,7.291139240506329,0.00011739808549520157,-0.00011694179646784548,5.92026902585199e-05,-1.368867082068246e-07,0.00022737922697621033
3.2323232323232323,7.291139240506329,3.640992220997892e-05,-2.770831316980824e-05,-7.613886017354317e-05,-2.6104827120512025e-06,0.0001431560989504618
3.3333333333333335,7.291139240506329,1.12770653503457e-05,0.00014441145628246485,3.6774316248195993e-06,-4.670655648984317e-05,0.00013926188993679478
3.4343434343434343,7.291139240506329,-0.00012817399659817438,3.515482494105438e-05,-1.433755631466623e-05,2.7905751497136002e-05,0.00015095385419464384
3.5353535353535355,7.291139240506329,0.00013341605634408605,-8.890906253335794e-05,1.2480454713316775e-05,-1.3352098143218433e-05,0.00019502268390362364
3.6363636363636362,7.291139240506329,0.00018971395767091782,6.1132187790535e-06,-2.9133032625848245e-05,-5.874815293499139e-05,0.00019343007785827202
3.7373737373737375,7.291139240506329,1.895152788067754e-05,-0.0001889129467084873,6.087651931611065e-05,5.0988425648342934e-05,0.00022526718054744922
3.8383838383838382,7.291139240506329,-0.00010564422085044112,-8.409295296563198e-05,-9.53274471960005e-06,5.692115214482193e-05,9.808675398939949e-05
3.9393939393939394,7.291139240506329,-9.045169305244557e-05,-4.358966896195902e-05,2.216563931312084e-05,4.021240860432138e-05,8.725110519380414e-05
4.040404040404041,7.291139240506329,6.53596777272355e-05,-4.732583077420925e-05,2.954027102269872e-06,-5.410154085907877e-06,9.813766660674184e-05
4.141414141414141,7.291139240506329,-7.730293468029619e-05,0.00011469650948186628,-5.703422966917734e-05,-1.121807244047103e-05,0.0001943093405884392
4.242424242424242,7.291139240506329,-9.513775367001069e-05,-1.3180843707372309e-05,-3.506825983591131e-05,3.24955792132149e-05,0.00010798277407149662
4.343434343434343,7.291139240506329,3.792466130427656e-05,8.942316933252253e-05,-3.713168151956816e-05,-3.8204349191039726e-05,0.00010089462352493378
4.444444444444445,7.291139240506329,0.00011267504500377181,-8.359372346107594e-05,1.5169698507532983e-05,-8.724396462808761e-06,0.0001726060896380159
4.545454545454545,7.291139240506329,8.075410296503098e-05,2.592098470200237e-05,-3.876240913879494e-05,-3.200252630011001e-05,9.801770152762089e-05
4.646464646464646,7.291139240506329,3.0183068760584377e-05,0.0002052934309441128,-1.0734727740550356e-06,-7.064294991140915e-05,0.00019199865030181554
4.747474747474747,7.291139240506329,6.362630990342667e-05,0.00012574977310497037,-4.1505968503895954e-05,-5.6812824902519106e-05,0.00013049350550259272
4.848484848484849,7.291139240506329,1.4260292438496446e-05,7.217666104923014e-06,7.806580045946474e-05,-6.443387563025838e-06,0.0001357767734893743
4.94949494949495,7.291139240506329,-6.505597921978323e-05,1.940962803461234e-05,6.622052913230861e-06,1.3693905355551265e-05,7.748084411728635e-05
5.05050505050505,7.291139240506329,-0.00010055249302327285,0.00016465357507128086,2.006723280780121e-05,-1.9230324614402403e-05,0.0002344909648435279
5.151515151515151,7.291139240506329,-1.5886333254134104e-05,-3.868162210285841e-05,-2.5744947971050643e-05,1.6370386607097753e-05,5.587970446709232e-05
5.252525252525253,7.291139240506329,-8.330275650263678e-05,-8.677922289197912e-05,-6.457000018437051e-06,5.102459381838477e-05,8.58260615450173e-05
5.353535353535354,7.291139240506329,-0.00025844995520563747,0.00011421756055498385,-5.4149760505693894e-05,4.326971839519609e-05,0.00034374139055768683
5.454545454545454,7.291139240506329,-5.355680924878497e-05,-2.404259983642712e-06,-9.046674432515567e-05,1.6788320769728304e-05,0.000165221194996376
5.555555555555555,7.291139240506329,-0.00014574055398619142,-4.7536772354834094e-05,-0.00011797563641993881,5.798319790230765e-05,0.00024150935930203013
5.656565656565657,7.291139240506329,-2.1625713133630558e-05,6.493558940764482e-05,-2.4389208435556073e-05,-1.2992962882204278e-05,8.87303844987063e-05
5.757575757575758,7.291139240506329,-2.2895079247447648e-05,-2.078666164342403e-05,6.54076207432463e-05,1.3104522267261502e-05,0.00011538989663001722
5.858585858585858,7.291139240506329,-2.374319062581398e-05,3.849764333966259e-05,4.510466428557926e-05,-4.4263358141545835e-06,9.5200613176619e-05
5.959595959595959,7.291139240506329,0.00015146826088860231,-0.0001350302907027687,-1.855661184175588e-05,-4.9313910557500834e-06,0.00025032311178366945
6.0606060606060606,7.291139240506329,-1.139668915765184e-06,-0.00018338307257652497,-1.9655507878821815e-07,5.5356822447687045e-05,0.00018281621937631408
6.161616161616162,7.291139240506329,0.00012365551869686204,-4.152962247028744e-05,-8.47580928152747e-05,-2.4637768867972377e-05,0.0002090515887230016
6.262626262626262,7.291139240506329,8.380038659665584e-05,8.919626156349563e-05,3.599519159802512e-06,-5.189899444804544e-05,8.684852493393594e-05
6.363636363636363,7.291139240506329,8.55869216666026e-05,4.812868964338588e-05,-3.6063918658970637e-06,-4.0114683392996546e-05,7.457428325905023e-05
6.4646464646464645,7.291139240506329,-6.706234528308411e-05,0.00011969751275760867,2.090478957514566e-05,-1.5790550242357367e-05,0.00016781859052812344
6.565656565656566,7.291139240506329,-3.325189695826475e-05,0.00017677861011428702,9.528426506630119e-05,-4.305801394680668e-05,0.0002558747023073659
6.666666666666667,7.291139240506329,6.651480466976742e-05,-7.102038910824677e-05,4.27385336878648e-05,1.351675331543806e-06,0.0001402560836606251
6.767676767676767,7.291139240506329,-1.2510586776466724e-05,-7.947640425231711e-05,7.187888743710022e-05,2.759609730863515e-05,0.0001448393611552987
6.8686868686868685,7.291139240506329,0.0002185401224694637,-5.7465194229925545e-05,3.999079481127413e-05,-4.832247847186144e-05,0.0002615688729006244
6.96969696969697,7.291139240506329,7.970309140087932e-05,-0.00016349044135143795,7.038830093613424e-05,2.5136204985167588e-05,0.00024693306685896895
7.070707070707071,7.291139240506329,-3.0350367100584322e-05,-0.00016370168847443608,-7.181822981099982e-05,5.8215616672506114e-05,0.00019551101158731105
7.171717171717171,7.291139240506329,2.8594997064109232e-05,0.00012276872404954259,-1.9946016018463938e-05,-4.540911633409555e-05,0.00011650232968964401
7.2727272727272725,7.291139240506329,-5.737237513262433e-05,-0.00016505047579044028,3.521866396797638e-05,6.672685527691938e-05,0.00015743244281027252
7.373737373737374,7.291139240506329,-6.210384411243548e-05,0.00015620127760245816,-1.0906668469531197e-05,-2.82292300470068e-05,0.00019573781602920016
7.474747474747475,7.291139240506329,0.0003615277415107801,1.5488337378048063e-05,-5.240171289868592e-05,-0.00011310482366664843,0.00036548673216510593
7.575757575757575,7.291139240506329,7.006011145643004e-05,-3.676603068568601e-05,-3.563383936108198e-05,-9.988224231223209e-06,0.00011245134041065086
7.6767676767676765,7.291139240506329,-5.5152856663767996e-05,9.394412512744631e-05,-2.2563900630089994e-05,-1.1637380539103493e-05,0.00013629384412594092
7.777777777777778,7.291139240506329,6.836584785903596e-05,0.00010735295786077968,5.266469795258248e-05,-5.2715641715944684e-05,0.00013107243021293936
7.878787878787879,7.291139240506329,-3.3395563423620145e-05,-1.144645076187672e-05,1.2961295867861854e-05,1.345260425564906e-05,3.698661637341625e-05
7.979797979797979,7.291139240506329,0.0001474712952437398,6.65816544100511e-05,-1.832340795452537e-05,-6.421588489613726e-05,0.00013179248327096785
8.080808080808081,7.291139240506329,-0.00010425025360494966,-9.945637781687797e-05,5.242702344549345e-05,6.111198942654829e-05,0.0001365178091575368
8.181818181818182,7.291139240506329,5.593272084783402e-05,-8.693941944741014e-05,-2.6270569264773344e-06,9.302009579872836e-06,0.00012478138674579652
8.282828282828282,7.291139240506329,4.316528259205175e-05,8.598793262224285e-05,0.00011355129990000247,-3.8745964564288375e-05,0.00021030255798181472
8.383838383838384,7.291139240506329,8.352434240957519e-05,0.00011269983077387302,3.7172871968957924e-05,-5.886725195503446e-05,0.00012004105800772934
8.484848484848484,7.291139240506329,-7.071240427484564e-05,7.704397687483914e-06,6.159695461867774e-05,1.8902401976208518e-05,0.0001303340047758604
8.585858585858587,7.291139240506329,2.0812003289338657e-05,6.599854760682601e-05,4.324797340603236e-05,-2.60431652688494e-05,9.500814380055918e-05
8.686868686868687,7.291139240506329,2.1908888280734e-05,-2.5673763916077903e-05,2.0189266080422316e-05,1.1294626906031708e-06,5.4078133837048696e-05
8.787878787878787,7.291139240506329,8.297962338646993e-05,-5.9861604251399684e-05,2.978913715521717e-05,-6.935405740521074e-06,0.00013453066941913154
8.88888888888889,7.291139240506329,-0.00013163697640259338,-0.00012095379547952175,-5.0656803071920233e-05,7.577723156463452e-05,0.0001540599148655448
8.98989898989899,7.291139240506329,-0.00011315610317457401,7.866111367778951e-05,2.463148423651053e-05,1.034849684903535e-05,0.0001723745620238561
9.09090909090909,7.291139240506329,-7.101232203971892e-05,7.395291449341915e-06,-1.6217911065213567e-05,1.90851091771131e-05,8.007283530030168e-05
9.191919191919192,7.291139240506329,4.5146749960035796e-05,0.00012133849276134797,-7.700756554559399e-05,-4.994557281641513e-05,0.00017051016309329586
9.292929292929292,7.291139240506329,0.00010111083350082653,4.284256581135527e-05,8.257585128214177e-06,-4.318601979365453e-05,8.905954016544852e-05
9.393939393939394,7.291139240506329,-5.97616425264925e-05,-8.173077968611155e-05,5.496266114922127e-06,4.244772666378121e-05,7.387581099500154e-05
9.494949494949495,7.291139240506329,-4.052774091605668e-06,-1.9261501985600755e-07,2.3220702121310163e-05,1.2736167334385026e-06,4.041391436425322e-05
9.595959595959595,7.291139240506329,2.3315469306125607e-05,0.0001718068857138485,-1.9440239383148642e-05,-5.853670650599223e-05,0.00016489156327428154
9.696969696969697,7.291139240506329,0.00010236070692440327,7.005795100716856e-05,3.325122583996475e-05,-5.172559737947155e-05,0.00010738520144879574
9.797979797979798,7.291139240506329,2.5837171884053713e-05,-0.00011625881022496101,-7.514258885511316e-06,2.7126491502272188e-05,0.0001317454421545694
9.8989898989899,7.291139240506329,-8.961513106254936e-05,-2.2051519560789617e-05,4.453642253572688e-05,3.3499995187001694e-05,0.00011176524599163937
10.0,7.291139240506329,-6.245888852814226e-05,-2.7765239652729403e-05,6.913688035637025e-05,2.7067238454261497e-05,0.00013144413245539177
0.0,7.3924050632911396,-7.82811103623795e-05,0.00010955280198536218,1.1148327175323842e-05,-9.381507486894802e-06,0.00016455552024031053
0.10101010101010101,7.3924050632911396,-7.588383794529959e-05,-7.412252646672367e-05,-3.6805163212966956e-05,4.500190932360698e-05,9.844624991344774e-05
0.20202020202020202,7.3924050632911396,-5.6290069370109956e-05,-0.000111265905714938,-2.151588863401996e-05,5.026679252551438e-05,0.00010331654525858836
0.30303030303030304,7.3924050632911396,-3.8225298847804644e-05,3.917282796391337e-05,-7.349874926938652e-06,-2.8425873483261755e-07,6.822857878230705e-05
0.40404040404040403,7.3924050632911396,-1.6456809855600068e-05,-4.25717605129527e-05,5.47038436372581e-05,1.770857111056583e-05,0.00010178466260633043
0.5050505050505051,7.3924050632911396,-2.2156684630834517e-05,0.00024829557933298875,2.70201710254727e-05,-6.784166841064627e-05,0.0002642598894334582
0.6060606060606061,7.3924050632911396,0.00010894405025201145,-2.6832555170817643e-05,4.734047709177474e-05,-2.463344852435814e-05,0.00014911539710927822
0.7070707070707071,7.3924050632911396,3.292321315647799e-05,0.00012326315990755646,-6.573404198020149e-05,-4.685591191921034e-05,0.00015868969119678153
0.8080808080808081,7.3924050632911396,-5.388902789120064e-05,0.000144580551942094,4.881197682995164e-05,-2.7207457215268008e-05,0.0001968418044248097
0.9090909090909091,7.3924050632911396,7.488445112782411e-05,-6.455293368609143e-05,3.3155897273955e-06,-3.099455232519805e-06,0.00012100311021495032
1.0101010101010102,7.3924050632911396,3.1480456730107615e-05,5.574240116646848e-05,2.3202059436721274e-05,-2.6166857368972828e-05,6.291617345406356e-05
1.1111111111111112,7.3924050632911396,0.00016605124922966085,6.209835285522547e-05,2.4743507731107476e-05,-6.84448806254659e-05,0.00015150721849425754
1.2121212121212122,7.3924050632911396,-8.560711496810392e-05,1.9070377877751793e-05,-3.3231661082397924e-05,1.9961021127105637e-05,0.00011241818078902705
1.3131313131313131,7.3924050632911396,0.00012317238639673279,-2.2470884023143925e-06,-1.86729275318848e-05,-3.6277589398325514e-05,0.000128449601345214
1.4141414141414141,7.3924050632911396,-6.35307259297067e-05,-4.613443906482627e-05,2.5150786891814137e-06,3.2899549498359884e-05,5.703123760950456e-05
1.5151515151515151,7.3924050632911396,7.918017001792892e-05,0.0002348817935959216,-2.722276716225537e-05,-9.421858908415515e-05,0.00021228333211011929
1.6161616161616161,7.3924050632911396,-0.00011997491382971628,0.00014371530095606914,-7.064815462425718e-06,-7.1221161379058555e-06,0.00022899788946213433
1.7171717171717171,7.3924050632911396,-0.00014269682799036764,-5.3774730785466785e-05,-4.9774410027284466e-05,5.894146763275032e-05,0.00015170068741153622
1.8181818181818181,7.3924050632911396,0.00012925088773798972,-1.593537354523045e-05,1.1396650499768438e-05,-3.399465425782778e-05,0.00013931633147654864
1.9191919191919191,7.3924050632911396,-0.0001101733184231305,-3.5107396855227565e-06,-9.463052058849204e-05,3.4105217432595975e-05,0.0001965413488932475
2.0202020202020203,7.3924050632911396,-0.0001288050952170476,-4.391265807843328e-06,-0.00010882562187137222,3.9958908307467285e-05,0.0002270979222402483
2.121212121212121,7.3924050632911396,4.076625087704612e-05,0.0001129060272992712,3.287312713224633e-05,-4.6101683452895194e-05,0.00011423147656850024
2.2222222222222223,7.3924050632911396,5.02816176170225e-05,4.974874785413021e-05,0.00014356703786517442,-3.0009109641345814e-05,0.00025364584473405537
2.323232323232323,7.3924050632911396,-9.060291203858929e-05,-0.00011250850681679812,2.589534200539228e-05,6.093342565661622e-05,0.0001126284140083273
2.4242424242424243,7.3924050632911396,-0.00011660142582865592,-7.777952617742916e-05,-2.8262879958664523e-05,5.8314285601825526e-05,0.00011389782568499309
2.525252525252525,7.3924050632911396,-4.5668308808709314e-05,-0.00016236642105676898,-6.334850798090978e-05,6.241041895964349e-05,0.00018185859795310296
2.6262626262626263,7.3924050632911396,1.0808268193230176e-05,-0.00018511573340663029,4.1570543320384184e-05,5.2292239564020036e-05,0.00020388664528436527
2.727272727272727,7.3924050632911396,4.653151556645146e-05,0.00014756236489366176,-4.7433240793267105e-05,-5.822816413803397e-05,0.00015434788625473775
2.8282828282828283,7.3924050632911396,-8.106618426525113e-05,0.00010248210447373878,2.6888083919583834e-05,-6.424776062546296e-06,0.00016598508458428587
2.929292929292929,7.3924050632911396,5.9927793405434096e-05,-0.0001940975323555084,-6.188845312374213e-05,4.025092168502229e-05,0.0002537470614580519
3.0303030303030303,7.3924050632911396,4.047665588477445e-05,-0.00010699643689814493,7.110537009877746e-05,1.9955934304011142e-05,0.00018051419918773345
3.131313131313131,7.3924050632911396,3.759082689289595e-05,-8.956347544375366e-05,-0.00010122991272193539,1.5591794565257313e-05,0.00020867184091405286
3.2323232323232323,7.3924050632911396,4.308698878819617e-06,-1.3831898953203193e-05,-3.3523263990858224e-05,2.856960022315072e-06,6.033996592635674e-05
3.3333333333333335,7.3924050632911396,-9.192624665404097e-05,4.701278576303468e-05,5.169149651747509e-05,1.3474038267301886e-05,0.00015165216195523
3.4343434343434343,7.3924050632911396,9.691438724155374e-06,-0.00015806585067113467,-6.834084289800118e-05,4.451232358409379e-05,0.00020154908847008497
3.5353535353535355,7.3924050632911396,-1.0381180483944834e-05,1.1478683368556662e-05,1.0400887495758415e-05,-3.2925086538354835e-07,2.613860642767954e-05
3.6363636363636362,7.3924050632911396,0.00018809517935625123,0.00020140489318953066,-3.663739521505605e-05,-0.00011685002176373455,0.00020515197823678868
3.7373737373737375,7.3924050632911396,-3.057361300729555e-05,-0.00015099886018145643,-1.4715869140086686e-05,5.4471741956625595e-05,0.00014060046687807543
3.8383838383838382,7.3924050632911396,-4.9587950502165844e-05,-9.470299662657779e-05,-1.8586311021088688e-06,4.328728413862309e-05,8.210882062637677e-05
3.9393939393939394,7.3924050632911396,-6.345336231447713e-05,0.00015476035913685477,2.308694255649274e-05,-2.739209904671329e-05,0.00019848471940990924
4.040404040404041,7.3924050632911396,7.4754860791277095e-06,-7.888793607664334e-05,0.0001210378298737949,2.142373499925469e-05,0.00022543155014366782
4.141414141414141,7.3924050632911396,-7.706118127569442e-05,-0.00010667331899963828,8.699178745405666e-06,5.5120350082599805e-05,9.656230012704998e-05
4.242424242424242,7.3924050632911396,4.366450276726166e-05,-0.00014149201616498315,6.070181087846819e-06,2.9348254019316443e-05,0.00016797410296543678
4.343434343434343,7.3924050632911396,-9.878680047909822e-05,6.2766770492372315e-06,-7.932475844429298e-05,2.7753037028958293e-05,0.00017115938003436622
4.444444444444445,7.3924050632911396,1.4592649295306269e-05,-0.00016318506880489667,-2.050171532518266e-05,4.4577725852877116e-05,0.00017459832635921636
4.545454545454545,7.3924050632911396,-3.2125093705445674e-05,4.1252046508474356e-05,-7.537736386516031e-05,-2.7380858409086046e-06,0.00014527291487448533
4.646464646464646,7.3924050632911396,4.0355303062067204e-05,4.959588027494409e-05,-4.650367372415394e-05,-2.6985355001103387e-05,9.259924435912102e-05
4.747474747474747,7.3924050632911396,5.262206810687257e-05,-5.5852921042462405e-05,4.451510423237797e-05,9.6925588067695e-07,0.00012154221723476388
4.848484848484849,7.3924050632911396,-7.044307144505934e-05,0.0001261883744480026,-3.062819835978349e-05,-1.672359090088298e-05,0.0001805244815572623
4.94949494949495,7.3924050632911396,5.153009913000063e-05,0.00019696934414122018,-7.355512798647746e-06,-7.454983298136624e-05,0.00017738301644801017
5.05050505050505,7.3924050632911396,4.068766906010562e-05,5.9716305300035235e-05,5.280086713209919e-05,-3.0121192308042254e-05,0.00010562007846236625
5.151515151515151,7.3924050632911396,5.4841432289457064e-05,-0.00016288780690813323,-3.3000628512200363e-06,3.241391238560285e-05,0.00019622867326845214
5.252525252525253,7.3924050632911396,-3.931843111492994e-05,3.7248789216458827e-06,4.864744151427909e-06,1.0678065657985217e-05,4.2157648779185455e-05
5.353535353535354,7.3924050632911396,2.8301152163114525e-05,-6.98172753858665e-05,2.6170938570225868e-05,1.245483696682559e-05,9.851939183386572e-05
5.454545454545454,7.3924050632911396,-7.166011041347021e-05,0.00022899997212842842,-1.1466469488400544e-05,-4.7201958514487465e-05,0.00027272836617096103
5.555555555555555,7.3924050632911396,0.00022253133657025047,-2.796964310090623e-05,1.7117478011110237e-06,-5.836850804080327e-05,0.00023777175819507146
5.656565656565657,7.3924050632911396,-0.00010056152383038701,-3.678689029083663e-05,-4.9162492877471485e-06,4.120452423636709e-05,8.853845576307261e-05
5.757575757575758,7.3924050632911396,2.0603456790097046e-05,1.3859677928329815e-05,3.987832990681887e-05,-1.0338940415528058e-05,7.142744162525127e-05
5.858585858585858,7.3924050632911396,3.1469685509812933e-06,-4.254735673853358e-05,-3.237093682449274e-05,1.1820116456265686e-05,7.139824103412038e-05
5.959595959595959,7.3924050632911396,-1.132114149723764e-05,-5.5356260699064864e-05,-5.783561948320127e-05,2.000322065889075e-05,0.00011225268115402933
6.0606060606060606,7.3924050632911396,-3.6550584146096126e-05,8.647141375254903e-05,2.5492972974196572e-05,-1.4976248881935872e-05,0.00011799790801352864
6.161616161616162,7.3924050632911396,-0.00020378338919945917,0.00010294685837774432,4.814978096951085e-06,3.0250959246514455e-05,0.0002705071849569646
6.262626262626262,7.3924050632911396,0.00011956919127254311,-3.468396467674964e-05,-0.00014512500021209777,-2.5465567978738038e-05,0.0002878032306515626
6.363636363636363,7.3924050632911396,0.00022518950428508742,-5.631550483119163e-05,-1.4340544957624755e-05,-5.0662199836168735e-05,0.00025919174992676915
6.4646464646464645,7.3924050632911396,0.00018751808739327316,-3.93566227817683e-05,7.24864230621297e-05,-4.444843938345146e-05,0.000244652611005359
6.565656565656566,7.3924050632911396,-4.1329351507613744e-05,7.688957432603506e-05,-2.9964316857808823e-05,-1.0668066845526393e-05,0.00011615291229640244
6.666666666666667,7.3924050632911396,8.592864640521329e-05,0.00023099790591736804,1.1439367088859903e-05,-9.507796569677439e-05,0.00020319203919323274
6.767676767676767,7.3924050632911396,-2.1923570548713972e-06,-9.514986385999227e-05,-1.2197408594248991e-05,2.9202666274459096e-05,9.641592646431801e-05
6.8686868686868685,7.3924050632911396,-8.418951158304084e-05,-2.4658739062879957e-05,-7.605701736209254e-05,3.265447519377624e-05,0.00015157153342517055
6.96969696969697,7.3924050632911396,5.170448296849927e-06,0.00026119480793980693,3.3300068496680486e-06,-7.990957687099705e-05,0.00025871264719240364
7.070707070707071,7.3924050632911396,5.361038240914393e-05,5.365356328024481e-05,-3.171492517529158e-05,-3.217918370681662e-05,7.677173533454736e-05
7.171717171717171,7.3924050632911396,9.478872784849361e-05,2.2977318351587744e-05,6.395216406642379e-05,-3.5329813860024404e-05,0.0001400160961325001
7.2727272727272725,7.3924050632911396,0.00010272951162289212,2.8759581087064578e-05,-6.261430122352599e-05,-3.944672781298701e-05,0.00014208328718100382
7.373737373737374,7.3924050632911396,8.487578869079111e-08,7.335908921759272e-05,-6.525433873803487e-06,-2.203318950188505e-05,7.418275153904308e-05
7.474747474747475,7.3924050632911396,-5.332563073562761e-05,-7.560103249295965e-05,0.0001455745251469362,3.867799896857617e-05,0.00026096646026006905
7.575757575757575,7.3924050632911396,7.646678677317125e-06,0.00013031567057629815,-0.0001018414312309983,-4.138870477608458e-05,0.00021716167935103742
7.6767676767676765,7.3924050632911396,0.0001263456328139443,3.668476301849225e-05,-2.1417962173592508e-05,-4.890911874973096e-05,0.00011853361751708377
7.777777777777778,7.3924050632911396,-0.00010362811789883908,-0.00013090023405247007,6.401696029864305e-05,7.035850558539274e-05,0.00016310495646823937
7.878787878787879,7.3924050632911396,-7.927624212646024e-05,8.770970572113184e-05,9.751476012754503e-06,-2.5300390784014784e-06,0.0001456581091606358
7.979797979797979,7.3924050632911396,-6.665497910024348e-05,1.055927170055183e-05,5.677797537238838e-05,1.6828712219907493e-05,0.00012218603829561162
8.080808080808081,7.3924050632911396,-9.121479844082909e-05,-0.00010095351259119892,8.485587334040699e-06,5.76504933096084e-05,9.756696384234481e-05
8.181818181818182,7.3924050632911396,7.005717388810357e-06,-5.071786228589247e-05,4.5035337991638385e-05,1.3113643469124634e-05,9.51905543884766e-05
8.282828282828282,7.3924050632911396,5.7281414421960056e-05,-2.8664397759119775e-05,-2.7397962848017315e-05,-8.585104998852085e-06,8.942421645691629e-05
8.383838383838384,7.3924050632911396,0.00015902909521527039,-3.624406292199538e-06,-3.289653875136866e-05,-4.662140667692125e-05,0.00017066435563632026
8.484848484848484,7.3924050632911396,-0.00015884394042410774,-2.6879405822052993e-05,1.01904836085761e-05,5.571700387384822e-05,0.00014830983446252133
8.585858585858587,7.3924050632911396,4.06091394515896e-05,-3.5467410173124585e-06,-8.29310385560096e-05,-1.1118719530283143e-05,0.00014979446968212248
8.686868686868687,7.3924050632911396,5.447506094733232e-05,-9.324767660733335e-06,2.5973227124597223e-05,-1.3545087985979696e-05,7.4741397000445e-05
8.787878787878787,7.3924050632911396,-3.806094244990723e-05,-5.0712351280593906e-05,8.462136001076521e-06,2.6631988119150338e-05,4.801084529659405e-05
8.88888888888889,7.3924050632911396,8.754970116245897e-05,-4.740138887212074e-06,-5.8699121640704604e-05,-2.484286868257407e-05,0.00013579093297242127
8.98989898989899,7.3924050632911396,2.8864552025220685e-07,-0.00011711467535219054,-4.8443285308337594e-05,3.50478089495815e-05,0.00014418734618501216
9.09090909090909,7.3924050632911396,-3.3995264074507024e-06,4.602714872871228e-05,4.6308355759677984e-06,-1.2788286696378472e-05,4.848566408586996e-05
9.191919191919192,7.3924050632911396,9.954875421535945e-05,2.410401396683398e-05,5.117375997631897e-05,-3.709583045465803e-05,0.00012628418160441607
9.292929292929292,7.3924050632911396,-1.6287308038701686e-06,-5.5946684766789905e-05,-4.719345103963941e-05,1.7272624671198022e-05,9.86064281609697e-05
9.393939393939394,7.3924050632911396,4.205807483113694e-05,6.977161298671891e-05,-2.57015341917411e-05,-3.3548906345356755e-05,7.539367676810276e-05
9.494949494949495,7.3924050632911396,-4.247472605675538e-05,7.857814577186046e-05,-4.816658938328255e-05,-1.0831025914531524e-05,0.00013518976869830414
9.595959595959595,7.3924050632911396,-4.8191668229070744e-05,1.120470209425884e-05,2.292304121015828e-05,1.1096089840443572e-05,6.755999538648486e-05
9.696969696969697,7.3924050632911396,0.00024367658303352694,-7.979382247703913e-05,-8.321413863115513e-05,-4.916482816694634e-05,0.0003255195782701198
9.797979797979798,7.3924050632911396,8.2807993005738e-05,-2.817771002435744e-05,-5.429556695662043e-05,-1.638908489441417e-05,0.00013721702677106944
9.8989898989899,7.3924050632911396,-5.4932389510235936e-05,-8.733166368455728e-05,-4.395821541291437e-05,4.2679215958437964e-05,0.00010790747907343782
10.0,7.3924050632911396,2.9720948254712193e-06,0.00012437789099642516,-8.005557147923314e-06,-3.8204995746568914e-05,0.00012369841173548964
0.0,7.493670886075949,0.00021318836442443025,-0.00013119686641782657,-9.201052680353693e-06,-2.4597449401981105e-05,0.00030147225405388064
0.10101010101010101,7.493670886075949,-0.00012329489238057338,0.00018205755865768541,-4.0679638290198116e-05,-1.762879988313361e-05,0.00027524144158823003
0.20202020202020202,7.493670886075949,8.150266217131693e-05,1.2678591482792354e-05,-3.425459818328871e-05,-2.8254376096232785e-05,9.638580888629243e-05
0.30303030303030304,7.493670886075949,-8.97129351610626e-05,4.22882804353358e-05,2.5816802413773893e-05,1.422739641771804e-05,0.00012502014645157902
0.40404040404040403,7.493670886075949,7.057011045221737e-05,6.769487802739843e-07,-0.00012379890808916855,-2.1374117769747404e-05,0.00022563540354054824
0.5050505050505051,7.493670886075949,0.0002198033730174688,-5.584088400701352e-05,-1.6566213155402095e-05,-4.918874670313658e-05,0.00025402570741657373
0.6060606060606061,7.493670886075949,-0.00015518741775087156,-3.2898636570989974e-05,3.212888264814263e-05,5.6425816296558454e-05,0.00015217357116165621
0.7070707070707071,7.493670886075949,-6.648861584894724e-06,-0.00011717974546286683,2.3534405983761046e-05,3.714858211432847e-05,0.0001210693726505883
0.8080808080808081,7.493670886075949,-5.54949908351732e-05,4.005614856809492e-05,5.5614814544551376e-05,4.631652680123485e-06,0.000127224712355967
0.9090909090909091,7.493670886075949,3.048247745635735e-05,-9.568410255871465e-05,9.530682588121326e-06,1.956048753070719e-05,0.00011521206163118652
1.0101010101010102,7.493670886075949,-0.00010851255990830396,-4.772285871935857e-05,3.7450371084358685e-05,4.687062558829876e-05,0.0001143744211766324
1.1111111111111112,7.493670886075949,-0.00022098634526917526,2.1807661315655503e-05,-7.052450958466474e-05,5.975360518605593e-05,0.00026277529110814923
1.2121212121212122,7.493670886075949,-6.4235519311779676e-06,0.000127612727731089,-2.3924576938788183e-05,-3.635675273997331e-05,0.0001373431957802843
1.3131313131313131,7.493670886075949,-4.6640678924106375e-05,9.220548374661331e-05,-2.3874859916288216e-05,-1.366944144675208e-05,0.00012918110285170742
1.4141414141414141,7.493670886075949,-0.00010524782837769178,0.0001780684789098047,4.1985903218265756e-05,-2.1846195159633873e-05,0.00025848647445158153
1.5151515151515151,7.493670886075949,-0.00011162814302613019,-0.00010521442280024596,4.972250796475493e-05,6.505276974791284e-05,0.00013857492500019206
1.6161616161616161,7.493670886075949,-1.6742781759891817e-05,-0.00010935450926729818,5.349998208358349e-05,3.7829187308157e-05,0.00013782080758673485
1.7171717171717171,7.493670886075949,-8.969340629594154e-05,0.00011624657480793187,5.8666487149237836e-05,-7.9659505535971e-06,0.00020569393451339154
1.8181818181818181,7.493670886075949,-7.762420977721883e-05,-3.964383073686143e-06,6.978343923907145e-06,2.447657785527149e-05,7.667851084302909e-05
1.9191919191919191,7.493670886075949,6.553084951660743e-05,-2.333637250566783e-05,7.389906916588399e-05,-1.265834310328188e-05,0.00015083550015091365
2.0202020202020203,7.493670886075949,-0.00025142750058667983,3.696413960442704e-05,4.7944277052336314e-05,6.433900829467584e-05,0.0002842039725377747
2.121212121212121,7.493670886075949,8.575874057605389e-05,5.4330630777566115e-05,-7.934379951640213e-06,-4.2026811406086e-05,7.639316534444319e-05
2.2222222222222223,7.493670886075949,0.00016181102429232034,1.777431675319001e-05,5.325936937139852e-05,-5.38756023136531e-05,0.00017925494357523306
2.323232323232323,7.493670886075949,-6.97734904665475e-05,-0.0001115768774286671,4.2835720951250135e-05,5.4405110368564384e-05,0.00012262678468956552
2.4242424242424243,7.493670886075949,-0.00010265526793482802,1.9784373083212428e-05,5.762193616602426e-05,2.486126845548468e-05,0.00015139801238923505
2.525252525252525,7.493670886075949,-1.7320984789853258e-05,0.00016893168816279111,4.861506371031169e-06,-4.5483211011881353e-05,0.00017842336650057775
2.6262626262626263,7.493670886075949,0.00011681529307933178,0.00010443772365374378,2.7147313057718965e-05,-6.637590501992267e-05,0.0001206816363031136
2.727272727272727,7.493670886075949,-5.174333647587325e-05,-2.5488980575498323e-05,9.573657454248666e-05,2.316969511541147e-05,0.00017176918005706342
2.8282828282828283,7.493670886075949,1.0246798256999963e-05,-0.00010042692061398297,2.9051890544221706e-05,2.7054036707094902e-05,0.00011726744938903739
2.929292929292929,7.493670886075949,8.497500369530138e-05,-0.00018500840610512277,3.671277030578208e-05,3.0010020722946416e-05,0.00024741348808339953
3.0303030303030303,7.493670886075949,3.5513315066159623e-06,2.025655979056337e-05,5.346888628310768e-05,-7.1423673891538e-06,9.448686581788167e-05
3.131313131313131,7.493670886075949,-4.351281452925775e-05,5.6558640566875906e-05,-2.0949033700382487e-05,-3.913747811285447e-06,9.417991573038996e-05
3.2323232323232323,7.493670886075949,-5.120311756483409e-05,-1.3363603221033388e-05,2.8770230229992955e-05,1.9370016235760243e-05,6.781788433039967e-05
3.3333333333333335,7.493670886075949,1.8791763933169368e-05,-1.7360858467516116e-06,-6.350265428311017e-05,-5.116703425925327e-06,0.00011174314209018718
3.4343434343434343,7.493670886075949,2.980655096658581e-05,2.9058943910099817e-05,-3.484419687442213e-05,-1.7659648463005686e-05,6.714953444717932e-05
3.5353535353535355,7.493670886075949,-9.299753852528638e-05,6.334443258438187e-05,-7.97442689686751e-05,8.895931782271353e-06,0.00019398293976758134
3.6363636363636362,7.493670886075949,-2.9373268263440003e-06,-1.099329476954923e-05,6.259109339578267e-05,4.179186478767969e-06,0.00010885827684001442
3.7373737373737375,7.493670886075949,5.533490417063358e-05,6.134364454091646e-05,-1.522946728277373e-06,-3.5003564613465014e-05,5.8630263117250304e-05
3.8383838383838382,7.493670886075949,6.594350002082767e-05,0.00015850570930005316,-2.5560979654040696e-05,-6.733476279626424e-05,0.00014484569332155978
3.9393939393939394,7.493670886075949,-6.035105859025442e-05,0.00018101973130579704,-3.949028057138332e-05,-3.620060181466279e-05,0.00022806484293690527
4.040404040404041,7.493670886075949,9.316415182432886e-05,-0.00012849964343312342,5.401039426156994e-05,1.0600647482638369e-05,0.00021427703073972435
4.141414141414141,7.493670886075949,6.545012285424536e-05,-8.767481573860663e-05,-5.43419963994636e-05,6.667407865308379e-06,0.00016299716891954752
4.242424242424242,7.493670886075949,6.528070117934583e-05,-0.0002225432406182563,-2.8491300963187595e-05,4.717876183167313e-05,0.00026598891964394047
4.343434343434343,7.493670886075949,-0.00021525395913413178,-0.0001257976650191908,7.605160078868968e-06,0.00010231548724599678,0.0001877615226330054
4.444444444444445,7.493670886075949,0.00013086620787166873,0.00024483018007193075,1.0579257104431015e-05,-0.00011270891638307983,0.0002129871973637346
4.545454545454545,7.493670886075949,-6.299835474670376e-05,0.0001859710283928008,2.646795623777517e-05,-3.6891802093829116e-05,0.00022884829700869696
4.646464646464646,7.493670886075949,-1.1036210495565638e-05,7.335359326364524e-05,8.172591227476732e-05,-1.8695214830423883e-05,0.00016232519057152934
4.747474747474747,7.493670886075949,-5.05385675885855e-05,0.00011905271580125636,3.4706532548946134e-05,-2.0554244463801256e-05,0.0001623517165982558
4.848484848484849,7.493670886075949,-2.7688784432926723e-05,3.0056352455383562e-05,3.246856543200686e-05,-7.102704067370517e-07,7.526553124711233e-05
4.94949494949495,7.493670886075949,6.830347515159587e-05,0.00010931030809666422,-9.758929736047686e-06,-5.328413497447803e-05,9.712643507232152e-05
5.05050505050505,7.493670886075949,1.9892008179654723e-05,-0.00012047874603002794,6.993284461581276e-05,3.017602135511196e-05,0.00017882727058273162
5.151515151515151,7.493670886075949,3.4476598352624406e-05,6.341410394752886e-06,5.8777339125442886e-05,-1.2245402624213189e-05,0.00010665151590388094
5.252525252525253,7.493670886075949,-2.755408840280548e-05,4.078349828474322e-05,5.319073639228978e-06,-3.968822964581321e-06,6.0259034760800595e-05
5.353535353535354,7.493670886075949,1.5327444743399942e-05,4.303430668063747e-06,4.8422909547832346e-05,-5.889262623439107e-06,8.498131553075458e-05
5.454545454545454,7.493670886075949,-4.248752301868611e-05,5.779061303038728e-05,-6.646496617591794e-05,-4.59092700351035e-06,0.00014440602395461783
5.555555555555555,7.493670886075949,-3.4431108427413725e-05,9.343958034348337e-06,-2.47022852388423e-05,7.526145117919616e-06,5.852471528827127e-05
5.656565656565657,7.493670886075949,-0.00015839240698059317,4.231816437821905e-05,-3.65948057406802e-05,3.4822272780712236e-05,0.0001939056393246692
5.757575757575758,7.493670886075949,5.3335299017437665e-05,-8.565147131581818e-05,8.376336096420662e-05,9.694851689514155e-06,0.00018920353435868074
5.858585858585858,7.493670886075949,-4.915075699905865e-05,3.941453276214259e-05,3.5875417661780654e-05,2.920867271074818e-06,9.883164071128052e-05
5.959595959595959,7.493670886075949,-3.1464086514830855e-06,-7.374755972790946e-05,-4.24836999946901e-05,2.306819051381776e-05,0.00010310750112861107
6.0606060606060606,7.493670886075949,8.517323262424134e-05,-5.041752060008286e-06,-5.016639899950336e-05,-2.4039444169269915e-05,0.00012352863597672677
6.161616161616162,7.493670886075949,1.5580824268668026e-06,8.161999016621961e-05,-8.090764657407575e-06,-2.4953421777925926e-05,8.205766972957699e-05
6.262626262626262,7.493670886075949,-3.124665209306511e-05,7.151791492634947e-05,-8.306910664091838e-06,-1.2081378849985308e-05,9.237356290035742e-05
6.363636363636363,7.493670886075949,-9.751082151920583e-05,5.5005486601076496e-05,1.9864373409490137e-06,1.27516004754388e-05,0.0001338261254614913
6.4646464646464645,7.493670886075949,4.3598970555759755e-05,-9.912372538636071e-07,-0.00010163573165076504,-1.2782319990568845e-05,0.00018147874683614992
6.565656565656566,7.493670886075949,4.1349997325207655e-05,-0.00013020520361041785,-2.5422897926277005e-05,2.665656188556306e-05,0.00016120227468604048
6.666666666666667,7.493670886075949,-2.875376887856054e-05,0.00011304374895145735,-6.616175135899747e-05,-2.5286994021869043e-05,0.0001731711126629018
6.767676767676767,7.493670886075949,2.3819911080069813e-05,-0.00014214026603785948,6.121621094337847e-05,3.54961064873369e-05,0.00018814697801954676
6.8686868686868685,7.493670886075949,4.6451097346434114e-07,4.1704806773717256e-05,1.559288055023073e-05,-1.2650795324154478e-05,4.949290969064408e-05
6.96969696969697,7.493670886075949,-1.8318985312205564e-05,-7.391680742370528e-05,-1.173601659386256e-05,2.767073782077325e-05,6.970223087919211e-05
7.070707070707071,7.493670886075949,-1.2272991692372506e-05,-6.882713995450721e-05,-3.200580514887565e-05,2.4330039494063912e-05,8.435757993334282e-05
7.171717171717171,7.493670886075949,5.260438113193338e-05,0.0001066497618517907,9.629473808460313e-05,-4.777624289511722e-05,0.00019065460300129867
7.2727272727272725,7.493670886075949,7.40747089176814e-05,-1.7694261456920784e-05,-4.9229165264671454e-05,-1.6914134238228187e-05,0.00011992238654500193
7.373737373737374,7.493670886075949,0.00013986676506300727,-1.013242248637157e-05,2.9639153739853847e-05,-3.8920302772990714e-05,0.00015400651094449658
7.474747474747475,7.493670886075949,8.379351131003701e-05,6.768521249576676e-05,4.179911857006388e-05,-4.544361714174114e-05,0.0001057003209511631
7.575757575757575,7.493670886075949,-0.00012914028931962476,-0.00017146127476676195,3.3222579399691245e-05,9.018046922591601e-05,0.00016506012173027887
7.6767676767676765,7.493670886075949,4.82889563546054e-05,-8.174760058829707e-05,3.4544504355880844e-05,1.0037593270107502e-05,0.00012861558291374782
7.777777777777778,7.493670886075949,1.6931608544345264e-05,-5.0968982488714324e-05,3.786979517221896e-05,1.0211212183310718e-05,8.972105417567144e-05
7.878787878787879,7.493670886075949,5.041834601111849e-05,0.00017181265823423126,3.558405437453143e-05,-6.666930127360492e-05,0.00016491744561826965
7.979797979797979,7.493670886075949,8.868340265896878e-06,-2.093101170765795e-06,9.430422172039522e-06,-2.032571728539325e-06,1.9193474203613348e-05
8.080808080808081,7.493670886075949,1.877680996166235e-05,0.00017912700651059052,-8.618669687802918e-05,-5.937114494167586e-05,0.00022662757874929206
8.181818181818182,7.493670886075949,-2.7043734876320155e-05,-0.00015919908485888872,5.612692327898247e-05,5.587284592056266e-05,0.00017669484690501338
8.282828282828282,7.493670886075949,-5.6708918165155654e-05,-3.142272375182349e-05,1.1181979278151545e-05,2.6439492575093746e-05,5.288147387704237e-05
8.383838383838384,7.493670886075949,2.3040420161015348e-05,-3.246360416460769e-05,-2.3116413020551713e-05,2.826955201077703e-06,6.273617209597747e-05
8.484848484848484,7.493670886075949,-1.6078736899950937e-06,6.581593013232342e-05,5.770978581922335e-05,-1.92624169326985e-05,0.00012013077772715064
8.585858585858587,7.493670886075949,4.737266565889867e-06,-1.3923813825431506e-05,-5.02583162962024e-06,2.7559641778624912e-06,1.8922263458010012e-05
8.686868686868687,7.493670886075949,-0.00011723538086626295,-1.583578234184322e-06,3.260041346420414e-05,3.564568773013418e-05,0.0001294192865208914
8.787878787878787,7.493670886075949,5.5551239421504705e-06,0.0002076888613934028,4.4565910818392055e-06,-6.397319560066597e-05,0.0002051130634422597
8.88888888888889,7.493670886075949,6.203303438976283e-05,5.049493768428502e-05,4.0771310365274564e-05,-3.375839162221435e-05,9.084261735643561e-05
8.98989898989899,7.493670886075949,4.968852346820404e-05,-6.498487652986602e-05,-4.625381566871113e-05,4.588905918498595e-06,0.00012782500731989068
9.09090909090909,7.493670886075949,5.289282927896191e-05,-4.540454689286405e-05,-1.3464196329760145e-05,-2.2464847158293568e-06,8.834394695388903e-05
9.191919191919192,7.493670886075949,-7.708507495434453e-05,-4.7800656442956e-05,1.629927837566818e-05,3.7465719419190156e-05,7.307047132067005e-05
9.292929292929292,7.493670886075949,6.82174231643761e-05,-7.629388364849064e-05,-9.882531683259827e-06,2.4229381452343616e-06,0.00012638013668481155
9.393939393939394,7.493670886075949,-3.094686644396186e-05,-6.346612146763676e-05,-2.8007722852591838e-05,2.8323896373479585e-05,7.331355365983023e-05
9.494949494949495,7.493670886075949,0.00010905736544390617,-5.8433346199956575e-05,7.726757239468206e-05,-1.5187205773184877e-05,0.00019897584006012118
9.595959595959595,7.493670886075949,7.759932404513023e-06,-3.63107226980506e-05,-1.2189381630660068e-05,8.565237088061272e-06,4.5893321530336484e-05
9.696969696969697,7.493670886075949,6.358672297476524e-05,-0.0002917785613058266,-6.786845020815229e-05,6.84575514993184e-05,0.0003486396740548414
9.797979797979798,7.493670886075949,6.236298843541713e-05,5.4904589348360344e-05,9.704262095458903e-06,-3.518027333513324e-05,6.133644997859766e-05
9.8989898989899,7.493670886075949,-5.202038256569631e-05,-2.907447089616279e-05,-6.324377394871324e-05,2.432845603855773e-05,0.0001184833523795113
10.0,7.493670886075949,-9.852966457548188e-05,-0.00020113366559088806,-0.00011699930151113933,8.989899904991097e-05,0.000267229720076492
0.0,7.594936708860759,-1.505970721318025e-05,0.00028555455376639633,5.534855141254492e-07,-8.114845396596481e-05,0.0002933760129421418
0.10101010101010101,7.594936708860759,1.2799604068827925e-06,-7.942502536226419e-05,-0.00012283514993580266,2.344351948661442e-05,0.00022732588066358002
0.20202020202020202,7.594936708860759,0.00012782322084946675,0.000176353997672869,1.5043187581505907e-05,-9.125316555670072e-05,0.00015992581020318603
0.30303030303030304,7.594936708860759,8.803723786658065e-05,-0.00022292680855226347,-1.7442470837418096e-05,4.046687120570484e-05,0.0002792588352417346
0.40404040404040403,7.594936708860759,-0.00021150093790025002,-5.397941084715852e-05,7.08881671023951e-05,7.964410462422257e-05,0.0002265063447500446
0.5050505050505051,7.594936708860759,0.0001602412158880808,1.3824031144716707e-05,2.6474622893792547e-06,-5.221957410983925e-05,0.00015386422169236607
0.6060606060606061,7.594936708860759,-0.00010160789964775624,1.5874892844701832e-05,-3.519958677373878e-05,2.571990204091632e-05,0.00012611988241299828
0.7070707070707071,7.594936708860759,0.00023915425456234987,-0.00010812443352284226,-3.5283433620061963e-05,-3.930894631185228e-05,0.0003138133696372805
0.8080808080808081,7.594936708860759,-1.0144511595952296e-05,-0.00013961792602409855,2.081984409445531e-05,4.492873128601526e-05,0.00013957119487053576
0.9090909090909091,7.594936708860759,0.00010951898976318042,-7.464238660301313e-05,-4.807444547083967e-06,-1.0462980948050186e-05,0.00016065487337779674
1.0101010101010102,7.594936708860759,-0.00013814597314881254,-6.843911395391392e-05,-5.475420053231587e-05,6.197552613081794e-05,0.0001526686007180996
1.1111111111111112,7.594936708860759,5.6088170290570906e-05,6.897398122085945e-05,-1.8575173638084062e-05,-3.75186454534291e-05,7.12023858780046e-05
1.2121212121212122,7.594936708860759,0.00013450742521298883,3.140715795652803e-05,-3.2839080404244333e-05,-4.977437495085506e-05,0.00013449675335759276
1.3131313131313131,7.594936708860759,-1.6108963049394906e-05,-8.144409749752629e-05,4.983434157645212e-05,2.9265918164076356e-05,0.00011415360069489655
1.4141414141414141,7.594936708860759,-6.347679742617892e-05,-2.099092795904903e-05,-6.547089984450503e-05,2.5340317615568382e-05,0.00012647846522459742
1.5151515151515151,7.594936708860759,-4.252310907627371e-05,2.1716586575014276e-05,-4.6372628454462437e-05,6.24195675037783e-06,9.825753776175797e-05
1.6161616161616161,7.594936708860759,-9.360854377881611e-05,-9.78338185487927e-05,-1.1119765059863865e-05,5.743270869828264e-05,9.77081458145375e-05
1.7171717171717171,7.594936708860759,1.7771479649934462e-05,-7.303684628714583e-05,8.801104627687463e-05,1.6579609991163407e-05,0.00017374122145379924
1.8181818181818181,7.594936708860759,-7.654073255298309e-05,-0.00010733662549389896,4.948314151989618e-05,5.5163207414064616e-05,0.00012849029088273867
1.9191919191919191,7.594936708860759,0.00016976507881049816,7.606976411921601e-05,-2.9907031753424814e-05,-7.375045287891426e-05,0.00015612845077305477
2.0202020202020203,7.594936708860759,-0.00010704439794046717,2.5668889159789517e-05,3.94094350642462e-05,2.4412652634203295e-05,0.0001397297981938499
2.121212121212121,7.594936708860759,-1.6942813774806707e-05,4.3753536654234424e-05,-4.848091362685171e-06,-8.043216863828315e-06,5.4893086098942515e-05
2.2222222222222223,7.594936708860759,4.831385409932633e-06,-9.951171048428449e-05,-5.733008714080342e-06,2.8404097522305557e-05,0.00010249538722003902
2.323232323232323,7.594936708860759,-8.365674371053468e-05,3.960130171144488e-05,-2.0910266537825798e-05,1.321663259972694e-05,0.00011485359181765987
2.4242424242424243,7.594936708860759,4.748391038160423e-05,-0.0001284276832499781,-1.6082795369211166e-05,2.428313186051216e-05,0.0001600706378218932
2.525252525252525,7.594936708860759,-5.642841381997478e-05,-4.84698490106692e-05,2.386883186206771e-05,3.1469478849193194e-05,6.713850500993175e-05
2.6262626262626263,7.594936708860759,-0.00014188701452866876,-4.336462892909175e-05,0.00010749554756220483,5.557549303732815e-05,0.00022477859425714636
2.727272727272727,7.594936708860759,-7.787532976193581e-05,-0.00016548516083502823,-4.1838841207862673e-05,7.30081471790892e-05,0.00016066785575291918
2.8282828282828283,7.594936708860759,0.0001515860919834125,0.00020680430370133404,-8.320422445868929e-06,-0.00010751711870542397,0.00018602525473116374
2.929292929292929,7.594936708860759,-0.00013646861280722567,-7.016914225801888e-05,9.016834415473148e-05,6.199132651957337e-05,0.0001958634630648303
3.0303030303030303,7.594936708860759,1.5843896471973458e-05,-0.00013799645117142602,2.5779083891776594e-05,3.664576640983577e-05,0.0001532127102301893
3.131313131313131,7.594936708860759,0.00014314015867641444,0.00011063148768708027,-7.934560722895555e-06,-7.61314939090484e-05,0.0001306961902781607
3.2323232323232323,7.594936708860759,2.7386227598106097e-07,0.00015796369353914138,5.3412388921441015e-05,-4.7471266744536724e-05,0.00018294259496171142
3.3333333333333335,7.594936708860759,0.00014168931363870704,-5.8282310211387e-05,-9.190955517338031e-05,-2.5022101028196007e-05,0.00023889907662153026
3.4343434343434343,7.594936708860759,0.00010971872848219078,1.501990491317639e-06,-2.526351327464768e-05,-3.336621569205253e-05,0.00011743250903059126
3.5353535353535355,7.594936708860759,0.00024857720779053184,-1.1218283748170034e-05,-9.04331800467294e-06,-7.120767721270853e-05,0.0002548537474221531
3.6363636363636362,7.594936708860759,-5.8945227228943424e-05,-0.00015617671072619855,1.6148298713048622e-05,6.45365813865426e-05,0.0001394350592163939
3.7373737373737375,7.594936708860759,-3.8422047022285756e-05,0.00013800057296828487,-3.842830552694702e-05,-2.9873557783799733e-05,0.00017393355150075167
3.8383838383838382,7.594936708860759,-6.449569530910635e-05,-6.320437718790918e-05,6.857467748485376e-05,3.831002174910465e-05,0.00013485376128331936
3.9393939393939394,7.594936708860759,0.0001503735543699867,0.0001503685312810446,2.780355849454248e-05,-9.022262569530938e-05,0.0001578941548450574
4.040404040404041,7.594936708860759,8.434988479649111e-05,-0.00018357882441315192,3.265223026285384e-05,2.976868188499824e-05,0.00024392508061254402
4.141414141414141,7.594936708860759,2.94326945737958e-05,1.46823574021191e-05,7.709921811050081e-05,-1.323451559277447e-05,0.00013595066048927368
4.242424242424242,7.594936708860759,-2.3408727973180065e-05,-3.3511929277641116e-05,-3.5979672313634515e-05,1.7076197175246352e-05,6.906632154896312e-05
4.343434343434343,7.594936708860759,8.119108191227597e-05,-0.00014046771216469047,1.2136977877825385e-05,1.7782989075724348e-05,0.00019537096550737034
4.444444444444445,7.594936708860759,-5.767285683993943e-05,6.591306553563938e-05,-2.077307184795848e-05,-2.4720626087099855e-06,0.00011298958783403649
4.545454545454545,7.594936708860759,-0.0003677043366729467,-0.0001491381765345669,-7.565009080645683e-05,0.00015505275396225407,0.00034609063747805587
4.646464646464646,7.594936708860759,-0.0001722946696148566,-9.952098730590374e-05,5.2160068866804155e-05,8.15446970762281e-05,0.0001749427415384493
4.747474747474747,7.594936708860759,-1.0814752419004313e-05,0.00016419083397330002,3.095126288127645e-05,-4.601282446628871e-05,0.00017811573224019506
4.848484848484849,7.594936708860759,-6.353705980428491e-05,6.146699759404737e-05,-2.8225297616767655e-05,6.21018663071263e-07,0.00011878798062341179
4.94949494949495,7.594936708860759,4.134856557334768e-05,-4.951507165743619e-05,6.279767001026838e-05,2.4499518252265532e-06,0.0001343110772038802
5.05050505050505,7.594936708860759,-6.479055770420046e-05,3.868796468968673e-06,2.1412365942536664e-06,1.8276528370569535e-05,6.691188322761413e-05
5.151515151515151,7.594936708860759,2.5433874530536257e-05,-2.728815549241328e-05,2.1062184175428712e-05,5.562842885631071e-07,5.845011320344921e-05
5.252525252525253,7.594936708860759,-0.00010401853785033433,6.1569549476306e-05,9.634399863052152e-05,1.2734696512208498e-05,0.00022104646201244593
5.353535353535354,7.594936708860759,-5.5665690937511886e-05,0.00022116441455297166,5.64302447104753e-05,-4.964961708463793e-05,0.0002718027868018339
5.454545454545454,7.594936708860759,1.1894446141119708e-06,-6.412414888814106e-05,1.657350546897794e-05,1.8880411282208725e-05,7.08070379499013e-05
5.555555555555555,7.594936708860759,7.022057352822464e-06,2.7286905892059218e-05,-3.950992413399592e-05,-1.0292688973464505e-05,7.270059573136698e-05
5.656565656565657,7.594936708860759,7.852380256615002e-05,3.0476453181385777e-05,-7.366141922311406e-07,-3.2700076724260736e-05,6.858062829136116e-05
5.757575757575758,7.594936708860759,-8.545507123866793e-05,4.05346743555865e-05,-3.746626042392868e-05,1.347611906492443e-05,0.00012892123378510244
5.858585858585858,7.594936708860759,-5.0510493621797086e-05,-3.449337498052444e-05,-6.933616686248255e-05,2.5501160580696457e-05,0.00012814576696895886
5.959595959595959,7.594936708860759,-4.238239494766977e-05,-3.044361029446397e-05,-2.581318803112692e-08,2.184780157264012e-05,3.785247274737237e-05
6.0606060606060606,7.594936708860759,3.0352000580836005e-05,7.256439167583951e-05,5.2214409923601945e-05,-3.0874917677002655e-05,0.00011028777915644348
6.161616161616162,7.594936708860759,-3.656304592985322e-05,6.508098664190413e-05,-3.1756558482890575e-05,-8.555382213615274e-06,0.00010477302741513252
6.262626262626262,7.594936708860759,1.7175407626342027e-05,3.396365289715392e-05,-3.6797619766020785e-05,-1.5341718157048784e-05,7.019529345757507e-05
6.363636363636363,7.594936708860759,-3.813749308689694e-05,1.0005410257517377e-05,-0.00011660082181303788,8.439624848813868e-06,0.00020669642672366018
6.4646464646464645,7.594936708860759,0.00010835871460138793,0.00010450835643954424,-2.9362647537344035e-05,-6.386012131227965e-05,0.00011800725248082873
6.565656565656566,7.594936708860759,8.2485768599616e-05,-0.0001314897080452893,-1.6223327685178365e-06,1.4701181833701991e-05,0.00018694215914339662
6.666666666666667,7.594936708860759,0.0001617740276474864,3.4516072594640897e-05,-6.659165642370242e-05,-5.888703007263819e-05,0.00018730119412912834
6.767676767676767,7.594936708860759,-3.012740480728828e-07,1.4424200054502084e-06,2.5171725002024626e-05,-3.4234378721319767e-07,4.3628581503079877e-05
6.8686868686868685,7.594936708860759,-3.182313993723911e-05,3.4611101899142164e-05,-5.1600240436683715e-06,-8.363885885709171e-07,5.824046783508917e-05
6.96969696969697,7.594936708860759,0.00010259224378504262,0.00016575589681411672,-8.380123101260406e-05,-8.05044421797478e-05,0.0002050923094521659
7.070707070707071,7.594936708860759,0.00013265204929825968,5.0144871889811684e-05,2.5379443469305215e-05,-5.483907635642141e-05,0.0001240628985407253
7.171717171717171,7.594936708860759,6.555436894250857e-06,-1.739134478980339e-05,-3.288011792478018e-05,3.2507723686657603e-06,6.085020093631897e-05
7.2727272727272725,7.594936708860759,2.0872805074364758e-05,-6.179784177219878e-05,2.666903945435637e-05,1.2277511009350208e-05,8.762565001730791e-05
7.373737373737374,7.594936708860759,-6.31009456954025e-05,0.00015734214365813767,-4.6589183630941166e-05,-2.8272359388820552e-05,0.00021255204933228754
7.474747474747475,7.594936708860759,-3.1008100286105075e-05,-0.00010214347466306009,3.1701385780093336e-05,3.994547248474955e-05,0.00010603042098760082
7.575757575757575,7.594936708860759,0.000247658585405589,4.0029182541558826e-05,6.235468019672527e-07,-8.630633038414434e-05,0.00023027094060845156
7.6767676767676765,7.594936708860759,0.0001558159286680288,-1.7242272895350267e-05,3.2895984496052765e-05,-4.157209673180356e-05,0.0001746681360543708
7.777777777777778,7.594936708860759,-1.897876892531371e-05,1.850410411329434e-05,-6.945812093207368e-05,1.4239944360581164e-07,0.00012460767370164633
7.878787878787879,7.594936708860759,2.0450055155426344e-05,7.62530913862107e-05,-3.450358133363039e-05,-2.9010943962491112e-05,9.080115721582708e-05
7.979797979797979,7.594936708860759,-5.730778556064636e-06,-9.862574961516577e-05,1.4047176701314452e-05,3.130695845136912e-05,9.89274860636592e-05
8.080808080808081,7.594936708860759,-0.00011547501264300093,-3.206790727073594e-05,1.2666984250375166e-06,4.426287597412106e-05,0.00010326955407477515
8.181818181818182,7.594936708860759,0.0001789769034881258,-2.6846401342440964e-05,-3.5362832106231424e-05,-4.563915064370545e-05,0.0002032484605428228
8.282828282828282,7.594936708860759,-4.533494274692129e-05,0.0002056667873551065,-4.375683767253967e-05,-4.809955338245556e-05,0.00024376619743891314
8.383838383838384,7.594936708860759,0.00022449053365938205,8.502221392956873e-05,6.0872345352610415e-06,-9.285382427668522e-05,0.00019659414451877831
8.484848484848484,7.594936708860759,-0.00010511313451827123,-4.7974918302271774e-05,2.039195593383953e-05,4.59264158461629e-05,9.775001480193763e-05
8.585858585858587,7.594936708860759,0.00015446541435477334,7.817491364615057e-05,3.854677860045446e-05,-6.979209840027717e-05,0.00014950960955166395
8.686868686868687,7.594936708860759,-0.00013616773440577924,3.9982731822506563e-05,-1.7418391858478996e-05,2.8855500774981802e-05,0.00016277232525716549
8.787878787878787,7.594936708860759,-9.831315241412907e-05,0.0001493673433148945,3.22984053232425e-05,-1.5316257270229626e-05,0.0002231376582624221
8.88888888888889,7.594936708860759,8.487160004283997e-06,-4.3535365525902016e-05,5.045571127569686e-05,1.0514461656485404e-05,9.987085636202879e-05
8.98989898989899,7.594936708860759,-0.00020352808336272072,-4.2592771290092525e-05,-7.913790882106707e-05,7.383625639584397e-05,0.00023099226310724792
9.09090909090909,7.594936708860759,0.0001622881154835071,-1.6671367374748058e-05,-2.0626231955481754e-05,-4.3685024432627714e-05,0.00017492071359663798
9.191919191919192,7.594936708860759,5.938561572202883e-05,-9.853590562193432e-06,7.149315564306674e-05,-1.4859607547950618e-05,0.00013979527908935892
9.292929292929292,7.594936708860759,-0.00011712174221717789,8.934164630383658e-05,-3.113839707967457e-05,8.334028774002393e-06,0.00018727541443018514
9.393939393939394,7.594936708860759,-2.792398125211826e-05,-1.3241398692643367e-05,9.000720585831406e-05,1.2349613983428486e-05,0.00015776318366058593
9.494949494949495,7.594936708860759,-4.3210969068998516e-05,4.065050231785225e-06,-9.114544737732047e-05,1.1743775651163987e-05,0.0001642615139767504
9.595959595959595,7.594936708860759,3.730843911198536e-05,-1.024494412250368e-05,-3.3259317188826055e-05,-8.119048496844505e-06,7.209471494254542e-05
9.696969696969697,7.594936708860759,7.21526691012388e-05,-0.0001732422908602223,-3.987261269557931e-05,3.032688652769505e-05,0.0002291031829050481
9.797979797979798,7.594936708860759,-4.584634251781778e-05,-3.940929012315086e-05,-6.765019746963907e-05,2.5576689792290592e-05,0.00012481127797577107
9.8989898989899,7.594936708860759,4.824316338452931e-06,-2.035939883008896e-05,4.146402869614495e-05,4.660524747490809e-06,7.545724853463294e-05
10.0,7.594936708860759,0.000279097236981379,6.008857116224037e-05,-5.776432550679252e-05,-0.0001017557424430858,0.0002733962358796906
0.0,7.69620253164557,-5.3035446817898446e-05,2.2598073304474916e-05,-2.3622948629274934e-05,9.131212054027059e-06,7.87150656291354e-05
0.10101010101010101,7.69620253164557,-2.0770452841036925e-05,-6.38776541522491e-05,5.477033166646773e-05,2.5394432097985808e-05,0.00011038281705326859
0.20202020202020202,7.69620253164557,-9.165285334527187e-05,-4.861623599806248e-05,4.376417031210015e-06,4.20807268030003e-05,7.978362149534745e-05
0.30303030303030304,7.69620253164557,-1.0980725061318182e-05,7.961718825532543e-05,2.2759697811319897e-05,-2.0590938958202173e-05,9.427480562870936e-05
0.40404040404040403,7.69620253164557,0.0001537984799743616,6.259858206531733e-05,-5.743291444656853e-05,-6.491911861190367e-05,0.0001668550482733346
0.5050505050505051,7.69620253164557,4.586559355298508e-05,-7.565395557335595e-05,-7.801014552954997e-05,8.93650860611126e-06,0.00017191229060044185
0.6060606060606061,7.69620253164557,5.6380184230634836e-05,0.00011790421303591031,-0.00011829188316167821,-5.2285319179963545e-05,0.00022893574696576633
0.7070707070707071,7.69620253164557,0.00016124799306135946,-0.00016465074485190725,-0.00010406699906593956,1.0208255371643367e-06,0.00033488834869819357
0.8080808080808081,7.69620253164557,-1.9078859823670968e-05,1.0471392299508428e-05,-2.859554876948346e-05,2.5822402572487616e-06,5.591557388587012e-05
0.9090909090909091,7.69620253164557,0.00011340107787730613,-1.9463090944829816e-05,6.207369619568272e-07,-2.8181396079742894e-05,0.00012428558970354174
1.0101010101010102,7.69620253164557,5.2244967481174835e-05,4.1367873320362464e-05,-7.013704611828259e-06,-2.808385224046119e-05,4.926611950333432e-05
1.1111111111111112,7.69620253164557,4.443135867990756e-06,-3.758837019357866e-05,-4.463838685809242e-05,9.94357029767637e-06,8.7048228068442e-05
1.2121212121212122,7.69620253164557,1.8506146726800952e-05,5.1384325918016826e-05,-3.698012823365047e-05,-2.0967141793445333e-05,7.832298637282658e-05
1.3131313131313131,7.69620253164557,-0.0002131392660271489,1.3736549328666179e-05,-5.340204645361786e-05,5.982081500954482e-05,0.0002389564254168767
1.4141414141414141,7.69620253164557,4.263259235448325e-05,-2.0471056500682253e-05,2.3300605333567604e-05,-6.648460756140299e-06,6.88337919826366e-05
1.5151515151515151,7.69620253164557,1.3295807450048525e-05,-8.086438362223781e-05,5.0445409612308335e-05,2.0270572851656784e-05,0.00012419823815747972
1.6161616161616161,7.69620253164557,5.372774183218093e-05,0.0001857986617276557,5.588336885302775e-05,-7.1857921067951e-05,0.0001918179427352816
1.7171717171717171,7.69620253164557,0.00016490839596358843,4.0131749572462835e-05,-2.6172742277856444e-06,-6.151204366081538e-05,0.00014902289859942183
1.8181818181818181,7.69620253164557,3.52404943823866e-06,-0.00018408789496657176,-3.21922103872725e-05,5.416915365849993e-05,0.00019405803788909504
1.9191919191919191,7.69620253164557,-0.00010315833909494588,-7.108632913735355e-05,-2.0923726749992423e-05,5.2273400469689825e-05,9.8362434354844e-05
2.0202020202020203,7.69620253164557,-0.00017536725536188979,8.11415319752847e-05,-5.781782792786199e-06,2.8267717015981523e-05,0.00022730481134285738
2.121212121212121,7.69620253164557,-9.458581651574597e-06,-0.00016536983457742354,-2.975577751642778e-05,5.244852486869944e-05,0.00016890441604288335
2.2222222222222223,7.69620253164557,0.000146081631186277,-3.5795458986863076e-05,2.7768120670125174e-05,-3.308585165982417e-05,0.00017367620006390625
2.323232323232323,7.69620253164557,0.00010330137579371324,-0.00010731017737159261,-2.3344658133724526e-05,1.2026404733638107e-06,0.00018683376717737872
2.4242424242424243,7.69620253164557,7.214315896870572e-05,1.8581761965452635e-05,6.639876239957519e-05,-2.7217476280247504e-05,0.00013204452734179523
2.525252525252525,7.69620253164557,2.9528933805454544e-05,-3.624883355223654e-05,1.9021504761978983e-05,2.015969924034599e-06,6.589217102436044e-05
2.6262626262626263,7.69620253164557,-9.47544720415353e-05,7.385018318247771e-05,-2.918957529431494e-05,6.2712866577172774e-06,0.00015487410552823025
2.727272727272727,7.69620253164557,9.510968885617828e-05,2.2064242401378813e-05,2.5994398744171815e-05,-3.515217937726712e-05,9.726914606202942e-05
2.8282828282828283,7.69620253164557,-2.764315899920189e-05,9.758401760239931e-05,-2.1597488951350884e-05,-2.0982257580959227e-05,0.00011993193833277166
2.929292929292929,7.69620253164557,-9.119178561681115e-05,-1.520767016560037e-05,-4.2791965337445225e-05,3.191983673472346e-05,0.00011248936523378053
3.0303030303030303,7.69620253164557,-0.00019594548395442842,-3.71936244606479e-05,-3.96380521788112e-05,6.994173252452289e-05,0.00019288235061633925
3.131313131313131,7.69620253164557,-8.068842958056913e-05,-0.00011914042094139539,-0.00010943919982549542,5.9948655156589356e-05,0.0002168470070816666
3.2323232323232323,7.69620253164557,0.00016817211455559913,-0.0001821037862742133,2.1090401113913903e-05,4.179501515584252e-06,0.0003056187869769439
3.3333333333333335,7.69620253164557,-0.00023280782365578512,-0.00018966378542253513,-9.457483178410545e-06,0.00012674148272349606,0.00021513938065779615
3.4343434343434343,7.69620253164557,-0.00015404421505486198,8.787019394498005e-06,-4.5533662951314e-05,4.357715869810919e-05,0.000177145038858831
3.5353535353535355,7.69620253164557,5.680368279411417e-05,2.7250898655923485e-05,4.493672599948028e-05,-2.5216374435011297e-05,9.208282404488486e-05
3.6363636363636362,7.69620253164557,-7.088463824742376e-05,-0.00017348281233697322,-5.4763337947372686e-05,7.33102351753191e-05,0.0001783836350974382
3.7373737373737375,7.69620253164557,1.199234776736232e-05,6.934789166142623e-05,5.922429692258451e-05,-2.4402071828636563e-05,0.00012101179482614263
3.8383838383838382,7.69620253164557,-0.00024253344628938638,-6.909956376470671e-05,-2.5302866971240883e-06,9.348990301622793e-05,0.00021646587259159546
3.9393939393939394,7.69620253164557,3.070504882980579e-05,-9.001068693504428e-07,0.00010984862333248987,-8.941482588136603e-06,0.0001927988801459235
4.040404040404041,7.69620253164557,-0.00018478615937148478,-0.0002367210671205356,1.9464716380003514e-05,0.0001264521679476061,0.00021812069372181904
4.141414141414141,7.69620253164557,-0.0001844114557702697,-9.514759160006515e-05,5.761959818960475e-05,8.386771421110045e-05,0.0001883464828798094
4.242424242424242,7.69620253164557,-8.493940389269804e-05,-1.6319611253170896e-05,4.7903220500993344e-05,3.0377704543760678e-05,0.00011392545631507022
4.343434343434343,7.69620253164557,-8.63265415788902e-05,-0.00013104071009235408,4.907565996178384e-05,6.521017550137328e-05,0.00014330704580103258
4.444444444444445,7.69620253164557,-0.00010516198691678533,-3.2142832743235505e-05,3.131989326487336e-05,4.119144589800625e-05,0.00010795743686750983
4.545454545454545,7.69620253164557,6.2493791819960206e-06,-0.00020734389311168484,-1.1724558576777627e-05,6.0328354178906644e-05,0.00021151527410912243
4.646464646464646,7.69620253164557,-2.0318840730559065e-05,-0.00011326606100082437,4.179410789498838e-05,4.007547051941503e-05,0.00012720402184615288
4.747474747474747,7.69620253164557,6.810390372362276e-05,2.6491337104290948e-05,-2.4745155020690716e-05,-2.8378572248374112e-05,7.32989581324526e-05
4.848484848484849,7.69620253164557,0.00019443227035748114,0.00011559777001917739,-3.156787839334815e-05,-9.300901211299757e-05,0.00017798991026306038
4.94949494949495,7.69620253164557,9.090377450897754e-05,0.00014737470757009982,9.23898185005355e-05,-7.14835446237232e-05,0.00020541061110312264
5.05050505050505,7.69620253164557,9.396153854883117e-05,0.00011737460648193472,-6.507706162411445e-05,-6.340084350922976e-05,0.00015582664153004352
5.151515151515151,7.69620253164557,8.664320284975535e-05,3.0193153733184478e-05,2.561130346774176e-05,-3.505090697488195e-05,8.815019106497557e-05
5.252525252525253,7.69620253164557,-9.753204462553692e-05,-0.00016188790488762925,2.8207230795937235e-05,7.782598485394985e-05,0.00014939169562406976
5.353535353535354,7.69620253164557,-0.00010492684410638534,-1.7268689560850133e-05,2.9000945438266453e-05,3.6658660100170644e-05,0.00010963149941846888
5.454545454545454,7.69620253164557,0.00012920687805311403,0.00016220773409764835,1.0143066262029841e-06,-8.742438364522873e-05,0.00014849410046293004
5.555555555555555,7.69620253164557,5.319859418634765e-05,1.5117497326113269e-05,-2.1974257028151628e-05,-2.0494827453738273e-05,6.085230857791233e-05
5.656565656565657,7.69620253164557,-1.2583702171617002e-05,-1.1538421718255027e-05,6.199736321149058e-05,7.236637166961608e-06,0.00010806159266451553
5.757575757575758,7.69620253164557,-0.00013920844287235442,9.184571027951845e-05,-4.525983513912107e-05,1.4208819777850788e-05,0.00021620749618519986
5.858585858585858,7.69620253164557,-6.385038413955971e-05,-9.564405972088673e-05,8.347621707565495e-05,4.784833315813393e-05,0.00016739947494721086
5.959595959595959,7.69620253164557,-2.8265212650591883e-05,0.00015388471008656194,3.097322278387979e-05,-3.768584923079102e-05,0.0001780646845608059
6.0606060606060606,7.69620253164557,-0.00010059203635006909,-2.973734265173736e-06,6.688791476992119e-05,3.1069731184572846e-05,0.00015248097033413843
6.161616161616162,7.69620253164557,-7.82936785431648e-06,5.946920163055687e-05,-6.613893395465164e-05,-1.5491950132872117e-05,0.00013109754747177955
6.262626262626262,7.69620253164557,-5.213428142951746e-05,-0.00013058638535546222,-9.090141975508737e-05,5.48162000354939e-05,0.0001942986472311737
6.363636363636363,7.69620253164557,-7.856712350531182e-05,-0.00015214944861366314,-3.114494967712669e-05,6.92149716356925e-05,0.00014240199001424854
6.4646464646464645,7.69620253164557,-5.4105866134498905e-05,0.00011504961026883705,-5.7936095810139704e-05,-1.8283123240301445e-05,0.0001801623989026918
6.565656565656566,7.69620253164557,-9.443972860456866e-06,-0.00012669387500160756,-4.245335638342476e-05,4.084135435861933e-05,0.0001426565647766163
6.666666666666667,7.69620253164557,-7.093421046156678e-05,-0.00013321764386030102,4.022738082515517e-05,6.124555629656033e-05,0.00013484673139112934
6.767676767676767,7.69620253164557,4.47232049482812e-06,-0.0001608681856679731,-5.086245001937143e-05,4.691875955194349e-05,0.00018541573654995357
6.8686868686868685,7.69620253164557,4.2518954526733427e-05,-8.473439693801017e-07,4.6981440887811377e-05,-1.2501483167205999e-05,9.201290686222335e-05
6.96969696969697,7.69620253164557,8.882379716589367e-05,8.894354110491518e-05,5.213192438712837e-05,-5.3330201481242646e-05,0.00012670252568061166
7.070707070707071,7.69620253164557,5.567652469827128e-05,0.00012172631632948659,-2.8353246121177757e-05,-5.322085230832736e-05,0.00011641130928264421
7.171717171717171,7.69620253164557,-5.376187384488047e-05,-8.968368903408019e-05,4.381007851488668e-05,4.30336688636882e-05,0.00010894911161052363
7.2727272727272725,7.69620253164557,-0.00012268390043015533,-0.00025407333411316173,2.4700899785854007e-05,0.00011302717036299511,0.0002241969987723526
7.373737373737374,7.69620253164557,0.0001254552566395369,-4.2338463874452305e-05,3.8626246457718484e-05,-2.4935037829525375e-05,0.0001652849374234409
7.474747474747475,7.69620253164557,-7.40975787748377e-05,-0.00016681597011784061,-6.627916735621639e-05,7.22740646678035e-05,0.0001847596916436102
7.575757575757575,7.69620253164557,9.581225607512384e-05,4.598149296946547e-05,-6.584396972207185e-05,-4.25381247133768e-05,0.00014104956780182815
7.6767676767676765,7.69620253164557,6.44427050332268e-07,9.343636427107651e-05,5.2235086101747135e-05,-2.8224237396422635e-05,0.00012983092541444171
7.777777777777778,7.69620253164557,-6.574193684456127e-06,-1.624933270050123e-05,-1.652616821926747e-05,6.8470579154872065e-06,3.193395189184448e-05
7.878787878787879,7.69620253164557,-9.750960041254513e-05,-0.00014979388326343768,0.00011198042901697099,7.419104510279484e-05,0.00023443301257068726
7.979797979797979,7.69620253164557,-3.583371008359682e-05,2.3068482959669754e-06,-7.312215048642249e-05,1.0058058536288954e-05,0.00013195675782519606
8.080808080808081,7.69620253164557,-2.1407702289717954e-05,1.3512693801965212e-05,-1.5073846963404326e-05,2.3685025463258226e-06,4.0147489634893164e-05
8.181818181818182,7.69620253164557,-8.977772421224683e-05,0.00010422869740078054,-7.655797977880683e-05,-4.335291956560111e-06,0.00021415986827666688
8.282828282828282,7.69620253164557,-3.926464936899097e-05,-6.800101356096687e-06,-4.4037425873343635e-05,1.3819425217526296e-05,8.44916274298996e-05
8.383838383838384,7.69620253164557,-6.944151739938987e-05,0.00013402624429002276,3.537092548013799e-05,-1.937541806718987e-05,0.00018932895018993672
8.484848484848484,7.69620253164557,-2.7069354734566833e-05,0.0002641668305557888,-4.400896112877554e-05,-7.112924274636658e-05,0.00028892569279307734
8.585858585858587,7.69620253164557,-0.0001313704201445717,5.764000208725993e-05,-5.6122542474687155e-05,2.2119125417193533e-05,0.00019391226815853387
8.686868686868687,7.69620253164557,-0.00015269077844812763,-7.761080696614383e-05,-3.914140590648184e-05,6.909047562428143e-05,0.00014860553697083862
8.787878787878787,7.69620253164557,-3.438289347699249e-05,5.5449166080377434e-05,3.5968460799443147e-06,-6.319881781015483e-06,7.875346378895094e-05
8.88888888888889,7.69620253164557,-0.00011446292513680465,3.367115504514538e-05,-1.906357453907552e-05,2.423753102749778e-05,0.00013849139480404856
8.98989898989899,7.69620253164557,0.00012098346715728881,1.5284159771335042e-05,3.9359928139004516e-05,-4.088028807858715e-05,0.0001329251144551518
9.09090909090909,7.69620253164557,-7.888566802857991e-05,0.00012059418998124367,0.0001009130136626241,-1.2512556585799129e-05,0.0002466361074417174
9.191919191919192,7.69620253164557,-6.51419538638164e-05,-0.0002747716606165634,-1.278388309574389e-05,0.00010197408434411394,0.0002496678990043134
9.292929292929292,7.69620253164557,9.238417884864225e-06,-8.044964167374486e-05,6.66202705186431e-05,2.136336713666419e-05,0.000143580994392888
9.393939393939394,7.69620253164557,-0.00021089744857734043,0.00011155303968298236,-1.6486024767288522e-05,2.980332266830742e-05,0.0002850674182838434
9.494949494949495,7.69620253164557,-7.305682156200121e-05,-0.00015160814811423977,4.242192943851658e-05,6.739949090287229e-05,0.0001504831572605497
9.595959595959595,7.69620253164557,-4.502768319812494e-05,7.088575007453461e-05,8.405098248684763e-05,-7.7574200629229e-06,0.0001773070948564969
9.696969696969697,7.69620253164557,8.571231832027793e-05,5.522150098747188e-05,-4.6150199748168456e-05,-4.228014579232494e-05,0.000109783312132454
9.797979797979798,7.69620253164557,6.479966535814925e-06,1.0243306165068822e-05,4.7061938113630735e-06,-5.016981810265124e-06,1.2123687017619756e-05
9.8989898989899,7.69620253164557,0.00012944455270179334,6.207769739705122e-05,0.00011472664239801733,-5.745667502965336e-05,0.0002281677461731528
10.0,7.69620253164557,8.02791810200144e-05,0.00015391115881343718,-1.8418504329952226e-05,-7.025710195003548e-05,0.00013709578344505208
0.0,7.7974683544303796,5.224714316281132e-05,-3.0046766884572975e-05,2.2952768223644495e-05,-6.660112883471504e-06,8.235847623210441e-05
0.10101010101010101,7.7974683544303796,-6.564995318710528e-05,9.288075179535914e-05,4.666215981792316e-05,-8.169239582476158e-06,0.0001598950871400022
0.20202020202020202,7.7974683544303796,0.00015788825191158137,3.164003424993314e-05,5.443648613305071e-05,-5.685848584845435e-05,0.00017269683039485375
0.30303030303030304,7.7974683544303796,8.194316304146996e-05,-1.320806650037497e-05,-9.490427103404963e-07,-2.0620528962328497e-05,8.92980838698133e-05
0.40404040404040403,7.7974683544303796,-0.00022354075072682266,5.6278563051187664e-05,3.0122941277001978e-05,5.01786563026905e-05,0.00026161129735246603
0.5050505050505051,7.7974683544303796,-0.00013605588703589062,-1.091048713021593e-05,7.088630481033574e-05,4.408991224983196e-05,0.00017950045055942874
0.6060606060606061,7.7974683544303796,9.94696084641069e-05,0.0001467578918485921,8.408290527523805e-06,-7.38682500938097e-05,0.00013056121106758438
0.7070707070707071,7.7974683544303796,-1.3714902680782147e-05,4.119397740742422e-05,2.1297446431255053e-06,-8.243722417992622e-06,4.963487844347591e-05
0.8080808080808081,7.7974683544303796,2.966885635283112e-05,7.285596272979011e-05,-2.1594388595615335e-05,-3.075744572478637e-05,7.365889020578206e-05
0.9090909090909091,7.7974683544303796,-9.807613493277073e-05,0.00011749180321364724,1.3887704221249871e-06,-5.824700484262952e-06,0.00018695502149200963
1.0101010101010102,7.7974683544303796,5.427170082483898e-05,5.132219760002651e-05,1.3680231657385313e-05,-3.167816952745965e-05,5.79265805800262e-05
1.1111111111111112,7.7974683544303796,-9.597699918193548e-05,0.00011355527422049799,-1.707943495515699e-06,-5.273482511568752e-06,0.00018169708404148526
1.2121212121212122,7.7974683544303796,4.5484689489258224e-06,0.00010892946083581101,-2.761510668167439e-05,-3.4043378935421045e-05,0.00011695570139435565
1.3131313131313131,7.7974683544303796,-6.694064387354548e-05,-2.3879793666903102e-05,4.082225057056895e-05,2.7246131262134577e-05,9.193548830069786e-05
1.4141414141414141,7.7974683544303796,2.3037407731053216e-07,0.00010734517470983956,8.009610162210834e-05,-3.227266463614502e-05,0.0001753410007536779
1.5151515151515151,7.7974683544303796,0.00019337030536109625,0.0001455819864485599,4.470511851307085e-05,-0.00010168568754289684,0.00019086801581962972
1.6161616161616161,7.7974683544303796,5.4728934034328216e-05,-0.0001657605588111145,2.383150935448279e-06,3.3309487433035885e-05,0.00019889885869888005
1.7171717171717171,7.7974683544303796,0.00012302221805989157,-0.00018034149031813477,1.46962462368283e-05,1.7195781677472957e-05,0.00026550229447985053
1.8181818181818181,7.7974683544303796,8.258148603704274e-05,-0.00012113364528555109,5.153218472155301e-05,1.1565647774552504e-05,0.0001986533575843751
1.9191919191919191,7.7974683544303796,-2.3621117157653072e-05,-8.226036314105545e-05,1.2190545216584067e-05,3.176444408961255e-05,7.63378741040165e-05
2.0202020202020203,7.7974683544303796,0.00010455774366035043,0.00013626230280370776,4.520087078153365e-05,-7.224601393921746e-05,0.00014622521723635932
2.121212121212121,7.7974683544303796,1.9394723658623166e-05,5.244776191785732e-05,0.00010891673990497846,-2.1552745672944144e-05,0.00019416045395925167
2.2222222222222223,7.7974683544303796,1.9429515166060266e-05,2.411207423090289e-05,1.5761900768503105e-05,-1.3062476819088946e-05,3.515287781759347e-05
2.323232323232323,7.7974683544303796,9.58061453895054e-06,5.291940178510512e-06,-7.385655937273392e-05,-4.461766415238315e-06,0.0001281930842671238
2.4242424242424243,7.7974683544303796,-2.867380764866091e-05,-0.00013218388725451228,-1.304615060798044e-05,4.825730847095195e-05,0.00012253635409320852
2.525252525252525,7.7974683544303796,5.119631562987919e-05,-4.702065271611916e-05,4.11362250452628e-05,-1.2526988741280096e-06,0.00011097682517726387
2.6262626262626263,7.7974683544303796,6.424605439762767e-06,-4.220353484453157e-05,-6.540034719604195e-05,1.073367882143064e-05,0.0001221686179346321
2.727272727272727,7.7974683544303796,-5.148424337823779e-05,-0.00013247528530560947,9.809695206731814e-09,5.518785860515417e-05,0.00011567168621338207
2.8282828282828283,7.7974683544303796,0.00011515044227705366,-5.983912038643469e-05,-1.2988506781836942e-05,-1.659339656718569e-05,0.0001556822076810853
2.929292929292929,7.7974683544303796,-2.3756742054068194e-05,2.8189429917911808e-05,5.143857839234822e-06,-1.329806359153084e-06,4.5913980308204925e-05
3.0303030303030303,7.7974683544303796,-0.00010950016608092173,-4.844992759455788e-05,-8.636563144879399e-06,4.7385028102643884e-05,9.620902975459782e-05
3.131313131313131,7.7974683544303796,6.868711618048631e-05,-2.369254527878563e-05,-4.3364858912727556e-05,-1.3498371270510204e-05,0.00011201857973888354
3.2323232323232323,7.7974683544303796,-7.566394389180739e-05,5.788552113401961e-06,2.770677363536261e-05,2.096261753352163e-05,9.219284320921593e-05
3.3333333333333335,7.7974683544303796,4.2928526545844225e-05,3.071683644145541e-05,4.146914296475253e-05,-2.2093608896189888e-05,8.140530301202897e-05
3.4343434343434343,7.7974683544303796,-0.0001064595744226247,1.553284700771311e-05,8.422987186485811e-05,2.7278018224473477e-05,0.00018577552192777046
3.5353535353535355,7.7974683544303796,-0.00017682533503047624,-4.3028888575665144e-05,5.058622949258827e-05,6.59562670818424e-05,0.00018217295783168964
3.6363636363636362,7.7974683544303796,0.00012387572404223634,-8.820502674074536e-05,9.655692413516229e-05,-1.0701209190447292e-05,0.00024904116546532826
3.7373737373737375,7.7974683544303796,-0.0001164931985008726,-0.00021111464853365336,6.723069081065067e-05,9.828235411035778e-05,0.00021704040366947992
3.8383838383838382,7.7974683544303796,-4.049150982167653e-05,0.00016747342138567493,5.002543878472261e-05,-3.809457346919952e-05,0.00020970406410459165
3.9393939393939394,7.7974683544303796,-0.00017701481387875128,-5.335335538159747e-05,-7.005687737590147e-05,6.911045077810462e-05,0.00019864639134227916
4.040404040404041,7.7974683544303796,-6.821742689070687e-05,1.58419097978064e-05,3.0598278755492173e-05,1.571265512787014e-05,9.377655223705024e-05
4.141414141414141,7.7974683544303796,-2.243751122436191e-05,1.9281534663129556e-05,3.862840161711593e-05,9.467929683697064e-07,7.605464728611487e-05
4.242424242424242,7.7974683544303796,-9.228209698193855e-05,-0.00012871430483941097,-6.521575743972042e-05,6.629892054640486e-05,0.00016113539892535328
4.343434343434343,7.7974683544303796,8.951081035365656e-05,-1.4489866309096844e-05,-2.6332990755201504e-05,-2.2506283213367913e-05,0.00010770060481449378
4.444444444444445,7.7974683544303796,-0.00011267925502985868,5.942271599755149e-05,8.89348594175398e-05,1.5976961709692155e-05,0.00021598983476061383
4.545454545454545,7.7974683544303796,-3.60619738366975e-05,-8.484355905746063e-05,-2.7222437672054856e-05,3.627165986824744e-05,8.75354362645195e-05
4.646464646464646,7.7974683544303796,-0.0001293239094950324,4.6296909348554036e-05,-3.348394606939193e-05,2.490810004394351e-05,0.00016798481666488056
4.747474747474747,7.7974683544303796,6.725018446734545e-05,-0.00018891970720392236,-6.638320725310661e-05,3.650085682097307e-05,0.0002571737133836099
4.848484848484849,7.7974683544303796,-0.00014439628036507337,-5.8297177702280036e-05,2.68325730030199e-05,6.080803742020602e-05,0.00013413020546176887
4.94949494949495,7.7974683544303796,-0.00015247576253494765,-0.00020243953883162434,-3.142632121548438e-05,0.0001064745904099716,0.00019059470870886165
5.05050505050505,7.7974683544303796,-4.3267871519068336e-05,-0.0001961942499399016,1.313002725935571e-05,7.183863643769097e-05,0.00017997938121792122
5.151515151515151,7.7974683544303796,-5.9299071821711904e-05,-1.767907591808264e-05,-3.404551605233916e-05,2.309344432193836e-05,7.910668961242309e-05
5.252525252525253,7.7974683544303796,-6.778666809644113e-05,-0.00016230850575492368,8.742568463543204e-05,6.902855215540944e-05,0.00020704222179327797
5.353535353535354,7.7974683544303796,-0.00010655165415767228,-5.7414559739304355e-05,-7.193303653604564e-05,4.918986416909299e-05,0.00015509724561295473
5.454545454545454,7.7974683544303796,0.0001510361043681807,-6.957827111540792e-05,-5.898265209001502e-05,-2.443734997583183e-05,0.0002204511995766518
5.555555555555555,7.7974683544303796,-0.00010300809507346967,-5.994441357444618e-05,5.1117861572540124e-05,4.888575259437475e-05,0.00012596963059443097
5.656565656565657,7.7974683544303796,7.600201862112444e-05,-1.9158801097807e-05,-5.939553686644712e-05,-1.7052965256995233e-05,0.00013484421919661763
5.757575757575758,7.7974683544303796,3.541489306848866e-06,-8.972168968241917e-05,1.3069602462531124e-05,2.585406011267109e-05,9.430119657866143e-05
5.858585858585858,7.7974683544303796,-3.4684344648047415e-05,6.110704703448764e-05,3.41846925601471e-05,-7.926810715932068e-06,0.00010277311154676384
5.959595959595959,7.7974683544303796,0.00020108265226764075,-3.553758222255258e-05,-2.9938112519839983e-05,-4.966352101352645e-05,0.00022700664269015487
6.0606060606060606,7.7974683544303796,0.0001477261466632155,5.243328121748808e-05,6.206382502925533e-06,-6.004782836421107e-05,0.00013016164699074622
6.161616161616162,7.7974683544303796,2.227888077659613e-05,-0.00012976168365906257,1.6417927835789928e-05,3.224484086473993e-05,0.00014503114568108005
6.262626262626262,7.7974683544303796,7.199791067872756e-05,-5.270535425005983e-05,5.423060196490736e-05,-5.787766928600318e-06,0.00014345418594360177
6.363636363636363,7.7974683544303796,-4.845633808634919e-05,-5.085150423772145e-05,1.772981341285448e-05,2.979235269722119e-05,5.841963157534488e-05
6.4646464646464645,7.7974683544303796,-6.678284230004381e-05,-5.830089635889967e-06,-5.861315226282875e-05,2.1783879580780133e-05,0.00012004621138812717
6.565656565656566,7.7974683544303796,-6.542699047434065e-05,0.00015590266280149164,7.518065472695583e-06,-2.7142701698145297e-05,0.0001973730916576974
6.666666666666667,7.7974683544303796,7.757365935498866e-05,9.34166999882027e-05,5.337370506383677e-05,-5.129710780295741e-05,0.0001266646532233124
6.767676767676767,7.7974683544303796,2.6855747640663634e-07,6.762463890169135e-05,-8.276924190230292e-05,-2.0367958913429394e-05,0.00015845265861632536
6.8686868686868685,7.7974683544303796,-3.2017930403057205e-05,3.758792346568933e-05,-6.73814503075274e-05,-1.670997918789638e-06,0.0001313859464018689
6.96969696969697,7.7974683544303796,-0.00023472671182935852,0.0001029875728920187,-2.8553852909753426e-05,3.9521741681201945e-05,0.0003038469537589887
7.070707070707071,7.7974683544303796,-6.349103518928964e-05,-7.333645800143671e-05,1.261802214090547e-05,4.10482479572179e-05,7.23241552610341e-05
7.171717171717171,7.7974683544303796,7.098546880377224e-05,5.8966648589040254e-05,3.222976189614551e-06,-3.898563521784375e-05,6.604082040519208e-05
7.2727272727272725,7.7974683544303796,-2.320915569775944e-05,-1.8164163680605197e-05,2.588913717756574e-07,1.2411995813509393e-05,2.1147763987311822e-05
7.373737373737374,7.7974683544303796,-4.299172758189739e-05,-1.4181584499209884e-06,6.460354625762387e-05,1.3322965809545512e-05,0.00011962518672629536
7.474747474747475,7.7974683544303796,-0.0001202695949388913,-5.0330924494321444e-05,4.5710568205445085e-05,5.1180155829963816e-05,0.0001311985734007045
7.575757575757575,7.7974683544303796,-0.00010696373426496278,0.0001512340927895713,-1.531240569062209e-05,-1.3281107557382558e-05,0.0002262586216850957
7.6767676767676765,7.7974683544303796,0.00010975646402987057,0.000142815636265823,-1.0119663558230736e-05,-7.577163008870807e-05,0.00013067161468825048
7.777777777777778,7.7974683544303796,-7.155308657224415e-05,-3.367354341193175e-05,-5.977922583330804e-05,3.156798899525277e-05,0.00012068543110363849
7.878787878787879,7.7974683544303796,9.517397941903243e-05,-0.00011486238045249285,-2.954860546807468e-05,5.906520310038125e-06,0.0001892160746083642
7.979797979797979,7.7974683544303796,-4.247369008479588e-05,-4.895312757949302e-05,4.795738914034711e-05,2.742804529928667e-05,9.497861127231012e-05
8.080808080808081,7.7974683544303796,9.017322198569291e-05,-6.261274964270322e-05,4.1503419315487455e-05,-8.268141702896905e-06,0.00015121230504955115
8.181818181818182,7.7974683544303796,1.2447411100756796e-05,0.00013178882724787473,3.56015220508924e-06,-4.327087150458946e-05,0.00012617776099777133
8.282828282828282,7.7974683544303796,-4.4716784402632905e-05,2.3334091936282186e-05,-3.7437477257622166e-06,6.414807739905216e-06,6.024568991430688e-05
8.383838383838384,7.7974683544303796,-0.000119406801021632,0.00011936267265284923,-6.223823917769974e-05,1.3238510634830478e-08,0.00023319292850286329
8.484848484848484,7.7974683544303796,8.681624052319758e-05,0.00019038962344824166,-3.0003755071665583e-05,-8.316175919143177e-05,0.00017308100111838642
8.585858585858587,7.7974683544303796,-0.00017703661866783806,-5.513357885379603e-05,-2.9270776845636504e-05,6.965105925649022e-05,0.00016489799459871467
8.686868686868687,7.7974683544303796,2.3219038140723634e-05,1.7335214111635166e-05,3.515577378457951e-05,-1.216627567570764e-05,6.438098845170467e-05
8.787878787878787,7.7974683544303796,0.00024069501684776515,-5.1773783689738884e-05,8.689199012181327e-05,-5.6676369947407876e-05,0.00030939773979840244
8.88888888888889,7.7974683544303796,-9.35553326936269e-05,-6.911957721963956e-05,-9.706233379813872e-06,4.880247297397993e-05,8.571023327048502e-05
8.98989898989899,7.7974683544303796,-4.645620815306792e-05,3.560558945553559e-05,4.801571484131395e-05,3.2551856092596977e-06,0.00010952882984293905
9.09090909090909,7.7974683544303796,1.085434234764834e-05,-0.00012024115203428919,4.573403903852963e-05,3.281604290599225e-05,0.00014884789887372298
9.191919191919192,7.7974683544303796,0.0002574672746224912,-3.289258699909717e-05,-2.8403900053893773e-05,-6.737240628701821e-05,0.00027975065527319497
9.292929292929292,7.7974683544303796,-6.488570694600899e-05,-6.299655816787031e-05,-1.9590080102967788e-05,3.8364679534163796e-05,7.240482587725536e-05
9.393939393939394,7.7974683544303796,-0.00020131967648489546,0.00013315398668842327,7.5540508094086595e-06,2.0449706938941655e-05,0.0002919542856076694
9.494949494949495,7.7974683544303796,0.00011234002039240654,-0.0001077597812070288,8.824619878359836e-06,-1.3740717556133205e-06,0.00019123757056034924
9.595959595959595,7.7974683544303796,5.968938917802504e-05,9.342248734219214e-05,2.0313591258107334e-05,-4.5933562956065155e-05,8.917499137148779e-05
9.696969696969697,7.7974683544303796,-4.555069423730432e-06,3.9527997631292616e-05,2.903541331683251e-05,-1.0491878462268656e-05,6.551663687204917e-05
9.797979797979798,7.7974683544303796,0.00011465790770554594,-5.705412949409251e-05,-7.010188721480382e-05,-1.728113346343603e-05,0.00019412918476810053
9.8989898989899,7.7974683544303796,-5.910336648461996e-05,-2.469902701931486e-05,0.00010866031614791963,2.5140718051180445e-05,0.0001951016328375485
10.0,7.7974683544303796,4.3684624885780934e-05,-8.855491409066418e-05,3.343394338354081e-05,1.3461086761464975e-05,0.00013027775395431474
0.0,7.898734177215189,-9.108081362487939e-05,7.328696542151385e-05,3.651939772354007e-05,5.338154461009659e-06,0.00015602156767647343
0.10101010101010101,7.898734177215189,0.00011568493992192135,-2.4185305023103522e-05,7.050093955058134e-05,-2.7449890469645348e-05,0.00017798021602114758
0.20202020202020202,7.898734177215189,0.00013372141176783465,9.931763859207024e-05,5.068494241335042e-05,-6.991171510797146e-05,0.00014890065351449134
0.30303030303030304,7.898734177215189,4.513810336632747e-05,0.00020681036503081575,-0.00020899649749418057,-7.558454051914297e-05,0.00040805827490715676
0.40404040404040403,7.898734177215189,0.00010007567459612937,4.565415165798736e-05,5.1647411685510195e-05,-4.371894787623502e-05,0.00012463120630737523
0.5050505050505051,7.898734177215189,2.550427201018995e-05,2.6508030570773185e-05,-1.910627236142395e-05,-1.560369077428894e-05,4.2097796664743784e-05
0.6060606060606061,7.898734177215189,3.413918019081428e-05,3.334807818837454e-05,-9.034208301800695e-05,-2.0246177513756643e-05,0.00016007553774629628
0.7070707070707071,7.898734177215189,-5.369024806341336e-05,0.0001388964985502077,3.269123828094285e-05,-2.55618751460383e-05,0.0001812137375861528
0.8080808080808081,7.898734177215189,5.951112797362151e-05,-2.447223414771864e-05,-5.290730453994982e-05,-1.0511668147770861e-05,0.00011829785913569112
0.9090909090909091,7.898734177215189,6.741960615684653e-05,7.64893588608505e-05,6.87179493035161e-05,-4.317268950530911e-05,0.00013930402913463004
1.0101010101010102,7.898734177215189,-1.3081753388330195e-05,-7.30099899934981e-05,-6.241829429749329e-06,2.5827523014548485e-05,6.828889756376682e-05
1.1111111111111112,7.898734177215189,1.6397559227041955e-05,3.45074733355148e-06,2.0725764326418006e-06,-5.95449196817803e-06,1.539774305514677e-05
1.2121212121212122,7.898734177215189,5.2420791109895417e-05,3.817982971178653e-05,4.1651127466875764e-05,-2.718018624650458e-05,8.60736377601247e-05
1.3131313131313131,7.898734177215189,-7.895056770307248e-05,0.00015812619366519504,4.195950223854181e-05,-2.375268778863677e-05,0.0002213662971334885
1.4141414141414141,7.898734177215189,-2.8643649705202585e-05,0.00013673286378660366,-2.3375975407224956e-05,-3.242676422442032e-05,0.00015834194529539694
1.5151515151515151,7.898734177215189,-6.358543439991256e-05,-0.0001121048322914574,-5.2467155282356044e-06,5.270708000741099e-05,9.780056494132535e-05
1.6161616161616161,7.898734177215189,0.00017190331232757632,4.4591537215328944e-05,9.593259134263185e-05,-6.494845486287157e-05,0.00022689845146334098
1.7171717171717171,7.898734177215189,-5.54381716094992e-05,-0.00014131791517664076,8.128250304093231e-05,5.902682603584198e-05,0.00018716376008729563
1.8181818181818181,7.898734177215189,4.561831486189734e-05,2.6239955479817425e-05,-2.4927255969518497e-05,-2.155748110251443e-05,5.862292754452997e-05
1.9191919191919191,7.898734177215189,5.5316528322662884e-05,-7.583704563692131e-05,-3.567168479815794e-05,6.156155194277528e-06,0.00012970591801651798
2.0202020202020203,7.898734177215189,-3.928991950445547e-05,-4.480029143106265e-05,-3.4387640715839015e-05,2.5227063280655436e-05,7.306225800560112e-05
2.121212121212121,7.898734177215189,-8.919825932190291e-05,0.00021465213336091364,5.352439771176602e-05,-3.763616221170322e-05,0.0002859598711868455
2.2222222222222223,7.898734177215189,5.869804664869384e-05,4.4239513799279606e-05,0.00010451549385913368,-3.0881268134392034e-05,0.00018861677440439669
2.323232323232323,7.898734177215189,5.746843570606164e-05,-2.665837522315115e-06,-5.812897610656864e-05,-1.6440779455123958e-05,0.0001166184500584928
2.4242424242424243,7.898734177215189,-5.519251995472692e-05,0.00030819716088607114,9.371246231909226e-05,-7.590139227940326e-05,0.00037601590255081533
2.525252525252525,7.898734177215189,4.3380049901508044e-05,6.951391476379177e-05,-9.408759501055376e-06,-3.3868189399589946e-05,6.296086284342577e-05
2.6262626262626263,7.898734177215189,-6.54484467700976e-05,-1.2756537922255077e-05,6.501708546197328e-05,2.3461495407705803e-05,0.00012764402476071255
2.727272727272727,7.898734177215189,-0.00015783502509193268,-6.518700403907724e-05,-9.181439551981632e-06,6.690660873930297e-05,0.0001382944131913003
2.8282828282828283,7.898734177215189,2.387286358952963e-05,6.657183530200887e-05,-5.793861458782806e-05,-2.713340966746155e-05,0.0001161168020117814
2.929292929292929,7.898734177215189,9.666012811973712e-05,-0.00013703401288163095,2.0819864787366295e-05,1.2112165428568146e-05,0.00020656143542723503
3.0303030303030303,7.898734177215189,4.417116878802295e-05,0.00021833366449762655,5.781321401890041e-05,-7.875144998569486e-05,0.0002236151408201499
3.131313131313131,7.898734177215189,7.05883651685072e-05,7.07487822477505e-06,-1.650679084196413e-05,-2.3298973017984676e-05,7.314909119808549e-05
3.2323232323232323,7.898734177215189,0.00010753553183046048,4.9685526642478456e-05,4.4977431603906125e-05,-4.7166317541881673e-05,0.00012148452861610462
3.3333333333333335,7.898734177215189,-4.450315924270143e-05,0.000126982303955116,-8.860835472571529e-05,-2.4743743413724372e-05,0.00021750970547505444
3.4343434343434343,7.898734177215189,0.00013957465854920982,0.00013051948227647437,-3.0500585306785403e-05,-8.102824224770525e-05,0.00014522419048580834
3.5353535353535355,7.898734177215189,-4.196500993215809e-05,7.149822605885195e-05,-3.812018964581537e-05,-8.859964838008157e-06,0.0001193018387568231
3.6363636363636362,7.898734177215189,-9.916267352842217e-05,6.034205527750554e-07,-4.809330380825566e-06,2.9567775892694135e-05,9.98139554825823e-05
3.7373737373737375,7.898734177215189,3.581425964857223e-05,-0.00012278245258619657,-6.86287548954651e-05,2.6090457881287298e-05,0.00018677599548649976
3.8383838383838382,7.898734177215189,0.00021993308854196357,-3.8088923456259335e-05,-2.988597554704125e-05,-5.455324952571127e-05,0.0002467343889769575
3.9393939393939394,7.898734177215189,2.1898031996274383e-05,2.5525537980248065e-05,-1.993197010597596e-05,-1.4227070992956735e-05,4.199962076012011e-05
4.040404040404041,7.898734177215189,-2.418561742648466e-05,0.00016006303753607028,3.9306134027175296e-05,-4.076322603287568e-05,0.00018630958102585325
4.141414141414141,7.898734177215189,0.0002177803214644221,5.309815550640582e-05,5.449936735400115e-05,-8.126354309124838e-05,0.00021816161964455537
4.242424242424242,7.898734177215189,-0.0001422469958166334,-0.00010149965285622864,-7.5999462008887745e-06,7.312399460185861e-05,0.00012756035512780512
4.343434343434343,7.898734177215189,-3.476291719112621e-05,0.0001115854119661855,1.546098948157917e-06,-2.3046748432517786e-05,0.00013246120291274396
4.444444444444445,7.898734177215189,5.1342543128043005e-05,6.086373857067848e-06,-7.670274648463399e-06,-1.7228675095533256e-05,5.036973405609401e-05
4.545454545454545,7.898734177215189,0.00015682087277902506,-0.00013966176343353095,6.405490749813958e-05,-5.1477328036482305e-06,0.0002798377520346896
4.646464646464646,7.898734177215189,-3.9652084901178785e-05,0.0001230171864965346,2.9562054970725277e-05,-2.5009530478606748e-05,0.00015558004118804811
4.747474747474747,7.898734177215189,4.5728156890644715e-05,-2.1375023203971823e-05,9.71005673474256e-05,-7.305940106001867e-06,0.00017835626398244038
4.848484848484849,7.898734177215189,1.4823327889817084e-05,6.052981856958765e-05,1.2097833004912166e-05,-2.2605943937821422e-05,5.852699657655702e-05
4.94949494949495,7.898734177215189,2.6383896638767396e-05,-0.0001805440472215719,-6.755672725087034e-05,4.624804517484135e-05,0.0002274806643655115
5.05050505050505,7.898734177215189,-0.00011985857320727832,-8.324021077423737e-05,2.4824306946109014e-05,6.0929635194454705e-05,0.00011474622438326527
5.151515151515151,7.898734177215189,-1.1707945148811087e-05,0.0001430334186020018,-6.194724227698638e-05,-3.9397642035957204e-05,0.0001838005568903238
5.252525252525253,7.898734177215189,-0.0001441461436186974,-0.00010851184792956436,-3.1237866789179236e-05,7.579739746447853e-05,0.00014085020557266263
5.353535353535354,7.898734177215189,4.951399258949533e-06,-4.788945554892658e-05,3.0001653819706517e-06,1.2881416886993114e-05,5.0813768794177404e-05
5.454545454545454,7.898734177215189,-0.0001464279342698447,-1.5150114997634335e-05,1.3995628990878742e-05,4.847341478024371e-05,0.00014156234940291252
5.555555555555555,7.898734177215189,0.00022916478962929713,-5.1482810201135436e-05,-1.4466767944470752e-05,-5.33045938284485e-05,0.00025998632665121424
5.656565656565657,7.898734177215189,0.00011810015127779457,3.526133797186959e-05,-1.5839246269618052e-06,-4.6008446774899246e-05,0.00010504363279295332
5.757575757575758,7.898734177215189,-7.016767613873244e-05,0.00012385002415458965,-4.5835091224739335e-05,-1.6104704404757163e-05,0.00018776359179882677
5.858585858585858,7.898734177215189,-0.00010911165544604017,0.00017496858894284172,4.8723468974886324e-05,-1.9757080049040463e-05,0.0002621686521082866
5.959595959595959,7.898734177215189,0.00011806075576145584,-4.0483883963355617e-05,2.9535843003105735e-05,-2.327306153943007e-05,0.00015157157686819037
6.0606060606060606,7.898734177215189,9.037460228208045e-05,2.5361796821456012e-05,2.05437322957019e-05,-3.472091973106094e-05,8.823186490532439e-05
6.161616161616162,7.898734177215189,9.749170629655329e-05,-2.3647147533284826e-05,-4.2230711578875996e-05,-2.2153367628980537e-05,0.00013311468794432584
6.262626262626262,7.898734177215189,5.700238813387743e-05,-6.65063076151849e-06,-5.501108901499135e-05,-1.5105527211707681e-05,0.00011292149805214396
6.363636363636363,7.898734177215189,-3.8273664835146684e-05,1.354042720724841e-05,3.923202507481793e-05,7.419971288369482e-06,8.236451745707183e-05
6.4646464646464645,7.898734177215189,2.046541944147753e-05,7.662348591713024e-05,6.72496935952209e-05,-2.912667160758233e-05,0.00013523839719029255
6.565656565656566,7.898734177215189,-0.00012790009579271802,-0.00012806704329506815,3.6594066115726164e-05,7.679014172633584e-05,0.00014281873827143388
6.666666666666667,7.898734177215189,-0.00010009224166441887,7.819380404062126e-05,6.11168345082364e-05,6.569531287139281e-06,0.00018752366075609512
6.767676767676767,7.898734177215189,5.287187721075953e-06,0.0001349279082868099,-4.29207228051186e-05,-4.206452880236575e-05,0.00015181130045905237
6.8686868686868685,7.898734177215189,-6.759288917137651e-05,-0.00015052126968947301,2.6854386971386098e-05,6.543424765825486e-05,0.00013861730806157102
6.96969696969697,7.898734177215189,0.00013756378611251801,-0.000171193307238879,-6.82167111130539e-05,1.0088856337908292e-05,0.0002928164992262989
7.070707070707071,7.898734177215189,-4.2600866759424886e-05,-0.00010741510768797108,-6.0398569701017217e-05,4.500479233421879e-05,0.00014043085196456677
7.171717171717171,7.898734177215189,1.7170667424153544e-06,0.0001674970650461416,0.00010616356396948093,-5.0764239536567086e-05,0.00024815865574573983
7.2727272727272725,7.898734177215189,7.772599141016472e-05,-2.1374741404456592e-05,0.00010109435730122123,-1.6905375001712437e-05,0.00019702738264525222
7.373737373737374,7.898734177215189,1.0987249730637572e-05,2.6810732279267205e-05,-1.3646920226418591e-05,-1.1339394602971434e-05,3.3221590960985895e-05
7.474747474747475,7.898734177215189,4.4065928135477205e-05,0.0001303818361144157,0.00011539578375474329,-5.233432927496787e-05,0.00023053067760220636
7.575757575757575,7.898734177215189,-0.00017952401135974536,-0.0001736496598927954,3.3358077916799336e-05,0.00010595210137576223,0.00018586843628566184
7.6767676767676765,7.898734177215189,3.9527122604532344e-05,0.00010009399040264838,4.7823577012962055e-05,-4.1886333902154215e-05,0.00012035803446567649
7.777777777777778,7.898734177215189,-0.00019004586261738552,-9.347684866468697e-05,-1.778996119220854e-05,8.505681338462175e-05,0.00016745121962139477
7.878787878787879,7.898734177215189,0.0002157174631334705,5.0320842379128745e-06,3.1055724916899085e-05,-6.6224864211415e-05,0.00021992546800401146
7.979797979797979,7.898734177215189,1.5033205622103777e-05,-2.3554758769160952e-06,-4.474561539270073e-05,-3.8033189235563048e-06,7.920521562178377e-05
8.080808080808081,7.898734177215189,7.354503946587686e-05,0.00010766684895476869,-7.658585105038971e-07,-5.436356652619367e-05,9.531222458906112e-05
8.181818181818182,7.898734177215189,3.6475424040763344e-05,0.00019431829298583423,2.9014229898187944e-05,-6.923811510797926e-05,0.00018581628029346923
8.282828282828282,7.898734177215189,5.890889893202548e-05,2.947732832517184e-05,-2.498184786334206e-06,-2.6515868177159195e-05,5.1199776221775674e-05
8.383838383838384,7.898734177215189,7.815857466074037e-05,9.714338587319825e-05,2.9029664324999406e-05,-5.2590588160181586e-05,0.00010237761409022275
8.484848484848484,7.898734177215189,8.959174286502834e-05,-5.631211907450706e-05,-3.091954767956026e-05,-9.983887137156383e-06,0.00013824214741781435
8.585858585858587,7.898734177215189,-4.7678542429564956e-05,-0.00020762271752653181,7.075779740486098e-06,7.659037798682904e-05,0.0001887630463602109
8.686868686868687,7.898734177215189,-0.0001224517851755188,-2.7493581017269787e-05,2.9619688334577405e-05,4.498360985783657e-05,0.00012253846916174792
8.787878787878787,7.898734177215189,0.0001764389142199036,-7.938819280684623e-05,-7.2230249952453756e-06,-2.9115216423917207e-05,0.00022714941870760228
8.88888888888889,7.898734177215189,-0.00010410862472716636,2.4561459466685284e-05,-3.432160984907918e-05,2.3864149578144322e-05,0.00013241166681218634
8.98989898989899,7.898734177215189,-1.0505219290435206e-05,-0.0001030220866641215,8.938501886215649e-05,3.405819178636701e-05,0.00018333217162235681
9.09090909090909,7.898734177215189,-5.572645841383498e-05,8.45262446522229e-05,-7.005033024347038e-05,-8.639935871516376e-06,0.00017228354176038942
9.191919191919192,7.898734177215189,-0.0001539629713017045,-9.905784527931866e-05,1.1668230285231752e-05,7.590624497430695e-05,0.00013665378094824195
9.292929292929292,7.898734177215189,0.00010795524100845666,1.9784712689107666e-05,-0.0001152967600943235,-3.8321986109269295e-05,0.00022313658184056862
9.393939393939394,7.898734177215189,-2.5603572322526036e-05,-7.356149156846022e-05,-5.542409976309806e-05,2.9749519167295874e-05,0.0001157535809017373
9.494949494949495,7.898734177215189,0.00010508654314233883,-7.625781930185658e-05,-5.919029947188023e-05,-8.648617152144675e-06,0.00018810258325445474
9.595959595959595,7.898734177215189,8.230708975170322e-05,-0.00011158915751868693,-5.929952805328501e-07,8.784620330095113e-06,0.0001685592798766682
9.696969696969697,7.898734177215189,3.063249742653168e-05,9.572941771899606e-05,2.7258903797841982e-05,-3.790857454365832e-05,9.694938721964155e-05
9.797979797979798,7.898734177215189,1.539913980343773e-05,-7.560271011354701e-05,5.995567659926019e-05,1.8061071093032786e-05,0.0001337952519904251
9.8989898989899,7.898734177215189,-5.100293839798319e-05,-0.00014483471269145215,-3.178000937996692e-05,5.87512953268306e-05,0.0001386409203118783
10.0,7.898734177215189,0.0001384126731091494,-9.723937579018702e-05,-8.863974828450177e-06,-1.2351989195688712e-05,0.000205690146495034
0.0,8.0,-5.010010601162945e-05,-0.00018854913518613964,2.3738562145394912e-05,7.159477235933073e-05,0.0001740833804209447
0.10101010101010101,8.0,-3.398411604963689e-05,8.760575293973482e-05,7.227041340470446e-05,-1.6086491067029378e-05,0.0001657586502339877
0.20202020202020202,8.0,-5.552284381133373e-05,-4.255900007942564e-05,0.00010426684367972166,2.9424553167227808e-05,0.000187472083338497
0.30303030303030304,8.0,0.00010330937707056029,0.00011117259948586611,-1.1366708357309105e-05,-6.434459296692793e-05,0.0001092456335218605
0.40404040404040403,8.0,0.00024163100098071398,6.734144855510687e-05,5.59632206848048e-06,-9.269173486074625e-05,0.0002162003380401212
0.5050505050505051,8.0,5.3941076784969005e-05,2.7631310322198954e-05,6.13662816418812e-05,-2.4471716132150386e-05,0.00011610395346729841
0.6060606060606061,8.0,8.88592571341901e-05,-8.368025397550889e-05,-4.826389833718602e-05,-1.5537009476043644e-06,0.00017123763995400236
0.7070707070707071,8.0,8.5955214541254e-05,-0.0001664719497240669,3.5951446518965664e-05,2.415502055484387e-05,0.00023084163538195708
0.8080808080808081,8.0,-0.00015823532253686118,8.001640959651507e-05,3.518106424765619e-05,2.3465673882103832e-05,0.00021866775557589888
0.9090909090909091,8.0,0.00012155404964810309,4.056912283175105e-06,7.564511106389195e-05,-3.768328857938346e-05,0.00017738449732049717
1.0101010101010102,8.0,7.743708075041322e-05,-1.443686642220856e-05,1.6510371829622613e-05,-1.8900064298461394e-05,9.022555354230525e-05
1.1111111111111112,8.0,6.285180985759049e-05,6.875455179929887e-05,3.283015702030863e-05,-3.948190849706681e-05,8.711858589817762e-05
1.2121212121212122,8.0,8.040865504396816e-05,-5.769345346874932e-05,-2.9230392189576435e-05,-6.814560472565652e-06,0.00013037019160860297
1.3131313131313131,8.0,-1.627447511948853e-05,0.00011971818610205692,-9.306005047713612e-05,-3.103311329477052e-05,0.00020621874854016346
1.4141414141414141,8.0,0.0001079651492147478,0.0001200385397019006,-3.4086611013071124e-05,-6.840110667499452e-05,0.00012880775116180183
1.5151515151515151,8.0,-0.00013700007547033947,-9.398665157773577e-05,-3.0439379766382174e-05,6.929601811442257e-05,0.00013231024342810811
1.6161616161616161,8.0,0.0001270871413783451,-2.8004889703954073e-05,3.4098268873622454e-05,-2.9724675502317306e-05,0.00015486301220328576
1.7171717171717171,8.0,0.0001816633353108243,-1.9467145959529065e-05,5.3646858664308596e-05,-4.8658856805388575e-05,0.0002134267091197777
1.8181818181818181,8.0,-3.453133960570647e-05,1.1690876121549763e-05,3.1748742696502404e-05,6.852139045247012e-06,6.896912063758446e-05
1.9191919191919191,8.0,3.112962546295589e-05,6.24674648715405e-05,-8.199139331904508e-05,-2.8079127100348916e-05,0.00015196846613381573
2.0202020202020203,8.0,-0.00010167767759669759,-1.6139310913958678e-05,1.6849519487183125e-06,3.534509655319688e-05,9.469074408674547e-05
2.121212121212121,8.0,-7.107821791487623e-05,2.7087015871454036e-05,8.130116029458244e-05,1.319736061302666e-05,0.00016595406684768568
2.2222222222222223,8.0,-3.4845464792562805e-05,-2.0940459168924148e-05,5.578014042006571e-05,1.6735777188446085e-05,0.00010127833633088082
2.323232323232323,8.0,-6.9199087947418805e-06,0.0001339135917668618,2.5931076004361716e-05,-3.809810489163597e-05,0.00014465361090295738
2.4242424242424243,8.0,-7.03070609869752e-05,-5.015962964542613e-05,-8.589632637331118e-05,3.614000718972039e-05,0.0001614528779041076
2.525252525252525,8.0,-3.0078797554755768e-05,5.727839176466105e-05,-9.338902436354793e-06,-8.159878262971585e-06,7.854972101659217e-05
2.6262626262626263,8.0,-4.9387473963880785e-06,-4.707174548957135e-05,-3.0035546581683993e-05,1.5603147865787827e-05,6.865906469055469e-05
2.727272727272727,8.0,-0.0001232807056546528,-0.0001510838500096741,-5.228497641231377e-05,8.230936669929806e-05,0.0001661321605034652
2.8282828282828283,8.0,0.00010316226773475624,4.303111279546872e-05,-1.3460667712017406e-05,-4.3858014159067486e-05,9.272816022775004e-05
2.929292929292929,8.0,0.00017524910190743314,-0.00011908252421285018,5.254701662092174e-05,-1.6849973308374886e-05,0.00027211315216416196
3.0303030303030303,8.0,8.405027629497743e-05,3.940574438157863e-05,-3.514522198516119e-05,-3.703680620296681e-05,9.492501155020311e-05
3.131313131313131,8.0,7.280553064341453e-06,8.006855590673517e-05,9.985382441783698e-06,-2.6204732691322986e-05,7.861399567109242e-05
3.2323232323232323,8.0,6.345598905224815e-05,-0.00010011581000675218,-8.158982269750646e-06,1.099794628635121e-05,0.00014353568433907602
3.3333333333333335,8.0,8.792932550064595e-06,0.00011678827113935854,-8.486240816497055e-05,-3.767436110682694e-05,0.00018518852422992483
3.4343434343434343,8.0,-8.904157847276321e-06,1.1583180326009806e-05,4.959045894241185e-05,-8.037067436200456e-07,8.771677954523545e-05
3.5353535353535355,8.0,-0.00012947138380917529,-1.3429187575968746e-05,-4.206078882491884e-05,4.287017141554321e-05,0.00014321947030778646
3.6363636363636362,8.0,-3.536753349413245e-05,-6.264592220376375e-05,-7.92994643846075e-05,2.940403670936886e-05,0.00014773272283912954
3.7373737373737375,8.0,6.0430996929064775e-05,-0.00012057461891028685,1.648264928071003e-05,1.804308659436662e-05,0.00016214691400771373
3.8383838383838382,8.0,9.011882202278602e-06,-8.39640713090429e-07,7.579747762315825e-05,-2.4516724467564516e-06,0.00013162544815746292
3.9393939393939394,8.0,-4.33782824083741e-05,-1.300899463933041e-05,-3.434709624248558e-05,1.691618311431135e-05,7.089266918225457e-05
4.040404040404041,8.0,-5.6637169407414624e-05,5.5077962285903496e-05,3.5059501441325634e-05,4.677621364533383e-07,0.00011422922871400491
4.141414141414141,8.0,7.630079417936868e-05,0.00015696432206531658,2.0766084381224383e-05,-6.997953487340558e-05,0.00014063000371187276
4.242424242424242,8.0,-4.383057353627057e-05,5.1204984368088574e-05,5.283694102971276e-05,-2.2123232495454006e-06,0.00012313667384478006
4.343434343434343,8.0,-5.574456185703717e-05,-5.966550930643338e-05,2.770161248920709e-05,3.4623021349041164e-05,7.512349503764859e-05
4.444444444444445,8.0,7.41053973279641e-05,9.879680381108625e-05,2.1556518125403957e-06,-5.18706603417151e-05,8.913463108959927e-05
4.545454545454545,8.0,-0.00015347236303722036,0.00013472754831272407,2.2194498794193918e-05,5.623444417348887e-06,0.00025270540363539365
4.646464646464646,8.0,-3.886401656730906e-05,-7.0320891922866975e-06,-6.230313023017036e-05,1.3768831727878726e-05,0.00011371722358865972
4.747474747474747,8.0,5.78331388229141e-05,7.654747996214124e-05,-2.02001606492489e-05,-4.03141856355166e-05,7.746836173714086e-05
4.848484848484849,8.0,-5.0557509368861825e-05,-1.1656402217332823e-05,2.3412624616730468e-05,1.8664173475858393e-05,6.121329738101491e-05
4.94949494949495,8.0,2.0772854948674912e-05,0.00015745530702982873,-2.297617879672876e-05,-5.346844859355109e-05,0.00015341643763640308
5.05050505050505,8.0,-3.452786898772826e-05,-1.4022460622389441e-05,1.3793428972770617e-05,1.456509888303531e-05,3.841111172519421e-05
5.151515151515151,8.0,0.0001517017162198354,-0.00010056162384399941,0.00011403495944134815,-1.53420277127508e-05,0.00029562364205446
5.252525252525253,8.0,3.0661904572447e-05,0.00011773208203303351,0.00010924140560187348,-4.451819598164415e-05,0.00021677675096986186
5.353535353535354,8.0,-9.647373497675404e-05,-1.6727033731159702e-05,3.502364134135511e-05,3.396023061237412e-05,0.00010795009095459273
5.454545454545454,8.0,9.590491836797725e-05,9.737080828643859e-05,-1.7221282527954902e-05,-5.798271799632476e-05,0.0001011444806655847
5.555555555555555,8.0,-5.3739072545381975e-05,-9.168887475082815e-05,-2.7479009133907835e-05,4.362838418886303e-05,9.291259553050842e-05
5.656565656565657,8.0,3.0370757270346167e-05,9.154092332921449e-06,-2.8730247608331755e-05,-1.1857454880980285e-05,5.6607817218548524e-05
5.757575757575758,8.0,8.170155555642543e-05,1.3748390615882348e-05,-5.15247563024194e-05,-2.8634983851692333e-05,0.00011706963338638558
5.858585858585858,8.0,-7.049683560500943e-05,-3.6619878704950256e-06,-4.123403411470237e-05,2.2247647042651333e-05,9.912513372856991e-05
5.959595959595959,8.0,4.631169001082188e-06,-0.00015863055222969862,-4.035902163885578e-06,4.619981496858493e-05,0.0001611477900622774
6.0606060606060606,8.0,-0.0001064347682936621,-0.00013423233337963642,-6.514328958592846e-05,7.220013050198957e-05,0.00016670523824918217
6.161616161616162,8.0,-6.845583088252884e-05,-0.00010274827191759304,-7.396538321132677e-05,5.136123084003656e-05,0.00015691502024599638
6.262626262626262,8.0,6.478971981199465e-06,-0.00021159830718654038,-7.102527168907866e-05,6.153580056160227e-05,0.00024762982017761075
6.363636363636363,8.0,-4.5731717244316646e-05,-0.00011459526032208122,-1.5044638094212533e-05,4.8098093269919355e-05,0.00010325622990390898
6.4646464646464645,8.0,2.8990302018295496e-05,-1.4905442562450034e-05,3.301756473452348e-05,-4.225457836753639e-06,6.903044150004847e-05
6.565656565656566,8.0,-0.00022018986425316638,-1.0297946235052613e-05,-5.9807538789398376e-05,6.91463431464657e-05,0.00023885758460019937
6.666666666666667,8.0,-2.624389756227032e-05,-0.00015678400219283707,1.7660012629187078e-05,5.490836992653221e-05,0.00014863031436453345
6.767676767676767,8.0,-2.013780620543122e-05,-3.478271454557193e-05,1.996859460741742e-05,1.6476156225300945e-05,4.594730913660586e-05
6.8686868686868685,8.0,-1.8892747610731566e-05,4.5260819626181463e-05,9.180157969549664e-06,-7.91042160463497e-06,5.927398120935093e-05
6.96969696969697,8.0,-2.1650802214364284e-05,-3.2102820354082115e-05,-1.2001850952998935e-05,1.612608677053392e-05,3.516290340822974e-05
7.070707070707071,8.0,-0.00014163413943041493,-1.274767403896075e-05,-4.090885149760892e-05,4.631454404081271e-05,0.00015309418406951462
7.171717171717171,8.0,0.00015461363636172067,0.00017609484959072713,-2.281793839682384e-05,-9.921254578573434e-05,0.00017102655495456362
7.2727272727272725,8.0,8.091107623738703e-05,-1.4573375171072468e-05,-7.013400726452233e-05,-1.990131031989437e-05,0.00015064683838770726
7.373737373737374,8.0,3.9485675288338904e-05,-2.167579674097037e-06,2.777070046543022e-05,-1.119542868427256e-05,6.295268631928771e-05
7.474747474747475,8.0,0.0001701082234505788,-2.0493743875116182e-06,-3.52641669309824e-05,-5.0417654718920153e-05,0.00018171490710766007
7.575757575757575,8.0,-0.00010658351161164681,0.00011012294721824648,-1.7707346139736226e-06,-1.0618306819799004e-06,0.0001877067004085546
7.6767676767676765,8.0,-0.00010434005580236644,3.817350617784513e-05,-5.064793620853665e-05,1.9849964887356394e-05,0.0001549926769562719
7.777777777777778,8.0,0.00013670011579493862,-0.00014071513662094226,5.0183595009771035e-06,1.2045062478010907e-06,0.00024041422295493798
7.878787878787879,8.0,0.00028670720398715673,2.701794871536662e-05,5.481229956334534e-06,-9.4117545810757e-05,0.0002743626823800401
7.979797979797979,8.0,8.605999802398185e-05,0.0001900416342326583,5.7998234457024266e-05,-8.283048967699203e-05,0.00019302473658981185
8.080808080808081,8.0,0.00015882143834018082,7.407525329669312e-07,-3.392938522864383e-05,-4.786865726194432e-05,0.0001689992903949604
8.181818181818182,8.0,-0.00020287111574837608,0.00019942578392165888,-3.3312684407750744e-05,1.0335995480151615e-06,0.00035314907478045573
8.282828282828282,8.0,-4.480874041660578e-05,2.871165104765618e-05,7.582806515628211e-05,4.829126810684881e-06,0.00014617934682563
8.383838383838384,8.0,7.043817870355332e-05,5.9251441196616254e-05,3.180421436724208e-05,-3.8906885970050873e-05,8.563428550558421e-05
8.484848484848484,8.0,-0.0001235650588763173,6.927370035476168e-05,2.1405755024988927e-05,1.6287407556466686e-05,0.00017320969154015336
8.585858585858587,8.0,0.00011493266022947502,6.077242258047012e-05,5.133046991434853e-07,-5.271152484298354e-05,9.959346355611107e-05
8.686868686868687,8.0,2.6854064311664827e-05,-3.130527223888385e-05,8.309581251419505e-05,1.335362378165706e-06,0.0001525010714919262
8.787878787878787,8.0,8.171589535135045e-05,-6.424357216270753e-05,1.054269551745589e-05,-5.241696956592875e-06,0.00012801519606462337
8.88888888888889,8.0,-5.396243794377879e-06,4.8905972474840164e-05,7.229593170333412e-05,-1.3052918604138685e-05,0.00013551725854603545
8.98989898989899,8.0,4.736783886843312e-05,6.557226170187543e-06,-5.099073275342481e-05,-1.61775195115862e-05,9.88750333585435e-05
9.09090909090909,8.0,-0.00017227697205051196,2.6514556292880044e-05,5.247368578587504e-05,4.3728724727289566e-05,0.00020787180512894392
9.191919191919192,8.0,8.237896017117348e-05,-0.00013379063959505883,-6.182297856445835e-05,1.5423503827165607e-05,0.0002171957737350345
9.292929292929292,8.0,-6.580586832446678e-05,-6.376591364794938e-06,-7.58151272400462e-05,2.1654737906778517e-05,0.00014558590813307858
9.393939393939394,8.0,2.1200714589813476e-05,-0.000233554653541992,-1.8111731719700845e-05,6.370618168565356e-05,0.0002468458557860845
9.494949494949495,8.0,-7.180991445446242e-05,7.209945100555975e-05,-7.501939834482483e-05,-8.68609653291994e-08,0.00018004494006286815
9.595959595959595,8.0,1.4134770392509152e-05,2.9567071154811677e-05,2.756511528641913e-05,-1.3110552464196249e-05,5.4181052140311364e-05
9.696969696969697,8.0,-1.046802746881625e-05,0.0001632272938070713,4.906522408588028e-05,-4.5827779901476516e-05,0.0001889009938610535
9.797979797979798,8.0,-1.3424760566093697e-06,7.17734628102965e-06,3.7591947612416886e-05,-1.7504610673260839e-06,6.55928009237046e-05
9.8989898989899,8.0,-0.00016721844755819798,-0.00023426426243479943,1.9989025320184157e-06,0.00012044481299789923,0.0002089986469075302
10.0,8.0,0.00019447981346820413,9.181798238379168e-05,-0.00010152811802417723,-8.588933875559874e-05,0.0002435571224522594
