x_mm,y_mm,E_xx,E_yy,E_xy,E_zz,von_mises
0.0,0.0,0.012183646429947995,0.011078523209019763,9.383489770417036e-06,-0.006978650891690328,0.011670405786764454
0.10101010101010101,0.0,0.012217546077569053,0.010979428461935333,-7.228987327267618e-05,-0.006959092361851316,0.01164861733625686
0.20202020202020202,0.0,0.011832842577866666,0.010773332757387004,1.324526161967623e-05,-0.0067818526005761015,0.011340292673811096
0.30303030303030304,0.0,0.011924556426473977,0.01073067185626009,-4.021468874434917e-05,-0.006796568484820219,0.011374916002965337
0.40404040404040403,0.0,0.011853370104776035,0.010606075354407444,-6.229519867982811e-05,-0.006737833637755043,0.011282070856211097
0.5050505050505051,0.0,0.011691732642130196,0.010538618926673132,5.870044851688538e-05,-0.006669105470640997,0.011160408745950964
0.6060606060606061,0.0,0.011665298671319286,0.010480366349509784,-0.0001027073557627799,-0.00664369950624872,0.01112170466528976
0.7070707070707071,0.0,0.011424034005282762,0.010399885810129064,2.1105714481771536e-05,-0.0065471759446235475,0.010948007354087777
0.8080808080808081,0.0,0.011269376917668746,0.010181071841422818,-3.737486981611295e-05,-0.006435134627727469,0.010766751347947138
0.9090909090909091,0.0,0.011351507021187816,0.010304475800190739,-4.022130646933762e-05,-0.006496794846413565,0.010866115084691035
1.0101010101010102,0.0,0.011463266624849484,0.01014693909774026,-5.594193808378146e-05,-0.0064830617167769234,0.010865503898275564
1.1111111111111112,0.0,0.011093468640831949,0.009862349916804845,-2.7318168894102977e-06,-0.006286745567291038,0.01053201525008898
1.2121212121212122,0.0,0.011069104141411679,0.009990025543754692,-4.448878160381489e-05,-0.006317738905549911,0.010571233678912346
1.3131313131313131,0.0,0.010858257292061099,0.009726591698341405,-3.5119067987398494e-05,-0.006175454697120751,0.010339158684256392
1.4141414141414141,0.0,0.010800445496952473,0.009678891896393475,2.285269668322656e-05,-0.006143801218003783,0.01028570822131644
1.5151515151515151,0.0,0.010841161114186183,0.009704279786912384,-6.70786945794871e-05,-0.006163632270329571,0.010320448559687743
1.6161616161616161,0.0,0.01070318770816723,0.009640609129451874,6.663081712477784e-05,-0.0061031390512857305,0.01021409033477338
1.7171717171717171,0.0,0.010815002095073023,0.009507728885874074,1.3645633028699411e-05,-0.006096819294284129,0.010224266705906395
1.8181818181818181,0.0,0.010664996647692394,0.009513841579737005,4.1935795962232666e-05,-0.00605365146822882,0.01013881267101824
1.9191919191919191,0.0,0.010696716225682943,0.009491697110485317,5.641974368233297e-05,-0.006056524000850478,0.010148478266292903
2.0202020202020203,0.0,0.010590159107126879,0.009409744255962894,4.646367763841925e-06,-0.005999971008926932,0.010052071070932048
2.121212121212121,0.0,0.010567748991712818,0.009553574374258612,6.753104783514114e-05,-0.006036397009791429,0.01009960432109983
2.2222222222222223,0.0,0.010605949495548574,0.00953689538972193,-5.541717207977906e-05,-0.006042853465581151,0.010114342327496612
2.323232323232323,0.0,0.010394290567222643,0.009085429415805087,7.061031791085517e-05,-0.005843915994908318,0.009806358561695898
2.4242424242424243,0.0,0.010299493695042254,0.009370025273415815,-5.328683732115525e-06,-0.00590085569053742,0.009867649819351338
2.525252525252525,0.0,0.010348499922133016,0.009222199843002911,-3.044011215991854e-05,-0.005871209929540778,0.00983398525658566
2.6262626262626263,0.0,0.010208561332342202,0.00916275087581969,3.851357693785273e-05,-0.005811393662448567,0.009728138243599081
2.727272727272727,0.0,0.010352909417927898,0.009298250382324253,2.323967042960657e-05,-0.005895347940075645,0.009868022592274598
2.8282828282828283,0.0,0.010171161558008719,0.00911112451761326,9.128632621487219e-05,-0.005784685822686593,0.009686041376684827
2.929292929292929,0.0,0.010254053197079182,0.009151099755617202,4.6855526999889716e-05,-0.005821545885808914,0.009749818271185429
3.0303030303030303,0.0,0.010255654357881226,0.009132539843189631,5.0412350866093725e-05,-0.005816458260321258,0.009743160804882682
3.131313131313131,0.0,0.01001345060531353,0.00911526463630761,-5.645665348451247e-05,-0.005738614572486342,0.009596434352722609
3.2323232323232323,0.0,0.010071831503943618,0.009062793463842075,1.5600786665335408e-06,-0.005740387490335708,0.009607137648163849
3.3333333333333335,0.0,0.009973443506854399,0.009181289097195221,-6.311198565196846e-05,-0.005746419781214886,0.009602527068845786
3.4343434343434343,0.0,0.010152610508473442,0.00890560002803224,3.639228494574191e-05,-0.005717463160951703,0.009590312651963043
3.5353535353535355,0.0,0.010115105501091615,0.009198297718407352,9.276725505227049e-06,-0.00579402096584969,0.009689300621584584
3.6363636363636362,0.0,0.009991181218572412,0.008844570102319123,-1.9392934357218285e-05,-0.0056507253962674595,0.009470139809013511
3.7373737373737375,0.0,0.010132934666177878,0.008776655129035908,1.1096580743653425e-05,-0.0056728769385641364,0.009527493720558333
3.8383838383838382,0.0,0.010150416837601779,0.008986387625020617,-5.865522054280121e-05,-0.005741041338786719,0.00962189511326426
3.9393939393939394,0.0,0.010110829200678816,0.008923150052020679,-2.9635461654169604e-05,-0.0057101937758098475,0.009572547343833252
4.040404040404041,0.0,0.009855668095189089,0.008874928940726794,-9.344554852987111e-05,-0.0056191791107747645,0.009405126235670998
4.141414141414141,0.0,0.009927861349399615,0.008995668073988163,-5.501711021755331e-06,-0.0056770588270163335,0.009496147665920638
4.242424242424242,0.0,0.00992392854626919,0.009082607078834577,2.5156479417297653e-06,-0.005701960687531129,0.009531158610641893
4.343434343434343,0.0,0.009875299248359599,0.008868544008156213,5.555952572347545e-05,-0.005623152976954743,0.009412881741218355
4.444444444444445,0.0,0.009951513079694904,0.008806630297826383,-2.243215686970058e-05,-0.005627443013256386,0.009431413615469378
4.545454545454545,0.0,0.00990047600377023,0.009154540698128988,5.634344173149817e-05,-0.005716505010569766,0.009549882393927404
4.646464646464646,0.0,0.009885705953856218,0.008781133092297198,-6.857089515552554e-05,-0.005600051713846025,0.009383063828068432
4.747474747474747,0.0,0.009759687720264327,0.008954207557740141,-2.2136139633379467e-05,-0.00561416858340134,0.009382991946294533
4.848484848484849,0.0,0.009889838587921428,0.00894233869067739,-1.9894342226465458e-05,-0.005649653183579645,0.009451837369483214
4.94949494949495,0.0,0.009856540159768428,0.008787003847246268,-2.9773899740067757e-05,-0.005593063202104408,0.009367818512521645
5.05050505050505,0.0,0.00992850578874618,0.008856642058378017,-6.630262931248911e-05,-0.00563554435413726,0.009439030772166125
5.151515151515151,0.0,0.009887220365073286,0.009018058482068454,-8.596415881363057e-05,-0.005671583654142521,0.009483730456207578
5.252525252525253,0.0,0.00991312448322599,0.008954774545517743,5.817720771949143e-05,-0.005660369708623119,0.009470923036037212
5.353535353535354,0.0,0.010002890486336456,0.008963325572335822,-9.972401611106433e-05,-0.005689864817601683,0.009527313049440716
5.454545454545454,0.0,0.009912026994558697,0.008905883857611306,-5.359877715330059e-05,-0.005645373255651,0.009449672148059482
5.555555555555555,0.0,0.009982931639971566,0.008955843788506482,-5.416813870622117e-05,-0.005681632628543415,0.009511534488993037
5.656565656565657,0.0,0.010245997221420562,0.008983197298477595,-1.7349644094449216e-05,-0.005768758355969447,0.009676641009953274
5.757575757575758,0.0,0.010081681998668561,0.008953651574452721,-5.394401832896559e-05,-0.0057106000719363845,0.0095681267973312
5.858585858585858,0.0,0.009945351709438593,0.009149161290342548,5.349953884901958e-05,-0.005728353899934342,0.009572571893920107
5.959595959595959,0.0,0.009723979531000843,0.00896653007366947,-2.3169313646857816e-05,-0.005607152881401094,0.00936833469898261
6.0606060606060606,0.0,0.01004344793509364,0.008974541060018043,-2.563678771777685e-05,-0.005705396698533505,0.009554049901475741
6.161616161616162,0.0,0.01018490930239865,0.009008023717334874,4.313950992952628e-05,-0.0057578799059200565,0.009650727811268611
6.262626262626262,0.0,0.009958981643792122,0.009075324803538901,2.3850227936774056e-05,-0.005710291934199307,0.009547960465007145
6.363636363636363,0.0,0.010035825442580143,0.00901148290846679,2.4294308527878767e-05,-0.0057141925053140795,0.00956497348222364
6.4646464646464645,0.0,0.009964777016224615,0.009063120058847527,9.524344752640251e-06,-0.005708369122521643,0.009545953481235046
6.565656565656566,0.0,0.010099440038798858,0.008974944101331457,-0.0001374464857455745,-0.005722315242039095,0.009589738032171717
6.666666666666667,0.0,0.010254120744808507,0.009005556043530826,-7.6138300190171e-05,-0.0057779030365018,0.009691251930480873
6.767676767676767,0.0,0.00985403463732633,0.008995155484042507,-7.80804695332558e-05,-0.005654757036410651,0.009454868417223155
6.8686868686868685,0.0,0.010077994779575394,0.009134753638095487,4.6596637997308174e-05,-0.005763824525301263,0.009641380454500898
6.96969696969697,0.0,0.010337437203809896,0.00903417405953949,-4.908049249639081e-05,-0.005811483379004816,0.009751714133229217
7.070707070707071,0.0,0.010089213174518682,0.009029820153064718,-4.160200243713184e-05,-0.005735709998275019,0.009603712105512148
7.171717171717171,0.0,0.010248104455693002,0.009128864280155843,5.783510210542207e-05,-0.005813090620754653,0.009737365556069303
7.2727272727272725,0.0,0.0103604766928343,0.00931226781027183,4.14442129047558e-06,-0.00590182335093184,0.009878174274425349
7.373737373737374,0.0,0.010275493731821891,0.00919354859184545,3.3344340536220605e-05,-0.005840712697100203,0.009779682599643198
7.474747474747475,0.0,0.010475623101997828,0.009251159015303273,-4.227995473692848e-05,-0.00591803463519033,0.009920500500694955
7.575757575757575,0.0,0.010419700139082343,0.009258013454120535,-5.1010749393279725e-05,-0.005903314077960863,0.009890553387915385
7.6767676767676765,0.0,0.010140541374309633,0.009538680651448792,-1.2336084134904012e-05,-0.0059037666077275276,0.009853429792157711
7.777777777777778,0.0,0.010420868189116788,0.00924743482721211,1.1312856745088945e-05,-0.0059004909048986694,0.009886537777141172
7.878787878787879,0.0,0.010528399051353339,0.009575200517009106,-1.648075466609774e-05,-0.006031079870508734,0.010085679666313806
7.979797979797979,0.0,0.010678226792210452,0.009528792233259423,-2.9624001412860737e-05,-0.006062105707640962,0.010152558154095338
8.080808080808081,0.0,0.01065900937161677,0.009493796918176275,1.1578674706146711e-05,-0.0060458418869379135,0.010126825395050712
8.181818181818182,0.0,0.010625085522938137,0.009450149563395124,-3.407761595862699e-05,-0.006022570525899978,0.010089232164857007
8.282828282828282,0.0,0.010816613920807953,0.009597397475755418,-3.427525180471633e-05,-0.006124203418969011,0.010261644909970747
8.383838383838384,0.0,0.010844262900380484,0.00969893515120787,-1.4727796960383708e-05,-0.006162959415476506,0.010319410303426955
8.484848484848484,0.0,0.010978176427830643,0.009847280372381124,-0.00013069739643605582,-0.00624763704006353,0.01046113533890326
8.585858585858587,0.0,0.01089903818520482,0.009894023457997178,-3.730974944541611e-05,-0.0062379184929606,0.010433099737285116
8.686868686868687,0.0,0.010932726113668812,0.009895068309446056,-7.238756651910834e-05,-0.0062483383269344595,0.01045334995593478
8.787878787878787,0.0,0.01084009172703232,0.010000434939712734,-6.47615685085127e-05,-0.006252158000023516,0.010446206859882866
8.88888888888889,0.0,0.011172872433319542,0.009991685694319347,8.142799642984425e-05,-0.006349367438291667,0.010632540774652666
8.98989898989899,0.0,0.010898901415126599,0.010039522604192445,-4.776823064183067e-06,-0.006281527205795713,0.01049563564119996
9.09090909090909,0.0,0.011393179440464526,0.01016302596983742,0.00011471582760651282,-0.006466861623090584,0.0108324482577608
9.191919191919192,0.0,0.011514469017472106,0.01030476361379785,-1.5279046930202384e-05,-0.006545769789380987,0.0109598343452332
9.292929292929292,0.0,0.01161052760037836,0.01067408162549972,-7.862718329610043e-05,-0.006685382767763424,0.011172609233624956
9.393939393939394,0.0,0.011504905077761283,0.010277705105329384,2.5460462629591635e-05,-0.0065347830549272005,0.010943125062423707
9.494949494949495,0.0,0.011718198922883533,0.010541286937188745,6.851238743601529e-05,-0.006677845758021684,0.01117694506101466
9.595959595959595,0.0,0.011848665221470725,0.01067727559981645,2.8550500295624626e-05,-0.006757782246386152,0.011308672030725973
9.696969696969697,0.0,0.011855060450337495,0.010863675806611316,3.311232858024381e-05,-0.006815620877084643,0.011391912314926506
9.797979797979798,0.0,0.012063299065836235,0.010802142256685738,9.661614752269196e-06,-0.006859632396756592,0.011484784244023598
9.8989898989899,0.0,0.012156222369552074,0.010998606821632681,2.8104436727798904e-05,-0.006946448757355427,0.01162084134707618
10.0,0.0,0.012385158398493962,0.011149314015100725,6.11115745301527e-05,-0.007060341724078406,0.011816282635632938
0.0,0.10126582278481013,0.012300450668893872,0.010891297385502189,7.002093018379007e-05,-0.0069575244163188185,0.011660544068726271
0.10101010101010101,0.10126582278481013,0.012285087274304303,0.010780954529067584,-5.49121007948389e-07,-0.006919812541011565,0.01160635099890558
0.20202020202020202,0.10126582278481013,0.012248788726392634,0.01088334242554728,-4.045027752364611e-05,-0.006939639345581974,0.01162656932559479
0.30303030303030304,0.10126582278481013,0.012003871714920311,0.01074636704407922,-2.772538974656969e-05,-0.0068250716276998585,0.011427232188394146
0.40404040404040403,0.10126582278481013,0.011687227417441453,0.010569392937821115,0.00012584916162393243,-0.00667698610657877,0.011172464673781135
0.5050505050505051,0.10126582278481013,0.011771505529610739,0.010468190346621201,-3.9968660156969537e-05,-0.006671908762869582,0.011177199268952151
0.6060606060606061,0.10126582278481013,0.011449839127498394,0.010238538092334135,5.8816377028110827e-05,-0.0065065131659497585,0.01089528532689256
0.7070707070707071,0.10126582278481013,0.011520639022667433,0.010265516065066371,-9.056060004321572e-05,-0.006535846526320141,0.010948298601726246
0.8080808080808081,0.10126582278481013,0.011484026099105385,0.010260570230683663,3.397545294470525e-05,-0.006523378898936714,0.01092396281470506
0.9090909090909091,0.10126582278481013,0.01123786399074126,0.010304234854989684,4.171477146204481e-05,-0.006462629653719284,0.01080159588017568
1.0101010101010102,0.10126582278481013,0.011037176774410002,0.010022126131088284,2.1593046789651734e-05,-0.0063177908716494854,0.010566347730023462
1.1111111111111112,0.10126582278481013,0.01121621518804771,0.009926063831984987,5.6708846230696634e-05,-0.006342683706009809,0.010630475347373419
1.2121212121212122,0.10126582278481013,0.010939276099285189,0.009946077715407578,4.767789711955689e-05,-0.00626560614440783,0.010478365941746332
1.3131313131313131,0.10126582278481013,0.010909785042834855,0.010027756132079667,5.520683877389817e-06,-0.006281262352474357,0.010496605655935524
1.4141414141414141,0.10126582278481013,0.010991721068572376,0.009651390816438723,3.886232099681375e-05,-0.006192933565503329,0.010386838393026046
1.5151515151515151,0.10126582278481013,0.010980124057133452,0.009730176931257923,9.108644858335278e-05,-0.006213090296517413,0.010412771381524766
1.6161616161616161,0.10126582278481013,0.010853091815344352,0.009915868222367534,-1.682737355209385e-05,-0.006230688011313565,0.010416192480505754
1.7171717171717171,0.10126582278481013,0.010691778726157994,0.009765786319490908,6.247805267509396e-05,-0.00613726951369467,0.010260740659101613
1.8181818181818181,0.10126582278481013,0.010594429713351708,0.009623188858411704,5.5517909835554286e-05,-0.006065285571529024,0.010144198021134749
1.9191919191919191,0.10126582278481013,0.010733586136249511,0.009541451225759745,-6.572676066526687e-05,-0.006082511208602777,0.010190590476637102
2.0202020202020203,0.10126582278481013,0.010372011199837229,0.00943333842775448,7.495427898421456e-05,-0.005941604888277512,0.009936833138852037
2.121212121212121,0.10126582278481013,0.01048278391863631,0.009406152266254334,-8.778034215859042e-05,-0.005966680855467193,0.009989239890665086
2.2222222222222223,0.10126582278481013,0.010450873877074038,0.00941122995965032,-3.359009073043808e-05,-0.005958631151017306,0.009971951749485557
2.323232323232323,0.10126582278481013,0.010396450713463014,0.00925105444916861,1.9002238564874719e-06,-0.0058942515487894875,0.009873706247562558
2.4242424242424243,0.10126582278481013,0.010275955061844625,0.0093719428540445,-3.295248575724272e-05,-0.005894369374766738,0.009855260487736564
2.525252525252525,0.10126582278481013,0.010394440868199111,0.00931809024976813,9.50496561842601e-05,-0.005913759335390172,0.009901614619392965
2.6262626262626263,0.10126582278481013,0.010316714805050517,0.009167490500246758,-8.172709431464725e-05,-0.005845261591589182,0.009793831702946643
2.727272727272727,0.10126582278481013,0.010173881270383437,0.009306899248313022,6.815784298444323e-05,-0.0058442341556089366,0.009769999091557364
2.8282828282828283,0.10126582278481013,0.010258816534581524,0.009195394380614546,2.0096216383931215e-05,-0.005836263274558821,0.00977066743703485
2.929292929292929,0.10126582278481013,0.010119155650278256,0.009140112918667712,-2.095253448532801e-05,-0.005777780570683791,0.00966695748317645
3.0303030303030303,0.10126582278481013,0.010105770782261195,0.009092486235999044,4.362713723241173e-05,-0.0057594771054780705,0.009639452126281565
3.131313131313131,0.10126582278481013,0.010162842457998636,0.009023426599832279,1.6260199879753938e-06,-0.005755880717349273,0.009643751313419158
3.2323232323232323,0.10126582278481013,0.010103004300155963,0.009131613226522367,-2.660154734229618e-05,-0.005770385258003498,0.009654141662510168
3.3333333333333335,0.10126582278481013,0.010197759985117356,0.009123794563249918,2.316466277607731e-05,-0.005796466364510182,0.009705528251553996
3.4343434343434343,0.10126582278481013,0.010165129994689668,0.009008401868013417,-4.893951283239402e-05,-0.005752059558810925,0.009639335102565653
3.5353535353535355,0.10126582278481013,0.010190166976554635,0.008948502789190535,4.6055703013725385e-05,-0.00574160092972355,0.00962989257206638
3.6363636363636362,0.10126582278481013,0.00993789679024347,0.009049600065085765,7.6179464399372775e-06,-0.00569624905659877,0.009524874624426962
3.7373737373737375,0.10126582278481013,0.010066927576842322,0.009216199689357052,-6.342490474534153e-06,-0.005784938179859812,0.009669678041515941
3.8383838383838382,0.10126582278481013,0.010084608926862313,0.009214021894472966,5.8527263024597345e-05,-0.0057895892464005835,0.009679256456558158
3.9393939393939394,0.10126582278481013,0.00997177121065949,0.009170664190133442,4.7514292247796546e-05,-0.00574273062023788,0.009596682261908964
4.040404040404041,0.10126582278481013,0.01000698715989154,0.008845245640925864,4.340135102540515e-05,-0.00565566984024522,0.009479955376663591
4.141414141414141,0.10126582278481013,0.010060045212351206,0.008996464140283404,-6.62437816246422e-05,-0.005716952805790382,0.009573359150017306
4.242424242424242,0.10126582278481013,0.010009525123886065,0.00904596738342525,-3.626303190975244e-05,-0.005716647752193394,0.009564425039483593
4.343434343434343,0.10126582278481013,0.009979925185094397,0.008807193416422955,-6.872349712794581e-05,-0.005636135580455205,0.009449052859677563
4.444444444444445,0.10126582278481013,0.0098535152590741,0.008870376693809112,-2.1052845453986363e-06,-0.005617167585864963,0.009400583324526392
4.545454545454545,0.10126582278481013,0.01018860802023561,0.008908919488696983,-5.283064734801978e-05,-0.005729258252679778,0.009613296236141928
4.646464646464646,0.10126582278481013,0.00981983269576205,0.00890684413489489,6.578782218598211e-05,-0.005618003049197081,0.009397353429387207
4.747474747474747,0.10126582278481013,0.009870004461672672,0.008984341035880741,-6.591321691493399e-05,-0.0056563036492660234,0.009459012605426082
4.848484848484849,0.10126582278481013,0.010054517919344485,0.008914855448325659,3.340991687823753e-05,-0.005690812010301042,0.009536076398028821
4.94949494949495,0.10126582278481013,0.009874958397829812,0.009218023847768764,4.488512590225771e-05,-0.005727894673679573,0.009563744509007197
5.05050505050505,0.10126582278481013,0.009829626485203486,0.008942261347878485,4.0549106090242596e-05,-0.005631566349924591,0.009417613209283535
5.151515151515151,0.10126582278481013,0.01007134774187902,0.008913221620256833,4.4711476728362576e-05,-0.005695370808640756,0.009545439115099853
5.252525252525253,0.10126582278481013,0.009954875140264505,0.009158724319274305,-7.601951995443642e-05,-0.005734079837861643,0.00958254402935282
5.353535353535354,0.10126582278481013,0.009776926156313266,0.008920602417149846,-3.7917005517188895e-05,-0.005609258572038933,0.009378362039635742
5.454545454545454,0.10126582278481013,0.009817986494352286,0.008883877045779615,5.6154798314405987e-05,-0.00561055906203957,0.009386362735318962
5.555555555555555,0.10126582278481013,0.010190652010209987,0.008875771103997863,6.259410975599302e-05,-0.005719926934262355,0.009601591561213652
5.656565656565657,0.10126582278481013,0.0099338082795865,0.008896674226156111,6.640466142336542e-06,-0.005649144751722783,0.009457993202615981
5.757575757575758,0.10126582278481013,0.009855469706462686,0.008879567731095129,4.305357143083729e-06,-0.005620511231267344,0.009405570214193202
5.858585858585858,0.10126582278481013,0.009947864598187618,0.009012706048081737,-3.678681057529919e-06,-0.005688171193880806,0.009514816947346011
5.959595959595959,0.10126582278481013,0.009948480822188487,0.009048734733730164,-4.5040043959869506e-05,-0.005699164666775594,0.009530833793743396
6.0606060606060606,0.10126582278481013,0.009913762260919669,0.009075941423889648,-3.307214900549791e-05,-0.005696911105442795,0.009522707105994383
6.161616161616162,0.10126582278481013,0.010070483436656416,0.009150338986536066,-4.7444105963411055e-05,-0.005766246726957744,0.009643741796748925
6.262626262626262,0.10126582278481013,0.010020694767212207,0.009109073217187635,-6.751560130004894e-05,-0.005738930395319953,0.009598123318719702
6.363636363636363,0.10126582278481013,0.010006119749734994,0.00907366490103899,6.221842736542599e-05,-0.005723935395232195,0.009574615554252382
6.4646464646464645,0.10126582278481013,0.010093230655885448,0.009169355060125449,4.214766924239766e-05,-0.0057787757148032685,0.009664744744796167
6.565656565656566,0.10126582278481013,0.01008793239831016,0.008885066067301819,1.707419433108562e-05,-0.005691899539683593,0.009543568925515753
6.666666666666667,0.10126582278481013,0.009806425364598576,0.00925402537025516,-6.267176518595168e-05,-0.00571813522045612,0.00954284224535406
6.767676767676767,0.10126582278481013,0.010011458093654231,0.009306283904243038,-7.881269048740325e-05,-0.005795322599369181,0.009679120635312661
6.8686868686868685,0.10126582278481013,0.010171249860977375,0.009104964186053015,7.465686927672347e-06,-0.005782864214109117,0.009682251704102125
6.96969696969697,0.10126582278481013,0.010226834574380051,0.008970935032686481,-1.0547383673520063e-05,-0.0057593308821199595,0.009660325354641456
7.070707070707071,0.10126582278481013,0.01027849209889774,0.009120502235486851,1.1645821979075337e-05,-0.0058196983003153775,0.009751223388103764
7.171717171717171,0.10126582278481013,0.010157914971058155,0.009239296431679825,-1.1425674423556718e-05,-0.005819163420821394,0.009731199268558956
7.2727272727272725,0.10126582278481013,0.010267733588582592,0.009327354324535039,9.953163041728038e-06,-0.005878526373935289,0.00983134780420537
7.373737373737374,0.10126582278481013,0.010214022001815476,0.00932738406339807,2.126348345044057e-05,-0.005862421819564064,0.009800897371361325
7.474747474747475,0.10126582278481013,0.010419804672303098,0.009208526487032968,-3.993746791722746e-06,-0.005888499347800819,0.009870070415491702
7.575757575757575,0.10126582278481013,0.01055058339532246,0.009141249007830587,5.3180150188523235e-05,-0.005907549720945913,0.009921704379561741
7.6767676767676765,0.10126582278481013,0.010463359845389271,0.009353118873442257,-7.326594111790138e-05,-0.005944943615649458,0.009955590748905953
7.777777777777778,0.10126582278481013,0.010483394312590367,0.009448506651799273,2.5108666052210494e-05,-0.005979570289316892,0.010006263273656913
7.878787878787879,0.10126582278481013,0.010449076818344668,0.00964556435032756,-2.484418527453582e-06,-0.006028392350601667,0.010071389857220534
7.979797979797979,0.10126582278481013,0.01054179111977932,0.009548158306976504,-9.785642321151539e-05,-0.006026984828026747,0.010083190182482016
8.080808080808081,0.10126582278481013,0.01050878343455682,0.009390168100808944,-1.1382613059110459e-05,-0.005969685460609729,0.009996546000595453
8.181818181818182,0.10126582278481013,0.010612737113525395,0.009513920960906601,8.985253406842056e-06,-0.006037997422329598,0.01010823333815326
8.282828282828282,0.10126582278481013,0.010801391387491553,0.009560780484912493,-5.003622111790416e-05,-0.0061086515617212135,0.010237986045570703
8.383838383838384,0.10126582278481013,0.010831117808650603,0.009601873855884803,-8.23918892723882e-05,-0.006129897499360621,0.01027280063481013
8.484848484848484,0.10126582278481013,0.010910398085700655,0.009773711817050798,6.47510365103569e-05,-0.006205232970825435,0.010389404240016149
8.585858585858587,0.10126582278481013,0.010786149644926201,0.00983848055429106,-2.3655536682131875e-06,-0.006187389059765178,0.010344922282460974
8.686868686868687,0.10126582278481013,0.011006874306809604,0.009713845298262472,7.091560975940468e-07,-0.006216215881521622,0.010420700540722777
8.787878787878787,0.10126582278481013,0.010812712793606278,0.010094176419308602,-7.79937153620224e-05,-0.0062720667638744634,0.010472820732260898
8.88888888888889,0.10126582278481013,0.011100354525399706,0.009999345646421265,-1.137071623985376e-05,-0.006329910051546292,0.010592869777753379
8.98989898989899,0.10126582278481013,0.01147177397119521,0.010218923154884284,7.535120067767131e-06,-0.006507209137823849,0.010899494582955662
9.09090909090909,0.10126582278481013,0.011297345586397278,0.010249882070571658,-2.784585926835176e-05,-0.00646416829709068,0.010811843781875795
9.191919191919192,0.10126582278481013,0.011524785992018302,0.010529279913074608,-2.3443118968629987e-05,-0.006616219771527872,0.01106075850658248
9.292929292929292,0.10126582278481013,0.011427096114459473,0.010293823169331539,-2.388727408725872e-05,-0.006516275785137303,0.010904793721797318
9.393939393939394,0.10126582278481013,0.011626828392070897,0.010286664674334839,1.587345066328077e-05,-0.00657404791992172,0.011018079668658828
9.494949494949495,0.10126582278481013,0.011595508159459436,0.0103908241150855,-2.544738532711741e-05,-0.0065958996823634805,0.011042648783920047
9.595959595959595,0.10126582278481013,0.012039484426969569,0.01063622708138905,-1.2041910343739128e-05,-0.006802713452507586,0.011402817919656322
9.696969696969697,0.10126582278481013,0.011933301889518676,0.010710779987956248,5.809727720861984e-05,-0.006793224563242477,0.011371880088584918
9.797979797979798,0.10126582278481013,0.012038397521677258,0.010695998856313983,-5.800094271124343e-05,-0.006820318913397371,0.011426933649433181
9.8989898989899,0.10126582278481013,0.012328304473584859,0.010935533578479895,7.776050089571717e-05,-0.006979151415619426,0.011695064702230648
10.0,0.10126582278481013,0.012325531360014073,0.01116138729617576,-1.2944475245897094e-05,-0.00704607559685695,0.011786677361324742
0.0,0.20253164556962025,0.012348010885699085,0.01126358284626938,3.541556613123035e-05,-0.0070834781195905396,0.011843250844146735
0.10101010101010101,0.20253164556962025,0.012270598714962083,0.010982647852237709,1.137025920025974e-05,-0.0069759739701599375,0.01168002011538184
0.20202020202020202,0.20253164556962025,0.011999347201033702,0.010858954902078078,-3.071485228106834e-05,-0.006857490630933534,0.01147186536324285
0.30303030303030304,0.20253164556962025,0.012043077360429234,0.010693279985592894,5.7707133438240954e-05,-0.0068209072038066376,0.01142855815035689
0.40404040404040403,0.20253164556962025,0.011742363218962564,0.010680938736863496,2.5789807488902105e-05,-0.006726990586747818,0.011249359068029102
0.5050505050505051,0.20253164556962025,0.011611259696872038,0.010581317052836088,1.4839383676337701e-05,-0.006657773024912438,0.011132109535364263
0.6060606060606061,0.20253164556962025,0.011440190421649222,0.010514338772396731,2.743575247921007e-05,-0.006586358758213786,0.011006611519987157
0.7070707070707071,0.20253164556962025,0.011514016793958939,0.010124534482014854,-6.884674707211684e-05,-0.006491565382792137,0.010886640472427116
0.8080808080808081,0.20253164556962025,0.011296922265428383,0.010207093263491939,6.404952069306055e-05,-0.006451204658676097,0.010793922986125618
0.9090909090909091,0.20253164556962025,0.011407584024173398,0.010322410652625201,3.8267324354980264e-05,-0.00651899840303958,0.010905767339463175
1.0101010101010102,0.20253164556962025,0.011386578986251372,0.01013110416244343,2.0725167695442113e-05,-0.00645530494460844,0.010813700726141155
1.1111111111111112,0.20253164556962025,0.011195055937924784,0.010063636248352796,-7.041455687147863e-06,-0.0063776076558832735,0.010674419422127034
1.2121212121212122,0.20253164556962025,0.011227471096340463,0.010009939942746057,2.3487851864153287e-05,-0.0063712233117259555,0.01067100503845883
1.3131313131313131,0.20253164556962025,0.01102234869584107,0.0099911772959479,2.241376552755689e-05,-0.00630405779753669,0.01054471723776988
1.4141414141414141,0.20253164556962025,0.011092603332438932,0.010033842215304784,-2.731358100484568e-05,-0.006337933664323114,0.010603048844220862
1.5151515151515151,0.20253164556962025,0.010931412721225013,0.00977817040295636,-3.504356124775668e-05,-0.006212874937254412,0.010403022076847838
1.6161616161616161,0.20253164556962025,0.01069968422452122,0.009723322031487897,5.174719332188085e-05,-0.006126901876802735,0.01024684301618238
1.7171717171717171,0.20253164556962025,0.01068004717261429,0.009423984770101113,-1.9998812677090642e-05,-0.006031209582814621,0.010110761322235392
1.8181818181818181,0.20253164556962025,0.010650049518689654,0.009465476427199289,4.818527591040451e-05,-0.006034657783766682,0.010110290378579084
1.9191919191919191,0.20253164556962025,0.01063267952824298,0.009472349632471715,-8.845106512808444e-05,-0.0060315087482144085,0.010103776237691002
2.0202020202020203,0.20253164556962025,0.01055275946617201,0.009412182220892287,-1.8336849731925586e-05,-0.005989482506119289,0.010031272112822039
2.121212121212121,0.20253164556962025,0.010540482884335537,0.009492087245565608,2.833971642064667e-05,-0.006009771038970343,0.01005747115245558
2.2222222222222223,0.20253164556962025,0.010378964325479497,0.009406377164382996,-2.0773987010488015e-05,-0.005935602446958748,0.009928528263679102
2.323232323232323,0.20253164556962025,0.010283857758336002,0.009477555422277018,6.269389061938285e-05,-0.005928423954183906,0.009905945027524638
2.4242424242424243,0.20253164556962025,0.010412827336853041,0.009358955546839005,-9.567795121295168e-05,-0.005931534865107614,0.009929315017832294
2.525252525252525,0.20253164556962025,0.010493251311669616,0.009375049984056527,6.638785711316915e-05,-0.005960490388717842,0.009981901211390608
2.6262626262626263,0.20253164556962025,0.010439264033636519,0.009271455245975852,-2.225337248336292e-05,-0.005913215783883711,0.009907190938459017
2.727272727272727,0.20253164556962025,0.010207621856084124,0.009142550890096024,-3.119519429742659e-05,-0.005805051823854044,0.009719104787434802
2.8282828282828283,0.20253164556962025,0.010050014282573658,0.009144686936888339,-5.813036017679412e-05,-0.005758410365838599,0.0096298488744404
2.929292929292929,0.20253164556962025,0.01015962112340566,0.009063842191574242,-9.28578354660505e-06,-0.005767038994493969,0.009658477764819203
3.0303030303030303,0.20253164556962025,0.010179389541327279,0.00908996389999585,8.60988491835919e-05,-0.005780806032396938,0.009681909456204538
3.131313131313131,0.20253164556962025,0.010041037294661742,0.008955926755287766,-2.810078357913324e-05,-0.005699089214984852,0.009544979224853091
3.2323232323232323,0.20253164556962025,0.010084635944103235,0.009038839040741532,2.0837458038112193e-05,-0.0057370424954534295,0.009604602794768718
3.3333333333333335,0.20253164556962025,0.00992273555134141,0.008992712433034773,-4.252683792430724e-05,-0.005674634395312855,0.009492242936138982
3.4343434343434343,0.20253164556962025,0.010170603686935243,0.008999622546453156,-2.7244780045483824e-06,-0.005751067870016519,0.00963861055088792
3.5353535353535355,0.20253164556962025,0.0099805831892203,0.009053359461941331,-9.818871747180969e-06,-0.005710182795348489,0.009550803124500917
3.6363636363636362,0.20253164556962025,0.010119055365441798,0.009099795754011448,-0.00010739407696386799,-0.005765655335835974,0.009651674863351332
3.7373737373737375,0.20253164556962025,0.010030652662072159,0.009017218043741747,3.282982852642626e-05,-0.005714361211744171,0.009564458442248415
3.8383838383838382,0.20253164556962025,0.010081276541039918,0.008966347664245906,6.580420227625118e-05,-0.005714287261585746,0.009573311200717917
3.9393939393939394,0.20253164556962025,0.009998105436668148,0.008817610187485309,-5.550370052212496e-06,-0.0056447146872460364,0.009463247740975808
4.040404040404041,0.20253164556962025,0.010073127972491543,0.009041200518227792,3.4539246979518437e-05,-0.0057342985472158,0.009599042816587204
4.141414141414141,0.20253164556962025,0.010059683961492724,0.00899727271923496,2.282238072703327e-05,-0.0057170870042183046,0.009572878370778862
4.242424242424242,0.20253164556962025,0.00974226385207303,0.00894371211867382,-9.325397589005206e-06,-0.005605792791224055,0.009368561737915747
4.343434343434343,0.20253164556962025,0.009961455482410718,0.009016873449136147,8.461358819995647e-05,-0.005693498679464059,0.009525486709329359
4.444444444444445,0.20253164556962025,0.01002145907386832,0.008855433283882037,-6.04444663801276e-06,-0.005663067707325106,0.009492317313739241
4.545454545454545,0.20253164556962025,0.01003916025527587,0.008948971868428551,-0.0001003517225237763,-0.005696439637111326,0.009542477918788546
4.646464646464646,0.20253164556962025,0.009818038271924567,0.00894800693177274,-0.0001090285103598995,-0.005629813561109192,0.009415120322898237
4.747474747474747,0.20253164556962025,0.009751959734534833,0.008940233771727422,3.9880933659614775e-05,-0.005607658051878677,0.009372751477795547
4.848484848484849,0.20253164556962025,0.009842470909281654,0.009140172453108544,-1.5152603196497145e-05,-0.005694793008717059,0.009510825064169377
4.94949494949495,0.20253164556962025,0.009688359095778571,0.009055685872451397,-3.2136775834032816e-06,-0.005623213490468991,0.009388026575461108
5.05050505050505,0.20253164556962025,0.010013870180323764,0.009240432224563602,-2.164257418530672e-05,-0.0057762907214662105,0.009650497405902082
5.151515151515151,0.20253164556962025,0.010011085630097966,0.00896501943259861,-1.8016386064727928e-05,-0.005692831518808973,0.009531254139686352
5.252525252525253,0.20253164556962025,0.009975479906028489,0.008850359638190614,-3.8550175138303107e-05,-0.005647751863265731,0.009463452789389568
5.353535353535354,0.20253164556962025,0.009929921144026228,0.008754488259245666,-1.764983967984881e-05,-0.005605322820981568,0.009397550483384415
5.454545454545454,0.20253164556962025,0.009863010353855785,0.009095581363491393,-7.431780558656535e-05,-0.005687577515204154,0.009503437789894067
5.555555555555555,0.20253164556962025,0.009894642022589897,0.00879945359596886,3.864031821210705e-06,-0.005608228685567627,0.009395047940725671
5.656565656565657,0.20253164556962025,0.009816001969155372,0.00897335073548551,-5.342066688685382e-05,-0.005636805811392265,0.009423430951304563
5.757575757575758,0.20253164556962025,0.009942770324262351,0.008897639202538877,3.9238268508496564e-05,-0.005652122858040369,0.00946383120124923
5.858585858585858,0.20253164556962025,0.010116940054469477,0.00912968638588327,3.252804733676026e-05,-0.0057739879321058235,0.009661383643651393
5.959595959595959,0.20253164556962025,0.01010345992904218,0.009024513856952418,0.000112243303440546,-0.00573839213579838,0.009611489709549937
6.0606060606060606,0.20253164556962025,0.009904965089321123,0.00899680658317858,-0.00013053476064297278,-0.005670531501749911,0.00948624925696377
6.161616161616162,0.20253164556962025,0.009936756951200405,0.008927357265350775,-2.354590775708738e-05,-0.005659234264965354,0.009472567250615505
6.262626262626262,0.20253164556962025,0.010236640064763549,0.008984804639086443,-2.5075106844849716e-06,-0.005766433411154997,0.00967167627344688
6.363636363636363,0.20253164556962025,0.0102266043488505,0.009060470867611456,4.476660109506431e-05,-0.005786122564938587,0.009696583430215826
6.4646464646464645,0.20253164556962025,0.009890568162927233,0.008998512500456886,4.6262848900355926e-05,-0.005666724199015236,0.009476422600814726
6.565656565656566,0.20253164556962025,0.010068407001244567,0.009265258264878253,-2.9083011261703646e-05,-0.005800099579836846,0.009691954216761356
6.666666666666667,0.20253164556962025,0.010185888513745495,0.008872322379957744,-3.372924739311028e-05,-0.005717463268110972,0.009596945117821706
6.767676767676767,0.20253164556962025,0.010047972257839998,0.009080161627632598,-5.917396198530549e-06,-0.005738440165641779,0.009600727815839347
6.8686868686868685,0.20253164556962025,0.010207437140530453,0.009045165525675448,1.3236545861333675e-05,-0.005775780799861771,0.009678809815992973
6.96969696969697,0.20253164556962025,0.01000261058439194,0.009115167335201402,-4.638853012962907e-06,-0.005735333375878002,0.009589738752593571
7.070707070707071,0.20253164556962025,0.010335122418672597,0.009045819091512862,2.397618233588385e-05,-0.005814282453055638,0.009754674537335141
7.171717171717171,0.20253164556962025,0.01025686864730727,0.009273751970168928,2.241748974101547e-05,-0.00585918618524286,0.009802432445986869
7.2727272727272725,0.20253164556962025,0.010260721851609967,0.009116145021208761,3.0429685940569945e-05,-0.005813060061845618,0.009739151012260397
7.373737373737374,0.20253164556962025,0.010323419794717263,0.00932425411955555,-1.5589415819827816e-05,-0.005894302174281844,0.009861909079122152
7.474747474747475,0.20253164556962025,0.01023091513882077,0.009353048356768305,1.2542808397636644e-05,-0.005875189048676722,0.009821474740615191
7.575757575757575,0.20253164556962025,0.010457371058180337,0.009282333351462405,-9.115109304582336e-06,-0.005921911322892822,0.009922185596421128
7.6767676767676765,0.20253164556962025,0.010465589806390799,0.009449597473810738,-9.96214995791041e-05,-0.005974556184060461,0.009997881012784987
7.777777777777778,0.20253164556962025,0.010633847718291125,0.009541964321391738,-4.714677209079253e-05,-0.0060527436119048586,0.010132456431380653
7.878787878787879,0.20253164556962025,0.010415270856030855,0.009270460861193921,-3.9019330474561325e-05,-0.005905719515167433,0.0098929024193256
7.979797979797979,0.20253164556962025,0.01035405413595411,0.009454480406885407,-2.4950532597037084e-05,-0.005942560362851856,0.009934953570171837
8.080808080808081,0.20253164556962025,0.010494031488065825,0.009793707482313768,3.430345559992932e-05,-0.0060863216911138775,0.010162158166380676
8.181818181818182,0.20253164556962025,0.010636937071228345,0.009518535950198094,-6.0302690750590576e-05,-0.006046641906427931,0.010124712253863754
8.282828282828282,0.20253164556962025,0.010581144248179518,0.00964795978030396,-0.00010995291066201961,-0.006068731208545043,0.010148574102542874
8.383838383838384,0.20253164556962025,0.010647205930464473,0.009756589370597354,-1.324342836519798e-05,-0.006121138590318548,0.01023103808172098
8.484848484848484,0.20253164556962025,0.010859220475624128,0.009840430263346956,-3.3231201977221565e-06,-0.006209895221691326,0.01038736580807203
8.585858585858587,0.20253164556962025,0.010937771946070486,0.009821289923508714,-2.696851308196039e-05,-0.006227718560873761,0.010424574015679276
8.686868686868687,0.20253164556962025,0.010841750922713755,0.010076864632080008,6.155485985931868e-05,-0.0062755846664381285,0.010480805048412615
8.787878787878787,0.20253164556962025,0.01099454328605786,0.010058063871279908,-6.440244363370442e-05,-0.006315782147201331,0.010558089567969315
8.88888888888889,0.20253164556962025,0.011036491802373899,0.010039930439397313,6.483169213047059e-05,-0.0063229266725313635,0.010574088801684233
8.98989898989899,0.20253164556962025,0.011276367072206589,0.010007230819902678,3.228884210198288e-05,-0.006385079367632779,0.010698553296423137
9.09090909090909,0.20253164556962025,0.011212029597014162,0.010193929026645388,-5.705333589669781e-05,-0.006421787587097865,0.01073968937993115
9.191919191919192,0.20253164556962025,0.01150426923489159,0.010230669450719026,-5.018371026792652e-05,-0.006520481605683185,0.010923643505663543
9.292929292929292,0.20253164556962025,0.011403246148274473,0.010339786198514264,3.1250100489903816e-06,-0.006522909704036622,0.010910458446096422
9.393939393939394,0.20253164556962025,0.011529455178278983,0.01045856825032655,6.195375120377901e-05,-0.006596407028581661,0.011033580900389306
9.494949494949495,0.20253164556962025,0.01176748541461504,0.010640422522376765,1.835063924152987e-05,-0.0067223723810975414,0.011246434894594473
9.595959595959595,0.20253164556962025,0.011812261072774737,0.010795207598613058,5.047575101562065e-05,-0.006782240601416338,0.011338335489093854
9.696969696969697,0.20253164556962025,0.012107457116027068,0.010829724818376857,-2.3998162015803984e-05,-0.006881154580321177,0.011521925029120382
9.797979797979798,0.20253164556962025,0.01196636284952244,0.010847640606815104,-4.555358850410462e-05,-0.006844201036901263,0.011448343478729497
9.8989898989899,0.20253164556962025,0.01202298198982983,0.010941502003691933,-5.106070212587726e-05,-0.0068893451980565285,0.01152071621377754
10.0,0.20253164556962025,0.012105839920108049,0.011073376782202554,3.854565396428295e-05,-0.0069537650106931805,0.011624240368034272
0.0,0.3037974683544304,0.012414981566918622,0.010838367064135141,-2.918587712502661e-05,-0.006976004589316129,0.01170668168412354
0.10101010101010101,0.3037974683544304,0.012166856498408278,0.011001697110587277,-3.0354355943892244e-05,-0.0069505660826986665,0.011628259996373923
0.20202020202020202,0.3037974683544304,0.012054946315026797,0.010819630220947538,-3.074353126984377e-05,-0.0068623729607923,0.011487336628148414
0.30303030303030304,0.3037974683544304,0.011714856077571972,0.010678423060326224,-5.321754775017248e-05,-0.006717983741369458,0.011232937238698972
0.40404040404040403,0.3037974683544304,0.011687201149736386,0.010674792628135815,-5.515930761549576e-05,-0.00670859813336166,0.01121572767764115
0.5050505050505051,0.3037974683544304,0.011657714736696833,0.010646574912153343,5.833724537394197e-05,-0.006691286894655053,0.01118692749132344
0.6060606060606061,0.3037974683544304,0.011376769419861836,0.01052902964410451,9.954963465981673e-05,-0.006571739719189904,0.010978831248933136
0.7070707070707071,0.3037974683544304,0.01148292673158498,0.010266210856262472,3.051116954177591e-05,-0.006524741276354236,0.01092562755127258
0.8080808080808081,0.3037974683544304,0.011518715094606877,0.01010363652745548,0.00010475109445617524,-0.006486705486618707,0.010881924292412781
0.9090909090909091,0.3037974683544304,0.011564772231849917,0.010278148317510035,-5.443064564067561e-05,-0.006552876164807985,0.010978557894353922
1.0101010101010102,0.3037974683544304,0.011231814234648519,0.009976082633982109,3.6403637900337936e-05,-0.006362369060589189,0.01065975348973228
1.1111111111111112,0.3037974683544304,0.010961812934890097,0.009933295035727222,-2.4058055413409456e-05,-0.006268532391185196,0.010485538014222421
1.2121212121212122,0.3037974683544304,0.011212895589779191,0.009905844782560107,-7.580371801667959e-05,-0.006335622111701789,0.010620679060166208
1.3131313131313131,0.3037974683544304,0.010947386512751575,0.009944849445933752,4.656304408700138e-05,-0.006267670787605598,0.010482447024303426
1.4141414141414141,0.3037974683544304,0.01079108521625115,0.009654008396652005,-3.0067379824145518e-06,-0.006133528083870947,0.01026986845591342
1.5151515151515151,0.3037974683544304,0.010938021668234555,0.00978107841690536,1.295936303233436e-05,-0.006215730025541974,0.010407913776779618
1.6161616161616161,0.3037974683544304,0.01069101577252317,0.009796586672880704,-1.363730190534521e-05,-0.006146280733621162,0.010273072762272975
1.7171717171717171,0.3037974683544304,0.01067305508256394,0.009498609685124415,-9.295872932813734e-05,-0.006051499430306507,0.01013826564776984
1.8181818181818181,0.3037974683544304,0.01059176312561819,0.009543366032955624,4.073769478006039e-05,-0.006040538747572145,0.010108668932424675
1.9191919191919191,0.3037974683544304,0.010627111592457843,0.009642217078802784,9.126400569071936e-06,-0.006080798601378188,0.010170505590762435
2.0202020202020203,0.3037974683544304,0.010520205511245974,0.009470440181820293,3.0155031453563382e-05,-0.0059971937079198795,0.010036718199657757
2.121212121212121,0.3037974683544304,0.010441670432735767,0.009425819644815385,-5.558927507424316e-05,-0.005960247023265346,0.00997309007356281
2.2222222222222223,0.3037974683544304,0.010241544275472563,0.009695442309297943,-2.1487202917567985e-05,-0.005981095975431152,0.009979775254888874
2.323232323232323,0.3037974683544304,0.01018104856442694,0.009508207421252636,1.717644112030684e-05,-0.0059067767957038724,0.009861902545186426
2.4242424242424243,0.3037974683544304,0.010279115725441565,0.009236399442318353,7.220809117887457e-06,-0.005854654550327975,0.009799460822991107
2.525252525252525,0.3037974683544304,0.010275076983359803,0.009223179720202519,4.729988641521636e-05,-0.005849477011068696,0.009791939611049807
2.6262626262626263,0.3037974683544304,0.010372852725744496,0.009522313434453224,-3.1584752615149944e-05,-0.005968549848059316,0.009974966904194974
2.727272727272727,0.3037974683544304,0.010436942395349686,0.009317519187049546,5.7620483115396315e-05,-0.00592633847471977,0.009925194189652205
2.8282828282828283,0.3037974683544304,0.010242024662861442,0.00921104719061855,-2.7339240878312637e-05,-0.005835921556043997,0.009767544693915844
2.929292929292929,0.3037974683544304,0.010002888714354058,0.009245117884057828,-3.9672171899052415e-05,-0.005774401979523566,0.009646596478563427
3.0303030303030303,0.3037974683544304,0.010355523937566384,0.0089911316279873,-1.5109301668281147e-05,-0.005803996669666105,0.00974526192807879
3.131313131313131,0.3037974683544304,0.010057947217415028,0.00905766136662184,-8.614227016988762e-06,-0.00573468257521106,0.00959699298409247
3.2323232323232323,0.3037974683544304,0.010036092356367942,0.00908121631486685,6.934907636472482e-05,-0.005735192601370437,0.009595110305878184
3.3333333333333335,0.3037974683544304,0.00994027722627206,0.009078886084520815,0.00014977321673456716,-0.005705748993237863,0.009542323371921594
3.4343434343434343,0.3037974683544304,0.009885855846462163,0.009255657108002356,9.905274849236076e-05,-0.005742453886339356,0.009587840044812083
3.5353535353535355,0.3037974683544304,0.009989049430847528,0.00899852921954343,2.845038145176446e-06,-0.005696273595117287,0.009532465984763502
3.6363636363636362,0.3037974683544304,0.009853225573525798,0.009117166302907195,3.975932063407478e-05,-0.005691117562929897,0.009506840791476855
3.7373737373737375,0.3037974683544304,0.01007847810164047,0.009084417086951317,0.00010785420152347761,-0.005748868556577536,0.009621858113913912
3.8383838383838382,0.3037974683544304,0.009952968579513072,0.009078237580249861,-1.2888909256495896e-05,-0.00570936184792888,0.009545735492176553
3.9393939393939394,0.3037974683544304,0.009936516499510497,0.009047122189967583,3.609673979045355e-05,-0.005695091606843424,0.009523224772912705
4.040404040404041,0.3037974683544304,0.00989294894727667,0.009125403961837569,-1.4237063773226098e-05,-0.005705505872734271,0.009532412543756311
4.141414141414141,0.3037974683544304,0.010005846723518957,0.008879341506361618,-5.236096499532067e-05,-0.005665556468964173,0.009493290743187143
4.242424242424242,0.3037974683544304,0.009819503759960959,0.008982488548678294,-5.828946634083726e-05,-0.005640597692591775,0.009429441527849369
4.343434343434343,0.3037974683544304,0.00989037380278313,0.009011473747308424,-6.071635403937837e-05,-0.0056705542650274665,0.009482107814684672
4.444444444444445,0.3037974683544304,0.009911800442318137,0.008681507646522348,4.892789808249431e-05,-0.005577992426652145,0.009357893647173375
4.545454545454545,0.3037974683544304,0.010069867928347851,0.008967774449649024,6.935251669451905e-05,-0.005711292713399063,0.009567305977634671
4.646464646464646,0.3037974683544304,0.01005200724528857,0.008919864601343315,3.3829494095155175e-05,-0.005691561553989565,0.009536651606824462
4.747474747474747,0.3037974683544304,0.00989727241318062,0.008923156724171146,-1.1523765379079908e-05,-0.00564612874120553,0.009447973997196763
4.848484848484849,0.3037974683544304,0.009829868528979005,0.008871544049515177,3.0888488849389665e-05,-0.005610423773548255,0.009387617363311632
4.94949494949495,0.3037974683544304,0.009729268240481889,0.009077996994773787,1.7137670457215478e-05,-0.005642179570576703,0.009420578707445466
5.05050505050505,0.3037974683544304,0.009751574809665356,0.008944029475827224,5.8996667111252025e-05,-0.005608681285647774,0.009374483656168785
5.151515151515151,0.3037974683544304,0.009883693789584345,0.0090827994293335,-3.527650714491726e-05,-0.005689947965675353,0.009508773495246082
5.252525252525253,0.3037974683544304,0.009758940466605564,0.008993721503403536,9.677349999877478e-06,-0.005625798591002729,0.009399735833516729
5.353535353535354,0.3037974683544304,0.00994849353257872,0.009082479773755642,-6.131471969352315e-05,-0.005709291991900308,0.009545587965338186
5.454545454545454,0.3037974683544304,0.009865873697847834,0.008689754069381005,-2.2341904984986426e-05,-0.005566688330168652,0.00933363653548242
5.555555555555555,0.3037974683544304,0.010004484169459786,0.009015919765281436,-0.00010569352725165356,-0.005706121180422366,0.009550413578018226
5.656565656565657,0.3037974683544304,0.009972426304886735,0.00890350904893825,-2.819921501341476e-05,-0.005662780606147496,0.009483383232405797
5.757575757575758,0.3037974683544304,0.009988612520109706,0.00899561775167027,1.3894850656271788e-05,-0.005695269081533993,0.009531020822095981
5.858585858585858,0.3037974683544304,0.010022759204117207,0.008851443058539292,5.2703700863616865e-05,-0.00566226067879695,0.009491901650240572
5.959595959595959,0.3037974683544304,0.010045708961180063,0.008959235592849293,4.14008569599974e-05,-0.005701483366208807,0.00954921147285851
6.0606060606060606,0.3037974683544304,0.009907014826956679,0.009036289704417343,-0.00011319538769975746,-0.005682991359412207,0.009503644454037055
6.161616161616162,0.3037974683544304,0.009918394403954475,0.008912808284935797,1.1074799914855819e-05,-0.00564936080666708,0.00945580875510756
6.262626262626262,0.3037974683544304,0.010065607773261877,0.008906094169235155,-4.032207555424534e-05,-0.00569151058274911,0.009539108978647308
6.363636363636363,0.3037974683544304,0.010004647902144392,0.009004338568806294,3.726550401406375e-05,-0.005702695941285206,0.009544109276843874
6.4646464646464645,0.3037974683544304,0.010026748251195877,0.008996197694686545,8.780767568042965e-05,-0.005706883783764726,0.009554463591215237
6.565656565656566,0.3037974683544304,0.01007283811641928,0.008941959169327817,2.2708613835737465e-05,-0.005704439185724128,0.009557789566247619
6.666666666666667,0.3037974683544304,0.010139364450676792,0.009060923680700788,-6.189809326068727e-05,-0.005760086439413273,0.009646063242307063
6.767676767676767,0.3037974683544304,0.010184121886976472,0.009127655237216443,-1.712749604222347e-05,-0.005793533137257874,0.009699183229196601
6.8686868686868685,0.3037974683544304,0.010226891288792693,0.00899358396776865,-1.4735904292220829e-05,-0.005766142576968403,0.009669441758639237
6.96969696969697,0.3037974683544304,0.010126597601236796,0.009155346203055189,-2.4265190547097803e-05,-0.005784583141287595,0.009677685806805142
7.070707070707071,0.3037974683544304,0.010365478548391531,0.009110962826305758,2.2505283561944124e-05,-0.005842932412409187,0.009798715165346424
7.171717171717171,0.3037974683544304,0.01015231358069119,0.009177127922620855,1.9228494038283752e-05,-0.005798832450993613,0.009701606913971471
7.2727272727272725,0.3037974683544304,0.01029062765012004,0.009352190381825519,0.0001366645092873967,-0.005892845409583667,0.00985781948522191
7.373737373737374,0.3037974683544304,0.010041112162383873,0.009260661644189575,1.764849236294478e-05,-0.005790532141972034,0.009674573876217576
7.474747474747475,0.3037974683544304,0.010296140167968086,0.009057383348816301,1.6251461952971085e-05,-0.005806057055035316,0.009736087474004878
7.575757575757575,0.3037974683544304,0.010318295122529296,0.009496862048429283,-8.70844862884047e-05,-0.005944547151287574,0.009934230154980466
7.6767676767676765,0.3037974683544304,0.01041754879294614,0.00935949945377833,-4.834269675805774e-05,-0.005933114474017341,0.009931239685476908
7.777777777777778,0.3037974683544304,0.010476794445280312,0.009617881787246896,1.3203920271141812e-06,-0.006028402869758163,0.010074835317186396
7.878787878787879,0.3037974683544304,0.010382988402684017,0.009466973684851642,-1.2005527189573696e-05,-0.005954988626260697,0.009956655730699149
7.979797979797979,0.3037974683544304,0.010621974228256904,0.009521389369946993,-1.4615423884574933e-05,-0.006043009079461169,0.010116712923028074
8.080808080808081,0.3037974683544304,0.010678442484418103,0.009487044726573253,-5.801274233189191e-05,-0.0060496461632974065,0.01013589594027242
8.181818181818182,0.3037974683544304,0.010616010395018392,0.009559574585130794,3.4379648957151094e-06,-0.006052675494044756,0.010129197166948765
8.282828282828282,0.3037974683544304,0.010712186330534995,0.009589798071975785,5.988368590406711e-06,-0.006090595320753234,0.01019742942137069
8.383838383838384,0.3037974683544304,0.01077749748764935,0.00971381694294152,5.21565061032259e-05,-0.0061473943291772614,0.01028738134330669
8.484848484848484,0.3037974683544304,0.010812797324133976,0.009928670408153055,8.512426202205153e-06,-0.006222440319686108,0.010398971036080784
8.585858585858587,0.3037974683544304,0.010933583363418951,0.009836890212970479,1.657332392962004e-05,-0.006231142072916829,0.010428615395715364
8.686868686868687,0.3037974683544304,0.010974275666113517,0.009969395941328995,5.462049582576838e-05,-0.006283101482232753,0.010508360135708779
8.787878787878787,0.3037974683544304,0.010989402478828427,0.009887131559671322,-1.0631222540541064e-05,-0.006262960211549924,0.01048184183806703
8.88888888888889,0.3037974683544304,0.011257850113455328,0.009882829419603096,5.1302228431698895e-05,-0.006342203859917528,0.010637574440030322
8.98989898989899,0.3037974683544304,0.01126712380532711,0.010018061591603348,0.00010814860139974632,-0.006385555619079137,0.01069906467947988
9.09090909090909,0.3037974683544304,0.011143955773783897,0.010301481326744412,-9.729946888656338e-05,-0.006433631130158493,0.010748833288480742
9.191919191919192,0.3037974683544304,0.011522549244436152,0.010092306189414169,-0.00016019211122885252,-0.006484456630155095,0.010881712861098248
9.292929292929292,0.3037974683544304,0.011329896003456763,0.010453534128589959,4.490545243680456e-05,-0.0065350290396140156,0.01091840254708563
9.393939393939394,0.3037974683544304,0.011594614184928869,0.010368188294367869,1.264470315594048e-05,-0.006588840743789021,0.01103266709370328
9.494949494949495,0.3037974683544304,0.01165488841777855,0.010605801151818169,-8.460965234847486e-06,-0.006678206870879015,0.011167373364448166
9.595959595959595,0.3037974683544304,0.011777784384387436,0.010563650128760576,8.0004800630067e-05,-0.006702430353944403,0.011220949951929507
9.696969696969697,0.3037974683544304,0.011857536181827881,0.010778153608476759,2.6682933740730687e-05,-0.006790706937091392,0.011356476084698327
9.797979797979798,0.3037974683544304,0.011994795017358029,0.010808436778120968,7.11643503041678e-06,-0.006840969538643699,0.01144781994156018
9.8989898989899,0.3037974683544304,0.012265706120133594,0.010857619971975551,-5.059108086944785e-05,-0.006936997827632744,0.011626124062359322
10.0,0.3037974683544304,0.012410980818423255,0.01107499013522097,0.00013344586760823435,-0.007045791286093267,0.011802109329980073
0.0,0.4050632911392405,0.012208403093036384,0.011162590421494941,-3.399691562651098e-05,-0.007011298054359398,0.011720690890167274
0.10101010101010101,0.4050632911392405,0.012213149984709945,0.010921664906361631,-2.1490392626051144e-06,-0.006940444467321472,0.011621354445452705
0.20202020202020202,0.4050632911392405,0.012056401943627712,0.01078671766782511,-1.580217661206307e-05,-0.006852935883435846,0.011474399816212935
0.30303030303030304,0.4050632911392405,0.01199372243940004,0.01089877892304668,-0.000149947136942665,-0.006867750408734016,0.01148839775891492
0.40404040404040403,0.4050632911392405,0.011660721551729973,0.010757709517934028,-1.2373981930730865e-05,-0.0067255293208992,0.011236482781657734
0.5050505050505051,0.4050632911392405,0.011745767894320734,0.010466464011693155,-3.745043973831601e-05,-0.006663669571804166,0.011161428357787575
0.6060606060606061,0.4050632911392405,0.011620136041386207,0.010357343439481538,-3.4205254616507115e-06,-0.006593243844260323,0.011043025855694754
0.7070707070707071,0.4050632911392405,0.011651145203376503,0.010313794930904915,2.2847562839431186e-05,-0.006589482040284425,0.011043441226469431
0.8080808080808081,0.4050632911392405,0.011299017161283377,0.01018614377710215,-1.964874370991418e-05,-0.006445548281515658,0.010785780395195527
0.9090909090909091,0.4050632911392405,0.011288314052242558,0.010211944113444628,9.782530469935945e-06,-0.006450077449706156,0.010790481526575527
1.0101010101010102,0.4050632911392405,0.01115196724094917,0.009972697893310395,3.041075652795686e-06,-0.00633739954027787,0.010611592912884667
1.1111111111111112,0.4050632911392405,0.011064479413611194,0.009944801365716642,-7.951738965812675e-05,-0.006302784233798351,0.010550198953580704
1.2121212121212122,0.4050632911392405,0.010964270873207397,0.009875300010420689,-1.2329236170648518e-05,-0.006251871265088425,0.01046239828331116
1.3131313131313131,0.4050632911392405,0.011021946523975989,0.009989834311101429,-5.777345386198861e-05,-0.006303534250523225,0.010544320200763003
1.4141414141414141,0.4050632911392405,0.010956980766647053,0.010000451938969448,3.486838636091925e-05,-0.00628722981168495,0.010511581915408689
1.5151515151515151,0.4050632911392405,0.01082947188097254,0.009605732642517663,-1.4661045777994948e-05,-0.00613056135704706,0.01027244830168588
1.6161616161616161,0.4050632911392405,0.01060264761989985,0.009597907532511345,2.601764724788532e-06,-0.0060601665457233585,0.010137689796316749
1.7171717171717171,0.4050632911392405,0.010845333578964465,0.009722853537879207,6.051571633271982e-05,-0.006170456135053101,0.010330466487827128
1.8181818181818181,0.4050632911392405,0.010634179539429845,0.009339209267869065,1.0758181171619703e-05,-0.005992016642189673,0.010049483734522852
1.9191919191919191,0.4050632911392405,0.010599427814083021,0.009684464798643185,-3.113979968001966e-05,-0.006085167783817862,0.010172996212141317
2.0202020202020203,0.4050632911392405,0.010634396775358592,0.009374961891092546,1.5302447408118007e-05,-0.006002807599935342,0.01006399240988091
2.121212121212121,0.4050632911392405,0.010281714900781466,0.009521968162388207,-4.657686856924282e-05,-0.0059411049189509015,0.009924005504862938
2.2222222222222223,0.4050632911392405,0.01048645188218321,0.00932480001936233,-1.9509298476900818e-05,-0.005943375570463662,0.009956638167705027
2.323232323232323,0.4050632911392405,0.010485898454478828,0.009275209124366307,6.330632647031098e-05,-0.0059283322736535405,0.009936633874160926
2.4242424242424243,0.4050632911392405,0.010281665283370088,0.009319426130083184,-1.844464281364526e-05,-0.005880327424035982,0.009835961819022694
2.525252525252525,0.4050632911392405,0.010413632720925353,0.009306723004049236,9.411730681337933e-06,-0.005916106717492376,0.009906680072703157
2.6262626262626263,0.4050632911392405,0.010266362974511604,0.00948153475081269,-1.4661615522505343e-05,-0.005924369317597288,0.00989734699487252
2.727272727272727,0.4050632911392405,0.010207364498778826,0.009243424332717944,1.8111050178197524e-05,-0.005835236649449031,0.009761207202753903
2.8282828282828283,0.4050632911392405,0.010127067750525413,0.009223173741175036,-0.00010778221287474576,-0.0058050724475101345,0.009708531338370524
2.929292929292929,0.4050632911392405,0.01018390347838099,0.009482872625787692,4.214518142366042e-05,-0.005900032831250605,0.009852382068517367
3.0303030303030303,0.4050632911392405,0.010236881615081898,0.00917757177335146,8.420370810617594e-06,-0.005824336016530008,0.009750490541836182
3.131313131313131,0.4050632911392405,0.01022188368338077,0.009104058442520347,6.173656221876108e-05,-0.005797782637770334,0.009711930494221636
3.2323232323232323,0.4050632911392405,0.010123685939995776,0.008994237249927315,4.092659142497576e-05,-0.005735376956976928,0.009609136927384779
3.3333333333333335,0.4050632911392405,0.01011881000993211,0.009155352348176295,-1.8346073652564316e-05,-0.005782248707432522,0.009673186206541933
3.4343434343434343,0.4050632911392405,0.01001327365979747,0.009016419990149006,-0.00012413276421725252,-0.005708908094983942,0.009556349975863099
3.5353535353535355,0.4050632911392405,0.010024345553983887,0.008985535819480986,4.522913318555921e-05,-0.005702964412039462,0.009547742074969418
3.6363636363636362,0.4050632911392405,0.010187117248364925,0.009120642241205738,4.228474852444684e-05,-0.005792327846871199,0.00969823617119738
3.7373737373737375,0.4050632911392405,0.010148437615140577,0.008940441036914394,4.0544128858443095e-06,-0.005726663595616491,0.00960160471810656
3.8383838383838382,0.4050632911392405,0.01019060486015138,0.009020374019219148,-3.083940041536501e-05,-0.005763293663811158,0.009658952362837326
3.9393939393939394,0.4050632911392405,0.00986212713901319,0.008928657334026563,-4.30256876945176e-05,-0.005637235341911925,0.009430401545802759
4.040404040404041,0.4050632911392405,0.01008425320668293,0.009179431479061324,4.933507711189561e-06,-0.005779105405723277,0.009663668387601137
4.141414141414141,0.4050632911392405,0.009898303689828898,0.00904598653005422,1.213777692400529e-05,-0.005683287065964935,0.009500884609672435
4.242424242424242,0.4050632911392405,0.009847380250336756,0.008915760382063544,0.00010418042554964455,-0.00562894218972009,0.009417927530260144
4.343434343434343,0.4050632911392405,0.009974450322798431,0.009032655644036018,-9.624054286394675e-05,-0.005702131790050334,0.009539944389125105
4.444444444444445,0.4050632911392405,0.00984781105082246,0.008854888440340759,-4.418797608245026e-05,-0.005610809847348965,0.009391113953024123
4.545454545454545,0.4050632911392405,0.009839746321418874,0.00889743990269626,1.8820704773775204e-05,-0.0056211558672345395,0.009404124392847608
4.646464646464646,0.4050632911392405,0.009730878399607623,0.008926884288460855,-7.827080702326242e-06,-0.0055973288064205436,0.00935483916583904
4.747474747474747,0.4050632911392405,0.009939741822942274,0.008833802167410953,-1.549475451969039e-05,-0.0056320631971059675,0.00943554638815063
4.848484848484849,0.4050632911392405,0.009809504959880788,0.00886520318548873,7.081497326091946e-05,-0.005602412443610856,0.009373900188333376
4.94949494949495,0.4050632911392405,0.009850110711056074,0.008848125168385564,6.049973186914959e-05,-0.005609470763832491,0.009389886483566716
5.05050505050505,0.4050632911392405,0.009919606060221001,0.008778478001037133,1.1033598586146227e-05,-0.00560942521837744,0.00940114791113057
5.151515151515151,0.4050632911392405,0.009883123008450111,0.00896256444098776,-5.388815648103284e-06,-0.005653706234831361,0.009456513207074451
5.252525252525253,0.4050632911392405,0.009876710136039546,0.008894183198263263,-2.3760336087513264e-05,-0.005631268000290843,0.009424028978640104
5.353535353535354,0.4050632911392405,0.010016500786259435,0.008909975749610936,-3.225340446845199e-05,-0.005677942960761112,0.009511797811379289
5.454545454545454,0.4050632911392405,0.009873605663707858,0.00915277234219699,-2.0451848177968752e-05,-0.005707913401771455,0.009533714929041403
5.555555555555555,0.4050632911392405,0.010008340204861146,0.008887600373315024,-7.349125399589211e-06,-0.005668782173452851,0.009497702245276704
5.656565656565657,0.4050632911392405,0.009996394871921678,0.008893938863375523,0.00010456049849370439,-0.00566710012058916,0.00949502673979106
5.757575757575758,0.4050632911392405,0.009994112068406065,0.00893142039676155,-8.869306181939425e-05,-0.0056776597395502846,0.009508655496015721
5.858585858585858,0.4050632911392405,0.009834216298298342,0.009048173178066589,-3.294697717571803e-05,-0.005664716842909479,0.009465876210597045
5.959595959595959,0.4050632911392405,0.010137901754889617,0.009038407315320187,-2.872546248044842e-06,-0.005752892721062942,0.009635320345510139
6.0606060606060606,0.4050632911392405,0.01002123623254657,0.009158768488955644,-1.0573870575701643e-05,-0.005754001416450664,0.009619062774302899
6.161616161616162,0.4050632911392405,0.010201589722260053,0.00891642738259912,-6.974476796295218e-06,-0.005735405131457751,0.009623591954923266
6.262626262626262,0.4050632911392405,0.010132848177800781,0.009024418199098857,2.9724990676713622e-05,-0.00574717991306989,0.009626750606894748
6.363636363636363,0.4050632911392405,0.01014265081767086,0.009139337749987486,-8.17995012533999e-05,-0.005784596570297503,0.009681106449672005
6.4646464646464645,0.4050632911392405,0.010082634545464137,0.0092269868240826,-2.149166036145167e-05,-0.005792886410864021,0.009683277069284879
6.565656565656566,0.4050632911392405,0.010124239926140305,0.009015502970697229,-1.0718743952565802e-05,-0.005741922869051261,0.00961793935523355
6.666666666666667,0.4050632911392405,0.010110117210068562,0.009014779693728988,5.780507887227421e-05,-0.005737469071139265,0.009609904676045297
6.767676767676767,0.4050632911392405,0.010028957744846832,0.009066540593510693,5.8290784909957816e-05,-0.005728649501507257,0.009584591421873939
6.8686868686868685,0.4050632911392405,0.010204483087655267,0.009217041492930253,-4.30779917211403e-05,-0.005826457374175656,0.009748628215083849
6.96969696969697,0.4050632911392405,0.010015205544584389,0.009165636551156967,5.506185572850894e-05,-0.005754252628722406,0.009619074638719395
7.070707070707071,0.4050632911392405,0.010190308772299763,0.009183737694269061,-7.80099027445646e-06,-0.005812213939970647,0.00972617554282698
7.171717171717171,0.4050632911392405,0.010263458736133105,0.009132289540527042,-0.00015695962169887155,-0.005818724482998044,0.00975101684867988
7.2727272727272725,0.4050632911392405,0.010209462807577879,0.009219548339062088,1.5134161168565515e-06,-0.00582870334399199,0.009752259912275858
7.373737373737374,0.4050632911392405,0.010373388055663135,0.009274527456287844,-6.0138988224519644e-05,-0.005894374653585293,0.009870492239374364
7.474747474747475,0.4050632911392405,0.01034907799130504,0.009134652375409084,6.582818979752375e-05,-0.005845119110014237,0.009799135649884062
7.575757575757575,0.4050632911392405,0.010488532218921277,0.009231753552174628,5.030829357030542e-05,-0.005916085731328772,0.0099204148078354
7.6767676767676765,0.4050632911392405,0.010451356246857803,0.009529071077868979,-1.8485651245709148e-05,-0.005994128197418035,0.010022143065596333
7.777777777777778,0.4050632911392405,0.010606455210009632,0.009390959096198536,3.541424382739849e-05,-0.00599922429186245,0.01005415239299414
7.878787878787879,0.4050632911392405,0.010385830298288956,0.009617965260832185,1.2353592190854696e-05,-0.006001138667736342,0.010024002671752942
7.979797979797979,0.4050632911392405,0.010335363437754841,0.009619924944024177,-0.00013734246779079356,-0.005986586514533706,0.009999693077244994
8.080808080808081,0.4050632911392405,0.010597909151671388,0.009512448492077667,9.567051412552797e-05,-0.006033107293124717,0.010100383572634129
8.181818181818182,0.4050632911392405,0.010778594809552162,0.009457340567908786,-4.149309825539877e-05,-0.006070780613238284,0.010182716718052105
8.282828282828282,0.4050632911392405,0.01075641552265938,0.009659026231672358,-6.163866243341983e-05,-0.00612463252629952,0.01025242219781391
8.383838383838384,0.4050632911392405,0.010609052151273526,0.009681192361110057,-3.1252561508744515e-05,-0.006087073353715075,0.01017703928475921
8.484848484848484,0.4050632911392405,0.010671649687811332,0.00979627954812852,-1.1977017242502448e-05,-0.006140378770781956,0.010262025473061966
8.585858585858587,0.4050632911392405,0.011006598275304848,0.00984763753624621,6.744248652964022e-05,-0.0062562707434653175,0.010475964193520426
8.686868686868687,0.4050632911392405,0.011027750990324858,0.009692938528716267,-2.2899911487744814e-05,-0.006216206855712337,0.010424711506066381
8.787878787878787,0.4050632911392405,0.011094040132959785,0.010037214946166119,2.2443575715272976e-05,-0.00633937652373777,0.010605265487182526
8.88888888888889,0.4050632911392405,0.011069772041168683,0.010153677026436896,6.938958582323066e-05,-0.006367034720281673,0.01064201883489155
8.98989898989899,0.4050632911392405,0.011238484845366074,0.01005395943522808,-3.0507788787608345e-05,-0.006387733284178246,0.010695660960012184
9.09090909090909,0.4050632911392405,0.011112602909960127,0.010344260548430762,1.270408746905878e-05,-0.006437059037517266,0.010749069449859984
9.191919191919192,0.4050632911392405,0.011336165630140315,0.01021552418570624,-2.9555500345342636e-05,-0.006465506944753966,0.01081958095296003
9.292929292929292,0.4050632911392405,0.011277598683160452,0.010521781675908932,-1.2836826156086263e-05,-0.0065398141077208155,0.01091934910484596
9.393939393939394,0.4050632911392405,0.011601024771816126,0.010396476004188224,-7.352018063722091e-05,-0.006599250232801305,0.011048842882793482
9.494949494949495,0.4050632911392405,0.011706657916898544,0.01058804478592328,-2.663428068727528e-05,-0.006688410810846546,0.011189461193869819
9.595959595959595,0.4050632911392405,0.011690777165652639,0.010760409244508983,0.00012332227509629062,-0.006735355923048486,0.011256498403503689
9.696969696969697,0.4050632911392405,0.01190757686609978,0.010539733008866934,-7.729491931638166e-06,-0.006734192962490015,0.01128600270264713
9.797979797979798,0.4050632911392405,0.011971502442732653,0.010747023286341865,-2.8613151194115622e-06,-0.006815557718722356,0.011408654140184743
9.8989898989899,0.4050632911392405,0.012302130532812983,0.010999587877688231,-4.701647664214789e-05,-0.006990515523150364,0.011705623216818268
10.0,0.4050632911392405,0.012387199292938909,0.011118482167747738,1.706438209643241e-05,-0.007051704438205995,0.01180412517597306
0.0,0.5063291139240507,0.012239504604595611,0.011042835638123343,-6.732144063872579e-06,-0.006984702072815686,0.011687214818818558
0.10101010101010101,0.5063291139240507,0.012191642810317229,0.011109909722324642,-4.392165060023748e-05,-0.006990465759792561,0.011688626300694406
0.20202020202020202,0.5063291139240507,0.012090659125114539,0.010730697446782143,-4.520488612338965e-05,-0.006846406971569005,0.011471566205863119
0.30303030303030304,0.5063291139240507,0.011988522313277026,0.010656035633684863,7.126890626352631e-05,-0.0067933673840885654,0.01138160267659158
0.40404040404040403,0.5063291139240507,0.011732826323675555,0.010588387463840124,-2.0190039882397906e-05,-0.006696364136254703,0.011204582740024388
0.5050505050505051,0.5063291139240507,0.011736115059848305,0.010495881008308927,-6.074744542292759e-05,-0.00666959882044717,0.011168263894937486
0.6060606060606061,0.5063291139240507,0.011499801582205895,0.010412034436659726,-2.9680219667811827e-05,-0.006573550805659687,0.010996463531423637
0.7070707070707071,0.5063291139240507,0.0115932897625935,0.010208705356131895,7.699668736313033e-05,-0.006540598535617619,0.0109675584677169
0.8080808080808081,0.5063291139240507,0.011373013130540333,0.01022480131709637,-7.45224394813977e-05,-0.006479344334291011,0.010845360795611835
0.9090909090909091,0.5063291139240507,0.011293922844106342,0.010163429012750589,-1.952402102316094e-05,-0.00643720555705708,0.010773306965202522
1.0101010101010102,0.5063291139240507,0.01134316354376909,0.010162010286231395,-1.3311529540153661e-05,-0.006451552149000146,0.010801157309216197
1.1111111111111112,0.5063291139240507,0.01130018054639068,0.010072948545989089,3.1187369894699415e-05,-0.006411938727713931,0.010739420540378922
1.2121212121212122,0.5063291139240507,0.01094945252367153,0.010079024045102268,-3.459486644623779e-05,-0.006308542970632138,0.010541396084838514
1.3131313131313131,0.5063291139240507,0.01093652562469819,0.00976421137787499,-7.576681969932927e-05,-0.006210221100771954,0.010400869697544822
1.4141414141414141,0.5063291139240507,0.010877417387979262,0.009592417573652265,3.324724157355819e-05,-0.006140950488489458,0.010295400447211374
1.5151515151515151,0.5063291139240507,0.010781421370160558,0.009758613017263584,2.1859018327509105e-05,-0.006162010316227242,0.010308214651638524
1.6161616161616161,0.5063291139240507,0.010785845307532413,0.00946403000249042,-5.937007932492007e-05,-0.00607496259300685,0.010189962399945726
1.7171717171717171,0.5063291139240507,0.010688208167186308,0.009621883515128557,-6.763596453721174e-05,-0.00609302750469446,0.010197620609965593
1.8181818181818181,0.5063291139240507,0.010776807984167379,0.009607434645577369,4.480560017842695e-05,-0.006115272788923424,0.010242603918254952
1.9191919191919191,0.5063291139240507,0.010657727054076954,0.009469226501973656,-2.587948653627649e-05,-0.006038086066815183,0.010116075043073132
2.0202020202020203,0.5063291139240507,0.010603951847944798,0.009573249645108474,1.0761363875045174e-05,-0.006053160447915981,0.010128029063785012
2.121212121212121,0.5063291139240507,0.010530163922137585,0.009530838102927174,4.81334345745961e-05,-0.006018300607519427,0.01006811253983041
2.2222222222222223,0.5063291139240507,0.010385709051984424,0.009363951701263359,-4.333942534538337e-05,-0.005924898225974334,0.009914681081470858
2.323232323232323,0.5063291139240507,0.01060060983500178,0.009285080497785318,1.1238092287504322e-06,-0.005965707099836129,0.010007903720036728
2.4242424242424243,0.5063291139240507,0.010401227117022524,0.00936151954374027,-4.224220010375556e-05,-0.005928823998228839,0.009922582122776155
2.525252525252525,0.5063291139240507,0.010196060254296728,0.009330588509854682,1.5485165864065197e-05,-0.005857994629245422,0.009792088815265113
2.6262626262626263,0.5063291139240507,0.010257571585577767,0.009340889057031383,-9.72413653604533e-06,-0.005879538192782746,0.009831349282274316
2.727272727272727,0.5063291139240507,0.010396065534957493,0.009304550204861404,1.8989213036224634e-06,-0.00591018472194567,0.00989556113803469
2.8282828282828283,0.5063291139240507,0.009983029883649134,0.009219029616010094,-3.007004654627596e-05,-0.0057606178498977685,0.00962394187362567
2.929292929292929,0.5063291139240507,0.01018491133987592,0.009150767440657251,-1.7339753884734412e-05,-0.005800703634159951,0.009709279616964533
3.0303030303030303,0.5063291139240507,0.010175788021654761,0.009353312278680982,6.480474350324486e-05,-0.005858730090100722,0.0097911382566237
3.131313131313131,0.5063291139240507,0.010149643337758269,0.009113086762228226,-7.802593504135853e-06,-0.005778819029995949,0.009673118034963367
3.2323232323232323,0.5063291139240507,0.009957093312379973,0.008928201922885069,0.00011020968499818156,-0.005665588570579512,0.009486516519424603
3.3333333333333335,0.5063291139240507,0.009996783189919917,0.009269959738883332,-2.8231306744749346e-05,-0.005780022878640974,0.009654037551093408
3.4343434343434343,0.5063291139240507,0.010057689270169387,0.008956541357790353,5.1497633877541216e-06,-0.005704269188387922,0.009554826853334496
3.5353535353535355,0.5063291139240507,0.01008019568645394,0.008866826280668308,-8.145508879944938e-06,-0.005684106590136674,0.009531621498452948
3.6363636363636362,0.5063291139240507,0.010021675067983868,0.00900808242033267,-5.12949427813735e-06,-0.0057089272464949615,0.00955528775038716
3.7373737373737375,0.5063291139240507,0.009823589676421088,0.009031813752133133,1.4727926903596848e-05,-0.005656621028566265,0.009452639429523783
3.8383838383838382,0.5063291139240507,0.010070638389784626,0.008920260244307488,-5.812936526308027e-06,-0.005697269590227635,0.009547574902114001
3.9393939393939394,0.5063291139240507,0.009934164251308402,0.009049403432196238,-5.798989637817779e-05,-0.005695070305051392,0.009523190130574592
4.040404040404041,0.5063291139240507,0.009997814540375714,0.008957525887634953,3.1932619379011416e-05,-0.005686602128403199,0.00952055366681744
4.141414141414141,0.5063291139240507,0.009956564105745016,0.009116835676775657,1.7372300912157136e-05,-0.005722019934756201,0.009564434540645692
4.242424242424242,0.5063291139240507,0.010036417461250325,0.009099344732345447,-6.878114756795122e-05,-0.005740728658078732,0.009602974549361647
4.343434343434343,0.5063291139240507,0.009842877115777422,0.009012926278952194,1.840700799379667e-05,-0.005656741018418884,0.00945531388493604
4.444444444444445,0.5063291139240507,0.009858847651434301,0.00910819702836882,-2.980560208128415e-05,-0.0056901134039409355,0.00950591754443461
4.545454545454545,0.5063291139240507,0.00988057707963197,0.009077881159845069,-8.379267097859459e-05,-0.005687537471843112,0.009505792386453629
4.646464646464646,0.5063291139240507,0.010019904182195354,0.008941394242828556,-1.593456765589893e-06,-0.005688389527507173,0.009526547374311519
4.747474747474747,0.5063291139240507,0.009979554503613517,0.009037369768699082,0.0001201016937048381,-0.00570507728169378,0.009545674910724734
4.848484848484849,0.5063291139240507,0.009957794808452113,0.008733486645876124,5.811517200318649e-05,-0.005607384436298471,0.009406132604773984
4.94949494949495,0.5063291139240507,0.009981788690362675,0.00890270328574862,2.0072988777015513e-05,-0.0056653475928333885,0.009488442288196026
5.05050505050505,0.5063291139240507,0.009824869622201486,0.009030417176465086,1.681521627163705e-05,-0.005656586039599972,0.009452760143782856
5.151515151515151,0.5063291139240507,0.009947654747069214,0.009021923725528142,-9.778973627661054e-05,-0.005690873541779207,0.009520118108393037
5.252525252525253,0.5063291139240507,0.009856896107770434,0.008925744172972854,-5.610824974266076e-06,-0.005634792084222986,0.00942588305503939
5.353535353535354,0.5063291139240507,0.009887702554609664,0.009160743477261184,2.02399279270015e-05,-0.005714533809561255,0.00954507229655313
5.454545454545454,0.5063291139240507,0.009895960647983199,0.008954260601582581,8.222802587979925e-06,-0.005655066374869734,0.009460338913901854
5.555555555555555,0.5063291139240507,0.01011715283694948,0.008980893153293491,-5.3232454556247576e-05,-0.005729413797072891,0.009600034155956928
5.656565656565657,0.5063291139240507,0.009905439883561342,0.00912550563339238,7.860329856133822e-05,-0.005709283655086117,0.009540386801848728
5.757575757575758,0.5063291139240507,0.0098695322467485,0.008970047500688808,-8.345923505573421e-06,-0.005651873924231192,0.009451955080015222
5.858585858585858,0.5063291139240507,0.009966237439255867,0.008890738446967215,1.0540386333720478e-06,-0.005657092765866924,0.00947438186839661
5.959595959595959,0.5063291139240507,0.01005936568182691,0.008947218915386785,1.9401692920636745e-05,-0.005701975379164109,0.00955203363752464
6.0606060606060606,0.5063291139240507,0.009957290713080163,0.008970908657373426,4.4600504780328756e-05,-0.005678459811136077,0.009502887068510026
6.161616161616162,0.5063291139240507,0.009984399968264954,0.008997043687424919,-1.0206719454660856e-05,-0.0056944330967069615,0.009529179800165601
6.262626262626262,0.5063291139240507,0.009984018730166815,0.008978979384812243,-1.49507510879437e-05,-0.005688899434493717,0.009521400790657442
6.363636363636363,0.5063291139240507,0.009995142049771089,0.008989640846755636,-3.125565313368943e-05,-0.005695434868958018,0.009532402669661568
6.4646464646464645,0.5063291139240507,0.009910461584647636,0.009124497008260372,2.6704290394594124e-05,-0.005710487577872402,0.00954190005985751
6.565656565656566,0.5063291139240507,0.009973927331263172,0.009056303520722769,8.454385552070788e-06,-0.005709069255595782,0.009548254347949032
6.666666666666667,0.5063291139240507,0.010022488449464186,0.00904438593658837,-8.232725442370041e-05,-0.0057200623158157665,0.009572056802908666
6.767676767676767,0.5063291139240507,0.010193533149436619,0.009217079058909807,1.9860746821911455e-05,-0.005823183662503927,0.009742137694914535
6.8686868686868685,0.5063291139240507,0.010135532596008169,0.009150723893095755,2.4172067544392853e-06,-0.0057858769467311775,0.009680770940660683
6.96969696969697,0.5063291139240507,0.010250908519607724,0.009173341747887045,1.640694549498934e-05,-0.005827275080248431,0.009756897293083825
7.070707070707071,0.5063291139240507,0.010255539304333797,0.008922590998932344,-9.131600164454333e-05,-0.0057534390909798425,0.009659593661608507
7.171717171717171,0.5063291139240507,0.010122068837375363,0.009221569470531892,-4.053997895905553e-05,-0.005803091492372177,0.009703462812250603
7.2727272727272725,0.5063291139240507,0.010276731223706655,0.009265502005319774,-7.83698805828197e-05,-0.005862669968707928,0.009811222340159935
7.373737373737374,0.5063291139240507,0.010388689165779438,0.009347435304485117,-1.7588723903467055e-05,-0.005920837341079367,0.009909224872249836
7.474747474747475,0.5063291139240507,0.010299416711855755,0.009204484719698208,8.13716629918762e-05,-0.0058511704294661885,0.009798957284126967
7.575757575757575,0.5063291139240507,0.010350629009655212,0.009291261502470385,9.559110160897166e-05,-0.005892567153637679,0.009865093681012974
7.6767676767676765,0.5063291139240507,0.01038990479868248,0.00940778557368244,-1.7803194524868685e-05,-0.0059393071117094754,0.009935366400405146
7.777777777777778,0.5063291139240507,0.010350130519798897,0.00929773127030913,5.342756834101274e-05,-0.005894358537032408,0.009866551569885914
7.878787878787879,0.5063291139240507,0.010552356127730525,0.009339340376506614,-4.1606191748635254e-05,-0.0059675089512711416,0.010001432201904057
7.979797979797979,0.5063291139240507,0.010621700082008072,0.009524755820499163,1.1689678612155731e-05,-0.006043936770752171,0.01011794427432363
8.080808080808081,0.5063291139240507,0.01062209869670541,0.00949539962643903,0.00012475647313274358,-0.0060352494969433314,0.01010827459680433
8.181818181818182,0.5063291139240507,0.010550477290798665,0.009601223748802408,-3.5405520418372456e-05,-0.0060455103118803215,0.010109517103464308
8.282828282828282,0.5063291139240507,0.01095301497444532,0.009723635767125786,1.4743839019767644e-05,-0.006202995222471332,0.010393033894928735
8.383838383838384,0.5063291139240507,0.010571451622373445,0.009666955140031637,7.363614975690554e-07,-0.006071522028721525,0.010149476051095063
8.484848484848484,0.5063291139240507,0.010949438780541665,0.009827931409288051,-2.9260749443168912e-05,-0.006233211056948915,0.010434111397886846
8.585858585858587,0.5063291139240507,0.01079861941072729,0.009900814315937844,-1.5920816163602863e-07,-0.00620983011799954,0.010378881429054127
8.686868686868687,0.5063291139240507,0.0111302885191209,0.009885976430237978,3.779929800757383e-05,-0.006304879484807663,0.010563444935110296
8.787878787878787,0.5063291139240507,0.011133225531794409,0.010066658001096289,7.188383920017219e-05,-0.00635996505986721,0.010640838408424481
8.88888888888889,0.5063291139240507,0.01102705300256983,0.010003338090126785,6.366848086823031e-05,-0.006309117327808985,0.010553079767100229
8.98989898989899,0.5063291139240507,0.011151261060393483,0.009992160721179026,3.987215699607353e-05,-0.006343026534471753,0.0106194856618555
9.09090909090909,0.5063291139240507,0.011012074864648298,0.01020734779721054,3.548620935068384e-05,-0.006365826798557651,0.01063275324544939
9.191919191919192,0.5063291139240507,0.011470326096725663,0.010216553189033096,1.2289656111589269e-05,-0.006506063785727627,0.01089768765719398
9.292929292929292,0.5063291139240507,0.011532590781733649,0.010376355108579333,-6.956864775138681e-05,-0.006572683767093895,0.011000802588689672
9.393939393939394,0.5063291139240507,0.011620351183686215,0.010571167071028148,-1.9850770950293e-05,-0.006657455476414308,0.011132953033599968
9.494949494949495,0.5063291139240507,0.011767522569564343,0.010470419959518494,-6.73477327997721e-05,-0.006671382758724851,0.011176179379321825
9.595959595959595,0.5063291139240507,0.011735317548942569,0.010637061197486,-1.7370456668327788e-05,-0.0067117136239285705,0.011226591786995855
9.696969696969697,0.5063291139240507,0.011797900009559235,0.010874977922069847,-3.872588634698531e-05,-0.006801863379488724,0.011364778325736942
9.797979797979798,0.5063291139240507,0.012049597845851077,0.01101618077559787,-0.00011477100569493339,-0.006919733586434684,0.011569270337211657
9.8989898989899,0.5063291139240507,0.012075004405609277,0.010902999668128082,0.0001140426791887568,-0.006893401222121208,0.011535440231292044
10.0,0.5063291139240507,0.012241825931416123,0.011054668550045603,-1.574540936245762e-05,-0.006988948344438518,0.011693562952370376
0.0,0.6075949367088608,0.012452623526738118,0.0110562552421127,1.5940338036801492e-05,-0.007052663630655246,0.011816513479660241
0.10101010101010101,0.6075949367088608,0.012061126479700635,0.011041164231944487,6.952869068631577e-05,-0.006930687213493537,0.011585495414006369
0.20202020202020202,0.6075949367088608,0.012079372831587751,0.01088536751316467,2.237369971918638e-05,-0.006889422103425726,0.011528901207318469
0.30303030303030304,0.6075949367088608,0.012049938218253845,0.010691899251801194,2.22897028200441e-05,-0.006822551241016511,0.011431644052670555
0.40404040404040403,0.6075949367088608,0.011889467249636448,0.010564033292268977,-0.00015690230569885493,-0.0067360501625716275,0.011288549863841889
0.5050505050505051,0.6075949367088608,0.011632403222482988,0.010549946143936523,4.5957924848805145e-05,-0.006654704809925853,0.011131005221506894
0.6060606060606061,0.6075949367088608,0.011565463366539769,0.010600947533245227,1.7822687415576196e-05,-0.006649923269935498,0.011114680116116426
0.7070707070707071,0.6075949367088608,0.011530970475875759,0.010390033550586243,4.017109026591437e-05,-0.0065763012079386,0.01100516916417631
0.8080808080808081,0.6075949367088608,0.011397121873870934,0.010336239337225717,3.802068438196284e-05,-0.006520008363328995,0.010905649357912706
0.9090909090909091,0.6075949367088608,0.011388255248667397,0.010194673464830044,0.00010228808626051507,-0.006474878614049232,0.010842304627097593
1.0101010101010102,0.6075949367088608,0.01128689676461509,0.009956877838439846,-2.8254738532690882e-05,-0.006373132380916481,0.010684268697252395
1.1111111111111112,0.6075949367088608,0.011061717786881,0.010131888983405014,-0.0001320010118783935,-0.006358082031085803,0.01062981424991139
1.2121212121212122,0.6075949367088608,0.011059309395237298,0.009898221734155934,5.16498868531816e-05,-0.00628725933881797,0.010527280005293104
1.3131313131313131,0.6075949367088608,0.010744440882589017,0.009687198169823972,-8.323961288308222e-05,-0.006129491715723897,0.010257781276024155
1.4141414141414141,0.6075949367088608,0.01091630164016962,0.009732166669602384,3.7728926293164895e-05,-0.006194540492931601,0.010375245202979185
1.5151515151515151,0.6075949367088608,0.01101041942275499,0.009666384948018946,3.7667743354822335e-05,-0.006203041311232181,0.010403924155117704
1.6161616161616161,0.6075949367088608,0.0106633182020914,0.009755800062716282,-4.4212968239716454e-05,-0.006125735479442305,0.010240051460696061
1.7171717171717171,0.6075949367088608,0.010537489735043898,0.009549325764759553,-1.6437063074464301e-06,-0.0060260446499410345,0.010079801504009065
1.8181818181818181,0.6075949367088608,0.010783007800879697,0.009641419228195698,2.2878381422702694e-05,-0.006127328108722619,0.01026003379524054
1.9191919191919191,0.6075949367088608,0.010480995205796857,0.00943151615290258,-1.8124135126832556e-06,-0.005973753407609831,0.0099976543108351
2.0202020202020203,0.6075949367088608,0.01061919890052689,0.009372032646771456,3.267447297950041e-05,-0.005997369464189504,0.010053959682948675
2.121212121212121,0.6075949367088608,0.01038714707909103,0.009369053241000052,-9.81259439558674e-05,-0.005926860096027324,0.009918827308300742
2.2222222222222223,0.6075949367088608,0.010519714558042894,0.009373811309473137,1.1844713400844025e-05,-0.00596805776025481,0.00999616598718734
2.323232323232323,0.6075949367088608,0.01045938564672738,0.009519469331891586,3.644640985822839e-05,-0.0059936564935856905,0.01002273558444587
2.4242424242424243,0.6075949367088608,0.010369827340300007,0.00944689937250072,-5.541464855636288e-05,-0.005945018013840218,0.009941012210916499
2.525252525252525,0.6075949367088608,0.010199272764662143,0.009328129176266402,3.430323520841988e-05,-0.005858220582278563,0.009792984996423946
2.6262626262626263,0.6075949367088608,0.010169300794783575,0.009045249126406687,-8.357245505697732e-05,-0.005764364976357078,0.009657551674679073
2.727272727272727,0.6075949367088608,0.010158774944236055,0.009368235260611679,-2.408555053567128e-05,-0.00585810306145432,0.009787567980342686
2.8282828282828283,0.6075949367088608,0.01016436385797818,0.009154788228186614,-6.21881562301989e-05,-0.005795745625849439,0.00969966203775261
2.929292929292929,0.6075949367088608,0.010310931641694072,0.009080198966979949,-5.4424987650006564e-05,-0.005817339182602206,0.009754429762726393
3.0303030303030303,0.6075949367088608,0.010105541647528749,0.009051979448215269,-3.91916572666962e-05,-0.005747256328723205,0.00962235712142996
3.131313131313131,0.6075949367088608,0.01013320833893975,0.009074980044645842,-3.931349843574826e-05,-0.005762456515075678,0.009647960781452164
3.2323232323232323,0.6075949367088608,0.009990755594776343,0.009310708100711539,-3.858318370343067e-05,-0.005790439108646364,0.009668916155851758
3.3333333333333335,0.6075949367088608,0.010018837835177322,0.008917329566350187,-8.011707443103857e-05,-0.005680850220458253,0.009517029765175444
3.4343434343434343,0.6075949367088608,0.010036301932238584,0.009029110758667146,3.7420580498814414e-05,-0.005719623807271719,0.009572748649852981
3.5353535353535355,0.6075949367088608,0.010132054970699142,0.00907523098833137,5.4313226110005014e-05,-0.0057621857877091535,0.009647614521469276
3.6363636363636362,0.6075949367088608,0.010065651604439086,0.008951062938391421,3.735024468813591e-05,-0.005705014362849152,0.009557446000060452
3.7373737373737375,0.6075949367088608,0.010028018519334426,0.008634180030533348,-1.3673202964190879e-05,-0.005598659564960332,0.009408882178439534
3.8383838383838382,0.6075949367088608,0.010191539026514826,0.008944054316740722,-0.00015088631761451214,-0.005740678002976664,0.009632143934139555
3.9393939393939394,0.6075949367088608,0.010121373660427039,0.009221781755756909,5.177179195937644e-06,-0.005802946624855185,0.009702909098276966
4.040404040404041,0.6075949367088608,0.009938187018284864,0.009126433343537998,6.574155149176407e-05,-0.005719386108546858,0.009558876045918482
4.141414141414141,0.6075949367088608,0.010183783218517312,0.008998411559293928,-1.661477061905746e-05,-0.005754658433343372,0.009645921767936326
4.242424242424242,0.6075949367088608,0.00999538054595715,0.009079741837180983,-2.7298457202962618e-05,-0.00572253671494144,0.009570585394006905
4.343434343434343,0.6075949367088608,0.009876237106900585,0.00915078445780256,3.1944955702972704e-05,-0.0057081064694109425,0.009534393531109712
4.444444444444445,0.6075949367088608,0.009829197414880454,0.008751137085198018,-7.567109993425947e-06,-0.005574100350023542,0.009336971664998712
4.545454545454545,0.6075949367088608,0.010018419167379113,0.008894233207998942,8.82030559171806e-05,-0.005673795712613417,0.009507538580444643
4.646464646464646,0.6075949367088608,0.009844484373636535,0.00882933330010021,9.78892367464605e-06,-0.005602145302121024,0.009378222266167895
4.747474747474747,0.6075949367088608,0.009906360108084591,0.009056790021998308,4.839090303926896e-05,-0.00568894503902487,0.009510447820733056
4.848484848484849,0.6075949367088608,0.009823965686178349,0.00909897676527044,-5.45321588995537e-05,-0.005676882735434637,0.00948275095770488
4.94949494949495,0.6075949367088608,0.009819569417041651,0.008894075559320177,1.2512126083425313e-05,-0.005614093492908548,0.009391112867798767
5.05050505050505,0.6075949367088608,0.010074452307947823,0.008915589909671565,2.8347908071782643e-05,-0.005697012665285816,0.009548039495730092
5.151515151515151,0.6075949367088608,0.009827437654669823,0.008818983753609004,-1.5858073287947793e-05,-0.005593926422483648,0.009364066783303532
5.252525252525253,0.6075949367088608,0.009885673088396437,0.008878068312907843,2.5020384794018563e-05,-0.005629122420391285,0.009422463926193156
5.353535353535354,0.6075949367088608,0.009874929480050929,0.008874486319383838,-6.960339770919686e-05,-0.00562482473983043,0.009415431322687011
5.454545454545454,0.6075949367088608,0.009971879247411256,0.009023718429384502,5.1084157678885615e-05,-0.005698679303038727,0.00953363877282962
5.555555555555555,0.6075949367088608,0.010147719295862551,0.008994844910612284,1.0988810526719322e-05,-0.00574276926194245,0.009623234532772643
5.656565656565657,0.6075949367088608,0.009868683927245213,0.008896425115494834,-5.674447549076981e-05,-0.005629532712822014,0.009420772502865512
5.757575757575758,0.6075949367088608,0.009911564303507061,0.008815863150898547,2.2609249376534356e-05,-0.005618228236321682,0.009411752709317699
5.858585858585858,0.6075949367088608,0.010105370226430113,0.008939572862375268,-1.773903512834766e-05,-0.005713482926641614,0.009575892697528975
5.959595959595959,0.6075949367088608,0.009978709456147903,0.008935041525209748,-1.6298344218060477e-05,-0.005674125294407295,0.009500011737720441
6.0606060606060606,0.6075949367088608,0.010004198274242787,0.008894885851062698,3.546428021123517e-05,-0.005669725237591646,0.009498449814497227
6.161616161616162,0.6075949367088608,0.010057097729226642,0.0088526496372088,-2.3341584392924483e-05,-0.005672924209930632,0.009512323178859253
6.262626262626262,0.6075949367088608,0.010163436039965144,0.008991178805131396,-4.465317148891866e-05,-0.005746384453528962,0.00963127403055459
6.363636363636363,0.6075949367088608,0.0099551117020629,0.008997403244214278,7.2488630131534414e-06,-0.0056857544838831535,0.009512492704487924
6.4646464646464645,0.6075949367088608,0.010252895998786775,0.008927327686124443,6.01099875777786e-08,-0.005754067105473365,0.00965857617225737
6.565656565656566,0.6075949367088608,0.01021458819620274,0.009038868315385792,-1.1235932296270891e-05,-0.005776036953476559,0.009680444905996963
6.666666666666667,0.6075949367088608,0.010335626498427144,0.009059525737268452,-3.479989097794931e-05,-0.005818545670708678,0.009760529725540543
6.767676767676767,0.6075949367088608,0.010212249347901306,0.009336303031581788,1.2834530919244638e-05,-0.005864565713844928,0.009803694745895835
6.8686868686868685,0.6075949367088608,0.010117945596283836,0.009120739736346245,-1.9910434591947635e-07,-0.005771605599789024,0.009658031274345565
6.96969696969697,0.6075949367088608,0.010038128619688391,0.009084767964827151,-2.591621389458546e-06,-0.005736868975354662,0.009597030061362807
7.070707070707071,0.6075949367088608,0.010098191068172403,0.00930856239019128,-5.34508798447408e-05,-0.0058220260375091044,0.009727883943844821
7.171717171717171,0.6075949367088608,0.01028443081890276,0.009217839049401426,3.442709842232513e-05,-0.0058506809604912564,0.009794968181746926
7.2727272727272725,0.6075949367088608,0.010255462790324814,0.009084351351011113,4.6228718026309856e-05,-0.005801944242400777,0.009723278281574273
7.373737373737374,0.6075949367088608,0.010107467363960163,0.009221305656612944,-5.6877264979368164e-05,-0.005798631906171932,0.009695309877394311
7.474747474747475,0.6075949367088608,0.010315089289354056,0.009268620769911836,-1.3685024750418432e-05,-0.005875113017779768,0.009833733219520092
7.575757575757575,0.6075949367088608,0.01027108984022787,0.009362068668533325,-0.00012723983233286986,-0.005889947552628359,0.00985056027849551
7.6767676767676765,0.6075949367088608,0.010440456613401641,0.009250441211473722,4.474253082988839e-05,-0.005907269347462608,0.009899544053249864
7.777777777777778,0.6075949367088608,0.01041535083998682,0.00937191455221557,5.1037587710660214e-05,-0.005936179617660717,0.009935207692666467
7.878787878787879,0.6075949367088608,0.010568631803310543,0.009337547629518496,5.523964732874602e-05,-0.0059718538298487115,0.010010485769488332
7.979797979797979,0.6075949367088608,0.010411431390585842,0.009740071942344636,9.459358251606568e-06,-0.006045450999879143,0.010092526081918723
8.080808080808081,0.6075949367088608,0.0106159954671981,0.00962418445015738,3.3432048767997996e-05,-0.006072053975206644,0.010156640226843077
8.181818181818182,0.6075949367088608,0.010597768537583605,0.009663605069288933,-5.35371365137037e-05,-0.006078412082061761,0.010163361147937146
8.282828282828282,0.6075949367088608,0.010734751826755594,0.009784040845601258,-6.757548450653886e-05,-0.006155637801707055,0.010293046247266926
8.383838383838384,0.6075949367088608,0.010946515113903746,0.009727693995856684,6.709739591139705e-05,-0.006202262732928129,0.010391505206104056
8.484848484848484,0.6075949367088608,0.010767375428469724,0.00975726990938864,2.692153120346036e-06,-0.006157393601357509,0.010299539949630837
8.585858585858587,0.6075949367088608,0.01090861392278276,0.00977939714725882,2.2510775027363263e-05,-0.006206403321012474,0.010390203010919048
8.686868686868687,0.6075949367088608,0.01087559575783282,0.009823497329268058,-3.0090439726765262e-05,-0.006209727926130263,0.010389707083856937
8.787878787878787,0.6075949367088608,0.01101210411348346,0.009912539722114769,5.188957352637852e-05,-0.006277393150679469,0.010505952545260067
8.88888888888889,0.6075949367088608,0.010945084627451014,0.010146959766380685,-1.393863702539261e-05,-0.00632761331814951,0.010568676336469107
8.98989898989899,0.6075949367088608,0.011292882935943223,0.010022549665605243,-1.9883674200557754e-05,-0.00639462978046454,0.010714402120164411
9.09090909090909,0.6075949367088608,0.011314680641094787,0.010290133043004081,-7.546386689190518e-05,-0.00648144410522966,0.010839573391159835
9.191919191919192,0.6075949367088608,0.011296061217479952,0.010222245655031907,9.040169498165079e-05,-0.006455492061753557,0.01080040323140211
9.292929292929292,0.6075949367088608,0.011387292074761135,0.010228281196260984,-0.00013699586533489597,-0.006484671981306636,0.010856888837159994
9.393939393939394,0.6075949367088608,0.011371187410849484,0.010314695653567236,-2.978797063675926e-05,-0.006505764919325015,0.010881597960105719
9.494949494949495,0.6075949367088608,0.011598161430926525,0.010462237329565275,2.252034692717612e-05,-0.00661811962814754,0.011074049058004675
9.595959595959595,0.6075949367088608,0.01186696940765072,0.010685632484588979,-3.149559924133255e-05,-0.006765780567671909,0.011322747309735384
9.696969696969697,0.6075949367088608,0.011932507393420224,0.010917542257649368,2.357811823209684e-07,-0.006855014895320877,0.01145878737480487
9.797979797979798,0.6075949367088608,0.011996461234453111,0.01068201487746451,2.623269907447824e-05,-0.006803542833575287,0.011396324454500988
9.8989898989899,0.6075949367088608,0.012210979989701817,0.010949416918534122,-6.246766438796685e-05,-0.006948119072470781,0.011632126155649234
10.0,0.6075949367088608,0.012199995785038671,0.011124280668000032,-0.0001388062476714231,-0.00699728293591161,0.011701758064384636
0.0,0.7088607594936709,0.012468333790521499,0.01104109708057528,-7.917755473877521e-06,-0.007052829261329033,0.01181952945395621
0.10101010101010101,0.7088607594936709,0.012219242314493709,0.011059487662681765,9.20364491804777e-06,-0.006983618993152642,0.01168263003771415
0.20202020202020202,0.7088607594936709,0.012237801214287627,0.010862738709576028,3.20385572244592e-05,-0.0069301619771590965,0.011611628364266983
0.30303030303030304,0.7088607594936709,0.012075678215495218,0.01062331942967446,5.980394842830911e-05,-0.006809699293550904,0.011419451063543315
0.40404040404040403,0.7088607594936709,0.011650905212257033,0.01074361181082268,1.7230910685221606e-05,-0.006718355106923914,0.011224832955296735
0.5050505050505051,0.7088607594936709,0.011555631952249902,0.010501193464427976,8.293391667557983e-05,-0.006617047625003363,0.011067086398980875
0.6060606060606061,0.7088607594936709,0.011587528993670864,0.010579142736541602,9.111284055814941e-06,-0.00665000151906374,0.011117698281475213
0.7070707070707071,0.7088607594936709,0.01135345030727736,0.010380981363346614,-9.117970451761752e-05,-0.0065203295011871925,0.010900944597234945
0.8080808080808081,0.7088607594936709,0.011516059487380503,0.010255110762943343,-5.1999687635192495e-05,-0.006531351075097153,0.010940592725439227
0.9090909090909091,0.7088607594936709,0.01136727245160884,0.010184155105974056,2.6309886730492722e-05,-0.0064654282672748685,0.010824412642864812
1.0101010101010102,0.7088607594936709,0.01112892014229446,0.009990019656587924,3.4182560938329774e-05,-0.006335681939664715,0.010605599023010365
1.1111111111111112,0.7088607594936709,0.011090091338112158,0.00998978426419396,-1.0246164888837802e-06,-0.006323962680691836,0.010582924867180049
1.2121212121212122,0.7088607594936709,0.011113367329390772,0.009946582852200911,3.940654426169674e-05,-0.006317985054477505,0.01057856670594515
1.3131313131313131,0.7088607594936709,0.010894360330543874,0.009686935183455482,1.8034606577488399e-06,-0.006174388654199807,0.010343638026846243
1.4141414141414141,0.7088607594936709,0.010860946123076058,0.009669467674364215,4.763607300088046e-05,-0.006159124139232081,0.010317266882764683
1.5151515151515151,0.7088607594936709,0.010704297181151004,0.009715589970981453,-6.286483671022253e-06,-0.006125966145639737,0.01024579049398668
1.6161616161616161,0.7088607594936709,0.010708587903046983,0.009657851165925331,3.617621271808338e-05,-0.006109931720691694,0.010223987578762658
1.7171717171717171,0.7088607594936709,0.010756282591003155,0.009608528602800353,-1.0201249737609744e-05,-0.006109443358141052,0.010230821098493579
1.8181818181818181,0.7088607594936709,0.010707506911119281,0.009397232635596485,3.1895299222734595e-05,-0.00603142186401473,0.010116363180435909
1.9191919191919191,0.7088607594936709,0.010315155747185877,0.009603407331329816,8.821309881642328e-05,-0.005975568923554708,0.00997950764247494
2.0202020202020203,0.7088607594936709,0.010518268143616857,0.009512993341287511,-1.3792501164596343e-05,-0.00600937844547131,0.010053425433133084
2.121212121212121,0.7088607594936709,0.010458081839071468,0.009431836179425297,2.6636442445432634e-05,-0.0059669754055490295,0.009984699460238448
2.2222222222222223,0.7088607594936709,0.01046855222970742,0.009423848195465349,-1.296455326659056e-05,-0.00596772012755183,0.009987289812414021
2.323232323232323,0.7088607594936709,0.01021557580399747,0.009368795417637486,-7.291866216435142e-06,-0.005875311366490487,0.009819614876240442
2.4242424242424243,0.7088607594936709,0.010412361455052293,0.009208498722900495,-3.4994761347446865e-06,-0.005886258053385837,0.00986567480601763
2.525252525252525,0.7088607594936709,0.010394254215337828,0.00931320721767082,-7.348097513322286e-06,-0.005912238429902594,0.009898114364633582
2.6262626262626263,0.7088607594936709,0.010247988596766669,0.00935761615415011,2.2886507786281357e-05,-0.005881681425275034,0.009833162161987201
2.727272727272727,0.7088607594936709,0.010247553500158497,0.009299286565132991,2.019227862470652e-05,-0.005864052019587447,0.009807923835038502
2.8282828282828283,0.7088607594936709,0.010172130406699467,0.00926082069048116,8.521071121047913e-05,-0.005829885329154188,0.009749591977689313
2.929292929292929,0.7088607594936709,0.010275085444525336,0.009221374299897021,6.299054725105589e-05,-0.005848937923326707,0.009791456451970501
3.0303030303030303,0.7088607594936709,0.010114006789551211,0.009137428653766206,2.9973342168928597e-05,-0.005775430632995225,0.00966294031349914
3.131313131313131,0.7088607594936709,0.010298942672739253,0.009005199384868766,-9.220244874872793e-06,-0.005791242617282405,0.009716895541015496
3.2323232323232323,0.7088607594936709,0.009901991330157772,0.00897723231058614,-6.917313839396725e-05,-0.005663767092223173,0.009474281530635505
3.3333333333333335,0.7088607594936709,0.010087835917158717,0.00895854875678477,4.262399790714088e-05,-0.005713915402183046,0.00957356306818361
3.4343434343434343,0.7088607594936709,0.00998332962642716,0.00899812480185105,-4.926983835802608e-05,-0.005694436328483462,0.009529383873781773
3.5353535353535355,0.7088607594936709,0.009894735709759399,0.009096825835706,-2.739955328077015e-05,-0.0056974684636396196,0.009521008340280662
3.6363636363636362,0.7088607594936709,0.009923481190913012,0.008958469190192959,3.417030449485272e-05,-0.005664585114331791,0.009478077415748147
3.7373737373737375,0.7088607594936709,0.010000422464514037,0.008981383919083671,-1.9360782499685556e-05,-0.005694541915079312,0.009531904195049345
3.8383838383838382,0.7088607594936709,0.00999169786136756,0.00892274556419321,1.1829782233350496e-05,-0.005674333027668231,0.009502444770486885
3.9393939393939394,0.7088607594936709,0.010037512740500657,0.00918512002150139,0.00010023180173180502,-0.005766789828600614,0.009641186225174063
4.040404040404041,0.7088607594936709,0.009909121309563774,0.008877599795770446,4.465347257466854e-05,-0.005636016331600266,0.009436060181310066
4.141414141414141,0.7088607594936709,0.010039780788194565,0.00892450091765457,-5.101282863576029e-05,-0.00568928451175474,0.00953161523420774
4.242424242424242,0.7088607594936709,0.009972511123953129,0.008887026666318208,5.612329414738796e-05,-0.005657861337081401,0.009477008930508152
4.343434343434343,0.7088607594936709,0.010058102241530656,0.009048218754686334,3.0531428433481192e-06,-0.005731896298865097,0.009593112214522193
4.444444444444445,0.7088607594936709,0.009995409786035966,0.009023967213193493,7.732475281804445e-05,-0.005705813099768838,0.0095477687559004
4.545454545454545,0.7088607594936709,0.009904522813146424,0.00884793881119454,-8.57264850888976e-06,-0.00562573848730229,0.009420785637561657
4.646464646464646,0.7088607594936709,0.009901923455115624,0.00892028287761918,2.2925631160130492e-05,-0.005646661899820442,0.009449505448923952
4.747474747474747,0.7088607594936709,0.009953761820701916,0.00903656620930013,-3.2784782930878674e-05,-0.005697098409000614,0.00952849935928669
4.848484848484849,0.7088607594936709,0.009939234408649527,0.00888674888228625,3.3842323358155606e-05,-0.005647794987280733,0.009457200535232519
4.94949494949495,0.7088607594936709,0.009901495844222768,0.009038720710170542,4.1546613336179417e-05,-0.005682064966317993,0.00949981130570612
5.05050505050505,0.7088607594936709,0.009894265068282188,0.008836557664225008,5.4815819910056234e-05,-0.005619246819752158,0.009410579317764522
5.151515151515151,0.7088607594936709,0.009771326691740079,0.008979994600299064,-2.478559177484193e-05,-0.0056253963876117434,0.009400771797315757
5.252525252525253,0.7088607594936709,0.009895662691192846,0.008902340194271705,-5.019847181484296e-05,-0.005639400865639365,0.009438686612414263
5.353535353535354,0.7088607594936709,0.009956342763909463,0.008911887808713216,2.7684935306449773e-05,-0.005660469171786803,0.00947749941795923
5.454545454545454,0.7088607594936709,0.009828903841620213,0.00897616257174016,-3.1585582038152514e-05,-0.0056415199240081116,0.009431648816867554
5.555555555555555,0.7088607594936709,0.010003727422923303,0.008973438594890871,-7.27938220079192e-05,-0.005693149805344252,0.0095312761810979
5.656565656565657,0.7088607594936709,0.010033110048649305,0.008789185250067454,-3.9165184040743855e-06,-0.005646688589615027,0.00947260564859364
5.757575757575758,0.7088607594936709,0.009981034428273488,0.009016302265281304,9.449023412085463e-05,-0.005699201008066438,0.009536745602396928
5.858585858585858,0.7088607594936709,0.010090656779520703,0.00904323905679244,2.2514596382288783e-05,-0.005740168750893942,0.00960993372007763
5.959595959595959,0.7088607594936709,0.009855460205078097,0.00884440468601609,-1.604635898719966e-05,-0.005609959467328256,0.009390883033036554
6.0606060606060606,0.7088607594936709,0.00986244632076545,0.008965361510571536,-3.406839022346333e-05,-0.005648342349401096,0.009446091242762073
6.161616161616162,0.7088607594936709,0.010036179382288986,0.008956195494744579,1.8246451622278164e-05,-0.005697712463110069,0.009542187829028046
6.262626262626262,0.7088607594936709,0.010193536316376905,0.008991703538449351,-1.6209111578834426e-05,-0.005755571956447878,0.00964896091800945
6.363636363636363,0.7088607594936709,0.010029123534865578,0.00908111175899504,-9.316575362610757e-06,-0.005733070588158186,0.00959033776192478
6.4646464646464645,0.7088607594936709,0.010166701922226823,0.009218321999555296,-6.635876888974475e-05,-0.005815507176534635,0.009727927165071539
6.565656565656566,0.7088607594936709,0.01007956207501829,0.008992965956754478,8.212395197571298e-06,-0.005721758409531831,0.009582591092922813
6.666666666666667,0.7088607594936709,0.010039018755183525,0.00907291065813362,-5.879314045137447e-06,-0.005733578823995143,0.009592527759422657
6.767676767676767,0.7088607594936709,0.0099852472222843,0.009261855522315622,4.336475788399986e-06,-0.005774130823379977,0.009643923946923831
6.8686868686868685,0.7088607594936709,0.010004939975725227,0.009133953492505597,6.910813564048763e-05,-0.005741668040469248,0.009599875087248308
6.96969696969697,0.7088607594936709,0.010123757592917707,0.009313441418797641,-6.01348065655092e-05,-0.005831159703514604,0.00974445915208584
7.070707070707071,0.7088607594936709,0.01013737324226967,0.009236364430658046,2.1657606388039702e-05,-0.005812121301878315,0.009718317635761314
7.171717171717171,0.7088607594936709,0.010339166274052507,0.009059658235827254,1.58113528958567e-05,-0.005819647352963927,0.009762540842569183
7.2727272727272725,0.7088607594936709,0.01032570141942564,0.009290773216908894,-0.00011482329714172309,-0.0058849423909003605,0.0098511105844195
7.373737373737374,0.7088607594936709,0.010166333653057908,0.00934849288443226,-5.622989525164418e-06,-0.00585444796124705,0.009783090319180125
7.474747474747475,0.7088607594936709,0.010572874352615075,0.009328464529856209,2.1422410184474527e-05,-0.005970401664741385,0.01000892681274817
7.575757575757575,0.7088607594936709,0.010454881670765546,0.009368585644099349,7.668455387825985e-06,-0.005947040194459468,0.009956287953081027
7.6767676767676765,0.7088607594936709,0.010384007151371758,0.009325428546557987,-9.479834590258451e-05,-0.005912830709378924,0.009898629478811273
7.777777777777778,0.7088607594936709,0.010512115974558247,0.009399990924002602,-3.649527553842357e-05,-0.005973632069568254,0.010002730257104487
7.878787878787879,0.7088607594936709,0.010576173776141272,0.009362532343546504,-2.9682737440296943e-05,-0.005981611835906332,0.010024736294372413
7.979797979797979,0.7088607594936709,0.010562757013646718,0.009599041737690387,-2.819642649856285e-05,-0.006048539625401131,0.010115506793413278
8.080808080808081,0.7088607594936709,0.010501006235579579,0.009586459319131716,-9.427890091288442e-06,-0.006026239666413389,0.010074925895759786
8.181818181818182,0.7088607594936709,0.010711868312144048,0.00967361516990241,-2.094889699050843e-05,-0.006115645044613937,0.010232388673158559
8.282828282828282,0.7088607594936709,0.010664476574055226,0.009819118493591145,8.045715597431333e-05,-0.006145078520293911,0.010268875766062396
8.383838383838384,0.7088607594936709,0.010832746505003116,0.009731694259312976,-9.184579774296263e-07,-0.0061693322292948275,0.010326339891450697
8.484848484848484,0.7088607594936709,0.010852874907472101,0.009710471392238953,-3.897140895623291e-05,-0.006169003889913316,0.010329383980486008
8.585858585858587,0.7088607594936709,0.010772779234892036,0.00997118291279459,4.697692961764734e-05,-0.006223188644305987,0.01039550524936681
8.686868686868687,0.7088607594936709,0.011156376545192052,0.009946074973171322,-5.2809469293363585e-06,-0.006330735455509012,0.010603163259511168
8.787878787878787,0.7088607594936709,0.01096108441929862,0.009962388168035578,4.824475159704439e-06,-0.006277041776200259,0.010497430245380449
8.88888888888889,0.7088607594936709,0.011070531689566393,0.010036268132526475,-9.050159355095715e-06,-0.0063320399466278605,0.01059135360696137
8.98989898989899,0.7088607594936709,0.011365898969989782,0.010098246540216868,8.633988481573271e-05,-0.006439243653061995,0.010789112862510658
9.09090909090909,0.7088607594936709,0.011276789504536906,0.010164511451249376,8.146699894322113e-05,-0.006432390286735884,0.010764763310717506
9.191919191919192,0.7088607594936709,0.011397430830147924,0.010324082363017646,-6.413478045283239e-05,-0.006516453957949671,0.010901028912874502
9.292929292929292,0.7088607594936709,0.011491874697323129,0.010453671931585173,1.6395692257688735e-05,-0.006583663988672491,0.011009584887890207
9.393939393939394,0.7088607594936709,0.011515824381970408,0.010683390734111143,1.8829235609356534e-05,-0.0066597645348244645,0.0111230418904373
9.494949494949495,0.7088607594936709,0.011707950595099981,0.010545388464210034,8.675340664618439e-05,-0.006676001717793005,0.011173138158726129
9.595959595959595,0.7088607594936709,0.011710390576997156,0.010673594868766493,-1.225017639524543e-05,-0.006715195633729095,0.011227972226317584
9.696969696969697,0.7088607594936709,0.011732732189620175,0.010836503291573115,9.140463451587118e-05,-0.006770770644357987,0.01131238620500964
9.797979797979798,0.7088607594936709,0.01192880364508308,0.010846453042291988,-6.599338332768835e-05,-0.00683257700621252,0.011426712422845273
9.8989898989899,0.7088607594936709,0.012288135590791126,0.010883694298520607,-2.7279447311041435e-05,-0.0069515489667935195,0.011649678069247786
10.0,0.7088607594936709,0.012217914523606155,0.011005187569573164,4.369795305374558e-05,-0.006966930627953796,0.011659197066678274
0.0,0.810126582278481,0.012367643518211895,0.011175050833109912,5.6812708310368126e-05,-0.007062808305396542,0.011816979536490519
0.10101010101010101,0.810126582278481,0.01232930407520516,0.010944428900125893,-8.281842845510979e-05,-0.006982119892599316,0.011699386640586824
0.20202020202020202,0.810126582278481,0.012021435611108033,0.010831447534869204,-4.392269054331192e-05,-0.00685586494379317,0.011473073186611739
0.30303030303030304,0.810126582278481,0.01198370156319027,0.010762196812787481,-9.151288279571673e-06,-0.006823769512793325,0.011422052348954227
0.40404040404040403,0.810126582278481,0.011799976459400532,0.010441145585506748,-2.8538852901531048e-05,-0.006672336613472185,0.011182760699414755
0.5050505050505051,0.810126582278481,0.011721033057855192,0.010571712051941696,3.16958693701711e-05,-0.006687823532939067,0.011190859622833903
0.6060606060606061,0.810126582278481,0.01163730358935897,0.010432426693083103,2.6223542634971803e-05,-0.006620919084732621,0.011084182782636015
0.7070707070707071,0.810126582278481,0.011588794798479367,0.010385155117632364,4.153364172957037e-05,-0.0065921849748335195,0.011036546344763599
0.8080808080808081,0.810126582278481,0.01146714965232099,0.010418757673261149,-8.273575970691802e-06,-0.006565772197674642,0.01098056394400981
0.9090909090909091,0.810126582278481,0.01125521814205159,0.00995312961479593,-3.701178039868647e-05,-0.006362504327054255,0.010664154404317191
1.0101010101010102,0.810126582278481,0.011264990656306628,0.00998708924403033,3.9704614702238104e-05,-0.0063756239701010875,0.010683736631276804
1.1111111111111112,0.810126582278481,0.011011679356594214,0.010053501387980451,-3.768159617409147e-05,-0.006319554223372399,0.010565429400792147
1.2121212121212122,0.810126582278481,0.011157826979349156,0.010036796251829782,9.611316771435346e-06,-0.006358386969353682,0.010641702073877546
1.3131313131313131,0.810126582278481,0.010797716831363293,0.00966850145602075,3.861924130269699e-06,-0.006139865486215213,0.010279733119737093
1.4141414141414141,0.810126582278481,0.010919630294923086,0.009841102468896568,2.911989043667817e-05,-0.006228219829145896,0.010422426148952842
1.5151515151515151,0.810126582278481,0.010620629888439955,0.009725219071226105,1.5375459747944228e-05,-0.006103754687899818,0.010202471371455113
1.6161616161616161,0.810126582278481,0.01087218089100061,0.009625408965640212,-2.821316823138011e-05,-0.006149276956992247,0.010305630286729255
1.7171717171717171,0.810126582278481,0.010666996861141538,0.009547352128267465,-5.937395275091161e-05,-0.006064304696822701,0.01015410041860383
1.8181818181818181,0.810126582278481,0.01063333137626976,0.009538507883339669,-0.00011291251657331833,-0.006051551777882828,0.010132275230597546
1.9191919191919191,0.810126582278481,0.010710024418670505,0.009738962824717418,-5.4458861873734314e-05,-0.006134696173016377,0.01025945357158013
2.0202020202020203,0.810126582278481,0.0105798818164058,0.009399742780200029,1.1789482540009528e-05,-0.005993887378981749,0.010041977536302416
2.121212121212121,0.810126582278481,0.01034146425401844,0.009375515849710817,2.7394205910843578e-05,-0.005915094031118777,0.009894032022896663
2.2222222222222223,0.810126582278481,0.010611501995609228,0.00936792473489612,-1.8940541717303568e-05,-0.005993828019151604,0.010047652096623946
2.323232323232323,0.810126582278481,0.010434984655797973,0.009403675916878268,1.325929848219281e-05,-0.005951598171802872,0.009959484878380132
2.4242424242424243,0.810126582278481,0.010454259278984523,0.00930758354575391,-2.0417614121883556e-05,-0.00592855284742153,0.009930760671882127
2.525252525252525,0.810126582278481,0.0101539201012859,0.0092713214137944,-0.0001248767846281447,-0.00582757245452409,0.009745051048926746
2.6262626262626263,0.810126582278481,0.010391887012591467,0.009153123176576735,-3.500997084881558e-05,-0.005863503056750461,0.009831400449524583
2.727272727272727,0.810126582278481,0.01031084077463256,0.009273036550870186,7.959123102696209e-05,-0.005875163197650824,0.00983406555156099
2.8282828282828283,0.810126582278481,0.010186278622957104,0.009119457550155415,-2.6508864274925093e-05,-0.005791720851933756,0.00969708981381229
2.929292929292929,0.810126582278481,0.010210894734545785,0.009335387749247703,-1.42001638480492e-05,-0.0058638847451380465,0.009802539417365393
3.0303030303030303,0.810126582278481,0.010210783800317497,0.008963363742794262,-3.595848679364459e-05,-0.0057522442629335275,0.009647948234702837
3.131313131313131,0.810126582278481,0.010172352804653794,0.009302602246738567,-5.3230830867735816e-05,-0.0058424865154177085,0.00976700151798126
3.2323232323232323,0.810126582278481,0.010073890059857813,0.009191994324306951,-3.527655491636713e-05,-0.00577976531524943,0.009663364509748577
3.3333333333333335,0.810126582278481,0.00986845564775468,0.009216487264053226,-1.1550379568325284e-06,-0.005725482873542372,0.009559161185433034
3.4343434343434343,0.810126582278481,0.010052316535341976,0.009117673755270998,3.528270771589619e-05,-0.005750997087183893,0.009619305296573882
3.5353535353535355,0.810126582278481,0.010253813563050447,0.008994713983037578,2.1328250073261845e-05,-0.005774558263826407,0.009685908148964266
3.6363636363636362,0.810126582278481,0.010172372947367015,0.00908534841649005,-3.250597923336628e-05,-0.00577731640915712,0.009674933834197172
3.7373737373737375,0.810126582278481,0.01006450470920125,0.009019077628852854,7.6025730309287145e-06,-0.005725074701416231,0.009584656511629252
3.8383838383838382,0.810126582278481,0.009868346234106798,0.009086999180339344,-1.4551370599516409e-05,-0.005686603624333843,0.009501831012295651
3.9393939393939394,0.810126582278481,0.009941751191182192,0.009012768884551615,-4.901648658026295e-05,-0.005686356022720142,0.009511725488455998
4.040404040404041,0.810126582278481,0.009838093292281028,0.008944781782003556,5.31160040435655e-05,-0.005634862522285375,0.00942369710010342
4.141414141414141,0.810126582278481,0.009969725733736052,0.008942623044544124,-3.669405480435986e-05,-0.0056737046334840524,0.009498130257551316
4.242424242424242,0.810126582278481,0.009956352080787429,0.00900588800427247,-5.031607513566129e-05,-0.005688672025517969,0.009517182821280327
4.343434343434343,0.810126582278481,0.009919180499929802,0.008918098956325664,-4.430891195838101e-06,-0.00565118383687664,0.00945845951618788
4.444444444444445,0.810126582278481,0.009906890871164883,0.008794931724337452,4.761421019307499e-05,-0.0056105467786507005,0.009400727806697056
4.545454545454545,0.810126582278481,0.00993252567749849,0.008794104084028065,2.0675218552070204e-05,-0.005617988928457967,0.009415144754259988
4.646464646464646,0.810126582278481,0.010031405016608048,0.00901454734833041,-6.458334401649301e-05,-0.005713785709481538,0.009564260976939127
4.747474747474747,0.810126582278481,0.009989948766569825,0.008668518983620368,-2.8689441036197034e-05,-0.0055975403250570575,0.009399292869772287
4.848484848484849,0.810126582278481,0.009967741607297628,0.0088617828175829,-0.00010351557003687223,-0.0056488573274641575,0.009465054282460493
4.94949494949495,0.810126582278481,0.009883456413637559,0.008836013586752454,-2.2823111312239416e-05,-0.0056158410001170035,0.00940367238443578
5.05050505050505,0.810126582278481,0.009979185457287768,0.008992184279097796,-2.80703558511731e-06,-0.005691410920915669,0.009524120408274935
5.151515151515151,0.810126582278481,0.009875352186562708,0.00914850235723224,-5.3638700384458306e-05,-0.005707156363138483,0.009533185446753988
5.252525252525253,0.810126582278481,0.009950779813068555,0.008873954805928293,1.889730439574755e-05,-0.0056474203856990545,0.009458509066721712
5.353535353535354,0.810126582278481,0.009793662300391033,0.00894613291012415,3.028343830206259e-05,-0.005621938563154555,0.009398747892322826
5.454545454545454,0.810126582278481,0.010210719288363116,0.008994783597738715,3.760728228062085e-05,-0.005761650865830549,0.009660535849675148
5.555555555555555,0.810126582278481,0.009979019786585974,0.008920710656913588,-0.00013183650928667425,-0.005669919133049868,0.009496952614667488
5.656565656565657,0.810126582278481,0.010020223070784654,0.008862772258810516,2.029158468416965e-05,-0.005664898598878551,0.009494623883346298
5.757575757575758,0.810126582278481,0.009760728201231956,0.008863106992198022,-3.272452081354099e-05,-0.005587150558028994,0.009344480450350268
5.858585858585858,0.810126582278481,0.009933611413867545,0.008902807924766904,7.95912229124499e-05,-0.005650925801590334,0.009461426665063314
5.959595959595959,0.810126582278481,0.009988811405819803,0.008946857258412638,1.4856188428819026e-05,-0.005680700599269732,0.009510772859940286
6.0606060606060606,0.810126582278481,0.009992527648630803,0.009035053719494038,-4.1201070551128884e-05,-0.005708274410437452,0.00955012424047609
6.161616161616162,0.810126582278481,0.009970623681928394,0.00904590244032475,3.26723298310606e-05,-0.005704957836675943,0.009542096253654044
6.262626262626262,0.810126582278481,0.009917491448855238,0.008841237713025644,1.4158190475846456e-05,-0.005627618748564264,0.00942559403343832
6.363636363636363,0.810126582278481,0.010024263733922279,0.009115001427331654,-1.0338366808657177e-05,-0.005741779548376179,0.009601992336506097
6.4646464646464645,0.810126582278481,0.010212464815756358,0.008972561059481481,-7.192714863762409e-05,-0.0057555077625713515,0.00965322982198902
6.565656565656566,0.810126582278481,0.010094275775288146,0.00903253448586926,-1.722075664922416e-05,-0.005738043078347222,0.00960755318898628
6.666666666666667,0.810126582278481,0.010092583844963475,0.009150884818385044,2.7925155942837007e-05,-0.005773040599004555,0.009656355875008774
6.767676767676767,0.810126582278481,0.01002545461205866,0.009189913813190004,-3.937004080194025e-05,-0.005764610527574599,0.009635135818958633
6.8686868686868685,0.810126582278481,0.010051962289656956,0.009075782649222956,-1.6638894239684233e-05,-0.0057383234816639735,0.009601207329701536
6.96969696969697,0.810126582278481,0.010023253519748719,0.009093642694041273,1.2380262747685476e-05,-0.005735068864136998,0.009592315791318381
7.070707070707071,0.810126582278481,0.01023250736047489,0.00941327157300831,2.8191004092660352e-05,-0.0058937336800449595,0.009848598993286193
7.171717171717171,0.810126582278481,0.0102561385583518,0.009201493014410889,-4.3969590296478255e-05,-0.005837289471828806,0.009771891551663433
7.2727272727272725,0.810126582278481,0.010086602254825544,0.009142912757564584,-1.45668590377347e-05,-0.005768854503717038,0.009649461688794433
7.373737373737374,0.810126582278481,0.010193470648945935,0.009296204736856422,-8.014390921257397e-05,-0.005846902615740707,0.009776755360920491
7.474747474747475,0.810126582278481,0.010278641162550856,0.009374966855908549,-0.00012728334849886505,-0.005896082405537821,0.009860382884431633
7.575757575757575,0.810126582278481,0.010269264117591364,0.00932140697331166,4.018187440786574e-05,-0.005877201327270908,0.009829916941233544
7.6767676767676765,0.810126582278481,0.01061183305444021,0.009332882240885779,5.065761435799912e-05,-0.005983414588597796,0.010034062089811812
7.777777777777778,0.810126582278481,0.01049240303336127,0.009492156129222409,-7.686711420356759e-05,-0.005995367748775103,0.010030640422842865
7.878787878787879,0.810126582278481,0.010537005567466996,0.009414752121696112,-5.7092722733675e-05,-0.005985527306748933,0.01002359850832752
7.979797979797979,0.810126582278481,0.010418584401852907,0.009408533619453655,-6.185276158942071e-05,-0.005948135406391968,0.00995265198262868
8.080808080808081,0.810126582278481,0.010469292775714158,0.009735457885602839,-8.957008251823984e-06,-0.006061425198395099,0.01012235709901337
8.181818181818182,0.810126582278481,0.010856274168402515,0.009565600032206287,-0.0001537232358721441,-0.00612656226018264,0.010275383630818768
8.282828282828282,0.810126582278481,0.010779683520064823,0.009673329243240183,2.668450811617036e-05,-0.006135903828991501,0.010271396390086682
8.383838383838384,0.810126582278481,0.010709728961707573,0.009745844866993454,-2.8313337557009466e-05,-0.006136672148610308,0.010261911835113505
8.484848484848484,0.810126582278481,0.01072889260223832,0.00962505829984032,-3.933415162437166e-05,-0.006106185270623592,0.010222001197557739
8.585858585858587,0.810126582278481,0.010790456233107005,0.009766033762374237,-8.895932423126846e-05,-0.0061669469986443725,0.010317613220439592
8.686868686868687,0.810126582278481,0.01092331138241894,0.009759963092940187,-6.54947550394158e-05,-0.0062049823426077386,0.010391215707343799
8.787878787878787,0.810126582278481,0.011053612609553726,0.009900828380423516,-5.609056275884144e-05,-0.006286332296993173,0.01052512571723017
8.88888888888889,0.810126582278481,0.011109650113343035,0.010105565237647308,1.0913448796287482e-05,-0.006364564605297103,0.010643206177441019
8.98989898989899,0.810126582278481,0.01108072095957307,0.00995913819157937,0.00012494053668615557,-0.006311957745345731,0.0105668921456264
9.09090909090909,0.810126582278481,0.011186637095261678,0.010147013246424056,-7.415032763485708e-06,-0.00640009510250572,0.010704762373998013
9.191919191919192,0.810126582278481,0.011397426828826877,0.010264542567124474,-4.8789828565798996e-05,-0.006498590818785405,0.010875658183885122
9.292929292929292,0.810126582278481,0.011405284049388181,0.010253100959510103,-7.880870554134733e-05,-0.006497515502669485,0.010875922358084189
9.393939393939394,0.810126582278481,0.011669204193424725,0.010390533240256482,-1.0709939787376131e-05,-0.0066179212301043615,0.011085332542329384
9.494949494949495,0.810126582278481,0.011601050926054788,0.010625217707171172,5.6052733633691446e-05,-0.0066678805899677875,0.011145643450211032
9.595959595959595,0.810126582278481,0.011639902417814369,0.01043073854492362,1.162787752254503e-06,-0.006621192288821396,0.011084893329950277
9.696969696969697,0.810126582278481,0.011899063548655464,0.010860965092302008,6.912749214956282e-05,-0.006828008592287242,0.011416098198098435
9.797979797979798,0.810126582278481,0.011928901130243095,0.010955519366616484,1.9667745367300548e-05,-0.0068653261490578725,0.011473270670267299
9.8989898989899,0.810126582278481,0.01221683931296903,0.010968913534832854,4.336880424690739e-05,-0.006955725854340564,0.011643385049039058
10.0,0.810126582278481,0.012178045835606468,0.010978591622463871,3.85493232942199e-05,-0.0069469912374211015,0.011625013571999606
0.0,0.9113924050632911,0.012225891479768995,0.01101878832694639,-2.8106003503345734e-06,-0.006973403942014616,0.011669260132663475
0.10101010101010101,0.9113924050632911,0.012173764671651956,0.010888076849973944,1.9221038285058678e-05,-0.00691855245648777,0.011584601280069752
0.20202020202020202,0.9113924050632911,0.012098343767995085,0.01075817118770983,2.6484603820255432e-05,-0.006856954486711474,0.011487132809866893
0.30303030303030304,0.9113924050632911,0.011810755898464859,0.010682892641018621,3.154681779066311e-05,-0.006748094561845044,0.011289291315455231
0.40404040404040403,0.9113924050632911,0.011684296223663234,0.010780591718085451,2.6954128245708676e-05,-0.006739466382524605,0.011259773022089345
0.5050505050505051,0.9113924050632911,0.011609810783725935,0.01057907441140255,-2.369980636153281e-06,-0.006656665558538545,0.011130295885689447
0.6060606060606061,0.9113924050632911,0.011586578777787642,0.010225339225262765,2.3440857461551956e-05,-0.006543575400915122,0.010969563346089159
0.7070707070707071,0.9113924050632911,0.011517486595004454,0.010183067393578904,4.3016510042918134e-05,-0.0065101661965750075,0.010911900295874865
0.8080808080808081,0.9113924050632911,0.011519907446588503,0.010497317349465714,4.121426142776772e-06,-0.006605167438816265,0.01104417791275144
0.9090909090909091,0.9113924050632911,0.011478597428983866,0.010178945758742642,9.137847343565765e-06,-0.006497262956317953,0.010887119250784045
1.0101010101010102,0.9113924050632911,0.011231846152019595,0.010093787565977083,4.9297954745849355e-05,-0.006397690115399004,0.010708610425378
1.1111111111111112,0.9113924050632911,0.011089958801116118,0.00980312784704072,-4.990560716260381e-05,-0.006267925994447051,0.010506173878201387
1.2121212121212122,0.9113924050632911,0.011044300108288607,0.010008878839726634,-6.931557937011663e-05,-0.006315953684404572,0.010565395061494915
1.3131313131313131,0.9113924050632911,0.010784033927584433,0.009920004359529971,-7.418562647416933e-05,-0.006211211486134321,0.010379822791885956
1.4141414141414141,0.9113924050632911,0.01088577647262832,0.009838527004847698,-2.1206146996361992e-05,-0.006217291043242805,0.010401830913087731
1.5151515151515151,0.9113924050632911,0.01066992194194397,0.00976790021000978,0.00010723875549138989,-0.006131346645586125,0.01025040859841314
1.6161616161616161,0.9113924050632911,0.010748019576014702,0.009671715750145438,6.758806292539983e-05,-0.006125920597848043,0.010252995883181838
1.7171717171717171,0.9113924050632911,0.010841823454907775,0.009663782523457027,5.1946170680020255e-05,-0.0061516817935094404,0.010303829369514158
1.8181818181818181,0.9113924050632911,0.010626725134105282,0.00948147066234968,3.263819634115449e-05,-0.0060324587389364885,0.010103058257603518
1.9191919191919191,0.9113924050632911,0.010731706432962049,0.009525419795415494,-3.601943594079077e-05,-0.006077137868513263,0.010182486363670926
2.0202020202020203,0.9113924050632911,0.010676557712636434,0.00955731508640337,-6.857645551339903e-06,-0.006070161839711942,0.01016327069580069
2.121212121212121,0.9113924050632911,0.010534234872470507,0.009573483088106717,-7.44942103704823e-05,-0.006032315388173168,0.010089054046392794
2.2222222222222223,0.9113924050632911,0.010259446701469301,0.009482866232614401,6.497153825967327e-05,-0.005922693880225111,0.009894680480825483
2.323232323232323,0.9113924050632911,0.010450109394300366,0.009348845915282756,1.0535580544320104e-05,-0.005939686592874937,0.009945329394783922
2.4242424242424243,0.9113924050632911,0.010469747065839575,0.009324728804447052,-6.0711694862900274e-05,-0.005938342761085988,0.009947345203053478
2.525252525252525,0.9113924050632911,0.01017186953106674,0.00928261973785631,1.686358106366326e-05,-0.005836346780676915,0.009757725924404876
2.6262626262626263,0.9113924050632911,0.010493963173031397,0.009276116445605657,-8.824894091484507e-05,-0.005931023885591116,0.009942320586621417
2.727272727272727,0.9113924050632911,0.010228697650681816,0.009069154867676487,6.330195496683201e-05,-0.005789355755507491,0.009701659856272
2.8282828282828283,0.9113924050632911,0.010179447047890918,0.009076139468576902,-5.5641515401822756e-06,-0.005776675954940345,0.009675094914964412
2.929292929292929,0.9113924050632911,0.010125874740265831,0.00928440917262347,-8.055893547876296e-05,-0.0058230851738667894,0.009733462788090603
3.0303030303030303,0.9113924050632911,0.010110668250685963,0.009311759920992507,-7.938353379042408e-05,-0.00582672845150354,0.009736800046563231
3.131313131313131,0.9113924050632911,0.010184426782353805,0.009131755795749196,3.294759313321295e-05,-0.0057948547734309,0.009701189160812277
3.2323232323232323,0.9113924050632911,0.01016763533129926,0.009170399847273993,6.67464649655691e-05,-0.0058014105535719755,0.009708198873716984
3.3333333333333335,0.9113924050632911,0.01010731339785176,0.009030336118534741,1.8383435376936716e-06,-0.005741294854915951,0.009614173258094364
3.4343434343434343,0.9113924050632911,0.010113701996184696,0.009311104499835058,-4.125867545182854e-05,-0.005827441948805926,0.009737505108738735
3.5353535353535355,0.9113924050632911,0.010122170505599867,0.009167816243791156,8.948195067663433e-05,-0.005786996024817307,0.00968158108467751
3.6363636363636362,0.9113924050632911,0.009921862228129973,0.008985110276677196,1.928037323499727e-05,-0.0056720917514421505,0.009488289924252567
3.7373737373737375,0.9113924050632911,0.010050307794459343,0.009319232126978052,-1.1220980889746337e-05,-0.0058108619764312185,0.009705462412835517
3.8383838383838382,0.9113924050632911,0.00982781827413928,0.00903060859765379,5.1476488022281535e-05,-0.005657528061537921,0.009454875618291371
3.9393939393939394,0.9113924050632911,0.010093179231016294,0.008991615500807244,-6.581020196052497e-05,-0.005725438419547061,0.009590642440722632
4.040404040404041,0.9113924050632911,0.010089555527995864,0.008993610801620694,-5.995845567400572e-05,-0.005724949898884967,0.009589234352784656
4.141414141414141,0.9113924050632911,0.010055893212474704,0.009040095321582554,6.484218947368755e-05,-0.005728796560217177,0.009589092348505905
4.242424242424242,0.9113924050632911,0.009837007561190124,0.009018144519346589,-7.803969140756699e-05,-0.0056565456241610135,0.009455176523276543
4.343434343434343,0.9113924050632911,0.010029934465643113,0.008843669448259883,-6.892677048893292e-05,-0.005662081174170899,0.009493308295446543
4.444444444444445,0.9113924050632911,0.010007480786708321,0.008894649609202172,5.776016350676735e-05,-0.005670639118773148,0.00950060192870368
4.545454545454545,0.9113924050632911,0.009943214613054004,0.008969038629426327,-1.8064985683806408e-05,-0.005673675972744099,0.009493738665212874
4.646464646464646,0.9113924050632911,0.009900929156435732,0.008679867006649983,-0.00011587796453207898,-0.005574238848925714,0.009352541055871235
4.747474747474747,0.9113924050632911,0.010072408763962938,0.008903645729909567,-2.5147692197103474e-05,-0.005692816348161751,0.009541963295370636
4.848484848484849,0.9113924050632911,0.010180238108651448,0.008951925711830505,1.9366412771837046e-05,-0.005739649146144586,0.009625103209597734
4.94949494949495,0.9113924050632911,0.009822863205774133,0.008871445930257025,-2.5258299547709402e-05,-0.005608292740809347,0.009383501936248371
5.05050505050505,0.9113924050632911,0.010020730597803878,0.008916770984592528,3.61358417225259e-05,-0.005681250474718921,0.009517100612249977
5.151515151515151,0.9113924050632911,0.009864179674171253,0.00902409607048159,2.0797768171128047e-05,-0.005666482723395852,0.009472187874978203
5.252525252525253,0.9113924050632911,0.010014270813167064,0.009187902908751424,0.00011105949432889745,-0.005760652116575546,0.009629643528221188
5.353535353535354,0.9113924050632911,0.01006849941096591,0.008967909033428248,8.179849292845265e-06,-0.005710922533318247,0.009565818664892202
5.454545454545454,0.9113924050632911,0.00986727302516325,0.008894773754813578,-2.5048168476472632e-05,-0.005628614033993048,0.009418853337793555
5.555555555555555,0.9113924050632911,0.009889219562259983,0.00882017508282329,9.74074074516416e-06,-0.005612818393524981,0.009400414284313166
5.656565656565657,0.9113924050632911,0.0098282224629386,0.008988900643428756,5.9748086238513466e-05,-0.005645136931910207,0.009437165137847411
5.757575757575758,0.9113924050632911,0.009947227659362687,0.008913520542898179,-2.238430003178087e-05,-0.005658224460678259,0.00947284918384682
5.858585858585858,0.9113924050632911,0.009926909208748474,0.009157203062279105,-3.539946761697311e-06,-0.005725233681308273,0.009565312778519066
5.959595959595959,0.9113924050632911,0.010042121313134646,0.009052524924591725,-1.5577584955065956e-05,-0.005728393871317912,0.00958574892632816
6.0606060606060606,0.9113924050632911,0.009951243958271199,0.008904481067807933,-3.1774160219052073e-05,-0.005656717507823739,0.00947150488402914
6.161616161616162,0.9113924050632911,0.010032146525045863,0.009021918736101689,-2.4829786282568943e-05,-0.005716219578344265,0.009567215918857706
6.262626262626262,0.9113924050632911,0.009915453654822751,0.008972303038399397,-7.970249885928628e-05,-0.005666327007966644,0.009480139529801635
6.363636363636363,0.9113924050632911,0.010106117775320299,0.009022658406767156,0.00010141283461366449,-0.0057386328546262366,0.009611908572060566
6.4646464646464645,0.9113924050632911,0.009981392083619268,0.008981746967801225,-8.435501707245104e-05,-0.0056889417154261475,0.009522130840614262
6.565656565656566,0.9113924050632911,0.010090721323397129,0.008870758342857686,2.4434329885257152e-05,-0.005688443899876445,0.009539520488383814
6.666666666666667,0.9113924050632911,0.010089538099375676,0.009215981956218955,-1.390145057841469e-05,-0.00579165601667839,0.00968239026050186
6.767676767676767,0.9113924050632911,0.010018781186190458,0.009072599075179344,-4.6378069012430166e-07,-0.00572741407841094,0.009580795695386203
6.8686868686868685,0.9113924050632911,0.010031310388933685,0.009201615127409211,2.8043232654431438e-05,-0.0057698776549028686,0.009643392085684304
6.96969696969697,0.9113924050632911,0.010118388502765273,0.009049947995087904,-4.166792647859842e-06,-0.005750500949355953,0.009628733403155882
7.070707070707071,0.9113924050632911,0.010092246696135386,0.009348723262559878,1.411197574007401e-05,-0.0058322909876085795,0.009741819439894567
7.171717171717171,0.9113924050632911,0.010152602562910059,0.00932539540487838,1.390094453772869e-06,-0.0058433993903365304,0.009765311606247112
7.2727272727272725,0.9113924050632911,0.010142981276400002,0.00897469868689422,8.563970600770264e-05,-0.005735303988988266,0.009613380645182908
7.373737373737374,0.9113924050632911,0.010206265218835067,0.009271754743913806,1.1652998696704099e-05,-0.005843405988824661,0.009772599713753242
7.474747474747475,0.9113924050632911,0.01044346913225443,0.009343102908394942,-9.191324624891046e-05,-0.005935971612194811,0.009940349932694421
7.575757575757575,0.9113924050632911,0.010252906752901364,0.009487823077612688,-4.351601174197108e-05,-0.005922218949154215,0.009892866079292469
7.6767676767676765,0.9113924050632911,0.010480304874855122,0.009308053318603841,-9.996819416347631e-05,-0.005936507458037689,0.009947632441995518
7.777777777777778,0.9113924050632911,0.010390949012812347,0.009431447545728729,8.457518832179476e-05,-0.005946718967562322,0.00994704943777078
7.878787878787879,0.9113924050632911,0.010406180428712504,0.009486468913690357,-5.058992316471245e-05,-0.005967794802720858,0.009978549716220085
7.979797979797979,0.9113924050632911,0.010671505441126451,0.009537776872542448,6.718972666448054e-05,-0.006062784694100669,0.0101528972040949
8.080808080808081,0.9113924050632911,0.01063027047888686,0.009657469667717768,-1.2874279941763202e-05,-0.006086322043981389,0.010178818859226684
8.181818181818182,0.9113924050632911,0.010722046186204747,0.009502034040771845,8.443403291043822e-05,-0.006067224068092978,0.01016813969223426
8.282828282828282,0.9113924050632911,0.010687020469150734,0.009706995844906896,-2.25651854793994e-06,-0.006118204894217288,0.010232268899331822
8.383838383838384,0.9113924050632911,0.010835015725867692,0.009752155253752354,3.224146919939141e-05,-0.006176151293886014,0.010336365941402628
8.484848484848484,0.9113924050632911,0.010800914530462698,0.009704206872021665,1.937283733743082e-05,-0.006151536420745308,0.01029651410037385
8.585858585858587,0.9113924050632911,0.010914907220691517,0.009780156921737901,-6.561000615523277e-06,-0.006208519242728825,0.010394098940540044
8.686868686868687,0.9113924050632911,0.011031383084150699,0.009708564287254537,5.681905539538175e-05,-0.00622198421142157,0.010433524171362195
8.787878787878787,0.9113924050632911,0.011004786748796467,0.009868227040987967,-1.0316002088070205e-05,-0.006261904136935331,0.010482834607294458
8.88888888888889,0.9113924050632911,0.010970686704293613,0.010069322016468147,2.413102669736735e-05,-0.006312002616228528,0.010549008597357629
8.98989898989899,0.9113924050632911,0.011259590876655366,0.010081594109143199,2.886362727738119e-05,-0.00640235549573957,0.010719365688540492
9.09090909090909,0.9113924050632911,0.011415683244700192,0.010139954187434663,7.053309426470883e-05,-0.006466691229640456,0.010834985671390464
9.191919191919192,0.9113924050632911,0.011456709141790542,0.010387657923364537,1.9520138864213422e-05,-0.006553310119546523,0.010961404522573073
9.292929292929292,0.9113924050632911,0.011516277170228606,0.010347203107208163,8.598735539778722e-05,-0.0065590440832310306,0.010979534350779724
9.393939393939394,0.9113924050632911,0.011582296453559534,0.010474797963128174,7.418832123863214e-06,-0.0066171283250063126,0.011070182172105843
9.494949494949495,0.9113924050632911,0.01168522466900072,0.010491862280720935,-9.484915602718703e-06,-0.006653126084916496,0.011136613112929409
9.595959595959595,0.9113924050632911,0.011617181984791124,0.01060028055455129,1.3306156970245346e-05,-0.006665238761802725,0.011143608391016292
9.696969696969697,0.9113924050632911,0.011853730327625722,0.010793398451767406,7.977189131326291e-05,-0.006794138633817938,0.011361576867528386
9.797979797979798,0.9113924050632911,0.011881062235040828,0.010850841587611028,3.1215607579110475e-05,-0.006819571146795556,0.011401043900881888
9.8989898989899,0.9113924050632911,0.012150260119968255,0.010985033501859707,2.3995457831616893e-05,-0.006940588086548388,0.01161165340904126
10.0,0.9113924050632911,0.012222214735301065,0.011101091375611024,-4.86049340783441e-05,-0.006996991833273626,0.011702304366893283
0.0,1.0126582278481013,0.012165953624134461,0.010936679090992857,-4.471431114142049e-05,-0.006930789814538194,0.011600527772896939
0.10101010101010101,1.0126582278481013,0.01214851815141953,0.011016813210363047,6.360316281181096e-05,-0.006949599408534773,0.011624579451208743
0.20202020202020202,1.0126582278481013,0.011916989835235594,0.010673622764681305,7.245018735027613e-05,-0.006777183779975069,0.011347209469862023
0.30303030303030304,1.0126582278481013,0.011905094019846279,0.010645232147996108,3.270707917987037e-05,-0.0067650978503527165,0.011327972050645741
0.40404040404040403,1.0126582278481013,0.011833501389718238,0.010636019997393224,7.282122793527834e-05,-0.0067408564161334375,0.011283227725207992
0.5050505050505051,1.0126582278481013,0.01180757744259174,0.010544562685284095,8.653441349548613e-06,-0.00670564203836275,0.01122947778964247
0.6060606060606061,1.0126582278481013,0.011665087955347129,0.010382860293697985,-3.6895129817346664e-06,-0.006614384474713534,0.011079762053757504
0.7070707070707071,1.0126582278481013,0.011581407045510467,0.01047569553264042,-1.4190127228304875e-05,-0.006617130773445266,0.011070072089971678
0.8080808080808081,1.0126582278481013,0.011428416636767656,0.010260251058026328,-4.583109610777147e-05,-0.0065066003084381955,0.01089170951579358
0.9090909090909091,1.0126582278481013,0.01139374473178149,0.010048867673182364,0.00010816250780263416,-0.006432783721489156,0.010786010606276984
1.0101010101010102,1.0126582278481013,0.011222097198277306,0.010075246674749665,1.9099877482792283e-05,-0.0063892031619080915,0.010694940767481426
1.1111111111111112,1.0126582278481013,0.01117382028322853,0.010039084829777589,3.493265478908456e-05,-0.006363871533901835,0.010652052155169492
1.2121212121212122,1.0126582278481013,0.010942201039584392,0.009998308627505415,-1.8190566826323465e-05,-0.006282152900126942,0.010502163045474014
1.3131313131313131,1.0126582278481013,0.01079382067986357,0.009828762772404546,-3.7499568045321685e-06,-0.006186775035680435,0.010345109077314297
1.4141414141414141,1.0126582278481013,0.010784711380123048,0.009771976266014212,0.00011271651843009858,-0.006167006293841177,0.010317542880662327
1.5151515151515151,1.0126582278481013,0.010728165588624947,0.00984280615290055,0.00011412339739188079,-0.006171291522457649,0.010315919156574298
1.6161616161616161,1.0126582278481013,0.0109296579808875,0.00964264283189288,-5.448536971483322e-05,-0.006171690243834114,0.010346791876940707
1.7171717171717171,1.0126582278481013,0.010740774334426894,0.00957169655730182,-7.608701829182565e-05,-0.006093741267518614,0.010207425888617316
1.8181818181818181,1.0126582278481013,0.010538360558007916,0.009559027185594721,-1.1016672312798489e-05,-0.006029216323080792,0.010084440144158999
1.9191919191919191,1.0126582278481013,0.010801597592940677,0.009430287120146975,-1.7404584901210126e-05,-0.006069565413926295,0.01018545864599329
2.0202020202020203,1.0126582278481013,0.010378533285484296,0.009485588014917421,2.2431482891741377e-05,-0.005959236390120515,0.009962196129153115
2.121212121212121,1.0126582278481013,0.010473727877072032,0.009375182174425848,2.7470545701292117e-05,-0.005954673015449364,0.009970063863705116
2.2222222222222223,1.0126582278481013,0.010567808911819273,0.009441569314955883,-5.2191419277776745e-05,-0.006002813468032547,0.01005252643918094
2.323232323232323,1.0126582278481013,0.010497091736635392,0.009521198682072152,2.268631306443554e-05,-0.006005487125612262,0.01004483983290871
2.4242424242424243,1.0126582278481013,0.010418783879061835,0.009450544616275357,2.5981445474068072e-05,-0.005960798548601158,0.009970089983191344
2.525252525252525,1.0126582278481013,0.010169848204142176,0.00941642089984678,4.7887323534176e-06,-0.0058758807311966865,0.00981485061916299
2.6262626262626263,1.0126582278481013,0.01047305076831347,0.009308472238178302,1.9207885325129428e-05,-0.005934456901947531,0.009942105023952706
2.727272727272727,1.0126582278481013,0.010313214394790998,0.009122027359522899,-3.3215500928725346e-05,-0.005830572526294168,0.00977239275896162
2.8282828282828283,1.0126582278481013,0.010110867432333352,0.009174194818786986,0.00011584603000826191,-0.005785518675336101,0.009678671608445474
2.929292929292929,1.0126582278481013,0.010213124789067855,0.009236090233284254,1.74646715915593e-05,-0.005834764506705632,0.009761396092930539
3.0303030303030303,1.0126582278481013,0.010061889470881873,0.00926432069605591,1.1069893306548302e-06,-0.005797863050081334,0.00968775982843152
3.131313131313131,1.0126582278481013,0.010081645622125568,0.008982630383362316,-2.36891915466297e-05,-0.005719282801646366,0.009579624956542873
3.2323232323232323,1.0126582278481013,0.010104460808677997,0.009113515946738109,7.351533578286275e-05,-0.005765393026624831,0.009648074934735323
3.3333333333333335,1.0126582278481013,0.010186604605530726,0.008990517886891933,-1.579969201495866e-05,-0.005753136747726798,0.009644388173545649
3.4343434343434343,1.0126582278481013,0.010174403789688381,0.00911451854929355,-5.282637104469015e-05,-0.005786676701694579,0.00968847359847553
3.5353535353535355,1.0126582278481013,0.010103491587565013,0.009048672621399015,-1.0754673424400043e-05,-0.0057456492626892074,0.009619572638600934
3.6363636363636362,1.0126582278481013,0.009890766993543186,0.009002752366041354,-3.232557522515675e-05,-0.005668055807875362,0.009478176552490608
3.7373737373737375,1.0126582278481013,0.01002982539943316,0.008996476135667066,5.427744434199321e-05,-0.0057078904605300665,0.009555612679191567
3.8383838383838382,1.0126582278481013,0.01004601884461833,0.008926866291051199,-2.2486043785242096e-05,-0.005691865540700859,0.009535905111101917
3.9393939393939394,1.0126582278481013,0.010073530680985284,0.009090233322303116,7.969541786464023e-05,-0.00574912920098652,0.009620637818981256
4.040404040404041,1.0126582278481013,0.010042819054492589,0.00884144315694318,-3.616942939837703e-05,-0.005665278663430731,0.009499486435373428
4.141414141414141,1.0126582278481013,0.010043166098995342,0.008989532347117999,2.7570964076849675e-05,-0.005709809533834002,0.009560114595111975
4.242424242424242,1.0126582278481013,0.01007728979338819,0.00901202570841382,4.763270823609464e-05,-0.0057267946505406035,0.0095894936719604
4.343434343434343,1.0126582278481013,0.009946342985879522,0.008953017205726697,1.0163329724962927e-05,-0.005669808057481866,0.009488771568120287
4.444444444444445,1.0126582278481013,0.010051178828683368,0.009121817998756086,3.976577514558501e-06,-0.0057518990482318365,0.00962022780083244
4.545454545454545,1.0126582278481013,0.010067249759481204,0.009034416203633985,5.6115324794412984e-05,-0.005730499788934557,0.009593118173784877
4.646464646464646,1.0126582278481013,0.009870267601959287,0.008864881840613615,2.7631737166452382e-05,-0.0056205448327718704,0.009408073506006365
4.747474747474747,1.0126582278481013,0.010004605801213071,0.009034037053751337,-5.091275469629807e-05,-0.005711592856489322,0.009556765118786595
4.848484848484849,1.0126582278481013,0.009968096567356425,0.009007012337847425,-6.831264311410497e-05,-0.005692532671561155,0.009524728422105928
4.94949494949495,1.0126582278481013,0.009986306695675627,0.009017916797151358,-1.2780115045680535e-05,-0.005701267047848096,0.009539075001383726
5.05050505050505,1.0126582278481013,0.01001635182051274,0.008848568644156478,2.6768912628181982e-05,-0.005659476139400766,0.009486635015581621
5.151515151515151,1.0126582278481013,0.010086947145428142,0.00896968467422855,-5.1031201395523556e-05,-0.005716989545897008,0.009577725366714106
5.252525252525253,1.0126582278481013,0.009895965007655548,0.008963669552691744,-4.969695554889601e-06,-0.0056578903681041865,0.009464322962715972
5.353535353535354,1.0126582278481013,0.009822025522883384,0.0089591114404763,0.00010447873789360565,-0.005634341089007905,0.009421994977941068
5.454545454545454,1.0126582278481013,0.01004878560369695,0.009015065418649186,-3.215540944626891e-05,-0.00571915530670384,0.009574034621169557
5.555555555555555,1.0126582278481013,0.009944215667088276,0.00912861528047211,-1.1740077797416813e-05,-0.005721849284268116,0.00956255910150733
5.656565656565657,1.0126582278481013,0.009736374620297536,0.008846719881908343,4.591792313247362e-05,-0.005574928350661763,0.009323775514866644
5.757575757575758,1.0126582278481013,0.009988797367978988,0.008964375389936007,6.290495108900963e-06,-0.005685951827374499,0.009518029649074018
5.858585858585858,1.0126582278481013,0.009951271872386647,0.009108801779665979,2.6538962635576133e-05,-0.005718022095615787,0.00955803493129616
5.959595959595959,1.0126582278481013,0.009846221160680634,0.00900692579715823,-5.385410250067091e-05,-0.005655944087351659,0.009455014588934187
6.0606060606060606,1.0126582278481013,0.009950363850589988,0.009017438225446912,-1.4827035892527491e-05,-0.0056903406228110695,0.009518287718305428
6.161616161616162,1.0126582278481013,0.010046661146929108,0.009147463775908053,2.7961119436104567e-06,-0.005758237476851148,0.009628605728615854
6.262626262626262,1.0126582278481013,0.01005630895421487,0.008923892331996206,1.4700757695775273e-05,-0.005694060385863323,0.009540672623448017
6.363636363636363,1.0126582278481013,0.010167263672029898,0.008935154293715,7.512132492752697e-05,-0.005730725389723469,0.009611508352749772
6.4646464646464645,1.0126582278481013,0.010131263351514205,0.008936763906721188,2.912354454995566e-06,-0.005720408177470618,0.00958997200300061
6.565656565656566,1.0126582278481013,0.00999859853614921,0.008949674740025816,-3.9070919953259516e-05,-0.005684481982852508,0.009517826721214541
6.666666666666667,1.0126582278481013,0.010145840694209209,0.009154873468088968,3.938602545096738e-05,-0.005790214248689454,0.009688681933220852
6.767676767676767,1.0126582278481013,0.010136331324975954,0.009216333657136564,2.6079062475138465e-05,-0.005805799494633755,0.009709183673800399
6.8686868686868685,1.0126582278481013,0.009959321801071822,0.009134744565357608,4.0728115900377525e-05,-0.005728219909928828,0.00957396284998646
6.96969696969697,1.0126582278481013,0.010166037681696077,0.00928693790053021,-3.470202802281552e-05,-0.0058358926746678854,0.009756423000354902
7.070707070707071,1.0126582278481013,0.010155171163606152,0.009220498780165188,1.229029784574036e-05,-0.005812700983131402,0.009721615552213009
7.171717171717171,1.0126582278481013,0.010277881728348818,0.009236704397993838,3.254022604610387e-05,-0.005854375837902797,0.009799029655760745
7.2727272727272725,1.0126582278481013,0.010308806075662045,0.00916866073393051,-3.968157704358554e-05,-0.005843240042877766,0.009788901918119774
7.373737373737374,1.0126582278481013,0.010445113288426284,0.009120209036000573,6.774398223235672e-05,-0.005869596697328057,0.00985041905781865
7.474747474747475,1.0126582278481013,0.01032324793627543,0.009348572379777632,-5.314338837263481e-06,-0.005901546094815919,0.00987206704260496
7.575757575757575,1.0126582278481013,0.010538377861030963,0.009408820635153864,-3.609702670133761e-05,-0.005984159548855448,0.010021652338434914
7.6767676767676765,1.0126582278481013,0.010083400042107032,0.009321575937159984,3.0703026370251564e-05,-0.005821492793780104,0.009725038981496481
7.777777777777778,1.0126582278481013,0.010391303543556853,0.009426117957160998,-4.8955795728392345e-06,-0.005945226450215355,0.009943908087191693
7.878787878787879,1.0126582278481013,0.010499222465477834,0.009449848644905641,-0.00012033118602704889,-0.005984721333115043,0.010018018136650226
7.979797979797979,1.0126582278481013,0.010618039568678428,0.009465633605363021,4.469785085155335e-05,-0.006025101952212435,0.010091605688008919
8.080808080808081,1.0126582278481013,0.010563985774027404,0.009620822244989113,-9.701864602697208e-06,-0.006055442405704954,0.010125416986551698
8.181818181818182,1.0126582278481013,0.010540136875735214,0.009579826145544935,4.3431773059919354e-05,-0.006035988906384044,0.01009457946003906
8.282828282828282,1.0126582278481013,0.010699295352763026,0.009816248719613112,6.318699297204343e-05,-0.006154663221712841,0.010286821348302036
8.383838383838384,1.0126582278481013,0.010796407919279369,0.00977451680777816,7.029451684867386e-06,-0.006171277418117259,0.010323472301215495
8.484848484848484,1.0126582278481013,0.010786030398282003,0.009637906815488614,7.299530426630275e-05,-0.006127181164131184,0.010261039352442354
8.585858585858587,1.0126582278481013,0.010791354978678417,0.00981781354066795,2.7905078865625566e-05,-0.006182750555803911,0.010339131010081382
8.686868686868687,1.0126582278481013,0.01078880835016552,0.009913011841522115,-5.064049417344533e-05,-0.00621054605750629,0.010379031642432056
8.787878787878787,1.0126582278481013,0.011028322123013549,0.009964981737988422,-2.6636981017200746e-05,-0.006297991158300591,0.01053707027200551
8.88888888888889,1.0126582278481013,0.011117563756360077,0.009904185974495619,3.073447267559085e-05,-0.006306524919256708,0.010563405629400802
8.98989898989899,1.0126582278481013,0.01113144440543398,0.01004756745384123,-5.719061834149313e-05,-0.006353703557782563,0.010631488139905642
9.09090909090909,1.0126582278481013,0.011254551195535775,0.01032801772148382,3.598437505972788e-05,-0.006474770675105879,0.010821254691537599
9.191919191919192,1.0126582278481013,0.011194043150646689,0.010174256847856193,-2.5186377775070096e-05,-0.006410489999550864,0.010720678026361027
9.292929292929292,1.0126582278481013,0.011441235724059483,0.010217431864165969,-1.5677197298914066e-05,-0.006497600276467636,0.010881106545911363
9.393939393939394,1.0126582278481013,0.011433062884708698,0.01059500933201395,-2.2533559993346744e-05,-0.006608421665016795,0.011037991891560402
9.494949494949495,1.0126582278481013,0.01171614888938002,0.010630817494131866,-5.508913022791975e-07,-0.006704089915053565,0.011212947236343786
9.595959595959595,1.0126582278481013,0.011888625810232296,0.010681303551119136,-1.0274011606152988e-06,-0.006770978808405429,0.011333298341117222
9.696969696969697,1.0126582278481013,0.011699935246444425,0.01067265717202242,-0.00012485150207723107,-0.006711777725540053,0.011223700893870255
9.797979797979798,1.0126582278481013,0.0120715074593574,0.010929483084137584,-1.5422447393563825e-05,-0.006900297163048495,0.011542974911448711
9.8989898989899,1.0126582278481013,0.012255607821093311,0.010882790940503696,-2.719573713157083e-05,-0.006941519628479101,0.011630221957372382
10.0,1.0126582278481013,0.012258207735437787,0.010967872825768199,2.055699752264048e-05,-0.006967824168361796,0.011666734567293587
0.0,1.1139240506329113,0.012402281226434787,0.010891786978957622,4.6387839568320676e-05,-0.006988220461617722,0.01172053981427878
0.10101010101010101,1.1139240506329113,0.01195113459816899,0.011013424499540196,-2.6594428846465565e-05,-0.0068893677293127556,0.011511052975326987
0.20202020202020202,1.1139240506329113,0.011962023049398623,0.01090819899548421,-4.693057713113991e-05,-0.00686106661346485,0.011471760125858073
0.30303030303030304,1.1139240506329113,0.011854032564553155,0.010483078208750437,5.3574305969501945e-05,-0.006701133231991077,0.011231868808339955
0.40404040404040403,1.1139240506329113,0.01166924101637406,0.010583218150778336,-4.378185330314769e-06,-0.006675737750145719,0.011165913599003627
0.5050505050505051,1.1139240506329113,0.011697232846349749,0.010407695982110513,4.080762211557185e-05,-0.006631478648538078,0.011108966846969414
0.6060606060606061,1.1139240506329113,0.011412696209538995,0.010401118729188143,3.5514639080933395e-05,-0.006544144481618141,0.010942206412012646
0.7070707070707071,1.1139240506329113,0.011434700809693337,0.010232894601878519,-1.5705156411239734e-05,-0.006500278623471557,0.01088371105398167
0.8080808080808081,1.1139240506329113,0.01124004590003878,0.010170386076722767,-5.769023547071799e-06,-0.006423129593028464,0.010745225837831131
0.9090909090909091,1.1139240506329113,0.01129704345842663,0.010130956027432046,-2.0983874243658453e-05,-0.006428399845757602,0.010761548744626277
1.0101010101010102,1.1139240506329113,0.011088035106343765,0.009986890530580607,-2.3574776377961084e-05,-0.006322477691077312,0.010580603928569783
1.1111111111111112,1.1139240506329113,0.011125385652609864,0.009822242356238747,9.076874073976986e-06,-0.006284288402654583,0.010534451281692905
1.2121212121212122,1.1139240506329113,0.01101408988729315,0.010167557290719022,-3.1183219056626275e-05,-0.006354494153403651,0.010616304656079574
1.3131313131313131,1.1139240506329113,0.010906549227510186,0.009936719881579674,4.2897550584669e-05,-0.006252980732726958,0.010455688122175144
1.4141414141414141,1.1139240506329113,0.010695812799981719,0.00995677602892092,5.937363793984515e-05,-0.006195776648670792,0.010346620875064
1.5151515151515151,1.1139240506329113,0.010781479038230422,0.009623004185161474,-5.416949727750818e-05,-0.006121344967017568,0.010251882017250347
1.6161616161616161,1.1139240506329113,0.010636280994509105,0.009628377081558608,-0.0001413368071939396,-0.006079397422820314,0.010172803091453856
1.7171717171717171,1.1139240506329113,0.010647732121223207,0.009622382454369378,-7.84333883364289e-05,-0.006081034372677776,0.010174789829309423
1.8181818181818181,1.1139240506329113,0.010612397796636834,0.00952140478141679,-1.534611553741951e-05,-0.0060401407734160875,0.010111177349460355
1.9191919191919191,1.1139240506329113,0.010627045176405872,0.009305566632925498,2.1407191773280673e-05,-0.00597978354279941,0.010031867091654087
2.0202020202020203,1.1139240506329113,0.01054001962414537,0.009484602784935046,5.738613693363686e-06,-0.0060073867227241244,0.010053949620919597
2.121212121212121,1.1139240506329113,0.010477297428451453,0.009486257078914082,-3.518300726934933e-05,-0.005989066352209659,0.010018792911571163
2.2222222222222223,1.1139240506329113,0.01029794982903585,0.009491590304365189,2.1631095662186296e-05,-0.005936862040020311,0.009919452613327086
2.323232323232323,1.1139240506329113,0.010420075070043406,0.009527160335819091,6.445413827937762e-05,-0.005984170621758749,0.01000417341083179
2.4242424242424243,1.1139240506329113,0.010393682196177721,0.009167440942432131,-5.753347027342259e-05,-0.005868336941582956,0.009838549975522828
2.525252525252525,1.1139240506329113,0.010188077131441315,0.009175933736067548,9.721504251555952e-05,-0.0058092032602526595,0.00972306058822649
2.6262626262626263,1.1139240506329113,0.0102366942468923,0.009361139652093167,-7.926261125057917e-05,-0.005879350169695639,0.009829169240278556
2.727272727272727,1.1139240506329113,0.01016590002788782,0.009215685917204206,1.9780857642633456e-05,-0.005814475783527608,0.009725729917381068
2.8282828282828283,1.1139240506329113,0.010274743676422315,0.009075173023434897,2.6191944963213815e-05,-0.005804975009957163,0.009730678519015394
2.929292929292929,1.1139240506329113,0.01025757334025699,0.009056719538597116,1.3582762062884957e-05,-0.005794287863656231,0.009713010255144134
3.0303030303030303,1.1139240506329113,0.010205755749414298,0.009146339560534168,3.362387142075863e-05,-0.005805628592984539,0.009719622518980163
3.131313131313131,1.1139240506329113,0.01004482565996715,0.00907238669412981,0.00011773438616347919,-0.005735163706229088,0.009597799975081495
3.2323232323232323,1.1139240506329113,0.010245785775687305,0.009200115021049254,1.002293412840789e-05,-0.005833770239020968,0.009765046662565648
3.3333333333333335,1.1139240506329113,0.01010461785168218,0.009297019343958988,3.287961269769031e-05,-0.005820491158692351,0.009726165029798369
3.4343434343434343,1.1139240506329113,0.010138849359879683,0.00919882191101313,4.320627398376937e-05,-0.005801301381267845,0.009703335591181
3.5353535353535355,1.1139240506329113,0.010124528646336901,0.008917134730516791,4.9544137288760864e-05,-0.0057124990130561085,0.009578462817954738
3.6363636363636362,1.1139240506329113,0.010128378558187188,0.009130993819876611,-0.00010610051730798078,-0.00577781171341914,0.00967009360325493
3.7373737373737375,1.1139240506329113,0.009917567768223548,0.008984800700852147,-3.544591868946324e-05,-0.005670710540722708,0.009485841737880273
3.8383838383838382,1.1139240506329113,0.010032458752063813,0.009126363830240654,1.216354289152321e-05,-0.00574764677469134,0.009611520199526047
3.9393939393939394,1.1139240506329113,0.009917225419780813,0.009086823052801644,-9.214780828551626e-05,-0.005701214541774737,0.009530535887928591
4.040404040404041,1.1139240506329113,0.010105237244444747,0.00883835916367366,-1.0145688103253413e-05,-0.005683078922435522,0.009535145781635125
4.141414141414141,1.1139240506329113,0.009862801760764464,0.00897272205722025,7.2301338363327255e-06,-0.005650657145395414,0.009449263336788178
4.242424242424242,1.1139240506329113,0.009694160470555201,0.009040929573262928,2.288902215460779e-05,-0.005620527013145439,0.009384695222189253
4.343434343434343,1.1139240506329113,0.009958983675078411,0.008930538493833375,-1.3238109295837362e-05,-0.0056668566506735355,0.009486691325387648
4.444444444444445,1.1139240506329113,0.010078023281860827,0.008855213751645608,4.724226974685255e-05,-0.005679971110051929,0.00952601747837344
4.545454545454545,1.1139240506329113,0.009684829488893626,0.008900623056868152,3.777827846265989e-05,-0.005575635763728533,0.009317739960617282
4.646464646464646,1.1139240506329113,0.010007107764435991,0.009053943905023716,-1.5555229189594078e-06,-0.005718315500837912,0.009566207239683608
4.747474747474747,1.1139240506329113,0.010132249069949065,0.008968358673680054,-1.9907764761739515e-05,-0.005730182323088736,0.009603409480084927
4.848484848484849,1.1139240506329113,0.009866391391280873,0.008685430008452512,0.00012179501328859633,-0.005565546419920016,0.009334507149736734
4.94949494949495,1.1139240506329113,0.009893897167467823,0.009046867001780578,2.5282186989278407e-05,-0.00568222925077452,0.009498849902587998
5.05050505050505,1.1139240506329113,0.01002246732828294,0.008967474622631257,-3.0194228097337584e-05,-0.005696982585274259,0.009538970914398346
5.151515151515151,1.1139240506329113,0.009751328244197338,0.009013112523815597,-6.772702663150138e-05,-0.00562933223040388,0.009404708502757517
5.252525252525253,1.1139240506329113,0.009907945074379032,0.008833980582481027,-3.7671696345070316e-05,-0.005622577697058017,0.009417231631393973
5.353535353535354,1.1139240506329113,0.009882586671969963,0.008900019364799528,-5.4932707906723294e-05,-0.005634781811030847,0.009430254719526746
5.454545454545454,1.1139240506329113,0.01000901176054058,0.00884495625822116,-3.489440660616418e-05,-0.005656190405628522,0.009480925549824758
5.555555555555555,1.1139240506329113,0.010071484694987025,0.008991362338866098,5.098083071353287e-05,-0.005718854110155936,0.009577621292495626
5.656565656565657,1.1139240506329113,0.009908720805476025,0.008866748480850029,6.65867830497896e-05,-0.005632640785897817,0.009431709435380147
5.757575757575758,1.1139240506329113,0.009894002577857452,0.008987569541394128,-0.00010319206658172891,-0.005664471635775474,0.009475051602425972
5.858585858585858,1.1139240506329113,0.010096395905227862,0.008885890783959231,-2.2783852705146515e-05,-0.005694686006756128,0.009548945035233883
5.959595959595959,1.1139240506329113,0.009869171176095539,0.008949785497169687,1.3990439970713357e-05,-0.0056456870019795675,0.00944313625257788
6.0606060606060606,1.1139240506329113,0.010009035657384386,0.008969384777207597,-5.866651146484435e-05,-0.005693526130377595,0.009532370706766826
6.161616161616162,1.1139240506329113,0.010194482183051303,0.008994287938104684,1.5064972985669103e-06,-0.005756631036346796,0.009650522326198036
6.262626262626262,1.1139240506329113,0.009948590676248634,0.009132795034818538,-5.096644760838626e-05,-0.00572441571332015,0.00956722294066608
6.363636363636363,1.1139240506329113,0.009957006919401181,0.008917620938049252,2.085447109095484e-06,-0.00566238835723513,0.009480145022638267
6.4646464646464645,1.1139240506329113,0.01009782373524899,0.008923654693352436,-1.581920507093221e-05,-0.005706443528580428,0.00956498383942157
6.565656565656566,1.1139240506329113,0.010080681154729479,0.009201390996125576,-4.115437399192222e-05,-0.005784621645256516,0.009671324678783889
6.666666666666667,1.1139240506329113,0.010264361962240362,0.009123413282496254,-1.7987637287894974e-05,-0.005816332573420985,0.009744164962568545
6.767676767676767,1.1139240506329113,0.010180686124669625,0.009179574301462061,-5.9598824092332055e-06,-0.005808078127839506,0.009718883483426975
6.8686868686868685,1.1139240506329113,0.010119713789234638,0.009167702791525744,-1.6512528463962952e-05,-0.005786224974228114,0.009678929242718714
6.96969696969697,1.1139240506329113,0.01017888722383376,0.009102843963708628,5.0544884102446264e-05,-0.0057845193562627165,0.009686194070755216
7.070707070707071,1.1139240506329113,0.010132956497569831,0.008915418047981368,-6.801120586288931e-05,-0.0057145123636653606,0.00958310073444077
7.171717171717171,1.1139240506329113,0.010049287695561975,0.009160829975501493,7.527657403619435e-05,-0.00576303530131904,0.009636709643964242
7.2727272727272725,1.1139240506329113,0.01014818492185858,0.009077376854945819,2.14449895997818e-05,-0.00576766853304132,0.009657479407603801
7.373737373737374,1.1139240506329113,0.010401159961907644,0.009207969304971515,-5.505156404384533e-05,-0.005882738780063748,0.009859328457519557
7.474747474747475,1.1139240506329113,0.010261759150357368,0.009279538086101925,-4.4036811711466905e-05,-0.005862389170937787,0.009807902977067542
7.575757575757575,1.1139240506329113,0.01042738199183375,0.00932641151840154,7.2548794022946135e-06,-0.005926138053070587,0.009922819629450394
7.6767676767676765,1.1139240506329113,0.010272441223831606,0.009421348357776946,-2.289766512057114e-06,-0.005908136874482566,0.009874442872904135
7.777777777777778,1.1139240506329113,0.010552861747844297,0.009329651661246196,-8.657513675400641e-05,-0.005964754022727148,0.009998662551338765
7.878787878787879,1.1139240506329113,0.010389133248919075,0.009359234886629611,5.112496314735516e-06,-0.0059245104406646055,0.009914388906767239
7.979797979797979,1.1139240506329113,0.010768122906178738,0.009462674198623717,5.6195291175424504e-05,-0.006069239131440736,0.010178846145424074
8.080808080808081,1.1139240506329113,0.010631692720040262,0.009524530251244443,-1.772201626354072e-05,-0.006046866891385412,0.010123666819678046
8.181818181818182,1.1139240506329113,0.010704014848960101,0.00959836738233017,-9.75584553111908e-05,-0.006090714669387082,0.0101976505266316
8.282828282828282,1.1139240506329113,0.01069846100606744,0.009657779683132228,5.966486123657664e-05,-0.0061068722067599,0.010218467431473558
8.383838383838384,1.1139240506329113,0.01071321491971328,0.009660289438615225,-9.895944676296705e-05,-0.006112051307498552,0.010228919196453636
8.484848484848484,1.1139240506329113,0.010732296539424266,0.009799495480512838,-1.0761546647825255e-05,-0.006159537605981131,0.010297648114097543
8.585858585858587,1.1139240506329113,0.010786985385094384,0.009991245810363081,2.4393603962655036e-05,-0.006233469358637239,0.010412031941451605
8.686868686868687,1.1139240506329113,0.01091332278297551,0.009632175181239516,-1.4982740813546717e-05,-0.006163649389264508,0.010332523867866613
8.787878787878787,1.1139240506329113,0.011087086638054685,0.009862551801515447,3.7515838920194972e-06,-0.0062848915318710384,0.010528366164070631
8.88888888888889,1.1139240506329113,0.011210788591266556,0.010049250983044818,6.691494163631932e-05,-0.006378011872293412,0.010678137979771993
8.98989898989899,1.1139240506329113,0.011113962573792258,0.00999718009249046,1.5364010898016075e-05,-0.006333342799884814,0.010599820595672138
9.09090909090909,1.1139240506329113,0.011309608911808641,0.010124368039368708,-7.515642164077615e-05,-0.006430193085353204,0.010766818675603236
9.191919191919192,1.1139240506329113,0.01144764938886226,0.010444117976542556,-6.308867445668452e-05,-0.006567530209621445,0.010980875038421083
9.292929292929292,1.1139240506329113,0.01154272097350897,0.01033359844969689,9.48374607802984e-05,-0.006562895826961758,0.010989395036426144
9.393939393939394,1.1139240506329113,0.011663262597718055,0.010460153059620735,-1.8493200685209614e-05,-0.006637024697201636,0.011110716021155256
9.494949494949495,1.1139240506329113,0.0115373514886706,0.010508273386184208,1.144634002982749e-05,-0.006613687462456442,0.011058799138811014
9.595959595959595,1.1139240506329113,0.011832633761224528,0.010754422948028424,3.1745821049666516e-05,-0.006776117012775885,0.011332197933608656
9.696969696969697,1.1139240506329113,0.01178679782065501,0.010715428247954623,1.492731248640796e-05,-0.006750667820582889,0.011289335124605839
9.797979797979798,1.1139240506329113,0.011865401901627382,0.010807092851675398,-5.823584592079579e-05,-0.006801748425990834,0.011373684203449363
9.8989898989899,1.1139240506329113,0.012298094023981628,0.011175268345146339,1.784743526232963e-05,-0.007042008710738391,0.011776934828287176
10.0,1.1139240506329113,0.012308426645182849,0.011011160922060509,1.2586334616966772e-06,-0.006995876270173008,0.011713793988129911
0.0,1.2151898734177216,0.012257336691739585,0.011180499898773146,1.0572279677159693e-05,-0.007031350977153819,0.011755979943807395
0.10101010101010101,1.2151898734177216,0.012058035737172006,0.011112143488825985,-6.167418154673517e-05,-0.0069510537677993966,0.011614505868281114
0.20202020202020202,1.2151898734177216,0.01204539522708691,0.010831259591938553,-7.531143531114741e-05,-0.006862996445707638,0.01148729486735145
0.30303030303030304,1.2151898734177216,0.011905208662989598,0.010777088241839657,-2.3838148606952527e-05,-0.006804689071448776,0.011383226465073748
0.40404040404040403,1.2151898734177216,0.011768628692674291,0.010567684824354833,7.407463142588535e-06,-0.006700894055108737,0.01121648740138488
0.5050505050505051,1.2151898734177216,0.01171203309264814,0.010649775387786529,-4.556624238923298e-06,-0.0067085425441304,0.011218688670742081
0.6060606060606061,1.2151898734177216,0.01181328089772342,0.010549150144768801,4.5399705420160745e-05,-0.0067087293127476655,0.01123495811530848
0.7070707070707071,1.2151898734177216,0.011342455877137541,0.01017374187114223,-8.65380621933301e-05,-0.006454859324483931,0.010806645049008115
0.8080808080808081,1.2151898734177216,0.011097452133560705,0.010268098472935942,-6.359775761282991e-05,-0.006409665181948994,0.010707459681213196
0.9090909090909091,1.2151898734177216,0.011348285744551757,0.010082013357595367,9.939963650676953e-06,-0.006429089730644137,0.010771133210065701
1.0101010101010102,1.2151898734177216,0.011017096585847961,0.01019947791227507,-6.130605501017033e-06,-0.006364972349436909,0.010631897588535354
1.1111111111111112,1.2151898734177216,0.011090379266241113,0.009991444055020705,6.177282278485943e-05,-0.006324546996378545,0.010584328520552173
1.2121212121212122,1.2151898734177216,0.011046243392154119,0.01007589599836177,2.2504661664595625e-05,-0.006336641817154766,0.010594521840836675
1.3131313131313131,1.2151898734177216,0.010877212449618933,0.009816423124257304,6.126633873301941e-05,-0.006208090672162871,0.010388063077565766
1.4141414141414141,1.2151898734177216,0.010624394598933934,0.009975482614523468,6.380414651411245e-05,-0.00617996316403722,0.010315850099839142
1.5151515151515151,1.2151898734177216,0.010861501464293991,0.009748567296783141,-1.9657536449458346e-05,-0.00618302062832314,0.010350065685115695
1.6161616161616161,1.2151898734177216,0.01072918949283333,0.009603824260368307,5.090900148161639e-06,-0.006099904125960491,0.010213117790547383
1.7171717171717171,1.2151898734177216,0.010719398879583076,0.009680925439636511,2.8914968176013717e-05,-0.006120097295765876,0.010239855302815331
1.8181818181818181,1.2151898734177216,0.010492241355037091,0.009620914085183402,-7.439292296811563e-05,-0.006033946632066148,0.010085671359407564
1.9191919191919191,1.2151898734177216,0.010447133356992447,0.009673110752323813,0.00011533876776824815,-0.006036073232794877,0.010084408663529722
2.0202020202020203,1.2151898734177216,0.010625990712299757,0.009388994092891057,3.6551859415013604e-05,-0.006004495441557245,0.010064866257462456
2.121212121212121,1.2151898734177216,0.010466155024803556,0.009317350720865257,-3.498666556051226e-05,-0.005935051723700643,0.009941843923241264
2.2222222222222223,1.2151898734177216,0.010420664272112782,0.009504913394262928,-0.00010239448606299145,-0.005977673299912713,0.009995877399194782
2.323232323232323,1.2151898734177216,0.01042068008507631,0.009133793856550946,-2.756548096868673e-05,-0.005866342182488177,0.009840665601195082
2.4242424242424243,1.2151898734177216,0.01045880940440497,0.009350642605990254,0.00011613410076154529,-0.005942835603118567,0.009953144421033408
2.525252525252525,1.2151898734177216,0.010464554029480596,0.00921131003054257,9.002733742781817e-05,-0.005902759218006951,0.00989884775023015
2.6262626262626263,1.2151898734177216,0.01037973374579738,0.009220260310038562,-1.8816642948833074e-05,-0.005879998216750782,0.009851359699631792
2.727272727272727,1.2151898734177216,0.010218463463716064,0.009356214046786264,-1.1728273277869974e-05,-0.0058724032531506975,0.009815804506507373
2.8282828282828283,1.2151898734177216,0.010148512981752573,0.009373933551405436,-5.877146682887945e-05,-0.005856733959947403,0.009784775004382094
2.929292929292929,1.2151898734177216,0.01022991796361289,0.009125117047446802,5.606147188987385e-06,-0.005806510503317908,0.00972470452789012
3.0303030303030303,1.2151898734177216,0.010168435319464875,0.009179469303360707,-8.523245737071641e-05,-0.0058043713868476746,0.009712913433909207
3.131313131313131,1.2151898734177216,0.01017949054258791,0.009173753131341743,-6.871078318530733e-06,-0.005805973102178896,0.009715749205082511
3.2323232323232323,1.2151898734177216,0.010257848484216032,0.009160370608127228,-5.3117269118770684e-05,-0.005825465727702977,0.009755952838076622
3.3333333333333335,1.2151898734177216,0.010007330225844397,0.008988732884140807,-3.6602961092182916e-05,-0.005698818932995561,0.00953911831136985
3.4343434343434343,1.2151898734177216,0.010061507054570365,0.008931139481603326,-4.539175885558787e-06,-0.005697793960852107,0.009546649441656079
3.5353535353535355,1.2151898734177216,0.010086452475489973,0.009167666173725724,-8.265106831973321e-06,-0.005776235594764708,0.009659896602796737
3.6363636363636362,1.2151898734177216,0.010058231671977782,0.009137170944843264,9.586842760452837e-06,-0.005758620785046313,0.009630805302539845
3.7373737373737375,1.2151898734177216,0.010040007077839934,0.009088218960213036,-3.78600762890967e-05,-0.005738467811415891,0.009599790803058344
3.8383838383838382,1.2151898734177216,0.010105918607791425,0.008984970518698555,2.4382709824822812e-05,-0.005727266737946993,0.00959477404233311
3.9393939393939394,1.2151898734177216,0.009956732159422329,0.008897967861103803,1.9604126580109632e-05,-0.00565641000615784,0.009471896196690997
4.040404040404041,1.2151898734177216,0.009969364968015424,0.008937868739212988,-3.944932473897106e-05,-0.0056721701121685226,0.009495974342590174
4.141414141414141,1.2151898734177216,0.00986794463832704,0.00909891421957355,2.0210425945468317e-05,-0.005690057657370177,0.009506850948476964
4.242424242424242,1.2151898734177216,0.009771273500505764,0.008911705222832102,-1.6117523667953894e-05,-0.005604893617001359,0.00937114432904907
4.343434343434343,1.2151898734177216,0.00996893147365214,0.008873293150998652,4.515005811352721e-06,-0.005652667387395238,0.009468776893444678
4.444444444444445,1.2151898734177216,0.00986943072900033,0.009012766480852611,-2.1285445536984026e-06,-0.005664659162955883,0.00947020388827987
4.545454545454545,1.2151898734177216,0.009898352938334727,0.009055008257931403,5.748223543841588e-05,-0.005686008358879839,0.009505304333301386
4.646464646464646,1.2151898734177216,0.010005312051559778,0.008736177414700211,0.00010061857540721327,-0.005622446839877997,0.009436591343885354
4.747474747474747,1.2151898734177216,0.00988052549094182,0.008873665302713545,4.684634879607053e-05,-0.005626257238096609,0.00941789930936686
4.848484848484849,1.2151898734177216,0.009811147963699562,0.009008520095141954,-7.480909558948047e-05,-0.005645900417652455,0.009436361814022005
4.94949494949495,1.2151898734177216,0.010012203827553133,0.00874532755045245,5.200210429294932e-05,-0.005627259413401675,0.00944315043467375
5.05050505050505,1.2151898734177216,0.009925587796806107,0.00911470475042366,2.6121430999975116e-05,-0.005712087764168931,0.009546118611492248
5.151515151515151,1.2151898734177216,0.0099001452701339,0.009091009889319697,-6.191836790086644e-05,-0.005697346547836079,0.00952200190473751
5.252525252525253,1.2151898734177216,0.009920522849538095,0.008910185729372888,2.9968223295808183e-05,-0.0056492125736732944,0.009456065593124778
5.353535353535354,1.2151898734177216,0.009938532312513158,0.008787443939413414,2.07142750036606e-05,-0.005617792875577971,0.009415975107364628
5.454545454545454,1.2151898734177216,0.009870735915190762,0.009008977133430856,-1.9111116771358645e-05,-0.005663913914586486,0.009469369464350903
5.555555555555555,1.2151898734177216,0.009793508973482514,0.008938503081797522,-9.597061517594833e-05,-0.005619603616584011,0.009396700287485652
5.656565656565657,1.2151898734177216,0.009925267802709529,0.008902672455778946,-3.181038784221997e-05,-0.0056483820775465425,0.00945569379946812
5.757575757575758,1.2151898734177216,0.009773532967421074,0.009021635222011864,-5.440183824474001e-05,-0.00563855045682988,0.00942058799449083
5.858585858585858,1.2151898734177216,0.009907057414685512,0.009093640717832094,8.76135848281756e-06,-0.005700209439755281,0.009526442027693857
5.959595959595959,1.2151898734177216,0.010072121392105508,0.008921942202178724,-7.904587074831204e-05,-0.005698219078285269,0.009550106901583926
6.0606060606060606,1.2151898734177216,0.010174786282131412,0.009072239626153975,-0.000136802776033556,-0.005774107772485615,0.009673668043901391
6.161616161616162,1.2151898734177216,0.0100206432280138,0.009030404532238233,-8.541589656720925e-05,-0.00571531432807561,0.009565193271595123
6.262626262626262,1.2151898734177216,0.010294190021434153,0.009094017359975504,3.989137640386823e-06,-0.0058164622144228975,0.009749666913222158
6.363636363636363,1.2151898734177216,0.010119584306531594,0.009027290666819126,0.00011713057236311271,-0.005744062492005216,0.009622197933463259
6.4646464646464645,1.2151898734177216,0.010037446523079516,0.009062482985453375,5.20435268618654e-05,-0.0057299788525598675,0.00958764141061666
6.565656565656566,1.2151898734177216,0.010021939639794876,0.009027271750829602,-3.960401218407836e-05,-0.005714763417187343,0.009563725332814695
6.666666666666667,1.2151898734177216,0.010152090614191388,0.009150152219466948,-0.00011280974665679788,-0.0057906728500975,0.009692019042971295
6.767676767676767,1.2151898734177216,0.01013125021675255,0.009091532259182772,-9.15749523641222e-05,-0.005766834742780596,0.009654779102519788
6.8686868686868685,1.2151898734177216,0.010181408295981237,0.009051600593063494,-4.785548486527081e-05,-0.005769902666713418,0.009666508017789706
6.96969696969697,1.2151898734177216,0.010163165200432877,0.009183164971473213,0.00012160662344164815,-0.005803899051571826,0.009712609722894582
7.070707070707071,1.2151898734177216,0.010191179925438233,0.009162939887975268,-2.6927214209643613e-05,-0.00580623594402405,0.009718056484892847
7.171717171717171,1.2151898734177216,0.010353148140613964,0.009134907278074365,-4.031656317415524e-06,-0.005846416625606499,0.009800979943995182
7.2727272727272725,1.2151898734177216,0.010394459529129702,0.009331530270890075,4.700269642260959e-06,-0.005917796940005934,0.009905861831826727
7.373737373737374,1.2151898734177216,0.010318709341753655,0.009244462470775077,2.2194189361088666e-05,-0.00586895154375862,0.009825803038052887
7.474747474747475,1.2151898734177216,0.010358669385437473,0.009363087145893737,-6.93959686184812e-05,-0.005916526959399362,0.009899230049272973
7.575757575757575,1.2151898734177216,0.010254335119967562,0.009333609815456122,-4.0874427895032566e-05,-0.005876383480627106,0.009826632697401515
7.6767676767676765,1.2151898734177216,0.010472135610874308,0.009145811559341273,-8.715224917170945e-05,-0.005885384151064674,0.009877150447077624
7.777777777777778,1.2151898734177216,0.010470479328199656,0.009418572223168983,-1.3968261435123315e-05,-0.005966715465410592,0.0099861934518836
7.878787878787879,1.2151898734177216,0.010495172539602506,0.009456811932665827,-8.272757588665412e-06,-0.0059855953416805005,0.010016450018519134
7.979797979797979,1.2151898734177216,0.010444548058585178,0.009288325738902483,1.556925902766531e-05,-0.005919862139246298,0.009917153917418702
8.080808080808081,1.2151898734177216,0.010407755996799172,0.009554243743988469,1.2679932184780508e-05,-0.005988599922236292,0.010008356664763482
8.181818181818182,1.2151898734177216,0.010675875776488415,0.0096891775147481,-3.6805651218724905e-05,-0.006109515987370954,0.010218517160107025
8.282828282828282,1.2151898734177216,0.010791543096304585,0.00970067094828826,1.3244733532606015e-05,-0.006147664213377853,0.010289593622380789
8.383838383838384,1.2151898734177216,0.010750197884296443,0.00957811509679712,3.3318931163625564e-05,-0.006098493894328068,0.01021487842137194
8.484848484848484,1.2151898734177216,0.011043774040978702,0.009869774697711638,5.427377294823297e-06,-0.006274064621607103,0.010506089873219276
8.585858585858587,1.2151898734177216,0.011027092733792867,0.009851239841899688,-3.524253873811128e-05,-0.006263499772707766,0.010488893717282415
8.686868686868687,1.2151898734177216,0.01120486848203753,0.009876558956008986,7.131462516730497e-05,-0.006324428231413955,0.01060401846855224
8.787878787878787,1.2151898734177216,0.011102752843459381,0.009978057106381655,2.67780322172958e-05,-0.0063242429849523114,0.010585414191240138
8.88888888888889,1.2151898734177216,0.011070300369610422,0.009925862223504342,5.667562306974595e-05,-0.006298848777934429,0.010545219357157822
8.98989898989899,1.2151898734177216,0.011331093048311373,0.009971077694281407,-5.862430928893366e-06,-0.006390651222777834,0.010716013905054951
9.09090909090909,1.2151898734177216,0.011346650940787765,0.010133419471815133,1.6708097094702507e-05,-0.0064440211237808695,0.010791345683560475
9.191919191919192,1.2151898734177216,0.011343951398474078,0.010340157823698761,1.928679832352669e-05,-0.006505232766651852,0.010876900536785247
9.292929292929292,1.2151898734177216,0.01144009250603366,0.010243243234776439,-1.4190448131963034e-07,-0.00650500072224303,0.010891101799458376
9.393939393939394,1.2151898734177216,0.011559545896167301,0.010439095889033466,-5.2576578584625536e-05,-0.0065995925355602295,0.011042414099829211
9.494949494949495,1.2151898734177216,0.01167470995769137,0.010425049669775347,4.918175355092418e-05,-0.006629927888240015,0.011103077886739098
9.595959595959595,1.2151898734177216,0.011908582903244466,0.010533391924839921,-4.637761417771929e-05,-0.006732592448425317,0.011284297668251122
9.696969696969697,1.2151898734177216,0.011934337056231535,0.010711274357748029,-2.0776630111218827e-05,-0.006793683424193868,0.011372296859325871
9.797979797979798,1.2151898734177216,0.011943378592629653,0.01094345395595569,2.6177191090320996e-05,-0.006866049764575602,0.011476224062034392
9.8989898989899,1.2151898734177216,0.01237278129423587,0.011109602271426416,-4.3001809195521205e-06,-0.007044715069698684,0.011792046297765233
10.0,1.2151898734177216,0.012145389526029934,0.010917768098670512,-4.523633584616473e-05,-0.006918947287410133,0.011580748665797518
0.0,1.3164556962025316,0.01236055730309067,0.01099047880383913,-4.308843827215068e-05,-0.00700531083207894,0.011735890591595789
0.10101010101010101,1.3164556962025316,0.012111444121680578,0.011006132494087644,9.167391923427914e-06,-0.006935272984730467,0.011598367325415745
0.20202020202020202,1.3164556962025316,0.011901104246249829,0.010702351379061318,-9.247387978885716e-06,-0.006781036687593343,0.011349319998191535
0.30303030303030304,1.3164556962025316,0.011958571797139668,0.010895457749423059,4.0901803959027376e-05,-0.006856208863968818,0.011464263784052211
0.40404040404040403,1.3164556962025316,0.01196400830737612,0.010597414920231323,-1.871289719372714e-05,-0.006768426968282233,0.011342671120406834
0.5050505050505051,1.3164556962025316,0.011633194921037905,0.010407064614659971,-1.862206185401978e-05,-0.006612077860709362,0.011071217055498335
0.6060606060606061,1.3164556962025316,0.011635703219514397,0.010339668679154613,3.576507050731869e-05,-0.0065926115696007025,0.011045037758620941
0.7070707070707071,1.3164556962025316,0.011664767167248322,0.010304567814525684,6.651284279574052e-05,-0.006590800494532202,0.011048248660737156
0.8080808080808081,1.3164556962025316,0.011344790913243467,0.010224072141929628,6.137377528219681e-05,-0.006470658916551929,0.010828539676122595
0.9090909090909091,1.3164556962025316,0.01133110159072467,0.010274473231745075,-7.446402342471763e-06,-0.006481672446740924,0.010841481901281215
1.0101010101010102,1.3164556962025316,0.01130075946932179,0.010147324415182195,-1.8063909112663994e-05,-0.006434425165351195,0.010770508985730698
1.1111111111111112,1.3164556962025316,0.011261669720822045,0.010084430457982435,3.538524574743597e-05,-0.006403830053641343,0.010721808325521276
1.2121212121212122,1.3164556962025316,0.011048814646013646,0.009899349009676772,-0.00011773489864207575,-0.006284449096707125,0.010523256534567212
1.3131313131313131,1.3164556962025316,0.010981869130497795,0.009909184754635689,-1.3636023739617862e-05,-0.0062673161655400446,0.010486781191527838
1.4141414141414141,1.3164556962025316,0.011071795124410802,0.009714893762757552,-6.271335656995804e-05,-0.006236006666150506,0.010460128756243931
1.5151515151515151,1.3164556962025316,0.010968096000889736,0.009873532911898034,-9.846452266463614e-06,-0.006252488673836331,0.010463852830544388
1.6161616161616161,1.3164556962025316,0.010889007629729743,0.009878071577455612,1.8001019186646605e-05,-0.006230123762155606,0.010420429961656744
1.7171717171717171,1.3164556962025316,0.010729532312080648,0.009686953411710582,7.121091465281254e-06,-0.006124945717137369,0.010248102386778557
1.8181818181818181,1.3164556962025316,0.010503508654939984,0.00959232911069807,-4.6685831751374854e-06,-0.006028751329691416,0.010078860321688234
1.9191919191919191,1.3164556962025316,0.010506098209850637,0.009593008889905602,2.8637598896693425e-05,-0.006029732129926872,0.010080738364213599
2.0202020202020203,1.3164556962025316,0.010409276556315761,0.009432642552150311,7.016110045789494e-05,-0.005952575732539821,0.009957688823233498
2.121212121212121,1.3164556962025316,0.010373643328299044,0.009579177021137182,2.554787543070022e-05,-0.0059858461048308675,0.010000205027445573
2.2222222222222223,1.3164556962025316,0.010578802453281931,0.009322292787733479,0.00016698386349070472,-0.0059703285723046225,0.010014048191650712
2.323232323232323,1.3164556962025316,0.010449428477736049,0.009384041272286823,-5.722169476901067e-05,-0.00595004092500686,0.009960057277519842
2.4242424242424243,1.3164556962025316,0.010320035102346843,0.009318697368835241,-7.879685404926884e-05,-0.005891619741354625,0.009858528695688073
2.525252525252525,1.3164556962025316,0.01030077790913182,0.00934346191948728,-3.237487474426261e-06,-0.00589327194858573,0.009857048822191839
2.6262626262626263,1.3164556962025316,0.010151443176358134,0.009372807338003237,-6.393694371172773e-06,-0.005857275154308412,0.009785393068315967
2.727272727272727,1.3164556962025316,0.010247270167539192,0.009148331904601766,-0.0001199587283153775,-0.005818680621642287,0.009746602700634602
2.8282828282828283,1.3164556962025316,0.010052123425748518,0.009368856429050044,2.0768012928408464e-06,-0.005826293956439569,0.009728502860718946
2.929292929292929,1.3164556962025316,0.010059341859790969,0.009107698707621244,2.9056720622780053e-05,-0.005750112170223663,0.009619023465199057
3.0303030303030303,1.3164556962025316,0.010120512702361617,0.009098630574581773,5.443452087054644e-05,-0.005765742983083017,0.00965069628257017
3.131313131313131,1.3164556962025316,0.010180210377851103,0.009023573109594934,8.07309085746975e-05,-0.005761135046233811,0.009655010866110585
3.2323232323232323,1.3164556962025316,0.010104151090745054,0.009015537760920178,-1.3673400787308776e-05,-0.00573590665549957,0.009606247736145187
3.3333333333333335,1.3164556962025316,0.009985792994360277,0.00900124293066433,1.506189884294831e-05,-0.005696110777507381,0.009531766258562826
3.4343434343434343,1.3164556962025316,0.009998327333923546,0.009063423622819805,7.186429241181311e-05,-0.0057185252870230055,0.009566013512721731
3.5353535353535355,1.3164556962025316,0.009974422704708318,0.009014383669167982,1.5296907207786003e-05,-0.00569664191216289,0.009530773844477298
3.6363636363636362,1.3164556962025316,0.009959455578543696,0.008996547595940835,2.6377603857523092e-05,-0.0056868009523453585,0.00951472518042129
3.7373737373737375,1.3164556962025316,0.010007890471231259,0.009036657909876525,-4.5329239453441083e-05,-0.005713364514332336,0.009559672562180873
3.8383838383838382,1.3164556962025316,0.009896293004964711,0.008896023939180153,3.480562343924869e-05,-0.005637695083243459,0.009436197962078884
3.9393939393939394,1.3164556962025316,0.00992831481449026,0.00904896542119358,-4.352452216878883e-06,-0.005693184070705151,0.009519153829729746
4.040404040404041,1.3164556962025316,0.010047763975794531,0.009038809780892837,-8.13424126960925e-05,-0.00572597212700621,0.009584240482804764
4.141414141414141,1.3164556962025316,0.00999397179321262,0.008863788808963484,2.854148354137439e-05,-0.00565732818065283,0.009479673663397345
4.242424242424242,1.3164556962025316,0.009844866644648769,0.008884693979010407,3.879386659155703e-05,-0.005618868187097752,0.009401865444791569
4.343434343434343,1.3164556962025316,0.00999536128724861,0.008913938502555936,2.2883059979430867e-06,-0.005672789936941363,0.0095009224169892
4.444444444444445,1.3164556962025316,0.009873404388244213,0.008947378467084505,-3.7933625795056316e-05,-0.005646234856598616,0.009444730102377277
4.545454545454545,1.3164556962025316,0.010082405280969507,0.008855369901387663,-3.141933702155831e-06,-0.00568133255470715,0.009528330058130707
4.646464646464646,1.3164556962025316,0.010137562273428286,0.009016928016604845,1.3126347130987904e-05,-0.00574634708700994,0.009626318471974891
4.747474747474747,1.3164556962025316,0.009866364161951555,0.009022101365233006,-4.219615033599072e-05,-0.005666539658155368,0.009472774608881058
4.848484848484849,1.3164556962025316,0.009824687554782632,0.008927865546920585,1.8637901207726705e-05,-0.005625765930510965,0.009408444151796475
4.94949494949495,1.3164556962025316,0.009868605481816459,0.008942833264551883,6.352261330625523e-05,-0.005643431623910502,0.009440468894233486
5.05050505050505,1.3164556962025316,0.009938965742654694,0.00887719863879268,4.7586966751662645e-05,-0.005644849314434212,0.009453270127461647
5.151515151515151,1.3164556962025316,0.010071723562312142,0.008938602183756174,-8.736431301142857e-06,-0.005703097723820495,0.009555695854437187
5.252525252525253,1.3164556962025316,0.009845587196551542,0.008751164382957186,3.115068315742627e-05,-0.005579025473852618,0.009346711956290322
5.353535353535354,1.3164556962025316,0.009933275733129437,0.008954392999132484,-8.401928732002419e-06,-0.005666300619678576,0.009481818278543596
5.454545454545454,1.3164556962025316,0.010023678925617596,0.009001169405378998,-6.260652376855059e-05,-0.005707454499298979,0.009554167495080094
5.555555555555555,1.3164556962025316,0.009827775503954044,0.008880988833157365,2.8328437611485915e-05,-0.005612629301133423,0.009390376829846827
5.656565656565657,1.3164556962025316,0.01003696202523426,0.008909773627017437,-3.1924472929922486e-05,-0.005684020695675509,0.009523689975466333
5.757575757575758,1.3164556962025316,0.009950087577739897,0.009020237138090094,5.290376599007264e-05,-0.005691097414748996,0.009519725193589523
5.858585858585858,1.3164556962025316,0.009875718746083265,0.008894349087172074,-4.894146617110497e-05,-0.005631020349976602,0.009423818876822613
5.959595959595959,1.3164556962025316,0.010003171873459935,0.008997102772783892,-4.214873562037047e-05,-0.005700082393873148,0.00954028668240208
6.0606060606060606,1.3164556962025316,0.010024972463995759,0.008940393015699282,-2.8919153505983233e-05,-0.0056896096439085116,0.009529219030522434
6.161616161616162,1.3164556962025316,0.009866812766132204,0.008961132381491202,-1.2749285368415664e-06,-0.005648383544287022,0.00944659077213308
6.262626262626262,1.3164556962025316,0.01001032613809026,0.008958499644250627,-3.696587074996352e-08,-0.005690647734702266,0.009528055526924513
6.363636363636363,1.3164556962025316,0.009967498176561179,0.009066278435492629,-0.00010358630280429953,-0.005710132983616141,0.009550523606695414
6.4646464646464645,1.3164556962025316,0.009995158886862157,0.008920824367093093,-3.411361320109708e-05,-0.005674794976186575,0.009503827798685714
6.565656565656566,1.3164556962025316,0.010015415071106029,0.008929317458699132,8.819457516671378e-05,-0.005683419758941548,0.009520176654006372
6.666666666666667,1.3164556962025316,0.010085020337610388,0.00913309064600019,-6.226752698925037e-05,-0.0057654332950831735,0.009644957583248995
6.767676767676767,1.3164556962025316,0.010122813338213748,0.00913877671333252,-1.2715821723206661e-05,-0.005778477015463881,0.009668450959908394
6.8686868686868685,1.3164556962025316,0.010090069192185476,0.009073283022075496,-6.0750817717318065e-05,-0.005749005664278291,0.009622628517941986
6.96969696969697,1.3164556962025316,0.010129972141980107,0.009264238140852624,-6.481350052915331e-05,-0.00581826308484982,0.009726693786367872
7.070707070707071,1.3164556962025316,0.010140932375734941,0.00915345870894452,3.010984172043618e-05,-0.005788317325403838,0.009685165451441612
7.171717171717171,1.3164556962025316,0.010337069048228311,0.009343249448774668,1.1553003161709102e-05,-0.005904095549100894,0.00987774733928284
7.2727272727272725,1.3164556962025316,0.010277109371165612,0.009196440213221201,-2.8700597418517932e-05,-0.005842064875316044,0.009781775856073819
7.373737373737374,1.3164556962025316,0.01047257272725083,0.009373509350082321,-5.010687788073868e-06,-0.0059538246231999456,0.009968589368928391
7.474747474747475,1.3164556962025316,0.010315270773462028,0.009238345396394645,-2.958852039691207e-06,-0.005866084850957002,0.009821192839709699
7.575757575757575,1.3164556962025316,0.010441659285637724,0.009353981297333495,-4.3386797013821167e-05,-0.005938692174891366,0.009942825369063402
7.6767676767676765,1.3164556962025316,0.01048696926671882,0.009427756461411398,6.37050113200553e-05,-0.005974417718439065,0.010000134949952433
7.777777777777778,1.3164556962025316,0.010634652532789807,0.009533643789237248,8.235415012018515e-05,-0.006050488896608116,0.010130131092016182
7.878787878787879,1.3164556962025316,0.010395527560343289,0.009508773084320155,-5.056434097856818e-06,-0.005971290193399033,0.00998173947097524
7.979797979797979,1.3164556962025316,0.010659020431441318,0.009462760098844728,-3.0428335481296644e-05,-0.006036534159085814,0.010114226103145914
8.080808080808081,1.3164556962025316,0.010402955763652652,0.009623501310140826,8.696432755388712e-05,-0.006007937122138042,0.010037086033742487
8.181818181818182,1.3164556962025316,0.010798297589796134,0.009675427146081517,-1.9631261431839493e-05,-0.006142117420763295,0.010283002276787856
8.282828282828282,1.3164556962025316,0.010638375428795489,0.009669816891506167,-3.88451597940436e-05,-0.006092457696090497,0.010188904499455526
8.383838383838384,1.3164556962025316,0.010743282637444392,0.009714513797162807,-4.7512457413871145e-05,-0.006137338930382159,0.010267955250965794
8.484848484848484,1.3164556962025316,0.010792635367332583,0.009475569380681491,0.00010080803922862855,-0.0060804614244042215,0.010199584051277256
8.585858585858587,1.3164556962025316,0.010687911323391485,0.009787120085239812,-6.690251947947831e-06,-0.006142509422589389,0.010267201698397233
8.686868686868687,1.3164556962025316,0.010881935528246128,0.009819169542303432,-1.83642810492499e-05,-0.006210331521164868,0.010391441342835752
8.787878787878787,1.3164556962025316,0.0111936242262713,0.00996565642171921,3.2151139502388236e-05,-0.006347784194397153,0.010633100167363359
8.88888888888889,1.3164556962025316,0.011016636397293488,0.009923636134447321,-9.686002890906963e-05,-0.006282081759522242,0.010514175488474206
8.98989898989899,1.3164556962025316,0.011131880637927838,0.010099955357602431,-3.1393732551890224e-05,-0.00636955079865908,0.010653606148752416
9.09090909090909,1.3164556962025316,0.01126726502474576,0.01029554795804164,2.529322294241141e-05,-0.00646884389483622,0.010814287804443698
9.191919191919192,1.3164556962025316,0.011404941607087962,0.01015383341882879,3.889694917416194e-05,-0.006467632507775025,0.010833913782494993
9.292929292929292,1.3164556962025316,0.011406330434091156,0.01041951996194912,6.493274551726798e-05,-0.006547755118812083,0.010946914238398463
9.393939393939394,1.3164556962025316,0.011487096629478204,0.010273972660451753,-2.8735747967877225e-05,-0.006528320786978987,0.010931251699283431
9.494949494949495,1.3164556962025316,0.011632015567541986,0.010462693078711088,-1.5497821488237834e-05,-0.006628412593875923,0.0110937029165324
9.595959595959595,1.3164556962025316,0.011827666597682909,0.010642892630997982,1.765907611822422e-05,-0.006741167768604267,0.011282074745162025
9.696969696969697,1.3164556962025316,0.012031709274129953,0.010864208946355116,9.55666152716728e-05,-0.00686877546614552,0.011493713911750381
9.797979797979798,1.3164556962025316,0.012102397738821874,0.010869791673653963,-3.235698150129961e-05,-0.006891656823742751,0.011535727146883237
9.8989898989899,1.3164556962025316,0.012103343288792187,0.010905248461655569,5.323034667322987e-05,-0.006902577525134326,0.011551359115066185
10.0,1.3164556962025316,0.012256832083266406,0.010947144387000337,-5.247155214326981e-05,-0.006961192941080023,0.011657652087613492
0.0,1.4177215189873418,0.012390935210974263,0.0111173682304522,8.216903704883158e-05,-0.007052491032427938,0.01180664294225507
0.10101010101010101,1.4177215189873418,0.01213842819368211,0.010957804534980846,-2.2795469048194908e-05,-0.006928869818598887,0.011593358212010086
0.20202020202020202,1.4177215189873418,0.012105928165982511,0.010858642741846421,-3.5757760942418245e-05,-0.00688937127234868,0.011533148130260244
0.30303030303030304,1.4177215189873418,0.011960171031687906,0.010858793988567586,8.841009080607504e-05,-0.006845689506076647,0.011450306272092215
0.40404040404040403,1.4177215189873418,0.011763976952952303,0.010617318097009203,-3.800191822190686e-06,-0.006714388514988452,0.011234623057836256
0.5050505050505051,1.4177215189873418,0.011639090709403195,0.010418853727629993,-1.5237310127635263e-06,-0.006617383331109957,0.011079484143264281
0.6060606060606061,1.4177215189873418,0.011654444991063198,0.010281991528621626,1.4630813740244301e-05,-0.006580930955905448,0.01103246007731723
0.7070707070707071,1.4177215189873418,0.01133680885488733,0.010559158751765392,-1.2217479913581655e-05,-0.006568790281995817,0.010968698734148312
0.8080808080808081,1.4177215189873418,0.011447803131976648,0.010452444703248328,-5.383604920193794e-06,-0.006570074350567493,0.010984004486611668
0.9090909090909091,1.4177215189873418,0.011231560863061762,0.010329124153079646,-4.032924108742523e-06,-0.006468205504842423,0.01080863670387664
1.0101010101010102,1.4177215189873418,0.011179451237845339,0.010045361689060249,-3.3354506057619345e-05,-0.0063674438780716765,0.010657913859815878
1.1111111111111112,1.4177215189873418,0.011029945914531682,0.009804815876800677,5.734565897098911e-06,-0.006250428537399708,0.010471276478450078
1.2121212121212122,1.4177215189873418,0.01111391679906196,0.010078819173862882,-5.569035735617315e-05,-0.006357820791877453,0.010634655098897312
1.3131313131313131,1.4177215189873418,0.010872520141835144,0.009764191465832546,-1.1121714962266034e-05,-0.006191013482300307,0.010362921012565906
1.4141414141414141,1.4177215189873418,0.01072214226742054,0.009792236524983837,-2.2565833919139233e-05,-0.006154313637721313,0.010288829159700658
1.5151515151515151,1.4177215189873418,0.010767127137654738,0.00982365932670504,-4.4188944976888485e-05,-0.006177235939307934,0.010328048142147364
1.6161616161616161,1.4177215189873418,0.010596087848834333,0.00967865628342667,2.6668654641399516e-05,-0.0060824232396783015,0.010168564626656456
1.7171717171717171,1.4177215189873418,0.010760348140735163,0.0096758201115022,2.3226049949812886e-05,-0.006130850475671208,0.01026123834345891
1.8181818181818181,1.4177215189873418,0.0106779275871792,0.009821672671475492,-2.024757474472254e-05,-0.0061498800775964075,0.01027664886743281
1.9191919191919191,1.4177215189873418,0.010644663601577928,0.00943835486660465,2.0419636650429226e-05,-0.006024905540454773,0.010095768626314594
2.0202020202020203,1.4177215189873418,0.010585336148048947,0.009522450180738079,-2.0940185102549295e-05,-0.006032335898636108,0.010096008031381748
2.121212121212121,1.4177215189873418,0.010617744014052232,0.009620202044037877,4.4297502226383277e-05,-0.006071383817427033,0.010156073033171177
2.2222222222222223,1.4177215189873418,0.010446177554789812,0.00929920438622201,9.726503144106295e-07,-0.005923614582303547,0.009922534475844147
2.323232323232323,1.4177215189873418,0.010416276564994944,0.009374844459570009,7.890371840381481e-06,-0.005937336307369485,0.009936585945323722
2.4242424242424243,1.4177215189873418,0.01035350397848762,0.009290960851832205,2.811114331912864e-05,-0.005893339449095948,0.009865362068801948
2.525252525252525,1.4177215189873418,0.010299895315170985,0.009329244962851481,0.00010283354898897934,-0.00588874208340674,0.0098521131139369
2.6262626262626263,1.4177215189873418,0.010265576612155861,0.009329996357515255,-5.403973529881796e-05,-0.005878671890901335,0.009831676545282338
2.727272727272727,1.4177215189873418,0.010159181062783611,0.009312381639409034,1.96575843444063e-05,-0.005841468810657793,0.00976342151736738
2.8282828282828283,1.4177215189873418,0.010228709427688614,0.00917328220807108,6.259414401399857e-05,-0.005820597490727908,0.00974456355621169
2.929292929292929,1.4177215189873418,0.010150631080470134,0.00934992637281096,-7.894657465382199e-05,-0.005850167235984328,0.009775862056810058
3.0303030303030303,1.4177215189873418,0.010251156809305113,0.009321623338693005,-2.5054532998088205e-05,-0.005871834044399436,0.009819538595274206
3.131313131313131,1.4177215189873418,0.010173292768057377,0.009115173241309088,7.549680229163781e-05,-0.005786539802809939,0.009688552123498883
3.2323232323232323,1.4177215189873418,0.010102792104142076,0.009021054240437547,0.00010330177497466138,-0.005737153903373886,0.009609370745644098
3.3333333333333335,1.4177215189873418,0.01010360504390307,0.009111713561863681,-4.734125457242568e-05,-0.005764595581730025,0.009646332328794279
3.4343434343434343,1.4177215189873418,0.010087021671293658,0.009207497158851555,-5.462240739070103e-05,-0.005788355649043564,0.009677744446401982
3.5353535353535355,1.4177215189873418,0.010063419654499145,0.009120618379527,3.2191052234681726e-05,-0.005755211410207843,0.009626868301651331
3.6363636363636362,1.4177215189873418,0.009759516749133588,0.009144098646794325,-5.37852659756639e-05,-0.005671084618778374,0.009467280597104643
3.7373737373737375,1.4177215189873418,0.010005267989928752,0.008820684370688494,-2.2905866242685985e-05,-0.0056477857081851735,0.009468797356074938
3.8383838383838382,1.4177215189873418,0.009982686057141175,0.008990236853670883,-3.290584824195608e-05,-0.005691876873243617,0.009525487698567009
3.9393939393939394,1.4177215189873418,0.009884988712387494,0.009206335568585088,-2.4063503158038285e-05,-0.0057273972842917745,0.009563829276187477
4.040404040404041,1.4177215189873418,0.009970259995982205,0.008933562760178725,2.4195333266758067e-05,-0.005671146826848278,0.009494547951881887
4.141414141414141,1.4177215189873418,0.009959947679358315,0.009087776370388828,3.332924091638323e-05,-0.005714317214924143,0.009553941201298616
4.242424242424242,1.4177215189873418,0.010053087217822661,0.008909268673671858,3.318008430740381e-05,-0.005688706767448355,0.009532957496987262
4.343434343434343,1.4177215189873418,0.009958260485508203,0.008825246929809271,3.282275936964421e-05,-0.0056350522245952415,0.009443042914970137
4.444444444444445,1.4177215189873418,0.01002923221151719,0.0089439791213484,7.007677375100443e-05,-0.005691963399859677,0.0095338213763078
4.545454545454545,1.4177215189873418,0.009867033253633466,0.008931131954448425,4.519327884523908e-06,-0.005639449562424567,0.009433967802675651
4.646464646464646,1.4177215189873418,0.009928928991213429,0.008908205537770815,3.5351051014227254e-06,-0.005651140358695273,0.009459960575127822
4.747474747474747,1.4177215189873418,0.010059404264079896,0.008904759303793487,-8.90092294001049e-06,-0.005689249070362014,0.009534674424162982
4.848484848484849,1.4177215189873418,0.009775911634130368,0.008895848966645166,5.927254864466945e-05,-0.005601528180232661,0.009367501449813753
4.94949494949495,1.4177215189873418,0.009897348846549189,0.008934134480459892,1.420756227997774e-05,-0.005649444998102725,0.00945265217146033
5.05050505050505,1.4177215189873418,0.009825296854407013,0.008840371746208431,-6.283060333255366e-05,-0.005599700580184633,0.009372363481679299
5.151515151515151,1.4177215189873418,0.009924763572709992,0.008868575467454934,2.207381889610538e-05,-0.005638001712049478,0.00944116040618686
5.252525252525253,1.4177215189873418,0.010110753491145454,0.008876619729985087,-7.586369663172253e-06,-0.005696211966339162,0.009553668024584442
5.353535353535354,1.4177215189873418,0.010081552120082299,0.008941656606479687,-4.706156996968918e-05,-0.005706962617968595,0.009563042574104676
5.454545454545454,1.4177215189873418,0.00989165185432237,0.009120761081135116,1.407013166187398e-05,-0.005703723880637245,0.009529651607012801
5.555555555555555,1.4177215189873418,0.009920216457806292,0.009073408752286682,-2.3874125363499804e-06,-0.005698087563027892,0.009525086835414217
5.656565656565657,1.4177215189873418,0.009886236742503355,0.008934774609361925,2.5730862096525087e-05,-0.005646303405559583,0.009446616508128964
5.757575757575758,1.4177215189873418,0.010023041730254074,0.008908207170547864,-3.886398870791299e-05,-0.005679374670240581,0.00951497343856093
5.858585858585858,1.4177215189873418,0.00995060541260631,0.008819534214579941,5.407872942745302e-05,-0.005631041888155876,0.009436514212048852
5.959595959595959,1.4177215189873418,0.010041141341533178,0.008954289605093042,4.167642695767627e-05,-0.005698629283987866,0.009544513869676934
6.0606060606060606,1.4177215189873418,0.010029037426374454,0.008755866439812741,4.266811558088697e-05,-0.005635471159856159,0.009457237349802647
6.161616161616162,1.4177215189873418,0.00998068333224674,0.008920783764381528,2.665000631984839e-06,-0.005670440128988479,0.009495205433711585
6.262626262626262,1.4177215189873418,0.009971639953931717,0.009074485096965927,-4.774336908202596e-05,-0.005713837515269293,0.009555062704112128
6.363636363636363,1.4177215189873418,0.00997999560226199,0.00919188664796556,6.70002960167212e-05,-0.005751564675068264,0.009610908966691352
6.4646464646464645,1.4177215189873418,0.010087356431816484,0.008860245792479274,3.354000090352304e-05,-0.005684280667288727,0.009533395654141137
6.565656565656566,1.4177215189873418,0.009896793833192368,0.009158713975919917,-4.613153237608334e-06,-0.005716652342733685,0.00954917429499099
6.666666666666667,1.4177215189873418,0.010034791536554705,0.009025730622269641,-1.910603546222384e-06,-0.005718156647647303,0.009570242428461755
6.767676767676767,1.4177215189873418,0.010245818682586375,0.00923727551381433,-0.00013530177760476787,-0.005844928258920211,0.009783431354692602
6.8686868686868685,1.4177215189873418,0.010221871141467663,0.009151194374373143,5.763664921973958e-05,-0.005811919654752242,0.00973132284815183
6.96969696969697,1.4177215189873418,0.010184058873910686,0.009156375591241831,-3.3709796119954634e-05,-0.005802130339545755,0.009711262022692312
7.070707070707071,1.4177215189873418,0.01017334322593992,0.009358803398411275,9.397307502129728e-05,-0.0058596439873053584,0.009792869196678168
7.171717171717171,1.4177215189873418,0.010440823655962193,0.00921534933065201,-5.5325681416601486e-05,-0.005896851895984261,0.009885686997093017
7.2727272727272725,1.4177215189873418,0.01040476653415624,0.009088150593154135,4.050827031290164e-05,-0.005847875138193113,0.009813179171146035
7.373737373737374,1.4177215189873418,0.010184824188149486,0.009286087125465624,-5.525783242115114e-05,-0.0058412733940845325,0.009766987936957796
7.474747474747475,1.4177215189873418,0.01020326933433712,0.00938687821855824,5.425266223826425e-05,-0.005877044265868608,0.00982100662766169
7.575757575757575,1.4177215189873418,0.010341381150976374,0.009374400263219281,5.785528860245575e-05,-0.005914734424258696,0.009893904180065076
7.6767676767676765,1.4177215189873418,0.010516691645818583,0.009422362794034493,1.2809147074556576e-05,-0.005981716331955923,0.01001449609009299
7.777777777777778,1.4177215189873418,0.010203288519561943,0.009448442828957364,-3.2952857767501935e-06,-0.005895519404555793,0.009847589189125804
7.878787878787879,1.4177215189873418,0.010603160403641843,0.009530661537029075,1.4360289693946735e-05,-0.006040146582201276,0.0101096985861392
7.979797979797979,1.4177215189873418,0.01064375375143485,0.009448355312991494,8.212997306942334e-05,-0.006027632719327903,0.010100256468605368
8.080808080808081,1.4177215189873418,0.010403368177148013,0.009587698906402221,2.0100027752031735e-05,-0.00599732012506507,0.010020523443789129
8.181818181818182,1.4177215189873418,0.010565008902547187,0.009466425537625724,-1.6522647673867092e-05,-0.0060094303320518735,0.01006084362683649
8.282828282828282,1.4177215189873418,0.010720051393239114,0.00963108811308249,-2.4521040811521434e-05,-0.0061053418518964815,0.010219266334474092
8.383838383838384,1.4177215189873418,0.01082023351091472,0.009628838795214326,-4.004419288636524e-05,-0.006134721691838713,0.010276697727573988
8.484848484848484,1.4177215189873418,0.010836787254112398,0.00974644671237658,1.441894903191312e-05,-0.006174970189946693,0.01033487473174177
8.585858585858587,1.4177215189873418,0.010937435652350148,0.00969650751933976,2.386065346238971e-05,-0.006190182951506972,0.010372875091745566
8.686868686868687,1.4177215189873418,0.010738727533497219,0.009947377990200519,-5.771945010659677e-05,-0.006205831657109321,0.010366214864351802
8.787878787878787,1.4177215189873418,0.011159726760256589,0.00997111916910909,-3.069220053841852e-05,-0.006339253778809703,0.010615581918127207
8.88888888888889,1.4177215189873418,0.011170796160719013,0.010002796301012605,1.303548599326828e-05,-0.0063520777385194845,0.010635033237360633
8.98989898989899,1.4177215189873418,0.011241606250795016,0.010059966881859108,-2.1354896009446024e-05,-0.006390471939796237,0.010699898423577122
9.09090909090909,1.4177215189873418,0.011266135476018927,0.010322590309267188,-3.424599373163227e-05,-0.006476617735585835,0.010825409772087374
9.191919191919192,1.4177215189873418,0.011387830824873896,0.010146707376116332,5.970491585050921e-05,-0.006460361460297069,0.010821278504626842
9.292929292929292,1.4177215189873418,0.011379907204460684,0.010467237346039606,2.1572324733807135e-05,-0.0065541433651500865,0.01095219393779391
9.393939393939394,1.4177215189873418,0.011558984475267736,0.010559085948283338,6.885516818399708e-06,-0.006635421127065322,0.011092891861210761
9.494949494949495,1.4177215189873418,0.011796497065634766,0.010545567168460118,-2.142534981820483e-05,-0.006702619270228465,0.011223500118175434
9.595959595959595,1.4177215189873418,0.011805022935371945,0.010526273479488113,-3.1872528068608625e-05,-0.006699388924458017,0.01122056806023716
9.696969696969697,1.4177215189873418,0.011926989448275811,0.01068559016762944,3.4809388535043363e-05,-0.006783773884771575,0.011357448147911394
9.797979797979798,1.4177215189873418,0.012025130318293806,0.010858171609536034,0.00011046843189152976,-0.0068649905783489526,0.011487790521869214
9.8989898989899,1.4177215189873418,0.011827912961022613,0.010856016284535535,-3.52327679972108e-05,-0.006805178773667445,0.0113733162670577
10.0,1.4177215189873418,0.01230644614484186,0.011195735409296609,1.6619026762321818e-05,-0.00705065446624154,0.011790429244968767
0.0,1.5189873417721518,0.012295675591610206,0.011100871171317098,1.2157424035935853e-05,-0.007018964028878191,0.011743964906214705
0.10101010101010101,1.5189873417721518,0.012166573859944053,0.010826532580324514,-4.581910386518595e-05,-0.00689793193208057,0.011555250628503488
0.20202020202020202,1.5189873417721518,0.012130740508510759,0.010895694965584861,6.324400227204663e-05,-0.0069079306422286865,0.011563312033840836
0.30303030303030304,1.5189873417721518,0.012036631589631516,0.010693345970474784,5.933406573416958e-05,-0.00681899326803189,0.011424834517654013
0.40404040404040403,1.5189873417721518,0.011789199416950471,0.010677663358435745,-1.585694186165296e-05,-0.006740058832615865,0.011274633891034254
0.5050505050505051,1.5189873417721518,0.011613627864753442,0.01062467275975814,5.714980203166504e-06,-0.006671490187353475,0.011152090647018003
0.6060606060606061,1.5189873417721518,0.011620364775567235,0.010450925256080275,2.0735665284284223e-05,-0.006621387009494253,0.01108207753135771
0.7070707070707071,1.5189873417721518,0.011609879780613326,0.010242768375549043,-4.498788478698938e-06,-0.006555794446848711,0.010990284972280865
0.8080808080808081,1.5189873417721518,0.011429595385516085,0.010280103846731692,3.699202465499502e-05,-0.006512909769674333,0.010900590053599477
0.9090909090909091,1.5189873417721518,0.011323884902030157,0.010194643670178569,-5.834793787907242e-05,-0.0064555585716626175,0.010804090463504567
1.0101010101010102,1.5189873417721518,0.011222811532625734,0.009973950500584645,0.00010242260196436027,-0.006359028609963114,0.010654899893914055
1.1111111111111112,1.5189873417721518,0.01120697993446916,0.01008092058714239,-4.680827160881289e-05,-0.006386370156483465,0.010688837983506758
1.2121212121212122,1.5189873417721518,0.011022945814441572,0.010016008523406917,3.1770267566889586e-05,-0.006311686301354547,0.010555703197242684
1.3131313131313131,1.5189873417721518,0.010962519652815425,0.009827547917228195,5.735648222066333e-06,-0.0062370202710130855,0.01044140539942602
1.4141414141414141,1.5189873417721518,0.010818111229448459,0.009717203074545563,5.300952206735471e-05,-0.006160594291198207,0.010312236056908007
1.5151515151515151,1.5189873417721518,0.010765840823332505,0.009820329284932816,-5.6281236549978775e-05,-0.006175851032479596,0.010326063950814325
1.6161616161616161,1.5189873417721518,0.010628050330548755,0.009727553264191242,-5.199342609952893e-05,-0.006106681078421999,0.010208032650834808
1.7171717171717171,1.5189873417721518,0.010647468799326543,0.009772891429415424,-1.2899127653940649e-05,-0.00612610806862259,0.010238258705089936
1.8181818181818181,1.5189873417721518,0.010612121130900093,0.009695327469294537,2.522484699351792e-05,-0.006092234580058389,0.01018481266418653
1.9191919191919191,1.5189873417721518,0.01044442908360885,0.009732171175778785,4.5280532955930954e-05,-0.00605298007781629,0.01010744448326205
2.0202020202020203,1.5189873417721518,0.010628948849931583,0.009392509587322724,5.3974284391458796e-05,-0.006006437531176292,0.010068268257073442
2.121212121212121,1.5189873417721518,0.010489429232157942,0.009399165421283974,-2.519366870684426e-05,-0.005966578396032574,0.009989117071495078
2.2222222222222223,1.5189873417721518,0.010524391739745976,0.009449665803180197,5.649968927259426e-05,-0.005992217262877852,0.010030782482226427
2.323232323232323,1.5189873417721518,0.010300017499728531,0.009544112515039834,-5.8960578437947387e-05,-0.00595323900443051,0.009944161468901981
2.4242424242424243,1.5189873417721518,0.01038471855913686,0.009189286437499162,2.1636121228019018e-05,-0.005872201498990807,0.009841677485845121
2.525252525252525,1.5189873417721518,0.010350785469194572,0.009261979647722565,-2.3252320531800148e-05,-0.005883829535075141,0.00985169449798989
2.6262626262626263,1.5189873417721518,0.01046563839206948,0.009295928619388775,-4.9909756432763316e-05,-0.005928470103437476,0.009932951291166128
2.727272727272727,1.5189873417721518,0.01039612767275817,0.009357258608358511,1.876346883162516e-06,-0.005926015884335005,0.009917586130430632
2.8282828282828283,1.5189873417721518,0.010341578059812605,0.009004841702068219,4.8472929395377606e-05,-0.005803925928564248,0.009742596488768409
2.929292929292929,1.5189873417721518,0.010274755596346405,0.009328256808811693,-5.4986061765635566e-05,-0.005880903721547429,0.009836182654173548
3.0303030303030303,1.5189873417721518,0.009974053314613866,0.009142131361496149,6.689784980467218e-05,-0.0057348554028330044,0.00958590766238496
3.131313131313131,1.5189873417721518,0.010082181759125258,0.009096343439070873,-1.6077448099228227e-05,-0.005753557559458839,0.00962723431430018
3.2323232323232323,1.5189873417721518,0.010094046219801431,0.009040549361400071,2.701199520379549e-05,-0.00574037867436045,0.009610815141323073
3.3333333333333335,1.5189873417721518,0.010119114986999987,0.00911372312528411,-6.844384206989937e-05,-0.005769851433685229,0.009656483766805968
3.4343434343434343,1.5189873417721518,0.010191788557390415,0.009071584405842879,-2.2871485453729883e-05,-0.005779011888969988,0.009680500854839883
3.5353535353535355,1.5189873417721518,0.0098813238333307,0.009011419104946081,4.9605790542784674e-05,-0.005667822881483034,0.009476754023064405
3.6363636363636362,1.5189873417721518,0.00984984778260279,0.009012993718682534,6.412486922509965e-05,-0.005658852450385597,0.00945987721460682
3.7373737373737375,1.5189873417721518,0.00997518980627117,0.008951544443649881,-7.664026794557801e-05,-0.005678020274976315,0.009505725953608593
3.8383838383838382,1.5189873417721518,0.009940809611787447,0.00892581136084227,7.144011237897174e-05,-0.005659986291788915,0.009474984110132024
3.9393939393939394,1.5189873417721518,0.010020735206982136,0.009052827431872183,-3.576384348802571e-05,-0.0057220687916562955,0.009573748962027189
4.040404040404041,1.5189873417721518,0.009902028088247422,0.009097721240459938,5.728161403325899e-05,-0.005699924798612208,0.00952589336059333
4.141414141414141,1.5189873417721518,0.01007174968612505,0.008907117009961328,-4.712128385627774e-05,-0.005693660008825914,0.009543232338464895
4.242424242424242,1.5189873417721518,0.009911912979639908,0.008854128170486385,-4.140741934578236e-05,-0.005629812345037887,0.009427905406931378
4.343434343434343,1.5189873417721518,0.00994640485622549,0.008922389424989019,7.952571662561313e-05,-0.005660638284364353,0.009476986764160358
4.444444444444445,1.5189873417721518,0.00987827885597874,0.009048081515998854,2.1553904218256363e-05,-0.005677908111593278,0.009490526521870869
4.545454545454545,1.5189873417721518,0.00992063000452757,0.009092226899139836,-0.0001056667388898503,-0.005703857071100222,0.009535217200867434
4.646464646464646,1.5189873417721518,0.009951572384220543,0.008766246925232979,-7.647334134685627e-05,-0.005615345792836056,0.009415969507912667
4.747474747474747,1.5189873417721518,0.009938815585692965,0.008853849781398438,3.162866719309221e-05,-0.005637799610127421,0.0094433538594612
4.848484848484849,1.5189873417721518,0.010023881003106708,0.008982964160828846,-5.134418554593565e-05,-0.005702053549180666,0.009546495710574981
4.94949494949495,1.5189873417721518,0.009742811998255274,0.009152306542694359,-8.565783419490623e-06,-0.00566853556228489,0.009461401524449579
5.05050505050505,1.5189873417721518,0.009989429998217435,0.009052882611740488,-2.242592895393286e-05,-0.005712693782987377,0.009555719067974245
5.151515151515151,1.5189873417721518,0.009968126608915615,0.008959708626120465,-1.132673810046158e-05,-0.005678350570510823,0.009504146551751757
5.252525252525253,1.5189873417721518,0.00991525738247531,0.008769854112532236,-6.668973916368062e-05,-0.005605533448502263,0.009395778410927013
5.353535353535354,1.5189873417721518,0.009913719674305366,0.008966652440463081,-0.00010310432078860929,-0.0056641116344305345,0.009477431432618786
5.454545454545454,1.5189873417721518,0.009873590349234471,0.009043894983353066,8.535570192854867e-06,-0.005675245599776261,0.00948600691519701
5.555555555555555,1.5189873417721518,0.01004202283326394,0.00910087005979849,-2.3227416157503433e-05,-0.0057428678679187295,0.009606171559193098
5.656565656565657,1.5189873417721518,0.010073697756701581,0.008880209695759892,-2.5056129854303778e-05,-0.0056861722357384415,0.009533249481250148
5.757575757575758,1.5189873417721518,0.009817498740312023,0.008851618460105704,-1.1484014912916748e-05,-0.0056007351601253174,0.009371983431766052
5.858585858585858,1.5189873417721518,0.00990976384778793,0.00907528403593712,-3.911602258356225e-06,-0.005695514365117515,0.009519996013970796
5.959595959595959,1.5189873417721518,0.009955439821308055,0.008967793440436885,-2.6341828563388087e-05,-0.0056769699785234815,0.00950030815161459
6.0606060606060606,1.5189873417721518,0.00993675836533853,0.008952677799328235,-1.8268197666110038e-05,-0.00566683084940003,0.009483143558767441
6.161616161616162,1.5189873417721518,0.009951281722926433,0.008975786885418268,5.142123168322773e-05,-0.005678120582503409,0.009501584425186893
6.262626262626262,1.5189873417721518,0.010037217576538787,0.00915180299500904,-4.033337005475381e-06,-0.005756706171464347,0.009625104968941001
6.363636363636363,1.5189873417721518,0.009954655377605884,0.00910182345988013,2.225306694110182e-05,-0.005716943651245803,0.009556899273706497
6.4646464646464645,1.5189873417721518,0.010047800177393143,0.009011708037201596,8.090343391821434e-05,-0.005717852464378422,0.009572928738616798
6.565656565656566,1.5189873417721518,0.010106603384919286,0.00914530202615069,-0.00013829311815813657,-0.005775571623320993,0.009664854663964887
6.666666666666667,1.5189873417721518,0.010213879725132751,0.009059937608706128,1.0152764039020838e-05,-0.005782145200151663,0.009688601792645173
6.767676767676767,1.5189873417721518,0.010063402513098351,0.0091510523169188,3.2887598417574214e-07,-0.005764336449005145,0.0096396631729808
6.8686868686868685,1.5189873417721518,0.010012500873727103,0.009366538594575322,3.6452206156638855e-05,-0.005813711840490727,0.009705860570710463
6.96969696969697,1.5189873417721518,0.010150380072481483,0.00914053282623352,0.00010766076218082035,-0.005787273869614502,0.009686818168581374
7.070707070707071,1.5189873417721518,0.010063436241566848,0.009293097533690267,-5.2604214137578525e-05,-0.005806960132577135,0.009701660571873364
7.171717171717171,1.5189873417721518,0.010190979782528222,0.009180615770006893,0.00010402578753320504,-0.005811478665760534,0.009726909541807917
7.2727272727272725,1.5189873417721518,0.010287901752298727,0.009305478829707954,-1.3554194911169887e-05,-0.005878014174602004,0.009833593336393468
7.373737373737374,1.5189873417721518,0.010262232248482588,0.009311330298039232,-1.4393184487272272e-05,-0.005872068763956546,0.009821398580214899
7.474747474747475,1.5189873417721518,0.010360576139580378,0.009311182533739543,4.2639495648507e-05,-0.005901527601995977,0.0098780512708776
7.575757575757575,1.5189873417721518,0.010289543363060726,0.00922240435073851,5.354495551014625e-05,-0.005853584314139771,0.00980008756782334
7.6767676767676765,1.5189873417721518,0.010533562413978551,0.009400118623606832,5.045768982725113e-05,-0.005980104311275614,0.01001544152705636
7.777777777777778,1.5189873417721518,0.010378377140359213,0.009477477864387537,3.7816075970942216e-05,-0.005956756501424025,0.009958752396172518
7.878787878787879,1.5189873417721518,0.010478967774629798,0.00951539667643607,1.2080766983880471e-05,-0.005998309335319759,0.010031971004307184
7.979797979797979,1.5189873417721518,0.010444397150693084,0.009616521252906197,4.896180849338574e-05,-0.006018275521079784,0.01005640778069596
8.080808080808081,1.5189873417721518,0.010714707671522737,0.009524359554525524,-4.5169119820187064e-05,-0.0060717201678144785,0.010172206140902293
8.181818181818182,1.5189873417721518,0.010731741738684396,0.00939242455836612,-0.00010403710258254049,-0.0060372498891151545,0.010130316694264748
8.282828282828282,1.5189873417721518,0.01074572739606738,0.00964242720939577,-1.945080663871544e-05,-0.006116446381638945,0.010238813433798663
8.383838383838384,1.5189873417721518,0.010672095287350155,0.009761727495927644,-2.700556118388908e-05,-0.00613014683498334,0.010247392030285069
8.484848484848484,1.5189873417721518,0.010781920844987882,0.009528554438845666,-1.7951846869474512e-07,-0.006093142585150064,0.010213082158267326
8.585858585858587,1.5189873417721518,0.010962510525115068,0.009991857470142598,-0.00010009804790699612,-0.0062863103985772995,0.0105122818118903
8.686868686868687,1.5189873417721518,0.01100596592650171,0.010009598598657257,-7.696600904248851e-05,-0.006304669357547689,0.010543994511873605
8.787878787878787,1.5189873417721518,0.011120498983430108,0.009926723592817278,-5.702437584861157e-05,-0.006314166772874216,0.010574732840326123
8.88888888888889,1.5189873417721518,0.010957234397105756,0.009812134976175817,-1.0719924088036386e-05,-0.0062308108119844725,0.010431944224550358
8.98989898989899,1.5189873417721518,0.01109917202340941,0.010142368787311935,9.321488341508332e-05,-0.006372462243216404,0.010654268410891022
9.09090909090909,1.5189873417721518,0.01120732988191068,0.01010429120585722,-1.0768440516149296e-06,-0.00639348632633037,0.010698543011390851
9.191919191919192,1.5189873417721518,0.011292243774788357,0.010148574064249955,-2.149501265211352e-06,-0.006432245351711494,0.010766065510105128
9.292929292929292,1.5189873417721518,0.011375966319248547,0.010195040796310326,-4.586675830473255e-05,-0.0064713021346676615,0.010834174499770172
9.393939393939394,1.5189873417721518,0.011639492624877701,0.010509834311613855,-5.3903621829068104e-05,-0.006644798080947466,0.011118182570221676
9.494949494949495,1.5189873417721518,0.011755140168182375,0.010361324429445729,4.267705637825811e-05,-0.006634939379288431,0.011124163218108593
9.595959595959595,1.5189873417721518,0.011856836752519069,0.010813863627837792,-9.49477250313587e-05,-0.006801210114107057,0.01137246911842585
9.696969696969697,1.5189873417721518,0.011669483264115911,0.010752413316029392,5.907296200728908e-06,-0.006726568974043591,0.01123904930224931
9.797979797979798,1.5189873417721518,0.011954819673199779,0.011083317561112355,5.873606686349972e-05,-0.006911441170293639,0.011544216237230278
9.8989898989899,1.5189873417721518,0.012101239867333887,0.011044304019088425,1.182166594417762e-05,-0.0069436631659266935,0.011608932110466156
10.0,1.5189873417721518,0.012431555568594549,0.011100627950180625,1.5145194256130372e-05,-0.007059655055632552,0.011822441781000588
0.0,1.620253164556962,0.01234923397574624,0.011194191190054513,5.087924450969241e-05,-0.007063027549740226,0.01181446469818098
0.10101010101010101,1.620253164556962,0.012257612129101725,0.01103998831975928,-1.192304516737584e-05,-0.0069892801346583015,0.011696449416447648
0.20202020202020202,1.620253164556962,0.01211557368001827,0.010889374074242649,-0.00010838588323142689,-0.0069014843262782755,0.011552914000286829
0.30303030303030304,1.620253164556962,0.012135324339387514,0.010717203206417416,-8.747109209234131e-05,-0.006855758263741479,0.011493074351305269
0.40404040404040403,1.620253164556962,0.011736404303748935,0.010599089320025247,3.6582592881531416e-05,-0.0067006480871322546,0.01121127547346295
0.5050505050505051,1.620253164556962,0.01168869765180715,0.01066455439486251,7.712279688376473e-05,-0.006705975614000897,0.01121255836555341
0.6060606060606061,1.620253164556962,0.011418140731332259,0.010540176764303808,8.035980660091175e-05,-0.006587495248690819,0.011006335241618362
0.7070707070707071,1.620253164556962,0.011506262713933848,0.010289557325675117,-5.1268532771859376e-05,-0.006538746011882688,0.01094909161476312
0.8080808080808081,1.620253164556962,0.011379844886507432,0.010264024112704488,-5.665467962404626e-05,-0.006493160699763576,0.010865435452450549
0.9090909090909091,1.620253164556962,0.01115807255571199,0.010177409566410767,-3.967855985875627e-05,-0.006400644636636828,0.010701714695978921
1.0101010101010102,1.620253164556962,0.01114076132421311,0.010078688890703534,8.123568669814006e-05,-0.006365835064474993,0.010650448955641597
1.1111111111111112,1.620253164556962,0.0111671806784531,0.009961867543622466,4.4163338034142985e-05,-0.006338714466622669,0.01061624254191303
1.2121212121212122,1.620253164556962,0.011072188159061398,0.01009411173296032,4.0986128294724105e-05,-0.006349889967606516,0.010617230217404086
1.3131313131313131,1.620253164556962,0.010994267205680116,0.009888807612069927,-2.0719518214573544e-05,-0.006264922445325013,0.010485395654960773
1.4141414141414141,1.620253164556962,0.01085748012158203,0.00981319838260697,-4.655400973435876e-05,-0.0062012035512567,0.010375144940969255
1.5151515151515151,1.620253164556962,0.010884626576792872,0.009795736525081991,-7.894152735264377e-06,-0.0062041089305624585,0.010383101782118155
1.6161616161616161,1.620253164556962,0.010814257629937077,0.00958017868448906,-5.6091869220466385e-05,-0.006118330894327841,0.010253531595107727
1.7171717171717171,1.620253164556962,0.010574688697042277,0.009554624510510246,7.53250566039448e-05,-0.006038793962265756,0.01010419380024345
1.8181818181818181,1.620253164556962,0.010621800402867376,0.009636131286184286,-1.3275818931148412e-06,-0.0060773795067154985,0.010164871473495325
1.9191919191919191,1.620253164556962,0.01046797375635419,0.009745754682542181,3.097489828515715e-05,-0.0060641185316689114,0.010126341045820384
2.0202020202020203,1.620253164556962,0.010559358732891206,0.009573784260489087,1.8018501374006757e-05,-0.006039942898014088,0.010102739899534077
2.121212121212121,1.620253164556962,0.010457273158349998,0.009402432487719133,7.585911972299478e-05,-0.005957911693820739,0.009972650476958255
2.2222222222222223,1.620253164556962,0.010478769139468469,0.00960807029901779,7.924197570671434e-06,-0.006026051831545877,0.010071695755366856
2.323232323232323,1.620253164556962,0.010461027486209909,0.009344022081991168,5.236961225880469e-05,-0.005941514870460322,0.009950075408426825
2.4242424242424243,1.620253164556962,0.010535228795669782,0.009284921492300707,-0.00012379429605469713,-0.0059460450863911465,0.009971359772231908
2.525252525252525,1.620253164556962,0.010337676110193088,0.009302052405957436,-1.2162125502853266e-05,-0.005891918554845157,0.009860758852212914
2.6262626262626263,1.620253164556962,0.010120506638890045,0.009220062733549035,9.77917386235738e-05,-0.005802170811731724,0.009703153868972733
2.727272727272727,1.620253164556962,0.010300389626641477,0.009142131777675075,2.285387540901579e-05,-0.005832756421294965,0.009772954899707132
2.8282828282828283,1.620253164556962,0.010150849060788057,0.009202783905701022,-3.1040443369804975e-05,-0.0058060898899467235,0.009711734573776441
2.929292929292929,1.620253164556962,0.010196415337591185,0.009293141194820418,9.440472304609264e-05,-0.00584686695972348,0.009777492947860705
3.0303030303030303,1.620253164556962,0.01016883718140623,0.009172314732558935,3.807722640647719e-05,-0.00580234557418955,0.009709231777466971
3.131313131313131,1.620253164556962,0.010144969838816732,0.009078676878726568,2.7405467284052577e-05,-0.00576709401526299,0.00965619681689913
3.2323232323232323,1.620253164556962,0.009933110652895637,0.009203875490860604,-3.673039986344223e-05,-0.005741095843126872,0.009589522666669242
3.3333333333333335,1.620253164556962,0.010062053430392006,0.009165865054694824,-6.702703093411459e-06,-0.005768375545526048,0.00964524298810161
3.4343434343434343,1.620253164556962,0.010036414308467669,0.009137169093510198,1.082712714709977e-06,-0.00575207502059336,0.009618370969265985
3.5353535353535355,1.620253164556962,0.009864776112049214,0.008933137384490116,-6.463358599749187e-05,-0.005639374048961799,0.009434186954697077
3.6363636363636362,1.620253164556962,0.010200222720876262,0.00894152052874468,-7.545169735745388e-06,-0.005742522974886282,0.009632756762927156
3.7373737373737375,1.620253164556962,0.010068819602758992,0.00904505261813822,5.817115359920843e-05,-0.005734161666269164,0.009598502674773256
3.8383838383838382,1.620253164556962,0.00988750999023787,0.009157263622004867,4.341554249883561e-05,-0.0057134320836728205,0.009543660200998557
3.9393939393939394,1.620253164556962,0.009913251862826688,0.008914414997726572,-1.5693524752328684e-05,-0.005648300058165978,0.00945353135211724
4.040404040404041,1.620253164556962,0.010004214773471489,0.008917808152634321,1.4412184529634855e-05,-0.005676606877831743,0.00950771110975488
4.141414141414141,1.620253164556962,0.009889651928390574,0.008816327517458953,-9.710692483220475e-06,-0.005611793833754858,0.009399080732609337
4.242424242424242,1.620253164556962,0.009771176700953118,0.009053935008132194,2.6336277424432144e-05,-0.005647533512725593,0.00943313920430794
4.343434343434343,1.620253164556962,0.009914420730144329,0.00891535006586207,-1.713608532079471e-05,-0.0056489312388019195,0.00945460494351648
4.444444444444445,1.620253164556962,0.010107464956544614,0.009157465229617011,0.0001433440673517736,-0.005779479055848488,0.009670723910092103
4.545454545454545,1.620253164556962,0.010051461973987309,0.008962118629716404,-1.705992397625754e-05,-0.005704074181111114,0.009553530062635655
4.646464646464646,1.620253164556962,0.009996841554974888,0.008889727760650506,3.5871835662450035e-05,-0.005665970794687618,0.009492036726090431
4.747474747474747,1.620253164556962,0.01002248526820226,0.009002256830985841,-0.00011341110588581057,-0.0057074226297564295,0.009555335617865472
4.848484848484849,1.620253164556962,0.009956469126369116,0.008986770064998494,6.2909709231850454e-06,-0.005682971757410283,0.00950878192496306
4.94949494949495,1.620253164556962,0.009769705419820422,0.008910433007726934,-1.9461915703984253e-05,-0.005604041528264207,0.009369727371978876
5.05050505050505,1.620253164556962,0.009855531300483588,0.009069137974352976,8.536080579049776e-05,-0.0056774007824509694,0.009487963271404377
5.151515151515151,1.620253164556962,0.009784963780174245,0.00885738480536321,-3.645748210700866e-05,-0.005592704575661236,0.009355938205549507
5.252525252525253,1.620253164556962,0.009929361464866398,0.00893991162984984,-4.445811072948364e-05,-0.005660781928414872,0.009473782485553759
5.353535353535354,1.620253164556962,0.00994900935815737,0.008798040082757714,-6.0316042057917434e-05,-0.005624114832274525,0.009426952183208671
5.454545454545454,1.620253164556962,0.010053889549351835,0.008916288242361904,-6.439750924456446e-05,-0.005691053337514122,0.009536768584281936
5.555555555555555,1.620253164556962,0.009950588766002388,0.008745678689908509,1.0096229187323079e-05,-0.005608880236773269,0.009406208918362064
5.656565656565657,1.620253164556962,0.010111649569070666,0.008902076098046536,-1.0628171934519238e-05,-0.005704117700135161,0.00956441743111246
5.757575757575758,1.620253164556962,0.009915769950508802,0.009002105740001726,-5.129889529571716e-05,-0.005675362707153158,0.0094923909847598
5.858585858585858,1.620253164556962,0.009865293167950635,0.008943818901756752,1.9971735835003012e-05,-0.005642733620912216,0.009438416548385802
5.959595959595959,1.620253164556962,0.00985741270165295,0.008906345025053495,4.200527019242217e-05,-0.005629127318011933,0.009418245145934034
6.0606060606060606,1.620253164556962,0.009814242967887412,0.008893684424416109,5.575714292621871e-05,-0.0056123782176910565,0.009388372299278266
6.161616161616162,1.620253164556962,0.010092367766800244,0.00902140008088564,5.920127865823491e-06,-0.005734130354305765,0.00960178964129888
6.262626262626262,1.620253164556962,0.010194267506962168,0.009072090882922868,-6.77822133768265e-05,-0.005779907516965511,0.0096827880782799
6.363636363636363,1.620253164556962,0.010080791401711179,0.009085382932911624,-3.286687440474257e-05,-0.005749852300386841,0.009621950367020517
6.4646464646464645,1.620253164556962,0.010044760059735631,0.009044904848136005,-5.9114043766978245e-05,-0.005726899472361492,0.009584575776597527
6.565656565656566,1.620253164556962,0.010171176420183298,0.009143410927641975,-8.044198130185377e-06,-0.005794376204347582,0.009698233945533987
6.666666666666667,1.620253164556962,0.010121649478469615,0.009074269746194664,-2.9411390159408565e-05,-0.005758775767399284,0.009640859766496842
6.767676767676767,1.620253164556962,0.009898051656067778,0.009137622168716409,-6.989721348147204e-05,-0.0057107021474352565,0.009541360809977579
6.8686868686868685,1.620253164556962,0.010198450168150394,0.009260911198866113,-6.825252506439319e-05,-0.0058378084101049525,0.009764215069003837
6.96969696969697,1.620253164556962,0.010136107601522367,0.009394866406285004,0.00012471303307677925,-0.005859292202342212,0.009788946589261131
7.070707070707071,1.620253164556962,0.010403643866331918,0.009216483240971093,3.9917111481910926e-05,-0.005886038132190903,0.00986403263462029
7.171717171717171,1.620253164556962,0.010169960239206157,0.009323725472550977,4.902094524557984e-05,-0.00584810571352714,0.009774724537122841
7.2727272727272725,1.620253164556962,0.010296770805303715,0.009251451794392664,-1.4276178350122987e-05,-0.005864466779908914,0.009815975855998933
7.373737373737374,1.620253164556962,0.01037012743582712,0.009095440534253292,2.0793571486894126e-05,-0.0058396703910241245,0.009795254016108187
7.474747474747475,1.620253164556962,0.01034389949371863,0.009351591574857702,4.743581411312357e-05,-0.0059086473205729,0.009885512067255284
7.575757575757575,1.620253164556962,0.010338565724205839,0.009243233271062119,-4.460994777068199e-05,-0.005874539698580387,0.009837047219682945
7.6767676767676765,1.620253164556962,0.010388923002594013,0.009303641601615295,-4.728469961791799e-06,-0.005907769381262793,0.009891042363548272
7.777777777777778,1.620253164556962,0.010483570234220837,0.009390472339543788,-2.9900738277828046e-06,-0.005962212772129387,0.009982012128478268
7.878787878787879,1.620253164556962,0.010376479342655108,0.009441174659087786,-1.73735737755481e-05,-0.005945296200522868,0.00994192406904838
7.979797979797979,1.620253164556962,0.01077626416442813,0.00963342298472015,-9.657773406135706e-05,-0.006122906144744484,0.010254090824115204
8.080808080808081,1.620253164556962,0.010669611155319026,0.009524904080343542,2.1175403130719758e-05,-0.0060583545706987705,0.010145872180821584
8.181818181818182,1.620253164556962,0.01062207159348571,0.009568572973986242,-1.0705717859762532e-05,-0.006057193370241585,0.010136482148933442
8.282828282828282,1.620253164556962,0.010695031031345704,0.00968633836117562,-7.251878709365766e-05,-0.006114410817756397,0.010228828240770642
8.383838383838384,1.620253164556962,0.010760364436251075,0.009704301040069965,4.08352035743556e-05,-0.006139399642896311,0.010273367910697525
8.484848484848484,1.620253164556962,0.010904167041828524,0.009544943171094479,5.2815340356070566e-05,-0.006134733063876901,0.010292497882131367
8.585858585858587,1.620253164556962,0.010732754387922963,0.009679151722564486,-2.359096221612031e-05,-0.006123571833146235,0.010246741252645712
8.686868686868687,1.620253164556962,0.011033272382121019,0.009791711018946226,-8.214416797281993e-05,-0.006247495020320174,0.010468826695030048
8.787878787878787,1.620253164556962,0.010970262972163943,0.009978801623138217,-5.639945551921836e-06,-0.006284719378590647,0.010509670260595813
8.88888888888889,1.620253164556962,0.011182444700156256,0.010177844170301636,1.6418104714473144e-05,-0.006408086661137367,0.01071555927090496
8.98989898989899,1.620253164556962,0.011137619874958074,0.00993227393854601,-7.778846760897106e-05,-0.006320968144051225,0.010587393616229731
9.09090909090909,1.620253164556962,0.011058667047880078,0.01011484722275933,4.476939638679533e-06,-0.006352054281191822,0.010618266509554488
9.191919191919192,1.620253164556962,0.01155600343119103,0.01030774379712057,5.8229832857141896e-05,-0.00655912416849348,0.010985656418335538
9.292929292929292,1.620253164556962,0.011416536040202624,0.010295866241229754,4.308414725413617e-06,-0.006513720684429712,0.010899499277202932
9.393939393939394,1.620253164556962,0.011606155371155035,0.010471868938634018,-2.5178162565146107e-05,-0.006623407292936716,0.011082718324435144
9.494949494949495,1.620253164556962,0.011819249327879412,0.010522746846528411,5.4683904499644675e-05,-0.006702598852322347,0.011227682675675307
9.595959595959595,1.620253164556962,0.011919800906536153,0.010751166932383083,6.474657479025869e-05,-0.006801290351675771,0.01138112696833347
9.696969696969697,1.620253164556962,0.011924263970936308,0.010731298648919807,2.0354465576708132e-05,-0.006796668785956834,0.01137485151608638
9.797979797979798,1.620253164556962,0.01218476744769672,0.010981303619737547,3.419322980462947e-05,-0.006949821320230281,0.01162998123795356
9.8989898989899,1.620253164556962,0.01226014670441328,0.01065492390784834,3.7422629229203954e-05,-0.006874521183678485,0.0115417447476856
10.0,1.620253164556962,0.012153594707654175,0.011045444733135344,5.6858231934191576e-05,-0.006959711832236856,0.01163956844534893
0.0,1.7215189873417722,0.012266810043381739,0.011120640352015015,-6.149931783231192e-05,-0.007016235118619026,0.011736261509468132
0.10101010101010101,1.7215189873417722,0.012105762421986117,0.011059452687442076,3.478603704933059e-06,-0.006949564532828458,0.011617999273283781
0.20202020202020202,1.7215189873417722,0.012086799536790482,0.010886179493126036,-2.7677985864970412e-05,-0.006891893708974956,0.011533553483505734
0.30303030303030304,1.7215189873417722,0.011830239251874422,0.010736116759995955,1.916605153422115e-05,-0.006769906803561113,0.011322942901323824
0.40404040404040403,1.7215189873417722,0.011947774540523641,0.010742227559659622,4.1460683698357484e-05,-0.006807000630054979,0.011393165206989726
0.5050505050505051,1.7215189873417722,0.011583604889121744,0.010572413948286329,7.015081539296475e-05,-0.006646805651222422,0.011113232492426177
0.6060606060606061,1.7215189873417722,0.011374015458846838,0.010436048799308045,-7.895789212034655e-05,-0.006543019277446465,0.010936099161638959
0.7070707070707071,1.7215189873417722,0.011613991753369435,0.010273258013257233,3.3452840969843104e-05,-0.006566174929988001,0.011005201410505311
0.8080808080808081,1.7215189873417722,0.011407324225095312,0.010246661731973692,1.6081236115345232e-06,-0.006496195787120701,0.010873552215473311
0.9090909090909091,1.7215189873417722,0.011191054882868999,0.010196432404313104,7.526145406922552e-05,-0.00641624618615463,0.010729170582127323
1.0101010101010102,1.7215189873417722,0.011152092512774905,0.010037074377090007,-8.141825065981338e-05,-0.006356750066959474,0.010639432985288175
1.1111111111111112,1.7215189873417722,0.011185841430600535,0.010036925778999596,-4.0446426889947916e-05,-0.00636683016288004,0.01065816002551258
1.2121212121212122,1.7215189873417722,0.011010401263720384,0.010095250265922569,5.309090583960516e-05,-0.006331695458892885,0.010582944465842497
1.3131313131313131,1.7215189873417722,0.01085059505489574,0.009764540823555535,0.00011020192740398474,-0.006184540763535383,0.01035215076982662
1.4141414141414141,1.7215189873417722,0.01098662996246974,0.00995194162470215,2.8427621257534675e-05,-0.006281571476151567,0.010507678353659563
1.5151515151515151,1.7215189873417722,0.010992402400007439,0.009898258824543848,6.221094866815446e-05,-0.006267198367365385,0.010488775182495877
1.6161616161616161,1.7215189873417722,0.010743330226144971,0.009616727912900748,-5.3170887250811376e-05,-0.006108017441713715,0.01022709136877338
1.7171717171717171,1.7215189873417722,0.010565916455278107,0.009741139499347448,-3.731130044476164e-05,-0.006092116786387667,0.010178826040156675
1.8181818181818181,1.7215189873417722,0.010567870933396192,0.009509248658837479,-2.3769479543724075e-05,-0.0060231358776701,0.010080421051961596
1.9191919191919191,1.7215189873417722,0.010569585213346624,0.009694660676498613,-1.4881254155101179e-05,-0.0060792737669535715,0.010160447796976623
2.0202020202020203,1.7215189873417722,0.010573927838500717,0.00946031883601952,6.439040594526501e-06,-0.0060102740023560705,0.010063447624716788
2.121212121212121,1.7215189873417722,0.010483876604441777,0.009442557271907232,-3.613827926145003e-05,-0.005977930162904702,0.010004142599295749
2.2222222222222223,1.7215189873417722,0.010512132077381123,0.00940766726892776,2.669287904610886e-05,-0.005975939803892665,0.010005829346611464
2.323232323232323,1.7215189873417722,0.010454461771546868,0.009346517801434077,2.9350891847142732e-05,-0.005940293871894283,0.009947006450065306
2.4242424242424243,1.7215189873417722,0.010380432130843397,0.009223152040496601,-5.644280589402582e-05,-0.005881075251401999,0.009853383092489067
2.525252525252525,1.7215189873417722,0.010340007169549591,0.009536084884678143,-7.599332194329876e-05,-0.005962827616268321,0.009963272658723054
2.6262626262626263,1.7215189873417722,0.01013646921553319,0.009330205161350077,-8.060573050291467e-05,-0.00584000231306498,0.009759348900878146
2.727272727272727,1.7215189873417722,0.010332135211019507,0.00920076793494318,-2.3869333270035742e-05,-0.005859870943788806,0.009815563126873279
2.8282828282828283,1.7215189873417722,0.01007071256066348,0.009267093600454095,2.119957067779475e-05,-0.0058013418483352725,0.009693987189053635
2.929292929292929,1.7215189873417722,0.01019176906885113,0.009095681795823714,6.82092627480435e-05,-0.0057862352594024525,0.009691050160197036
3.0303030303030303,1.7215189873417722,0.01019897350763687,0.009263934248892223,-1.5817568486560304e-06,-0.005838872326958727,0.009765087091378119
3.131313131313131,1.7215189873417722,0.010213837070462261,0.009161498030038817,-4.095430563526981e-05,-0.005812600530150324,0.009730698711892532
3.2323232323232323,1.7215189873417722,0.010198639346016525,0.009110838713559987,4.431195445725478e-05,-0.005792843417872953,0.009700894754774932
3.3333333333333335,1.7215189873417722,0.009989875603120719,0.009060018144965314,-8.120390197355985e-06,-0.00571496812442581,0.009558937542683188
3.4343434343434343,1.7215189873417722,0.010058537177092094,0.009123259731777375,7.042023152115936e-05,-0.0057545390726608395,0.009625812595053308
3.5353535353535355,1.7215189873417722,0.01019703700468462,0.009130036179850969,-2.8632619916267194e-05,-0.005798121955360677,0.009707742632611106
3.6363636363636362,1.7215189873417722,0.010012310671275799,0.009109749049395008,-2.350475304613317e-05,-0.005736617916201241,0.009593013735080418
3.7373737373737375,1.7215189873417722,0.010011975598260291,0.009087683140478411,-1.4293479817122517e-06,-0.00572989762162161,0.009583318033114144
3.8383838383838382,1.7215189873417722,0.01005976465114429,0.009055072433625659,-6.390854349348742e-06,-0.005734451125430985,0.009596948815240132
3.9393939393939394,1.7215189873417722,0.00986352753999531,0.009064252035619376,9.94894551115787e-06,-0.0056783338726844055,0.009489185310617345
4.040404040404041,1.7215189873417722,0.010057507687260225,0.008922375248779788,1.5622309181515023e-05,-0.005693964880812003,0.009540760738837658
4.141414141414141,1.7215189873417722,0.010030228576522937,0.00902916341559511,-4.459034393164306e-05,-0.005717817597635414,0.009569360964345361
4.242424242424242,1.7215189873417722,0.009967601741391462,0.00909437708910806,2.1981561337027993e-06,-0.005718593649149857,0.009560944759765677
4.343434343434343,1.7215189873417722,0.010005553647710943,0.008944500815222677,-5.8663768155231234e-05,-0.005685016338880086,0.009520023118938244
4.444444444444445,1.7215189873417722,0.009914000695810964,0.009003434546380324,3.155315430222063e-05,-0.005675230572657386,0.009491689727052353
4.545454545454545,1.7215189873417722,0.009977342477879068,0.00902877864185087,-1.2810487955968911e-05,-0.005701836335918981,0.009538526214438556
4.646464646464646,1.7215189873417722,0.009746198153589751,0.008961302413018209,-5.619840383547328e-05,-0.005612250169982388,0.009378921320539253
4.747474747474747,1.7215189873417722,0.009746396663465468,0.009073996586980227,4.205093165720995e-05,-0.005646117975133709,0.009428477966514966
4.848484848484849,1.7215189873417722,0.0099295347358935,0.008921745034453315,7.110461693752678e-05,-0.005655383931104044,0.009466762113118081
4.94949494949495,1.7215189873417722,0.009931587783911192,0.008981502765289218,2.0680917701081544e-05,-0.005673927164760122,0.00949234048001818
5.05050505050505,1.7215189873417722,0.00989590049770474,0.009019552631142371,6.941625949494217e-06,-0.0056746359386541335,0.009488136039988927
5.151515151515151,1.7215189873417722,0.009852868939047786,0.008743938467960288,-9.881524323372323e-06,-0.005579042222102422,0.009347882084150732
5.252525252525253,1.7215189873417722,0.00996071840094315,0.008891849937669968,-5.726801338913894e-05,-0.005655770501583935,0.009472145055921971
5.353535353535354,1.7215189873417722,0.00980302903531548,0.009032344798396591,3.2807554037164304e-05,-0.005650612150113621,0.009441478778004189
5.454545454545454,1.7215189873417722,0.009859700601428455,0.008866169220902814,1.717179315780148e-05,-0.005617760946699381,0.009402433898477131
5.555555555555555,1.7215189873417722,0.009862519074592435,0.008883132759403488,-1.5511986518229484e-05,-0.005623695550198777,0.00941116282407814
5.656565656565657,1.7215189873417722,0.009854946904961972,0.008975111730345528,-3.5161102302065444e-05,-0.005649017590592249,0.009446008067564531
5.757575757575758,1.7215189873417722,0.009853549901220627,0.008878259118176666,-4.0348943137959936e-05,-0.005619542705819187,0.009404171706218914
5.858585858585858,1.7215189873417722,0.009917872861036313,0.008901559398162534,8.179379002186669e-06,-0.005645829677759654,0.009450800396658476
5.959595959595959,1.7215189873417722,0.0099758003514608,0.0090216721569547,1.1522599511623778e-06,-0.005699241752524649,0.009534608794742093
6.0606060606060606,1.7215189873417722,0.009832876334149424,0.008876230093552612,7.282417289935638e-06,-0.005612731928310611,0.00939117692058941
6.161616161616162,1.7215189873417722,0.00995082317390083,0.008906755242506906,-6.105564767812885e-05,-0.00565727352492232,0.009472634675374418
6.262626262626262,1.7215189873417722,0.0101045922051556,0.009027826486329589,-6.419732232816462e-05,-0.005739725607445556,0.009612195037819637
6.363636363636363,1.7215189873417722,0.009880033492680901,0.008929688338318378,1.1881891415569273e-06,-0.005642916549299783,0.009440803991694153
6.4646464646464645,1.7215189873417722,0.010199783887417886,0.009155611381509448,2.1253989371027356e-05,-0.0058066185806782,0.009719923295318103
6.565656565656566,1.7215189873417722,0.010111174191162064,0.009099691640719075,9.309179135191091e-06,-0.005763259749564342,0.00964530581150598
6.666666666666667,1.7215189873417722,0.010207935969034965,0.009029669066944912,4.005275633670227e-05,-0.005771281510793963,0.009673024822638508
6.767676767676767,1.7215189873417722,0.010016020829243513,0.009050355597817087,-1.2718225703315459e-05,-0.005719912928118179,0.009569824699480003
6.8686868686868685,1.7215189873417722,0.010276712254514065,0.009013216269404002,4.769221174548864e-06,-0.005786978557175419,0.009706838848418714
6.96969696969697,1.7215189873417722,0.010210103111969916,0.009208131534109083,8.231816367607676e-06,-0.0058254703938236995,0.009747826566116086
7.070707070707071,1.7215189873417722,0.010263351293068256,0.009125670256761075,-3.088912543509116e-05,-0.005816706464948799,0.009744595434620501
7.171717171717171,1.7215189873417722,0.010247295716570083,0.009223890955619285,2.6733539339125024e-06,-0.00584135600165681,0.009775853774726152
7.2727272727272725,1.7215189873417722,0.010361943853165584,0.009186440250831809,-1.8999754799587198e-05,-0.005864515231199218,0.009827119098735224
7.373737373737374,1.7215189873417722,0.010297461231150218,0.009111069399721238,-7.375963495794375e-05,-0.005822559189261437,0.009759340702469472
7.474747474747475,1.7215189873417722,0.010119411613102012,0.009187516063689779,-5.564438852140784e-05,-0.005792078303037537,0.009687619674584657
7.575757575757575,1.7215189873417722,0.010448127181116804,0.009369550324245439,1.1197526844280404e-05,-0.005945303251608673,0.009952786424293014
7.6767676767676765,1.7215189873417722,0.010517195853693527,0.00927991983002577,4.079280326790695e-05,-0.005939134705115789,0.009956634897197638
7.777777777777778,1.7215189873417722,0.010325398664626858,0.009522539921221523,3.127604770356812e-05,-0.005954381575754513,0.009948443984954577
7.878787878787879,1.7215189873417722,0.010379113119017049,0.00934957622557743,7.997155810809602e-05,-0.005918606803378344,0.009905525822762395
7.979797979797979,1.7215189873417722,0.010574980562917384,0.009668671052101058,-1.0070612441931078e-05,-0.006073095484505532,0.010152226830913092
8.080808080808081,1.7215189873417722,0.010689748950923918,0.009438776869600202,-4.277830032540488e-06,-0.006038557746157237,0.010122407874984808
8.181818181818182,1.7215189873417722,0.010539546175801455,0.009819543890955386,2.366467821264641e-05,-0.0061077270200270515,0.01019870676140861
8.282828282828282,1.7215189873417722,0.01060726723303391,0.009766496148008936,-8.534768090180907e-05,-0.006112129014312854,0.010213940633744017
8.383838383838384,1.7215189873417722,0.010799461644470546,0.009699911035939963,2.029410053589026e-05,-0.006149811804123152,0.010293884800194717
8.484848484848484,1.7215189873417722,0.010729056603057618,0.009626459010764223,-5.0447782311810045e-05,-0.006106654684146552,0.010222826419354637
8.585858585858587,1.7215189873417722,0.010914218643042935,0.009854223121448803,-4.2964206513868185e-05,-0.006230532529347522,0.010424983164482569
8.686868686868687,1.7215189873417722,0.010820763259038895,0.009801414210152608,-2.544379818319982e-06,-0.006186653240757451,0.010348810302489483
8.787878787878787,1.7215189873417722,0.011151975115143646,0.009906891621582037,4.99019514630755e-05,-0.006317660021017705,0.010584852967921991
8.88888888888889,1.7215189873417722,0.011055936081761664,0.010098413893665758,6.447272144601714e-06,-0.006346304992628227,0.010609636750529814
8.98989898989899,1.7215189873417722,0.01113018778138903,0.009919289404148655,2.297928982563397e-05,-0.0063148431556613056,0.010576928322977472
9.09090909090909,1.7215189873417722,0.011138076208244209,0.010066109162252174,-7.037741059849446e-05,-0.006361255611148915,0.01064335770596528
9.191919191919192,1.7215189873417722,0.011424626194740174,0.010346393752005911,1.049024573511348e-05,-0.006531305984023826,0.01092550211279071
9.292929292929292,1.7215189873417722,0.011477864683139268,0.010095962079897505,3.335985441439559e-05,-0.006472148028911032,0.010853252049209715
9.393939393939394,1.7215189873417722,0.011481161593144978,0.010364005010495017,-5.235020861996335e-05,-0.006553549981091998,0.010965722809776075
9.494949494949495,1.7215189873417722,0.011587039543551047,0.010523336177386794,2.5671835387247007e-05,-0.006633112716281351,0.011093590690035742
9.595959595959595,1.7215189873417722,0.011768461519906537,0.010575464036141242,-4.6548895205608844e-07,-0.006703177666814333,0.011219633916077382
9.696969696969697,1.7215189873417722,0.012005961756007967,0.010863786788964306,2.1764973023903628e-05,-0.006860924563491681,0.011477638847394677
9.797979797979798,1.7215189873417722,0.01209283373826245,0.010894264599633555,-2.4792374466405356e-05,-0.006896129501368802,0.0115404047792777
9.8989898989899,1.7215189873417722,0.012140687840153805,0.010762715872388301,9.552301977472902e-06,-0.006871021113762631,0.011513724601635291
10.0,1.7215189873417722,0.01241976681705631,0.011171415834037988,-2.173699748556079e-05,-0.0070773547953282894,0.011845090854151533
0.0,1.8227848101265822,0.012420930045325894,0.01104682089363479,1.912880980307897e-05,-0.007040325281688204,0.01179411137974951
0.10101010101010101,1.8227848101265822,0.012268198105468517,0.010859682684513376,-3.8780534270273896e-06,-0.006938364236994568,0.011628099558616612
0.20202020202020202,1.8227848101265822,0.012080379604925752,0.010684813824761948,-1.6693598985733684e-05,-0.006829558028906309,0.01144661726828448
0.30303030303030304,1.8227848101265822,0.011792392761533564,0.010685326589070761,-1.1662229219756785e-05,-0.006743315805181297,0.011279697312275837
0.40404040404040403,1.8227848101265822,0.011762394018573876,0.01067692273562532,-8.43241934082346e-05,-0.006731795026259759,0.011259917927639728
0.5050505050505051,1.8227848101265822,0.011721798004359796,0.010497974201220894,4.119300297817645e-06,-0.006665931661674207,0.011160328339646908
0.6060606060606061,1.8227848101265822,0.01151993786781822,0.010591173847258982,0.00013995506395923383,-0.00663333351452316,0.011087426641622192
0.7070707070707071,1.8227848101265822,0.011633792536214592,0.010414722847920777,2.841633347503982e-05,-0.00661455461524061,0.011074803759156438
0.8080808080808081,1.8227848101265822,0.01125264100557167,0.010223847710843552,-3.885458189171184e-05,-0.006442946614924566,0.010775353018098186
0.9090909090909091,1.8227848101265822,0.011360040251518436,0.010022764642428302,3.700233640314253e-05,-0.006414841468184021,0.010754135174101474
1.0101010101010102,1.8227848101265822,0.011174590886954466,0.010043669588991467,2.42114213065335e-05,-0.0063654781427837795,0.010654324953824014
1.1111111111111112,1.8227848101265822,0.011247756570608107,0.009963730392212558,-2.6164061364382446e-05,-0.0063634460888461995,0.010663976316923384
1.2121212121212122,1.8227848101265822,0.011183187926237266,0.009834706040557866,-3.47794833481958e-05,-0.00630536819003854,0.010573807170752207
1.3131313131313131,1.8227848101265822,0.010793985861637793,0.009959736229858815,5.982379655414068e-06,-0.006226116627448982,0.010401986919115988
1.4141414141414141,1.8227848101265822,0.011032080294942091,0.009791636118757274,-1.3617971355162949e-06,-0.006247114924109809,0.010467130609612671
1.5151515151515151,1.8227848101265822,0.01060399022279519,0.009896707402737934,-7.437289743163928e-05,-0.006150209287659937,0.010269441635632537
1.6161616161616161,1.8227848101265822,0.010728255173126283,0.009509026775395116,-8.272736217493576e-06,-0.00607118458455642,0.010173592723067731
1.7171717171717171,1.8227848101265822,0.010707063230249404,0.009730513141876227,2.2667853749932412e-05,-0.006131272911637689,0.010253799834340637
1.8181818181818181,1.8227848101265822,0.010590683231123587,0.009725259559531617,-7.475326602042352e-05,-0.006094782837196561,0.010186405922559228
1.9191919191919191,1.8227848101265822,0.010708948488470685,0.009419771481835587,-2.8407232256291837e-05,-0.006038615991091882,0.010126215770914252
2.0202020202020203,1.8227848101265822,0.010450578782094785,0.009473988993549799,1.8498475559147022e-05,-0.005977370332693375,0.009998170960414481
2.121212121212121,1.8227848101265822,0.010294955032188271,0.009639002269521852,-3.49366638238824e-05,-0.005980187190513037,0.009983337651215412
2.2222222222222223,1.8227848101265822,0.010533201170741663,0.00947270278124132,-3.0220941399733567e-05,-0.006001771185594895,0.010045162058199407
2.323232323232323,1.8227848101265822,0.010281234649704754,0.009356987661143608,4.735699646598516e-05,-0.005891466693254508,0.009852022447691473
2.4242424242424243,1.8227848101265822,0.010352216827050358,0.009283052282233473,4.0016974372843916e-05,-0.005890580732785149,0.0098614444652461
2.525252525252525,1.8227848101265822,0.010331318355938753,0.009430661489365768,6.946006518980833e-05,-0.005928593953591355,0.009912457972016973
2.6262626262626263,1.8227848101265822,0.010310954585216985,0.009226607230240979,6.84654919179038e-05,-0.005861268544637389,0.009814530038857875
2.727272727272727,1.8227848101265822,0.010229128871474244,0.009244254708139664,-6.9421383492374005e-06,-0.005842015073884173,0.00977398559584327
2.8282828282828283,1.8227848101265822,0.010199608417909798,0.009275011291155976,-3.974068524964209e-06,-0.005842385912719732,0.009770179653821431
2.929292929292929,1.8227848101265822,0.010207052603415609,0.009161616788481982,-1.2648420338786223e-05,-0.005810600817569276,0.009726588327010056
3.0303030303030303,1.8227848101265822,0.010230052439925998,0.009089921631393688,1.5561057126017413e-05,-0.005795992221395906,0.009710355280010937
3.131313131313131,1.8227848101265822,0.010189616393164205,0.008937888778285384,6.036712685218533e-05,-0.005738251551434876,0.009625560378874494
3.2323232323232323,1.8227848101265822,0.010182455835744366,0.009013445800796513,7.31054947303979e-05,-0.005758770490962263,0.009652027325716296
3.3333333333333335,1.8227848101265822,0.010133900624395299,0.009159167881668701,-2.3973393556592974e-05,-0.0057879205518192,0.009683487244041942
3.4343434343434343,1.8227848101265822,0.009973452332840279,0.009132019336980664,-4.098833608422149e-05,-0.005731641500946282,0.00958075201524173
3.5353535353535355,1.8227848101265822,0.010010433926923917,0.009030844532760625,-3.229945653671517e-05,-0.005712383537905362,0.009558524867643399
3.6363636363636362,1.8227848101265822,0.010008153009860642,0.008996380479404096,2.658407790859766e-05,-0.0057013600467794205,0.009542691243343298
3.7373737373737375,1.8227848101265822,0.009999649577066692,0.009052806875391414,-4.421141160574688e-05,-0.005715736935737432,0.009561760899083309
3.8383838383838382,1.8227848101265822,0.010043985967729844,0.009014559241109462,-1.729610837630623e-05,-0.005717563562651792,0.009570931165490017
3.9393939393939394,1.8227848101265822,0.01018994916063453,0.008963590184776684,0.00011136753741280175,-0.005746061803623364,0.009637411104776655
4.040404040404041,1.8227848101265822,0.01010178768314764,0.009075295583627694,-7.820015296729018e-05,-0.0057531249800326,0.009630614776314314
4.141414141414141,1.8227848101265822,0.009865692397257386,0.009094495160728465,9.914038910030988e-05,-0.005688056267395754,0.009505141944862034
4.242424242424242,1.8227848101265822,0.009949992159720238,0.00898313952703109,2.1725010363177926e-05,-0.005679939506025398,0.009503598676564372
4.343434343434343,1.8227848101265822,0.00980246226132202,0.009061806126856125,-6.28421852111367e-05,-0.005659280516453443,0.009454545547416444
4.444444444444445,1.8227848101265822,0.009624599259375663,0.008944154417339355,5.9976796293250484e-05,-0.005570626103014505,0.009303639009129736
4.545454545454545,1.8227848101265822,0.01002381541090717,0.009105725953637301,3.780123053710503e-05,-0.005738862409363341,0.009597983704518746
4.646464646464646,1.8227848101265822,0.00997856907705541,0.009122646026254056,4.5595626674132956e-05,-0.00573036453099284,0.00957965524906349
4.747474747474747,1.8227848101265822,0.010089914059642189,0.008844250379538749,-2.812630394830218e-05,-0.005680249331754281,0.009528471940576516
4.848484848484849,1.8227848101265822,0.009882109620505512,0.008926125945649118,-9.118216953245553e-05,-0.0056424706698463886,0.009441811395704582
4.94949494949495,1.8227848101265822,0.009710037782479237,0.00880389175840874,3.1690942594460435e-05,-0.005554178862266394,0.009290330197117473
5.05050505050505,1.8227848101265822,0.009852013380272553,0.00902686814982564,-1.8721220475632748e-05,-0.005663664459029458,0.009466506319527598
5.151515151515151,1.8227848101265822,0.009949352894932376,0.008821174178337164,2.845686982650291e-05,-0.005631158121980861,0.009436111033939829
5.252525252525253,1.8227848101265822,0.009920153151779972,0.00894932019031871,-9.171818891036902e-06,-0.005660842002629604,0.009472137873686342
5.353535353535354,1.8227848101265822,0.010059820475221097,0.008745667544652532,4.5905211104711696e-05,-0.005641646405962089,0.009471703396185598
5.454545454545454,1.8227848101265822,0.009972859678362214,0.008992047343715818,9.267611120241823e-06,-0.005689472106623409,0.009520434700249233
5.555555555555555,1.8227848101265822,0.00994829255600151,0.008948968137389478,-3.8879515996540314e-05,-0.0056691782080172965,0.009488421220045676
5.656565656565657,1.8227848101265822,0.009906886762452126,0.00892643821366247,-5.2838397905610673e-05,-0.005649997492834379,0.009455308964834675
5.757575757575758,1.8227848101265822,0.010074960670158926,0.008869148733043841,7.878875244965256e-05,-0.00568323282096083,0.009530421296744102
5.858585858585858,1.8227848101265822,0.009996770169377849,0.00897259531313474,3.110161551808926e-05,-0.005690809644753776,0.00952621694251548
5.959595959595959,1.8227848101265822,0.00997790017235794,0.00904051734228914,-2.6453696186787173e-05,-0.005705525254394123,0.009543907245571144
6.0606060606060606,1.8227848101265822,0.010158043525709592,0.008963319107874115,4.3981589666339246e-05,-0.005736408790075112,0.009616805873462912
6.161616161616162,1.8227848101265822,0.010068192933936617,0.009097102159738227,5.5913043167400804e-05,-0.005749588528102453,0.009619967556125016
6.262626262626262,1.8227848101265822,0.009985906135845391,0.00919460964753412,-2.5342970623869204e-05,-0.005754154735013853,0.009614810753567023
6.363636363636363,1.8227848101265822,0.010262620305457628,0.009144128820446183,-4.934172489289289e-05,-0.005822024737771142,0.00975197667798281
6.4646464646464645,1.8227848101265822,0.009973507289321708,0.009142649068585782,8.489706901070865e-06,-0.005734846907372247,0.009585135300953498
6.565656565656566,1.8227848101265822,0.009976993665669589,0.009124710790207526,8.135134570289452e-05,-0.0057305113367631345,0.009580366484593183
6.666666666666667,1.8227848101265822,0.010102131512959571,0.009130771662072329,4.747022868978452e-06,-0.00576987095250957,0.009653178943107453
6.767676767676767,1.8227848101265822,0.010304010475832131,0.009152651478409981,6.287734142481105e-05,-0.005836998586272633,0.009779903114873674
6.8686868686868685,1.8227848101265822,0.009963941765806218,0.008962609576615384,-2.372042710816028e-05,-0.00567796540272648,0.009503013944015294
6.96969696969697,1.8227848101265822,0.009915952700435356,0.009187155702519658,-2.6157072834497094e-05,-0.005730932520886504,0.009572491788414792
7.070707070707071,1.8227848101265822,0.010271164977455673,0.009068653611982523,-2.7090074769191848e-05,-0.005801945576831458,0.00972593813329166
7.171717171717171,1.8227848101265822,0.010290793122167028,0.009262094972437152,4.264026429654801e-06,-0.005865866428381254,0.009816953583889246
7.2727272727272725,1.8227848101265822,0.010222489987123362,0.009175096224979916,5.8521914207824215e-06,-0.005819275863630983,0.009741122405973596
7.373737373737374,1.8227848101265822,0.010433449169464351,0.00929034621442156,-8.088989816714223e-05,-0.005917138615165773,0.009912450195970568
7.474747474747475,1.8227848101265822,0.01033967735079572,0.009402052280199335,2.7205741472320396e-05,-0.005922518889298516,0.009904319675913757
7.575757575757575,1.8227848101265822,0.010656953801943779,0.00935238471130565,3.7759486617264166e-05,-0.006002801553974829,0.010068471068395975
7.6767676767676765,1.8227848101265822,0.010345627074618875,0.009542206945463053,3.620236812960291e-07,-0.005966350206024579,0.009968229472866033
7.777777777777778,1.8227848101265822,0.010490625194798878,0.009491119819921448,-0.00012455376805053274,-0.005994523504416097,0.010030619752913503
7.878787878787879,1.8227848101265822,0.010422700578417014,0.009443992089669624,-3.557530045111658e-05,-0.005960007800425992,0.009969632336626967
7.979797979797979,1.8227848101265822,0.010506229560475824,0.009454928290395898,0.00010223205310861072,-0.005988347355261516,0.010023583971577063
8.080808080808081,1.8227848101265822,0.010585730622008628,0.00942738873136058,0.0001627591344566814,-0.006003935806010763,0.010060667230473342
8.181818181818182,1.8227848101265822,0.010664851925070424,0.009532967489665102,0.00010013206764331584,-0.0060593458244206574,0.010147853386397196
8.282828282828282,1.8227848101265822,0.010749271360724125,0.009809392679185187,-5.488354804463004e-05,-0.006167599211972794,0.010311946098579623
8.383838383838384,1.8227848101265822,0.010679923876291303,0.00959260950806285,4.1460398736441454e-05,-0.006081760015306246,0.01018016447560871
8.484848484848484,1.8227848101265822,0.010814041227120456,0.009910760751415578,-2.30837180308475e-05,-0.00621744059356081,0.010391962738089441
8.585858585858587,1.8227848101265822,0.011038460670638827,0.009996881607164804,1.8822774015546203e-05,-0.00631060268334109,0.01055633147857975
8.686868686868687,1.8227848101265822,0.01112368003622812,0.009964066657557254,-2.184310447850707e-05,-0.006326324008135612,0.010591658222863317
8.787878787878787,1.8227848101265822,0.010912037947732324,0.009890564015184337,6.147536500699627e-05,-0.006240780588874998,0.01043939445152594
8.88888888888889,1.8227848101265822,0.010943331424121983,0.010180868168103544,-3.281250548832918e-05,-0.006337259877667659,0.010582872707690394
8.98989898989899,1.8227848101265822,0.011382690797180363,0.010174661358647676,-2.932653306324084e-05,-0.006467205646748412,0.010829447791669328
9.09090909090909,1.8227848101265822,0.011575890472190549,0.010062248477779206,5.1015340941724125e-05,-0.0064914416849909265,0.010898550640567667
9.191919191919192,1.8227848101265822,0.011593209127069013,0.010150870326832815,-3.583740802828922e-05,-0.0065232238361705485,0.010943735956922643
9.292929292929292,1.8227848101265822,0.01146148056882359,0.010352177991492963,2.971038682922439e-05,-0.006544097568094966,0.010949177467911863
9.393939393939394,1.8227848101265822,0.011668065913717024,0.010341211871492588,8.893520417050306e-05,-0.006602783335562884,0.01106554164084517
9.494949494949495,1.8227848101265822,0.011710018414631514,0.010571911930125447,2.6611247905723198e-05,-0.0066845791034270885,0.011184573940264854
9.595959595959595,1.8227848101265822,0.011691215516274538,0.010711184779598766,6.967895154329352e-05,-0.006720720088761991,0.01123395724607418
9.696969696969697,1.8227848101265822,0.012031656592919967,0.010810954260727984,-3.82620511585151e-05,-0.006852783256094385,0.011470318009730139
9.797979797979798,1.8227848101265822,0.01200294109746925,0.010586821078943588,6.476940319634449e-06,-0.00677692865292385,0.011361272445423645
9.8989898989899,1.8227848101265822,0.012176557969946948,0.010881337070414767,3.6279199270559115e-05,-0.006917368512108515,0.011583556334214559
10.0,1.8227848101265822,0.0122086715708322,0.011101920399109151,1.878473107381646e-05,-0.006993177590982405,0.011694684977062051
0.0,1.9240506329113924,0.012320367256160205,0.011027856735632491,8.066768679612619e-06,-0.007004467197537809,0.011727660623298148
0.10101010101010101,1.9240506329113924,0.012077102381166188,0.011095298451102787,3.336405773420756e-05,-0.0069517202496806926,0.011617501184923393
0.20202020202020202,1.9240506329113924,0.01220790396570787,0.01075449580916789,-3.529861177524879e-06,-0.006888719932462728,0.011549990679095203
0.30303030303030304,1.9240506329113924,0.012011521883306743,0.010687392272844369,-9.729400726072095e-07,-0.006809674246845334,0.011407241920196744
0.40404040404040403,1.9240506329113924,0.011720516085439246,0.010559610741817597,-7.420669304376752e-07,-0.006684038048177053,0.01118533818998288
0.5050505050505051,1.9240506329113924,0.011770110382752118,0.010512654652208903,6.10049998312779e-05,-0.006684829510488307,0.011194975007410271
0.6060606060606061,1.9240506329113924,0.011775440641404143,0.010351739356417205,2.297265480265032e-06,-0.006638153999346405,0.011132081274763379
0.7070707070707071,1.9240506329113924,0.011540300990623361,0.010353089801057237,4.070359737987108e-05,-0.006568017237504179,0.010995099510432066
0.8080808080808081,1.9240506329113924,0.011313526449254095,0.010357968934935484,6.239724364361771e-05,-0.006501448615256873,0.010867839063823066
0.9090909090909091,1.9240506329113924,0.011167951049899507,0.010141250078385677,-0.0001557821584634783,-0.0063927603384855555,0.01069504107461934
1.0101010101010102,1.9240506329113924,0.011141048456551138,0.009938409723336364,-7.735975935587713e-05,-0.0063238374539662506,0.010591911906189582
1.1111111111111112,1.9240506329113924,0.011046707526759094,0.009613149787784306,-2.6300177351629997e-05,-0.00619795719436302,0.010404365286048937
1.2121212121212122,1.9240506329113924,0.010978924356276204,0.010100451133582771,7.40875978135837e-05,-0.006323812646957693,0.01056788867651946
1.3131313131313131,1.9240506329113924,0.011108554850324802,0.009946840586486701,1.9564138515839733e-05,-0.0063166186310434505,0.010575715225920986
1.4141414141414141,1.9240506329113924,0.010977834112905406,0.009730337681310467,-5.383602378699708e-05,-0.006212451538264761,0.010410714443648553
1.5151515151515151,1.9240506329113924,0.010873215009975474,0.009704455765962898,-6.764306116310024e-05,-0.006173301232781511,0.010339166263279947
1.6161616161616161,1.9240506329113924,0.010649708747865905,0.009564704013393337,5.9249417248838746e-05,-0.006064323828377773,0.010151309213906551
1.7171717171717171,1.9240506329113924,0.010853322246229256,0.009537690478050243,5.589315109011686e-05,-0.006117303817283849,0.010259429191018857
1.8181818181818181,1.9240506329113924,0.010634485138351487,0.009630176610439726,-4.581976164781169e-06,-0.006079398524637364,0.01016959530395258
1.9191919191919191,1.9240506329113924,0.01033188597464868,0.009549533667565608,-2.6431045367471662e-05,-0.005964425892664286,0.009963877954753978
2.0202020202020203,1.9240506329113924,0.010701289117387318,0.009585428305205602,7.674714136006516e-05,-0.006086015226777876,0.010190154823714737
2.121212121212121,1.9240506329113924,0.010446756281304705,0.0095582439242271,4.915809507509325e-05,-0.006001500061659541,0.01003241488961037
2.2222222222222223,1.9240506329113924,0.010470195128592721,0.00938958532438857,-3.06924943606687e-05,-0.0059579341358943876,0.009974032993703764
2.323232323232323,1.9240506329113924,0.010434411243550804,0.00932935738229587,-1.2632264295182963e-05,-0.005929130587754002,0.009928140526982373
2.4242424242424243,1.9240506329113924,0.010305966305427393,0.00927791350911862,8.763742954178947e-05,-0.005875163944363803,0.009833503827162244
2.525252525252525,1.9240506329113924,0.010352019936220688,0.009304987583068747,-5.29310262492199e-05,-0.0058971022557868305,0.009870668609338471
2.6262626262626263,1.9240506329113924,0.010259256390234055,0.009283645318216687,3.724341637816987e-05,-0.005862870512535223,0.009808122946599643
2.727272727272727,1.9240506329113924,0.010229327164477565,0.009324251789725003,3.980687898700016e-06,-0.00586607368626077,0.009808161453232427
2.8282828282828283,1.9240506329113924,0.010434059270173051,0.009188096114739117,-6.638612052056016e-06,-0.00588664661547365,0.009870242947336377
2.929292929292929,1.9240506329113924,0.010356793602114733,0.009307759569195639,-6.470801579908924e-05,-0.005899365951393111,0.009874795113844948
3.0303030303030303,1.9240506329113924,0.01021861850598091,0.00927020770917902,3.843673252155086e-05,-0.005846647864547979,0.009779193792844828
3.131313131313131,1.9240506329113924,0.010059779093210305,0.009172417591148925,1.2910521842188183e-05,-0.005769659005307769,0.009646782116213557
3.2323232323232323,1.9240506329113924,0.010002478497882333,0.009173820150819561,-5.9154364763784264e-05,-0.005752889594610567,0.009615514087909232
3.3333333333333335,1.9240506329113924,0.010023367473959906,0.009254570424761074,-5.0886012878592324e-05,-0.005783381369616294,0.009662338083652338
3.4343434343434343,1.9240506329113924,0.010179112565960586,0.009114390802530304,-7.300970513022636e-05,-0.005788051010547267,0.00969154444006545
3.5353535353535355,1.9240506329113924,0.01016419551761597,0.009091915550554101,-1.6698800994554567e-05,-0.005776833320451022,0.009672777686017141
3.6363636363636362,1.9240506329113924,0.010082502896704409,0.009050822992593362,4.795255253750705e-05,-0.005739997766789331,0.009608652913224236
3.7373737373737375,1.9240506329113924,0.00991500921364881,0.009141032744948962,7.457823290231045e-05,-0.0057168125875793315,0.009552442054312814
3.8383838383838382,1.9240506329113924,0.009969926011200298,0.009066208139935947,6.624975523621188e-05,-0.0057108402453408735,0.00955087940654432
3.9393939393939394,1.9240506329113924,0.010166090949121288,0.009000653792074213,-1.1934312839569204e-05,-0.00575002342235865,0.009636396427206317
4.040404040404041,1.9240506329113924,0.009944090925493169,0.009086038304313804,-4.225974280965071e-05,-0.005709038768942091,0.009544317838845793
4.141414141414141,1.9240506329113924,0.010034258708847745,0.008952172058833965,6.21602169374685e-05,-0.005695929230304512,0.009539964027201852
4.242424242424242,1.9240506329113924,0.010041411992896881,0.009048999145354517,-2.109155479514106e-05,-0.005727123341475419,0.009583889939001526
4.343434343434343,1.9240506329113924,0.010059382605644858,0.008865457659124424,5.874332152780456e-05,-0.005677452079430784,0.00951928777160736
4.444444444444445,1.9240506329113924,0.009827342194961106,0.009047153778839384,3.741252616152401e-05,-0.005662348792140147,0.0094616261356641
4.545454545454545,1.9240506329113924,0.00989540135695179,0.008854572411916332,1.6075168902662827e-06,-0.005624992130660436,0.009418220665564173
4.646464646464646,1.9240506329113924,0.009887677760198893,0.008823854599764152,-6.252400416020281e-05,-0.0056134597079889135,0.009401642322237256
4.747474747474747,1.9240506329113924,0.009880989174231063,0.008904170081840478,-1.275932802621126e-05,-0.0056355477768214625,0.009430624164115104
4.848484848484849,1.9240506329113924,0.00998036136488608,0.008828870144738083,-6.94195851446886e-05,-0.005642769452887249,0.00945810254515265
4.94949494949495,1.9240506329113924,0.009709780528108072,0.009013832468107962,-1.5722035557296426e-05,-0.00561708389886481,0.009381227010998461
5.05050505050505,1.9240506329113924,0.009935495510369772,0.008957934188767164,8.159979196350376e-06,-0.0056680289097410805,0.009484584377185905
5.151515151515151,1.9240506329113924,0.009871566861088883,0.00901461778142309,9.159241136576956e-05,-0.005665855392753592,0.009473538483115915
5.252525252525253,1.9240506329113924,0.009834782354259492,0.009102841544299993,3.5340564912519273e-05,-0.005681287169567845,0.009490202822351638
5.353535353535354,1.9240506329113924,0.010040099128200695,0.009101861142972107,-2.7206719070975283e-05,-0.005742588081351841,0.00960552441359511
5.454545454545454,1.9240506329113924,0.009930588488431312,0.008857302641751897,-4.601180447574508e-05,-0.005636367339054963,0.00944015473495373
5.555555555555555,1.9240506329113924,0.010037428808061806,0.009090532953845485,5.0213880561396696e-05,-0.005738388528572187,0.009599466308691282
5.656565656565657,1.9240506329113924,0.009861041308533094,0.008903590879094848,-4.537471429078572e-05,-0.005629389656288383,0.009419212566449234
5.757575757575758,1.9240506329113924,0.010121524478563942,0.008907177764850407,-0.000162821482949648,-0.005708610673024305,0.009576449667224827
5.858585858585858,1.9240506329113924,0.009906281203923768,0.00900502561293528,6.696233378215411e-06,-0.005673392045057715,0.009487819145050418
5.959595959595959,1.9240506329113924,0.010137868661455635,0.008907419373633466,0.00010020201976023547,-0.0057135864105267295,0.009583651418253673
6.0606060606060606,1.9240506329113924,0.00984953608939986,0.009019713341735281,3.1777918354846254e-05,-0.005660774829340542,0.00946211537534232
6.161616161616162,1.9240506329113924,0.010113391998678771,0.008970055766838231,-4.936710207178519e-05,-0.0057250343296551,0.00959334244626889
6.262626262626262,1.9240506329113924,0.009894597416327682,0.009125125902935583,-1.1780187222112206e-05,-0.005705916995778979,0.009533202500272725
6.363636363636363,1.9240506329113924,0.010045809684120681,0.008859033746999817,2.7110370364681547e-05,-0.005671453029336149,0.009508249526018748
6.4646464646464645,1.9240506329113924,0.00999245391238389,0.009167407572385834,-2.8745257281314207e-05,-0.005747958445430917,0.009606668412914918
6.565656565656566,1.9240506329113924,0.009998887665090059,0.008920366716681734,-7.19878501703287e-05,-0.0056757763145315375,0.00950644512524955
6.666666666666667,1.9240506329113924,0.010013145493970735,0.009037109754668026,-1.6532932467737326e-05,-0.005715076574591628,0.009562602187503004
6.767676767676767,1.9240506329113924,0.010228657319276668,0.00906675972142036,-7.867463084100397e-05,-0.005788625112209108,0.00970099754185864
6.8686868686868685,1.9240506329113924,0.01007273736656432,0.00922040357149619,2.2522310245885435e-05,-0.0057879422814181535,0.009674848745639616
6.96969696969697,1.9240506329113924,0.010224972833637953,0.00911686839592045,-9.536802307277512e-05,-0.005802552368867521,0.009719820589933884
7.070707070707071,1.9240506329113924,0.010090606367722459,0.009096000588513588,-9.145541213671985e-06,-0.005755982086870814,0.009631908068397995
7.171717171717171,1.9240506329113924,0.010136432338798313,0.009274623729314637,3.873239756535217e-05,-0.005823316820433884,0.009734413725297212
7.2727272727272725,1.9240506329113924,0.010178227949576344,0.009137118207453054,5.02493651534914e-05,-0.00579460384710882,0.009700059608524093
7.373737373737374,1.9240506329113924,0.010349753916555631,0.009121426292784672,-9.252505397288278e-05,-0.005841354062802091,0.009794845016970843
7.474747474747475,1.9240506329113924,0.010387736854563628,0.009477539268872678,6.756635646133627e-06,-0.005959582837030891,0.009963873772545302
7.575757575757575,1.9240506329113924,0.010382562062732411,0.009451354948955638,2.9441749136159425e-05,-0.005950175103506415,0.00994982544937197
7.6767676767676765,1.9240506329113924,0.010330785941401384,0.009514039080721608,-6.024278020956639e-06,-0.005953447506636898,0.009947596970689426
7.777777777777778,1.9240506329113924,0.010463540663424883,0.009438235743545555,-2.9862511863190945e-05,-0.0059705329220911315,0.009990559993371352
7.878787878787879,1.9240506329113924,0.010324524414853547,0.009486112317036225,-1.6066840317016503e-05,-0.005943191019566931,0.009931933723858774
7.979797979797979,1.9240506329113924,0.01059105913157514,0.009709489920225385,-3.325841846394862e-05,-0.006090164715540157,0.01017910922056227
8.080808080808081,1.9240506329113924,0.010500107257177373,0.009513805305605512,2.9657438113667863e-05,-0.006004173768834865,0.010043475810860595
8.181818181818182,1.9240506329113924,0.01084071051208906,0.009604328330049415,-5.609927386523699e-05,-0.006133511652641543,0.010278901953748329
8.282828282828282,1.9240506329113924,0.010626421741940997,0.00955338040960337,-6.643139420985369e-05,-0.00605394064546331,0.010133257441956034
8.383838383838384,1.9240506329113924,0.011045017280947351,0.00979428781143052,0.00013931546227169856,-0.006251791527713361,0.010478579518800431
8.484848484848484,1.9240506329113924,0.010674577469804948,0.009828267439555,-0.00010995657057519431,-0.006150853472807984,0.01027935378256002
8.585858585858587,1.9240506329113924,0.010734035942303224,0.010000672244251973,-1.996622398957498e-05,-0.0062204124559665595,0.0103868471434269
8.686868686868687,1.9240506329113924,0.010791531061927763,0.009742738120901696,4.572935214690233e-06,-0.006160280754848838,0.010307234858500795
8.787878787878787,1.9240506329113924,0.010864258159612734,0.01006102342743259,-7.100880484077434e-05,-0.0062775844761135974,0.01048646120727172
8.88888888888889,1.9240506329113924,0.011090846895753934,0.010083050035267873,4.626926054825532e-05,-0.006352169079306542,0.010623165311186816
8.98989898989899,1.9240506329113924,0.011266241669230978,0.010133593978580184,-1.0118649573954674e-06,-0.006419950694343348,0.010744785367949275
9.09090909090909,1.9240506329113924,0.01139295382541119,0.00994341752906954,-7.733546182840819e-06,-0.006400911406344218,0.010741798344462395
9.191919191919192,1.9240506329113924,0.011396284623534252,0.010319923790016053,8.271362180844967e-05,-0.006514862524065091,0.010898984635177501
9.292929292929292,1.9240506329113924,0.011293255349080303,0.010262248685562286,-8.609151488056596e-05,-0.006466651210392777,0.010815701773294254
9.393939393939394,1.9240506329113924,0.011585973573251883,0.010475989807282649,-3.298300085435331e-05,-0.006618589014160359,0.011072934058170137
9.494949494949495,1.9240506329113924,0.011622892475417358,0.010527250706966597,-8.046069437069634e-05,-0.006645042954715186,0.011116517246135313
9.595959595959595,1.9240506329113924,0.011748241588210563,0.010795754562821945,-5.018069995081301e-05,-0.0067631988453097525,0.011302474002294146
9.696969696969697,1.9240506329113924,0.011817156629829741,0.010721626283291125,6.266610838771597e-05,-0.006761634873936259,0.011309779174668218
9.797979797979798,1.9240506329113924,0.011982096272971591,0.01094001323730715,-1.2920834968735254e-05,-0.006876632853083622,0.011496552950086662
9.8989898989899,1.9240506329113924,0.012224255981559384,0.010964220368786397,-1.861480337066005e-05,-0.006956542905103734,0.01164552127233651
10.0,1.9240506329113924,0.012380003076047903,0.010924463697096345,0.00010054598894052706,-0.006991340031943274,0.011721510890050873
0.0,2.0253164556962027,0.012353506424115193,0.011112439581525517,4.5316131090078806e-05,-0.0070397838016922135,0.011782359751804977
0.10101010101010101,2.0253164556962027,0.012157335462433465,0.010914933559443398,4.8762059858182753e-05,-0.006921680706563058,0.011586509592466772
0.20202020202020202,2.0253164556962027,0.0120348097280077,0.010750766562063918,5.744752477384749e-05,-0.006835672887021485,0.01144736203284327
0.30303030303030304,2.0253164556962027,0.011863268941595126,0.010741985232215001,3.183464410529001e-05,-0.006781576252143038,0.011344398497365425
0.40404040404040403,2.0253164556962027,0.011838114489288737,0.010781880786783334,6.450465394889142e-06,-0.006785998582821621,0.01134693322548535
0.5050505050505051,2.0253164556962027,0.011855712074653703,0.010735198950200704,-1.3097385686040075e-05,-0.006777273307456322,0.011337084815079716
0.6060606060606061,2.0253164556962027,0.01171375208681252,0.010273678513766257,6.747834761552105e-05,-0.006596229180173632,0.011064845006047189
0.7070707070707071,2.0253164556962027,0.011526986638503156,0.010397249319444583,-1.8556061645177678e-05,-0.0065772707873843215,0.01100573911078982
0.8080808080808081,2.0253164556962027,0.011284141169137969,0.01039059816212831,-8.279452687209423e-08,-0.006502421799379883,0.010864961832384962
0.9090909090909091,2.0253164556962027,0.011519025627979705,0.009992084876078751,5.885762537607004e-06,-0.006453333151217536,0.010836546209513312
1.0101010101010102,2.0253164556962027,0.01124123032390641,0.010303008535737943,1.0153594018661251e-05,-0.006463271657893305,0.010802733977545335
1.1111111111111112,2.0253164556962027,0.011231087615089844,0.010025778074563887,4.716109819998488e-06,-0.006377059706896119,0.010679570673881611
1.2121212121212122,2.0253164556962027,0.011240593709904859,0.009848410293820583,9.446289550132135e-05,-0.006326701201117633,0.0106144676353165
1.3131313131313131,2.0253164556962027,0.011046537865810719,0.009877178917538304,-5.578269743859239e-05,-0.006277115035004706,0.010511201948296852
1.4141414141414141,2.0253164556962027,0.010956159390268554,0.009651664270211085,-5.125146420547465e-06,-0.006182347098143892,0.010365662470166773
1.5151515151515151,2.0253164556962027,0.010838592852483052,0.009667004241206974,8.022076703003942e-05,-0.006151679128107009,0.010303817208303423
1.6161616161616161,2.0253164556962027,0.010709130157807854,0.009631688765145453,6.352890322680516e-06,-0.006102245676885992,0.010213129278419369
1.7171717171717171,2.0253164556962027,0.010880530627096109,0.009490488934290773,-0.00011685396800618919,-0.006111305868416065,0.010258398314206801
1.8181818181818181,2.0253164556962027,0.010589810030422437,0.009692553506331036,5.723941484038746e-05,-0.006084709061026042,0.010171391186244336
1.9191919191919191,2.0253164556962027,0.010578682996399963,0.009382869984081794,4.492171375871496e-05,-0.005988465894144528,0.010034661419279087
2.0202020202020203,2.0253164556962027,0.010497430531200138,0.009404082454776603,-8.928794658688112e-06,-0.005970453895793022,0.009995716655900001
2.121212121212121,2.0253164556962027,0.010549363203770463,0.009257423483790399,-4.656515007844117e-05,-0.005942036006268259,0.009966721418866219
2.2222222222222223,2.0253164556962027,0.010536968910636362,0.009532784197548888,6.0015150006495085e-06,-0.0060209259324555744,0.010072494512975608
2.323232323232323,2.0253164556962027,0.010321890924378114,0.009225936296703995,-3.7919642531442596e-05,-0.005864348166324632,0.009820108877890766
2.4242424242424243,2.0253164556962027,0.01036670972667153,0.009392169996182713,7.125221898354682e-05,-0.005927663916856272,0.009916191727493539
2.525252525252525,2.0253164556962027,0.010342800274920438,0.009231123718811263,1.0275532697659029e-05,-0.0058721771981195105,0.009834216311525038
2.6262626262626263,2.0253164556962027,0.010150761269526631,0.009297319563280221,-8.306899842636188e-05,-0.005834424249842055,0.00975315002728947
2.727272727272727,2.0253164556962027,0.010140065204357803,0.009245917894947936,-6.776608414450755e-05,-0.005815794929791722,0.009724581557389318
2.8282828282828283,2.0253164556962027,0.01007422313588141,0.00919100190242766,-0.00013833079405461602,-0.00577956751149272,0.009665903474602965
2.929292929292929,2.0253164556962027,0.010117120911444481,0.009156384615486299,1.2092838211933472e-05,-0.005782051658079234,0.009672626489591359
3.0303030303030303,2.0253164556962027,0.010221494339266918,0.009253000576880737,4.7396766139195953e-05,-0.005842348474844296,0.009773648885954635
3.131313131313131,2.0253164556962027,0.009941399065546926,0.009100381339468224,2.2005181855405833e-05,-0.005712534121504544,0.009548784532283371
3.2323232323232323,2.0253164556962027,0.010118858814244056,0.009061397547855246,-3.324163917777679e-05,-0.005754076908629791,0.009633926603214434
3.3333333333333335,2.0253164556962027,0.010043691799588703,0.009132068862470144,5.376319183098696e-05,-0.005752728198617653,0.009620780268207925
3.4343434343434343,2.0253164556962027,0.00998919191803021,0.00932587861818325,-2.1042810870090816e-05,-0.005794521160864038,0.009674673340982045
3.5353535353535355,2.0253164556962027,0.010121182444327411,0.009043161425149921,4.329738409699794e-05,-0.005749303160843199,0.009627836723046545
3.6363636363636362,2.0253164556962027,0.010232346637065574,0.009235689725858894,3.729120203783573e-05,-0.0058404109088773404,0.009772424244130913
3.7373737373737375,2.0253164556962027,0.009946040310057186,0.009026090754629755,-5.9959788852719725e-05,-0.0056916393194060815,0.009520029159679656
3.8383838383838382,2.0253164556962027,0.009949434076850653,0.009033879393686942,-4.113819637748674e-05,-0.0056949940411612785,0.009524983197737114
3.9393939393939394,2.0253164556962027,0.009991844241213715,0.009087270225851764,1.69393558440991e-05,-0.005723734340119643,0.009571713725823975
4.040404040404041,2.0253164556962027,0.00992208851802346,0.008963880171809623,8.437131128023501e-05,-0.005665790606949925,0.009480502693365249
4.141414141414141,2.0253164556962027,0.010073969448562224,0.008868170182788905,-5.04903118564068e-05,-0.005682641889405338,0.00952886536635813
4.242424242424242,2.0253164556962027,0.010033286079186616,0.008903288222155963,-1.3806542946555582e-05,-0.005680972290402774,0.009518755422696912
4.343434343434343,2.0253164556962027,0.009894296153706163,0.008948995872241218,-2.797858349469153e-05,-0.005652987607784214,0.009457270032297346
4.444444444444445,2.0253164556962027,0.010098834431467116,0.009120940276753375,1.750718689988394e-05,-0.005765932412466147,0.009647178976096325
4.545454545454545,2.0253164556962027,0.009819626510262157,0.008887014036326175,-2.4166056687350423e-05,-0.0056119921639765,0.009388220100189856
4.646464646464646,2.0253164556962027,0.01003530248238257,0.009070963660909656,-1.0721438300085344e-05,-0.005731879842987669,0.009589585932366747
4.747474747474747,2.0253164556962027,0.009880076623100194,0.009030676662695249,-2.1567034943242285e-05,-0.005673225985738634,0.009484020934687802
4.848484848484849,2.0253164556962027,0.00992493044902294,0.00907881205538817,-5.932764948180789e-05,-0.005701122751323333,0.009530637641601152
4.94949494949495,2.0253164556962027,0.009979608727663902,0.00901872983272256,-5.112353906125974e-05,-0.005699501568115939,0.009535959524377345
5.05050505050505,2.0253164556962027,0.01004666296338307,0.00909092871054749,-7.083993222633951e-06,-0.0057412775021791675,0.009604534100618125
5.151515151515151,2.0253164556962027,0.009820944787711564,0.00894910130836193,-7.991465411441577e-05,-0.005631013828822048,0.009416363414682495
5.252525252525253,2.0253164556962027,0.010014449283327223,0.00889264153590269,1.024044976257783e-05,-0.0056721272457689745,0.009503350718495153
5.353535353535354,2.0253164556962027,0.009979114160717334,0.008871666034769675,-0.00011832931647287122,-0.005655234058646103,0.009476276430634603
5.454545454545454,2.0253164556962027,0.009914235716268009,0.008995673988438493,4.3753587309700736e-05,-0.005672972911411951,0.009488663294959968
5.555555555555555,2.0253164556962027,0.009889997699787781,0.008869895687825176,-6.553694449774402e-05,-0.005627968016283886,0.00942214101667137
5.656565656565657,2.0253164556962027,0.009898113976331977,0.008943953492975774,8.785219178792921e-06,-0.005652620240792325,0.009457215490867981
5.757575757575758,2.0253164556962027,0.010001041817107753,0.008914043384146158,4.16507318627041e-05,-0.005674525560376173,0.009504551046104887
5.858585858585858,2.0253164556962027,0.010076463675544408,0.008899662960181368,1.7197686114183028e-05,-0.005692837990717732,0.009542687134542217
5.959595959595959,2.0253164556962027,0.010007926055402584,0.009062548493921038,-2.4297192507399203e-05,-0.005721142364797086,0.009570414045123954
6.0606060606060606,2.0253164556962027,0.010100795265284486,0.00912167238153648,6.618355350432474e-05,-0.005766740294046289,0.009649246997182856
6.161616161616162,2.0253164556962027,0.010095390645606196,0.009024958023198637,-1.2328238684553977e-05,-0.0057361046006414495,0.009605038196691859
6.262626262626262,2.0253164556962027,0.009982783498285023,0.00913428508569648,7.203026825923362e-05,-0.005735120575194451,0.009587549481328563
6.363636363636363,2.0253164556962027,0.009989503606196026,0.0089632394122657,-7.356690527114408e-05,-0.0056858229055385175,0.009518811212353333
6.4646464646464645,2.0253164556962027,0.010054231428366018,0.009085724616704309,5.3196415603466244e-05,-0.005741986813521099,0.009607105339845169
6.565656565656566,2.0253164556962027,0.009830377845973216,0.008937454079113947,-4.266411866454063e-05,-0.005630349577526149,0.009416014237096879
6.666666666666667,2.0253164556962027,0.010202190482556486,0.009049658316569243,3.97506950665907e-05,-0.005775554639737719,0.009677779119953139
6.767676767676767,2.0253164556962027,0.010195776494995017,0.008988861702367287,-4.17776402607973e-05,-0.005755391459208691,0.009649368077345698
6.8686868686868685,2.0253164556962027,0.010257000359308483,0.009084193579298955,-1.845099386450128e-05,-0.0058023581815822315,0.009723840489624316
6.96969696969697,2.0253164556962027,0.010230975587631037,0.00921608797620542,-3.690309052188201e-05,-0.005834119069150937,0.009763383300685933
7.070707070707071,2.0253164556962027,0.010246848341866262,0.00919030894075197,7.272982668185534e-05,-0.005831147184785469,0.009762368888746084
7.171717171717171,2.0253164556962027,0.010276023500771886,0.009160446256496615,-2.1713079656133205e-05,-0.005830940927180551,0.00976621154648753
7.2727272727272725,2.0253164556962027,0.010311265870460124,0.009306549832881088,-7.041272218426527e-06,-0.005885344711002364,0.009847431782867806
7.373737373737374,2.0253164556962027,0.01048311083936371,0.009283736314897624,5.783051186296523e-05,-0.0059300541462784006,0.009938358473447366
7.474747474747475,2.0253164556962027,0.010435336492305238,0.00915628262458479,-3.245343921863224e-05,-0.005877485735067009,0.009858398890279904
7.575757575757575,2.0253164556962027,0.010450348223498825,0.009338149881327884,5.162759471393267e-05,-0.005936549431448013,0.00994142340920234
7.6767676767676765,2.0253164556962027,0.01048356015058692,0.009280460176267998,-6.275549997014191e-05,-0.0059292060980564755,0.009937380277999215
7.777777777777778,2.0253164556962027,0.010480229731764552,0.009266206331514088,8.396941066372302e-05,-0.005923930818983591,0.00993010455626406
7.878787878787879,2.0253164556962027,0.01056546760627207,0.009619325369336757,-1.7379594629184543e-05,-0.006055437892682648,0.010125648713408934
7.979797979797979,2.0253164556962027,0.010501629159578038,0.009520352537697821,1.0757265138152812e-05,-0.006006594509182758,0.010047012629844686
8.080808080808081,2.0253164556962027,0.010562169713916941,0.00966047814164719,6.820435960336611e-05,-0.006066794356669239,0.010142120727203536
8.181818181818182,2.0253164556962027,0.01070330959273956,0.009444444682856145,-1.4965045914161951e-05,-0.00604432628267871,0.010132730534818625
8.282828282828282,2.0253164556962027,0.010648627834367866,0.009708666299917392,2.234069158770396e-05,-0.006107188240285577,0.010211219280851723
8.383838383838384,2.0253164556962027,0.010785383491393255,0.00968875875536557,-2.51311507839191e-05,-0.006142242674027646,0.010281121498557373
8.484848484848484,2.0253164556962027,0.010910916096273161,0.00976223495187321,7.054048599939117e-05,-0.0062019453144439105,0.0103850528512853
8.585858585858587,2.0253164556962027,0.010869720514280727,0.009910890401003104,-0.0001083742283021661,-0.00623418327458515,0.01042512344352716
8.686868686868687,2.0253164556962027,0.010961440550917662,0.009744616397094574,2.157787790961155e-05,-0.00621181708440367,0.010406588834196446
8.787878787878787,2.0253164556962027,0.011132413698226921,0.010039709712609623,-9.0548094593995e-05,-0.006351637023250964,0.010629430878620219
8.88888888888889,2.0253164556962027,0.01102726901305445,0.010139945246575745,4.045507421797384e-05,-0.006350164277889058,0.01061169907777644
8.98989898989899,2.0253164556962027,0.010930951071546131,0.009935775989165082,-0.00010281466252890963,-0.0062600181182133645,0.010470413898432635
9.09090909090909,2.0253164556962027,0.01125132381718022,0.009960573243648747,6.980693409598324e-05,-0.00636356911824869,0.010665378147831826
9.191919191919192,2.0253164556962027,0.011440701525074017,0.010285137400625028,5.641261878369587e-05,-0.006517751677709713,0.010909356660285438
9.292929292929292,2.0253164556962027,0.011380346551141902,0.010374315332999028,4.335687583910692e-06,-0.006526398565242278,0.010912170220757763
9.393939393939394,2.0253164556962027,0.011673038174336492,0.010256944844558942,-1.2178057704827012e-05,-0.00657899490566863,0.011033379987859988
9.494949494949495,2.0253164556962027,0.011756449919845568,0.010559285223239312,4.593707962954384e-06,-0.006694720542925464,0.011205934790709663
9.595959595959595,2.0253164556962027,0.01193588805297596,0.010511774752087925,-1.4290015237650362e-05,-0.006734298841519165,0.011291416119619067
9.696969696969697,2.0253164556962027,0.012071019087298981,0.01100805331635412,-3.955657858066912e-06,-0.006923721721095931,0.01157619820440213
9.797979797979798,2.0253164556962027,0.012073843334678373,0.01083050928237632,-4.9198068936587476e-05,-0.006871305785116408,0.011503000183681068
9.8989898989899,2.0253164556962027,0.012237022316430788,0.010934109775393292,2.203494004991241e-05,-0.006951339627547224,0.011640445998205289
10.0,2.0253164556962027,0.012361557475427195,0.011050686560847595,-2.9938979456007616e-05,-0.007023673210882436,0.011761155072823918
0.0,2.1265822784810124,0.012364137537371856,0.010891393381979812,2.540999772062059e-05,-0.0069766592758055005,0.011697589414046548
0.10101010101010101,2.1265822784810124,0.012209228069966124,0.01096692754543154,9.325151996610788e-05,-0.006952846684619299,0.011639034227982762
0.20202020202020202,2.1265822784810124,0.01201698211451875,0.010958265541680981,7.89591829253347e-05,-0.006892574296859919,0.011524967048101853
0.30303030303030304,2.1265822784810124,0.012092974642829176,0.010800860276317636,-2.041186724122206e-05,-0.006868150475744044,0.011501536371779572
0.40404040404040403,2.1265822784810124,0.011836671730246799,0.010657492272417015,1.1114703395458994e-05,-0.006748249200799144,0.01129336408250016
0.5050505050505051,2.1265822784810124,0.011642598444535392,0.010345524264235545,1.162205513199973e-05,-0.006596436812631281,0.01105131627238986
0.6060606060606061,2.1265822784810124,0.011600142134798836,0.010481740033781843,-6.661571650365349e-05,-0.006624564650574204,0.011083943812222058
0.7070707070707071,2.1265822784810124,0.011530392807666708,0.010338012003910525,6.0058127112905596e-05,-0.00656052144347317,0.01098334794916947
0.8080808080808081,2.1265822784810124,0.011277740278863404,0.010391070748720869,-5.440496264019529e-05,-0.0065006433082752816,0.010861991515322201
0.9090909090909091,2.1265822784810124,0.011171250845843956,0.010166732117905284,9.00640042492206e-05,-0.0064013948891247716,0.010705536288340816
1.0101010101010102,2.1265822784810124,0.011123285787289086,0.010008332045111226,4.693928659215937e-05,-0.006339485349720094,0.010610149354694747
1.1111111111111112,2.1265822784810124,0.010961443026982376,0.010093156257978653,1.69612668378465e-05,-0.006316379785488308,0.010554162318782518
1.2121212121212122,2.1265822784810124,0.010965730114958312,0.009946399605944626,1.1172522467504904e-05,-0.006273638916270881,0.010493280843315756
1.3131313131313131,2.1265822784810124,0.011048086931898272,0.009986116993232541,-1.4816195942562445e-05,-0.006310261177539244,0.010557268934859813
1.4141414141414141,2.1265822784810124,0.010896636730167787,0.009898858826620727,7.941479858911307e-05,-0.006238648667036555,0.010434498049854272
1.5151515151515151,2.1265822784810124,0.010886414236978562,0.009897833607524859,5.988544924208333e-06,-0.006235274353351026,0.010427335035815503
1.6161616161616161,2.1265822784810124,0.010792814070422672,0.009753476318294997,1.2680396821264642e-05,-0.0061638871166153015,0.01031252451071109
1.7171717171717171,2.1265822784810124,0.010622710756490919,0.00966939150978696,-2.6629796825385898e-05,-0.006087630679883364,0.01017969028134496
1.8181818181818181,2.1265822784810124,0.010672785263310551,0.009666273457375972,-6.603367871617112e-05,-0.006101717616205957,0.010207458462451476
1.9191919191919191,2.1265822784810124,0.0106997879415646,0.00940760336249749,4.177699234545672e-05,-0.006032217391218627,0.010116043591974107
2.0202020202020203,2.1265822784810124,0.010506842927921067,0.009602485653903339,-2.4041074076044668e-05,-0.006032798574547321,0.010085207210661305
2.121212121212121,2.1265822784810124,0.010553760110782524,0.009311447674464285,-5.81061873486362e-05,-0.005959562335574042,0.009991208846623887
2.2222222222222223,2.1265822784810124,0.010539827919988838,0.009388209949873008,8.642269996030963e-06,-0.005978411360958553,0.010013818720347114
2.323232323232323,2.1265822784810124,0.010300973190865821,0.009324872953146855,1.2478301996255487e-05,-0.005887753843203803,0.009849289573199312
2.4242424242424243,2.1265822784810124,0.01057228490081165,0.009344242735246639,-7.410528693845056e-06,-0.005974958290817486,0.010014901331894347
2.525252525252525,2.1265822784810124,0.01030314114658209,0.009216197656347028,1.9881569419834772e-05,-0.0058558016408787345,0.009805020003524453
2.6262626262626263,2.1265822784810124,0.01017346634633791,0.009280882087144353,-9.455045459650731e-06,-0.005836304530044679,0.009757854089465955
2.727272727272727,2.1265822784810124,0.010351118699826441,0.009302884085109172,-2.8998362435526977e-05,-0.005896200835480684,0.009868970358566015
2.8282828282828283,2.1265822784810124,0.010286170594672088,0.009018464956861181,4.550708759496573e-05,-0.005791390665459981,0.009714873098375905
2.929292929292929,2.1265822784810124,0.010210043686404017,0.00908490790844111,-1.450870109509125e-05,-0.005788485478453538,0.009696590568762592
3.0303030303030303,2.1265822784810124,0.010177124644842711,0.009124254471109074,5.8474231448643945e-05,-0.005790413734785535,0.009694197664258187
3.131313131313131,2.1265822784810124,0.010149211387480477,0.009117702244608639,-2.704591803659194e-05,-0.005780074089626734,0.009674900154808515
3.2323232323232323,2.1265822784810124,0.010078219832751893,0.009155386109586409,7.026099370846573e-05,-0.00577008178270149,0.009650721515433813
3.3333333333333335,2.1265822784810124,0.010076714945958779,0.009016424452809048,-2.4754465141584457e-05,-0.005727941819630347,0.0095907243377769
3.4343434343434343,2.1265822784810124,0.010245857349380176,0.009098944619942028,-3.123694718325112e-05,-0.005803440590796661,0.00972341630577399
3.5353535353535355,2.1265822784810124,0.010196037137934936,0.009224075200468652,-1.9024075568160283e-05,-0.005826033701521076,0.009746528051635613
3.6363636363636362,2.1265822784810124,0.010001650726931764,0.009063900241800812,2.065360155012443e-05,-0.005719665290619772,0.009567372686813156
3.7373737373737375,2.1265822784810124,0.00983382364222387,0.00907504050736193,-3.920400015919628e-05,-0.0056726592448757395,0.009477484402628758
3.8383838383838382,2.1265822784810124,0.010109317976940842,0.00893873249492681,-1.3038086052402885e-06,-0.005714415141560296,0.009577826714473462
3.9393939393939394,2.1265822784810124,0.00990586809456624,0.008929728458925604,-9.517142633061511e-05,-0.005650678966047554,0.009457099641213967
4.040404040404041,2.1265822784810124,0.009866904708604842,0.00906081377273431,7.946793059387621e-05,-0.005678315544401746,0.009490569747431132
4.141414141414141,2.1265822784810124,0.009672912295094052,0.009001419300571304,4.865733621539077e-06,-0.005602299478699607,0.009355261262710796
4.242424242424242,2.1265822784810124,0.009970683996857967,0.008987559968528135,-2.6726402198531294e-06,-0.005687473189615831,0.00951728294383967
4.343434343434343,2.1265822784810124,0.009993191045799144,0.009051114800688908,-8.381269972260918e-05,-0.005713291753946415,0.009558143163724317
4.444444444444445,2.1265822784810124,0.009784004625954797,0.008960757701633125,0.00012222201088784313,-0.005623428698276376,0.009401842636583536
4.545454545454545,2.1265822784810124,0.009978328675331207,0.008916909973188437,4.896916268187691e-06,-0.005668571594555892,0.009492235778858332
4.646464646464646,2.1265822784810124,0.009941921755974088,0.008818794144897727,8.037901121769217e-06,-0.005628214770261544,0.009430661208257935
4.747474747474747,2.1265822784810124,0.009915852660835493,0.0091033416230746,3.146084218086334e-05,-0.0057057582851730276,0.009535750510364364
4.848484848484849,2.1265822784810124,0.009988895191280467,0.009029639890160271,6.79442673787792e-05,-0.005705560524432222,0.009546211106033238
4.94949494949495,2.1265822784810124,0.009781519369743462,0.008945600516980921,6.85134677097175e-05,-0.0056181359660173145,0.009392252517102205
5.05050505050505,2.1265822784810124,0.00988905360848953,0.008961082661001277,4.5396061429010936e-05,-0.0056550408808472424,0.009459595092355153
5.151515151515151,2.1265822784810124,0.01013268166976853,0.008880447517032876,-8.05060152477941e-05,-0.005703938756040421,0.009569236218420533
5.252525252525253,2.1265822784810124,0.010013937184402306,0.009077917252225865,2.602042524234159e-05,-0.005727556330988451,0.0095803892212171
5.353535353535354,2.1265822784810124,0.009924568123358853,0.008970352309910957,-6.213851127836392e-05,-0.005668476129980943,0.009484143819693291
5.454545454545454,2.1265822784810124,0.009932278251692862,0.008830960086749584,1.619804667404698e-05,-0.005628971501532734,0.009430018114604703
5.555555555555555,2.1265822784810124,0.009870226039326193,0.008859093340679535,-6.55175629572561e-05,-0.005618795814001719,0.00940619587099038
5.656565656565657,2.1265822784810124,0.009840847396583604,0.008810727645245013,3.503410185286181e-05,-0.005595472512548585,0.009368556723246777
5.757575757575758,2.1265822784810124,0.010049111504815541,0.00871538746555583,2.503122490804618e-05,-0.005629349691111411,0.009453179356629317
5.858585858585858,2.1265822784810124,0.009859874399455527,0.008900258347878026,-3.739839178056965e-05,-0.005628039824200066,0.009417031821033177
5.959595959595959,2.1265822784810124,0.010066036291111921,0.00907552885218134,1.7372176816917823e-05,-0.005742469542987978,0.00960919419885193
6.0606060606060606,2.1265822784810124,0.00991023252845245,0.009146272016758087,2.6678840919360622e-05,-0.005716951363563161,0.009551306371362877
6.161616161616162,2.1265822784810124,0.010030114932095768,0.00910940442456652,1.4719391826219212e-05,-0.005741855806998687,0.009602954293419596
6.262626262626262,2.1265822784810124,0.01005410564548956,0.009017561854206359,2.1776550540344574e-05,-0.005721500249908775,0.009578066883909065
6.363636363636363,2.1265822784810124,0.009958258384819507,0.009086920003642203,9.128484521748121e-05,-0.005713553516538513,0.00955374935100696
6.4646464646464645,2.1265822784810124,0.010017890321382436,0.009094749715614643,-1.3975385588438653e-05,-0.005733792011099124,0.009589733034014865
6.565656565656566,2.1265822784810124,0.010168852574133457,0.00912664369149704,-1.146837985883425e-06,-0.005788648879689149,0.009689876031004572
6.666666666666667,2.1265822784810124,0.010270619780456432,0.008958981635302999,-5.4182965839885945e-05,-0.00576888042472783,0.009682122494653332
6.767676767676767,2.1265822784810124,0.009960705770410435,0.00915338662917595,-0.00012235347440472155,-0.005734227719875915,0.009584929124929977
6.8686868686868685,2.1265822784810124,0.010360345417096942,0.009172094457502066,-1.223003913844038e-05,-0.005859731962379703,0.009820308337446026
6.96969696969697,2.1265822784810124,0.010212409561610701,0.009332999564667344,2.590500086031394e-06,-0.005863622737883413,0.009802336255582814
7.070707070707071,2.1265822784810124,0.010160234739549131,0.009091051371448356,-3.9586629826633606e-05,-0.0057753858332992465,0.009670319040322391
7.171717171717171,2.1265822784810124,0.010059290440865279,0.009107564283467848,-4.158186665914035e-05,-0.005750056417299938,0.009619075016332558
7.2727272727272725,2.1265822784810124,0.010251434334755383,0.00937983602558041,-6.105359537054808e-05,-0.005889381108100738,0.009845183559695075
7.373737373737374,2.1265822784810124,0.010294059667661552,0.009373640791535501,-4.274777639156574e-06,-0.0059003101377591155,0.009866105783945023
7.474747474747475,2.1265822784810124,0.010388419747621787,0.00927572185398906,2.7086070905939433e-05,-0.005899242480483254,0.009879290948728709
7.575757575757575,2.1265822784810124,0.01009156915836786,0.009261244999586969,1.9938968799092047e-05,-0.005805844247386448,0.009703150277204097
7.6767676767676765,2.1265822784810124,0.010431411887176674,0.00943368835240951,4.763719986756875e-06,-0.005959530071875855,0.009970065654255107
7.777777777777778,2.1265822784810124,0.010280699869138129,0.009582679702145842,-1.1067043638225416e-05,-0.005959013871385191,0.0099500881177875
7.878787878787879,2.1265822784810124,0.010396552987424899,0.009252458746629326,-4.2730612896980664e-05,-0.005894703520216267,0.009874619332964284
7.979797979797979,2.1265822784810124,0.010346093270383782,0.009498566057999968,1.4669818418496564e-05,-0.005953397798515126,0.009949472265272045
8.080808080808081,2.1265822784810124,0.010611652794779762,0.009504615264651142,1.1410520296991224e-05,-0.0060348804178292715,0.010103741872666548
8.181818181818182,2.1265822784810124,0.010691950868046883,0.00961815150639047,9.55600307168778e-06,-0.0060930307123312055,0.010197554724954205
8.282828282828282,2.1265822784810124,0.010680216973506585,0.009529626140594305,5.6440768844997326e-05,-0.006062952934230267,0.010154402533083497
8.383838383838384,2.1265822784810124,0.010802755763069402,0.009645101167849035,2.8811968977196812e-05,-0.006134357079275531,0.010273087499718498
8.484848484848484,2.1265822784810124,0.010715649589735397,0.009747528292356167,-4.08886721204682e-05,-0.00613895336462747,0.010266127412217475
8.585858585858587,2.1265822784810124,0.010898603208213179,0.00989005571110193,-5.656289245729006e-05,-0.006236597675794533,0.010431421717041324
8.686868686868687,2.1265822784810124,0.010909107477672987,0.0097217838517517,-5.2093318824226755e-05,-0.006189267398827406,0.010366960183570409
8.787878787878787,2.1265822784810124,0.011280584325079931,0.010133790546131208,6.98972487375262e-05,-0.006424312461363341,0.010753830556406848
8.88888888888889,2.1265822784810124,0.011152272742327104,0.01010733525426042,-1.6393658436082303e-05,-0.006377882398976257,0.010668292274948607
8.98989898989899,2.1265822784810124,0.011332793937786564,0.010227416050250746,-8.061548803348766e-05,-0.006468062996411192,0.010823426234722924
9.09090909090909,2.1265822784810124,0.011077161163497582,0.010136490686657774,6.873855653347666e-05,-0.006364095555046607,0.010638730040839527
9.191919191919192,2.1265822784810124,0.011262549321740893,0.010203790816935022,8.429159723674775e-05,-0.006439902041602774,0.010773253089761256
9.292929292929292,2.1265822784810124,0.011393210965208723,0.010202700881029984,3.161543555534533e-05,-0.006478773553871612,0.010847204083095462
9.393939393939394,2.1265822784810124,0.011492034853436198,0.010490569019819828,1.3178034252962129e-05,-0.006594781161976808,0.01102549044740454
9.494949494949495,2.1265822784810124,0.011790100059704198,0.010433815095319925,-1.4454420443025473e-05,-0.006667174546507237,0.01117389187676791
9.595959595959595,2.1265822784810124,0.011738833849155032,0.010692768573800672,5.299741506114787e-05,-0.006729480726886711,0.011252702449350742
9.696969696969697,2.1265822784810124,0.011971534144707162,0.01083841814254801,2.019985641985743e-05,-0.0068429856861765516,0.01144716859511881
9.797979797979798,2.1265822784810124,0.011991307556963073,0.010792381774676835,-6.707274546503624e-05,-0.006835106799491971,0.011439654209078883
9.8989898989899,2.1265822784810124,0.012292986642846861,0.011028597992709444,-3.748420396092269e-05,-0.0069964753906668915,0.011712271413732734
10.0,2.1265822784810124,0.012374736416478894,0.011087888174978846,-6.800238462957391e-05,-0.007038787377437321,0.011784716583369928
0.0,2.2278481012658227,0.01222720041030281,0.011142613215369348,-2.571801857776447e-05,-0.007010944087701647,0.011722682223435983
0.10101010101010101,2.2278481012658227,0.012188002781797111,0.010885286416908056,-2.7387751217942958e-05,-0.00692198675961155,0.011591773864427902
0.20202020202020202,2.2278481012658227,0.012063319236165574,0.010947956599177742,4.434423271582892e-05,-0.006903382750602995,0.011546368627602388
0.30303030303030304,2.2278481012658227,0.011931181581017703,0.011009758360119923,3.521755663666642e-05,-0.006882281982341288,0.011498355001417139
0.40404040404040403,2.2278481012658227,0.011919245961076633,0.010466899232998384,-4.58536153329351e-05,-0.006715843558222505,0.011263798874650996
0.5050505050505051,2.2278481012658227,0.011592211416946382,0.01050118113224863,3.2735774267878155e-05,-0.006628017764758504,0.011087176096173133
0.6060606060606061,2.2278481012658227,0.011711937639103748,0.010535544808548939,6.364953898136719e-05,-0.006674244734295805,0.011170841404071886
0.7070707070707071,2.2278481012658227,0.011472222183836422,0.010366960465855213,-1.731991092690882e-05,-0.0065517547949074904,0.010961504332823925
0.8080808080808081,2.2278481012658227,0.011376987380841835,0.010226423696012987,7.09800945534794e-05,-0.006481023323056447,0.010848262748246703
0.9090909090909091,2.2278481012658227,0.011288601489021511,0.010122669621148085,3.9132976448984695e-05,-0.006423381333050879,0.010753361086108157
1.0101010101010102,2.2278481012658227,0.011118681774071427,0.01018461816014704,-2.1704981454329687e-05,-0.0063909899802655394,0.010682388144353351
1.1111111111111112,2.2278481012658227,0.011113842918147822,0.010078866694995232,-3.302075952097301e-05,-0.006357812883942916,0.010634349445795823
1.2121212121212122,2.2278481012658227,0.010913825027358855,0.00988774002524788,1.8123570759140406e-05,-0.00624046951578202,0.010438721203987414
1.3131313131313131,2.2278481012658227,0.010996960989436262,0.009915224630012523,-7.528300745423548e-05,-0.006273655685834635,0.010498785387018763
1.4141414141414141,2.2278481012658227,0.010956363614068737,0.009860908876142237,6.322871886277996e-05,-0.006245181747063292,0.01045235465853149
1.5151515151515151,2.2278481012658227,0.010978446596648421,0.009822976968027202,-5.7819050054658216e-05,-0.006240427069402687,0.01044921849967297
1.6161616161616161,2.2278481012658227,0.010631015748519993,0.00958565908188565,1.0210773758260737e-05,-0.006065002449121693,0.010148811556022172
1.7171717171717171,2.2278481012658227,0.01067146314904471,0.009510033994775896,1.1650456351283546e-05,-0.006054449143146182,0.010140774240717451
1.8181818181818181,2.2278481012658227,0.010645065596179892,0.009582205641805282,9.556672035836695e-05,-0.006068181371395552,0.010156784820494901
1.9191919191919191,2.2278481012658227,0.010666670097303502,0.009454536911437042,2.4663267570714284e-05,-0.006036362102622163,0.01011531106035095
2.0202020202020203,2.2278481012658227,0.010499429136840405,0.009489979578828725,-1.4333439347256502e-05,-0.005996822614700738,0.010032894539991701
2.121212121212121,2.2278481012658227,0.010338611315735744,0.009546198492618679,-3.869356502462375e-05,-0.005965442942506326,0.009966285437223353
2.2222222222222223,2.2278481012658227,0.010586064187101417,0.009482260164659464,-4.326550930420197e-05,-0.006020497305528265,0.010079871714199792
2.323232323232323,2.2278481012658227,0.010559942942820527,0.00943007364159138,0.00011781934480912593,-0.005997004975323572,0.010044863783730198
2.4242424242424243,2.2278481012658227,0.010558651506490473,0.009317759531502417,5.696446961453553e-06,-0.005962923311397867,0.00999614355421768
2.525252525252525,2.2278481012658227,0.010308662824640755,0.009271533489620717,7.892232835280665e-06,-0.005874058894278442,0.009831222545108079
2.6262626262626263,2.2278481012658227,0.010389940455479581,0.009308724240531207,-3.95959476895855e-05,-0.005909599408803237,0.009893979108340903
2.727272727272727,2.2278481012658227,0.010241962316290263,0.009101041520215746,-3.560298982697383e-05,-0.005802901150951802,0.009722038226144345
2.8282828282828283,2.2278481012658227,0.010244010924551426,0.009169498983477718,-6.359110419622999e-06,-0.005824052972408743,0.00975126376352188
2.929292929292929,2.2278481012658227,0.010082957140784877,0.009199323474593298,-2.7007280501634358e-05,-0.005784684184613452,0.00967157592919416
3.0303030303030303,2.2278481012658227,0.010143083963352242,0.009181358423023851,3.938754691862069e-05,-0.005797332715912829,0.00969829157809967
3.131313131313131,2.2278481012658227,0.010221802575496139,0.008996757468711855,3.976741709726122e-05,-0.005765568013262398,0.009667913866022846
3.2323232323232323,2.2278481012658227,0.010171781467949663,0.009057426971942163,-2.5683447675979584e-05,-0.0057687625319675475,0.009663018818243831
3.3333333333333335,2.2278481012658227,0.010040574921858607,0.009108995930637171,8.689223760762034e-05,-0.005744871255748734,0.009609893147388384
3.4343434343434343,2.2278481012658227,0.010098618184649317,0.00899938083500254,3.294469756007816e-05,-0.005729399705895557,0.009596504038507547
3.5353535353535355,2.2278481012658227,0.01008204099054893,0.009181754345861293,6.360580518746596e-06,-0.005779138600923067,0.00966340835801121
3.6363636363636362,2.2278481012658227,0.009849891738929499,0.009023090238460997,4.481308076202476e-05,-0.005661894593217149,0.009463936145031384
3.7373737373737375,2.2278481012658227,0.010193648951984765,0.00899963524847185,2.5284993514623368e-05,-0.005757985260136984,0.009652290356992891
3.8383838383838382,2.2278481012658227,0.009926994621605944,0.00910488380537486,5.901439788691454e-05,-0.005709563528094241,0.009543083718481218
3.9393939393939394,2.2278481012658227,0.010085908943903626,0.00899623197085042,-3.533550265748368e-05,-0.005724642274426214,0.00958782134768262
4.040404040404041,2.2278481012658227,0.009935386607183015,0.00892485036539459,8.521735685643283e-05,-0.0056580710917732814,0.009471790130759364
4.141414141414141,2.2278481012658227,0.010010133906518948,0.00889620947645629,-4.6846903431851266e-05,-0.005671903014892571,0.009502613306493334
4.242424242424242,2.2278481012658227,0.009875151429925124,0.008933377818067252,-2.5602151721148404e-05,-0.005642558774397712,0.009439669627728414
4.343434343434343,2.2278481012658227,0.010043493657091623,0.009075646769188622,-0.00010369644267078733,-0.005735742127884074,0.009597926193477487
4.444444444444445,2.2278481012658227,0.009937711694246365,0.0091994485036287,3.3372190137696615e-05,-0.005741148059362519,0.00959009075155042
4.545454545454545,2.2278481012658227,0.009755319496015435,0.009084548689230861,-4.529641764707963e-05,-0.005651960455573889,0.009438154677273767
4.646464646464646,2.2278481012658227,0.009944592258826188,0.008755859018168338,5.143334042029392e-05,-0.005610135383098357,0.00940714997724686
4.747474747474747,2.2278481012658227,0.009987104860343342,0.009108950304625179,3.717440787279101e-05,-0.005728816549490556,0.009578483339938465
4.848484848484849,2.2278481012658227,0.009984217775406083,0.00883238201021434,2.6754577257283957e-06,-0.005644979935686126,0.0094610344344451
4.94949494949495,2.2278481012658227,0.00992992851084692,0.008931693922342958,-9.27036399409444e-06,-0.005658486729956963,0.009470364947680892
5.05050505050505,2.2278481012658227,0.010022868956392275,0.009020316606115386,-1.5089037918425712e-06,-0.005712955668752299,0.009561096659572126
5.151515151515151,2.2278481012658227,0.009596014577507382,0.008932700963396016,7.41377333505034e-05,-0.00555861466227102,0.009283038447752273
5.252525252525253,2.2278481012658227,0.009907000792386909,0.008864843508276557,9.143386990677489e-05,-0.005631553290199039,0.009430545261192719
5.353535353535354,2.2278481012658227,0.009851149802517027,0.008765163842914545,-1.678354490422477e-05,-0.005584894093629471,0.009355594723305912
5.454545454545454,2.2278481012658227,0.009903084955335538,0.008901818120626313,4.748518376396147e-05,-0.005641470922788556,0.009442709405029238
5.555555555555555,2.2278481012658227,0.009910718765938662,0.008825516034278157,-1.5489385510442715e-05,-0.005620870440065046,0.009415178814659177
5.656565656565657,2.2278481012658227,0.010266955769625639,0.009048412430667287,1.3368399937780482e-05,-0.005794610460087878,0.009715196046517141
5.757575757575758,2.2278481012658227,0.009926694720450139,0.00898243689494757,4.1162194474002104e-05,-0.005672739484619312,0.009490132492312063
5.858585858585858,2.2278481012658227,0.01000990789307213,0.008706908524322444,-4.885844883995919e-05,-0.005615044925218372,0.009426575261509529
5.959595959595959,2.2278481012658227,0.01002164805653203,0.009048334053244947,7.873634450525292e-07,-0.005720994632933093,0.009572176418577601
6.0606060606060606,2.2278481012658227,0.009980450004861164,0.009086738198168777,6.929301122540109e-05,-0.005720156460908982,0.009565712814616647
6.161616161616162,2.2278481012658227,0.009865250926464713,0.00900049317377777,-2.259806768931292e-05,-0.005659723230072745,0.009462635024667945
6.262626262626262,2.2278481012658227,0.010058921042029479,0.008910241293803564,-6.557887179620455e-05,-0.005690748700749913,0.009537283710211373
6.363636363636363,2.2278481012658227,0.01002539160962757,0.009036422785887408,-3.264235438170077e-05,-0.005718544318654493,0.009569479248261722
6.4646464646464645,2.2278481012658227,0.00986828170842888,0.008991887052925113,1.945146594363433e-05,-0.005658050628406197,0.009460638308244163
6.565656565656566,2.2278481012658227,0.010230581302290894,0.008873905596308284,-3.885671609557537e-06,-0.005731346069579753,0.009624231238827392
6.666666666666667,2.2278481012658227,0.010043607903769314,0.009146891814614267,-1.1270736618711739e-05,-0.005757149915515074,0.009626644054770282
6.767676767676767,2.2278481012658227,0.010109064397925548,0.009045174689929858,-8.222697396129315e-05,-0.005746271726356622,0.009622390480930755
6.8686868686868685,2.2278481012658227,0.010336870435578899,0.009053573011866767,9.590490185661476e-05,-0.005817133034233699,0.009760125856310828
6.96969696969697,2.2278481012658227,0.010224566016071635,0.009023146964101678,-3.516571108475585e-05,-0.005774313894051993,0.009680128068745714
7.070707070707071,2.2278481012658227,0.00998554034848074,0.00912449340278724,2.3959317759743484e-05,-0.005733010125380394,0.009584159901753984
7.171717171717171,2.2278481012658227,0.010221968748357502,0.009185936514402965,-8.835701022076058e-05,-0.005822371578828141,0.009746545010832375
7.2727272727272725,2.2278481012658227,0.010461397860486648,0.009445448539014927,2.858881470032717e-05,-0.0059720539198504724,0.009992357085401036
7.373737373737374,2.2278481012658227,0.010248973093537655,0.009291042568788432,2.8673749560784736e-05,-0.005862004698697826,0.009805291568352956
7.474747474747475,2.2278481012658227,0.010370036145086026,0.009392828256734466,-8.438393744315803e-05,-0.005928859320546148,0.009918682661053006
7.575757575757575,2.2278481012658227,0.010314141381727369,0.009237091071791204,-5.257077753417164e-05,-0.005865369736055571,0.009820437449545274
7.6767676767676765,2.2278481012658227,0.010350982561916279,0.009367533694771842,-3.81018542479626e-05,-0.005915554877006436,0.009896196484050102
7.777777777777778,2.2278481012658227,0.010398936759346663,0.009358282272735968,2.0596718888183724e-05,-0.005927165709624789,0.009919698582380725
7.878787878787879,2.2278481012658227,0.010480116392284073,0.009377376680942618,5.557045565495944e-05,-0.005957247921968008,0.009975033742708025
7.979797979797979,2.2278481012658227,0.010527631166424401,0.009404722246963372,5.995862179158212e-06,-0.005979706024016333,0.01001351483402264
8.080808080808081,2.2278481012658227,0.01063659457042637,0.009475976447439903,-6.186980832562906e-05,-0.006033771305359882,0.010106959863246653
8.181818181818182,2.2278481012658227,0.010618086385440477,0.009742779082990835,9.095965907186529e-05,-0.006108259640529394,0.01020983123219558
8.282828282828282,2.2278481012658227,0.01081747461424291,0.009566146262098478,2.785310990861955e-05,-0.006115086262902416,0.010249375316499061
8.383838383838384,2.2278481012658227,0.01072787581947521,0.009716594331097537,-2.36044001779002e-05,-0.006133341045171824,0.010259765061836932
8.484848484848484,2.2278481012658227,0.01077119251835492,0.009567487262975946,-8.840828283662524e-05,-0.00610160393439926,0.010223776290670283
8.585858585858587,2.2278481012658227,0.010782640957713177,0.009753877891073183,5.6536160403589244e-05,-0.006160955654635908,0.010307303512771942
8.686868686868687,2.2278481012658227,0.011166696584499924,0.009920197919210533,4.084831190299231e-05,-0.006326068351113137,0.010598802050153391
8.787878787878787,2.2278481012658227,0.011091879928606165,0.00991205412230913,-2.8177537875718972e-05,-0.006301180215274588,0.010551667404947205
8.88888888888889,2.2278481012658227,0.011162512150561736,0.009974433217003654,-3.455597739095068e-05,-0.006341083610269618,0.010618608471869313
8.98989898989899,2.2278481012658227,0.01114651114692626,0.010316237980137066,2.2811350650042763e-05,-0.006438824738118998,0.010755509111361836
9.09090909090909,2.2278481012658227,0.011282485445244048,0.010143957278534007,3.2870178380802565e-06,-0.006427932817133416,0.010758500320773724
9.191919191919192,2.2278481012658227,0.011382875940517836,0.010397616520853482,-0.00012400675846920245,-0.006534147738411395,0.010925733297423534
9.292929292929292,2.2278481012658227,0.011571649564253151,0.010249194424549288,-5.990234662396869e-05,-0.006546253196640732,0.010970858611189186
9.393939393939394,2.2278481012658227,0.011798270922258818,0.01041102091637555,1.4290660730188495e-05,-0.006662787551590311,0.01116947270897232
9.494949494949495,2.2278481012658227,0.0115701720185578,0.010618652682757235,-5.335354374599583e-05,-0.006656647410394511,0.011125356937784719
9.595959595959595,2.2278481012658227,0.011759967095617462,0.010641558685281051,-4.3180628765025854e-05,-0.006720457734269553,0.01124281152814545
9.696969696969697,2.2278481012658227,0.011841896040562842,0.010633495905331304,-6.279941666822695e-05,-0.006742617583768243,0.01128684257202665
9.797979797979798,2.2278481012658227,0.011902841112848958,0.010827791400729179,2.101266986910798e-05,-0.0068191897540734415,0.01140344409055289
9.8989898989899,2.2278481012658227,0.012285125599223765,0.010882436710714526,-5.3537975007381993e-05,-0.006950268692981488,0.011647670877861482
10.0,2.2278481012658227,0.012216693523541084,0.011067171206015672,-2.7840785289678737e-05,-0.0069851594188670265,0.011684518204997487
0.0,2.329113924050633,0.0120924624506224,0.011225131873668524,-0.00017198781353981263,-0.006995278297287277,0.01168676548234622
0.10101010101010101,2.329113924050633,0.01216634669052686,0.010989818101477599,2.8286431091993516e-06,-0.006946849437601338,0.011622830146436792
0.20202020202020202,2.329113924050633,0.011922507785508173,0.010792883266595834,-4.504972123538105e-06,-0.006814617315631202,0.011399752068010915
0.30303030303030304,2.329113924050633,0.011909437951504644,0.010802351682592339,-1.8627106446113432e-05,-0.006813536890229095,0.0113963423083138
0.40404040404040403,2.329113924050633,0.011918345703327652,0.01054182313138428,8.961670398002203e-05,-0.00673805065041358,0.011294246334976946
0.5050505050505051,2.329113924050633,0.011817353952973165,0.010525260947864748,6.296700441083968e-05,-0.006702784470251374,0.011227739440025633
0.6060606060606061,2.329113924050633,0.011758685728556489,0.010495335572456946,2.2250612655139615e-05,-0.00667620639030403,0.0111807375203279
0.7070707070707071,2.329113924050633,0.011624882710342795,0.010249960404680786,-8.149814462402446e-06,-0.006562452934507073,0.011002054267049683
0.8080808080808081,2.329113924050633,0.011477696478505432,0.010298935891011048,5.8713717969888645e-05,-0.006532989710854944,0.010936538695276233
0.9090909090909091,2.329113924050633,0.01146622902303409,0.010042796850075078,-5.780543111278537e-05,-0.006452707761932751,0.010825395709597844
1.0101010101010102,2.329113924050633,0.01130811807269007,0.009986808696011672,-6.285738549240545e-05,-0.0063884780306105214,0.010709328808356712
1.1111111111111112,2.329113924050633,0.011102592580128981,0.010202873996272304,4.6644072765524886e-06,-0.006391639972920385,0.010681194311837353
1.2121212121212122,2.329113924050633,0.011192243160868346,0.009985344632670572,-9.939280525798426e-06,-0.006353276338061676,0.010640268116884025
1.3131313131313131,2.329113924050633,0.010993347413757045,0.00975356556162526,-4.0579670143756384e-05,-0.0062240738926146915,0.010429109929019114
1.4141414141414141,2.329113924050633,0.010879696528936854,0.009659598041950183,2.145252151911062e-05,-0.006161788371266111,0.010323929302252914
1.5151515151515151,2.329113924050633,0.010776829600405546,0.00960389278708689,7.073238382688888e-05,-0.006114216716247731,0.010241596850364836
1.6161616161616161,2.329113924050633,0.010784439420522377,0.00957548197002634,3.139135371427534e-05,-0.0061079764171646156,0.010233803769685409
1.7171717171717171,2.329113924050633,0.01089898365811393,0.009601763366284596,-4.4009895731434105e-05,-0.006150224107319557,0.010312034383016451
1.8181818181818181,2.329113924050633,0.010550306932810182,0.009581805565227681,-0.00013252388082787963,-0.0060396337494113585,0.010103547511623777
1.9191919191919191,2.329113924050633,0.010687314912623778,0.009646587335939441,0.00010238255046629095,-0.006100170674568966,0.010208363097975329
2.0202020202020203,2.329113924050633,0.010536478599424002,0.009548495554081323,5.0469644299185944e-05,-0.006025492246051597,0.010079249531346307
2.121212121212121,2.329113924050633,0.01060542255569158,0.009428112239738719,1.779936581441263e-05,-0.006010060438629089,0.010068571111991814
2.2222222222222223,2.329113924050633,0.010359318802887419,0.009605013183079663,-9.14372193094817e-05,-0.005989299595790124,0.010004771508273311
2.323232323232323,2.329113924050633,0.010358742522966284,0.009457734202310518,2.6720759085035153e-05,-0.005944943017583041,0.00993902366649641
2.4242424242424243,2.329113924050633,0.010310930948040007,0.009310638309980706,6.385072025828087e-05,-0.0058864707774062145,0.009849576884393313
2.525252525252525,2.329113924050633,0.01048081149800252,0.009146508721807672,8.316003593524386e-05,-0.005888196065943058,0.009882506992225896
2.6262626262626263,2.329113924050633,0.010181845674804428,0.009239189182321993,2.5822525225002485e-05,-0.005826310457137927,0.009744875580835873
2.727272727272727,2.329113924050633,0.010170951650001843,0.009324960837153933,0.00010072488783705831,-0.005848773746146734,0.009777006841429837
2.8282828282828283,2.329113924050633,0.010401754837289386,0.009126922005164219,7.154122574718379e-06,-0.0058586030527360815,0.009826563865922492
2.929292929292929,2.329113924050633,0.010167916289658959,0.009004166568997688,8.077991473812345e-06,-0.005751624857596994,0.009638885885095443
3.0303030303030303,2.329113924050633,0.01014074437421426,0.009225902753364486,4.217278111832219e-05,-0.005809994138273624,0.009715955550787045
3.131313131313131,2.329113924050633,0.01038884083797899,0.009262933935568558,-4.9777953624576076e-05,-0.005895532432064265,0.009874525114466655
3.2323232323232323,2.329113924050633,0.010121061997573892,0.009152315115165226,1.5675273718032027e-05,-0.005782013133821735,0.009673177159895026
3.3333333333333335,2.329113924050633,0.010157660260196896,0.009214535004676195,3.607421531221429e-05,-0.005811658579461927,0.009720674119001458
3.4343434343434343,2.329113924050633,0.010062025707660337,0.008975877451265874,-0.00010541965192346564,-0.005711370947677863,0.0095670563710762
3.5353535353535355,2.329113924050633,0.009923212560762437,0.00883075912698338,-9.3931244988848e-05,-0.005626191506323745,0.009425997222112901
3.6363636363636362,2.329113924050633,0.009933212326345725,0.009005181347506577,3.365964981272976e-05,-0.00568151810215569,0.009503421424718186
3.7373737373737375,2.329113924050633,0.009997637265866086,0.008872118374045503,1.349870082705119e-06,-0.005660926691973477,0.009485094597621327
3.8383838383838382,2.329113924050633,0.009917766934899236,0.009012236193275413,-2.023541127593955e-06,-0.005679000938452395,0.009497434197474123
3.9393939393939394,2.329113924050633,0.010127602998676533,0.00920624861632114,-8.464537986620865e-05,-0.005800155484499302,0.009700908179758185
4.040404040404041,2.329113924050633,0.01016229480362826,0.008936451829963436,1.8831414856230582e-05,-0.005729623990077508,0.009608257534909832
4.141414141414141,2.329113924050633,0.01009125707377145,0.008840576241018909,-8.24536143297475e-06,-0.005679549994437107,0.009527693006796973
4.242424242424242,2.329113924050633,0.010047537458368037,0.008891526478367183,-4.116500331569159e-05,-0.005681719181020566,0.009522572678212647
4.343434343434343,2.329113924050633,0.009895896798432932,0.009087924975745029,-5.7882699918410175e-05,-0.005695146532253389,0.009518195068340483
4.444444444444445,2.329113924050633,0.009861666899908469,0.009148231594529481,9.754100162428756e-05,-0.005702969548331385,0.009526507512431986
4.545454545454545,2.329113924050633,0.009900173166920252,0.00896966146937932,-1.8249160105255918e-05,-0.005660950390889871,0.009469321671075588
4.646464646464646,2.329113924050633,0.009906579878415795,0.008901530166292158,-1.960206828033121e-05,-0.005642433013412386,0.009444310312541806
4.747474747474747,2.329113924050633,0.009928310016969616,0.008992108977597798,-6.587065963006578e-05,-0.005676125698370224,0.009495574487806822
4.848484848484849,2.329113924050633,0.009896697983482123,0.00897155194112905,-4.8319467903027924e-05,-0.005660474977383352,0.009468454969903688
4.94949494949495,2.329113924050633,0.009963443156569293,0.008984117423765295,4.225406545505653e-05,-0.005684268174100377,0.009511949241491135
5.05050505050505,2.329113924050633,0.009866716347658412,0.009095017605386505,5.3400690440708936e-05,-0.005688520185913475,0.009504842594138568
5.151515151515151,2.329113924050633,0.009907649865862723,0.008850892679178329,-7.54269194074731e-05,-0.005627562763512315,0.009424720106069439
5.252525252525253,2.329113924050633,0.009798453905654422,0.008926023192566697,4.0095350649039056e-05,-0.0056173431294663356,0.009392932719536368
5.353535353535354,2.329113924050633,0.00992938187538781,0.00886633069582849,8.028849890229389e-06,-0.00563871377136489,0.00944285203262278
5.454545454545454,2.329113924050633,0.009842701083294018,0.008813153709241026,4.247122926244992e-05,-0.005596756437760513,0.009370731922990217
5.555555555555555,2.329113924050633,0.009994845436493482,0.008870258322823822,3.5870404692865516e-05,-0.005659531127795191,0.009482901304581017
5.656565656565657,2.329113924050633,0.00993182556827734,0.009155551691849855,-2.4668681819590965e-05,-0.005726213178038158,0.009567432735463111
5.757575757575758,2.329113924050633,0.009803874066227266,0.008879069814542033,1.6022680182190035e-05,-0.005604883164230789,0.009375783453652592
5.858585858585858,2.329113924050633,0.009967875760408819,0.008962679163341434,3.5366673827658825e-05,-0.005679166477125076,0.009505421873025995
5.959595959595959,2.329113924050633,0.009959275824487074,0.00907467284970225,4.0633979273073536e-05,-0.0057101846022567975,0.009548017894358059
6.0606060606060606,2.329113924050633,0.00993664693159274,0.00919013149597082,-6.8390658841914e-05,-0.005738033528269068,0.00958594852232394
6.161616161616162,2.329113924050633,0.010052683125467388,0.00895187647253976,-6.70767327997452e-05,-0.005701367879402145,0.009550688493933196
6.262626262626262,2.329113924050633,0.00970713900856449,0.008977140726868083,-3.919027419264639e-05,-0.005605283920629772,0.009363752349309955
6.363636363636363,2.329113924050633,0.01005134580741965,0.008959445222999952,6.209354715172752e-05,-0.005703237309125881,0.009552920804186347
6.4646464646464645,2.329113924050633,0.010083988170064884,0.009012519074395724,-4.641178784204349e-05,-0.005728952173338183,0.009593573052508474
6.565656565656566,2.329113924050633,0.009992449435311624,0.009246584792514985,2.3508246069551987e-06,-0.005771710268347982,0.009641180510343666
6.666666666666667,2.329113924050633,0.010395553019041992,0.008962961034930172,-0.00010020928327727297,-0.005807554216191649,0.009759988839160131
6.767676767676767,2.329113924050633,0.010234899296525126,0.008990437545776355,-3.929956135832008e-06,-0.005767601052690444,0.009672897926446959
6.8686868686868685,2.329113924050633,0.010068746610685545,0.009077833177310623,-1.8624217470170117e-05,-0.00574397393639885,0.00961172991990969
6.96969696969697,2.329113924050633,0.010111712248704066,0.009156572623824485,-0.00011051691696245163,-0.0057804854617585655,0.009671481852658058
7.070707070707071,2.329113924050633,0.010131108342510955,0.009042296159817427,5.350626790265359e-05,-0.005752021350698514,0.009633409717824606
7.171717171717171,2.329113924050633,0.010072048817665148,0.009081015881191637,-7.322685574376122e-05,-0.005745919409657034,0.009615751040232703
7.2727272727272725,2.329113924050633,0.010217958053257191,0.009189946015138555,-3.753380968299062e-05,-0.005822371220518723,0.009744922678272447
7.373737373737374,2.329113924050633,0.01020086786883851,0.009335799524645541,-2.4505832304186797e-05,-0.0058610002180452155,0.009797111934057407
7.474747474747475,2.329113924050633,0.010519641504847362,0.00927813219893455,2.16446869440402e-06,-0.005939332111134573,0.009957107209366328
7.575757575757575,2.329113924050633,0.010435530565000581,0.009262621298829713,9.492794721307194e-05,-0.005909445559149088,0.00990268235217704
7.6767676767676765,2.329113924050633,0.010360482500591899,0.00949531466743046,1.003175637447902e-05,-0.005956739150406707,0.009956146781635554
7.777777777777778,2.329113924050633,0.010328202246078683,0.009354816959140377,-1.51682853485843e-05,-0.005904905761565718,0.009877581215890751
7.878787878787879,2.329113924050633,0.010348274203754185,0.009367473207947622,5.557222287373079e-05,-0.005914724223510542,0.009894868203336685
7.979797979797979,2.329113924050633,0.010609526833664867,0.009443136355111252,2.0403918095199485e-05,-0.006015798956632836,0.010077148617619495
8.080808080808081,2.329113924050633,0.010717369426914189,0.009461160897993254,9.883863151732162e-05,-0.0060535590974722326,0.010149193250926067
8.181818181818182,2.329113924050633,0.010649390524321095,0.009608674117242009,-4.080786787065446e-05,-0.006077419392468931,0.010169297398623487
8.282828282828282,2.329113924050633,0.010722150906488925,0.009614416469046417,-4.614477294583712e-05,-0.0061009702126606025,0.010213749941282822
8.383838383838384,2.329113924050633,0.01070112138060587,0.009657866511180167,-4.868547799424006e-05,-0.006107696367535811,0.01021985779566969
8.484848484848484,2.329113924050633,0.010665730414795708,0.009857801169778474,-2.3158971970353203e-05,-0.006157059475372254,0.010285670052962874
8.585858585858587,2.329113924050633,0.010980622141673637,0.009710646393694556,5.0916389530268926e-05,-0.0062073805606104576,0.01040430462054957
8.686868686868687,2.329113924050633,0.010925649972586889,0.00992255683515586,1.5504115810975755e-05,-0.006254462042322825,0.010460272452914166
8.787878787878787,2.329113924050633,0.011069559565103264,0.009982676286285486,-3.968131222797374e-05,-0.006315670755416625,0.010568342767509727
8.88888888888889,2.329113924050633,0.011243179342428739,0.010004883789565763,4.439493466804017e-05,-0.006374418939598351,0.01067829533929263
8.98989898989899,2.329113924050633,0.011250485504944115,0.00991221201086654,6.230353129608773e-05,-0.0063488092547431966,0.010645178189451479
9.09090909090909,2.329113924050633,0.01126861109911751,0.010180572211737163,-8.001638638489697e-05,-0.006434754993256402,0.010766798294166696
9.191919191919192,2.329113924050633,0.0114792148600955,0.010285901121905226,-5.2414839912489477e-05,-0.006529534794600217,0.010931894100846854
9.292929292929292,2.329113924050633,0.011384894407071886,0.010269587294953794,-1.9261057300672644e-05,-0.006496344510607704,0.010870289318899573
9.393939393939394,2.329113924050633,0.011581473377344123,0.010363336578286949,5.681158420272753e-05,-0.006583442986689321,0.011023440779148902
9.494949494949495,2.329113924050633,0.011619524701670337,0.010528006311051564,6.768666680558379e-05,-0.0066442593038165704,0.011114656370857968
9.595959595959595,2.329113924050633,0.011765576392968446,0.010590865327998163,9.051387093607606e-05,-0.006706932516289983,0.011225513772334089
9.696969696969697,2.329113924050633,0.011971842866447245,0.010760619526281415,-2.7426314613401223e-05,-0.006819738717818598,0.011414629415895524
9.797979797979798,2.329113924050633,0.012101504821521555,0.010830186791623602,5.6656624816184544e-05,-0.006879507483943547,0.011519003304512172
9.8989898989899,2.329113924050633,0.012058130362647619,0.011034940590775807,2.336738024394011e-05,-0.006927921286027027,0.011580557309572278
10.0,2.329113924050633,0.012372013088069246,0.011136416183798552,3.0101029752936516e-05,-0.007052528781560339,0.011802936274756454
0.0,2.430379746835443,0.012347803600561336,0.010891830119886469,-6.267957776282001e-05,-0.006971890116134341,0.011688533874522957
0.10101010101010101,2.430379746835443,0.0119950977693363,0.011059928334080132,5.2315264913255615e-05,-0.006916507831024929,0.011556282889519884
0.20202020202020202,2.430379746835443,0.011979737049059495,0.010922792723699122,-3.264773349299123e-06,-0.006870758931827586,0.011487791256566356
0.30303030303030304,2.430379746835443,0.011949588210053676,0.010569069248881244,-3.559721568976531e-05,-0.006755597237680476,0.011322793797253547
0.40404040404040403,2.430379746835443,0.011692942336215689,0.010561968869757136,-6.161701297604594e-05,-0.006676473361791847,0.01117098849259424
0.5050505050505051,2.430379746835443,0.011705890680481928,0.010356606434199098,2.555257073024647e-05,-0.006618749134404307,0.01109305320993234
0.6060606060606061,2.430379746835443,0.011424712482997923,0.01034646132985412,-2.423014129715611e-05,-0.006531352143855612,0.010925645644928149
0.7070707070707071,2.430379746835443,0.01148144936809313,0.010347126080680988,-1.877764387025864e-05,-0.0065485726346322356,0.010958455699627941
0.8080808080808081,2.430379746835443,0.011308101683979017,0.010424811082016896,-9.212888811582246e-05,-0.006519873829798774,0.010894516475516909
0.9090909090909091,2.430379746835443,0.011270833580180821,0.01012673315105166,-1.2447107828005955e-05,-0.006419270019369744,0.010744587225194682
1.0101010101010102,2.430379746835443,0.011212011308399342,0.010073060228139228,5.1769991414731125e-05,-0.006385521460961571,0.010688522589551074
1.1111111111111112,2.430379746835443,0.011223972029060995,0.009969107644227378,6.826329937919934e-06,-0.006357923901986512,0.010652127007042834
1.2121212121212122,2.430379746835443,0.011091461693734954,0.009909666674174377,4.0600749560501515e-05,-0.006300338510372799,0.01055055794947072
1.3131313131313131,2.430379746835443,0.010762469271874594,0.009856973866545299,2.450058860642482e-05,-0.006185832941525968,0.010339589020747553
1.4141414141414141,2.430379746835443,0.01092510271634314,0.009868242110346115,-9.334296541621315e-06,-0.006238003448006777,0.010436894864520686
1.5151515151515151,2.430379746835443,0.010718181983111447,0.009787871485298342,5.4400234975378e-05,-0.006151816040522936,0.010285064102171282
1.6161616161616161,2.430379746835443,0.01060559148526855,0.00968641904930902,8.04657748481067e-05,-0.006087603160373271,0.010178138610860452
1.7171717171717171,2.430379746835443,0.010840401377051756,0.009798403484513808,-2.9683415114319675e-05,-0.00619164145846967,0.010358910635288068
1.8181818181818181,2.430379746835443,0.010561451844398153,0.009679877648509862,-3.208290943764789e-05,-0.006072398847872405,0.010149572535160927
1.9191919191919191,2.430379746835443,0.010614667963138898,0.00946525988407687,3.718458806165314e-05,-0.00602397835416473,0.010089394326086949
2.0202020202020203,2.430379746835443,0.010500886083253995,0.009315146498511093,-0.00010738435192310745,-0.005944809774529526,0.009962824137242783
2.121212121212121,2.430379746835443,0.010340731628972862,0.009577526758749387,-0.00010835270753369604,-0.005975477516316675,0.009982802035658937
2.2222222222222223,2.430379746835443,0.010499938707563774,0.009426533062898215,5.94070100940023e-05,-0.005977941531138596,0.010007037855519459
2.323232323232323,2.430379746835443,0.010471804681820442,0.009111237804830929,-4.433384146707982e-05,-0.005874912745995411,0.009862461224109659
2.4242424242424243,2.430379746835443,0.010319125080140936,0.009518812486991955,-0.00010783776022695778,-0.005951381270139867,0.00994490843909699
2.525252525252525,2.430379746835443,0.010333024031582386,0.009382011377535875,3.931087677789584e-05,-0.005914510622735477,0.009892098368491555
2.6262626262626263,2.430379746835443,0.010206661027687055,0.009460099920545386,-3.401119781297447e-05,-0.005900028284469732,0.009854788528856549
2.727272727272727,2.430379746835443,0.010357091603260172,0.009221933827508999,-8.175387932332856e-07,-0.0058737076292307506,0.009838749849024102
2.8282828282828283,2.430379746835443,0.010199158623001603,0.009233392309707317,-2.0569554706959886e-05,-0.005829765279812676,0.00975227187309422
2.929292929292929,2.430379746835443,0.010098226065968136,0.009259088364078866,-2.543252451382861e-05,-0.005807194329014101,0.009706001235724468
3.0303030303030303,2.430379746835443,0.009960131224432966,0.009078213331558935,5.225123694903039e-06,-0.00571150336679757,0.009549767386761209
3.131313131313131,2.430379746835443,0.010035559582418571,0.009132328098483347,-0.0001088055963329385,-0.0057503663042705756,0.009617659062655362
3.2323232323232323,2.430379746835443,0.010041161293482282,0.009182904967116866,-0.00010917318586438334,-0.005767219878179744,0.009642582133060712
3.3333333333333335,2.430379746835443,0.010003084151994824,0.009014597366573994,-4.677518748812174e-05,-0.005705304455570645,0.00954764085696754
3.4343434343434343,2.430379746835443,0.010033196041418993,0.008904214411350461,-3.2110840936953837e-05,-0.005681223135830836,0.009519213288043116
3.5353535353535355,2.430379746835443,0.009950269615294867,0.009134328893758861,3.295349780324694e-06,-0.005725379552716118,0.009568428663408114
3.6363636363636362,2.430379746835443,0.010083574125933262,0.00908703772743426,-6.525129127098712e-05,-0.005751183556010256,0.009624742931440115
3.7373737373737375,2.430379746835443,0.009956515833902672,0.009009218315196967,-1.2225713100506146e-05,-0.005689720244729892,0.009518311079150176
3.8383838383838382,2.430379746835443,0.009919832132481071,0.009117466713159878,2.581070102823784e-05,-0.005711189653692284,0.009544083408636743
3.9393939393939394,2.430379746835443,0.009927300629423031,0.00895413147786149,4.100396513449287e-05,-0.0056644296321853565,0.009478526110589778
4.040404040404041,2.430379746835443,0.01027530230104819,0.008905043390803585,2.0376631348612214e-05,-0.005754103707555532,0.009663377667610749
4.141414141414141,2.430379746835443,0.009990035189956994,0.009228806974868458,-7.65673770690835e-05,-0.005765652649447635,0.009632920768146962
4.242424242424242,2.430379746835443,0.009961565505068094,0.008895622549857414,3.344226899973966e-05,-0.005657156416477652,0.009473854351772372
4.343434343434343,2.430379746835443,0.009929580061069379,0.008898742957760162,-8.086044886266166e-07,-0.005648496905648863,0.009456395070905163
4.444444444444445,2.430379746835443,0.009952571620857907,0.009065887434306705,9.753277168714515e-05,-0.005705537716549383,0.00954167913775726
4.545454545454545,2.430379746835443,0.010017662855735283,0.009035972449976238,1.0362584069999793e-05,-0.005716090591713456,0.009564693606163214
4.646464646464646,2.430379746835443,0.009840421276243244,0.008931607459469979,-1.4638523259024829e-05,-0.005631608620713967,0.009418989621390867
4.747474747474747,2.430379746835443,0.009971794650149237,0.008955488451286462,-4.63068468685439e-05,-0.00567818493043071,0.009504819992512181
4.848484848484849,2.430379746835443,0.009848527252579448,0.009027197935997103,7.613650593641252e-05,-0.005662717556572966,0.009465546842944822
4.94949494949495,2.430379746835443,0.009935554331405153,0.008955613741144411,9.74107490673362e-05,-0.0056673504217648685,0.009485132419674542
5.05050505050505,2.430379746835443,0.01003709718933605,0.008679675676271004,-4.0156755537169435e-05,-0.005615031859682116,0.009432188462590524
5.151515151515151,2.430379746835443,0.009932167334901373,0.00880274760076345,3.099794257411732e-05,-0.005620474480699447,0.009418536708580364
5.252525252525253,2.430379746835443,0.009895744263593334,0.008850784591711918,3.442651634777605e-05,-0.0056239586565915755,0.009417037598028137
5.353535353535354,2.430379746835443,0.009840724307362428,0.008931746754222003,7.181293556260354e-05,-0.0056317413184753294,0.009420008963728934
5.454545454545454,2.430379746835443,0.010039605787911863,0.009018747844653742,-1.3796034171608471e-05,-0.005717506089769681,0.009570130354017815
5.555555555555555,2.430379746835443,0.010040493605834614,0.008909725389814827,-3.078390532414254e-05,-0.0056850656986948325,0.009525729395223217
5.656565656565657,2.430379746835443,0.009913556385579378,0.009097107903580808,9.729375989625235e-06,-0.005703199286748056,0.009531608691814691
5.757575757575758,2.430379746835443,0.010108889831964507,0.00893662997423511,5.9502923910473606e-05,-0.005713655941859885,0.00957727637935128
5.858585858585858,2.430379746835443,0.010010652492269696,0.008872996723326726,1.1875275622063707e-05,-0.005665094764678926,0.009493111738381363
5.959595959595959,2.430379746835443,0.010020310150170691,0.008868569137776484,3.483598374045093e-05,-0.005666663786384153,0.00949715543442733
6.0606060606060606,2.430379746835443,0.010013346778020567,0.008969158313430474,1.46886160738862e-05,-0.005694751527435312,0.009534268158346237
6.161616161616162,2.430379746835443,0.009901587959576704,0.008944782550190548,-7.52175968955893e-05,-0.005653911152930175,0.00946044400924594
6.262626262626262,2.430379746835443,0.010029923525117534,0.008987423303750743,0.00012476288015474747,-0.005705204048660483,0.009553882585882164
6.363636363636363,2.430379746835443,0.010093472393873076,0.008870322369715756,3.261911061875402e-06,-0.005689138429076649,0.009540884752750563
6.4646464646464645,2.430379746835443,0.009953795786429583,0.008870266822465759,1.1948886678818122e-06,-0.005647218782668602,0.009458692500604462
6.565656565656566,2.430379746835443,0.010119738474703745,0.009210771031825323,5.672320880150231e-05,-0.00579915285195872,0.009697755842044724
6.666666666666667,2.430379746835443,0.010119636231449094,0.008955768019117013,-3.415326051494701e-05,-0.005722621275169832,0.009590995937753184
6.767676767676767,2.430379746835443,0.009934227352461467,0.009203085180459595,-8.144909550405337e-05,-0.0057411937598763185,0.009590621005331687
6.8686868686868685,2.430379746835443,0.009913695292243258,0.00921372425191414,1.8197967798076077e-05,-0.00573822586324722,0.009582954017192407
6.96969696969697,2.430379746835443,0.0101201690897287,0.009035534782136099,-6.218417355951891e-06,-0.005746711161559439,0.009623808362529483
7.070707070707071,2.430379746835443,0.010387176475389965,0.009202749314382076,5.20254295360858e-06,-0.005876977736931612,0.009848529336218347
7.171717171717171,2.430379746835443,0.010263123215907033,0.009196035997606935,1.3865051282473016e-05,-0.00583774776405419,0.00977339768922544
7.2727272727272725,2.430379746835443,0.010044629348271421,0.009156257116889133,5.655706010456497e-06,-0.005760265939548166,0.009631225785908366
7.373737373737374,2.430379746835443,0.010296510087793495,0.009381237960122015,-3.956885260765685e-05,-0.005903324414374653,0.009870989385181706
7.474747474747475,2.430379746835443,0.01018198699416383,0.009172540734062797,3.87321789061935e-05,-0.005806358318467988,0.009716901396780032
7.575757575757575,2.430379746835443,0.010388477968000565,0.009248375028047569,-4.292119722313932e-05,-0.0058910558988144405,0.009868226873146028
7.6767676767676765,2.430379746835443,0.010265028134484315,0.009386107176549816,5.3264667610229405e-05,-0.005895340593310238,0.009855438481636034
7.777777777777778,2.430379746835443,0.010437955817206121,0.00930003262084748,3.009854734039554e-05,-0.00592139653141608,0.009918211359083285
7.878787878787879,2.430379746835443,0.010374696692202381,0.009360257394334359,-5.468109473074079e-05,-0.0059204862259610224,0.00990696162214154
7.979797979797979,2.430379746835443,0.010626963039836046,0.009450910857153738,2.0717717725803488e-05,-0.006023362169096935,0.010090533523041937
8.080808080808081,2.430379746835443,0.010672913099295885,0.009452394837408805,0.00010022897797174966,-0.006037592381011406,0.010119505474655018
8.181818181818182,2.430379746835443,0.010658322307943469,0.00947529068770046,7.796213783481914e-05,-0.006040083898693179,0.010119708504214384
8.282828282828282,2.430379746835443,0.010645164966591288,0.009794915372856173,5.386960540204931e-05,-0.006132024101834239,0.010246956628807416
8.383838383838384,2.430379746835443,0.01089000123791074,0.009500018104510101,-8.385326765232146e-05,-0.006117005802726252,0.0102668571695975
8.484848484848484,2.430379746835443,0.010788198085372295,0.009657125929275697,-4.026222012371971e-05,-0.006133597204394397,0.010269721263102329
8.585858585858587,2.430379746835443,0.010730933736043674,0.009841099817291381,4.6814822287768864e-05,-0.006171610066000516,0.01031516210802646
8.686868686868687,2.430379746835443,0.011046710492671962,0.009814996151092022,8.017294325210071e-05,-0.006258511993129195,0.010486173004940648
8.787878787878787,2.430379746835443,0.010904608048837505,0.009772842710533651,4.3207025527528186e-05,-0.006203235227811347,0.010385350865688604
8.88888888888889,2.430379746835443,0.011051579341613627,0.009781984646088617,-0.0001345715091115454,-0.006250069196310674,0.010477240982185797
8.98989898989899,2.430379746835443,0.011170274907690804,0.010167586306676782,-2.846497666779598e-05,-0.006401358364310276,0.010704323864146947
9.09090909090909,2.430379746835443,0.011338984494928988,0.010269773730746331,3.9734507741843405e-05,-0.006482627467702595,0.010844203670667671
9.191919191919192,2.430379746835443,0.011513941418555457,0.010328236502866173,2.4090387174083443e-06,-0.006552653376426489,0.010969258115683101
9.292929292929292,2.430379746835443,0.011414309323940936,0.010281011395367209,-2.8094089126192018e-05,-0.006508596215792443,0.010892078601356306
9.393939393939394,2.430379746835443,0.011646788360133166,0.010448556380115149,-1.1220997787014082e-07,-0.0066286034220744946,0.01109630049808635
9.494949494949495,2.430379746835443,0.01171454214650093,0.010524471647752765,-1.910790749633023e-05,-0.006671704138276109,0.011167216744365233
9.595959595959595,2.430379746835443,0.011654541493021718,0.010607666268463968,-2.534183116041623e-05,-0.006678662328445706,0.011168050905639385
9.696969696969697,2.430379746835443,0.011860769948587828,0.010859938985396568,8.534751807373687e-05,-0.006816212680195319,0.011394329869496293
9.797979797979798,2.430379746835443,0.012112430756886618,0.010900628482648587,-4.757057465491261e-05,-0.0069039177718605614,0.01155458183290051
9.8989898989899,2.430379746835443,0.011953809706319502,0.010980671281788682,-4.061651471435061e-05,-0.006880344296432456,0.011498382601359651
10.0,2.430379746835443,0.01230504151833938,0.01103015637346435,5.75701618112674e-05,-0.007000559367541119,0.011720145358845618
0.0,2.5316455696202533,0.022640930975088507,0.020586429845422315,1.3959790979229889e-06,-0.012968208246153246,0.021686791323102205
0.10101010101010101,2.5316455696202533,0.022563950977686924,0.020046630436992154,8.647384980976991e-05,-0.012783174424403724,0.02141706147754178
0.20202020202020202,2.5316455696202533,0.022308911965008848,0.020161565717392003,-4.357278395794469e-05,-0.012741143304720254,0.02131664575714712
0.30303030303030304,2.5316455696202533,0.021939805646322138,0.019700328049529193,-5.298639020639081e-05,-0.012492040108755398,0.02091040533214595
0.40404040404040403,2.5316455696202533,0.02169629165220116,0.019575556494017564,-3.26908211737155e-05,-0.012381554443865617,0.02071756999816505
0.5050505050505051,2.5316455696202533,0.021595776981956256,0.019435031408035763,-2.392848478974789e-05,-0.012309242516997606,0.02060061025983516
0.6060606060606061,2.5316455696202533,0.021408426321304266,0.01926727071675441,1.697245342808256e-05,-0.012202709111417603,0.02042222703496564
0.7070707070707071,2.5316455696202533,0.021138351250467577,0.01920989720038876,-1.3972664999738968e-05,-0.012104474535256902,0.020243148846870597
0.8080808080808081,2.5316455696202533,0.021133365852385518,0.018905792980819527,3.564849074418743e-05,-0.012011747649961513,0.020112407442569747
0.9090909090909091,2.5316455696202533,0.02094693139910581,0.01868993542862388,2.4510183596573685e-05,-0.011891060048318906,0.019914633522492273
1.0101010101010102,2.5316455696202533,0.020537865140178364,0.01868067546277332,3.9550947175890996e-05,-0.011765562180885505,0.01967523925425063
1.1111111111111112,2.5316455696202533,0.02059285046145397,0.01865409233584602,-5.787179138513583e-05,-0.011774082839189999,0.019695424962883054
1.2121212121212122,2.5316455696202533,0.020335512105686893,0.018265868401108276,-8.774122232610173e-05,-0.011580414152038549,0.019384331523728354
1.3131313131313131,2.5316455696202533,0.02010146489308215,0.018103019650227516,-2.497059956694617e-05,-0.0114613453629929,0.019180533567631563
1.4141414141414141,2.5316455696202533,0.020170895439668875,0.01808207695281068,-2.0087739293525564e-05,-0.011475891717743868,0.01921187280746052
1.5151515151515151,2.5316455696202533,0.019941180250621277,0.01797929454884541,-3.338088169772876e-05,-0.011376142439840005,0.019036299318254065
1.6161616161616161,2.5316455696202533,0.020004026109039404,0.018116467021423305,1.767948775474925e-05,-0.011436147939138813,0.019130240361851365
1.7171717171717171,2.5316455696202533,0.020000696037782626,0.0178231062705475,-3.0156998353629283e-05,-0.011347140692499038,0.019005766401130327
1.8181818181818181,2.5316455696202533,0.01964203055954892,0.017630117869748583,3.464448101894152e-05,-0.011181644528789251,0.018717443932268794
1.9191919191919191,2.5316455696202533,0.019628918204850465,0.017506968602150813,1.5181396608513954e-05,-0.011140766042100384,0.018658676701398463
2.0202020202020203,2.5316455696202533,0.01940695096128774,0.017537006553187788,2.5442800026127568e-05,-0.01108318725434266,0.01854288166071015
2.121212121212121,2.5316455696202533,0.019298243292474187,0.017380973466487475,-6.676865784593289e-05,-0.011003765027688498,0.018414981736699185
2.2222222222222223,2.5316455696202533,0.019107131413902405,0.017502262442317094,-6.939687105484663e-05,-0.01098281815686585,0.018357779841774304
2.323232323232323,2.5316455696202533,0.019239727011032715,0.01741638969973979,-4.942853523298287e-05,-0.01099683501323175,0.01839615372385745
2.4242424242424243,2.5316455696202533,0.019014587575085694,0.017002814501112344,5.282845746567157e-05,-0.01080522062285941,0.018093012706380782
2.525252525252525,2.5316455696202533,0.01908367167436817,0.017119105470742507,1.6066005206364546e-06,-0.010860833143533203,0.01818116927687693
2.6262626262626263,2.5316455696202533,0.01896685543383185,0.016901544636023134,1.5399251903747362e-05,-0.010760520020956494,0.018023189890314362
2.727272727272727,2.5316455696202533,0.01892234735069467,0.016996912544967498,7.583283319551237e-05,-0.01077577796869865,0.01803735108357465
2.8282828282828283,2.5316455696202533,0.018788933877601586,0.01698949736598312,-7.965237093467232e-05,-0.010733529373075411,0.017957492806154076
2.929292929292929,2.5316455696202533,0.01892870323696637,0.016979053444964212,-0.00012324180505535496,-0.010772327004579174,0.018034360644151294
3.0303030303030303,2.5316455696202533,0.018804644585011278,0.01691512720899293,-2.425759821180885e-05,-0.010715931538201261,0.017934742721401224
3.131313131313131,2.5316455696202533,0.01884450310548795,0.016808657899946122,4.197249947801398e-06,-0.010695948301630221,0.017913557004298957
3.2323232323232323,2.5316455696202533,0.01855979351173033,0.016893319167227694,-6.532363258733696e-06,-0.010635933803687407,0.0177852124032213
3.3333333333333335,2.5316455696202533,0.01857661018611204,0.016757415356514923,-7.899641493057144e-05,-0.010600207662788089,0.017737648207513137
3.4343434343434343,2.5316455696202533,0.018453495102120077,0.016717340962969052,4.020046903555745e-05,-0.010551250819526738,0.017649715267070005
3.5353535353535355,2.5316455696202533,0.018652802374949252,0.01658854359439562,5.8745439473278455e-05,-0.010572403790803462,0.017711418428447822
3.6363636363636362,2.5316455696202533,0.0185169998741088,0.01660571761162141,2.056304787452214e-05,-0.010536815245719061,0.017639227288279737
3.7373737373737375,2.5316455696202533,0.018415655597723773,0.01667568037438852,1.3618915723493636e-05,-0.010527400791633688,0.01761027134472599
3.8383838383838382,2.5316455696202533,0.018617989819764987,0.016719358979287877,-2.4328986753963785e-05,-0.010601204639715858,0.017745067766469034
3.9393939393939394,2.5316455696202533,0.018427865805541815,0.01655338840022601,1.2716526263947154e-05,-0.010494376261730347,0.017565812555630254
4.040404040404041,2.5316455696202533,0.018523611454739082,0.01671817510596834,3.070968517009907e-05,-0.010572535968212227,0.017690206600235094
4.141414141414141,2.5316455696202533,0.01838147550306539,0.016652564081982884,-7.505733965322241e-05,-0.010510211875514482,0.017581374640535132
4.242424242424242,2.5316455696202533,0.018360764262704214,0.016640527680762733,-5.209168571280614e-05,-0.010500387583040083,0.01756417263871258
4.343434343434343,2.5316455696202533,0.01849080085719956,0.016514952999715758,6.312153531282985e-05,-0.010501726157074594,0.017586660707034144
4.444444444444445,2.5316455696202533,0.018434852584241934,0.016458455102286874,-0.00014831335627314457,-0.010467992305958641,0.017532293949641852
4.545454545454545,2.5316455696202533,0.01839455664345323,0.016611263528911294,1.0820031153062336e-05,-0.010501746051709357,0.01757092238482325
4.646464646464646,2.5316455696202533,0.018240808892041643,0.01654132479329949,-7.00183259543028e-05,-0.010434640105602341,0.017453655728114727
4.747474747474747,2.5316455696202533,0.018417687507361308,0.016340544494586703,-3.934936030841249e-05,-0.010427469600584403,0.01747209805413819
4.848484848484849,2.5316455696202533,0.018261294060314712,0.016439741689212157,-6.6019255463551e-05,-0.01041031072485806,0.01742245923884637
4.94949494949495,2.5316455696202533,0.018330912109727846,0.01673430943180404,-9.686169874256431e-06,-0.010519566462459565,0.017587057087193513
5.05050505050505,2.5316455696202533,0.01835203905655979,0.01646353737242108,6.880315585355365e-05,-0.010444672928694259,0.0174848540486206
5.151515151515151,2.5316455696202533,0.018181547896798253,0.016573243922439505,-2.941745034240219e-05,-0.010426437545771326,0.017433200108248812
5.252525252525253,2.5316455696202533,0.01823186977931971,0.01636590177558947,1.6679453577434097e-05,-0.010379331466472753,0.017374224045900423
5.353535353535354,2.5316455696202533,0.01832772434765559,0.01642199827338274,5.324440275273774e-05,-0.010424916786311498,0.017453313563953174
5.454545454545454,2.5316455696202533,0.01848706194516883,0.01650699736628685,-3.407260059079366e-05,-0.010498217793436704,0.017580956214101665
5.555555555555555,2.5316455696202533,0.01821882220871133,0.01641540411724143,-2.169083548224234e-05,-0.010390267897785826,0.017387439644347934
5.656565656565657,2.5316455696202533,0.018438178570343973,0.016557329775840592,-1.4708087701298864e-05,-0.010498652503855368,0.01757342437393289
5.757575757575758,2.5316455696202533,0.018450994580396365,0.016713707908978567,-0.00010302860612717166,-0.01054941074681248,0.017647508144398714
5.858585858585858,2.5316455696202533,0.018345475597839802,0.01653288958603504,-4.409103670822815e-05,-0.010463509555162452,0.0175098550128529
5.959595959595959,2.5316455696202533,0.01851173695531377,0.016612123532371265,7.21172330139629e-05,-0.01053715814630551,0.017639257210635337
6.0606060606060606,2.5316455696202533,0.01843389190247006,0.01661961646163932,-1.1883402441201465e-05,-0.010516052509232814,0.01759705180805391
6.161616161616162,2.5316455696202533,0.018348725260957252,0.016499580904214134,1.6800325182747136e-05,-0.010454491849551415,0.017497612938261478
6.262626262626262,2.5316455696202533,0.018444622686213115,0.016630691882508288,3.245964194501848e-05,-0.01052259437061642,0.017607962478073023
6.363636363636363,2.5316455696202533,0.018438254905828993,0.016615846465370204,-0.00012189923333625985,-0.01051623041135976,0.0175992318979475
6.4646464646464645,2.5316455696202533,0.018648594993151624,0.01681465905150031,-3.881663995697913e-05,-0.01063897621339558,0.01780274158190399
6.565656565656566,2.5316455696202533,0.018410592219182172,0.016797080387338913,-3.761919697981167e-05,-0.010562301781956326,0.017659327946656454
6.666666666666667,2.5316455696202533,0.018660789478405382,0.01663535303283556,-3.1706499586389874e-05,-0.010588842753372282,0.017735112899163834
6.767676767676767,2.5316455696202533,0.01875411148194145,0.016794634801838067,4.898021460379314e-05,-0.010664623885133855,0.01785539692687624
6.8686868686868685,2.5316455696202533,0.018732300994092316,0.016926477506867946,-4.1393352731063476e-05,-0.010697633550288079,0.017897988996653947
6.96969696969697,2.5316455696202533,0.018831010185188398,0.01683340899885357,-3.469766738800678e-05,-0.01069932575521259,0.017916029654833306
7.070707070707071,2.5316455696202533,0.01865546169702065,0.016919229412579104,-1.981890250799984e-05,-0.010672407332879925,0.017850818389129997
7.171717171717171,2.5316455696202533,0.018868061531146684,0.016960311592219016,-0.00013152603603689325,-0.01074851193700971,0.017991653893774027
7.2727272727272725,2.5316455696202533,0.018912058897460615,0.01704850569978876,3.200819513962669e-05,-0.010788169379174812,0.018052652104395057
7.373737373737374,2.5316455696202533,0.019005217690917113,0.016975063809436614,-2.9300305295986324e-05,-0.010794084450106118,0.01807591998548658
7.474747474747475,2.5316455696202533,0.01887634123311387,0.016955151434595892,-2.6567241528914373e-05,-0.010749447800312928,0.017992896149187577
7.575757575757575,2.5316455696202533,0.019322131746204133,0.0171504789553459,6.0669909345605405e-05,-0.010941783210465008,0.0183333284551234
7.6767676767676765,2.5316455696202533,0.019124197368020332,0.01735939517334553,-1.4254042882580087e-05,-0.01094507776240976,0.018305726858119126
7.777777777777778,2.5316455696202533,0.019261368724031277,0.017437141943176353,6.375493936070034e-05,-0.011009553200162288,0.01841747045296009
7.878787878787879,2.5316455696202533,0.019292975696572363,0.017438598491015894,-4.7262129031229876e-05,-0.011019472256276476,0.01843604818871068
7.979797979797979,2.5316455696202533,0.019402795096974575,0.01761049849698506,6.436656051165677e-05,-0.01110398807818789,0.018571958705458348
8.080808080808081,2.5316455696202533,0.01948214744855509,0.01739864781681525,-1.9071617000650208e-05,-0.011064238579611103,0.01852849384240017
8.181818181818182,2.5316455696202533,0.019602580607775498,0.01784368532563293,-5.066493013294674e-06,-0.011233879780022528,0.018784995862578677
8.282828282828282,2.5316455696202533,0.019832413737962136,0.017661783072970973,3.2596928580712876e-05,-0.011248259043279932,0.018841194612241426
8.383838383838384,2.5316455696202533,0.019935836233423387,0.01781512999409667,4.876395591544381e-07,-0.011325289868256016,0.01896462258275541
8.484848484848484,2.5316455696202533,0.020062324999933972,0.018021356984531188,4.235787747856488e-05,-0.011425104595339547,0.019123839932731746
8.585858585858587,2.5316455696202533,0.020120374196882184,0.017944425198643615,4.307536121244249e-05,-0.01141943981865774,0.01912560770924254
8.686868686868687,2.5316455696202533,0.02017574466379045,0.01832236123795398,1.2269120843617846e-05,-0.01154943177052333,0.01931586818374559
8.787878787878787,2.5316455696202533,0.020580558901467122,0.018151308440545334,1.9769199656589157e-05,-0.011619560202603737,0.019479899968043845
8.88888888888889,2.5316455696202533,0.020514048244421042,0.018373997207855004,2.4254202126047625e-05,-0.011666413635682814,0.01953219517624337
8.98989898989899,2.5316455696202533,0.02047167955975117,0.018671850095031795,-1.782414464802894e-05,-0.011743058896434887,0.0196337584566906
9.09090909090909,2.5316455696202533,0.020863198167522162,0.018785069834407333,-1.979155174046265e-05,-0.011894480400578849,0.01990568830840668
9.191919191919192,2.5316455696202533,0.021211520913188307,0.019018265860770666,0.00010537441672530728,-0.01206893603218769,0.02020519792197959
9.292929292929292,2.5316455696202533,0.021187704160219575,0.018999148319254904,3.2778365881210105e-05,-0.012056055743842345,0.020182698873474177
9.393939393939394,2.5316455696202533,0.02145434475609543,0.019191045982806965,-8.32560214146854e-06,-0.012193617221670719,0.020417003845553415
9.494949494949495,2.5316455696202533,0.021620163304078645,0.019338649608401474,-7.753846591714421e-05,-0.012287643873744035,0.020574938736206468
9.595959595959595,2.5316455696202533,0.02200389528807235,0.01942157693465488,3.6192007402203574e-05,-0.012427641666818168,0.02083321009498976
9.696969696969697,2.5316455696202533,0.02200866135814967,0.019806204057829683,-1.3585663037041005e-05,-0.012544459624793806,0.020994270879686118
9.797979797979798,2.5316455696202533,0.022084913859319374,0.020068066800370675,4.745658505757618e-05,-0.012645894197907013,0.02114889961796687
9.8989898989899,2.5316455696202533,0.02229112942069747,0.020376973146961436,3.8570229294396524e-05,-0.012800430770297671,0.02139846262816656
10.0,2.5316455696202533,0.02260721604964918,0.020367503892468494,6.956340392217946e-06,-0.0128924159826353,0.02157473097417773
0.0,2.632911392405063,0.022604301952602227,0.02037654043694478,-2.2908173819736424e-05,-0.012894252716864103,0.021576885051138334
0.10101010101010101,2.632911392405063,0.022466167433175466,0.02016118008017458,-7.296807135507617e-05,-0.012788204254005014,0.021407320875051365
0.20202020202020202,2.632911392405063,0.02218052528087461,0.019902389872542673,0.00011684408445029537,-0.012624874546025185,0.02113471836284232
0.30303030303030304,2.632911392405063,0.022128641573541285,0.01971701213391293,-3.229649190809059e-05,-0.012553696112236265,0.021026882321370764
0.40404040404040403,2.632911392405063,0.021999395412892166,0.019582994285029562,1.643041521549281e-05,-0.012474716909376519,0.020896263755301833
0.5050505050505051,2.632911392405063,0.021520528469766608,0.019350898933839424,4.1063417757056924e-05,-0.012261428221081809,0.020522035044246194
0.6060606060606061,2.632911392405063,0.021339758354270332,0.019271626171840927,2.78634015394448e-05,-0.012183415357833377,0.02038458597647628
0.7070707070707071,2.632911392405063,0.021232407356108412,0.01916397574267236,-5.832096573661379e-06,-0.01211891492963423,0.020277471511766763
0.8080808080808081,2.632911392405063,0.020877495264360155,0.019008105479768608,2.8425196209575307e-05,-0.01196568022323863,0.020008465065576655
0.9090909090909091,2.632911392405063,0.020835297327418408,0.018789501670224147,-9.460810360868738e-05,-0.011887439699292766,0.019892133769003895
1.0101010101010102,2.632911392405063,0.02069382314456031,0.018477245950702135,-1.9404931435231728e-05,-0.011751320728578733,0.019679410662232683
1.1111111111111112,2.632911392405063,0.020615378808941376,0.018523689643780462,-9.307763954683562e-05,-0.011741720535816551,0.01965385541949469
1.2121212121212122,2.632911392405063,0.020614253894118962,0.018340313344584167,3.169985443649841e-05,-0.011686370171610939,0.019576662025179076
1.3131313131313131,2.632911392405063,0.020439047414978446,0.018209752457675053,1.5149852443012952e-05,-0.011594639961796051,0.01942061889997809
1.4141414141414141,2.632911392405063,0.02003976724791638,0.017998729021309907,9.540142655971202e-05,-0.011411548880767884,0.019101923507448302
1.5151515151515151,2.632911392405063,0.02003568624239959,0.01774066492339298,9.906803166111875e-06,-0.011332905349737772,0.0189924672811509
1.6161616161616161,2.632911392405063,0.019777940446986535,0.017935617414948285,-6.239313814774189e-06,-0.011314067358580447,0.018924160326267345
1.7171717171717171,2.632911392405063,0.019700962059403367,0.017776097411324934,2.2697813473724928e-05,-0.01124311784121849,0.01881257213010498
1.8181818181818181,2.632911392405063,0.019740691151858277,0.017714047762653198,-8.563629860505716e-05,-0.011236421674353443,0.01881001940684081
1.9191919191919191,2.632911392405063,0.019595384992465836,0.01749299228517461,-8.712468992307706e-05,-0.011126513183292133,0.018633967525159133
2.0202020202020203,2.632911392405063,0.019692971977378532,0.017549038626520568,4.712868605741022e-05,-0.01117260318116973,0.018713520231481637
2.121212121212121,2.632911392405063,0.019322063201681252,0.01756024441076689,5.708350307061814e-05,-0.011064692283734441,0.018504430101270213
2.2222222222222223,2.632911392405063,0.019268587685143976,0.01727477319609586,-5.928541755203564e-05,-0.01096300826437195,0.018353373601844677
2.323232323232323,2.632911392405063,0.01912901191792757,0.01727107651653769,1.8302296045523405e-05,-0.010920026530339577,0.018271057916775038
2.4242424242424243,2.632911392405063,0.019261688053494076,0.017334079759733,-0.00010290375039990034,-0.010978730343968122,0.018374740224179446
2.525252525252525,2.632911392405063,0.01901577730357098,0.017157664669497176,-2.831481281904144e-05,-0.010852032591920446,0.018158230039056276
2.6262626262626263,2.632911392405063,0.01885240850823025,0.016931831173381127,-1.931066339640609e-05,-0.010735271904483411,0.01796929420086574
2.727272727272727,2.632911392405063,0.018869343733346176,0.017023158931381784,3.163163447526599e-05,-0.010767750799418387,0.018017414834196607
2.8282828282828283,2.632911392405063,0.01877658601532483,0.01690016208887223,-3.812679035121406e-05,-0.010703024431259119,0.0179123609511095
2.929292929292929,2.632911392405063,0.018845565417075317,0.016884808906668776,-3.6891220874026625e-05,-0.010719112297123228,0.01794581900569257
3.0303030303030303,2.632911392405063,0.0186592515835622,0.01687333537269137,2.091253980467916e-05,-0.01065977608687607,0.01783352512791798
3.131313131313131,2.632911392405063,0.018761359377555277,0.016872393149261967,-5.485667690506817e-05,-0.010690125758045173,0.017892072339707923
3.2323232323232323,2.632911392405063,0.01854827021105801,0.016875244990815642,2.322018656914832e-05,-0.010627054560562095,0.017770966065079625
3.3333333333333335,2.632911392405063,0.01857743853591373,0.017026542183375123,5.8441266856700696e-05,-0.010681194215786657,0.017852872780931554
3.4343434343434343,2.632911392405063,0.01851982870917792,0.01668485077072519,1.608295551536861e-05,-0.010561403843970932,0.017673949709417196
3.5353535353535355,2.632911392405063,0.0186778417262082,0.016694575971360183,-5.795519122986585e-05,-0.010611725309270514,0.017769695190017986
3.6363636363636362,2.632911392405063,0.018335588246413622,0.016738734561403255,-8.514335517471987e-05,-0.010522296842345062,0.017592220853207406
3.7373737373737375,2.632911392405063,0.01848580287326204,0.016829243539963762,4.638943772534272e-06,-0.01059451392396774,0.017715708621729595
3.8383838383838382,2.632911392405063,0.018342018814610585,0.01665847650847936,-5.781181001494409e-06,-0.010500148596926984,0.017560879946744466
3.9393939393939394,2.632911392405063,0.018344848445043846,0.01651385166827295,3.4238219518122545e-05,-0.010457610033995037,0.01750143342877876
4.040404040404041,2.632911392405063,0.018420293691414985,0.016688635334701923,-3.869652658704823e-05,-0.010532678707835074,0.017618532773815726
4.141414141414141,2.632911392405063,0.018485504597153823,0.016746148042457276,-7.64066336627194e-06,-0.01056949579188333,0.01768011688273124
4.242424242424242,2.632911392405063,0.018217233138320254,0.0164479510769349,3.2189962468980816e-05,-0.010399555264576544,0.017400276636019327
4.343434343434343,2.632911392405063,0.018506401340781506,0.01643163586317825,2.1853438001322426e-05,-0.010481411161187927,0.01756122240833101
4.444444444444445,2.632911392405063,0.018252425098819018,0.016455773831047977,1.987223831903915e-05,-0.010412459678960099,0.017423745859885008
4.545454545454545,2.632911392405063,0.01831016046601529,0.01660653497320665,1.1460684594344936e-05,-0.010475008631766583,0.017520589430881892
4.646464646464646,2.632911392405063,0.018473977368409514,0.016609492437374265,-0.00010221107126410206,-0.010525040941735134,0.01761678270162136
4.747474747474747,2.632911392405063,0.018277179287089985,0.016494234101080155,2.373689588803806e-05,-0.01043142401645104,0.01745418739803347
4.848484848484849,2.632911392405063,0.01814727137011466,0.016494759744511284,1.8417851449829137e-05,-0.010392609334387784,0.017380065983562887
4.94949494949495,2.632911392405063,0.018180350676977878,0.016225251151307473,7.719838210432708e-05,-0.010321680548485606,0.01728644118026276
5.05050505050505,2.632911392405063,0.01839214684731102,0.016435450169790138,-3.775643367867384e-05,-0.010448279105130347,0.017496175340831397
5.151515151515151,2.632911392405063,0.018420862650416057,0.016570098996659958,0.00013192799694151738,-0.010497288494122806,0.0175702321786727
5.252525252525253,2.632911392405063,0.018430161054149876,0.01649714811901521,3.4015377244754246e-05,-0.010478192751949524,0.017543805371488856
5.353535353535354,2.632911392405063,0.01837067265446614,0.01651332959083302,-1.202848335451554e-05,-0.010465200673589747,0.01751602493883142
5.454545454545454,2.632911392405063,0.018097310146711943,0.016491729610075077,0.00011221910579434891,-0.010376711927036106,0.017351415327055728
5.555555555555555,2.632911392405063,0.01830483438710669,0.016608709224763898,2.2518262008027077e-05,-0.010474063083561176,0.017518505459245607
5.656565656565657,2.632911392405063,0.018396361124018847,0.016448884277349116,-7.533400844009866e-05,-0.010453573620410389,0.017504551035662345
5.757575757575758,2.632911392405063,0.018454360062558982,0.016603995196427218,-3.449924406546048e-05,-0.01051750657769586,0.017602372753785376
5.858585858585858,2.632911392405063,0.018419331701027306,0.016668049836004575,1.879669808768632e-05,-0.010526214461109563,0.01760915633575205
5.959595959595959,2.632911392405063,0.01842382472637593,0.016698117207672676,4.6977323187288395e-05,-0.010536582580214582,0.01762463820171733
6.0606060606060606,2.632911392405063,0.018379919051471256,0.016400659236365415,-2.51806829426373e-05,-0.010434173486351,0.017474614753156474
6.161616161616162,2.632911392405063,0.018485617755790554,0.016807647248110735,9.327221256206151e-05,-0.010587979501170386,0.017707101020333398
6.262626262626262,2.632911392405063,0.018660670668727834,0.016676640344157747,-0.00010830621325602677,-0.010601193303865672,0.017752995813649343
6.363636363636363,2.632911392405063,0.01871782323539724,0.016650900149713273,1.1954801791276841e-05,-0.010610617015533156,0.017774735033371764
6.4646464646464645,2.632911392405063,0.018480156326369263,0.016693140440474326,5.003609228592404e-05,-0.010551989030053076,0.01765482318025408
6.565656565656566,2.632911392405063,0.018482272821589058,0.016751220294015292,7.807378305599267e-05,-0.010570047934681305,0.0176809347311886
6.666666666666667,2.632911392405063,0.018542198715882394,0.016596180398139974,3.806759842783971e-05,-0.010541513734206712,0.01764995777859207
6.767676767676767,2.632911392405063,0.01852969450533152,0.016840236454976166,-1.2106089986490548e-05,-0.010610979288092307,0.017745397856470006
6.8686868686868685,2.632911392405063,0.01888028680423174,0.016838673324883886,2.177639718678621e-05,-0.010715688038734688,0.017946826739288827
6.96969696969697,2.632911392405063,0.018782747608297026,0.01695089333240662,0.0001177938871300391,-0.010720092282211095,0.017938273815654392
7.070707070707071,2.632911392405063,0.018914585916439037,0.016970682141643652,-2.650532490643714e-05,-0.010765580417424807,0.018021495357242293
7.171717171717171,2.632911392405063,0.018975576105957525,0.016801133298466657,2.4633396577089526e-05,-0.010733012821327253,0.01798725119375167
7.2727272727272725,2.632911392405063,0.01891901808780293,0.01694297147481981,-4.070318567727829e-05,-0.01075859686878682,0.01801260986803134
7.373737373737374,2.632911392405063,0.019032646926923535,0.016998969359336365,-6.59130504226819e-05,-0.01080948488587797,0.018102051264356645
7.474747474747475,2.632911392405063,0.019030641838988515,0.017184411890836908,-5.044279224150808e-05,-0.010864516118947625,0.018178189853654075
7.575757575757575,2.632911392405063,0.019136653432812043,0.017264368999017253,-3.327950469597781e-06,-0.010920306729548789,0.01827259501267323
7.6767676767676765,2.632911392405063,0.01916257564910933,0.01722662222159589,-1.6086195741783966e-06,-0.010916759361211566,0.01827168232365129
7.777777777777778,2.632911392405063,0.019383319132979308,0.017280858530963686,-8.494857684127531e-05,-0.010999253299182896,0.018422876679896845
7.878787878787879,2.632911392405063,0.019464708500471085,0.017534413684387545,3.953846139429244e-05,-0.011099736655457588,0.018575063365707852
7.979797979797979,2.632911392405063,0.01935040442001301,0.01750322412063285,-5.995113097348464e-05,-0.011056088562193757,0.018496413783788072
8.080808080808081,2.632911392405063,0.01957764795785549,0.017589218103730205,0.00012328334779017542,-0.011150059818475708,0.018664269863165616
8.181818181818182,2.632911392405063,0.019518989978943028,0.01769961153205028,-1.7267590897324126e-05,-0.011165580453297992,0.018675908881962824
8.282828282828282,2.632911392405063,0.019775446710014345,0.01774300864484495,-2.3872900382811116e-05,-0.011255536606457789,0.018841667552696145
8.383838383838384,2.632911392405063,0.01995160108243087,0.01790337854561851,-1.7339128107082208e-05,-0.011356493888414814,0.01901044934414567
8.484848484848484,2.632911392405063,0.019869114320755336,0.01797212616998772,2.2310609987482517e-05,-0.011352372147222916,0.018991847903577774
8.585858585858587,2.632911392405063,0.020247400703659175,0.017957633691285498,6.14028855116259e-05,-0.011461510318483402,0.019205461435513334
8.686868686868687,2.632911392405063,0.020123062687634023,0.0180624376040169,7.226869096900365e-05,-0.011455650087495276,0.019176376305846354
8.787878787878787,2.632911392405063,0.020245875140776293,0.018352506708572802,3.4466737030646028e-06,-0.011579514554804727,0.019368723215554707
8.88888888888889,2.632911392405063,0.0203135940828085,0.018375954361479523,-9.509572674191756e-06,-0.011606864533286408,0.019417425080810756
8.98989898989899,2.632911392405063,0.02058392311934643,0.01865763136047567,1.2596778284147681e-05,-0.011772466343946629,0.019691580065853045
9.09090909090909,2.632911392405063,0.020898189930152293,0.018800600300089534,-4.756623788522048e-05,-0.011909637069072547,0.0199325157912707
9.191919191919192,2.632911392405063,0.0207878519526733,0.01889417113434281,-7.194494101714542e-05,-0.011904606926104833,0.01990906295068953
9.292929292929292,2.632911392405063,0.021083435355641028,0.019087503912394648,8.249843637553289e-05,-0.012051281780410704,0.020160216148138656
9.393939393939394,2.632911392405063,0.021291549316634878,0.019281058200554622,-2.9090514783670458e-05,-0.012171782255156848,0.02036094827988139
9.494949494949495,2.632911392405063,0.021497823243239556,0.01918442752140859,2.6729247911556492e-05,-0.012204675229394444,0.02043960310284546
9.595959595959595,2.632911392405063,0.021801943527084377,0.01954541303096869,-2.180097955844248e-05,-0.01240420696741592,0.02076586975887954
9.696969696969697,2.632911392405063,0.022042723786990515,0.019758845180263954,-4.821275659302657e-05,-0.01254047069017634,0.02099432879513954
9.797979797979798,2.632911392405063,0.022304394859259658,0.02009475931354226,7.115452503869553e-05,-0.012719746251840575,0.02128612516347751
9.8989898989899,2.632911392405063,0.022512216722636584,0.020404358956536917,-1.5176685151149487e-07,-0.01287497270375205,0.021535793817438822
10.0,2.632911392405063,0.022799656344510186,0.020260868426797356,-7.011240108178405e-05,-0.012918157431392262,0.02164257444736641
0.0,2.7341772151898733,0.022674100735488253,0.020279061971570256,-1.0451839825813436e-05,-0.012885948812117553,0.02157651576061645
0.10101010101010101,2.7341772151898733,0.022606953658874572,0.02027433213528726,4.567465111675405e-05,-0.01286438573824855,0.02153574397926938
0.20202020202020202,2.7341772151898733,0.02220208675742846,0.020075726403569232,7.188376012771783e-06,-0.012683343948299307,0.021218967522081623
0.30303030303030304,2.7341772151898733,0.0220398021698307,0.019750440083613284,-7.978973449563148e-05,-0.012537072676033193,0.020989427580973562
0.40404040404040403,2.7341772151898733,0.021765670858464346,0.01963805859437974,2.0710795421405147e-05,-0.012421118835853224,0.020783732591186085
0.5050505050505051,2.7341772151898733,0.021526139176693174,0.019280736947220045,5.0185290090653526e-05,-0.012242062837173965,0.020496078010615013
0.6060606060606061,2.7341772151898733,0.021247311300453313,0.018909242470367117,8.568521555120703e-05,-0.01204696613124613,0.02018066284705128
0.7070707070707071,2.7341772151898733,0.021349892999263154,0.01915524436471644,9.431263128615273e-05,-0.012151541209193878,0.020342211895657086
0.8080808080808081,2.7341772151898733,0.020992556461758124,0.01903082230031821,-7.2290177159668e-05,-0.012007013628622899,0.02008406557902103
0.9090909090909091,2.7341772151898733,0.020799559309965635,0.01876481170543123,0.000119737882589624,-0.01186931130461906,0.019861596695713916
1.0101010101010102,2.7341772151898733,0.02054935725588877,0.018828273652803366,-1.5202754326502789e-05,-0.011813289272607639,0.019745170142166944
1.1111111111111112,2.7341772151898733,0.020550054313384466,0.01835199833180002,-3.591239276207109e-05,-0.011670615793555343,0.019544049776739524
1.2121212121212122,2.7341772151898733,0.020363134915449617,0.01836997726605288,9.861196301892433e-06,-0.011619933654450748,0.019443335480500853
1.3131313131313131,2.7341772151898733,0.020360700105646785,0.018250845977888883,1.8945683124325044e-05,-0.0115834638250607,0.01939207474426833
1.4141414141414141,2.7341772151898733,0.020056329011832626,0.01811383120003594,7.904984154778116e-05,-0.01145104806356057,0.019159566868640347
1.5151515151515151,2.7341772151898733,0.019792385699999724,0.018050005386398255,-8.158076618127239e-05,-0.011352717325919392,0.018981794538876582
1.6161616161616161,2.7341772151898733,0.01979972737232838,0.017807318288162222,2.639146674185181e-05,-0.011282113698147179,0.018882580089201458
1.7171717171717171,2.7341772151898733,0.019791648724638494,0.01793162950261333,-8.797065893442649e-05,-0.011316983468175548,0.018930911235143708
1.8181818181818181,2.7341772151898733,0.019555931692776935,0.017740597596627355,-1.6031354706667422e-05,-0.011188958786821286,0.018714436237363165
1.9191919191919191,2.7341772151898733,0.019594844984526388,0.017573893451458784,-1.8779927993928095e-05,-0.011150621530795551,0.01866662854165189
2.0202020202020203,2.7341772151898733,0.019426211023772035,0.017613873067316536,1.7172922993325342e-05,-0.01111202522732657,0.0185864539046018
2.121212121212121,2.7341772151898733,0.019406481670466307,0.01760158781325177,8.765952504150403e-05,-0.011102420845115422,0.018570556956692925
2.2222222222222223,2.7341772151898733,0.019374038720080918,0.01753033363398168,-1.0203271043661052e-05,-0.011071311706218778,0.01852114800344261
2.323232323232323,2.7341772151898733,0.019143718458259334,0.017125320931958378,1.3998969909957706e-05,-0.010880711817065312,0.018218584986666776
2.4242424242424243,2.7341772151898733,0.019115242999324416,0.017118847725491024,-3.070834574639391e-05,-0.010870227217444631,0.018199432882320062
2.525252525252525,2.7341772151898733,0.018935509547072342,0.017154972230390052,-3.427518447938227e-05,-0.010827144533238717,0.018111100959058872
2.6262626262626263,2.7341772151898733,0.0189559366569196,0.017105105072993117,-9.245412515021236e-05,-0.010818312518973814,0.01810233435558639
2.727272727272727,2.7341772151898733,0.01915339583328483,0.017183702520307577,8.586602315083079e-06,-0.01090112950607772,0.018248456624856538
2.8282828282828283,2.7341772151898733,0.01876355338319463,0.017172359891267988,-5.37231509960259e-05,-0.010780773982338785,0.018020961317167454
2.929292929292929,2.7341772151898733,0.01886711228438011,0.01701266657461876,4.2576283419941074e-05,-0.010763933657699662,0.018011782189173684
3.0303030303030303,2.7341772151898733,0.018908595135591257,0.016839787497381225,4.237704316407927e-05,-0.010724514789891745,0.017963910388405172
3.131313131313131,2.7341772151898733,0.018627658016980242,0.016963456010678,4.8311828329454e-05,-0.010677334208297473,0.017854019933030423
3.2323232323232323,2.7341772151898733,0.01866123775853292,0.016829840121303997,4.746719559577311e-05,-0.010647323363951076,0.017816464987515657
3.3333333333333335,2.7341772151898733,0.018496482893409848,0.016684429646680664,3.9064728590746435e-05,-0.010554273762027153,0.01766044684242645
3.4343434343434343,2.7341772151898733,0.018526381259286018,0.016807865334096568,1.8970034106626787e-05,-0.010600273978014775,0.017729729211297098
3.5353535353535355,2.7341772151898733,0.018725267637736333,0.016695373163766205,3.831280846328514e-07,-0.01062619224045076,0.017797353815082143
3.6363636363636362,2.7341772151898733,0.01841906726294762,0.016578685743673657,-1.9576654937109266e-05,-0.010499325901986383,0.017571342627037256
3.7373737373737375,2.7341772151898733,0.01839831141849419,0.01667760222719491,6.646857392852904e-05,-0.01052277409370673,0.01760152873544472
3.8383838383838382,2.7341772151898733,0.01844761722481606,0.016550232652918113,9.420611897271575e-05,-0.010499354963320252,0.017576662070908612
3.9393939393939394,2.7341772151898733,0.01836198882956184,0.016466239295987964,8.562502655535966e-05,-0.01044846843766494,0.017491962818602907
4.040404040404041,2.7341772151898733,0.018587292765232074,0.016510315950124404,7.02614348893553e-05,-0.010529282614606943,0.017641165463473097
4.141414141414141,2.7341772151898733,0.018317596454281968,0.01647143537827905,-2.52269254605174e-05,-0.010436709549768304,0.01746789415453253
4.242424242424242,2.7341772151898733,0.018524751114858864,0.01657102290432922,-5.780027298307503e-05,-0.010528732205756425,0.017629553356696664
4.343434343434343,2.7341772151898733,0.01837639038617479,0.016565170544960615,2.0216473051086907e-05,-0.01048246827934062,0.01754108845477714
4.444444444444445,2.7341772151898733,0.01821489911446194,0.01647572125771126,7.359943071421035e-05,-0.010407186111651959,0.017411047952183203
4.545454545454545,2.7341772151898733,0.018373082662778182,0.01666609076512456,-0.00010289994782378829,-0.010511752028370822,0.01758274864261669
4.646464646464646,2.7341772151898733,0.0184207888245307,0.016496558428417723,-1.7186566892172566e-05,-0.010475204175884528,0.017538049147296418
4.747474747474747,2.7341772151898733,0.01837306513244509,0.016595077275327157,-6.20511367252698e-05,-0.010490442722331675,0.01755207188648425
4.848484848484849,2.7341772151898733,0.01840361786584489,0.016595645441096655,2.367560094969261e-05,-0.010499778992082463,0.017569586302069968
4.94949494949495,2.7341772151898733,0.01846215221507857,0.016439599905367627,3.683965879887361e-05,-0.010470525636133859,0.017538676835348405
5.05050505050505,2.7341772151898733,0.018168859284167633,0.016346339191252935,8.084490495019567e-05,-0.01035455954262617,0.017330191105760954
5.151515151515151,2.7341772151898733,0.01828524360320008,0.01635100775532191,-9.362921722893538e-05,-0.010390875407556597,0.017399704812727384
5.252525252525253,2.7341772151898733,0.018434226926476158,0.016428377264899853,-9.545862522388943e-05,-0.010458781257412803,0.017518424713631083
5.353535353535354,2.7341772151898733,0.0184461034299935,0.016451499306406096,-3.454516897178224e-05,-0.010469280820919878,0.017534197543667713
5.454545454545454,2.7341772151898733,0.018341325004392953,0.016308999558962433,2.4969687442450317e-05,-0.010395097369006616,0.0174143871146661
5.555555555555555,2.7341772151898733,0.018634497062033805,0.016560001213062486,3.53261670308073e-05,-0.010558349482528886,0.01768882615646724
5.656565656565657,2.7341772151898733,0.018516187062792663,0.016365188263275585,1.6179088625428555e-06,-0.010464412597820475,0.017539888565468165
5.757575757575758,2.7341772151898733,0.018314963082071194,0.016526741995795843,-7.0773054153271875e-06,-0.01045251152336011,0.017489555581491262
5.858585858585858,2.7341772151898733,0.018668084265985135,0.01663037613352963,-4.840256510003743e-05,-0.01058953811985443,0.017737433464110847
5.959595959595959,2.7341772151898733,0.018385128539350846,0.01661184133780654,2.4141635696328905e-05,-0.010499090963147216,0.017565794437649506
6.0606060606060606,2.7341772151898733,0.01835163902304236,0.0165276976286895,4.3180133647941214e-05,-0.010463800995519558,0.017511216306857792
6.161616161616162,2.7341772151898733,0.018490562364729665,0.01672159402652358,-2.488020966504995e-05,-0.010563646917375973,0.01767265637195495
6.262626262626262,2.7341772151898733,0.01851225536952811,0.016579075134069886,3.344875866602129e-05,-0.0105273991510794,0.01762545360986861
6.363636363636363,2.7341772151898733,0.018589329694182553,0.016825577010820596,-2.467286336673512e-05,-0.010624472011500944,0.017773262168989386
6.4646464646464645,2.7341772151898733,0.018641600401809608,0.01679138525274492,4.296508404545903e-05,-0.010629895696366359,0.017788960851260516
6.565656565656566,2.7341772151898733,0.018679348972761634,0.016739972287546274,-3.2733261452101735e-05,-0.010625796378092371,0.017789215285667
6.666666666666667,2.7341772151898733,0.018594234141687187,0.01660950473270606,3.885432779462315e-06,-0.010561121662317974,0.0176855934617427
6.767676767676767,2.7341772151898733,0.01863924975226379,0.0168031574099771,0.000113958355026578,-0.010632722148672266,0.01779349437858146
6.8686868686868685,2.7341772151898733,0.01865717150312652,0.016784113685641932,-1.1490465186336796e-05,-0.010632385556630534,0.01779474161770845
6.96969696969697,2.7341772151898733,0.018684255860054545,0.016880922986143344,-2.918371562740551e-05,-0.010669553653859368,0.017851107773717588
7.070707070707071,2.7341772151898733,0.018813709158647135,0.016723297317141433,-1.2897202578114596e-05,-0.01066110194273657,0.017860503144617543
7.171717171717171,2.7341772151898733,0.018853207683124446,0.01686207328924878,2.1102565325854304e-05,-0.010714584291711968,0.01794073916591892
7.2727272727272725,2.7341772151898733,0.01876656823796452,0.017017427840176493,-8.038059235238398e-07,-0.010735198823442304,0.017956007765279988
7.373737373737374,2.7341772151898733,0.018760138077656155,0.017071728078009465,-9.572072718861438e-05,-0.010749559846699687,0.017976267456493982
7.474747474747475,2.7341772151898733,0.01897420550240517,0.017123408189830887,-4.94157452841446e-06,-0.010829284107670818,0.018119839674928907
7.575757575757575,2.7341772151898733,0.019147806030068583,0.01718621157849835,-4.936279774179301e-05,-0.010900205282570078,0.018246462905084894
7.6767676767676765,2.7341772151898733,0.01923780985532888,0.017283058017548734,6.942794375563534e-06,-0.010956260361863285,0.018338739957115532
7.777777777777778,2.7341772151898733,0.01944594567235192,0.017366693897029953,-2.2432150817686334e-05,-0.01104379187081456,0.01849423108916293
7.878787878787879,2.7341772151898733,0.019386443914440523,0.017534415922854724,6.562876223632766e-05,-0.011076257951188573,0.01853032379495327
7.979797979797979,2.7341772151898733,0.01966360826060731,0.01764634879533104,3.156245217407571e-05,-0.011192987116781504,0.018736680982949935
8.080808080808081,2.7341772151898733,0.01963294220993079,0.0177030443159637,6.48584191603572e-05,-0.011200795957768347,0.018742997938427715
8.181818181818182,2.7341772151898733,0.019616128490116968,0.017694694188059586,2.553518972791449e-05,-0.011193246803452964,0.01872952911050272
8.282828282828282,2.7341772151898733,0.01988101749026657,0.017752200365629,5.00015334279346e-05,-0.011289965356768671,0.018906907964285763
8.383838383838384,2.7341772151898733,0.020017338748040524,0.017919862503144972,2.526043817529538e-05,-0.011381160375355647,0.019055426495118755
8.484848484848484,2.7341772151898733,0.01987724559459208,0.018147023137132026,9.311833091662971e-06,-0.011407280619517231,0.01907109765038509
8.585858585858587,2.7341772151898733,0.02006556875537833,0.018112430535958596,-3.8095122445690604e-05,-0.01145339978740108,0.019163906774598748
8.686868686868687,2.7341772151898733,0.020449510996469914,0.018255646316493377,1.4231106441304765e-05,-0.011611547193888986,0.019445634211925744
8.787878787878787,2.7341772151898733,0.020366958555221543,0.01825940170127247,-3.7167470329651e-06,-0.011587908076948204,0.019399234908320774
8.88888888888889,2.7341772151898733,0.020469571910613018,0.018609350731064626,3.0446643490478638e-05,-0.011723676792503293,0.01960583195966155
8.98989898989899,2.7341772151898733,0.020611042445230463,0.018556478790207876,-3.1879863534506296e-05,-0.011750256370631502,0.019664502352427587
9.09090909090909,2.7341772151898733,0.020745875708543686,0.018621243107584,-2.2082922088682044e-05,-0.011810135644838305,0.01976940873430255
9.191919191919192,2.7341772151898733,0.02110334736948524,0.018733185414357673,7.318180658298025e-05,-0.011950959835152875,0.02002415175632023
9.292929292929292,2.7341772151898733,0.021052425338715933,0.018990083940966435,-4.9678042345359235e-05,-0.012012752783904708,0.020100944756595136
9.393939393939394,2.7341772151898733,0.02137649763878505,0.019159509729701745,9.772691620275758e-06,-0.012160802210546039,0.020358745943765168
9.494949494949495,2.7341772151898733,0.021630032789695934,0.019365065866888114,-7.910487312477098e-05,-0.012298529596975213,0.020591645334447687
9.595959595959595,2.7341772151898733,0.02171259816458431,0.01975880483698606,4.344428777749881e-05,-0.01244142090047111,0.020804758114991682
9.696969696969697,2.7341772151898733,0.02204041400919787,0.019744705987409534,-1.2719362862124479e-05,-0.01253553599898222,0.020986954403158935
9.797979797979798,2.7341772151898733,0.02221531811746984,0.020064530568191623,6.40989961055311e-05,-0.01268395460569844,0.021222114469960578
9.8989898989899,2.7341772151898733,0.022515283561836637,0.020406876605180698,-3.149084594105818e-05,-0.012876648050105199,0.021538685389133273
10.0,2.7341772151898733,0.02279929153361249,0.020365507718266177,7.070387911497583e-05,-0.0129494397755636,0.021685420182099152
0.0,2.8354430379746836,0.022695776344393064,0.020588025369395323,3.193825924268028e-05,-0.012985140514136516,0.021718814274409665
0.10101010101010101,2.8354430379746836,0.022408221233141415,0.02025578490234399,-2.051108939198281e-05,-0.01279920184064562,0.021413321872496817
0.20202020202020202,2.8354430379746836,0.02209804324945528,0.020077257879193584,0.00011476960507931387,-0.01265259033859466,0.02116107753977336
0.30303030303030304,2.8354430379746836,0.02207492971111733,0.019936725941161353,8.035450158066238e-05,-0.012603496695683605,0.02108774785795233
0.40404040404040403,2.8354430379746836,0.021756875294045894,0.0196550262055861,2.8809234101648868e-05,-0.012423570449889596,0.020785865715978936
0.5050505050505051,2.8354430379746836,0.021616033048089324,0.019574028856396183,-7.702514893398768e-06,-0.012357018571345652,0.02067082034533737
0.6060606060606061,2.8354430379746836,0.021258572754528655,0.019213441078735096,1.833964684196775e-05,-0.012141604149979125,0.020313392322219657
0.7070707070707071,2.8354430379746836,0.021189921075632036,0.01916473768374414,3.1726297650008278e-06,-0.012106397627812852,0.02025341148846897
0.8080808080808081,2.8354430379746836,0.02095386835717749,0.01895433055206628,-4.182330539769263e-06,-0.01197245967277313,0.020029097610630375
0.9090909090909091,2.8354430379746836,0.020800244787900202,0.018872800542876364,-0.00011131968457665214,-0.011901913599232969,0.01990756360429981
1.0101010101010102,2.8354430379746836,0.020696064129241114,0.01867049246752664,2.9305251869980833e-05,-0.011809966979030327,0.019761356896289956
1.1111111111111112,2.8354430379746836,0.02043252364062531,0.018351623308544295,-2.5873009691622692e-05,-0.011635244084750883,0.019475680515084144
1.2121212121212122,2.8354430379746836,0.020376196172516802,0.018482035406455946,3.0715591845193745e-06,-0.011657469473691826,0.01949824229053633
1.3131313131313131,2.8354430379746836,0.02022077487983487,0.018198138039347517,2.387827247982324e-07,-0.011525673875754714,0.019289155307720292
1.4141414141414141,2.8354430379746836,0.020178532857663162,0.018246635654507064,-2.118838753347267e-06,-0.011527550553651067,0.01928529432931409
1.5151515151515151,2.8354430379746836,0.019897140734367245,0.017918794720515604,5.5777695838785746e-05,-0.011344780636464854,0.01898567793756435
1.6161616161616161,2.8354430379746836,0.019644849004539337,0.017794192903960702,9.180860698587903e-05,-0.01123171257255001,0.0187886786980754
1.7171717171717171,2.8354430379746836,0.019953764280269556,0.017769725269707985,-7.068926763074558e-05,-0.011317046864993262,0.018956738292075243
1.8181818181818181,2.8354430379746836,0.01966626644834703,0.017735876767914896,-2.248307712009501e-05,-0.011220642964878577,0.0187756863788638
1.9191919191919191,2.8354430379746836,0.019602143651041994,0.01761218553296618,3.275286351454007e-05,-0.011164298755202452,0.018686886910020826
2.0202020202020203,2.8354430379746836,0.0195187554791579,0.017420440647044608,-5.401422335994427e-05,-0.011081758837860752,0.01855901395744098
2.121212121212121,2.8354430379746836,0.0194728435013389,0.01743678236364304,2.6612456483326686e-05,-0.011072887759494582,0.01853891592728881
2.2222222222222223,2.8354430379746836,0.019226285840280258,0.01740506077395123,-4.0959132674150067e-05,-0.010989403984269445,0.018383595056498316
2.323232323232323,2.8354430379746836,0.019245646623549002,0.017266796181429726,6.81434076960374e-06,-0.010953732841493619,0.018336484014298868
2.4242424242424243,2.8354430379746836,0.01937141019918626,0.017154391590700986,-2.995695186699789e-05,-0.010957740536966175,0.018363622191392568
2.525252525252525,2.8354430379746836,0.01896711813983395,0.017179670837456217,-3.283218472112165e-05,-0.010844036693187049,0.018139654023528958
2.6262626262626263,2.8354430379746836,0.01891501699342324,0.017095591341961508,-1.5765806244912875e-05,-0.010803182500615424,0.018074137770000474
2.727272727272727,2.8354430379746836,0.01902748403053125,0.01730489547741538,-1.1765066794123016e-05,-0.010899713852383988,0.01822735167050467
2.8282828282828283,2.8354430379746836,0.01890008125148771,0.017034364838038135,-6.274446523020316e-05,-0.010780333826857754,0.018040055095413992
2.929292929292929,2.8354430379746836,0.01885578017589263,0.016912527773888023,2.589136617385184e-05,-0.010730492384934197,0.017963216496761792
3.0303030303030303,2.8354430379746836,0.018452171470536283,0.016763321951910323,-1.3906856380357907e-05,-0.01056464802673398,0.017668403549018812
3.131313131313131,2.8354430379746836,0.018682663002320316,0.01674039455011696,-1.5537043971149693e-05,-0.010626917265731183,0.017791241689251072
3.2323232323232323,2.8354430379746836,0.018603673635194287,0.016752970900675557,-2.2195276814651957e-05,-0.010606993360760953,0.01775086988174294
3.3333333333333335,2.8354430379746836,0.01882719774153862,0.016684115102414958,-4.189891493580514e-05,-0.010653393853186073,0.017852540545566307
3.4343434343434343,2.8354430379746836,0.018530376019321098,0.016586472710817195,8.151753643650647e-07,-0.010535054619041487,0.01763894379581713
3.5353535353535355,2.8354430379746836,0.018585649028771793,0.016691545343199558,-3.27231615048273e-05,-0.010583158311591406,0.017714797336806653
3.6363636363636362,2.8354430379746836,0.018678458147441398,0.016653737598089916,6.0753374134113284e-05,-0.010599658723659394,0.01775321680554727
3.7373737373737375,2.8354430379746836,0.01829445789448782,0.01659204722327169,3.483277426592893e-05,-0.010465951535327853,0.017505552015559443
3.8383838383838382,2.8354430379746836,0.018500956609393215,0.016605113804818866,4.038013997935081e-05,-0.010531821124263626,0.017629793010803068
3.9393939393939394,2.8354430379746836,0.01848134845307131,0.016627254452835926,5.369963502182369e-05,-0.010532580871772172,0.01762783023729397
4.040404040404041,2.8354430379746836,0.018528817818125362,0.016451905598464468,-0.0001130729222748525,-0.01049421702497695,0.01758369365123201
4.141414141414141,2.8354430379746836,0.018320550524267627,0.016541531237342796,-5.6594499682382304e-05,-0.010458624528483127,0.017499270762461026
4.242424242424242,2.8354430379746836,0.018350195381023053,0.01674107587776677,2.484363555596738e-05,-0.010527381377636947,0.017600941180516312
4.343434343434343,2.8354430379746836,0.01836911269174472,0.01656301014067288,-5.365664759706148e-05,-0.01047963684972528,0.017536203788762635
4.444444444444445,2.8354430379746836,0.01844407158940711,0.016475837120657023,3.2310148167071285e-05,-0.01047597261301924,0.01754304985200147
4.545454545454545,2.8354430379746836,0.018310935133402453,0.016394081492198474,-6.93643368374925e-05,-0.010411504987680276,0.01743214630763612
4.646464646464646,2.8354430379746836,0.0183993618844921,0.016281712797725015,6.916623712118557e-06,-0.010404322404665134,0.017437250558458035
4.747474747474747,2.8354430379746836,0.01831071653989101,0.016609312019967813,2.195046411470882e-05,-0.010476008567957646,0.017522118226095694
4.848484848484849,2.8354430379746836,0.01831941445511313,0.01639881385151156,-0.0001511763444766565,-0.010415468491987406,0.017440583048110317
4.94949494949495,2.8354430379746836,0.01833554004814283,0.016537126682742553,-2.621931195585239e-05,-0.010461800019265615,0.017505813364778175
5.05050505050505,2.8354430379746836,0.01832783798537869,0.016481662273444928,-3.513495998810762e-05,-0.010442850077647087,0.017478137888030324
5.151515151515151,2.8354430379746836,0.01836338019092902,0.016406525569575912,-1.12617542374355e-05,-0.010430971728151479,0.017467367493035617
5.252525252525253,2.8354430379746836,0.018370851050046613,0.016301391244614303,1.5542302707819058e-05,-0.010401672688398273,0.0174285346211081
5.353535353535354,2.8354430379746836,0.01824513963920842,0.016542136158009264,-1.7813879395339443e-05,-0.010436182739165306,0.017456080802790513
5.454545454545454,2.8354430379746836,0.018443522215631506,0.016468305850485202,5.323446639148477e-05,-0.010473548419835011,0.017539770415305213
5.555555555555555,2.8354430379746836,0.018271339570004062,0.01654093211244585,1.7242119715996616e-05,-0.010443681504734972,0.017470552059741348
5.656565656565657,2.8354430379746836,0.018320565041861216,0.016548211269877523,6.184755915110516e-05,-0.01046063289352162,0.01750215112924796
5.757575757575758,2.8354430379746836,0.01850418832557222,0.016497976608427195,-3.954274421935022e-05,-0.010500649480199823,0.0175872465864641
5.858585858585858,2.8354430379746836,0.018458094809699697,0.016768800521008615,-4.023144371541701e-05,-0.010568068599212494,0.017674237770345668
5.959595959595959,2.8354430379746836,0.018655886982330915,0.016684053312798913,-3.6707471128503193e-05,-0.010601982088538946,0.017752407818275532
6.0606060606060606,2.8354430379746836,0.018383103292575476,0.01654917690642554,-8.215869613503992e-06,-0.010479684059700305,0.01753820734765338
6.161616161616162,2.8354430379746836,0.018340572258452207,0.016597710796794615,2.7430068986520513e-05,-0.010481484916574047,0.017534290333346515
6.262626262626262,2.8354430379746836,0.018627225656303266,0.01674527092802997,1.081919245623443e-05,-0.010611748975299972,0.01776119492084909
6.363636363636363,2.8354430379746836,0.018600449656000932,0.016691772911232274,7.549876705873625e-05,-0.01058766677016996,0.017723843511278214
6.4646464646464645,2.8354430379746836,0.018467021418288605,0.01672127981083312,6.553252881710775e-06,-0.010556490368736517,0.017658991335951876
6.565656565656566,2.8354430379746836,0.018524379877029772,0.016675406174604526,1.7138054126506016e-05,-0.01055993581549029,0.01767260997909194
6.666666666666667,2.8354430379746836,0.018550458957226772,0.01680129109719718,-2.5240245772804094e-07,-0.010605525016327185,0.017740666541047924
6.767676767676767,2.8354430379746836,0.018671106851818716,0.016790542619923656,-8.303924688341686e-05,-0.010638494841522711,0.017806044584254603
6.8686868686868685,2.8354430379746836,0.01874417549955126,0.01694819011373357,-0.00014470676483344772,-0.01070770968398545,0.017915586329813996
6.96969696969697,2.8354430379746836,0.01878120157742099,0.016797096212945187,-5.781430890550187e-05,-0.010673489337109853,0.017872222902340456
7.070707070707071,2.8354430379746836,0.018997415150153636,0.017069407746531245,2.605777431244949e-05,-0.010820046869005463,0.01811060117443183
7.171717171717171,2.8354430379746836,0.019012276511808996,0.01701451419871783,8.196763151573696e-06,-0.010808037213158046,0.018096295324748362
7.2727272727272725,2.8354430379746836,0.019026910927690998,0.016820132101521695,-4.9585501615457146e-05,-0.010754112908763809,0.018025326744366934
7.373737373737374,2.8354430379746836,0.019128082347410123,0.017051880812534524,-4.370019490894167e-05,-0.010853988947983395,0.018179277276473567
7.474747474747475,2.8354430379746836,0.019188388894687842,0.017183546429923445,-3.4856014287520406e-05,-0.010911580597383386,0.0182687604839796
7.575757575757575,2.8354430379746836,0.019053301004940064,0.017169549447365415,4.381003214858024e-05,-0.010866855135691644,0.018184907798151493
7.6767676767676765,2.8354430379746836,0.019400176226324905,0.017114876400910854,8.917259947917285e-05,-0.010954515788170726,0.018365131875893812
7.777777777777778,2.8354430379746836,0.0192925806967103,0.017360340975132626,4.6015882458795e-05,-0.010995876501552877,0.018402871566989498
7.878787878787879,2.8354430379746836,0.019518060051567126,0.01742049201144657,5.721347397730954e-05,-0.011081565618904107,0.01855865892339768
7.979797979797979,2.8354430379746836,0.019368253080283924,0.017531856388676964,-5.145099464937193e-05,-0.011070032840688264,0.018518685858520963
8.080808080808081,2.8354430379746836,0.019547202746407193,0.017422746391528035,-5.241004381792146e-05,-0.011090984741380568,0.018576531198162327
8.181818181818182,2.8354430379746836,0.019898197589693883,0.01786319651120574,-0.000121137407209325,-0.011328418230269888,0.01896393065709813
8.282828282828282,2.8354430379746836,0.019898357724293363,0.0177218149525418,-9.749245507843508e-05,-0.01128605180305055,0.0189050486966594
8.383838383838384,2.8354430379746836,0.019937205117303205,0.0177522013111572,2.5702782031745092e-05,-0.01130682192853812,0.0189395222314631
8.484848484848484,2.8354430379746836,0.020029970419004322,0.01816615776227208,2.9059859535477357e-05,-0.011458838454382921,0.019166218553772665
8.585858585858587,2.8354430379746836,0.02008341654426723,0.018267616491741967,7.203181744679775e-05,-0.011505309910802758,0.019240292275677733
8.686868686868687,2.8354430379746836,0.020308662526301702,0.018175887614869983,-4.737271032847041e-05,-0.011545365042351504,0.019330893125519714
8.787878787878787,2.8354430379746836,0.020385674860669382,0.018463132066065587,-4.9973345516715164e-05,-0.01165464207802049,0.019495821860370015
8.88888888888889,2.8354430379746836,0.020560478861933695,0.018325102681647706,-5.161107801743361e-05,-0.011665674463074422,0.01953913468161511
8.98989898989899,2.8354430379746836,0.02064669625697489,0.018677069921337996,3.173129954629122e-05,-0.011797129853493866,0.01973581105919629
9.09090909090909,2.8354430379746836,0.02075994401675093,0.018967588271447563,3.52431132453752e-05,-0.011918259686459546,0.01992441557478785
9.191919191919192,2.8354430379746836,0.020877548711560924,0.018962352212727678,5.97632264574599e-05,-0.01195197027728658,0.019989150171176615
9.292929292929292,2.8354430379746836,0.02113163768156273,0.01908616530672225,1.0252963528996105e-05,-0.012065340896485493,0.020186782868948837
9.393939393939394,2.8354430379746836,0.02151408273602583,0.01944702742237059,5.4672015446970235e-05,-0.012288333047518925,0.02055885798608895
9.494949494949495,2.8354430379746836,0.02157111660394359,0.019213249566340285,0.00012959576647322255,-0.012235309851085162,0.02049539384572237
9.595959595959595,2.8354430379746836,0.02179218316440685,0.01979438276965731,4.712150072560839e-05,-0.012475969780219247,0.020865298528118505
9.696969696969697,2.8354430379746836,0.021983667832396935,0.019874112798840465,3.984541927587687e-05,-0.01255733418937122,0.021008590615393802
9.797979797979798,2.8354430379746836,0.022345276602282287,0.019970208447556398,-5.434570215998294e-05,-0.012694645514951607,0.021257696033942744
9.8989898989899,2.8354430379746836,0.02233259964486789,0.020126375471549496,3.889204939665841e-05,-0.012737692534925215,0.021315399329730075
10.0,2.8354430379746836,0.022785701246314044,0.020522190033142835,2.1286210465315527e-05,-0.012992367383837062,0.02174252361929719
0.0,2.9367088607594938,0.022740321110513818,0.020418748944536175,-2.0839400694632563e-05,-0.012947721016514998,0.021673022581943292
0.10101010101010101,2.9367088607594938,0.022299999633249894,0.020273677850893453,5.114327358032538e-05,-0.012772103245243005,0.02135923302715948
0.20202020202020202,2.9367088607594938,0.022351855874992874,0.02011157756748086,0.00011128825629952832,-0.01273903003274212,0.02132104794165032
0.30303030303030304,2.9367088607594938,0.022021584278032146,0.019726334882771673,3.5259296377705034e-05,-0.012524375748241147,0.020968477425841597
0.40404040404040403,2.9367088607594938,0.021874414674393168,0.01963779282725989,-1.084263952296991e-05,-0.012453662250495918,0.020846295919632246
0.5050505050505051,2.9367088607594938,0.02171735928290093,0.01945440099949768,-3.0589070450393906e-05,-0.01235152808471958,0.02067902327011202
0.6060606060606061,2.9367088607594938,0.021507620196760353,0.0191662322178712,-7.855297551846577e-05,-0.012202155724389464,0.02043821549261238
0.7070707070707071,2.9367088607594938,0.021132261415271407,0.018914827450535802,-3.4433972684239516e-05,-0.012014126659742164,0.020115507669279983
0.8080808080808081,2.9367088607594938,0.02096533035525524,0.01894234061714398,-4.47765561071287e-05,-0.011972301291719766,0.020030749637510496
0.9090909090909091,2.9367088607594938,0.02085948230464482,0.01877372966727106,-5.923956366868469e-05,-0.011889963591574765,0.01989902444414421
1.0101010101010102,2.9367088607594938,0.02066378953732836,0.018502683649513355,-9.191818832508304e-05,-0.011749941956052515,0.019673110743542672
1.1111111111111112,2.9367088607594938,0.020587249095050435,0.01848677546929769,3.0002412730868496e-05,-0.011722207369304436,0.01962158356090281
1.2121212121212122,2.9367088607594938,0.020286500484767777,0.018235891596762234,3.246822021044784e-05,-0.011556717624459001,0.01934297244700069
1.3131313131313131,2.9367088607594938,0.020390085000215826,0.018203802574930428,2.6129935230957263e-05,-0.011578166272543877,0.019389661188211525
1.4141414141414141,2.9367088607594938,0.020174408214585344,0.01806190359926865,-2.0964341551660047e-05,-0.011470893544156197,0.019205525522742628
1.5151515151515151,2.9367088607594938,0.020002897209158484,0.017850019731570885,1.1072808563978265e-05,-0.011355875082218811,0.019018079795995062
1.6161616161616161,2.9367088607594938,0.019878389418991164,0.017966434329908187,-4.889151716500696e-05,-0.011353447124669805,0.018994907777735295
1.7171717171717171,2.9367088607594938,0.019827063655850158,0.01770051215851436,4.507952124784507e-05,-0.011258272744309353,0.018854110932858725
1.8181818181818181,2.9367088607594938,0.019670023851042846,0.017507714341740158,0.00014412007322134478,-0.0111533214578349,0.01868462075825492
1.9191919191919191,2.9367088607594938,0.019681541075193466,0.01757982390936865,5.8748053835019945e-05,-0.011178409495368635,0.01871965799403179
2.0202020202020203,2.9367088607594938,0.019282255301094363,0.01774769850360756,-7.774627301701448e-05,-0.011108986141410575,0.018563099190787847
2.121212121212121,2.9367088607594938,0.01938387987268221,0.01745257451383497,-5.7651287128256285e-06,-0.011050936315955155,0.01849401654439758
2.2222222222222223,2.9367088607594938,0.01925822705680882,0.017307525849610587,-8.21413733065996e-05,-0.010969725871925821,0.01836131093954839
2.323232323232323,2.9367088607594938,0.019041483878143944,0.01724200786603688,-2.574601224362196e-05,-0.010885047523254249,0.018208611075465377
2.4242424242424243,2.9367088607594938,0.01925488585041351,0.017212629539057136,1.7798319580651325e-05,-0.010940254616841193,0.018319360745992625
2.525252525252525,2.9367088607594938,0.019086873908509237,0.017271104491424234,-3.491416577620703e-05,-0.010907393519980041,0.018246974249486916
2.6262626262626263,2.9367088607594938,0.018863103896429083,0.017087106262317974,3.379633878997001e-05,-0.010785063047624116,0.01804088287444223
2.727272727272727,2.9367088607594938,0.018959018410689248,0.016988498078362557,5.887652862906498e-05,-0.010784254946715541,0.018054877389631248
2.8282828282828283,2.9367088607594938,0.01900009090389888,0.017078432120689924,-2.7763267327771985e-05,-0.01082355690737664,0.018115928010049534
2.929292929292929,2.9367088607594938,0.01882048343975072,0.016789199504192918,-1.4697515042689424e-05,-0.010682904883183091,0.017891551461878152
3.0303030303030303,2.9367088607594938,0.01876768888404883,0.01686900478755791,-6.331263254783732e-05,-0.01069100810148202,0.017894391870164377
3.131313131313131,2.9367088607594938,0.018846643541933987,0.016827739066200425,1.9713777323873657e-05,-0.010702314782440322,0.017922710201823348
3.2323232323232323,2.9367088607594938,0.018670307974295006,0.016937662051819617,-7.811766465946065e-05,-0.010682391007834387,0.01786761696123095
3.3333333333333335,2.9367088607594938,0.018653259282578796,0.016820313917815907,1.2870946437213594e-05,-0.01064207196011841,0.017807691102930248
3.4343434343434343,2.9367088607594938,0.01862531144577349,0.01674334004229359,-2.841000738213039e-05,-0.010610595446420124,0.017759340096954134
3.5353535353535355,2.9367088607594938,0.01851643821326106,0.016683017346115527,-0.00012107626399703196,-0.010559836667812976,0.017672449472591677
3.6363636363636362,2.9367088607594938,0.018426703835161182,0.016762710252763408,-3.0339355125825096e-06,-0.010556824226377376,0.017653622845151252
3.7373737373737375,2.9367088607594938,0.018499707613979285,0.01658213511450638,-7.290366783324116e-06,-0.010524552818545698,0.01761936136677335
3.8383838383838382,2.9367088607594938,0.0184166084969725,0.01681340027603418,9.215793547533685e-05,-0.010569002631902004,0.017670358407273698
3.9393939393939394,2.9367088607594938,0.01857089318115247,0.016789505803083853,-0.00010544310877043386,-0.010608119695270896,0.017748318640697022
4.040404040404041,2.9367088607594938,0.018453811873628132,0.016686939211862324,8.794772698111244e-05,-0.010542225325647138,0.01763753611968845
4.141414141414141,2.9367088607594938,0.018474106161999897,0.01648531340366162,3.8183223187491516e-05,-0.010487825869698455,0.017564484064278754
4.242424242424242,2.9367088607594938,0.01846283216541674,0.016575270127934617,1.633329119129703e-05,-0.010511430688005407,0.017595173237085492
4.343434343434343,2.9367088607594938,0.01824501294709906,0.01651682275204035,-1.385040005187472e-06,-0.010428550709741823,0.01744523694482884
4.444444444444445,2.9367088607594938,0.018255800507374447,0.01665762882532048,3.8130836281512866e-05,-0.010474028799808476,0.017511620809287948
4.545454545454545,2.9367088607594938,0.01840526285941009,0.016653453587210647,-1.4643965488936853e-05,-0.010517614933986221,0.01759490465597747
4.646464646464646,2.9367088607594938,0.018365637895926046,0.016451882513999146,4.4134470024832194e-05,-0.010445256122977559,0.017487641927218578
4.747474747474747,2.9367088607594938,0.018285451510274824,0.016323886054654846,-7.26569681915269e-05,-0.0103828012694789,0.017388306503320114
4.848484848484849,2.9367088607594938,0.018416176085764135,0.016392862823539744,-7.322816056189613e-05,-0.010442711672791165,0.01749296235506369
4.94949494949495,2.9367088607594938,0.018331042166875925,0.016414637128415992,-6.582613526928045e-05,-0.010423703788587575,0.01745230680645538
5.05050505050505,2.9367088607594938,0.01828546366588558,0.01652210754931814,-5.311158049417996e-05,-0.010442271364561117,0.017470898219344486
5.151515151515151,2.9367088607594938,0.018444471728460712,0.01660003779558287,9.672364709923555e-05,-0.010513352857213073,0.017595707736163476
5.252525252525253,2.9367088607594938,0.018352696024196792,0.01652838424808842,-2.4685418704316808e-05,-0.010464324081685565,0.017512005979967767
5.353535353535354,2.9367088607594938,0.01848284008848449,0.016624993674469624,-9.896660781043409e-05,-0.010532350128886234,0.01762833162904932
5.454545454545454,2.9367088607594938,0.018183740282079305,0.016500225483572478,-3.643085278640075e-05,-0.010405189729695534,0.01740327608489057
5.555555555555555,2.9367088607594938,0.018050680107941402,0.016442986710696328,4.554244996928267e-05,-0.01034810004559132,0.017303120919004874
5.656565656565657,2.9367088607594938,0.018235479977466235,0.016441895126156885,4.27858754747863e-05,-0.010403212531086935,0.01740828216329516
5.757575757575758,2.9367088607594938,0.018287756951154335,0.01647419772441686,-0.00012014405290883754,-0.010428586402671358,0.017453034830614073
5.858585858585858,2.9367088607594938,0.018337182662962574,0.01657936576546301,-7.481171813322119e-06,-0.010474964528527675,0.017524524148355456
5.959595959595959,2.9367088607594938,0.018472416931474236,0.01650383093214559,2.2100455035705962e-05,-0.01049287435908595,0.017571068324727598
6.0606060606060606,2.9367088607594938,0.01849554370794647,0.016501978660895044,-6.14618988673024e-05,-0.010499256710652454,0.017584046800496366
6.161616161616162,2.9367088607594938,0.01857811633025395,0.016686315224259243,-3.152611967171121e-05,-0.010579329466353959,0.01770825227042136
6.262626262626262,2.9367088607594938,0.01849133737224464,0.016711523833850758,2.4722278474007317e-05,-0.01056085836182862,0.017668842492383326
6.363636363636363,2.9367088607594938,0.018287288501875464,0.016747844178240025,-2.6273146419371386e-05,-0.010510539804034645,0.017568284433380866
6.4646464646464645,2.9367088607594938,0.01857440428660192,0.016589925265103698,8.038352704475615e-05,-0.010549298865511685,0.01766650844053727
6.565656565656566,2.9367088607594938,0.018507291842253137,0.01670029904892651,-2.4261761365935132e-05,-0.010562277267353894,0.01767326504089478
6.666666666666667,2.9367088607594938,0.01856890398596267,0.016734325030442948,2.4097049910440747e-05,-0.010590968704921684,0.017723021658500163
6.767676767676767,2.9367088607594938,0.01880931147981113,0.0168409293843106,-9.934637262453604e-05,-0.01069507225923652,0.017907272924098466
6.8686868686868685,2.9367088607594938,0.018740449159997456,0.01688577200266754,-2.9415954704371862e-05,-0.010687866348799497,0.01788545148986724
6.96969696969697,2.9367088607594938,0.01869058187836772,0.017060684201201923,-1.8441569408272047e-05,-0.010725379823870894,0.017931305074534207
7.070707070707071,2.9367088607594938,0.018729143345502335,0.01692453112764949,-3.943750748075795e-06,-0.010696102341945547,0.017895212808499858
7.171717171717171,2.9367088607594938,0.018934443186613917,0.016921849615907158,-8.209515002330866e-05,-0.010756887840756322,0.01801323268840551
7.2727272727272725,2.9367088607594938,0.01895801226579096,0.016987536913995453,3.697580261948616e-05,-0.010783664753935924,0.01805372005773531
7.373737373737374,2.9367088607594938,0.019077425078440458,0.017229215379553842,-6.243436203352552e-05,-0.010891992137398289,0.018224067570207773
7.474747474747475,2.9367088607594938,0.019084976507983263,0.017249194640617374,2.6892887736304378e-05,-0.01090025134458019,0.018236576960729094
7.575757575757575,2.9367088607594938,0.019254896677908074,0.017207981563997957,-1.3609220291319686e-05,-0.010938863472571808,0.018317432248170378
7.6767676767676765,2.9367088607594938,0.01941948577242739,0.01730531465951048,1.1669057203848026e-06,-0.011017440129581361,0.018453455920164168
7.777777777777778,2.9367088607594938,0.019156576121554632,0.017331947723108244,9.216862603052756e-06,-0.010946557153398862,0.018312572171505954
7.878787878787879,2.9367088607594938,0.019283343446166185,0.01732190467564721,-7.250727483967486e-06,-0.010981574436544019,0.01838128495976
7.979797979797979,2.9367088607594938,0.019625749946073575,0.017591483112991867,-7.530150377480952e-05,-0.011165169917719632,0.018692279188310422
8.080808080808081,2.9367088607594938,0.019561672981710763,0.01746991101359861,-5.441781604595575e-06,-0.011109475198592811,0.01860419961293161
8.181818181818182,2.9367088607594938,0.01965591056540836,0.0175949330866233,5.382611330276516e-06,-0.011175253095609497,0.018710749483668083
8.282828282828282,2.9367088607594938,0.019778988250061608,0.017720507064183395,-1.6522925293676757e-05,-0.0112498485942735,0.018834326768467528
8.383838383838384,2.9367088607594938,0.01978833062745404,0.01784629357786696,-6.222166733821084e-05,-0.0112903872615963,0.018892630317218113
8.484848484848484,2.9367088607594938,0.019890470793348165,0.01786964621198725,-7.220003954827127e-05,-0.011328035101600624,0.01896140940417568
8.585858585858587,2.9367088607594938,0.020100433384421138,0.018047691180510275,-8.53276560434555e-06,-0.011444437369479423,0.0191567320620307
8.686868686868687,2.9367088607594938,0.020282436190674605,0.018221210005297604,2.322486634475615e-05,-0.011551093858791663,0.019334445966198887
8.787878787878787,2.9367088607594938,0.020248917327721314,0.018406408785934355,-5.6139100195092395e-05,-0.011596597834096702,0.0193936624269089
8.88888888888889,2.9367088607594938,0.02044271750492577,0.018513315120065356,-1.8510595056073698e-05,-0.01168680978749734,0.019549580368086166
8.98989898989899,2.9367088607594938,0.0206062476690089,0.018640672673868427,7.922902707100139e-05,-0.011774076102863199,0.019697630177571427
9.09090909090909,2.9367088607594938,0.020896884799807672,0.018631902029345053,-5.483329833712391e-05,-0.011858636048745819,0.019861718891647784
9.191919191919192,2.9367088607594938,0.02073451413665397,0.018903040087048986,-2.4293185384605868e-06,-0.011891266267110885,0.01988214442181215
9.292929292929292,2.9367088607594938,0.02121671015747711,0.019072108638591285,1.2537630976451462e-05,-0.012086645638820519,0.02022985883115069
9.393939393939394,2.9367088607594938,0.02127395516433297,0.01925879763710017,4.277713595403716e-05,-0.012159825840429942,0.02034151289752744
9.494949494949495,2.9367088607594938,0.021614031594267953,0.01938224102796094,3.581378613352441e-05,-0.012298881786668667,0.020589150224323317
9.595959595959595,2.9367088607594938,0.02163677080114622,0.019554655064901935,-4.469961193348255e-05,-0.012357427759814446,0.020674641226386327
9.696969696969697,2.9367088607594938,0.021970988711800542,0.01997782493817032,-1.357342852773574e-05,-0.012584644094991259,0.021045327765213482
9.797979797979798,2.9367088607594938,0.022320319084543575,0.019853413684305786,1.738195834195736e-05,-0.012652119830654809,0.021194835621025677
9.8989898989899,2.9367088607594938,0.022431136353273515,0.020178690784097404,8.417062955746668e-05,-0.012782948141211276,0.02139452569082507
10.0,2.9367088607594938,0.022876602316638822,0.02041819922619481,-2.9388919829285423e-05,-0.01298844046285009,0.021751904757985958
0.0,3.0379746835443036,0.018742205045817806,0.016821824665096154,2.9730627366982266e-05,-0.010669208913274188,0.017859692036966905
0.10101010101010101,3.0379746835443036,0.018609571811137694,0.016502652305136114,1.0817675172053965e-05,-0.010533667234882142,0.0176506870692822
0.20202020202020202,3.0379746835443036,0.01819660802850822,0.0165056086981221,4.411442040553595e-05,-0.010410665017989096,0.01741296668386215
0.30303030303030304,3.0379746835443036,0.018086571073359405,0.016278317777495593,-3.721717218001794e-05,-0.010309466655256498,0.017253778912838823
0.40404040404040403,3.0379746835443036,0.01776101061347164,0.016020255525746045,7.468229179601549e-05,-0.010134379841765304,0.016958269045892312
0.5050505050505051,3.0379746835443036,0.017703144738093403,0.01605178373248883,-4.7658893953181354e-05,-0.010126478541174669,0.016938148009808297
0.6060606060606061,3.0379746835443036,0.01754378714189189,0.015566130340767044,-3.7884749964260295e-05,-0.009932975244797679,0.016643446443187087
0.7070707070707071,3.0379746835443036,0.017463353136267405,0.015525709754657635,-2.1561854332869015e-05,-0.009896718867277512,0.016579710755974024
0.8080808080808081,3.0379746835443036,0.01727147935872586,0.015580059418216352,-4.0916425125817666e-05,-0.009855461633082664,0.016491106649528846
0.9090909090909091,3.0379746835443036,0.01743645434719125,0.015448367837273267,8.683556325706587e-05,-0.009865446655339354,0.01653299336929914
1.0101010101010102,3.0379746835443036,0.017008745203144583,0.015289479650533634,5.1472134309707464e-05,-0.009689467456103466,0.016217850839331843
1.1111111111111112,3.0379746835443036,0.016923010455450395,0.015111925594803871,4.489041238969691e-05,-0.00961048081507628,0.016094264464792757
1.2121212121212122,3.0379746835443036,0.01670606198116944,0.014896074635968296,-2.9285165222265514e-05,-0.00948064098514132,0.015878708171545533
1.3131313131313131,3.0379746835443036,0.016798248899517906,0.01490858714580875,2.0753034362736627e-05,-0.009512050813597996,0.015937699684213703
1.4141414141414141,3.0379746835443036,0.016553404257003374,0.014830487733710969,1.93559762888614e-05,-0.009415167597214303,0.015762760674841694
1.5151515151515151,3.0379746835443036,0.01648954389037567,0.014628677113441232,-3.499250497347896e-05,-0.009335466301145071,0.015642465020192134
1.6161616161616161,3.0379746835443036,0.016160108790729485,0.014703335318905069,-2.7736897752366875e-05,-0.009259033232890367,0.015483281154031378
1.7171717171717171,3.0379746835443036,0.01611929298174524,0.014661683822549586,1.0312438391882111e-05,-0.009234293041288448,0.015442179918700567
1.8181818181818181,3.0379746835443036,0.016090103871348366,0.014591405272852787,-3.180093895556383e-05,-0.009204452743260346,0.015395660357952484
1.9191919191919191,3.0379746835443036,0.016008480443286892,0.014322574532449594,9.109114564300125e-05,-0.009099316492720945,0.015236463691778286
2.0202020202020203,3.0379746835443036,0.015953064940838604,0.014297573281216572,2.8919312329063798e-05,-0.009075191466616553,0.015193198368566169
2.121212121212121,3.0379746835443036,0.015977105365062992,0.014375748104844118,-1.3783018919633445e-06,-0.009105856040972133,0.015239658557418639
2.2222222222222223,3.0379746835443036,0.015714504230637978,0.014280919557202914,0.0001039197092590686,-0.008998627136352267,0.015050087499177245
2.323232323232323,3.0379746835443036,0.01576889459554521,0.014063185427538085,-7.370926397163705e-05,-0.008949624006924988,0.014989550747673018
2.4242424242424243,3.0379746835443036,0.015679503577427683,0.014007356540148855,2.4527442285092808e-05,-0.008906058035272961,0.014913962501029849
2.525252525252525,3.0379746835443036,0.015509491953115484,0.013992614537316062,-6.041897437574653e-05,-0.008850631947129463,0.01480980118102557
2.6262626262626263,3.0379746835443036,0.01556462319796488,0.01407914693983602,-5.405792535777985e-05,-0.00889313104134027,0.01487790386978873
2.727272727272727,3.0379746835443036,0.015496926359688431,0.013884544722411234,-2.8572218844416744e-05,-0.0088144413246299,0.014757031908900426
2.8282828282828283,3.0379746835443036,0.01542163851094001,0.014009342394640908,4.1364888831519635e-05,-0.008829294271674275,0.014766405373967506
2.929292929292929,3.0379746835443036,0.015475863638877353,0.013925756290814462,3.413921885856861e-05,-0.008820485978907543,0.014762094521923185
3.0303030303030303,3.0379746835443036,0.015440529479321098,0.014032294507331953,-7.345968319662577e-05,-0.008841847195995916,0.014787338222765917
3.131313131313131,3.0379746835443036,0.015213776123588924,0.013812606648648865,-6.055781488975385e-05,-0.008707914831671337,0.014564208968566614
3.2323232323232323,3.0379746835443036,0.015314568479965365,0.013748510700435344,5.991330224961076e-05,-0.008718923754120212,0.014595061301671174
3.3333333333333335,3.0379746835443036,0.015356443239763193,0.01373917123182756,8.118122720196806e-05,-0.008728684341477225,0.014615749830424352
3.4343434343434343,3.0379746835443036,0.01521114951375801,0.013898987084834755,8.762005379590621e-05,-0.00873304097957783,0.014600149749183135
3.5353535353535355,3.0379746835443036,0.015093901097809564,0.013687507784617964,5.9013039427824035e-05,-0.008634422664728258,0.014442516350843424
3.6363636363636362,3.0379746835443036,0.015319434835048542,0.013471534041528356,-9.129578650942128e-06,-0.00863729066297307,0.014484173268352022
3.7373737373737375,3.0379746835443036,0.01508264159876097,0.013913470662192576,5.34835195095159e-05,-0.008698833678286064,0.014533665522923652
3.8383838383838382,3.0379746835443036,0.015086187783077597,0.013641786267514595,-3.7827107359751245e-05,-0.008618392215177658,0.014418499843487488
3.9393939393939394,3.0379746835443036,0.015209102336731369,0.013491393769422952,7.715259462656032e-05,-0.008610148831846296,0.014427763818245405
4.040404040404041,3.0379746835443036,0.014924603719196747,0.013809988325415466,1.2821141908682374e-05,-0.008620377613383664,0.01439970359919443
4.141414141414141,3.0379746835443036,0.015028993500963064,0.013401025302465147,-5.90524148887458e-05,-0.008529005641028462,0.01428512037735151
4.242424242424242,3.0379746835443036,0.01510265136194554,0.013655715818656012,9.460823405253417e-06,-0.008627510154180465,0.014433689968089919
4.343434343434343,3.0379746835443036,0.015206751913489813,0.013746999837569097,-4.6393361268786806e-05,-0.008686125525317672,0.014532190104721392
4.444444444444445,3.0379746835443036,0.015189012903081691,0.013538868766549387,-1.8392894671646903e-05,-0.008618364500889323,0.014434889779811395
4.545454545454545,3.0379746835443036,0.015268011420707299,0.0135619533924068,-2.7248618549704027e-06,-0.008648989443934229,0.014490504323622146
4.646464646464646,3.0379746835443036,0.01485683107588176,0.01344926782932591,5.20976078953063e-05,-0.0084918296715623,0.014205733948300105
4.747474747474747,3.0379746835443036,0.01500767756805629,0.013417089453479275,5.224449571501511e-05,-0.00852743010646067,0.014279268588825436
4.848484848484849,3.0379746835443036,0.015073599858925207,0.013449389038684874,-3.5663070720990434e-06,-0.008556896669283024,0.014330694597973075
4.94949494949495,3.0379746835443036,0.014894450167880957,0.013537215327121935,-2.6327959056808122e-05,-0.008529499648500869,0.01426441534024253
5.05050505050505,3.0379746835443036,0.0149974463045214,0.013577939409213018,-1.2083212750564132e-05,-0.008572615714120326,0.01434049702951876
5.151515151515151,3.0379746835443036,0.015024180782358567,0.013429402315471272,-2.6001183044937478e-05,-0.008536074929348951,0.014293743901779957
5.252525252525253,3.0379746835443036,0.015076192724765592,0.01351382472549409,2.272037998637119e-05,-0.008577005235077904,0.014358954294181703
5.353535353535354,3.0379746835443036,0.014958956788108185,0.01359309407947034,-7.347368481728805e-05,-0.008565615260273557,0.014325511615206468
5.454545454545454,3.0379746835443036,0.014938938679868877,0.013559274121071822,-6.649962647320495e-05,-0.008549463840282209,0.014299577110320039
5.555555555555555,3.0379746835443036,0.014903796397455139,0.013590997767621226,0.00013519906035745947,-0.00854843824952291,0.014294605281963978
5.656565656565657,3.0379746835443036,0.015105968157248875,0.013501967944820675,-1.9619110198115267e-05,-0.008582380830620864,0.014371300193252548
5.757575757575758,3.0379746835443036,0.015051338768429855,0.01352699668644263,-3.794161976653151e-05,-0.008573500636461744,0.014350168888536638
5.858585858585858,3.0379746835443036,0.015084117489739557,0.013749335239762817,-2.3997804953835447e-05,-0.008650035818850712,0.014463054985070738
5.959595959595959,3.0379746835443036,0.015143769600109824,0.01369154853554534,2.5141733608815658e-05,-0.00865059544069655,0.014472473832475602
6.0606060606060606,3.0379746835443036,0.015195016921580935,0.013685429170181422,4.860797319802562e-05,-0.008664133827528708,0.014499526585525292
6.161616161616162,3.0379746835443036,0.015185879932236487,0.01383605229893443,-7.754753217096115e-06,-0.008706579669351275,0.014557982140254916
6.262626262626262,3.0379746835443036,0.015104712536730494,0.013834514114592543,-6.649318321035347e-05,-0.00868176799539691,0.014511823691325051
6.363636363636363,3.0379746835443036,0.015137221422039696,0.013767377275246233,-2.5400921606961947e-05,-0.008671379609185778,0.014500973995670758
6.4646464646464645,3.0379746835443036,0.015174069573814597,0.013672537007684714,-3.12839102405605e-05,-0.008653981974449793,0.014481904705577616
6.565656565656566,3.0379746835443036,0.01537107707180341,0.01375447118744134,-3.586994614647652e-05,-0.008737664477773426,0.014630048231243939
6.666666666666667,3.0379746835443036,0.015259539752325803,0.013820973678131976,6.707017871901544e-05,-0.008724154029137333,0.014593994135730804
6.767676767676767,3.0379746835443036,0.015198699217249017,0.013798000330416784,-2.0392897586764626e-05,-0.00869900986429974,0.014549050202810363
6.8686868686868685,3.0379746835443036,0.015233171677424832,0.013757860140538033,9.493744467725594e-05,-0.00869730954538886,0.014552643365412786
6.96969696969697,3.0379746835443036,0.015350411063025886,0.013901465137565128,3.206135060367421e-05,-0.008775562860177303,0.014679772897612051
7.070707070707071,3.0379746835443036,0.015530913336236872,0.013930232839210424,-3.822445922676909e-05,-0.00883834385263419,0.01479580347128159
7.171717171717171,3.0379746835443036,0.015461364181047295,0.01402462898980137,-2.370691591246879e-05,-0.008845797951254598,0.014795465196429044
7.2727272727272725,3.0379746835443036,0.015277404649465512,0.014009842577770602,2.6226716385112472e-05,-0.008786174168170834,0.01468478162123867
7.373737373737374,3.0379746835443036,0.015571933602065238,0.014016682981151102,-2.0512897513886913e-05,-0.008876584974964902,0.014855535114375039
7.474747474747475,3.0379746835443036,0.015569214184288135,0.013999254140880173,-7.671357195892296e-06,-0.008870540497550492,0.014846627133012644
7.575757575757575,3.0379746835443036,0.0157507248037613,0.014003925343208073,-4.392197860435845e-05,-0.008926395044090813,0.014954232512211767
7.6767676767676765,3.0379746835443036,0.01568706142044732,0.01418788659168224,3.471974092348775e-07,-0.008962484403638867,0.014993791178981428
7.777777777777778,3.0379746835443036,0.015992482312106263,0.014314273846865308,2.6508705232998116e-05,-0.00909202684769147,0.015222984697286024
7.878787878787879,3.0379746835443036,0.015794373865387918,0.014373424314674869,1.6969904168737128e-06,-0.009050339454018836,0.015134012806153993
7.979797979797979,3.0379746835443036,0.016045184016615727,0.014281822555686418,-5.975525061207986e-05,-0.009098101971690644,0.015240558608871906
8.080808080808081,3.0379746835443036,0.01607327172246043,0.014414292184486522,7.604128368935984e-05,-0.009146269172084085,0.015311903699608387
8.181818181818182,3.0379746835443036,0.016046573205221657,0.014502607134527926,-0.00012155816555634796,-0.009164754101924875,0.01533444839050515
8.282828282828282,3.0379746835443036,0.01624004856093124,0.014460132396260173,9.921582577878707e-05,-0.009210054287157423,0.01542824958335431
8.383838383838384,3.0379746835443036,0.016289994997469488,0.014568352709325438,9.231417959722684e-06,-0.009257504312038478,0.015501054821586853
8.484848484848484,3.0379746835443036,0.016453927135513975,0.014703302908498597,-5.8940166372050707e-05,-0.009347169013203772,0.015652545534885876
8.585858585858587,3.0379746835443036,0.016527130959471427,0.014786794296716664,-1.6228417362822574e-06,-0.009394177576856427,0.015729337729643158
8.686868686868687,3.0379746835443036,0.016669934973796294,0.014893925627704559,2.7229110565998407e-05,-0.009469158180450256,0.015856771587848043
8.787878787878787,3.0379746835443036,0.016750993823674915,0.014974043745830347,2.0188837882533528e-05,-0.009517511270851578,0.015937028852597308
8.88888888888889,3.0379746835443036,0.016778154653420668,0.015252407595062403,-3.493150382592691e-07,-0.009609168674544921,0.016069696883236995
8.98989898989899,3.0379746835443036,0.016866605027631217,0.01534565959630713,-1.5728228285408615e-05,-0.009663679387181505,0.016159925632129365
9.09090909090909,3.0379746835443036,0.01702666536746383,0.015371996636073616,3.616556869500861e-05,-0.009719598601061233,0.0162627087291116
9.191919191919192,3.0379746835443036,0.01705133094335062,0.015534722328863593,4.33494577838614e-05,-0.009775815981664264,0.016346052451846543
9.292929292929292,3.0379746835443036,0.017432415773905422,0.015721650229500367,3.259955690748932e-05,-0.009946219801021736,0.016643204330711713
9.393939393939394,3.0379746835443036,0.01755823510887307,0.015837141300639963,-4.118470610611696e-06,-0.01001861292285391,0.01676408259318771
9.494949494949495,3.0379746835443036,0.01764362946604947,0.01565835715650267,-2.0681799359720063e-05,-0.009990595986765641,0.016739559165937577
9.595959595959595,3.0379746835443036,0.017742847410802922,0.016116481687345904,-1.1191635866841401e-05,-0.010157798729444648,0.016988164015047477
9.696969696969697,3.0379746835443036,0.01803212708478797,0.01625450231130134,9.149663231656027e-05,-0.010285988818826794,0.01721302751156387
9.797979797979798,3.0379746835443036,0.018274220063516925,0.01640755978103045,4.933375769618268e-06,-0.010404533953364211,0.017416080264188664
9.8989898989899,3.0379746835443036,0.018539960013061733,0.01644715324986414,3.439228768179824e-05,-0.010496133978877763,0.017587295193338317
10.0,3.0379746835443036,0.018543636471527528,0.01658250499243158,4.10656651283958e-06,-0.010537842439187732,0.017645000188067674
0.0,3.1392405063291138,0.018779184167524478,0.016796959201473702,-1.1411235636999054e-05,-0.010672843010699455,0.017870724572993702
0.10101010101010101,3.1392405063291138,0.018389705820350842,0.016611546056381345,-5.9624785366744535e-06,-0.010500375563019654,0.017568249884314404
0.20202020202020202,3.1392405063291138,0.018227321802063486,0.016282833207751674,1.0162391677698267e-05,-0.010353046502944548,0.017337063951056938
0.30303030303030304,3.1392405063291138,0.01827790300289825,0.016226410583199808,9.242502410412766e-06,-0.010351294075829416,0.017343403245746215
0.40404040404040403,3.1392405063291138,0.017876810206459717,0.016104342234132134,3.938748317915709e-05,-0.010194345732177557,0.017059911091616926
0.5050505050505051,3.1392405063291138,0.0176055527477593,0.015809224124239907,0.00010342416722418924,-0.010024433061599761,0.016780614274192338
0.6060606060606061,3.1392405063291138,0.017512774933438655,0.015719056970975996,-3.232482744066477e-05,-0.009969549571324395,0.01668846504957454
0.7070707070707071,3.1392405063291138,0.01720989852955691,0.015637603028452206,-9.451357373350119e-05,-0.009854250467402733,0.016480912382353354
0.8080808080808081,3.1392405063291138,0.017157930829092033,0.015513236306006322,-9.225396734324163e-05,-0.009801350140529507,0.016398341011564416
0.9090909090909091,3.1392405063291138,0.017095166294077414,0.01527790119635451,-4.3049888358982385e-05,-0.009711920247129576,0.016263033969411415
1.0101010101010102,3.1392405063291138,0.0170907327507569,0.015370232141458705,-6.064780451591823e-05,-0.00973828946766468,0.016299070116480203
1.1111111111111112,3.1392405063291138,0.016781661808380068,0.015167234477896842,-4.188882871763512e-05,-0.009584668885883073,0.016035680191491476
1.2121212121212122,3.1392405063291138,0.016779349519576606,0.01481523629348069,-2.4168140830427384e-05,-0.009478375743917189,0.015888660140032186
1.3131313131313131,3.1392405063291138,0.01663442219111951,0.015020932352333156,-1.1691047366042388e-06,-0.0094966063630358,0.01588923799347345
1.4141414141414141,3.1392405063291138,0.016394214259064257,0.01492727068989874,0.00011403373768167034,-0.009396445484688898,0.01571342764989087
1.5151515151515151,3.1392405063291138,0.01637216792940782,0.01466759059961048,-1.9697188466006596e-05,-0.009311927558705491,0.015589964856521832
1.6161616161616161,3.1392405063291138,0.01632037841078835,0.014755201663064993,2.000565511294837e-05,-0.009322674022156004,0.01559684114168756
1.7171717171717171,3.1392405063291138,0.016217232256331142,0.01457932574495442,-1.0003011935124922e-06,-0.009238967400385668,0.015463474787008628
1.8181818181818181,3.1392405063291138,0.016042539035934823,0.014590156856054859,-7.41749061523745e-05,-0.009189808767596903,0.015368444314575668
1.9191919191919191,3.1392405063291138,0.016143883435862823,0.014537830197954817,-4.616846419420077e-06,-0.009204514090145291,0.015403782232781549
2.0202020202020203,3.1392405063291138,0.015852344933961593,0.014371317491143431,3.525791530851866e-06,-0.009067098727531508,0.015166165026303765
2.121212121212121,3.1392405063291138,0.015847367592512655,0.014200785994535272,-4.013365703031977e-05,-0.009014446076114378,0.015091757314775623
2.2222222222222223,3.1392405063291138,0.015891021805931955,0.014208054475667068,-3.005755640524594e-05,-0.009029722884479707,0.015120039447618003
2.323232323232323,3.1392405063291138,0.016068719314804938,0.01419611672568747,1.553991643059515e-05,-0.009079450812147722,0.015219092612539589
2.4242424242424243,3.1392405063291138,0.01581143842086128,0.014046976788748335,5.186081074626317e-05,-0.008957524562882884,0.015007474870105047
2.525252525252525,3.1392405063291138,0.015655547316223893,0.014028480153152625,8.577949548678991e-05,-0.008905208240812956,0.014909492168785341
2.6262626262626263,3.1392405063291138,0.015631863006411423,0.014076734112435627,-2.8675663350603514e-05,-0.008912579135654115,0.01491530998609001
2.727272727272727,3.1392405063291138,0.015542963389501733,0.01382215223695384,3.117475826291731e-05,-0.008809534687936672,0.014758093128940625
2.8282828282828283,3.1392405063291138,0.01563026894028871,0.013974741623859121,-6.400795655291273e-07,-0.00888150316924435,0.014871776688631225
2.929292929292929,3.1392405063291138,0.01531427928810807,0.013809963223116596,0.00013247537691100656,-0.0087372727533674,0.014622080896957289
3.0303030303030303,3.1392405063291138,0.01535989554200809,0.013980834723170752,-7.368617809779217e-05,-0.008802219079553652,0.014719451709848523
3.131313131313131,3.1392405063291138,0.01541441095947215,0.013768968139332248,5.0296599662484844e-05,-0.008755013729641319,0.014661364353487319
3.2323232323232323,3.1392405063291138,0.01530105209609202,0.013775015015383559,3.801251407410518e-05,-0.008722820133442673,0.014598128181387147
3.3333333333333335,3.1392405063291138,0.015313892193251443,0.013659449338652273,-3.3876317536155456e-05,-0.008692002459571115,0.014557470884913501
3.4343434343434343,3.1392405063291138,0.01510500338115401,0.01363610766201297,-6.828396839453369e-06,-0.008622333312950094,0.01442675455032098
3.5353535353535355,3.1392405063291138,0.015186261468184149,0.01395738337639182,-2.2830600360264605e-05,-0.00874309345337279,0.014610687130966794
3.6363636363636362,3.1392405063291138,0.015177299944969446,0.013689813734213043,-8.87361507631099e-05,-0.008660134103754746,0.014491744090186689
3.7373737373737375,3.1392405063291138,0.014981250750889128,0.013427363116182011,-1.8790926753401205e-05,-0.008522584160121341,0.014267947289110763
3.8383838383838382,3.1392405063291138,0.015090878717513136,0.013522988354542995,3.0833282573392556e-05,-0.00858416012161684,0.014371322465973278
3.9393939393939394,3.1392405063291138,0.015155970304018478,0.013395750528823861,1.7176246871771106e-05,-0.008565516249852701,0.01435704899839275
4.040404040404041,3.1392405063291138,0.01513826069049326,0.013776166116229373,-1.9771181082687766e-05,-0.00867432804201679,0.014505297939410402
4.141414141414141,3.1392405063291138,0.015035388541645645,0.01357721144144256,7.053637581181373e-06,-0.00858377999492646,0.014361931591924943
4.242424242424242,3.1392405063291138,0.015153912830402105,0.013673265009060962,-6.848999590004926e-05,-0.00864815335183892,0.014471000541211879
4.343434343434343,3.1392405063291138,0.015198594506910895,0.013586613262849132,7.4609262870064385e-06,-0.008635562330928008,0.014460154778968708
4.444444444444445,3.1392405063291138,0.015094323818669762,0.013495930933186828,-1.5375333227337922e-07,-0.008577076425556976,0.014361991910149745
4.545454545454545,3.1392405063291138,0.014921217394120672,0.01360904024100079,8.196286273646423e-06,-0.008559077290536439,0.01431032698367878
4.646464646464646,3.1392405063291138,0.01516993325945559,0.0136333561576608,5.2879707476519405e-05,-0.008640986825134917,0.014463283202449254
4.747474747474747,3.1392405063291138,0.015060416580757624,0.013604679040649565,4.370647777046943e-05,-0.008599528686422157,0.014388086611984293
4.848484848484849,3.1392405063291138,0.014925933141777448,0.013841038249355462,5.622858113704599e-06,-0.008630091417339872,0.014414142475356188
4.94949494949495,3.1392405063291138,0.015149155953013709,0.013469300645072629,4.429829791411116e-05,-0.008585536979425901,0.014383196338903446
5.05050505050505,3.1392405063291138,0.015090716662047733,0.013592471155508557,-1.8481899012573536e-06,-0.008604956345266887,0.014400169470881886
5.151515151515151,3.1392405063291138,0.015124278776839853,0.013401092299508657,2.2122115861999525e-05,-0.008557611322904553,0.014340596070304
5.252525252525253,3.1392405063291138,0.015120190142913562,0.01355764729300311,-1.7752362373733822e-05,-0.008603351230775002,0.014402662620421273
5.353535353535354,3.1392405063291138,0.015074009392165726,0.013420709113672647,-4.8976850279833284e-05,-0.008548415551751511,0.014319374750158645
5.454545454545454,3.1392405063291138,0.015224309998498093,0.013446107078357935,-4.954110496778908e-06,-0.008601125123056809,0.014417689887383074
5.555555555555555,3.1392405063291138,0.015041145280458657,0.013503871058523366,0.00014782619989274896,-0.008563504901694606,0.014336751941405065
5.656565656565657,3.1392405063291138,0.015118945161459786,0.013622055982559228,-4.649928016220053e-06,-0.008622300343205705,0.014428855098934545
5.757575757575758,3.1392405063291138,0.015050239543130901,0.013614624857990358,2.4572201860368647e-06,-0.008599459320336377,0.014386256394232785
5.858585858585858,3.1392405063291138,0.014948323382859341,0.013411266885802488,2.2486413235565708e-05,-0.00850787708059855,0.014242191333298883
5.959595959595959,3.1392405063291138,0.015095292734390382,0.013640879334035445,-5.504098810055467e-05,-0.008620851620527748,0.014423504205705574
6.0606060606060606,3.1392405063291138,0.015167742211352371,0.013579639575707469,5.206260325498181e-05,-0.008624214536117952,0.014439621668614615
6.161616161616162,3.1392405063291138,0.015062998209734888,0.01370709660952733,2.8853178816626385e-05,-0.008631028445778665,0.01443298092416124
6.262626262626262,3.1392405063291138,0.015286966482312613,0.01358746844481924,-2.4487444369163577e-06,-0.008662330478139557,0.014512046246616075
6.363636363636363,3.1392405063291138,0.015224313870440194,0.013683088195340873,9.61093108448745e-05,-0.008672220619734319,0.014516153656642765
6.4646464646464645,3.1392405063291138,0.015257545492644025,0.01367642505124352,-3.5237132964877866e-05,-0.008680191163166264,0.014531770167908577
6.565656565656566,3.1392405063291138,0.015146145920318817,0.01360170048523477,1.668226637632679e-05,-0.008624353921666076,0.014436048174961991
6.666666666666667,3.1392405063291138,0.015335200071164774,0.013866789368176684,4.6279576202525284e-05,-0.008760596831802437,0.01465648814333981
6.767676767676767,3.1392405063291138,0.015294120132735208,0.013906408313010148,2.9805472601132528e-05,-0.008760158533723606,0.014649733395090857
6.8686868686868685,3.1392405063291138,0.015278077260115897,0.01378475241852901,-2.645303828303229e-06,-0.008718848903593472,0.014588850281542175
6.96969696969697,3.1392405063291138,0.015295568436688658,0.01393511052103676,1.97642270642396e-05,-0.008769203687317624,0.014662791489399696
7.070707070707071,3.1392405063291138,0.015318269764551074,0.013916386815897524,-3.838216238941978e-05,-0.008770396974134578,0.014667810428508234
7.171717171717171,3.1392405063291138,0.01543236141866745,0.0137987484194562,3.4643727748644475e-05,-0.008769332951437095,0.014683990082028904
7.2727272727272725,3.1392405063291138,0.015619166709708558,0.013921928249665646,1.7107256558695323e-05,-0.00886232848781226,0.014843531069696943
7.373737373737374,3.1392405063291138,0.01547000142477977,0.014145485682743854,-0.0001194283190328851,-0.008884646132257087,0.014853545535908633
7.474747474747475,3.1392405063291138,0.015600165887580956,0.014050788629307441,-2.918697304010224e-05,-0.008895286355066518,0.014886159981512128
7.575757575757575,3.1392405063291138,0.015685209781558313,0.014219680978149827,9.59703079603293e-07,-0.008971467227912441,0.015006213933095326
7.6767676767676765,3.1392405063291138,0.015692687283498884,0.014343473750465281,2.0042318801763568e-05,-0.00901084831018925,0.015063506576042529
7.777777777777778,3.1392405063291138,0.015831273746011603,0.014282096423076379,-1.1967836552234129e-05,-0.009034011050726393,0.015116353998431212
7.878787878787879,3.1392405063291138,0.015815556481622403,0.014389270153156176,3.559654286907587e-05,-0.009061447990433574,0.015152966998872771
7.979797979797979,3.1392405063291138,0.015919112373386564,0.014417161753143233,-3.674304373379977e-05,-0.009100882237958938,0.01522393917069481
8.080808080808081,3.1392405063291138,0.015943790441467084,0.014477939998657674,4.149221026250022e-05,-0.009126519132037427,0.015263915739218236
8.181818181818182,3.1392405063291138,0.016082626863381452,0.014306267194003625,3.375675096052198e-05,-0.009116668217215523,0.015272237207386933
8.282828282828282,3.1392405063291138,0.01622871811798959,0.014509222512263855,3.1288901966545026e-06,-0.009221382189076033,0.015440944814702581
8.383838383838384,3.1392405063291138,0.016304584191976956,0.014653364110931945,-3.700303374590234e-05,-0.00928738449087267,0.015545019918673277
8.484848484848484,3.1392405063291138,0.016309969892191172,0.014643396001779923,4.445107980020633e-05,-0.009286009768191328,0.015544025995093736
8.585858585858587,3.1392405063291138,0.016395335284786382,0.014854511241659674,-1.9969999065095167e-05,-0.009374953957933817,0.01568183750180776
8.686868686868687,3.1392405063291138,0.016786950837033715,0.015151929879676215,-2.1029576663604138e-05,-0.009581664215012978,0.01603213405122939
8.787878787878787,3.1392405063291138,0.016642580315007087,0.014944148733038027,-6.933612101238184e-05,-0.009476018714413535,0.01586216529546511
8.88888888888889,3.1392405063291138,0.016831137359367546,0.015048770253942459,-3.2320392137591234e-05,-0.009563972283993001,0.01601461474889156
8.98989898989899,3.1392405063291138,0.01679437034543723,0.01515462779355932,-4.0136979625365185e-05,-0.009584699441698964,0.01603764384752732
9.09090909090909,3.1392405063291138,0.0171702960467841,0.01538048295200283,-3.5709258124703496e-05,-0.009765233699636078,0.016349149886033903
9.191919191919192,3.1392405063291138,0.01723020338195667,0.015451018025537371,-7.846269139128252e-05,-0.009804366422248212,0.01641365750686316
9.292929292929292,3.1392405063291138,0.017229452008682155,0.015611832276668387,3.5974131929071323e-07,-0.009852385285605161,0.01648029153152622
9.393939393939394,3.1392405063291138,0.017412855361609973,0.015785903009032196,-3.18026646815784e-05,-0.00995962751119265,0.01665916126444192
9.494949494949495,3.1392405063291138,0.01775354434147639,0.01595292353925596,5.62981386101971e-06,-0.010111940364219705,0.01692522572340364
9.595959595959595,3.1392405063291138,0.017843797386715,0.015895128110612073,-1.0543028369450658e-05,-0.010121677649198121,0.016953674848115052
9.696969696969697,3.1392405063291138,0.018051879969048876,0.016316547669421352,-1.355059939932197e-05,-0.010310528291541068,0.01724981997251047
9.797979797979798,3.1392405063291138,0.018294935754547013,0.016335215770415752,-8.462623039172023e-06,-0.01038904545748883,0.01739805852158766
9.8989898989899,3.1392405063291138,0.01834000346486174,0.01654374609495616,-1.531932752585841e-05,-0.01046512486794537,0.01751112804155165
10.0,3.1392405063291138,0.018643636032405504,0.016698160482013186,-2.4514263604485218e-05,-0.010602538954325606,0.017751087414631397
0.0,3.240506329113924,0.018588546200793976,0.01691591360568511,2.0998397472586418e-05,-0.010651337941943726,0.017811267899400844
0.10101010101010101,3.240506329113924,0.018360853418079862,0.016667781702581787,-4.75377141590208e-05,-0.010508590536198495,0.017575777877018126
0.20202020202020202,3.240506329113924,0.018283700185655415,0.016424460725865363,6.506305559060434e-05,-0.010412448273456233,0.01742898122654458
0.30303030303030304,3.240506329113924,0.01784651982262075,0.01626367336178805,2.9908336153349147e-05,-0.01023305795532264,0.017110174034300894
0.40404040404040403,3.240506329113924,0.0179026561293931,0.016089009562965703,-4.25350445029576e-05,-0.01019749970770764,0.01706841372905633
0.5050505050505051,3.240506329113924,0.017680164617173123,0.01620144429342062,-6.781168562103549e-06,-0.010164482673178123,0.016989142235329498
0.6060606060606061,3.240506329113924,0.017533802865099965,0.015789092398645288,-0.00010727516459247335,-0.009996868579123576,0.01673085090577483
0.7070707070707071,3.240506329113924,0.017489525247876496,0.015707383936042773,-3.0181788293193753e-05,-0.009959072755175779,0.016670136424273434
0.8080808080808081,3.240506329113924,0.017072057917372763,0.015439998401850197,-8.490655745922443e-05,-0.009753616895766887,0.01631802048635912
0.9090909090909091,3.240506329113924,0.017022735621375018,0.015328489921616131,-8.853819125975875e-06,-0.009705367662897344,0.016242029893830195
1.0101010101010102,3.240506329113924,0.016918395732210868,0.01513321838941037,-0.00012222061312761086,-0.009615484236486371,0.016101597721781633
1.1111111111111112,3.240506329113924,0.016587236843884426,0.015330347603754749,-3.008711401275512e-06,-0.009575275334291752,0.01599587147740137
1.2121212121212122,3.240506329113924,0.016833703341577463,0.014921348567443036,-4.660791046110192e-05,-0.00952651557270615,0.015963870862504347
1.3131313131313131,3.240506329113924,0.016555364808024643,0.014977679990020447,-7.2207121633058e-05,-0.009459913439413527,0.015826107771743626
1.4141414141414141,3.240506329113924,0.0163940868551813,0.014812923756017293,5.669178342133045e-05,-0.009362103183359578,0.015663782341963462
1.5151515151515151,3.240506329113924,0.01641965394083314,0.01487366604491115,4.676660186480465e-05,-0.009387995995723286,0.01570404690544602
1.6161616161616161,3.240506329113924,0.016375548675071593,0.014863654071709833,-5.671391745470882e-05,-0.009371760824034427,0.015674691876961536
1.7171717171717171,3.240506329113924,0.0160532781802073,0.01468596164305677,-7.3854492906349074e-06,-0.009221771946979221,0.01541517258246542
1.8181818181818181,3.240506329113924,0.01592321876043011,0.014366401026505592,-5.6563670308635075e-05,-0.00908688593608071,0.015205019768095483
1.9191919191919191,3.240506329113924,0.016115673154814995,0.014495044243250224,4.8663965820742425e-05,-0.009183215219419566,0.015369806049606192
2.0202020202020203,3.240506329113924,0.01595983382612519,0.01467129993889223,-5.104472245249056e-05,-0.009189340129505225,0.01535642032856548
2.121212121212121,3.240506329113924,0.015975684533481103,0.014414623063370392,4.784423877015233e-05,-0.00911709227905545,0.01525540071110756
2.2222222222222223,3.240506329113924,0.0158854820798005,0.01402713274638135,-5.0067705350283356e-05,-0.008973784447854554,0.015042896943208785
2.323232323232323,3.240506329113924,0.015553518797324164,0.014180024761339931,1.8919110674773087e-05,-0.008920063067599229,0.014914316656727962
2.4242424242424243,3.240506329113924,0.015680575743101482,0.014281324838947264,6.256545897948544e-05,-0.008988570174614623,0.015030270864215902
2.525252525252525,3.240506329113924,0.015612440683229483,0.01415823206811057,-2.3552423391951524e-05,-0.008931201825402016,0.01493857239460996
2.6262626262626263,3.240506329113924,0.015488587007893238,0.014097528386766478,1.2308913080072463e-05,-0.008875834618397915,0.014842044792753865
2.727272727272727,3.240506329113924,0.01568548586213312,0.013937557679245463,6.49523987034833e-06,-0.008886913062413574,0.014888678364026322
2.8282828282828283,3.240506329113924,0.015452063174027822,0.013768165457583137,-3.337078499239284e-05,-0.008766068589483287,0.01468282720692316
2.929292929292929,3.240506329113924,0.015517503260706344,0.013864207850411248,-1.125398776430279e-05,-0.008814513333335277,0.014760476150730763
3.0303030303030303,3.240506329113924,0.015540030559764068,0.013706780049620382,-9.912539107560528e-06,-0.008774043182815335,0.0147093467922713
3.131313131313131,3.240506329113924,0.015217347642676102,0.013713250977822089,1.3408258040879247e-06,-0.008679179586149456,0.014523829371465818
3.2323232323232323,3.240506329113924,0.015245744588342965,0.013702169073116433,-4.134355301638911e-05,-0.00868437409843782,0.014535732634936573
3.3333333333333335,3.240506329113924,0.015230288560021192,0.013699549522134247,4.049797875133118e-06,-0.008678951424646633,0.01452553969975314
3.4343434343434343,3.240506329113924,0.015096618065726935,0.01360360051313295,-5.778416807432514e-05,-0.008610065573657965,0.014408590483044792
3.5353535353535355,3.240506329113924,0.01528212776612698,0.013637079672700567,-0.00011492843324668912,-0.008675762231648263,0.014530980792054428
3.6363636363636362,3.240506329113924,0.015197343038084492,0.013724871268487107,-9.106527935733567e-05,-0.008676664291971479,0.014518079369817584
3.7373737373737375,3.240506329113924,0.015112138035827137,0.013684267360755089,0.00010418272654257056,-0.008638921618974667,0.014452332478224927
3.8383838383838382,3.240506329113924,0.014982200744412533,0.013640391648072306,-0.00013002799194922348,-0.008586777717745452,0.014360162234143452
3.9393939393939394,3.240506329113924,0.015023173081448921,0.013723960236731832,1.847964114134615e-05,-0.008624139995454225,0.014417572906236091
4.040404040404041,3.240506329113924,0.015088300841460437,0.013681471723216057,1.1026272522747107e-05,-0.008630931769402947,0.014436401706028256
4.141414141414141,3.240506329113924,0.015110961351411852,0.013621152386392762,-1.3879638052206261e-05,-0.008619634121341384,0.014423897391405035
4.242424242424242,3.240506329113924,0.015104224737101506,0.013536073931447899,9.0299011164569e-06,-0.00859208960056482,0.014384409764923438
4.343434343434343,3.240506329113924,0.015095773098673208,0.013584997370432004,-1.4734834952590362e-05,-0.008604231140731564,0.014399969878344875
4.444444444444445,3.240506329113924,0.014989229586948543,0.01339731404879152,8.975900302899763e-06,-0.00851596309072202,0.014260078993707286
4.545454545454545,3.240506329113924,0.015008535797250212,0.013582949145127867,-3.201539803751524e-05,-0.008577445482713423,0.014349060970555693
4.646464646464646,3.240506329113924,0.015050121448329413,0.013348505245721808,3.075066118776411e-05,-0.008519588008215366,0.014275677203279803
4.747474747474747,3.240506329113924,0.01498220795353834,0.013398442785116654,-0.0001213124933025429,-0.008514195221596497,0.014258005412118578
4.848484848484849,3.240506329113924,0.01496926060720893,0.013712955247446597,8.867042634235046e-05,-0.008604664756396659,0.014383139131792897
4.94949494949495,3.240506329113924,0.014807327409382762,0.013542195751280614,-6.210722123949067e-05,-0.008504856948199012,0.01421744901043386
5.05050505050505,3.240506329113924,0.01508504673853547,0.013481658738148503,3.339991237065246e-05,-0.008570011643005191,0.014350806664441525
5.151515151515151,3.240506329113924,0.015058119333340907,0.013401949104068387,3.3991292558379636e-05,-0.008538020531222788,0.014302255589964157
5.252525252525253,3.240506329113924,0.014940501727240681,0.013482181370050278,-4.3438662035643415e-05,-0.008526804929187287,0.014267547548982712
5.353535353535354,3.240506329113924,0.01490564731411275,0.013533950580222234,-2.0862775981925097e-05,-0.008531879368300495,0.014269378115792406
5.454545454545454,3.240506329113924,0.014998016233176623,0.013326738375727006,-7.414085624612861e-05,-0.008497426382671088,0.01423672359677421
5.555555555555555,3.240506329113924,0.015074985240567735,0.013585406337954666,3.4287459005596165e-05,-0.00859811747355672,0.014388265087508885
5.656565656565657,3.240506329113924,0.015070968172782154,0.013645647692580733,8.234893975967891e-05,-0.008614984759608866,0.014411974347285061
5.757575757575758,3.240506329113924,0.014974917047613102,0.013665820860184728,1.9865048530624527e-05,-0.00859222137233935,0.014365216686747399
5.858585858585858,3.240506329113924,0.014922110336795495,0.01350481766952969,-3.3048246446636704e-05,-0.008528078401897555,0.014266477294955907
5.959595959595959,3.240506329113924,0.015117433178288498,0.013450634326424548,-6.449355406886542e-05,-0.008570420251413913,0.014357219866793187
6.0606060606060606,3.240506329113924,0.01511738540513697,0.01358459279258966,-8.492223205364018e-06,-0.008610593459317988,0.014412258475480806
6.161616161616162,3.240506329113924,0.015277066560531403,0.013637055677975017,5.3640805344233705e-05,-0.008674236671551925,0.014526956838408874
6.262626262626262,3.240506329113924,0.015353254279614198,0.013595490850530873,1.5739175158801127e-06,-0.008684623539043522,0.01455420103573675
6.363636363636363,3.240506329113924,0.01520727427841494,0.013602218309601108,1.7261335987861976e-05,-0.008642847776404814,0.014471688331123181
6.4646464646464645,3.240506329113924,0.01521793242799134,0.013801063497601948,-6.716900491824198e-05,-0.008705698777677986,0.01456175485072085
6.565656565656566,3.240506329113924,0.015233052964954545,0.013581014533945748,-2.405426602645446e-05,-0.008644220249670088,0.014477958437365582
6.666666666666667,3.240506329113924,0.015269189101564965,0.013682097919139989,4.144053576848102e-05,-0.008685386106211486,0.01454092675206166
6.767676767676767,3.240506329113924,0.01533995919428012,0.013721124041388302,5.916684921568472e-06,-0.008718324970700526,0.014598020933272844
6.8686868686868685,3.240506329113924,0.015353205029003773,0.01380340220794234,7.823021857454107e-06,-0.008746982171083833,0.014639963680949658
6.96969696969697,3.240506329113924,0.015426499494008344,0.013781694728023552,-0.00010542234167726166,-0.008762458266609569,0.014674536826660435
7.070707070707071,3.240506329113924,0.015386364261929906,0.013765607031617437,6.833458017890575e-05,-0.008745591388064203,0.014643889746894585
7.171717171717171,3.240506329113924,0.015485419096557242,0.014007197436460644,-9.369780513207074e-05,-0.008847784959905366,0.014802661915488501
7.2727272727272725,3.240506329113924,0.015535982594668875,0.013895830801177605,5.510304873984776e-06,-0.008829544018753945,0.014784301622384161
7.373737373737374,3.240506329113924,0.015609176541893015,0.013959255027356048,2.469025141843884e-05,-0.008870529470774718,0.014853166192599658
7.474747474747475,3.240506329113924,0.015611225677057953,0.014010228664753115,-5.15343378199645e-05,-0.00888643630254332,0.014875752090902153
7.575757575757575,3.240506329113924,0.015692287957754802,0.014080056348772584,-4.461766726132591e-05,-0.008931703291958215,0.014951707650166585
7.6767676767676765,3.240506329113924,0.01589139528971215,0.014070764052174693,2.1279968971345084e-05,-0.008988647802566052,0.015063868367577943
7.777777777777778,3.240506329113924,0.01582213983235076,0.014215065271731738,-2.3602913459300068e-05,-0.009011161531224748,0.015083007339098288
7.878787878787879,3.240506329113924,0.015885764257331045,0.014276817336868732,-2.3370257151941832e-05,-0.009048774478259932,0.015145577019648235
7.979797979797979,3.240506329113924,0.015903844190146767,0.014512261652148157,8.108714407462354e-06,-0.009124831752688477,0.015255734901217208
8.080808080808081,3.240506329113924,0.01577177259530351,0.014531684601519202,-7.892445376471347e-05,-0.009091037159046814,0.015190356493590556
8.181818181818182,3.240506329113924,0.016318274393778913,0.014503513702906017,-6.183475948954377e-05,-0.009246536429005478,0.015491195669009339
8.282828282828282,3.240506329113924,0.016200036257461765,0.01455134631664024,2.576318767801232e-05,-0.0092254147722306,0.015441907514000291
8.383838383838384,3.240506329113924,0.016206883495141114,0.014764537646120497,1.6080246557915928e-05,-0.009291426342378483,0.015536031628491074
8.484848484848484,3.240506329113924,0.01641836641332457,0.014810449353559229,-7.99227555740276e-05,-0.00936864473006514,0.0156769877350332
8.585858585858587,3.240506329113924,0.016619161049255465,0.014818177316146418,1.3465480316528459e-05,-0.009431201509620565,0.01579587799515637
8.686868686868687,3.240506329113924,0.016642200022399446,0.015053887756687425,8.603894086398537e-05,-0.00950882633372606,0.015908323453871196
8.787878787878787,3.240506329113924,0.016655040062431868,0.015129746333669456,-6.517515667620859e-05,-0.009535435918830397,0.015947595294709536
8.88888888888889,3.240506329113924,0.017055390449277646,0.01517098771195931,-3.826050915810417e-06,-0.009667913448371085,0.016195620905697598
8.98989898989899,3.240506329113924,0.017031695233841578,0.015401371805051812,5.579029742464972e-05,-0.009729920111668016,0.016278168291335608
9.09090909090909,3.240506329113924,0.017039316174746973,0.015411282128831581,2.8570435780147657e-05,-0.009735179491073566,0.016286517507295737
9.191919191919192,3.240506329113924,0.017127771340663196,0.01565596747281214,2.6580609736119345e-05,-0.009835121644042601,0.016441415912355303
9.292929292929292,3.240506329113924,0.017438919341593643,0.015734400111558026,3.2236676293664165e-05,-0.0099519958359455,0.01665231028564142
9.393939393939394,3.240506329113924,0.017632436889190976,0.01579596173002637,6.920310751264913e-05,-0.010028519585765202,0.016790125268420806
9.494949494949495,3.240506329113924,0.017735832244791905,0.01581557107682866,4.354854529265074e-05,-0.010065420996486168,0.016858096210865415
9.595959595959595,3.240506329113924,0.017743400399716912,0.01598710149941387,-1.4316795687819198e-05,-0.010119150569739234,0.01693371618618125
9.696969696969697,3.240506329113924,0.017930250390141324,0.01628727539404349,1.6413198111438858e-05,-0.010265257735255443,0.0171678507975054
9.797979797979798,3.240506329113924,0.018175841490825913,0.01630801211975557,2.5951434961100723e-05,-0.010345156083174444,0.017317697604170935
9.8989898989899,3.240506329113924,0.018429136672094393,0.0165729745088818,3.599287844219647e-05,-0.010500633354292858,0.01757483532569671
10.0,3.240506329113924,0.018737989289767505,0.016834057361038466,9.280844961604787e-06,-0.010671613995241792,0.017862295533496084
0.0,3.3417721518987342,0.018709773510930713,0.016744643976946128,-0.0001033850736764164,-0.010636325246363052,0.01780961245607405
0.10101010101010101,3.3417721518987342,0.018474975475758087,0.016465538241282055,7.652934569433772e-05,-0.010482154115112042,0.017557215708203816
0.20202020202020202,3.3417721518987342,0.01807403055596034,0.016300290800487286,2.403750767677527e-06,-0.010312296406934289,0.017255669330780692
0.30303030303030304,3.3417721518987342,0.018008008893326828,0.016251298810368582,8.911684061073722e-07,-0.010277792311108622,0.017197080165055337
0.40404040404040403,3.3417721518987342,0.017779386648178006,0.016197016009469867,-6.29415877582083e-05,-0.01019292079729436,0.01704373174946579
0.5050505050505051,3.3417721518987342,0.017836269901558142,0.0157536456815528,3.7657937023518566e-05,-0.010076974674933284,0.016891650431858547
0.6060606060606061,3.3417721518987342,0.017548032939055876,0.01576505277071814,-4.814972099733095e-05,-0.009993925712932205,0.01672816902037094
0.7070707070707071,3.3417721518987342,0.017226882077153338,0.015659512400765727,-1.7931494718229986e-05,-0.00986591834337572,0.016499157124886088
0.8080808080808081,3.3417721518987342,0.017284161579010263,0.015400363606946294,3.030186486884513e-05,-0.009805357555786966,0.016423575200502628
0.9090909090909091,3.3417721518987342,0.017123414653378334,0.01531813782315283,9.26838758609258e-05,-0.009732465742959348,0.016296736513784806
1.0101010101010102,3.3417721518987342,0.017091466694654577,0.015198987886654195,-3.3206050777077774e-05,-0.009687136374392632,0.01622830179721106
1.1111111111111112,3.3417721518987342,0.01696485089165518,0.0150403706562645,5.4699653673487395e-05,-0.009601566464375905,0.016089445169784403
1.2121212121212122,3.3417721518987342,0.016645772011169395,0.015156877740663339,-5.011438834726945e-06,-0.00954079492554982,0.015953520387818908
1.3131313131313131,3.3417721518987342,0.016576336176688505,0.014896401823116604,3.3460152944608294e-05,-0.009441821399941533,0.01580358511923268
1.4141414141414141,3.3417721518987342,0.016487597025095887,0.014844476425911982,7.093028510167514e-05,-0.009399622035302362,0.015731010265665354
1.5151515151515151,3.3417721518987342,0.016341991124729602,0.014732818769570345,3.48826001279206e-05,-0.009322442968289985,0.015599893577539306
1.6161616161616161,3.3417721518987342,0.016300675558358808,0.01461473879681891,1.0808681028575172e-05,-0.009274624306553314,0.01552652081903002
1.7171717171717171,3.3417721518987342,0.01603525346943151,0.014463517767301563,-2.893212492678114e-05,-0.009149631371019921,0.015310095942848137
1.8181818181818181,3.3417721518987342,0.016086746748183337,0.014456752000559707,4.515554843864816e-06,-0.009163049624622912,0.015336852750231519
1.9191919191919191,3.3417721518987342,0.015999982910841638,0.014424953972856041,0.00010496355054028458,-0.009127481065109303,0.015274579707857497
2.0202020202020203,3.3417721518987342,0.015923134862928495,0.01432548663376078,-7.177148269108128e-06,-0.009074586449006782,0.015187471482935762
2.121212121212121,3.3417721518987342,0.015819070655155473,0.014176596325860196,-4.36364369668146e-05,-0.0089987000943047,0.015065324864293081
2.2222222222222223,3.3417721518987342,0.01585473709878228,0.014199528837738251,2.6811316779130215e-05,-0.00901627978095616,0.015095418761215873
2.323232323232323,3.3417721518987342,0.0157942799610153,0.014054717776821431,-5.825708745471417e-05,-0.008954699321351019,0.015000680171164562
2.4242424242424243,3.3417721518987342,0.01577422503584669,0.014190835262221736,-0.0001594272170681178,-0.008989518089420527,0.015047684312237563
2.525252525252525,3.3417721518987342,0.015690922261470158,0.013974111892646718,-1.3605111060000636e-05,-0.008899510246235063,0.014906867428143506
2.6262626262626263,3.3417721518987342,0.015447739234872977,0.013962137420720836,2.630966021912045e-05,-0.008822962996678143,0.014761183806918472
2.727272727272727,3.3417721518987342,0.015587414138874411,0.013994765959836394,-1.4408543345016349e-05,-0.00887465402961324,0.014855280671638257
2.8282828282828283,3.3417721518987342,0.015325439890284995,0.013977677699805019,-3.200970545677126e-05,-0.008790935277027003,0.01469808137751171
2.929292929292929,3.3417721518987342,0.015258240534335407,0.014003383691705975,-5.616493790366163e-06,-0.008778487267812414,0.014671119827509451
3.0303030303030303,3.3417721518987342,0.01548681389007823,0.013641838038547127,3.341003368446808e-05,-0.008738595578587607,0.01465182211895007
3.131313131313131,3.3417721518987342,0.015179298731570914,0.013718188308132257,-2.9589758999834554e-05,-0.008669246111910951,0.014504135572866002
3.2323232323232323,3.3417721518987342,0.015078207942967032,0.013814503492221327,-0.0001227399737990361,-0.008667813430556507,0.014489309870621737
3.3333333333333335,3.3417721518987342,0.01518879023698355,0.013878599512261985,-2.802725299227678e-05,-0.00872021692477366,0.014578000311796086
3.4343434343434343,3.3417721518987342,0.01530951461717316,0.013946377714534287,-4.879714185494975e-05,-0.008776767699512232,0.014675747312344138
3.5353535353535355,3.3417721518987342,0.015200146998560439,0.013350323826726782,-8.482032696499751e-05,-0.008565141247586167,0.01436559479712842
3.6363636363636362,3.3417721518987342,0.015061928250253306,0.013462671161233898,-3.298043771436194e-06,-0.00855737982344616,0.014329390878726016
3.7373737373737375,3.3417721518987342,0.015069835087561467,0.013689960886598778,3.492115941013183e-05,-0.008627938792248073,0.01442959334800591
3.8383838383838382,3.3417721518987342,0.01513304222690484,0.013615797163556079,2.1423956224357188e-05,-0.008624651817138276,0.014434397908088249
3.9393939393939394,3.3417721518987342,0.015099986782859693,0.013716669449555876,-4.1402877049081575e-05,-0.008644996869724671,0.014458223847777835
4.040404040404041,3.3417721518987342,0.014996527072536025,0.013638440587193325,-6.022910744750676e-06,-0.008590490297918805,0.014365714434759268
4.141414141414141,3.3417721518987342,0.01503009580463933,0.013555471170949072,-4.0055804408659544e-05,-0.00857567009267652,0.014349890647286399
4.242424242424242,3.3417721518987342,0.015186930345198532,0.01343690056450707,-1.3424177040128636e-06,-0.00858714927291168,0.014391938110209153
4.343434343434343,3.3417721518987342,0.014961162100707692,0.013550661590059304,1.710425955450913e-05,-0.0085535471072301,0.014308180666259942
4.444444444444445,3.3417721518987342,0.015104002189784926,0.013622650078734042,2.144333258750722e-06,-0.00861799568055569,0.01442050465452867
4.545454545454545,3.3417721518987342,0.014966838599355957,0.013587935538243685,-1.5811235671586153e-05,-0.008566432241279892,0.014327266373485604
4.646464646464646,3.3417721518987342,0.01493998248146503,0.013406646903931051,2.1000376194794692e-05,-0.008503988815618825,0.014235431532645918
4.747474747474747,3.3417721518987342,0.015089813355032846,0.013553749425222503,6.563577384017627e-06,-0.008593068834076605,0.014383433898954726
4.848484848484849,3.3417721518987342,0.014997043924329762,0.01361733669418496,1.8809373676698202e-05,-0.008584314185554416,0.014357034859385396
4.94949494949495,3.3417721518987342,0.015151473239580335,0.01351588980127205,-3.1109462948932766e-05,-0.008600208912255715,0.014403599522786432
5.05050505050505,3.3417721518987342,0.014950541963199896,0.013473473336592936,7.476182469900727e-06,-0.00852720458993785,0.01426946487841808
5.151515151515151,3.3417721518987342,0.015089593859484664,0.01360884667797225,-0.00010552142005042411,-0.008609532161237074,0.01440756696296858
5.252525252525253,3.3417721518987342,0.015124109815163274,0.013612845884896604,6.803640744402716e-05,-0.008621086710017963,0.014428443491423753
5.353535353535354,3.3417721518987342,0.015032483617542367,0.01360842195405777,6.781627436069152e-05,-0.00859227167148004,0.014373939225125044
5.454545454545454,3.3417721518987342,0.015003250662002901,0.01362323561379522,-2.7526528518239987e-05,-0.008587945882739435,0.014363131044583945
5.555555555555555,3.3417721518987342,0.015149269632860198,0.013402963365932153,5.195371451869586e-05,-0.008565669899637704,0.014356280474173061
5.656565656565657,3.3417721518987342,0.015106995237906868,0.013550856560974125,4.5672735844648715e-05,-0.008597355539664299,0.014392378229967407
5.757575757575758,3.3417721518987342,0.015033004552778879,0.013474983573480346,3.673227850794226e-05,-0.008552396437877767,0.014317854817029614
5.858585858585858,3.3417721518987342,0.01516797601915029,0.013632897137187053,-1.772903058297668e-05,-0.008640261946901203,0.014461703460444125
5.959595959595959,3.3417721518987342,0.015335456540945943,0.013657137249403954,2.504045362112814e-05,-0.00869777813710497,0.01456904497485278
6.0606060606060606,3.3417721518987342,0.015057581060392343,0.013586895196600678,-0.00011374955471263773,-0.008593342877097905,0.014380108121131031
6.161616161616162,3.3417721518987342,0.015271579907404874,0.013581485749597808,-7.426903525746717e-05,-0.008655919697100804,0.014501162395384423
6.262626262626262,3.3417721518987342,0.015211749044146862,0.013591087174139009,7.242405973637478e-05,-0.008640850865485761,0.014470193086490212
6.363636363636363,3.3417721518987342,0.015126384331082746,0.013513634914307857,-8.257323535225331e-05,-0.00859200577361718,0.014388670929681326
6.4646464646464645,3.3417721518987342,0.015190348663322296,0.013739112393219987,1.8697275119767477e-05,-0.008678838316962685,0.014519264549333591
6.565656565656566,3.3417721518987342,0.015121273942311102,0.013813478513396182,-8.526970439909428e-05,-0.008680425736712185,0.01451239244055396
6.666666666666667,3.3417721518987342,0.015177856039898586,0.01384431816739464,-1.568277798077259e-05,-0.008706652262187968,0.014556995885870354
6.767676767676767,3.3417721518987342,0.015431614118806829,0.013854528821459499,-4.8932167503978405e-05,-0.008785842882079897,0.014706873348091688
6.8686868686868685,3.3417721518987342,0.015326772381392939,0.01372597333549396,-3.490565407127704e-05,-0.00871582371506607,0.014592500876326657
6.96969696969697,3.3417721518987342,0.015362131214303047,0.013928265167887635,-5.4988673202236553e-05,-0.008787118914657204,0.01469805702119505
7.070707070707071,3.3417721518987342,0.015328385999110744,0.013841259385502049,0.00012322636853283334,-0.008750893615383839,0.014643130346800797
7.171717171717171,3.3417721518987342,0.015325081213822983,0.01397999271467668,6.93672385967629e-05,-0.008791522178549898,0.014699259240961124
7.2727272727272725,3.3417721518987342,0.015479916698783227,0.013842283395511506,-3.354213276542764e-05,-0.00879666002828842,0.014729650774660761
7.373737373737374,3.3417721518987342,0.01549382052035345,0.014030965861085785,6.158443562366755e-05,-0.00885743591443177,0.014817037101294712
7.474747474747475,3.3417721518987342,0.015598858482895928,0.01402298669843063,6.958740172210824e-05,-0.008886553554397967,0.014874154904291555
7.575757575757575,3.3417721518987342,0.015750377867178283,0.014170722616211247,8.702457016920124e-06,-0.008976330145016859,0.015022974864069982
7.6767676767676765,3.3417721518987342,0.015786306146172095,0.014026516716407261,-1.2722820017897014e-06,-0.008943846858773807,0.014984116615363821
7.777777777777778,3.3417721518987342,0.01582197857995761,0.014163139545398511,6.342665368676827e-05,-0.008995535437606835,0.01506163026621011
7.878787878787879,3.3417721518987342,0.015819497774680415,0.014286928254909894,-4.137375623051103e-05,-0.009031927808877092,0.015111781312327455
7.979797979797979,3.3417721518987342,0.015989789205968663,0.014359261575544336,-8.853744532340071e-05,-0.0091047152344539,0.01524085636496748
8.080808080808081,3.3417721518987342,0.01598698784746683,0.014387785885056376,7.53677157602791e-05,-0.009112432119756961,0.015250962129999055
8.181818181818182,3.3417721518987342,0.01611793058720932,0.014545188458650864,5.6320383574687186e-05,-0.009198935713758054,0.01539225037849155
8.282828282828282,3.3417721518987342,0.016156393147844013,0.014539774390981875,4.174707125166831e-05,-0.009208850261647767,0.015411975733194305
8.383838383838384,3.3417721518987342,0.01615866939059851,0.014695151294451751,2.8645636504266843e-05,-0.009256146205515077,0.015478967612444081
8.484848484848484,3.3417721518987342,0.01616130628277353,0.014973828307476617,0.00010037138288676165,-0.009340540377075044,0.015602466237365074
8.585858585858587,3.3417721518987342,0.016557748606407085,0.014794789923321847,-5.719081854302988e-06,-0.009405761558918679,0.015750445507252336
8.686868686868687,3.3417721518987342,0.01654345839133613,0.014788138602858436,-3.4760685824123924e-05,-0.009399479098258369,0.015739495803149428
8.787878787878787,3.3417721518987342,0.016785989831713893,0.015073490499650719,-7.695570195775131e-05,-0.009557844099409383,0.015999183690366247
8.88888888888889,3.3417721518987342,0.01677608153927451,0.015083426289401973,-9.710275192403128e-06,-0.009557852348602945,0.015997067043239468
8.98989898989899,3.3417721518987342,0.01696627718444159,0.015216839037567775,2.8599694683987067e-05,-0.009654934866602809,0.01616279977725863
9.09090909090909,3.3417721518987342,0.017144601365902023,0.015397711432014136,-5.046505540233465e-05,-0.009762693839374849,0.016341569357183654
9.191919191919192,3.3417721518987342,0.01726959457276624,0.015566499131074085,-1.1365479244743633e-06,-0.009850828111152097,0.016484164124082955
9.292929292929292,3.3417721518987342,0.01739011023329852,0.01557551475453939,-2.7380472381973705e-05,-0.009889687496351373,0.01655762435689807
9.393939393939394,3.3417721518987342,0.01735164296265731,0.01571637373032672,-5.032502246124441e-05,-0.009920405007895209,0.016594776555355607
9.494949494949495,3.3417721518987342,0.017624725582973705,0.015852409717350375,-4.473609844517653e-05,-0.010043140590097222,0.016808970182025387
9.595959595959595,3.3417721518987342,0.017861381982865323,0.016076266864596237,1.799659899202271e-05,-0.010181294654238468,0.017039129993788787
9.696969696969697,3.3417721518987342,0.01817388574206336,0.016326860385982717,-6.934705100866557e-05,-0.010350223838413821,0.01732479220331159
9.797979797979798,3.3417721518987342,0.01811581910839239,0.01658674119946012,-3.72549916524411e-05,-0.010410768092355754,0.017401857550903375
9.8989898989899,3.3417721518987342,0.018461900571871383,0.016429318293374354,7.190153104548222e-05,-0.010467365659573721,0.017534632616774872
10.0,3.3417721518987342,0.01856952622750267,0.01683420817793709,2.5205869489411477e-05,-0.010621120321631927,0.017765598920952846
0.0,3.4430379746835444,0.018760177695997048,0.01672298651977173,5.8741549845488285e-05,-0.010644949264730632,0.017829377395641333
0.10101010101010101,3.4430379746835444,0.018353839627121046,0.01653594341727016,1.7644450185546596e-05,-0.010466934913317362,0.017515813831317735
0.20202020202020202,3.4430379746835444,0.018105972414844615,0.016383988574028747,3.07387319801454e-05,-0.010346988296662007,0.01730942252426279
0.30303030303030304,3.4430379746835444,0.018134584830802443,0.01618144257370052,2.650213603059203e-06,-0.010294808221350886,0.017241186988861987
0.40404040404040403,3.4430379746835444,0.01782881169890784,0.01604403500668003,1.492706034170423e-05,-0.010161854011676361,0.0170068273148549
0.5050505050505051,3.4430379746835444,0.017655743835173036,0.01597538969867725,8.717754590713574e-05,-0.010089340060155086,0.0168790929254056
0.6060606060606061,3.4430379746835444,0.01760596812988448,0.01571825417538022,3.2681637218441866e-05,-0.009997266691579411,0.016742214617888277
0.7070707070707071,3.4430379746835444,0.01740067806841483,0.01566073430682548,1.6891077059084748e-05,-0.009918423712572092,0.016599266737027756
0.8080808080808081,3.4430379746835444,0.01728562996845894,0.015471697070534921,1.76723116717832e-05,-0.009827198111698158,0.016453854260790306
0.9090909090909091,3.4430379746835444,0.01703924360284483,0.01534105690988688,-1.511003304260199e-05,-0.00971409015381951,0.016256830219821564
1.0101010101010102,3.4430379746835444,0.017016547403794654,0.015300066579297575,-8.80774181193029e-05,-0.009694984194927668,0.016227257548441305
1.1111111111111112,3.4430379746835444,0.01681471377241031,0.015152243878297625,-1.4754364212818246e-06,-0.009590087295212381,0.016048191689498847
1.2121212121212122,3.4430379746835444,0.016552462410642718,0.015084697140702168,6.583289781422814e-05,-0.009491147865403464,0.01586997855059514
1.3131313131313131,3.4430379746835444,0.016504032774552698,0.014914125621940132,5.31969218765583e-05,-0.009425447518947848,0.015769575535179003
1.4141414141414141,3.4430379746835444,0.016585050167537786,0.014699922744317124,-9.488692585347884e-05,-0.009385491873556473,0.0157283079878702
1.5151515151515151,3.4430379746835444,0.01630176134877176,0.014734629510377387,-2.5464177288764973e-05,-0.009310917257744742,0.015577492138101888
1.6161616161616161,3.4430379746835444,0.01621191482590414,0.01456135320735329,0.00013362974852307576,-0.009231980409977228,0.015454622037863682
1.7171717171717171,3.4430379746835444,0.016103201956706493,0.01469261585153791,5.685749825845854e-05,-0.009238745342473322,0.015446605187387986
1.8181818181818181,3.4430379746835444,0.01614908882251237,0.014575313768454211,-4.873813620031484e-05,-0.009217320777289973,0.015422773122927379
1.9191919191919191,3.4430379746835444,0.015942603751463003,0.014406875960703235,2.2225303799780706e-05,-0.00910484391364987,0.015232959544279912
2.0202020202020203,3.4430379746835444,0.01571090463202527,0.014353120271794893,6.840050289403042e-05,-0.009019207471146049,0.015078399053527957
2.121212121212121,3.4430379746835444,0.015863537833077118,0.014340893750890862,-6.522941740392437e-05,-0.009061329475190394,0.015160096312659027
2.2222222222222223,3.4430379746835444,0.015748776576209468,0.014056863052028626,-2.4560996683478135e-06,-0.008941691888471428,0.014974678128071918
2.323232323232323,3.4430379746835444,0.01593397111789485,0.014082801705862841,-8.076168774339099e-05,-0.009005031847127308,0.015094414569069023
2.4242424242424243,3.4430379746835444,0.015613620067202016,0.01418365265894054,3.6254954663717498e-06,-0.008939181817842767,0.01495001705695346
2.525252525252525,3.4430379746835444,0.015431724547662258,0.014181261959934527,7.421493612501358e-05,-0.008883895952279034,0.014846599225327311
2.6262626262626263,3.4430379746835444,0.015530007938158072,0.01393842328866472,-4.4740347927722745e-06,-0.008840529368046838,0.014798548106683821
2.727272727272727,3.4430379746835444,0.015543376933515885,0.013828599710080124,-1.5196193366280898e-05,-0.008811592993078803,0.014760904154399769
2.8282828282828283,3.4430379746835444,0.01555248234539879,0.0140164848057688,2.6285379213188838e-05,-0.008870690145350277,0.014844274778226797
2.929292929292929,3.4430379746835444,0.015290770748613899,0.01397069992403077,2.686745117271058e-05,-0.0087784412017934,0.014675405353779678
3.0303030303030303,3.4430379746835444,0.015430676766051874,0.01387603087824104,6.763615556973045e-06,-0.008792012293287873,0.014715080983598621
3.131313131313131,3.4430379746835444,0.01526261197349268,0.013727192824036644,-2.2076194937546635e-05,-0.008696941439258796,0.014555816418128168
3.2323232323232323,3.4430379746835444,0.015349711312460077,0.013755398141764439,7.3996363442196805e-06,-0.008731532836267354,0.014617913298899457
3.3333333333333335,3.4430379746835444,0.015220620610763045,0.013683625484690529,2.926376970556346e-06,-0.008671273828636071,0.014513292245071767
3.4343434343434343,3.4430379746835444,0.015108758681695894,0.013627592856561793,-5.752709920168069e-06,-0.008620905461477306,0.014425323683188338
3.5353535353535355,3.4430379746835444,0.015136219532511555,0.013553169646263463,-5.601163675668635e-06,-0.008606816753632505,0.014410062185454629
3.6363636363636362,3.4430379746835444,0.015409375288779913,0.013763362375774274,-0.00011411100157373307,-0.008751821299366256,0.014657190677466165
3.7373737373737375,3.4430379746835444,0.015268074410643448,0.013565135565194225,-1.4705088010943072e-05,-0.008649962992751302,0.014491864912081931
3.8383838383838382,3.4430379746835444,0.015064706760182622,0.013533977489809593,-3.156731644183665e-05,-0.008579605274997664,0.014360763342123316
3.9393939393939394,3.4430379746835444,0.015114288788277131,0.013535882379635336,-2.432480980126235e-05,-0.00859505135037374,0.014390218107100302
4.040404040404041,3.4430379746835444,0.015207338140538902,0.013405841944633144,-2.652518251823869e-05,-0.008583954025551612,0.014391479104332592
4.141414141414141,3.4430379746835444,0.015152288854265044,0.013696045210618573,4.358081306255688e-06,-0.008654500219465084,0.014479196653151883
4.242424242424242,3.4430379746835444,0.015020666764993473,0.013610072820859605,-5.9370758753480004e-05,-0.008589221875755922,0.014367766647104166
4.343434343434343,3.4430379746835444,0.015109738095210094,0.013548412733442351,1.1496913408051003e-05,-0.008597445248595733,0.014392744749715962
4.444444444444445,3.4430379746835444,0.0149929995734771,0.013363345720846603,9.826503434731625e-06,-0.00850690358829711,0.014248252456100813
4.545454545454545,3.4430379746835444,0.015174045791035241,0.013606484045790906,4.451347318038098e-05,-0.008634158951047844,0.01445436287557701
4.646464646464646,3.4430379746835444,0.014924468772782935,0.013590795917559566,2.0067815325595076e-05,-0.00855457940710275,0.014304380472613242
4.747474747474747,3.4430379746835444,0.01520204294758356,0.01358098475185516,-3.0321281479920244e-05,-0.008634908309831615,0.014459920514389058
4.848484848484849,3.4430379746835444,0.014817459627462835,0.013662289394886978,1.2602207646383643e-05,-0.008543924706704944,0.01427498918530566
4.94949494949495,3.4430379746835444,0.014939249637288009,0.013429139273013185,2.5917639964226492e-05,-0.008510516673090357,0.014244427419097145
5.05050505050505,3.4430379746835444,0.015029489969657,0.013335671404343196,-1.65424167711368e-05,-0.00850954841220006,0.014258267142155716
5.151515151515151,3.4430379746835444,0.015094791361826843,0.013584430410730104,-2.622456269647727e-05,-0.008603766531767084,0.014399215124613228
5.252525252525253,3.4430379746835444,0.01494389858214842,0.013522046682920551,4.01371875732369e-05,-0.008539783579520692,0.014286307782539823
5.353535353535354,3.4430379746835444,0.015023535838185227,0.013476707407612379,8.513715023882441e-05,-0.00855007297373928,0.014313707413374137
5.454545454545454,3.4430379746835444,0.015253002018870405,0.013614288390208062,0.00010312823802953082,-0.008660187122723541,0.01450434614033078
5.555555555555555,3.4430379746835444,0.014899228473154705,0.013584867970961752,-5.1530498436621156e-05,-0.008545228933234937,0.014287741647423954
5.656565656565657,3.4430379746835444,0.015221199701919172,0.01347467449273519,2.2943684980879083e-06,-0.008608762258396309,0.014427441820051618
5.757575757575758,3.4430379746835444,0.015119526117665651,0.013513601233208456,-1.4010703372433707e-05,-0.008589938205262233,0.014383978254403745
5.858585858585858,3.4430379746835444,0.01523348639766525,0.01355056516119834,-2.317164361586728e-05,-0.008635215467659078,0.014465689915353033
5.959595959595959,3.4430379746835444,0.015155899559339677,0.013407100000356928,-2.4658630438591963e-05,-0.008568899867908982,0.014361642838794457
6.0606060606060606,3.4430379746835444,0.01499172379440311,0.013642411128607231,-8.033472065542924e-06,-0.008590240476903101,0.014364682308003484
6.161616161616162,3.4430379746835444,0.015110708131208796,0.01353729226611423,-0.00011603512339656675,-0.008594400119196908,0.014390069570861655
6.262626262626262,3.4430379746835444,0.015164955368036956,0.013464725339388172,-8.076097482326263e-05,-0.008588904212227539,0.0143910495784769
6.363636363636363,3.4430379746835444,0.015162080010247636,0.013641454563178005,0.00010827496918583092,-0.00864106037202769,0.014463066676891
6.4646464646464645,3.4430379746835444,0.015151876268840427,0.013699497254260787,-2.7338999568084616e-05,-0.008655412056930364,0.014480494964142701
6.565656565656566,3.4430379746835444,0.015247145845447299,0.013702109138224875,-1.739482396922626e-05,-0.00868477649510165,0.014536371713296217
6.666666666666667,3.4430379746835444,0.015513915419904599,0.013618670553670829,6.285565390014892e-05,-0.008739775792072628,0.014658878152978205
6.767676767676767,3.4430379746835444,0.01516909995068067,0.013909355686998697,-3.519133490686788e-05,-0.00872353669130381,0.014580228995653293
6.8686868686868685,3.4430379746835444,0.015362804157285024,0.013829908380678432,-0.00013442859319201173,-0.008757813761389037,0.014658450005628109
6.96969696969697,3.4430379746835444,0.015495073846195783,0.013768176501144614,1.265834693868288e-05,-0.008778975104202119,0.014707874311207576
7.070707070707071,3.4430379746835444,0.015270975047810024,0.013839876144571665,-6.639644715388776e-05,-0.008733255357714506,0.014608547936190274
7.171717171717171,3.4430379746835444,0.015486675830438971,0.014147845738037694,-7.842265684426462e-05,-0.008890356470542999,0.014863176544725765
7.2727272727272725,3.4430379746835444,0.015729938218796806,0.013996078596135452,-4.20614216932512e-05,-0.008917805044479678,0.014938842937232955
7.373737373737374,3.4430379746835444,0.015783002245302866,0.014048586438785296,4.303311054264171e-05,-0.008949476605226448,0.01499141837993946
7.474747474747475,3.4430379746835444,0.015790435256959594,0.01387621698850059,9.439912465375412e-06,-0.008899995673638056,0.014925682727553393
7.575757575757575,3.4430379746835444,0.015579858659150896,0.014073347633250933,-4.9691315132120994e-06,-0.008895961887720547,0.01488389789454051
7.6767676767676765,3.4430379746835444,0.015590990701982707,0.01430166316566974,4.9051536752681684e-05,-0.008967796160295733,0.01498821807602604
7.777777777777778,3.4430379746835444,0.015852938758197863,0.01409332644116515,1.7101976997289973e-05,-0.008983879559808903,0.015050506765892853
7.878787878787879,3.4430379746835444,0.015948135324019435,0.014345657881950575,-2.1404731884863594e-05,-0.009088137961791002,0.015210384664873355
7.979797979797979,3.4430379746835444,0.015892362633272886,0.014380748893304998,-4.946460603960423e-05,-0.009081933457973364,0.01519330091491156
8.080808080808081,3.4430379746835444,0.01593543917356941,0.014317641509860658,-1.8934237714591442e-05,-0.00907592420502902,0.015191321541792603
8.181818181818182,3.4430379746835444,0.016187067199527425,0.014472360668201931,4.4298251378040354e-05,-0.009197828360318806,0.015401661604053572
8.282828282828282,3.4430379746835444,0.01622014088992666,0.01453466558019295,2.967909342689359e-05,-0.009226441941035883,0.0154466110543439
8.383838383838384,3.4430379746835444,0.01634328301476632,0.014718093319107202,6.602776139494725e-05,-0.009318412900162056,0.015594751844598602
8.484848484848484,3.4430379746835444,0.016412416425854927,0.014697965862595941,6.299595179707425e-05,-0.00933311468653526,0.01562627218992464
8.585858585858587,3.4430379746835444,0.016489165291667076,0.014923434488246758,-8.069559918320781e-05,-0.00942377993397415,0.01576534256792499
8.686868686868687,3.4430379746835444,0.01658835950477909,0.014933648427846231,-6.289537654902505e-05,-0.009456602379787597,0.015826391410311776
8.787878787878787,3.4430379746835444,0.01684918548953691,0.014963042641891867,2.923052572092007e-05,-0.009543668439428632,0.01598984612414112
8.88888888888889,3.4430379746835444,0.016822398013975157,0.015217504968313925,8.312010068581834e-05,-0.009611970894686723,0.01608077528908501
8.98989898989899,3.4430379746835444,0.016899772681173115,0.015204927870495688,1.6965329196996349e-06,-0.00963141016550064,0.01611931550072654
9.09090909090909,3.4430379746835444,0.01702502472665613,0.015300819050802132,-1.885769183526015e-06,-0.009697753133237478,0.016231750323333
9.191919191919192,3.4430379746835444,0.01726857912743903,0.015477045552345811,8.002784461604686e-05,-0.009823687403935452,0.016446744106299274
9.292929292929292,3.4430379746835444,0.01755651035792241,0.015722912952849364,-5.9170518482320626e-05,-0.009983826993231531,0.016715623440604163
9.393939393939394,3.4430379746835444,0.01751787659988559,0.01581917373580536,-9.91253364719513e-06,-0.010001115100707286,0.01673332661521294
9.494949494949495,3.4430379746835444,0.01758941918877037,0.01607041289204736,-2.010506744376032e-05,-0.010097949624245319,0.016881286137777993
9.595959595959595,3.4430379746835444,0.01774057662333895,0.0160786986392597,5.686676186506243e-05,-0.010145782578779594,0.01697106140266851
9.696969696969697,3.4430379746835444,0.017864481947341686,0.0163091850368217,-6.181476074123855e-05,-0.010252100095249014,0.017140173667147186
9.797979797979798,3.4430379746835444,0.018073301744558807,0.016300218703173316,7.028404729120283e-05,-0.010312056134319635,0.01725564876028462
9.8989898989899,3.4430379746835444,0.018373495588155042,0.016494532247311337,0.00011849340141112224,-0.010460408350639914,0.01751099199843985
10.0,3.4430379746835444,0.018607679775047382,0.016930329152905734,9.47405263373636e-06,-0.010661402678385933,0.01782828981551618
0.0,3.5443037974683542,0.00810823885581262,0.0075641311738210565,-1.0321567315208711e-05,-0.004701711008890102,0.007850360187144101
0.10101010101010101,3.5443037974683542,0.008153231836277305,0.007295137129370859,-1.4726664491251146e-05,-0.004634510689694449,0.007759891844810538
0.20202020202020202,3.5443037974683542,0.00804626477563495,0.007340331591850971,1.8742020834103795e-05,-0.004615978910245776,0.007717619255897062
0.30303030303030304,3.5443037974683542,0.007886254991365126,0.007194099635144823,3.599938395463467e-06,-0.004524106387952985,0.007563968672056535
0.40404040404040403,3.5443037974683542,0.007658451177201527,0.007074156496427654,-3.284796312990136e-05,-0.004419782302088755,0.007383882406146525
0.5050505050505051,3.5443037974683542,0.007812517295048721,0.00690652822851347,9.225836022889634e-05,-0.004415713657068657,0.00740295361580643
0.6060606060606061,3.5443037974683542,0.007646764895778826,0.006811279708880888,-0.0001403474237349527,-0.004337413381397914,0.007269207815764658
0.7070707070707071,3.5443037974683542,0.007657845031265693,0.007020381135957995,7.836023900851489e-05,-0.004403467850167106,0.007361098559222027
0.8080808080808081,3.5443037974683542,0.007429743053143643,0.006828030447032404,6.584054535776361e-05,-0.004277332050052814,0.007148816319719265
0.9090909090909091,3.5443037974683542,0.007517855530497643,0.006622032666584841,-1.2646280297679197e-06,-0.004241966459124745,0.0071123827446912605
1.0101010101010102,3.5443037974683542,0.007678640428757208,0.006759120792676438,-2.1224517027436542e-05,-0.0043313283664300935,0.0072627629716937635
1.1111111111111112,3.5443037974683542,0.007495698919278479,0.0068744706520233925,8.655826580812607e-06,-0.004311050871390562,0.007205214193000894
1.2121212121212122,3.5443037974683542,0.007231537401640595,0.006545260205642145,1.62803477811776e-05,-0.004133039282184821,0.006914048417496806
1.3131313131313131,3.5443037974683542,0.007116116158936428,0.006518257744309813,2.6952141660518777e-05,-0.004090312170973872,0.006836979830316577
1.4141414141414141,3.5443037974683542,0.0071233059244158485,0.0063082783124779876,-4.762340071024091e-05,-0.004029475271068151,0.006753285885348348
1.5151515151515151,3.5443037974683542,0.0072026372681494,0.006461016138031901,8.604820289836437e-06,-0.004099096021854391,0.006861966165417657
1.6161616161616161,3.5443037974683542,0.007314051681945944,0.006272618070941332,-3.7603473625624365e-06,-0.004076000925866183,0.006852946748570277
1.7171717171717171,3.5443037974683542,0.007035878620119551,0.0063260993825559955,-6.589766319507424e-05,-0.004008593400802664,0.006710177454180869
1.8181818181818181,3.5443037974683542,0.007068810409663909,0.006442811617744707,1.973433357060861e-05,-0.0040534866082225845,0.006777614377512642
1.9191919191919191,3.5443037974683542,0.0068526021280275,0.006283540509146342,0.0001462577687954976,-0.003940842791152152,0.0065914041141023946
2.0202020202020203,3.5443037974683542,0.006975051162839189,0.006204210228429516,3.2624158765571536e-05,-0.003953778417380611,0.006623599664961127
2.121212121212121,3.5443037974683542,0.006912280188839585,0.006249423315633778,3.627885309531733e-05,-0.003948511051342009,0.0066061405280412756
2.2222222222222223,3.5443037974683542,0.006911174617474275,0.006519111803777765,4.409992396179632e-05,-0.004029085926375612,0.006724155537055174
2.323232323232323,3.5443037974683542,0.006889670748672311,0.006338880819508422,-6.50780970358263e-05,-0.00396856547045422,0.0066324110837384705
2.4242424242424243,3.5443037974683542,0.006732137196000536,0.006183373689983608,4.245886726432319e-05,-0.0038746532657952435,0.006475636622516263
2.525252525252525,3.5443037974683542,0.007010163615853735,0.0062983393421029345,-4.9430306861282396e-05,-0.003992550887387001,0.006683293586153476
2.6262626262626263,3.5443037974683542,0.006930030034121788,0.006164042560432716,-4.509500615346873e-05,-0.003928221778366351,0.0065810210122740215
2.727272727272727,3.5443037974683542,0.006640901694856297,0.006144204209692073,-8.596477399541472e-06,-0.003835531771364511,0.0064070263180142145
2.8282828282828283,3.5443037974683542,0.006799367660058726,0.006067984208019112,2.2744173558650774e-06,-0.003860205560423351,0.00646478095983093
2.929292929292929,3.5443037974683542,0.006668723601545521,0.005922300323375053,-3.0979542240274176e-05,-0.003777307177476172,0.006328839613091716
3.0303030303030303,3.5443037974683542,0.0068011044001469985,0.00614936294005731,-3.1253132021954594e-05,-0.0038851402020612926,0.006500012042704847
3.131313131313131,3.5443037974683542,0.006824115985158777,0.006042944496728765,-4.669773330836113e-06,-0.0038601181445662622,0.00646900675932858
3.2323232323232323,3.5443037974683542,0.0066797975829604025,0.006233961540804716,-3.2827340301380956e-05,-0.003874127737129535,0.0064686632244872885
3.3333333333333335,3.5443037974683542,0.006578898784377682,0.00596444953419304,-1.757782642855091e-05,-0.0037630044955712164,0.006294281897959684
3.4343434343434343,3.5443037974683542,0.006690226144203634,0.005897405490633063,4.620406285730206e-06,-0.003776289490451009,0.00633116142817368
3.5353535353535355,3.5443037974683542,0.006884589563221838,0.005911907752144628,-8.02830104153596e-05,-0.0038389491946099396,0.0064549596745471375
3.6363636363636362,3.5443037974683542,0.006807980448400469,0.005772258371497679,-3.25865592901648e-05,-0.0037740716459694437,0.006354000944947606
3.7373737373737375,3.5443037974683542,0.006544811669766829,0.005892630710329953,-2.13160787482456e-05,-0.0037312327140290344,0.006244426424267124
3.8383838383838382,3.5443037974683542,0.0069632440417032974,0.005829605223533339,-4.037868441301237e-05,-0.003837854779570991,0.006471707048590618
3.9393939393939394,3.5443037974683542,0.006618513382808428,0.005894463776865271,-4.003754091845231e-05,-0.0037538931479021097,0.0062882147098820606
4.040404040404041,3.5443037974683542,0.006805784336329889,0.005869799027312934,9.548614394664147e-06,-0.003802675009092847,0.006389438809809272
4.141414141414141,3.5443037974683542,0.006713622701968439,0.0058209015378009165,1.909745755910311e-05,-0.0037603572719308066,0.006314854070025017
4.242424242424242,3.5443037974683542,0.006590221413174796,0.005781299103196425,-3.124960943526945e-05,-0.003711456154911366,0.0062255382147814045
4.343434343434343,3.5443037974683542,0.006760424036157065,0.005799672295849238,1.6981816549232276e-06,-0.003768028899601891,0.0063349267200703075
4.444444444444445,3.5443037974683542,0.006692951568949914,0.0059528337738354725,-0.00010171598625679406,-0.003793735602835616,0.0063577386642198344
4.545454545454545,3.5443037974683542,0.006527862624876166,0.00599344183397528,-4.0652290287310516e-05,-0.003756391337655434,0.006278130959946633
4.646464646464646,3.5443037974683542,0.006733502093585341,0.005918839171689961,3.2224685967661175e-05,-0.003795702379582591,0.006365634840425387
4.747474747474747,3.5443037974683542,0.006611837776373814,0.005790338923051235,-4.682516177919092e-05,-0.0037206530098275147,0.006242292830585174
4.848484848484849,3.5443037974683542,0.006538065325668057,0.006045755413797924,-4.067532746621821e-05,-0.003775146221839794,0.006306732619553581
4.94949494949495,3.5443037974683542,0.006423611534481078,0.006014966512227052,-4.9270663497120135e-05,-0.0037315734140124387,0.006229934334847876
5.05050505050505,3.5443037974683542,0.00661685950821193,0.005781585687391727,4.7920673473826595e-05,-0.003719533558681097,0.006241835607955892
5.151515151515151,3.5443037974683542,0.006762081090962428,0.006080105620408046,-3.682473226601882e-05,-0.0038526560134111423,0.006448513469938083
5.252525252525253,3.5443037974683542,0.006694738523828818,0.0059233714402451365,5.3335120870091906e-05,-0.0037854329892221864,0.006344995197393579
5.353535353535354,3.5443037974683542,0.006616632481220617,0.006040515047457028,-2.454061161587736e-05,-0.003797144258603293,0.006348353021740983
5.454545454545454,3.5443037974683542,0.006666034919635388,0.0061154769988239705,6.479920324985132e-05,-0.0038344535755378078,0.00640950029711999
5.555555555555555,3.5443037974683542,0.006650096118631251,0.005854054440547885,5.8634848110357955e-06,-0.0037512451677537404,0.006289976964023929
5.656565656565657,3.5443037974683542,0.006545848440786719,0.005976207217664383,-6.532675798635704e-06,-0.0037566166975353302,0.0062804431251470075
5.757575757575758,3.5443037974683542,0.006543721816925295,0.005904554563941458,3.856236945598717e-05,-0.0037344829142600257,0.006249060606650461
5.858585858585858,3.5443037974683542,0.0067110758814906985,0.006037712137113747,1.4020425163403725e-06,-0.0038246364055813335,0.006401013117638389
5.959595959595959,3.5443037974683542,0.006635423909500957,0.005828272377485465,-5.2564315820677987e-05,-0.0037391088860959263,0.006271589950098706
6.0606060606060606,3.5443037974683542,0.006873332781809346,0.006092626950365372,-6.048459678837572e-05,-0.003889787919652415,0.006518982228835879
6.161616161616162,3.5443037974683542,0.006725602578159382,0.006007982843183386,3.5733757261995635e-05,-0.0038200756264028302,0.006397352084097194
6.262626262626262,3.5443037974683542,0.0066143821700119865,0.006007916161664154,0.00010027252849240911,-0.003786689499502842,0.006335346738563752
6.363636363636363,3.5443037974683542,0.006717475696237021,0.005998101377270752,-4.397088513417581e-05,-0.003814673122052331,0.006388693133371543
6.4646464646464645,3.5443037974683542,0.006560887846471398,0.005905753986507352,0.00010122977514752596,-0.0037399925498936247,0.006261543925496869
6.565656565656566,3.5443037974683542,0.006796478200843361,0.005941180262710242,-5.5644213448251415e-05,-0.0038212975390660812,0.006412482010987367
6.666666666666667,3.5443037974683542,0.006650747801738174,0.005939424931683448,2.8242310137783078e-05,-0.0037770518200264864,0.006325345082893995
6.767676767676767,3.5443037974683542,0.006785558495228504,0.006260056230854293,-1.3983565714066066e-05,-0.003913684417824839,0.006538709122454839
6.8686868686868685,3.5443037974683542,0.006845639173182203,0.006192976761657697,-3.714002603091234e-05,-0.00391158478045197,0.006544080583720581
6.96969696969697,3.5443037974683542,0.0068142434505813025,0.006135143303839811,2.0726276026709835e-05,-0.0038848160263263336,0.006501447978829508
7.070707070707071,3.5443037974683542,0.0067484626597290095,0.006031768762649415,-5.033473960330306e-05,-0.0038340694267135268,0.006420780105797375
7.171717171717171,3.5443037974683542,0.006813463733656984,0.006214528034129468,-9.722357523662648e-05,-0.003908397530335935,0.006536783813562266
7.2727272727272725,3.5443037974683542,0.0067754427532551,0.006070979058852861,-1.0623534435373812e-05,-0.003853926543632388,0.006452145282357693
7.373737373737374,3.5443037974683542,0.006885731908862554,0.0061111585996584976,-7.337397085751094e-05,-0.0038990671525563157,0.006534211107694473
7.474747474747475,3.5443037974683542,0.006788510320113083,0.006125826507952117,-0.00010059919244767449,-0.0038743010484195597,0.006484963137591363
7.575757575757575,3.5443037974683542,0.006879054134444715,0.00625208967403461,-0.00010381808637002066,-0.003939343142543798,0.006590438706252933
7.6767676767676765,3.5443037974683542,0.006887083788941467,0.006250862048655515,-3.677812835131341e-05,-0.003941383751279095,0.006592347584676677
7.777777777777778,3.5443037974683542,0.006904622058255062,0.006288464461775524,-4.7146141637824284e-05,-0.003957925956009176,0.006618594178150052
7.878787878787879,3.5443037974683542,0.007091766479156097,0.006251267918199293,1.490481606834103e-06,-0.004002910319206617,0.006711108460611136
7.979797979797979,3.5443037974683542,0.007181124722493737,0.006227979022960365,4.3006677433357736e-05,-0.0040227311236362305,0.006755585065736616
8.080808080808081,3.5443037974683542,0.006944154140364868,0.006213255795867287,-2.2976357472349907e-05,-0.003947222980869647,0.006609205859179697
8.181818181818182,3.5443037974683542,0.007220912102727646,0.006498409481839442,1.0374516894161483e-05,-0.004115796475370127,0.00688816206290816
8.282828282828282,3.5443037974683542,0.0070442060124865655,0.006440667563891919,5.77084766374622e-05,-0.0040454620729135455,0.00676340436775402
8.383838383838384,3.5443037974683542,0.007138982848541259,0.006453470311973441,-0.00010454824859142391,-0.00407773594815441,0.006824509675968733
8.484848484848484,3.5443037974683542,0.0073443194011653485,0.006312323181805713,-2.1206894952167665e-05,-0.004096992774891318,0.006886659785738991
8.585858585858587,3.5443037974683542,0.0073139165017454925,0.00641897822930921,-3.633797416164822e-06,-0.00411986841931641,0.006910052454259079
8.686868686868687,3.5443037974683542,0.007185078092346301,0.006612334635202748,-2.0489830516424192e-06,-0.004139223818264715,0.006916515624890421
8.787878787878787,3.5443037974683542,0.007350553918470949,0.006617126546528183,-3.035308982893562e-05,-0.00419030413949974,0.007012861406423361
8.88888888888889,3.5443037974683542,0.007410957409563706,0.006635822196900615,-2.1835658034053317e-05,-0.004214033881939297,0.00705549861203753
8.98989898989899,3.5443037974683542,0.0073056314737073675,0.0068385663893445565,-4.2919385579184744e-05,-0.004243259358915577,0.0070840469975176805
9.09090909090909,3.5443037974683542,0.0074638814714994475,0.006851161984031907,1.080648066404998e-06,-0.004294513036659406,0.0071771644585156575
9.191919191919192,3.5443037974683542,0.007709711418676598,0.006753439702607386,-3.22891899908252e-05,-0.004338945336385195,0.007279055883894614
9.292929292929292,3.5443037974683542,0.00767867766564075,0.006957349498089232,-1.1112899477901543e-05,-0.0043908081491189944,0.007344653090374134
9.393939393939394,3.5443037974683542,0.007730722411917112,0.006836101699484246,4.7124916595623096e-05,-0.004370047233420407,0.007324958232696884
9.494949494949495,3.5443037974683542,0.0077795918112485984,0.0070438313357057405,7.280241679891747e-05,-0.004447026944086302,0.007440119396361795
9.595959595959595,3.5443037974683542,0.007820939682673177,0.007146115284449164,0.00015952620257773118,-0.004490116490136702,0.007511396035456444
9.696969696969697,3.5443037974683542,0.00805945167182707,0.007093798885418352,7.699295447508444e-05,-0.004545975167173626,0.007623804715213085
9.797979797979798,3.5443037974683542,0.00796479808226963,0.007324160711594534,5.760485658986519e-05,-0.004586687638159249,0.0076652353120537945
9.8989898989899,3.5443037974683542,0.00802697936287435,0.0072586185502002834,3.154367384222681e-05,-0.00458567937392239,0.0076719061942887535
10.0,3.5443037974683542,0.008171691694853133,0.007460278802586487,2.3137123846816495e-05,-0.004689591149231885,0.007840332430144004
0.0,3.6455696202531644,0.008150666390634486,0.007224927358322801,-1.0065777803177272e-06,-0.004612678124687186,0.007729486942210273
0.10101010101010101,3.6455696202531644,0.008181775839378392,0.007131093957550776,1.2147282868706788e-05,-0.0045938609390787505,0.007710342880603319
0.20202020202020202,3.6455696202531644,0.008207098664887634,0.007076410050308518,-2.9662898848143433e-05,-0.004585052614558846,0.007704407302442384
0.30303030303030304,3.6455696202531644,0.007900615817679792,0.007114645206027473,-9.671251047021354e-05,-0.004504578307112179,0.007540284356928843
0.40404040404040403,3.6455696202531644,0.007701381131648558,0.007060489825212548,2.0719223788813614e-05,-0.004428561287058331,0.0074018614311169755
0.5050505050505051,3.6455696202531644,0.007891852518611825,0.0070134979414482376,5.2334699381082775e-05,-0.004471605138018019,0.007491943333942087
0.6060606060606061,3.6455696202531644,0.007654253131385663,0.006929930854407485,0.00010257020247917719,-0.004375255195737945,0.007321178159481664
0.7070707070707071,3.6455696202531644,0.007527580789911074,0.0067614687427845245,-4.3404013839129956e-05,-0.004286714859808679,0.007175658967215028
0.8080808080808081,3.6455696202531644,0.007576185042767101,0.0067781535086606885,5.338833413888572e-05,-0.004306301565428337,0.007210960442409116
0.9090909090909091,3.6455696202531644,0.0076156237781822905,0.006833199134864097,6.15497747454916e-06,-0.004334646873913916,0.007256126775783373
1.0101010101010102,3.6455696202531644,0.0073605838349140255,0.006918632243794625,3.976785466374396e-06,-0.0042837648236125955,0.007149863027132099
1.1111111111111112,3.6455696202531644,0.007309447300739534,0.006565284024897942,-4.132090451418896e-05,-0.0041624193976912425,0.006967603521078072
1.2121212121212122,3.6455696202531644,0.0076397654535870115,0.00658195894003465,-9.69599869006326e-07,-0.004266517318086498,0.007169628997897339
1.3131313131313131,3.6455696202531644,0.007251008500315043,0.006600267142042898,-7.28287069162597e-05,-0.004155382692707382,0.006949674059142795
1.4141414141414141,3.6455696202531644,0.007216345099970769,0.006718267516725483,3.908240973604654e-06,-0.004180383785008876,0.006980649251795188
1.5151515151515151,3.6455696202531644,0.007289681047349973,0.006403731816767675,1.2183399298939533e-05,-0.004108023859235294,0.006889594603590848
1.6161616161616161,3.6455696202531644,0.007271101505598355,0.006484127270277643,-0.00010708632793401325,-0.004126568632762799,0.006913789008160208
1.7171717171717171,3.6455696202531644,0.007213283290845792,0.006488732362531325,-5.318787028989117e-06,-0.0041106046960131355,0.006879689211412481
1.8181818181818181,3.6455696202531644,0.007161638059443903,0.0064239006257913265,-1.9342612480902898e-05,-0.004075661605570569,0.006822831534102078
1.9191919191919191,3.6455696202531644,0.0070777330544698185,0.006225571356339897,4.095083980606686e-05,-0.003990991323242914,0.006692842643102371
2.0202020202020203,3.6455696202531644,0.00709017458422056,0.006353504229030679,6.129745532750492e-07,-0.004033103643975372,0.006752046989235203
2.121212121212121,3.6455696202531644,0.007018390664021392,0.006278174172495265,1.1388364419546143e-05,-0.003988969450954997,0.006679145794051863
2.2222222222222223,3.6455696202531644,0.007064891561589996,0.006178740735351265,-4.081516316565816e-05,-0.003973089689082378,0.00666651289670333
2.323232323232323,3.6455696202531644,0.007017906761134598,0.006383847474718118,9.874271071908724e-05,-0.004020526270755814,0.006725513207356577
2.4242424242424243,3.6455696202531644,0.006969454752820621,0.006219469506539066,5.383094230982616e-05,-0.0039566772778079065,0.006627026670616432
2.525252525252525,3.6455696202531644,0.0067350124921591184,0.006176034258015236,-5.67256361379122e-05,-0.0038733140250523067,0.006474394021015994
2.6262626262626263,3.6455696202531644,0.006936567007624154,0.006205690500819447,3.1070847146488185e-05,-0.00394267725253308,0.006601762238094996
2.727272727272727,3.6455696202531644,0.00699457847881936,0.006086717612206753,1.2544782030357491e-05,-0.003924388827307833,0.0065877695379230805
2.8282828282828283,3.6455696202531644,0.0069457924548721114,0.006109100614782375,-4.482878025662184e-06,-0.003916467920896346,0.006567545849102914
2.929292929292929,3.6455696202531644,0.00687022971177869,0.006126113220247451,-9.574598892704185e-06,-0.0038989028796078424,0.006530068103417061
3.0303030303030303,3.6455696202531644,0.006753993232270089,0.006028334794366,-9.710666921976517e-06,-0.003834698407990826,0.006422008678183475
3.131313131313131,3.6455696202531644,0.006749596406945563,0.006233226832282362,3.410322234614641e-05,-0.003894846971768377,0.0065070647805143865
3.2323232323232323,3.6455696202531644,0.006600113821912475,0.0061358046473066405,1.8532805470450017e-05,-0.0038207755407657345,0.006380722722819284
3.3333333333333335,3.6455696202531644,0.0067556235177697165,0.006110314345524083,5.0106083399724326e-05,-0.003859781358988139,0.006457781281535749
3.4343434343434343,3.6455696202531644,0.006711786950027945,0.005987470350322932,6.58663378200718e-05,-0.0038097771901052634,0.0063815574134343115
3.5353535353535355,3.6455696202531644,0.00663223825374815,0.006038071386653149,3.759588817825405e-06,-0.0038010928921203896,0.006356021137386256
3.6363636363636362,3.6455696202531644,0.006770399334352615,0.005876398125279031,-7.49950726784366e-05,-0.0037940392378894936,0.006371944200978479
3.7373737373737375,3.6455696202531644,0.006741321197144418,0.006072162626060236,3.556514203289802e-05,-0.003844045146961396,0.006433192555396337
3.8383838383838382,3.6455696202531644,0.0067013611369271305,0.006074118747750349,-0.00016032942029072197,-0.0038326439654032436,0.006416807064348059
3.9393939393939394,3.6455696202531644,0.006699464963767126,0.0059436032581490945,3.5714439939630308e-06,-0.003792920466574866,0.0063553384622818
4.040404040404041,3.6455696202531644,0.006607962653922576,0.005823137809959992,-3.851616326000003e-05,-0.0037293301391647703,0.00625295751601255
4.141414141414141,3.6455696202531644,0.006846157279519755,0.005894568623219031,-2.3808344781869494e-05,-0.003822217770821636,0.006423578860115573
4.242424242424242,3.6455696202531644,0.006495703810184448,0.0059944931265050365,0.00011169439847966987,-0.0037470590810068454,0.0062631534315672685
4.343434343434343,3.6455696202531644,0.006777437396291498,0.005958701987525832,2.0104376547178853e-05,-0.0038208418151451985,0.006407516672709466
4.444444444444445,3.6455696202531644,0.006581863176127491,0.005811640835252474,6.197013468668692e-05,-0.0037180512034139896,0.006233473201481605
4.545454545454545,3.6455696202531644,0.006756978139349967,0.006126971838863684,-1.709540976996739e-05,-0.003865184993464095,0.00646510630023767
4.646464646464646,3.6455696202531644,0.006527921326658428,0.005840101029047098,1.8865968683229777e-05,-0.003710406706711658,0.006212719581108228
4.747474747474747,3.6455696202531644,0.0067569152375533984,0.005960727633609435,-1.0979122265396227e-05,-0.00381529286134885,0.006396124428002662
4.848484848484849,3.6455696202531644,0.006642108034843271,0.0060109922150125405,-7.717059509882508e-06,-0.0037959300749567434,0.006350129567637042
4.94949494949495,3.6455696202531644,0.00674335931672801,0.005984101852004944,2.2944404300114488e-05,-0.003818238350619886,0.006397733990310213
5.05050505050505,3.6455696202531644,0.006680961202872751,0.005943667357091706,8.500830181846864e-05,-0.0037873885679893366,0.006346234510689917
5.151515151515151,3.6455696202531644,0.006743844839665638,0.005930650399535897,5.832463304423691e-05,-0.0038023485717604603,0.006377058614964133
5.252525252525253,3.6455696202531644,0.006595696237140615,0.005952087735886826,3.7680026293283914e-05,-0.003764335191908232,0.00629894069973278
5.353535353535354,3.6455696202531644,0.006496363370201252,0.0060481201054937905,-4.037945005153782e-05,-0.0037633450427085125,0.006284632004837085
5.454545454545454,3.6455696202531644,0.0066100377764898915,0.0059228748190652165,6.575777055189286e-05,-0.0037598737786665327,0.006295680382822996
5.555555555555555,3.6455696202531644,0.006658396893939135,0.006015564366650256,-3.0440804690356056e-05,-0.0038021883781768173,0.006361605825584152
5.656565656565657,3.6455696202531644,0.006497058598731367,0.006117788902037674,-3.533154808607288e-05,-0.0037844542502307116,0.0063162665751935925
5.757575757575758,3.6455696202531644,0.006591384417627063,0.006081104735543454,-3.339842445839628e-05,-0.003801746745951155,0.0063518997720395055
5.858585858585858,3.6455696202531644,0.0066446743700808945,0.006003783125240279,2.56687080286853e-05,-0.0037945372485963516,0.006348692943530754
5.959595959595959,3.6455696202531644,0.006715797695130186,0.006022600657486002,-0.00012216873327683677,-0.003821519505784856,0.006400926912987219
6.0606060606060606,3.6455696202531644,0.006789171247180092,0.00604413197054359,-1.6650962119248086e-06,-0.003849990965317104,0.006449010686139674
6.161616161616162,3.6455696202531644,0.0065486124342456166,0.00598110421546436,-6.618374736816386e-05,-0.0037589149949129926,0.006285152335428326
6.262626262626262,3.6455696202531644,0.0066956183271297655,0.005975553454177457,-2.1513578957868516e-05,-0.0038013515343921665,0.006366310324358427
6.363636363636363,3.6455696202531644,0.00667716806447584,0.006103114259818965,-5.354072029484959e-05,-0.003834084697288441,0.00641012146736241
6.4646464646464645,3.6455696202531644,0.006670055500221962,0.006011845939128991,8.858740418760407e-06,-0.003804570431805286,0.006366539195743164
6.565656565656566,3.6455696202531644,0.006820672836379263,0.0058273219359682195,-8.76943686603604e-05,-0.0037943984317042444,0.006384048351612564
6.666666666666667,3.6455696202531644,0.006707799468404963,0.006088066025779311,-3.320041842778206e-05,-0.0038387596482552817,0.006420662146118324
6.767676767676767,3.6455696202531644,0.006768413986291868,0.0061126654079118135,4.363479588218726e-05,-0.003864323818261104,0.006465970014214055
6.8686868686868685,3.6455696202531644,0.006723458957808819,0.006194181278506949,-7.687818945225158e-05,-0.0038752920708947304,0.0064764333728617
6.96969696969697,3.6455696202531644,0.006708836358360102,0.0058656671467312415,-1.8599363761736955e-05,-0.003772351051527403,0.006329595022469034
7.070707070707071,3.6455696202531644,0.006810296769591753,0.006141274960565191,-3.673519143829185e-05,-0.003885471519047083,0.006501964597637781
7.171717171717171,3.6455696202531644,0.006823377126652669,0.006043804911577412,1.8377878327924915e-05,-0.003860154611469024,0.006468995769774565
7.2727272727272725,3.6455696202531644,0.006755320708483565,0.006165070411416128,1.9670295119573388e-05,-0.0038761173359699074,0.006480477142480878
7.373737373737374,3.6455696202531644,0.006908206405893027,0.006270287888919798,0.0001277711076208558,-0.003953548288443847,0.006616068270744681
7.474747474747475,3.6455696202531644,0.006867145142447992,0.006072797775842745,1.1147551627934634e-05,-0.003881982875487221,0.006506469418202321
7.575757575757575,3.6455696202531644,0.006802419363782705,0.006202257682491995,2.03816667815393e-06,-0.00390140311388241,0.006523079354462394
7.6767676767676765,3.6455696202531644,0.006734060448009017,0.006160625206413956,-2.7121144214757354e-05,-0.003868405696326892,0.006466610950352073
7.777777777777778,3.6455696202531644,0.006994510515941313,0.006255729860531462,-5.459633902998599e-05,-0.003975072112941833,0.006656613811232378
7.878787878787879,3.6455696202531644,0.007150119144486545,0.006436610881892282,-3.8403595489343916e-05,-0.004076019007913648,0.006821733888203074
7.979797979797979,3.6455696202531644,0.0069387725705759165,0.006291863430061266,-8.988355461787853e-05,-0.003969190800191155,0.006640823592188883
8.080808080808081,3.6455696202531644,0.006999414425903728,0.006247675143066234,1.64516874930271e-05,-0.003974126870690989,0.00665552337898103
8.181818181818182,3.6455696202531644,0.0071420821299366735,0.006370406030986463,-1.9912253140952537e-05,-0.00405374644827694,0.006789303098957632
8.282828282828282,3.6455696202531644,0.00718061434430157,0.006612207369473998,-6.785613340224747e-06,-0.00413784651413267,0.006913966712923877
8.383838383838384,3.6455696202531644,0.007099194588534299,0.006406657565059389,3.6965460529148165e-05,-0.004051755646078107,0.006779809405961337
8.484848484848484,3.6455696202531644,0.0070569871777333495,0.006490694292899882,1.1335323436417642e-05,-0.0040643044411899695,0.006791599185734296
8.585858585858587,3.6455696202531644,0.007218846331287885,0.00642200959353642,1.7080191271301927e-05,-0.004092256777447291,0.006855313587227647
8.686868686868687,3.6455696202531644,0.007370258483307166,0.006490711457741296,-4.5999150339330596e-05,-0.004158290982314538,0.006972673226230697
8.787878787878787,3.6455696202531644,0.007339414869109425,0.006849965811887438,4.942329011519422e-05,-0.004256814204299059,0.007107856870892295
8.88888888888889,3.6455696202531644,0.00753687228115833,0.006806018977079959,-9.369020571142234e-05,-0.0043028673774714865,0.0072011510114295295
8.98989898989899,3.6455696202531644,0.007481923162224151,0.006834444415171742,1.6897758079537483e-05,-0.004294910273218768,0.007180172233406094
9.09090909090909,3.6455696202531644,0.007493324256424148,0.006945384231562424,5.0424282410022475e-05,-0.004331612546395971,0.00723546005642818
9.191919191919192,3.6455696202531644,0.007628704645780983,0.006882659049498482,3.651518695732615e-05,-0.00435340910858384,0.007284665893134955
9.292929292929292,3.6455696202531644,0.007448450695248962,0.006770963696747709,-3.537063618855775e-05,-0.0042658243175990014,0.007134138429649185
9.393939393939394,3.6455696202531644,0.007561611083514508,0.007060298929194676,-9.356046199631497e-06,-0.004386573003812754,0.007323852204871036
9.494949494949495,3.6455696202531644,0.007701637811326293,0.007041727136260638,5.8187059556062105e-05,-0.004423009484276079,0.007394489250139749
9.595959595959595,3.6455696202531644,0.007780153094077124,0.006950978139409862,-2.5466995362129548e-05,-0.004419339370046096,0.007400618277360202
9.696969696969697,3.6455696202531644,0.007867519988953058,0.007214847872228396,0.00011432627659805073,-0.004524710358354437,0.007564929096595984
9.797979797979798,3.6455696202531644,0.008077451876818695,0.007317314719298647,4.884638270110726e-06,-0.004618429978835202,0.007725486236476489
9.8989898989899,3.6455696202531644,0.0081457696926139,0.007329960800605319,3.014882496951346e-05,-0.0046427191479657655,0.0077702280237352175
10.0,3.6455696202531644,0.008273550464818136,0.007525981297053586,-7.783196761063096e-05,-0.004739859528561517,0.007927396745753863
0.0,3.7468354430379747,0.008259356479922271,0.0071473598438479245,2.6774924222247828e-05,-0.0046220148971310585,0.007763457995568958
0.10101010101010101,3.7468354430379747,0.008084514318275697,0.007282691822147038,9.527486336760989e-06,-0.00461016184212682,0.007714934733750036
0.20202020202020202,3.7468354430379747,0.007947792258399916,0.00722661823971826,1.0972914383216111e-05,-0.004552323149435452,0.007612891282542793
0.30303030303030304,3.7468354430379747,0.007875273807676714,0.007238423697989786,2.869402628130908e-05,-0.00453410925169995,0.007577111366562216
0.40404040404040403,3.7468354430379747,0.00795679114654008,0.007025878858222613,0.00011444972378718328,-0.004494801001428808,0.007537197397052445
0.5050505050505051,3.7468354430379747,0.007718147948646784,0.006992826505925305,0.00012812166945145204,-0.004413292336371627,0.007385594507808488
0.6060606060606061,3.7468354430379747,0.007844276735676328,0.006791402263362675,7.65557403186595e-05,-0.004390703699711701,0.007375619687571502
0.7070707070707071,3.7468354430379747,0.007495590804083507,0.006958694804396622,-3.839161578377219e-06,-0.004336285682544038,0.007242087428098589
0.8080808080808081,3.7468354430379747,0.0075844976786146505,0.006670256325523147,3.184058286774676e-05,-0.004276426201241339,0.0071714309824852706
0.9090909090909091,3.7468354430379747,0.007617487475965808,0.006752595229198548,6.194289592824752e-05,-0.004311024811549307,0.007224773972538688
1.0101010101010102,3.7468354430379747,0.007433284991503124,0.006700609653499127,-7.158800392479981e-05,-0.004240168393500675,0.007096458895048508
1.1111111111111112,3.7468354430379747,0.00738267777322126,0.006870671297705056,-5.410622342523682e-05,-0.004276004721277894,0.007141070322989891
1.2121212121212122,3.7468354430379747,0.0072456685050442966,0.006674938166044199,-1.6617474295907315e-05,-0.004176182001326549,0.006977890138432654
1.3131313131313131,3.7468354430379747,0.007175607717073326,0.006594086172623493,-6.343302699158143e-07,-0.004130908166909046,0.006903241567633833
1.4141414141414141,3.7468354430379747,0.00750990572253782,0.006604829020011929,3.201961679143669e-06,-0.004234420422764925,0.007100763187777943
1.5151515151515151,3.7468354430379747,0.007335450658793625,0.006563117616590571,-4.945607320273307e-05,-0.004169570482615259,0.0069819239097807335
1.6161616161616161,3.7468354430379747,0.007133501024183978,0.006629831412168363,2.039548559953721e-05,-0.004128999730905702,0.0068955667043714836
1.7171717171717171,3.7468354430379747,0.007125572161208699,0.006491845223268897,2.6772097745619352e-05,-0.004085225215343278,0.006830949543462035
1.8181818181818181,3.7468354430379747,0.007112866126487181,0.006475767692926477,5.491452840194896e-05,-0.004076590145824097,0.006817346250290585
1.9191919191919191,3.7468354430379747,0.007135251447994865,0.006462875311929686,9.237793078799047e-06,-0.004079438027977365,0.006823971432125825
2.0202020202020203,3.7468354430379747,0.006898388559507242,0.006421013726872607,4.75564383806115e-05,-0.003995820685913954,0.006673029237851746
2.121212121212121,3.7468354430379747,0.0069704729493751776,0.006428161870520539,6.977895302745087e-05,-0.004019590445968715,0.006716847254908634
2.2222222222222223,3.7468354430379747,0.0069502056360339435,0.006295010594773835,4.59099952620367e-05,-0.003973564869242334,0.006647346977537521
2.323232323232323,3.7468354430379747,0.006821626517648137,0.006171584317354709,5.530918794066031e-05,-0.0038979632505008535,0.00652165434657055
2.4242424242424243,3.7468354430379747,0.00704734895703063,0.006421522648745178,-2.05691330847334e-05,-0.004040661481732742,0.00675630363268501
2.525252525252525,3.7468354430379747,0.007044752381056846,0.006114694717112938,-6.718160017273728e-05,-0.003947834129450935,0.006629861048942368
2.6262626262626263,3.7468354430379747,0.006899846086316094,0.006056941586361474,-3.6881371650850408e-06,-0.00388703630180327,0.0065193936453333155
2.727272727272727,3.7468354430379747,0.006825073816190634,0.0061037015507609,-7.346738326437797e-07,-0.0038786326100854604,0.006494504846445843
2.8282828282828283,3.7468354430379747,0.006670234127606802,0.0059850888193212545,-5.923483277056908e-05,-0.003796596884078417,0.006356248428837587
2.929292929292929,3.7468354430379747,0.006866001214247852,0.0059626160700576225,-2.3949344704396158e-05,-0.0038485851852916426,0.006461977608223994
3.0303030303030303,3.7468354430379747,0.006771812066017465,0.006014532722484947,5.365376886543271e-05,-0.0038359034365507234,0.006427393985626046
3.131313131313131,3.7468354430379747,0.006656498847253237,0.006006571867841151,7.463928184131899e-05,-0.0037989212145283164,0.006357818561423204
3.2323232323232323,3.7468354430379747,0.006785036257299509,0.006013978094416569,3.149746084794361e-05,-0.003839704305514823,0.006434482604055236
3.3333333333333335,3.7468354430379747,0.006786694149654419,0.005942454001057983,5.4766620599040824e-06,-0.0038187444452137207,0.006406438106588933
3.4343434343434343,3.7468354430379747,0.0067571642610985885,0.006168446630669725,-4.134737352927407e-05,-0.0038776832675304937,0.00648328037212078
3.5353535353535355,3.7468354430379747,0.006690752463658439,0.005996490700497247,1.512962929390949e-06,-0.0038061729492467056,0.006372051568420883
3.6363636363636362,3.7468354430379747,0.006784846774130029,0.00593588260312291,-3.780757279769519e-05,-0.0038162188131758814,0.006403052579258537
3.7373737373737375,3.7468354430379747,0.0065827145902234525,0.005977295990952131,3.5835865075505795e-05,-0.003768003174352675,0.006302159775644024
3.8383838383838382,3.7468354430379747,0.0065742672044732395,0.0060693036126532865,7.610218878911421e-05,-0.0037930712451379575,0.006338263685989772
3.9393939393939394,3.7468354430379747,0.006499583049362502,0.006023134029189058,-6.282980538612848e-05,-0.003756815123565468,0.006275882906995195
4.040404040404041,3.7468354430379747,0.00655960940099276,0.005911672054847016,-5.750965954879426e-06,-0.0037413844367519327,0.006260845119623972
4.141414141414141,3.7468354430379747,0.00654805296177093,0.005764045119644658,3.55119604176099e-05,-0.003693629424424676,0.0061936842276616
4.242424242424242,3.7468354430379747,0.006615314982800084,0.005999758403147708,5.785109372546515e-05,-0.0037845220157843376,0.006330816835718181
4.343434343434343,3.7468354430379747,0.006665292311973003,0.005846140468372373,4.6232750416372414e-05,-0.003753429834103612,0.00629632093075505
4.444444444444445,3.7468354430379747,0.006697458281433662,0.00579281485029267,-1.378283086995733e-05,-0.003747081939517899,0.006294131030467308
4.545454545454545,3.7468354430379747,0.006506392365601471,0.005949113508529481,2.3994714015960697e-05,-0.0037366517622392853,0.006246563349349335
4.646464646464646,3.7468354430379747,0.006522583183469073,0.005918393226584551,0.00012942375860576003,-0.0037322929230160866,0.006246479741802794
4.747474747474747,3.7468354430379747,0.006750690272714631,0.005934922281832147,3.385410152898535e-05,-0.0038056837663640337,0.006382298789057203
4.848484848484849,3.7468354430379747,0.006682610342037295,0.006012609451810104,1.7672387511248685e-05,-0.003808565938154219,0.00637414811861504
4.94949494949495,3.7468354430379747,0.006531797449507143,0.005893683169214638,-2.6356587916792008e-05,-0.0037276441856165343,0.0062374368563354946
5.05050505050505,3.7468354430379747,0.006680926089968207,0.0060689332494126245,-3.7627494342688316e-05,-0.003824957801814249,0.006397255443247451
5.151515151515151,3.7468354430379747,0.006631572581302022,0.0058665846558292566,-2.7313083270398705e-05,-0.0037494471711393834,0.006284276130880691
5.252525252525253,3.7468354430379747,0.006542195637887707,0.006004097170888659,-3.660648963551059e-05,-0.0037638878426329097,0.006290751019256663
5.353535353535354,3.7468354430379747,0.006746245712286957,0.00618508250207368,-3.856920672885375e-06,-0.003879398464308191,0.006483905851087272
5.454545454545454,3.7468354430379747,0.006512557988568556,0.0059241737738263255,-1.668739813806136e-05,-0.0037310195287184648,0.006239275328780471
5.555555555555555,3.7468354430379747,0.006545760891964687,0.00614750726389452,0.00015231392671152894,-0.003807980446757762,0.00636147130624288
5.656565656565657,3.7468354430379747,0.006546014574422645,0.006044698415776422,1.8468320614384112e-05,-0.00377721389705972,0.006310390245870749
5.757575757575758,3.7468354430379747,0.006713926880607037,0.0059391293948301335,-1.5854151460929218e-05,-0.003795916882631151,0.006362070865502467
5.858585858585858,3.7468354430379747,0.006541327856192135,0.005914378931416433,8.903328119900122e-06,-0.0037367120362825704,0.0062514953745629875
5.959595959595959,3.7468354430379747,0.00654099072554282,0.005965235112995331,-1.6253930770648613e-05,-0.0037518677515614453,0.006273024361977343
6.0606060606060606,3.7468354430379747,0.006478635092167073,0.006026326386493946,-3.731764489723071e-06,-0.0037514884435983055,0.006264742177282189
6.161616161616162,3.7468354430379747,0.006786823320857629,0.006019221135951825,1.6438619604796843e-05,-0.003841813337042836,0.006437500615750859
6.262626262626262,3.7468354430379747,0.006753080031031364,0.0058942242958257545,-8.698907616121606e-05,-0.0037941912980571355,0.006369026837953386
6.363636363636363,3.7468354430379747,0.0067334692331925666,0.006128559365465014,9.75715706789673e-06,-0.0038586085795972737,0.006452338140981852
6.4646464646464645,3.7468354430379747,0.0068441592322105935,0.006059846842938112,4.770716000324768e-05,-0.0038712018225446117,0.006488183918415855
6.565656565656566,3.7468354430379747,0.006686740794998498,0.0061039253363792565,3.070910291044671e-05,-0.0038371998394133265,0.00641543993520338
6.666666666666667,3.7468354430379747,0.006674181756522823,0.006112174047992249,5.320291222383954e-06,-0.003835906741354521,0.006411684498222443
6.767676767676767,3.7468354430379747,0.006767854651778675,0.005934797931417772,-2.073410013123132e-05,-0.0038107957749589343,0.006392270566518242
6.8686868686868685,3.7468354430379747,0.006669181459365243,0.00610191393173868,-2.4183701394817537e-05,-0.003831328617331177,0.006404554493665666
6.96969696969697,3.7468354430379747,0.0068812090855864,0.005976084720865964,-3.597267026004395e-05,-0.003857188141935709,0.006476559325142048
7.070707070707071,3.7468354430379747,0.006797878253567956,0.006122080829270452,9.193522596407516e-06,-0.003875987724851522,0.006486456340494649
7.171717171717171,3.7468354430379747,0.0067016311722383655,0.006189587916063695,-2.568249980098152e-05,-0.003867365726490618,0.006460998559834572
7.2727272727272725,3.7468354430379747,0.00671333767478656,0.006165702009001316,3.3980513867819685e-05,-0.0038637119051363623,0.006457229160943874
7.373737373737374,3.7468354430379747,0.0068086501383580016,0.0060970382046446015,-4.67842021133637e-06,-0.003871706502900781,0.00648221082831142
7.474747474747475,3.7468354430379747,0.006875108655530972,0.006217946494683972,-9.578658147290853e-05,-0.003927916545064483,0.006573313097552112
7.575757575757575,3.7468354430379747,0.006923414517728487,0.006161170451958459,1.5204642919766757e-05,-0.003925375490906083,0.0065755643493611675
7.6767676767676765,3.7468354430379747,0.006949462216332728,0.006149482203775515,-5.748169111073159e-05,-0.0039296833260324725,0.00658676511499221
7.777777777777778,3.7468354430379747,0.0069403533550139885,0.006202966935305348,6.623561096085831e-05,-0.003942996087095801,0.006603611328730372
7.878787878787879,3.7468354430379747,0.0068671685832635485,0.006295545107814429,-7.925930012413412e-06,-0.003948814107323393,0.006599962987599703
7.979797979797979,3.7468354430379747,0.00714575934024434,0.006278159584392404,3.752944116449675e-05,-0.0040271756773910235,0.006754196636383431
8.080808080808081,3.7468354430379747,0.007131799331897361,0.006389745726003782,-0.00010051328323906415,-0.0040564635173703425,0.006793477505228816
8.181818181818182,3.7468354430379747,0.007060551143641504,0.006351274753368785,-0.00010349993562398917,-0.0040235477691030865,0.006736372163954438
8.282828282828282,3.7468354430379747,0.006959078866897971,0.006430308930329742,-2.7938901894774544e-05,-0.0040168163391683135,0.006710511633043985
8.383838383838384,3.7468354430379747,0.0071401885270069455,0.006385923267450993,-7.953344575136202e-05,-0.004057833538337381,0.006795924428460969
8.484848484848484,3.7468354430379747,0.007021157722669721,0.006599484166424414,-4.303825816301692e-05,-0.0040861925667282405,0.006820512054366667
8.585858585858587,3.7468354430379747,0.007195238757050169,0.006520269247715746,-6.965114259231563e-05,-0.004114652401429774,0.006883678644525112
8.686868686868687,3.7468354430379747,0.007228841564530217,0.006546959993875561,-1.5375356486322735e-05,-0.004132740467521733,0.006913219814688655
8.787878787878787,3.7468354430379747,0.00723225217550014,0.006627922339058004,5.950540875304666e-06,-0.004158052354367443,0.006949829244932751
8.88888888888889,3.7468354430379747,0.007320413412942118,0.006549926510557162,3.7841104454508484e-05,-0.0041611019770497835,0.006967504273122017
8.98989898989899,3.7468354430379747,0.007304236694224145,0.0068093543817404735,-5.614589824300791e-05,-0.004234077322789386,0.007070466867750846
9.09090909090909,3.7468354430379747,0.00755642844808268,0.006827452190313808,7.005314253880976e-05,-0.0043151641915189455,0.007220615117255666
9.191919191919192,3.7468354430379747,0.007558369609748593,0.006860610789951124,5.025204649893576e-05,-0.004325694119909915,0.007235293724114938
9.292929292929292,3.7468354430379747,0.007789852757834169,0.0068133582371012295,1.2494171599727843e-05,-0.004380963298480619,0.00735044674257208
9.393939393939394,3.7468354430379747,0.0077082611681575115,0.00695640083220197,-4.834440881433235e-06,-0.004399398600107844,0.007361190018281021
9.494949494949495,3.7468354430379747,0.00792871513733501,0.007067775565816652,-3.546347051633244e-06,-0.004498947210945499,0.0075352261937857885
9.595959595959595,3.7468354430379747,0.007936572336759935,0.007165754363191074,5.790658510059801e-05,-0.004530698009985303,0.007581276127215651
9.696969696969697,3.7468354430379747,0.00798772911053887,0.006972723910071291,5.665118491737955e-05,-0.004488135906183049,0.007532336515548195
9.797979797979798,3.7468354430379747,0.007971017529224208,0.0075220454037819295,-3.912922047591481e-05,-0.0046479188799018415,0.007756579466896183
9.8989898989899,3.7468354430379747,0.008190141377514013,0.007325653851520291,-1.6380625466221268e-05,-0.004654738568710291,0.007793990273534601
10.0,3.7468354430379747,0.007983391457162092,0.0074264061113804795,-0.00011807832871330463,-0.004622939270562771,0.007722691710638326
0.0,3.848101265822785,0.008299390724046132,0.007240124644373747,-2.3020526391099624e-05,-0.004661854610525963,0.007823826287431475
0.10101010101010101,3.848101265822785,0.0079625195298927,0.007450480267515058,6.375790571127396e-05,-0.004623899939222327,0.007720037179638912
0.20202020202020202,3.848101265822785,0.008123730630641273,0.0073903495410849885,-2.042080524010214e-06,-0.004654224051517878,0.007782998732548731
0.30303030303030304,3.848101265822785,0.00797170285404874,0.0072290312011453126,-4.4416327421788714e-05,-0.004560220216558216,0.0076279203111089666
0.40404040404040403,3.848101265822785,0.007938424339484938,0.006935518784153004,3.2752811100570044e-05,-0.004462182937091382,0.007487731893964674
0.5050505050505051,3.848101265822785,0.00791350938099797,0.007057846048382725,8.34152232349038e-06,-0.004491406628814209,0.007522280199200399
0.6060606060606061,3.848101265822785,0.00776209191882841,0.006863322012737329,6.647013463984069e-05,-0.004387624179469721,0.007354915262046032
0.7070707070707071,3.848101265822785,0.007612092052366564,0.006724480784389926,2.95959845467984e-05,-0.004300971851026947,0.007209566440854068
0.8080808080808081,3.848101265822785,0.0074883245489740635,0.006829154885207311,-1.769688747027321e-05,-0.004295243830254412,0.007181529945683778
0.9090909090909091,3.848101265822785,0.007544514591215726,0.007014453156714505,-3.105906662593226e-05,-0.004367690324379069,0.007294141711773655
1.0101010101010102,3.848101265822785,0.007347130856028773,0.006805193302400659,-2.852761835575782e-05,-0.0042456972475288296,0.007091881519058804
1.1111111111111112,3.848101265822785,0.007444301716631892,0.0066580144607599106,8.190266050376417e-05,-0.004230694853217541,0.007085382153824481
1.2121212121212122,3.848101265822785,0.007168070783898663,0.006652502075166868,1.3497567639842021e-05,-0.004146171857719659,0.006924735620314237
1.3131313131313131,3.848101265822785,0.007344276040268807,0.006511492103607103,6.509956040371323e-05,-0.004156730443162772,0.006966235596531114
1.4141414141414141,3.848101265822785,0.007369921419248919,0.0066065393976632945,1.1755789279690953e-05,-0.004192938245073664,0.00701946172584305
1.5151515151515151,3.848101265822785,0.007295313298048543,0.006515528507819846,-3.29525505478133e-05,-0.004143252541760517,0.006938598107524843
1.6161616161616161,3.848101265822785,0.007215433902486305,0.006435363344216243,-3.232866870628047e-05,-0.004095239174010764,0.006858978375313357
1.7171717171717171,3.848101265822785,0.007002377171662454,0.006437555132093653,6.111197127950096e-05,-0.004031979691126832,0.0067385767825094
1.8181818181818181,3.848101265822785,0.007230046868937357,0.006386521702151657,5.355119080448803e-05,-0.004084970571326704,0.006847991613104724
1.9191919191919191,3.848101265822785,0.006992983249539176,0.006494596261483841,-7.295394983280196e-05,-0.004046273853306905,0.006758769066577711
2.0202020202020203,3.848101265822785,0.006901955368037223,0.006366103032513725,-3.1192936714251194e-06,-0.003980417520165284,0.006650242545516754
2.121212121212121,3.848101265822785,0.006906845648324963,0.006304895070057012,-5.2565693827039166e-05,-0.003963522215514592,0.0066270333508251225
2.2222222222222223,3.848101265822785,0.00683131311105794,0.006258908620902772,-4.84490026576303e-06,-0.0039270665195882135,0.0065638618086011095
2.323232323232323,3.848101265822785,0.0069149228477945555,0.006067812018036946,-3.3327239415248946e-07,-0.00389482045974945,0.0065326907971179965
2.4242424242424243,3.848101265822785,0.006890554143739648,0.00614427899524609,8.787803390098856e-06,-0.003910449941695721,0.006549400382073903
2.525252525252525,3.848101265822785,0.007036705203086081,0.00617105500223757,1.1648499308840231e-05,-0.003962328061597095,0.006646326216460716
2.6262626262626263,3.848101265822785,0.0068616607714688535,0.006112788382719614,4.268382439572256e-05,-0.00389233474625654,0.0065199812753737145
2.727272727272727,3.848101265822785,0.006823752524806657,0.006098313910168329,-5.405496193587852e-05,-0.0038766199304924955,0.006492180830962176
2.8282828282828283,3.848101265822785,0.006737767156303698,0.006115301735040173,-4.022847193010581e-05,-0.003855920667403161,0.006449480395486985
2.929292929292929,3.848101265822785,0.006977074214104758,0.006257664305072178,8.428012093937685e-05,-0.003970421555753081,0.006648236480226452
3.0303030303030303,3.848101265822785,0.006761458712683327,0.006156076809186963,4.4229948325963296e-06,-0.003875260656561087,0.006480015826767379
3.131313131313131,3.848101265822785,0.0065950488937258234,0.006102194288403789,2.3873258175109163e-05,-0.0038091729546388836,0.006363087705696996
3.2323232323232323,3.848101265822785,0.006681816333369793,0.0062048732859957614,8.337212880515866e-05,-0.0038660068858096665,0.006458184812691514
3.3333333333333335,3.848101265822785,0.006855457638107619,0.0059937686199564785,7.435872573832495e-06,-0.003854767877419229,0.006467820398506401
3.4343434343434343,3.848101265822785,0.0066514558713011915,0.005974874289127647,-2.438313582858185e-05,-0.003787899048128651,0.00634043838547301
3.5353535353535355,3.848101265822785,0.006755059141236978,0.0060856017505492525,-9.32793867566577e-06,-0.0038521982675358687,0.006446474537624554
3.6363636363636362,3.848101265822785,0.006734924659041943,0.006103631800340348,6.383731733004372e-05,-0.003851566937814687,0.006443466194877109
3.7373737373737375,3.848101265822785,0.006813195379257617,0.006008172085981096,-5.596883102094975e-05,-0.0038464102395716136,0.006449210054483133
3.8383838383838382,3.848101265822785,0.006615760640792108,0.006118198283529783,6.584224997838598e-05,-0.003820187677296567,0.006382562910128601
3.9393939393939394,3.848101265822785,0.006681963603483628,0.006029949701083903,8.248273008033337e-05,-0.003813573991370259,0.006382588563011614
4.040404040404041,3.848101265822785,0.0066139697240131775,0.006020855132608758,7.050967970350495e-05,-0.0037904474569865807,0.006339436356891373
4.141414141414141,3.848101265822785,0.006729750671073835,0.006048329401571163,-1.5386226464784237e-05,-0.0038334240217934995,0.006416291296654498
4.242424242424242,3.848101265822785,0.006728041126992596,0.005890431565404451,-0.00013738975359631962,-0.003785541807719114,0.0063552563629345575
4.343434343434343,3.848101265822785,0.006638521282874822,0.005955267674940556,6.48070626888499e-05,-0.003778136687344613,0.0063256309222233
4.444444444444445,3.848101265822785,0.006672920994082693,0.005981932890853675,-0.00012778448318234373,-0.0037964561654809104,0.006359513877160882
4.545454545454545,3.848101265822785,0.006756770282998164,0.005971118094270138,-2.8007960027272283e-05,-0.0038183665131804904,0.006400396549805715
4.646464646464646,3.848101265822785,0.006655599763325664,0.005826230432282997,3.8268219403932997e-05,-0.003744549058682598,0.006282460086885288
4.747474747474747,3.848101265822785,0.006575207142239985,0.005962053044287298,7.177752518897337e-05,-0.0037611780559581847,0.006292308618179374
4.848484848484849,3.848101265822785,0.006905753344731034,0.005972477841047928,-3.33994636422537e-05,-0.0038634693557336886,0.006489900505049245
4.94949494949495,3.848101265822785,0.0067783512074920125,0.006070206982032579,3.436631536593702e-06,-0.003854567456857377,0.006453487313208842
5.05050505050505,3.848101265822785,0.006530513853717391,0.0059223952261918235,-4.700030420861718e-05,-0.003735872723972764,0.006249217504837396
5.151515151515151,3.848101265822785,0.00667698797876999,0.005936296570630476,1.59169995949724e-05,-0.0037839853648201395,0.006339240069222274
5.252525252525253,3.848101265822785,0.0065251637269672326,0.005800590074264214,5.751420105852079e-05,-0.003697726140369434,0.006195541185058542
5.353535353535354,3.848101265822785,0.006639145247232564,0.006070382563878324,-6.107495349644549e-07,-0.0038128583433332665,0.006373824884390652
5.454545454545454,3.848101265822785,0.00670712184667246,0.006005826442490635,-4.453265325567459e-07,-0.003813884486748928,0.006385422897398871
5.555555555555555,3.848101265822785,0.006637699779086365,0.005939886747761773,9.408915981570035e-07,-0.0037732759580544413,0.006317763103815603
5.656565656565657,3.848101265822785,0.006651976296727887,0.005996486348946766,0.00012866611137339818,-0.0037945387937023956,0.006353567268325424
5.757575757575758,3.848101265822785,0.006735075954592887,0.005988921649354673,-3.847939723604604e-05,-0.0038171992811842676,0.006395078610444902
5.858585858585858,3.848101265822785,0.006787977415347835,0.005969662991968146,-8.399796239200104e-05,-0.0038272921221947937,0.0064197151833462855
5.959595959595959,3.848101265822785,0.0065952917505421454,0.006006626763826069,3.984214432307642e-05,-0.0037805755543104643,0.006321925703456658
6.0606060606060606,3.848101265822785,0.006803085323814872,0.00588824090791874,-5.562486139458385e-05,-0.0038073978695200832,0.006395656962709943
6.161616161616162,3.848101265822785,0.006547066607585274,0.006041979195857688,-3.106306932476538e-05,-0.0037767137410328884,0.006309932509404366
6.262626262626262,3.848101265822785,0.006796016672120517,0.005901606519308853,2.8241108396687276e-05,-0.003809286957428811,0.0063960752418636465
6.363636363636363,3.848101265822785,0.006633137807089052,0.006093970414682001,-1.3537154702819512e-05,-0.003818132466531316,0.006380705038913545
6.4646464646464645,3.848101265822785,0.0067220397287408905,0.006010752246997943,-1.837788133627502e-05,-0.00381983759272165,0.00639620657305486
6.565656565656566,3.848101265822785,0.0065358992467608925,0.006161479249692818,6.666975075087127e-05,-0.003809213548936113,0.006358013250080575
6.666666666666667,3.848101265822785,0.00659982006130047,0.006008980624675615,-7.670705920840525e-05,-0.0037826402057928254,0.006326526221661326
6.767676767676767,3.848101265822785,0.006795285443026652,0.006124255503398327,8.11627279497077e-05,-0.0038758622839274934,0.006487380643736023
6.8686868686868685,3.848101265822785,0.006754347283802423,0.0060070187512641015,2.876400926667144e-05,-0.0038284098105199576,0.006413616205120483
6.96969696969697,3.848101265822785,0.006705192191985596,0.005948636862242977,8.720322467120223e-05,-0.003796148716268572,0.006362542150415228
7.070707070707071,3.848101265822785,0.006970247748046039,0.0061599292443904,-7.053073997337846e-05,-0.0039390530977309315,0.006603618158028628
7.171717171717171,3.848101265822785,0.006898305552858362,0.006267477022957871,2.1993659408693028e-05,-0.00394973477274487,0.006605631487388731
7.2727272727272725,3.848101265822785,0.006791879148996372,0.006190075308718205,5.1996453128424446e-05,-0.0038945863373143733,0.006512489706370968
7.373737373737374,3.848101265822785,0.006800787605315365,0.006264972316486599,-5.6894456231147155e-06,-0.003919727976540589,0.006549346624719377
7.474747474747475,3.848101265822785,0.0068134835805348255,0.006095043728305142,-0.00010174105161882833,-0.0038725581926519898,0.006486577673278426
7.575757575757575,3.848101265822785,0.0067477557999777804,0.006127790391363921,-2.525735845198065e-05,-0.0038626638574025102,0.006460271206746639
7.6767676767676765,3.848101265822785,0.006860438669570892,0.006159964240923719,-5.0723196896536885e-05,-0.003906120873148383,0.006538993793765657
7.777777777777778,3.848101265822785,0.007019886305393371,0.006327890843125069,-7.896553736257089e-05,-0.004004333144555531,0.006702136872651182
7.878787878787879,3.848101265822785,0.007062138052567897,0.006449557444434693,3.6122510643323955e-05,-0.0040535086491007765,0.006776934008779426
7.979797979797979,3.848101265822785,0.006940584632479141,0.006472743042616902,4.377892175165857e-05,-0.004023998302528813,0.006719318896044984
8.080808080808081,3.848101265822785,0.007069373896972059,0.006402516935281646,4.131625213129866e-05,-0.004041567249676111,0.006761035823202471
8.181818181818182,3.848101265822785,0.007101532471680962,0.006444390527288926,-3.391881193154721e-05,-0.0040637768996909665,0.006797082872984807
8.282828282828282,3.848101265822785,0.007173455022549624,0.0063311496516639705,6.546524706928758e-05,-0.0040513814022640786,0.006792536543941929
8.383838383838384,3.848101265822785,0.007348326923896699,0.006615072073095466,-3.544146574459822e-05,-0.004189019699097649,0.007010787629571337
8.484848484848484,3.848101265822785,0.007353049105654366,0.006600289277929335,8.24260710975734e-05,-0.00418600151507511,0.007008514871352187
8.585858585858587,3.848101265822785,0.00739303679693933,0.006611435153105521,8.008290930081772e-05,-0.004201341585013455,0.007036243622432163
8.686868686868687,3.848101265822785,0.007358280442789297,0.006513434910321947,-2.9931609351602375e-05,-0.004161514605933374,0.0069745345646464625
8.787878787878787,3.848101265822785,0.007362342616747412,0.0066149164231725215,3.2956410829707657e-05,-0.00419317771197598,0.007018773780257602
8.88888888888889,3.848101265822785,0.007509643903674697,0.006801242984176014,-4.115332552398186e-05,-0.0042932660663552134,0.007182048841721932
8.98989898989899,3.848101265822785,0.0075317511722872614,0.006882939445985098,-2.0408528068113646e-05,-0.004324407185481708,0.007229301032694752
9.09090909090909,3.848101265822785,0.007491514091983529,0.0068471532424279336,-5.49600711965385e-06,-0.0043016002003234384,0.00719102472032619
9.191919191919192,3.848101265822785,0.007517372149652872,0.006932800422315578,5.83468651309092e-05,-0.004335051771590535,0.0072435059182850625
9.292929292929292,3.848101265822785,0.007543060808619177,0.006908736736232141,7.80742159578912e-05,-0.004335539263455395,0.00724801180259402
9.393939393939394,3.848101265822785,0.0076911530978001005,0.0071418437879506155,-4.7703494437744105e-05,-0.0044498990657252145,0.007432198972157084
9.494949494949495,3.848101265822785,0.008013263373131423,0.007079222008768054,6.288303813977959e-06,-0.004527745614569843,0.0075894810317809775
9.595959595959595,3.848101265822785,0.00805319626520034,0.007059650176572507,-2.4368704359298024e-05,-0.004533853932531854,0.007605370718582937
9.696969696969697,3.848101265822785,0.0079245771843781,0.00715771387556531,4.273151567524965e-05,-0.004524687317983022,0.007570694377156591
9.797979797979798,3.848101265822785,0.008103852406084735,0.007322976882199521,-3.0324047981998416e-05,-0.004628048786485277,0.007743180809846592
9.8989898989899,3.848101265822785,0.00821378263316216,0.007033548025329456,4.49203134619584e-05,-0.004574199197547485,0.007692271566525305
10.0,3.848101265822785,0.008075973929665286,0.007391066969506152,-3.095016559844703e-05,-0.004640112269751431,0.007756418983040307
0.0,3.9493670886075947,0.008106322441542774,0.0071608033239829285,6.282001507307423e-05,-0.00458013772965771,0.007678126473901651
0.10101010101010101,3.9493670886075947,0.008126779943143762,0.007373606070016012,-6.448251355867391e-05,-0.0046501158039479315,0.007778394357788502
0.20202020202020202,3.9493670886075947,0.008014736972607787,0.007066005714808179,5.316189053387062e-05,-0.00452422280622479,0.007585561733350567
0.30303030303030304,3.9493670886075947,0.007824372297190752,0.007188288285675703,2.0663067595631443e-05,-0.004503798174859936,0.007526601323536024
0.40404040404040403,3.9493670886075947,0.007907847102598066,0.006878809494625731,4.8226012191082015e-05,-0.004435996979167139,0.007447312896258431
0.5050505050505051,3.9493670886075947,0.007802941264210575,0.006913059099783454,-1.5378143579346398e-05,-0.004414800109198209,0.007398296685054747
0.6060606060606061,3.9493670886075947,0.00767161004209447,0.00698732921946413,-5.920080607941161e-05,-0.00439768177846758,0.0073541022197139835
0.7070707070707071,3.9493670886075947,0.00755608806693506,0.007001886145734199,-2.42701422247653e-05,-0.0043673922638007776,0.007294914340874308
0.8080808080808081,3.9493670886075947,0.007483525529220754,0.006963689047796816,4.3229125452797506e-05,-0.00433416437310527,0.007238009464350257
0.9090909090909091,3.9493670886075947,0.0074558941423582435,0.006643562364147972,-3.179364576786777e-05,-0.004229836951951864,0.007084956819971908
1.0101010101010102,3.9493670886075947,0.00730690655723379,0.006570880486765598,-3.2000261568561e-05,-0.004163336113199816,0.0069683295087256975
1.1111111111111112,3.9493670886075947,0.007518310180858607,0.006769839975103206,-9.368457812252585e-05,-0.004286445046788543,0.0071752557346090136
1.2121212121212122,3.9493670886075947,0.00735594220379114,0.006771262439495426,1.0957337043650436e-05,-0.00423816139298597,0.0070817530151871515
1.3131313131313131,3.9493670886075947,0.007489879927505197,0.006604630059729368,5.142386274317419e-05,-0.00422835299617037,0.007089392546780003
1.4141414141414141,3.9493670886075947,0.007120984057248499,0.006673944207088864,4.739482083775958e-06,-0.004138478479301208,0.006908325579570477
1.5151515151515151,3.9493670886075947,0.0071646132622661006,0.006626616934482741,-3.1749503594722364e-05,-0.0041373690590246525,0.006911556388715648
1.6161616161616161,3.9493670886075947,0.007112644909600889,0.006559104683170077,-3.308847059331164e-05,-0.00410152487783129,0.006852902586439172
1.7171717171717171,3.9493670886075947,0.007145861175699204,0.006392339380785957,9.846401713218158e-05,-0.004061460166945548,0.006802620846884689
1.8181818181818181,3.9493670886075947,0.007186173066477325,0.006386496171326381,5.1694870235916304e-05,-0.004071800771341112,0.006822167323586441
1.9191919191919191,3.9493670886075947,0.007158074045150434,0.006323164223996109,-3.8516064950264556e-05,-0.004044371480743963,0.006779616699065519
2.0202020202020203,3.9493670886075947,0.007094731720906052,0.006374755195557545,-4.550514939423754e-05,-0.004040846074939079,0.006764004453860883
2.121212121212121,3.9493670886075947,0.006953410400349434,0.0061707622667946365,2.0724586322189452e-05,-0.003937251800143221,0.00659709550866176
2.2222222222222223,3.9493670886075947,0.006962411073543207,0.006151777757680467,3.739540941471566e-05,-0.003934256649367102,0.006594886443660253
2.323232323232323,3.9493670886075947,0.0069601394044639855,0.00627292869988648,-1.490663279994574e-06,-0.00396992043130514,0.0066432464536693115
2.4242424242424243,3.9493670886075947,0.006844166927570942,0.006440463165258467,2.983640247641168e-05,-0.003985389027848823,0.0066517104833527085
2.525252525252525,3.9493670886075947,0.006891703499889632,0.006233199782058708,-8.375946393772919e-05,-0.003937470984584502,0.006588781286650805
2.6262626262626263,3.9493670886075947,0.006696732977826123,0.006013331023776543,1.3374211805171058e-05,-0.0038130192004807995,0.006382573698198267
2.727272727272727,3.9493670886075947,0.006791410397393288,0.006159366676373792,3.530418310806018e-05,-0.003885233122130124,0.006498769522655628
2.8282828282828283,3.9493670886075947,0.006757834279776995,0.006110178011291614,3.669415917449291e-05,-0.0038604036873205825,0.006458720341236883
2.929292929292929,3.9493670886075947,0.006663399865493801,0.005959619719310168,-2.8750861196902112e-05,-0.00378690587544119,0.0063410658068077585
3.0303030303030303,3.9493670886075947,0.006835862076287614,0.006018984559836736,-4.546663650791054e-05,-0.003856453990837305,0.0064667177773842606
3.131313131313131,3.9493670886075947,0.006815014187182717,0.006224448828786146,6.320544822812393e-05,-0.003911838904790659,0.00654067728176262
3.2323232323232323,3.9493670886075947,0.0067884713601667895,0.006141334739369409,-9.756461544810204e-05,-0.003878941829860859,0.006491349425192443
3.3333333333333335,3.9493670886075947,0.006797051396399747,0.006113714852340452,-8.815127094656122e-05,-0.0038732298746220594,0.006484249752010322
3.4343434343434343,3.9493670886075947,0.00679591788635335,0.006072057253132863,-3.106385614710974e-05,-0.003860392541845864,0.006464678770003175
3.5353535353535355,3.9493670886075947,0.006692081344037897,0.006021277736969368,5.986387175505057e-05,-0.003814007724302179,0.006384011978334948
3.6363636363636362,3.9493670886075947,0.006856994455306215,0.006138328366058406,-6.940601639702725e-07,-0.0038985968464093864,0.006527401164621693
3.7373737373737375,3.9493670886075947,0.006673018738091549,0.006073551842358112,1.7153171061899807e-05,-0.003823971174134898,0.006394463894943724
3.8383838383838382,3.9493670886075947,0.0067153514226303505,0.00609244458280262,7.964547994441665e-05,-0.0038423388016298908,0.006428059546624553
3.9393939393939394,3.9493670886075947,0.006629980071819545,0.005968504284810264,-2.1495092633873296e-05,-0.0037795453069889426,0.00632534590363904
4.040404040404041,3.9493670886075947,0.006559047558243931,0.006163300457619489,-3.0422816352600875e-06,-0.0038167044047590255,0.00637040221268313
4.141414141414141,3.9493670886075947,0.006638600821139748,0.0059765532406776895,-3.730849644621594e-05,-0.0037845462185452307,0.006333911431466754
4.242424242424242,3.9493670886075947,0.00655766075224674,0.005995159928892754,-4.413695266701516e-05,-0.0037658462043418483,0.006295750658752971
4.343434343434343,3.9493670886075947,0.0065654945960618594,0.005871670284311044,1.9253799957705722e-05,-0.003731149464111871,0.006247633457839543
4.444444444444445,3.9493670886075947,0.006553205225640106,0.0060985687788730715,-1.2993800914426879e-05,-0.003795532201353953,0.006338168000767427
4.545454545454545,3.9493670886075947,0.006591028908926402,0.006051430897776484,-4.30115559539845e-05,-0.003792737942010866,0.006338917256368705
4.646464646464646,3.9493670886075947,0.006593389191477166,0.006000414719203443,-4.864739564750865e-05,-0.0037781411732041824,0.006318369092262229
4.747474747474747,3.9493670886075947,0.006592027047027704,0.006030219039769035,-6.426233870708728e-05,-0.003786673826039022,0.006330828081002293
4.848484848484849,3.9493670886075947,0.006476292412615395,0.006099257447913738,6.4966386140909e-05,-0.0037726649581587396,0.006297252733621535
4.94949494949495,3.9493670886075947,0.006627141156909743,0.006112963440112036,4.176660384631344e-06,-0.003822031379106533,0.006385601198209785
5.05050505050505,3.9493670886075947,0.006675163468762165,0.0059328952022239395,3.439727725116728e-05,-0.0037824176012958314,0.006336999054397602
5.151515151515151,3.9493670886075947,0.006409807443687179,0.00582838398387906,-5.549641955172299e-07,-0.0036714574282698713,0.0061397779445274865
5.252525252525253,3.9493670886075947,0.006626650418000061,0.005978281090005299,7.795423731348194e-05,-0.003781479452401608,0.006328869745763081
5.353535353535354,3.9493670886075947,0.006558131365825192,0.005925305044993439,4.4662861712565724e-05,-0.0037450309232455892,0.0062662095666870445
5.454545454545454,3.9493670886075947,0.00667660275017679,0.005992208139855007,2.2733957274981104e-06,-0.003800643267009539,0.00636207551305465
5.555555555555555,3.9493670886075947,0.006650290826187077,0.0058784616740030415,7.944713364984118e-05,-0.0037586257500570354,0.006301439162922341
5.656565656565657,3.9493670886075947,0.006668891385613846,0.006120653788659292,-5.734382906326229e-06,-0.003836863552281941,0.006412381650968004
5.757575757575758,3.9493670886075947,0.006675778037722046,0.005883306943044273,-2.3283915055838282e-05,-0.003767725494229896,0.0063170632526161515
5.858585858585858,3.9493670886075947,0.0067349444919139806,0.005971181506507587,5.826082935125531e-05,-0.0038118377995264695,0.006388199501272552
5.959595959595959,3.9493670886075947,0.006746077416520519,0.005977537464527927,2.2732035506671407e-05,-0.003817084464314534,0.0063966502475890285
6.0606060606060606,3.9493670886075947,0.006911304701090133,0.005805155841848467,1.89621686535577e-05,-0.0038149381628815797,0.0064300734716370034
6.161616161616162,3.9493670886075947,0.006758749775442856,0.005929856373406571,-5.5087171639128464e-05,-0.003806581844654828,0.006385497904905063
6.262626262626262,3.9493670886075947,0.006693767698670226,0.006101700000868395,-9.925070773751523e-05,-0.0038386403098615855,0.0064205497148241515
6.363636363636363,3.9493670886075947,0.00675100214919748,0.005893118269568478,-3.3005098245967995e-05,-0.003793236125629787,0.006365821774428634
6.4646464646464645,3.9493670886075947,0.006723913338160808,0.006094463722529449,-0.00010539168854087921,-0.003845513118207077,0.006434918410944453
6.565656565656566,3.9493670886075947,0.006630024376060502,0.005871642471105966,-3.0406983616969382e-05,-0.00375050005414994,0.006285463354333171
6.666666666666667,3.9493670886075947,0.006709486225339009,0.005780374403401098,6.548047408216727e-05,-0.003746958188622032,0.006297575270851848
6.767676767676767,3.9493670886075947,0.007042947494199126,0.006118046575538312,-0.00012835369820181182,-0.003948298220921231,0.006632793267051745
6.8686868686868685,3.9493670886075947,0.006838201010971576,0.006178459156629728,8.67450610343705e-05,-0.0039049980502803908,0.006535088299504758
6.96969696969697,3.9493670886075947,0.0068287744904582705,0.006078051855737451,-8.772886803241896e-05,-0.003872047903858716,0.0064878593543081205
7.070707070707071,3.9493670886075947,0.006762901705203525,0.006007277029451166,1.2854143027830564e-05,-0.003831053620396407,0.0064185737047797505
7.171717171717171,3.9493670886075947,0.00690580832028571,0.0060608211124777624,8.712328541872834e-05,-0.003889988829829041,0.0065262273671898505
7.2727272727272725,3.9493670886075947,0.007030107747928583,0.00597627930608122,5.885509399689847e-05,-0.0039019161162029406,0.006567711443461979
7.373737373737374,3.9493670886075947,0.00685167605210071,0.006205343607422366,-0.00011674032768210577,-0.003917105897856923,0.006555580426735525
7.474747474747475,3.9493670886075947,0.0069667728959942705,0.006309287316630359,-2.0968611075261084e-05,-0.0039828180637873885,0.006662505400040107
7.575757575757575,3.9493670886075947,0.006943717102462401,0.006311137911346849,-1.7468311353032445e-06,-0.003976456504142775,0.006650031717090333
7.6767676767676765,3.9493670886075947,0.0070158863463059195,0.0062619378368702246,9.43845961502735e-06,-0.0039833472549528435,0.006670963182296412
7.777777777777778,3.9493670886075947,0.007112856139304039,0.006366870210627978,8.446887995325508e-05,-0.0040439179049796044,0.0067723357748004165
7.878787878787879,3.9493670886075947,0.0070418457998603,0.00637683081597091,-3.4399958261032164e-05,-0.0040256029847493624,0.006734274593306021
7.979797979797979,3.9493670886075947,0.007112233975052141,0.006155128206340535,4.267905897967525e-05,-0.003980208654417803,0.006685673332482235
8.080808080808081,3.9493670886075947,0.007160791176039239,0.006400148018469631,-2.0914410393680146e-05,-0.004068281758352661,0.006812489538109117
8.181818181818182,3.9493670886075947,0.007033196943350492,0.0064472594263476355,5.282210674486798e-05,-0.004044136910909438,0.006759921492820032
8.282828282828282,3.9493670886075947,0.0071970114639326455,0.006432601829316694,-2.2785827854518853e-05,-0.0040888839879748015,0.006846998523430035
8.383838383838384,3.9493670886075947,0.007385290841758099,0.006448118044053706,2.0864116121107677e-07,-0.004150022665743541,0.006964159685179216
8.484848484848484,3.9493670886075947,0.007252954138373776,0.006474481693921911,-8.864456062652128e-05,-0.004118230749688706,0.006898457198309855
8.585858585858587,3.9493670886075947,0.007174275540433567,0.006447981354646914,2.6984797176543003e-05,-0.004086677068524144,0.0068402691979160095
8.686868686868687,3.9493670886075947,0.007100109763854761,0.006640642476673515,4.73567724864384e-06,-0.004122225672158483,0.006881894212700817
8.787878787878787,3.9493670886075947,0.00741926288706363,0.006693557684887396,-8.284687250159944e-06,-0.004233846171585308,0.0070843572794219494
8.88888888888889,3.9493670886075947,0.007412391082842665,0.0066959668567001815,-2.564961993849229e-06,-0.004232507381862854,0.007081412883634761
8.98989898989899,3.9493670886075947,0.007388140347999267,0.006815288685295985,7.358026704023304e-05,-0.004261028709988576,0.007120162253323529
9.09090909090909,3.9493670886075947,0.007592042917866075,0.006826631972423072,4.1176847125328855e-05,-0.004325602467086744,0.007240098302698258
9.191919191919192,3.9493670886075947,0.007530112429705918,0.006727600842766919,-2.7309788536104975e-05,-0.0042773139817418515,0.007162810415545018
9.292929292929292,3.9493670886075947,0.007526348228335376,0.007008858430848427,4.1227856056271704e-05,-0.0043605619977551404,0.007281758313245338
9.393939393939394,3.9493670886075947,0.0077958155602325194,0.007092441478494813,2.2669288925315407e-06,-0.0044664771116182,0.007469010386513636
9.494949494949495,3.9493670886075947,0.007845760362605538,0.006888601340678324,-9.530555049119097e-06,-0.004420308510985159,0.007413686076452162
9.595959595959595,3.9493670886075947,0.00785120624179474,0.007125214789828815,-2.8769711798440263e-06,-0.004492926309487067,0.007514560482905788
9.696969696969697,3.9493670886075947,0.008196297162935521,0.0072011558579003765,5.394439715593748e-06,-0.004619235906250769,0.007746819143680324
9.797979797979798,3.9493670886075947,0.007833728420068927,0.007304140223289063,3.7920173024507736e-05,-0.004541360593007397,0.007583101497941546
9.8989898989899,3.9493670886075947,0.008073279572334635,0.007225637178552415,-1.9633950437908914e-05,-0.004589675025266114,0.007684675863982497
10.0,3.9493670886075947,0.00808785785241497,0.00743765856977746,-3.578416703208295e-05,-0.004657654926657729,0.007783400663856962
0.0,4.050632911392405,0.008307159325102538,0.00739608450329911,1.418968125556604e-05,-0.004710973148520494,0.007891204833415117
0.10101010101010101,4.050632911392405,0.008182228260474931,0.007400927924610993,8.573410518942374e-06,-0.004674946855525777,0.007820916336556415
0.20202020202020202,4.050632911392405,0.007912812280036622,0.007425165172951464,6.249304046054487e-05,-0.004601393235896426,0.007681370581035465
0.30303030303030304,4.050632911392405,0.007929343952679748,0.007023246348768731,0.00010298007419936407,-0.004485777090434543,0.007519478939304842
0.40404040404040403,4.050632911392405,0.007823074412284926,0.00723604204774933,-4.301770162135521e-06,-0.004517734938010277,0.007546705102404455
0.5050505050505051,4.050632911392405,0.007805507646895633,0.007022233534642029,-6.093926204249159e-05,-0.004448322354461298,0.007445586388514798
0.6060606060606061,4.050632911392405,0.007836453137686775,0.006953745572723745,-8.867401136618852e-06,-0.004437059613123156,0.007434521494332923
0.7070707070707071,4.050632911392405,0.0076574143910592175,0.006920890086854023,1.5490359273385387e-05,-0.004373491343373972,0.007317056187729549
0.8080808080808081,4.050632911392405,0.007509293560490553,0.006832426610256332,1.8384854938276507e-05,-0.004302516051224065,0.007194849548386322
0.9090909090909091,4.050632911392405,0.007519881660638508,0.0066391319406743175,2.2663573032302124e-06,-0.0042477040803938475,0.007120479057028356
1.0101010101010102,4.050632911392405,0.0074776364429915455,0.006708167115171893,-3.417593083626978e-05,-0.004255741067449032,0.007124382212886084
1.1111111111111112,4.050632911392405,0.007486003706530556,0.006634760477478054,8.145715688528146e-06,-0.004236229255202582,0.007098778459664952
1.2121212121212122,4.050632911392405,0.0074033442243061865,0.006409618425363708,-3.284131424916402e-05,-0.004143888794900969,0.00696012486731895
1.3131313131313131,4.050632911392405,0.007326152080718611,0.0065287220722825435,-3.29546096268294e-06,-0.004156462245900347,0.006961776927827371
1.4141414141414141,4.050632911392405,0.007314540771770526,0.006502577009732125,1.1793584217821696e-06,-0.0041451353344507955,0.006944253306352362
1.5151515151515151,4.050632911392405,0.007167726035295216,0.006527921313132478,-2.6467830810797894e-05,-0.004108694204528308,0.006870356851954884
1.6161616161616161,4.050632911392405,0.007230631652051291,0.006400578934723217,4.0122392611642754e-05,-0.004089363176032352,0.006853761417613893
1.7171717171717171,4.050632911392405,0.007181332748418201,0.006472634809832,-2.6938990960101024e-05,-0.00409619026747506,0.0068546753551321695
1.8181818181818181,4.050632911392405,0.006989472088560252,0.006358444972303853,-4.739767408347872e-05,-0.0040043751182592315,0.006696798376876856
1.9191919191919191,4.050632911392405,0.007021416834545236,0.006331169785881196,-7.091519666687622e-05,-0.00400577598612793,0.006704126341328504
2.0202020202020203,4.050632911392405,0.007153450744938735,0.00642594151581071,6.57520196270683e-05,-0.0040738176782248335,0.00681981640412192
2.121212121212121,4.050632911392405,0.006867500718387819,0.006175471968380454,2.8579617420100796e-05,-0.003912891806030482,0.006549153560092251
2.2222222222222223,4.050632911392405,0.006969086399095877,0.006336562460580477,1.8681878673686677e-05,-0.003991694657902906,0.006675416453796742
2.323232323232323,4.050632911392405,0.006892258623762111,0.006162778612944157,-7.755721216701592e-05,-0.00391651117101188,0.006559394064321901
2.4242424242424243,4.050632911392405,0.006791310615189861,0.0062152808140986384,-9.551824087925753e-05,-0.0039019774287865493,0.006524498762659179
2.525252525252525,4.050632911392405,0.006854820878419551,0.0063045248982642205,7.085157939256553e-05,-0.003947803733005131,0.006598050803519161
2.6262626262626263,4.050632911392405,0.006975934036875466,0.0062492773564379114,-1.2001644478596664e-05,-0.003967563417994013,0.00664251523643608
2.727272727272727,4.050632911392405,0.0068189490583929774,0.0062091868084170046,6.165625301954721e-06,-0.003908440760042994,0.006535445859843312
2.8282828282828283,4.050632911392405,0.0068114782507708495,0.006147416434234434,5.830780573594669e-05,-0.003887668405501585,0.006505702947186415
2.929292929292929,4.050632911392405,0.006612671408689257,0.005991066279605402,-3.614317855096542e-05,-0.0037811213064883973,0.0063251296128442784
3.0303030303030303,4.050632911392405,0.006879796897618023,0.006329622674619509,9.422507231964808e-06,-0.003962825871671259,0.006621893722079781
3.131313131313131,4.050632911392405,0.006754178858725485,0.0060813583941377565,7.687497581022098e-05,-0.0038506611758589724,0.006445541013856285
3.2323232323232323,4.050632911392405,0.006765033901946243,0.00605702447193769,7.059657432326107e-05,-0.0038466175121651793,0.006441444316259831
3.3333333333333335,4.050632911392405,0.006659863538544756,0.006137568217828705,-9.096770197099263e-05,-0.0038392295269120383,0.006416617844292743
3.4343434343434343,4.050632911392405,0.006675527259391841,0.005834337292345348,-1.5826026439971806e-06,-0.003752959365521157,0.006297212534930897
3.5353535353535355,4.050632911392405,0.006777719139869372,0.0060253743492161655,-5.376498910014732e-06,-0.003840928046725661,0.006434625432440103
3.6363636363636362,4.050632911392405,0.006742712270506487,0.006026876337991151,-1.7659388084265063e-05,-0.0038308765825492913,0.006414892803565838
3.7373737373737375,4.050632911392405,0.006450744229866321,0.006092378238193357,-6.325028692140888e-05,-0.0037629367404179033,0.00628019121894896
3.8383838383838382,4.050632911392405,0.006822596262438801,0.00609762807908189,4.6231070335586644e-05,-0.003876067302456207,0.006491043471165398
3.9393939393939394,4.050632911392405,0.006705677869847244,0.005962665752692325,-4.143468501860333e-05,-0.0038005030867618705,0.006367176241375118
4.040404040404041,4.050632911392405,0.006773037412912738,0.006045125285349385,1.62856556606721e-05,-0.0038454488094786365,0.006440070764876025
4.141414141414141,4.050632911392405,0.006685837386745504,0.005950982022843263,1.8071098257493772e-05,-0.0037910458228766295,0.00635045590456374
4.242424242424242,4.050632911392405,0.006703644578263169,0.005859844218490707,-3.5679230615476214e-05,-0.0037690466390261626,0.006324407560744016
4.343434343434343,4.050632911392405,0.006491959698326585,0.005942113948873164,3.90205397706289e-05,-0.0037302220941599247,0.006235612434614004
4.444444444444445,4.050632911392405,0.006625274821550337,0.005976229203495382,-4.065113406370637e-05,-0.003780451207513715,0.006326166187206127
4.545454545454545,4.050632911392405,0.006588110001592058,0.0059357421703605225,7.655832092333022e-05,-0.003757155651585774,0.006288758993327495
4.646464646464646,4.050632911392405,0.006585871636635674,0.0059840452470275906,5.020666951374503e-06,-0.0037709750650989794,0.006306538233394144
4.747474747474747,4.050632911392405,0.006612459518210549,0.005894805569311682,2.9156820652649426e-05,-0.0037521795262566698,0.006284643247292359
4.848484848484849,4.050632911392405,0.006434994022487147,0.005866276059926194,4.975337720541378e-05,-0.0036903810247240023,0.006170925189665973
4.94949494949495,4.050632911392405,0.006532242725427751,0.005965746161181084,8.967959318396723e-06,-0.0037493966659826504,0.006268242304929664
5.05050505050505,4.050632911392405,0.006684238874942218,0.005964078009141825,4.744510974541996e-05,-0.0037944950652252125,0.00635536835044519
5.151515151515151,4.050632911392405,0.00653386652920563,0.00596795000882193,-9.534125485016179e-05,-0.0037505449614082674,0.00627226595285041
5.252525252525253,4.050632911392405,0.006549241873505774,0.006025411751365172,-2.048065724929664e-05,-0.0037723960874612834,0.006303771515210594
5.353535353535354,4.050632911392405,0.006667013938554619,0.005990940373765403,5.64671889739245e-05,-0.0037973862936960066,0.006356754208890117
5.454545454545454,4.050632911392405,0.0065121694066922475,0.005854979377202251,8.496612089251539e-06,-0.0037101446351683496,0.006209728890148311
5.555555555555555,4.050632911392405,0.006633989381012117,0.006177801101840255,-8.471056490856907e-05,-0.003843537144855712,0.006419743164106206
5.656565656565657,4.050632911392405,0.006718626690729538,0.005960944426567304,5.7125280085744934e-05,-0.0038038713351890526,0.006374420180109811
5.757575757575758,4.050632911392405,0.006604490756576037,0.005935345113282159,4.610480893578783e-05,-0.0037619507609574585,0.006297147353359373
5.858585858585858,4.050632911392405,0.006794991395879903,0.005950507381863728,3.01049409355043e-05,-0.003823649633323089,0.00641478905601883
5.959595959595959,4.050632911392405,0.006535565257897158,0.005951707805453537,4.924164360449469e-05,-0.003746181919005208,0.006264657891828255
6.0606060606060606,4.050632911392405,0.006644833025343736,0.005793424749006848,8.78164211234613e-05,-0.003731477332305175,0.006264532809916171
6.161616161616162,4.050632911392405,0.0066261991393711415,0.0060697775597547835,-4.23560466234672e-06,-0.0038087930097377774,0.006366255857089374
6.262626262626262,4.050632911392405,0.006581055656495741,0.005939202440600731,9.62651127512045e-06,-0.0037560774291289416,0.006284781251300757
6.363636363636363,4.050632911392405,0.006676723172551897,0.006028232620014651,2.603362132036074e-06,-0.0038114867377699643,0.006377256522423909
6.4646464646464645,4.050632911392405,0.0068013040401152,0.005885579424277294,1.161765618122475e-05,-0.0038060650393177482,0.006392853165732259
6.565656565656566,4.050632911392405,0.006660238898163138,0.005999831657703002,-1.9192518630482912e-05,-0.003798021166759842,0.006355907092668243
6.666666666666667,4.050632911392405,0.006783290077695739,0.0060339348256791825,4.804726603594053e-05,-0.0038451674710124764,0.0064419243355955174
6.767676767676767,4.050632911392405,0.006851230327728252,0.005999699587703713,-5.0336017902032105e-05,-0.0038552789746295895,0.006468232333322282
6.8686868686868685,4.050632911392405,0.006666633707358708,0.006119117144849287,-5.719470611772074e-05,-0.0038357252556623983,0.006411201190617453
6.96969696969697,4.050632911392405,0.006870367152163616,0.005944715961750928,-4.852631573245071e-05,-0.003844524934174363,0.006458039625832629
7.070707070707071,4.050632911392405,0.006732182565279115,0.006012127417441274,-5.380661874952325e-05,-0.003823292994816117,0.006403272932846627
7.171717171717171,4.050632911392405,0.006938936973128986,0.006010473063979294,4.298485685885396e-05,-0.0038848230111324837,0.006524866442617262
7.2727272727272725,4.050632911392405,0.006946242771878347,0.0060090045368960026,2.6122957873637872e-05,-0.0038865741926323045,0.006528435269380793
7.373737373737374,4.050632911392405,0.006886115784721435,0.006180593490135827,2.5595917488201832e-05,-0.0039200127824571785,0.006562012614473123
7.474747474747475,4.050632911392405,0.0068203224540926595,0.006054418393327971,-9.621075491915326e-05,-0.0038624222542261886,0.006473597475350822
7.575757575757575,4.050632911392405,0.006962422436399032,0.006227383738422728,-1.0240968458327845e-05,-0.003956941852446528,0.006625577165824006
7.6767676767676765,4.050632911392405,0.0070114007290429155,0.006265186552813964,6.636630185763116e-05,-0.003982976184557063,0.006670665830249745
7.777777777777778,4.050632911392405,0.0068800716162689575,0.0062184670333818685,8.555906028255039e-06,-0.0039295615948952475,0.006574301390091263
7.878787878787879,4.050632911392405,0.007095848351932751,0.0062255106272799295,1.1752205721148399e-05,-0.003996407693763805,0.00670322171962825
7.979797979797979,4.050632911392405,0.006906590182248266,0.0064380999079840275,-4.733145811203121e-06,-0.004003407027069688,0.006684674110373963
8.080808080808081,4.050632911392405,0.007111808493765741,0.0063813583839610315,-4.692824400907092e-05,-0.004047950063318031,0.006776663109524356
8.181818181818182,4.050632911392405,0.007220583573309535,0.0064741644841777215,5.380211970502388e-05,-0.004108424417246177,0.006878449766206937
8.282828282828282,4.050632911392405,0.0072353346747846235,0.006436697958473354,2.1826641526090535e-05,-0.004101609789977393,0.006871019847267146
8.383838383838384,4.050632911392405,0.007280734625721963,0.0064807906791709115,5.713442539993708e-05,-0.004128457591467862,0.006916257690775903
8.484848484848484,4.050632911392405,0.007053037965094177,0.00650328039144317,-7.027586886736232e-07,-0.004066895506961204,0.006794859702002475
8.585858585858587,4.050632911392405,0.0072402860715531136,0.0065589285625064905,4.2164638249518854e-05,-0.004139764390217881,0.006925178751535442
8.686868686868687,4.050632911392405,0.007281906232041551,0.006676295536021791,6.112701358049885e-05,-0.004187460530419003,0.006999580838965261
8.787878787878787,4.050632911392405,0.007288083689181935,0.0066839360451118246,-4.463068723805039e-05,-0.004191605920288128,0.007006001380279637
8.88888888888889,4.050632911392405,0.007416212132864428,0.00666547222168044,-2.7720847104697513e-06,-0.004224505306363461,0.007070798358693504
8.98989898989899,4.050632911392405,0.007390993233764048,0.006672863138564772,-7.616302214444397e-06,-0.004219156911698646,0.007059388866238702
9.09090909090909,4.050632911392405,0.0075609970092562736,0.0069510466626854705,-8.132181664110262e-05,-0.004353613101582523,0.007276587260978385
9.191919191919192,4.050632911392405,0.007682557720948623,0.00684298753895749,-5.3469801612301974e-05,-0.004357663577971834,0.007299664506079378
9.292929292929292,4.050632911392405,0.0075137035100722544,0.007253011963918223,-2.3453360686339246e-05,-0.004430014642197143,0.007386920313263643
9.393939393939394,4.050632911392405,0.007737648873379272,0.00712693258650001,3.413265914662114e-05,-0.0044593744379637845,0.007451320111020776
9.494949494949495,4.050632911392405,0.00792172736668084,0.007192053206097879,3.0752034529707035e-05,-0.0045341341718336155,0.007583452126101663
9.595959595959595,4.050632911392405,0.007886245762001002,0.006925471858973767,-5.881031710039729e-06,-0.004443515286292431,0.0074524602212980105
9.696969696969697,4.050632911392405,0.007913987407662925,0.007235882666528545,-2.8430685807116653e-05,-0.004544961022257441,0.007597824376613917
9.797979797979798,4.050632911392405,0.00805545048090706,0.007229657542862253,7.236046136296253e-06,-0.004585532407130793,0.007675952018353086
9.8989898989899,4.050632911392405,0.008300829813533249,0.0072615325732879755,-2.2117882040851316e-05,-0.004668708716046367,0.007833157245452882
10.0,4.050632911392405,0.00807641833119781,0.007254724693395955,-0.00015132046077080889,-0.004599342907378129,0.007702990690730726
0.0,4.151898734177215,0.00817000430089812,0.007602627934069263,-1.5240261942785789e-05,-0.004731789670490215,0.007901652716860075
0.10101010101010101,4.151898734177215,0.008087751867039923,0.007116919111340476,-2.59494653483717e-05,-0.00456140129351412,0.007648817699102955
0.20202020202020202,4.151898734177215,0.007991961364310497,0.007227008889425344,1.1151707898689983e-05,-0.004565691076120752,0.007638291772013947
0.30303030303030304,4.151898734177215,0.007906094203875093,0.007135637051146376,-1.2343914514457892e-05,-0.00451251937650644,0.007550435753775552
0.40404040404040403,4.151898734177215,0.007885060767138548,0.00685243858350669,-3.1394960252164884e-05,-0.004421249805193571,0.007423015569076452
0.5050505050505051,4.151898734177215,0.00789082784396868,0.0070114790483517654,-4.00828695829076e-05,-0.004470692067696133,0.007490290269127896
0.6060606060606061,4.151898734177215,0.007651424451639938,0.007047971040828048,4.077191435464743e-05,-0.004409818647740395,0.007368592879394466
0.7070707070707071,4.151898734177215,0.007677983575385586,0.0070271599074859,1.9722475241386183e-05,-0.004411543044861446,0.007374222448914339
0.8080808080808081,4.151898734177215,0.007714843207690704,0.006857825546808941,4.2071646203951796e-05,-0.004371800626349893,0.007324400192550441
0.9090909090909091,4.151898734177215,0.007499787867468076,0.006845850471163701,9.526828880371647e-06,-0.004303691501589533,0.007195160366928942
1.0101010101010102,4.151898734177215,0.007358220055394468,0.006628560994421786,-8.788443864634813e-06,-0.004196034314944876,0.007021897500181565
1.1111111111111112,4.151898734177215,0.007338495473955084,0.00686585904397576,2.8381220606318442e-05,-0.004261306355379252,0.00711413221658289
1.2121212121212122,4.151898734177215,0.0074207029888553825,0.006427324565315672,-7.708400600187505e-06,-0.004154408266251316,0.006977266338821767
1.3131313131313131,4.151898734177215,0.0074040147165413215,0.0066514799402770065,-6.918665868259742e-05,-0.004216648397045498,0.007058918071156267
1.4141414141414141,4.151898734177215,0.007229600542273785,0.006545481352242369,5.3978343113558464e-05,-0.004132524568354846,0.006913608000484224
1.5151515151515151,4.151898734177215,0.007140770183617067,0.0066136402881533975,-3.160004325803117e-05,-0.0041263231415311396,0.006892557362090477
1.6161616161616161,4.151898734177215,0.0070541914987831715,0.0063402909933591555,-2.487016529886865e-05,-0.004018344747642698,0.006725855806674443
1.7171717171717171,4.151898734177215,0.007089826071935555,0.006459495653629678,4.457234803209605e-05,-0.004064796517669569,0.006797056511132376
1.8181818181818181,4.151898734177215,0.007115019547047191,0.006351518165253831,-2.1041273252266626e-05,-0.004039961313690306,0.006765754833331378
1.9191919191919191,4.151898734177215,0.006961743131160757,0.006398214057648622,3.688052080445788e-05,-0.0040079871566428135,0.006698086913639548
2.0202020202020203,4.151898734177215,0.006913008414671896,0.006420686688595101,5.159748174839623e-06,-0.004000108530980099,0.006680473161176585
2.121212121212121,4.151898734177215,0.006872847958207816,0.006425153118355857,1.3372889348471193e-05,-0.003989400322969102,0.0066603354016748495
2.2222222222222223,4.151898734177215,0.006946112239656009,0.006033873978820921,-8.403969999237563e-05,-0.003893995865543079,0.006539520819974944
2.323232323232323,4.151898734177215,0.006901776480758143,0.006098447554473541,-2.2060694224045863e-05,-0.0039000672105695047,0.0065373480316636805
2.4242424242424243,4.151898734177215,0.007042965698465202,0.005911383592794574,5.934686203166896e-05,-0.003886304787377933,0.006551695664978279
2.525252525252525,4.151898734177215,0.0069145053796183745,0.006258185201619174,0.00017417074032859562,-0.003951807174371265,0.006617704870999659
2.6262626262626263,4.151898734177215,0.006992895161710545,0.00626832749333244,2.936476427053846e-05,-0.003978366796512895,0.006660431080218643
2.727272727272727,4.151898734177215,0.006795766516757668,0.0061423034371481215,4.970583200858696e-05,-0.0038814209861717367,0.006494311821860461
2.8282828282828283,4.151898734177215,0.007046458358542233,0.0059972522019361,1.0658233121233458e-05,-0.003913113168143499,0.006584873746661999
2.929292929292929,4.151898734177215,0.006727935590366379,0.005934979762039558,-2.4597992742620424e-05,-0.003798874605721781,0.006368732660313864
3.0303030303030303,4.151898734177215,0.006693932536575782,0.0060495114662191835,7.755960782770567e-06,-0.0038230332008384895,0.006396130128039562
3.131313131313131,4.151898734177215,0.0067089209601613456,0.005996370495036818,-0.00011814959754548096,-0.003811587436559449,0.006385826637687186
3.2323232323232323,4.151898734177215,0.006774847506176593,0.006050908717826511,-4.9423406641634974e-05,-0.0038477268672009314,0.006444020424061296
3.3333333333333335,4.151898734177215,0.006779460080065413,0.006115391595936521,-4.720937638066461e-05,-0.00386845550280058,0.006473540478431194
3.4343434343434343,4.151898734177215,0.006826419683960213,0.006016455467654329,-4.108359870518969e-06,-0.0038528625454843624,0.006459639517776828
3.5353535353535355,4.151898734177215,0.00681826078347017,0.00595794444421944,-2.8814992292118088e-05,-0.0038328615683068824,0.0064315980960442136
3.6363636363636362,4.151898734177215,0.006717791561758138,0.006198799506621822,5.4326441086330385e-05,-0.0038749773205139877,0.006474600362841905
3.7373737373737375,4.151898734177215,0.006800731046298796,0.005942501316461125,-1.1547975875745106e-05,-0.003822969708827976,0.006414850858121829
3.8383838383838382,4.151898734177215,0.006681004406344835,0.006073160073796962,1.3972946438191171e-05,-0.0038262493440425387,0.0063988178342395475
3.9393939393939394,4.151898734177215,0.006601855806678897,0.006141470533721705,-4.4642174893782735e-05,-0.0038229979021201805,0.0063845936656526225
4.040404040404041,4.151898734177215,0.006832358098348099,0.006166396522437358,-8.250768864764562e-05,-0.003899626386235637,0.006526481180111369
4.141414141414141,4.151898734177215,0.006537739610284685,0.006177433768548274,3.3860392519496206e-05,-0.0038145520136498873,0.0063655096666867415
4.242424242424242,4.151898734177215,0.00673061135644213,0.0058549927896196004,6.910205137523783e-05,-0.003775681243818519,0.006339456926013269
4.343434343434343,4.151898734177215,0.006512610847015101,0.005971981632463444,4.259052387232332e-05,-0.0037453777438435634,0.006260264703952563
4.444444444444445,4.151898734177215,0.006662747958697756,0.005959877596642395,3.6323989797673725e-05,-0.003786787666602045,0.006340910607608177
4.545454545454545,4.151898734177215,0.006679453985152673,0.005847910578626824,-2.3354266021843517e-05,-0.003758209369133849,0.006305073379540185
4.646464646464646,4.151898734177215,0.006673775039220117,0.0058727768728008825,3.6401173608000635e-05,-0.0037639655736063,0.006311827382266945
4.747474747474747,4.151898734177215,0.006645151413012673,0.0061455375316345285,6.020130741746334e-06,-0.0038372066833941604,0.006409972711989636
4.848484848484849,4.151898734177215,0.0066045660910571,0.0061136825775862085,-2.0824531135181554e-05,-0.0038154746005929926,0.0063734204514139005
4.94949494949495,4.151898734177215,0.006525493681309028,0.00604366125171059,1.3291088491454182e-05,-0.0037707464799058856,0.006298457411090613
5.05050505050505,4.151898734177215,0.006524265331323699,0.005727281458004119,4.4284032981772605e-05,-0.003675464036798345,0.006165011790763436
5.151515151515151,4.151898734177215,0.006589026958171773,0.005921974016199684,1.816595602697522e-05,-0.0037533002923114366,0.006282196755244237
5.252525252525253,4.151898734177215,0.006662967500675593,0.005960798970000969,-5.427523546844703e-06,-0.003787129941202968,0.006341114952016114
5.353535353535354,4.151898734177215,0.006690685499614255,0.005970649128144967,3.424853374336253e-06,-0.0037984003883277666,0.006361306714037973
5.454545454545454,4.151898734177215,0.006553509373001257,0.005980999759280733,-9.073793858213022e-05,-0.003760352739684597,0.00628879999369207
5.555555555555555,4.151898734177215,0.006628275798315185,0.005812956128362092,-8.615749886539026e-05,-0.0037323695780031828,0.006262339174009584
5.656565656565657,4.151898734177215,0.006488036113453292,0.005927158252112415,7.731068149920814e-07,-0.003724558309669712,0.0062265722960777375
5.757575757575758,4.151898734177215,0.006728343321943284,0.005937375390804877,-1.6594099992010024e-05,-0.0037997156138244483,0.006369863139906963
5.858585858585858,4.151898734177215,0.006578750661804765,0.005929310072680132,-5.1245721016691564e-05,-0.0037524182203454693,0.006279896815653916
5.959595959595959,4.151898734177215,0.006533556373580168,0.0058698248971674385,1.589800677898153e-05,-0.0037210143812242817,0.006228332809133399
6.0606060606060606,4.151898734177215,0.006728966776473379,0.00577859809116117,5.677139094513271e-05,-0.0037522694602903648,0.00630847558293821
6.161616161616162,4.151898734177215,0.0067245552296736795,0.006009981447822319,3.2889646823710023e-07,-0.003820361003248799,0.006397270370198792
6.262626262626262,4.151898734177215,0.006870160588996525,0.005780746004745185,-1.961925434624812e-05,-0.003795271978122513,0.006395516574804753
6.363636363636363,4.151898734177215,0.006725758922213909,0.00615565305688855,4.779277509447959e-05,-0.003864423593730737,0.006460132476594699
6.4646464646464645,4.151898734177215,0.006661713876965842,0.005866181523673395,-3.110163022272903e-05,-0.003758368620191771,0.006301951802449637
6.565656565656566,4.151898734177215,0.006942333156403066,0.005978546765904475,6.263271231855946e-05,-0.0038762639766922622,0.0065150376987790646
6.666666666666667,4.151898734177215,0.006797777002514021,0.006065320045648216,-1.0167983440607166e-05,-0.0038589291144486707,0.006462777767842369
6.767676767676767,4.151898734177215,0.006890104458532082,0.005975504205796028,5.6787640653020966e-05,-0.003859682599298433,0.0064821305371791215
6.8686868686868685,4.151898734177215,0.006873012957639993,0.006036850557419756,-4.416283510160905e-06,-0.0038729590545179245,0.006495427482060314
6.96969696969697,4.151898734177215,0.006746623528742437,0.006132615176168358,6.98673306349273e-05,-0.003863771611473238,0.00646266945069615
7.070707070707071,4.151898734177215,0.006825858007417961,0.006068776108286613,4.582219241519389e-05,-0.0038683902347113716,0.006481055162234042
7.171717171717171,4.151898734177215,0.006741976418683125,0.006113864918198917,-2.2563337725860784e-05,-0.0038567524010646127,0.0064510142206617134
7.2727272727272725,4.151898734177215,0.006842473424907942,0.00617452006061961,4.267423873343016e-05,-0.003905098045658266,0.006534570712385718
7.373737373737374,4.151898734177215,0.006899010317584069,0.006058288786462474,1.1704697403058704e-05,-0.003887189731213963,0.006519464743169012
7.474747474747475,4.151898734177215,0.006929454808181254,0.006216703525198718,-6.851181961491371e-05,-0.0039438475000139915,0.0066030646016376135
7.575757575757575,4.151898734177215,0.006801210953478454,0.006122354006490295,-1.5466022552532647e-05,-0.0038770694879906244,0.006488527219488977
7.6767676767676765,4.151898734177215,0.006800742830735679,0.006154858538842788,-1.7952719982552442e-05,-0.00388668041087354,0.006501979967764101
7.777777777777778,4.151898734177215,0.007139936309492156,0.0063854090065037115,5.114259412678255e-06,-0.0040576035947987605,0.006794174234916053
7.878787878787879,4.151898734177215,0.006853902897252377,0.006429796015219652,-8.748849803589094e-06,-0.003985109673741608,0.006652014267269872
7.979797979797979,4.151898734177215,0.0069938861401282635,0.006234267506698209,7.716318024528546e-05,-0.003968446094047942,0.006648055358250218
8.080808080808081,4.151898734177215,0.007195193674419351,0.006370406658323188,-0.00011782660298099346,-0.004069680099822761,0.0068233593367546495
8.181818181818182,4.151898734177215,0.007120994255113745,0.006375287835505444,-8.312644895328415e-05,-0.0040488846271857564,0.006780501171382731
8.282828282828282,4.151898734177215,0.007114550234327464,0.0063345816337829,2.7505976086775193e-05,-0.0040347395604331095,0.006758573814126282
8.383838383838384,4.151898734177215,0.007302994290905061,0.006429177764316969,-2.726294006232045e-05,-0.004119651616566609,0.006907824088225004
8.484848484848484,4.151898734177215,0.007173598256429031,0.006555505878102893,3.2175049963169774e-05,-0.0041187312403595765,0.006885616125433833
8.585858585858587,4.151898734177215,0.007142284558989854,0.00667372613349492,9.222297198982231e-07,-0.004144803207745432,0.0069199133422184625
8.686868686868687,4.151898734177215,0.007401952333978446,0.006524065787289119,1.86924715002512e-05,-0.004177805436380269,0.007004466931579027
8.787878787878787,4.151898734177215,0.00718710230055222,0.006647236212129168,-7.181972136258137e-05,-0.004150301553804417,0.006934067802024046
8.88888888888889,4.151898734177215,0.0071454569033373135,0.006645535414605606,3.43442075244698e-05,-0.004137297695382876,0.006909330428727042
8.98989898989899,4.151898734177215,0.007603703198402726,0.006765562664053178,-4.329828964416122e-06,-0.004310779758736771,0.0072212094738507305
9.09090909090909,4.151898734177215,0.007554973122524266,0.0067020352176322875,-2.8652802220783932e-05,-0.004277102502046966,0.007166844630257435
9.191919191919192,4.151898734177215,0.007677483764715211,0.006852943598930637,1.1555419059135342e-05,-0.004359128209093754,0.007300248645725702
9.292929292929292,4.151898734177215,0.0077067783183634815,0.006750323890836497,-1.3847474672004776e-05,-0.004337130662759993,0.007275893768701553
9.393939393939394,4.151898734177215,0.007757801793513917,0.006821579930112349,-8.212120509719571e-06,-0.00437381451708788,0.007334656004933362
9.494949494949495,4.151898734177215,0.007800820775761485,0.0067339326450813865,-0.00010528798131476844,-0.004360426026252862,0.007328144965865745
9.595959595959595,4.151898734177215,0.007876258667958144,0.007210721114430744,7.35368463324034e-05,-0.004526093934716666,0.007566549274155608
9.696969696969697,4.151898734177215,0.007908701319562854,0.0071682232963087055,-3.051079260282364e-05,-0.004523077384761468,0.00756587321270691
9.797979797979798,4.151898734177215,0.007989186622559763,0.007287329713526171,-3.016902532797617e-05,-0.00458295490082578,0.007662582508039404
9.8989898989899,4.151898734177215,0.008096992038575201,0.0072142198343179515,4.959408370690465e-05,-0.004593363561867945,0.007694163115442065
10.0,4.151898734177215,0.008174999057262445,0.00746878342463854,-9.537421535045805e-05,-0.004693134744570296,0.007847504488558192
0.0,4.253164556962025,0.008289210872352362,0.007402904467254162,-2.156670039152401e-05,-0.004707634601881957,0.00788360137299981
0.10101010101010101,4.253164556962025,0.008089077927646376,0.007279018132631501,1.1778308972959612e-05,-0.004610428818083363,0.007716032527717437
0.20202020202020202,4.253164556962025,0.007901670208746266,0.0072517578421544505,1.333086556316636e-05,-0.0045460284152702155,0.0075976258214374365
0.30303030303030304,4.253164556962025,0.007852991715551849,0.007129338182147835,-3.493835850349896e-05,-0.004494698969309905,0.0075175774146241615
0.40404040404040403,4.253164556962025,0.007929766090738494,0.007294342423320385,-4.188531228649991e-05,-0.004567232554217663,0.007632264118723377
0.5050505050505051,4.253164556962025,0.007667579345365601,0.007003760345911913,2.4943115382797224e-05,-0.004401401907383254,0.007358288544848965
0.6060606060606061,4.253164556962025,0.007489320313105587,0.006918278304406835,4.8356646981708255e-05,-0.004322279585253727,0.007221239942595208
0.7070707070707071,4.253164556962025,0.007568309054188466,0.006939827745102517,-4.317650871576791e-05,-0.004352441039787294,0.007274843128642208
0.8080808080808081,4.253164556962025,0.0076109588637358,0.00668625913471861,8.237068297730242e-05,-0.004289165399536323,0.00719473888363629
0.9090909090909091,4.253164556962025,0.007649671666749229,0.006953351702563534,-5.521142259584763e-05,-0.004380907010793829,0.007326995557806864
1.0101010101010102,4.253164556962025,0.007496653333462523,0.006715992883485491,-4.027637593873679e-05,-0.004263793865084404,0.007138751132728099
1.1111111111111112,4.253164556962025,0.00725334532144307,0.006545070462714845,-2.985004406591341e-05,-0.004139524735247374,0.006926614076888263
1.2121212121212122,4.253164556962025,0.00731643145146405,0.0064264576170291335,-4.916824779915791e-05,-0.004122866720547955,0.006915059118076025
1.3131313131313131,4.253164556962025,0.007377505447868834,0.0066308585781923906,8.815965544757724e-05,-0.004202509207818368,0.007035623156992257
1.4141414141414141,4.253164556962025,0.007276398863259548,0.006562003544356631,6.41409750387235e-05,-0.004151520722284854,0.0069476944374784405
1.5151515151515151,4.253164556962025,0.007003832678286362,0.006587464011736816,-5.110345667095587e-07,-0.004077389007006953,0.006805208252683449
1.6161616161616161,4.253164556962025,0.007187254817209254,0.0065699088193408445,3.280022927862872e-05,-0.004127149090965029,0.006899561758303158
1.7171717171717171,4.253164556962025,0.0071665207167751314,0.006405905179799615,1.3476673668780293e-05,-0.004071727768972424,0.006818147331791764
1.8181818181818181,4.253164556962025,0.007234571323465559,0.0065381847366310355,3.897367646303793e-05,-0.004131826818028979,0.0069130655228954166
1.9191919191919191,4.253164556962025,0.007075111271999084,0.00641114680220497,3.460988368977101e-05,-0.004045877422261216,0.006767866676879598
2.0202020202020203,4.253164556962025,0.00687550147921021,0.006303994017584502,7.254660832487275e-05,-0.0039538486490384135,0.006609503007236379
2.121212121212121,4.253164556962025,0.007035363823324484,0.006312179179494497,-9.623224690129992e-06,-0.004004262900845694,0.006703115014244454
2.2222222222222223,4.253164556962025,0.006871484454454764,0.006203317452628648,4.6074446372101966e-05,-0.003922440572125024,0.006563445371749541
2.323232323232323,4.253164556962025,0.00690283112617589,0.006205531713191647,-2.340997918763406e-06,-0.003932508851810261,0.006581943510578986
2.4242424242424243,4.253164556962025,0.007002213083943799,0.006137132885792435,1.1014615941740127e-05,-0.00394180379092087,0.006612279478767076
2.525252525252525,4.253164556962025,0.006869110794073355,0.006207546198374019,2.5411677356547308e-05,-0.0039229970977342115,0.006563530114982412
2.6262626262626263,4.253164556962025,0.00685728611675399,0.006198121159725145,2.9224739782744554e-05,-0.00391662218294374,0.006552812440117856
2.727272727272727,4.253164556962025,0.006737549100239603,0.006077026081929308,-1.6481585576936655e-05,-0.003844372554650673,0.006432835082305666
2.8282828282828283,4.253164556962025,0.0068673588614765685,0.006152261122349803,-3.474067386120448e-07,-0.003905885995147911,0.006539201027286531
2.929292929292929,4.253164556962025,0.006774230498578727,0.006264825229110926,1.7719313725599432e-06,-0.003911716718306896,0.006534437487886209
3.0303030303030303,4.253164556962025,0.00668299860258191,0.006117954034995568,1.5444037301759588e-05,-0.0038402857912732432,0.006419210947208318
3.131313131313131,4.253164556962025,0.006612794484415944,0.005899987773369457,-1.5814824236477462e-05,-0.00375383467733562,0.006286831502368173
3.2323232323232323,4.253164556962025,0.006850420966663046,0.006015890116455521,2.7008496018825192e-05,-0.0038598933249355694,0.006473794088741746
3.3333333333333335,4.253164556962025,0.006835416949378706,0.005994044627950556,-3.493407172800102e-05,-0.003848838473198778,0.0064562653908117424
3.4343434343434343,4.253164556962025,0.006823740806599748,0.005956765058791132,-1.0094398201432762e-05,-0.0038341517596172637,0.006434234487871424
3.5353535353535355,4.253164556962025,0.006681133228971087,0.0061833784687150015,8.52243675075169e-05,-0.003859353509305826,0.0064483738054214035
3.6363636363636362,4.253164556962025,0.006721571071097792,0.005954195281715031,-4.227893413701056e-05,-0.0038027299058438465,0.006373050673279541
3.7373737373737375,4.253164556962025,0.006791817332277274,0.006167701086690432,9.34367265411448e-05,-0.0038878555256903116,0.006504276400530273
3.8383838383838382,4.253164556962025,0.006744407200133583,0.005981584777556436,4.772489878410798e-05,-0.0038177975933070055,0.0063977319800253745
3.9393939393939394,4.253164556962025,0.006570896158723505,0.006262324782411393,3.4916007761158655e-05,-0.0038499662823404694,0.0064224574373443
4.040404040404041,4.253164556962025,0.006508578826620976,0.005867091733807904,-1.656508043676746e-05,-0.0037127011681286634,0.006212789866752332
4.141414141414141,4.253164556962025,0.006645072518031164,0.006085739668560314,-3.780290252672453e-05,-0.0038192436559774433,0.006384146132276245
4.242424242424242,4.253164556962025,0.006509917761020256,0.006020493106528954,-4.826437528924718e-05,-0.003759123260264763,0.0062800827897793645
4.343434343434343,4.253164556962025,0.006655418751836336,0.005927930539341907,4.300653406786064e-05,-0.0037750047873534726,0.006323578722239119
4.444444444444445,4.253164556962025,0.006524768540244232,0.005890031825396125,-4.523550339298158e-05,-0.0037244401096921073,0.006232184513062796
4.545454545454545,4.253164556962025,0.006530933894127701,0.0059583601148010205,1.0955909932625387e-05,-0.003746788202678616,0.00626433211570335
4.646464646464646,4.253164556962025,0.0065824040739507275,0.006061859511135068,4.0173206183444134e-05,-0.0037932790755257385,0.0063385658506616895
4.747474747474747,4.253164556962025,0.006774528599296737,0.005967354093503627,6.556613778657149e-05,-0.0038225648078401096,0.006410182400419341
4.848484848484849,4.253164556962025,0.006596278478400334,0.005914050008676198,-2.7172792000348795e-05,-0.0037530985461229596,0.006283181643020639
4.94949494949495,4.253164556962025,0.006907943383180665,0.006096089225447008,-4.474334206610482e-05,-0.0039012097825883016,0.00654037860537238
5.05050505050505,4.253164556962025,0.0065667419357628536,0.00588429792887,-9.079959859784898e-06,-0.003735311959389856,0.006253530453399127
5.151515151515151,4.253164556962025,0.006680843069118775,0.005983404054358939,8.303506086780414e-05,-0.0037992741370433143,0.0063624907976051505
5.252525252525253,4.253164556962025,0.006684948999916814,0.006023013634839561,-2.5014441294759417e-05,-0.0038123887904269126,0.006379935310727365
5.353535353535354,4.253164556962025,0.006736299052769976,0.0057748578941433865,-3.57060218943388e-05,-0.003753347084074009,0.006311050912779829
5.454545454545454,4.253164556962025,0.0067711234192197375,0.00589958703475416,-4.837713826817922e-05,-0.0038012131361921694,0.0063807075349617305
5.555555555555555,4.253164556962025,0.006688779754055079,0.0058569926428367405,1.5785237721902048e-05,-0.0037637317190675457,0.0063141706603983
5.656565656565657,4.253164556962025,0.006630254325487016,0.005978412237657147,7.409927310698768e-05,-0.003782599968943249,0.0063308580628981224
5.757575757575758,4.253164556962025,0.0067299437704586565,0.005919605533252208,8.459165484119726e-05,-0.0037948647911132593,0.0063652751460536615
5.858585858585858,4.253164556962025,0.00672436208176987,0.00580996617968875,3.4086264425261355e-05,-0.0037602984784375856,0.0063172717023311994
5.959595959595959,4.253164556962025,0.006581014631431056,0.006264860573769429,-6.256153238516017e-05,-0.0038537625615601453,0.006429683843240757
6.0606060606060606,4.253164556962025,0.006631507889235842,0.005822073308483557,-5.6707551454355376e-05,-0.003736074359315819,0.006266893700758901
6.161616161616162,4.253164556962025,0.006608282064839307,0.006120289415893227,0.00010621599577727104,-0.00381857144421976,0.0063809545616134375
6.262626262626262,4.253164556962025,0.006792618748375214,0.006069301199881296,7.831141574456395e-07,-0.0038585759844769526,0.006461396074813281
6.363636363636363,4.253164556962025,0.0065393396853446395,0.006057749221252323,9.080020828950976e-07,-0.003779126671979089,0.006312338056133313
6.4646464646464645,4.253164556962025,0.006707592909022398,0.006083555929774728,3.424685838673267e-05,-0.0038373446516391375,0.006418641391259896
6.565656565656566,4.253164556962025,0.006833483360283839,0.005960437748313382,1.93993682070381e-05,-0.003838176332579166,0.006441575103974845
6.666666666666667,4.253164556962025,0.006842043467116783,0.006123891594228706,-6.347260740365845e-05,-0.0038897805184036466,0.006513659563089585
6.767676767676767,4.253164556962025,0.006679697386146516,0.0059782025836194,-6.781951484685495e-06,-0.003797369990929775,0.0063580513614021105
6.8686868686868685,4.253164556962025,0.006801219897413307,0.0061459628726160676,6.580180563634217e-05,-0.0038841548310088124,0.006499415079791488
6.96969696969697,4.253164556962025,0.006767180124082187,0.006068465803814221,-3.7909322158262875e-05,-0.0038506937783689224,0.006446620372157108
7.070707070707071,4.253164556962025,0.006636938810892369,0.006039184548336545,3.106274143032437e-05,-0.0038028370077686745,0.00635939487334412
7.171717171717171,4.253164556962025,0.006772842356290129,0.006194706408180197,6.918368681293663e-05,-0.0038902646293410975,0.006504180983656958
7.2727272727272725,4.253164556962025,0.00688288716993693,0.006246878325932752,-8.543130089193642e-05,-0.003938929648760904,0.006589610113875283
7.373737373737374,4.253164556962025,0.006970329187439168,0.00605190361682759,-3.311728843942303e-05,-0.003906669841280027,0.006559767999942984
7.474747474747475,4.253164556962025,0.006917354387167044,0.006243086715619612,2.8890561679826405e-05,-0.003948132330835997,0.006606268551028798
7.575757575757575,4.253164556962025,0.0067610800549989655,0.006188145811374833,-2.0709660663918312e-05,-0.003884767759912139,0.006493696138591902
7.6767676767676765,4.253164556962025,0.006866044712287603,0.006274720603838851,8.523873584483453e-05,-0.003942229594837936,0.006591962784373696
7.777777777777778,4.253164556962025,0.006878060857767587,0.006389049426178042,-1.8729597067876727e-05,-0.0039801330851836885,0.006647138884526326
7.878787878787879,4.253164556962025,0.0071081110068710665,0.006319853040971282,1.1711417009375034e-05,-0.004028389214352704,0.006748627938700216
7.979797979797979,4.253164556962025,0.007049431601682421,0.0064134048688542075,-3.888742646450424e-06,-0.004038850941160989,0.0067539199231790555
8.080808080808081,4.253164556962025,0.007101825638883541,0.006254458841222026,3.237292169409998e-05,-0.004006885344031669,0.006718575047127821
8.181818181818182,4.253164556962025,0.007115533805853501,0.006467953510812661,-2.808712597914387e-06,-0.0040750461949998484,0.006814860656389159
8.282828282828282,4.253164556962025,0.007056746187428922,0.006532184495625349,-1.4507879044227571e-05,-0.004076679204916282,0.006809681669451033
8.383838383838384,4.253164556962025,0.007147854222938232,0.0065516504075663765,1.2319569163401565e-05,-0.004109851389151382,0.006869218029568969
8.484848484848484,4.253164556962025,0.007213291785341901,0.006242675672158824,-3.8826329545036066e-05,-0.004036790237250217,0.006780623808714462
8.585858585858587,4.253164556962025,0.007294453009861444,0.006544130854461267,5.352938716936239e-05,-0.004151575159296814,0.006950354993164643
8.686868686868687,4.253164556962025,0.007463236143304999,0.0065167327355555036,-5.3647826467146446e-05,-0.004193990663658151,0.007038495454071988
8.787878787878787,4.253164556962025,0.007407630505492965,0.006612243669285265,-4.210723809876562e-05,-0.004205962252433469,0.007044076745185537
8.88888888888889,4.253164556962025,0.007422232702119991,0.006657913526833325,-9.218292164418905e-05,-0.004224043868685995,0.007072924457506161
8.98989898989899,4.253164556962025,0.007558112328900926,0.006724353870949233,6.473276321967998e-07,-0.004284739859955047,0.007177644204000308
9.09090909090909,4.253164556962025,0.007470062639912367,0.0066412050743523115,4.2070845890137065e-05,-0.004233380314279404,0.007092427838344463
9.191919191919192,4.253164556962025,0.007634930986216224,0.006829592165798016,4.407787544781588e-05,-0.004339356945604272,0.007266213872633767
9.292929292929292,4.253164556962025,0.007588983214180664,0.0070878441783516,7.790046612157421e-05,-0.004403048217759679,0.007352474160127052
9.393939393939394,4.253164556962025,0.0077734067414868884,0.00687586964370485,-6.124984533692712e-05,-0.004394782915557521,0.007366529638474057
9.494949494949495,4.253164556962025,0.0078065089887180234,0.006945533916821195,5.580784742855544e-05,-0.004425612871661765,0.007414242683851273
9.595959595959595,4.253164556962025,0.00783372749630547,0.007177084460132516,4.254047464134788e-05,-0.0045032435869313955,0.007527279258241278
9.696969696969697,4.253164556962025,0.007935943815756276,0.007138449907448756,4.699180598956398e-05,-0.00452231811696151,0.007569211228416207
9.797979797979798,4.253164556962025,0.008111569457663063,0.007196030657625969,-8.241456502932486e-05,-0.00459228003458671,0.007696082787676217
9.8989898989899,4.253164556962025,0.008234300717278665,0.0072172604018727275,-1.8291014710729625e-05,-0.004635468335745418,0.007775890122085442
10.0,4.253164556962025,0.008352310105802663,0.00735932690530761,5.484389703633112e-05,-0.004713491103333082,0.007903317004821329
0.0,4.3544303797468356,0.008273080293538692,0.007389999603408088,-1.749853155932866e-05,-0.004698923969084034,0.007868850626954102
0.10101010101010101,4.3544303797468356,0.008190810245670494,0.007365653306055692,2.1555569756790117e-05,-0.004666939065517855,0.0078110784446230475
0.20202020202020202,4.3544303797468356,0.008090764484198733,0.007181983511755862,-5.236882860685692e-05,-0.004581824398786379,0.007677359406822009
0.30303030303030304,4.3544303797468356,0.008025809148459021,0.007041564487355587,1.760157397014426e-05,-0.0045202120907443825,0.007581815065089093
0.40404040404040403,4.3544303797468356,0.0079514513329857,0.007124888158211104,1.1847461918346496e-05,-0.004522901847359041,0.007572108637092899
0.5050505050505051,4.3544303797468356,0.0077260420927619524,0.0069655185220193405,-4.423253841376892e-05,-0.004407468184434387,0.007375646070213314
0.6060606060606061,4.3544303797468356,0.007673133748695007,0.006905087424373162,-2.850456274419655e-05,-0.004373466351920451,0.0073195622847437546
0.7070707070707071,4.3544303797468356,0.007647527912851619,0.006786485026263856,4.558730334818807e-05,-0.004330203881734642,0.007255857160096625
0.8080808080808081,4.3544303797468356,0.0075686954409767025,0.006716016849360702,-5.615089580373615e-06,-0.0042854136871012215,0.007180434630130149
0.9090909090909091,4.3544303797468356,0.007523727260938244,0.00695049257236531,-1.4194651477222234e-05,-0.004342265949991066,0.0072541583189387766
1.0101010101010102,4.3544303797468356,0.007408793158563887,0.00678101787696293,-4.322341113756219e-05,-0.004256943310658045,0.007116099033103926
1.1111111111111112,4.3544303797468356,0.00748543251449128,0.006643642438371751,1.0168889428176747e-05,-0.004238722485858909,0.007102074195193399
1.2121212121212122,4.3544303797468356,0.007154348383935444,0.0065130017522802225,2.4315703526528206e-05,-0.0041002050408647,0.006856338878967709
1.3131313131313131,4.3544303797468356,0.007415919384068438,0.0065795644874193085,-6.477315414278112e-05,-0.004198645161446323,0.007036021320222314
1.4141414141414141,4.3544303797468356,0.0073278665567912986,0.006451359435036125,7.5519841293455905e-06,-0.004133767797548227,0.006931315667441617
1.5151515151515151,4.3544303797468356,0.007215537508673278,0.006587600109860763,7.777323469711859e-06,-0.004140941285560212,0.006922973531796075
1.6161616161616161,4.3544303797468356,0.007172185450972243,0.006458439139764612,-6.401152328002734e-05,-0.004089187377221057,0.0068441836223401996
1.7171717171717171,4.3544303797468356,0.007001817587101321,0.0064751743572398,-7.648597141989971e-06,-0.004043097583302336,0.006753926138827905
1.8181818181818181,4.3544303797468356,0.007099449262081275,0.006433193019805399,1.1855755707845069e-05,-0.004059792684566002,0.006790909106628187
1.9191919191919191,4.3544303797468356,0.00689851141294566,0.006397891772739814,2.2997055907740108e-05,-0.003988920955705642,0.006662442197192996
2.0202020202020203,4.3544303797468356,0.0070491677336714685,0.0064884444582379575,7.569892365982448e-05,-0.0040612836575728275,0.006787468960479533
2.121212121212121,4.3544303797468356,0.0067946195489579165,0.0061517343798278105,-4.738658930745919e-05,-0.0038839061786357177,0.0064975943613310135
2.2222222222222223,4.3544303797468356,0.007073855685346656,0.006369326102877828,-5.2496600612442815e-06,-0.004032954536467345,0.006749232421100578
2.323232323232323,4.3544303797468356,0.006885664859369481,0.006491912900286803,5.2037552542468204e-05,-0.004013273327896885,0.00669808187867971
2.4242424242424243,4.3544303797468356,0.007069859086340516,0.006209174057180886,2.237374125417222e-05,-0.0039837099430564205,0.006681337149040058
2.525252525252525,4.3544303797468356,0.006786282724947602,0.006169526905764162,-3.673268112912437e-05,-0.003886742889213529,0.006500199187084363
2.6262626262626263,4.3544303797468356,0.006920550675914511,0.006157484766542081,2.6491817504254245e-06,-0.003923410632736978,0.006572326528677978
2.727272727272727,4.3544303797468356,0.006747487462494853,0.006183903067242207,2.0416439503991163e-05,-0.003879417158921118,0.00648418740314302
2.8282828282828283,4.3544303797468356,0.00681306904782075,0.005977376187707122,1.722132726945154e-05,-0.0038371335706583617,0.0064361128773842875
2.929292929292929,4.3544303797468356,0.006876224376299277,0.005993392826470015,-9.63905342906517e-06,-0.003860885160830787,0.006480091367375718
3.0303030303030303,4.3544303797468356,0.006727190228643467,0.006095637782846336,3.474517829913263e-05,-0.0038468484034469407,0.006434982137049897
3.131313131313131,4.3544303797468356,0.006664868676938965,0.006183589540700631,3.459194718989165e-05,-0.0038545374652918787,0.006438014574096001
3.2323232323232323,4.3544303797468356,0.006601935756844914,0.005884486109455538,6.963428110053046e-05,-0.0037459265598901357,0.006275211554403885
3.3333333333333335,4.3544303797468356,0.006747969201422737,0.006104167839010515,-5.78265249119625e-05,-0.003855641112129976,0.006450988179585525
3.4343434343434343,4.3544303797468356,0.0066599617842553775,0.005988239942789686,1.6054400142983393e-05,-0.003794460518113519,0.006350860779258574
3.5353535353535355,4.3544303797468356,0.00651643735550506,0.006054272469088528,-4.269538068460708e-05,-0.003771212947378076,0.0062985198536486455
3.6363636363636362,4.3544303797468356,0.006720289913813308,0.006042969061970544,1.2285308343755319e-05,-0.0038289776927351556,0.006408566170321628
3.7373737373737375,4.3544303797468356,0.006740846213650179,0.006071286213746878,5.342840636501459e-05,-0.003843639728219117,0.006432921658407849
3.8383838383838382,4.3544303797468356,0.006807443080388396,0.005923147333857979,5.9308739131621215e-08,-0.0038191771242739123,0.00641119858605837
3.9393939393939394,4.3544303797468356,0.006849086503389754,0.00586592088304529,-4.204463631515195e-05,-0.003814502215930513,0.006414679839350795
4.040404040404041,4.3544303797468356,0.006632198886982561,0.005840119957283162,-4.1957978969497886e-05,-0.0037416956532797165,0.006274193775092493
4.141414141414141,4.3544303797468356,0.006671942878726572,0.006088602613977271,-7.032654854470803e-06,-0.0038281636478111527,0.006400253361461742
4.242424242424242,4.3544303797468356,0.006716130534849056,0.0060493035258750195,-2.9460365490864244e-05,-0.0038296302182172226,0.006408991662032421
4.343434343434343,4.3544303797468356,0.006623644038510956,0.0061104235860790865,5.610342300027699e-05,-0.003820220287377013,0.006383267875760887
4.444444444444445,4.3544303797468356,0.006577996534679422,0.006096315054273302,9.533668528813411e-05,-0.003802293476685817,0.006353016889681247
4.545454545454545,4.3544303797468356,0.0068185636780125234,0.006014894190862303,4.786381937220762e-05,-0.0038500373606624476,0.006454897097327982
4.646464646464646,4.3544303797468356,0.0066022342019121435,0.005997381828143463,-0.00012039602270545247,-0.0037798848090166816,0.00632498627892572
4.747474747474747,4.3544303797468356,0.006643391961719854,0.005890454379974119,-5.346528746725755e-05,-0.003760153902508192,0.006301435383441978
4.848484848484849,4.3544303797468356,0.006680803982075557,0.005909504658791733,-1.1733135937186428e-05,-0.003777092592260187,0.00633052587879433
4.94949494949495,4.3544303797468356,0.00678186234373565,0.0058946855391916655,-1.5216330086197218e-05,-0.0038029643648781943,0.006384725771639043
5.05050505050505,4.3544303797468356,0.006758845726031338,0.006031979870321303,3.651734077317062e-05,-0.0038372476789057916,0.006426628656360713
5.151515151515151,4.3544303797468356,0.0068021822083126635,0.006055400154651815,-3.0889148604277282e-06,-0.003857274708889343,0.006461241928301499
5.252525252525253,4.3544303797468356,0.006623445952031795,0.005860894459903396,2.8173474428675795e-06,-0.003745302123580557,0.006277007748618749
5.353535353535354,4.3544303797468356,0.006623042528860739,0.006120362572859251,1.615373560592525e-05,-0.003823021530515997,0.0063866181645517274
5.454545454545454,4.3544303797468356,0.006562101300033984,0.005848464853712687,-1.2589576334771922e-05,-0.003723169846124001,0.006236022072568862
5.555555555555555,4.3544303797468356,0.0066921728254844375,0.005981049513370005,-3.666057779640277e-05,-0.0038019667016563324,0.006366784540109503
5.656565656565657,4.3544303797468356,0.006734407522716632,0.0057934591825039294,-4.616028675489187e-05,-0.0037583600115661682,0.006317221794141403
5.757575757575758,4.3544303797468356,0.006701793612738744,0.006247291539971903,4.883298643786777e-05,-0.003884725545813194,0.0064870474528357785
5.858585858585858,4.3544303797468356,0.0067637322650755055,0.0060293743053287056,6.351177653658465e-05,-0.0038379319711212634,0.0064290323049032
5.959595959595959,4.3544303797468356,0.006671609356664685,0.005989549730800791,1.1172278484361394e-05,-0.0037983477262396427,0.006358106307610167
6.0606060606060606,4.3544303797468356,0.006660199588536758,0.005922286081732589,5.008970314814736e-05,-0.003774745701080804,0.006324211460993441
6.161616161616162,4.3544303797468356,0.006812700090389664,0.005895703574145857,8.449528094750702e-05,-0.003812521099360656,0.006405307271380868
6.262626262626262,4.3544303797468356,0.006913226312491249,0.005948587568188138,5.264931450840065e-05,-0.0038585441642038157,0.0064855821524765125
6.363636363636363,4.3544303797468356,0.006577601425306022,0.006086385589394347,8.194373530858946e-05,-0.0037991961044101107,0.0063478544290556695
6.4646464646464645,4.3544303797468356,0.006836216830916926,0.005978805771016517,-3.928108902105565e-05,-0.0038445067805800326,0.0064507515359150175
6.565656565656566,4.3544303797468356,0.006821571184447147,0.005913717530271908,7.022460679017518e-06,-0.0038205866144157166,0.006416010543922453
6.666666666666667,4.3544303797468356,0.00671722223149865,0.006140131040038661,3.583576614123633e-05,-0.0038572059814611934,0.006448372785139529
6.767676767676767,4.3544303797468356,0.006811767452927084,0.006074590236134306,-4.827535088858743e-06,-0.0038659073067184163,0.006474735224286146
6.8686868686868685,4.3544303797468356,0.006643907520098425,0.006097702864720882,7.186857422862344e-05,-0.003822483115445792,0.006389554657383082
6.96969696969697,4.3544303797468356,0.00678190363222744,0.005987799527954175,-6.74193764628878e-05,-0.003830910948054484,0.006422843358908401
7.070707070707071,4.3544303797468356,0.007048745104120181,0.006139274750595999,-3.230709903016202e-05,-0.003956405956414853,0.006641118159692298
7.171717171717171,4.3544303797468356,0.0066990339024431585,0.005978892805279672,-4.0188554587175956e-05,-0.003803378012316849,0.006369949306016906
7.2727272727272725,4.3544303797468356,0.006833910337877596,0.006125656070148129,-9.086684062904258e-05,-0.0038878699224077174,0.006510651180949773
7.373737373737374,4.3544303797468356,0.006662279512868638,0.006080797061934355,-6.276741835727144e-05,-0.0038229229724408976,0.006392332185892979
7.474747474747475,4.3544303797468356,0.006800627273207362,0.0062165527067920565,-4.917420266762519e-05,-0.0039051539939998253,0.006528771346041943
7.575757575757575,4.3544303797468356,0.0070038393620525915,0.006177081901093808,-2.833805032616908e-05,-0.003954276378943919,0.006629421271577433
7.6767676767676765,4.3544303797468356,0.006797545702553079,0.006307407629245174,-4.516253318065977e-06,-0.0039314859995394765,0.0065662156639090166
7.777777777777778,4.3544303797468356,0.006886841554093355,0.006214642265805414,2.532486998043052e-05,-0.003930445145969631,0.0065767037739483895
7.878787878787879,4.3544303797468356,0.006935420064761737,0.006214991282474295,6.790002307121093e-05,-0.00394512340417081,0.006605787168274413
7.979797979797979,4.3544303797468356,0.007076458363034772,0.00636476329256075,-3.356588630487954e-05,-0.0040323664966786564,0.006749064550727424
8.080808080808081,4.3544303797468356,0.007134501567858466,0.006319759650268009,1.5403946171604307e-05,-0.004036278365437942,0.006764085405306303
8.181818181818182,4.3544303797468356,0.007129697901310656,0.00629723738959591,8.426488780418454e-05,-0.00402808058727197,0.006753642899811277
8.282828282828282,4.3544303797468356,0.007097835825318321,0.006312207227448447,1.6976831548092202e-05,-0.00402301291583003,0.0067395168616182005
8.383838383838384,4.3544303797468356,0.007143098072146365,0.006492426180696879,-9.683616776225315e-05,-0.004090657275852973,0.006843065290889131
8.484848484848484,4.3544303797468356,0.007281680082952112,0.006545397220340949,5.0957333642417723e-05,-0.004148123190987918,0.006943442300307357
8.585858585858587,4.3544303797468356,0.007273775317356401,0.00637697964955745,3.823088059865831e-07,-0.004095226490074155,0.006869422106880468
8.686868686868687,4.3544303797468356,0.00720391809845932,0.006537414561159361,9.51656136134705e-05,-0.0041223997978856045,0.0068968395313755175
8.787878787878787,4.3544303797468356,0.007360851517298217,0.0067331386783180455,2.61118410429935e-05,-0.0042281970586848785,0.007068076325947903
8.88888888888889,4.3544303797468356,0.007727083974890233,0.006548028183501142,-0.0001010958941521886,-0.004282533647517413,0.007212350334149939
8.98989898989899,4.3544303797468356,0.007480919841933136,0.006770697563458773,-8.138417882592123e-05,-0.004275485221617572,0.007153693562401027
9.09090909090909,4.3544303797468356,0.007366106636639575,0.006886642405689816,5.877869705257927e-05,-0.004275824712698818,0.007139187144427376
9.191919191919192,4.3544303797468356,0.007581389915821363,0.006790234514857101,-2.4433571220744626e-05,-0.0043114873292035396,0.007218527089627254
9.292929292929292,4.3544303797468356,0.007694939899979836,0.006901021546984134,1.0001900190727212e-06,-0.004378788434089191,0.007330297088445489
9.393939393939394,4.3544303797468356,0.007770516393802394,0.0069518196749335515,-0.00012983063909352097,-0.004416700820620784,0.0073986526511830575
9.494949494949495,4.3544303797468356,0.0077431195319135875,0.00694311698128449,-2.6018455901859623e-05,-0.004405870953959423,0.007375867384335245
9.595959595959595,4.3544303797468356,0.007653051446003307,0.006980661884042831,-6.817160601972946e-05,-0.0043901139990138414,0.007340940971862496
9.696969696969697,4.3544303797468356,0.007993262877196965,0.007168330373779613,1.7348484125693067e-05,-0.004548477975292973,0.0076144445373983
9.797979797979798,4.3544303797468356,0.008090468531491183,0.007150645736263736,-1.3800899619419403e-05,-0.0045723342803264755,0.007663935841981155
9.8989898989899,4.3544303797468356,0.00808048157258176,0.007183914436427604,6.024612391240478e-06,-0.004579318802702809,0.007671598903752228
10.0,4.3544303797468356,0.008106069006556204,0.0073941586147086465,-1.0516432515383953e-05,-0.004650068286379455,0.0077746194870443285
0.0,4.455696202531645,0.00817031149765292,0.007411705528184679,-7.331467445097965e-05,-0.004674605107751279,0.007819689957762227
0.10101010101010101,4.455696202531645,0.00820026948216223,0.007012554430402371,-1.2436222329318737e-05,-0.00456384717376938,0.007675673723568798
0.20202020202020202,4.455696202531645,0.008199702001822384,0.007121299456950914,4.471118140930382e-05,-0.004596300437631989,0.007717608614768657
0.30303030303030304,4.455696202531645,0.007955976223779882,0.007081025215651159,3.885087874679945e-05,-0.004511100431829312,0.007556886640321535
0.40404040404040403,4.455696202531645,0.007802492458066852,0.007016808160988197,-3.8774543772862836e-05,-0.004445790185716515,0.007441129145917487
0.5050505050505051,4.455696202531645,0.007695991553485895,0.007206795115034697,8.712512684614276e-06,-0.004470836000556177,0.007463442584493808
0.6060606060606061,4.455696202531645,0.007814499346053631,0.006862306983333044,6.791149630850072e-05,-0.004403041898816002,0.00738552636196577
0.7070707070707071,4.455696202531645,0.007607701341630192,0.0069730814696900255,-0.00010199737961277145,-0.004374234843396065,0.007313212292177932
0.8080808080808081,4.455696202531645,0.007584245613222258,0.006835927938390894,-6.380179181534636e-05,-0.004326052065483946,0.0072399963969208
0.9090909090909091,4.455696202531645,0.007605210218929264,0.006841978470867862,8.893939227086496e-05,-0.0043341566069391374,0.007255407495935682
1.0101010101010102,4.455696202531645,0.007437446284445808,0.006620996613827077,-2.0957537727253173e-05,-0.004217532869481865,0.007064786931298967
1.1111111111111112,4.455696202531645,0.007304027976859432,0.006731977527941519,-3.819352741809141e-05,-0.0042108016514402855,0.0070357778643438534
1.2121212121212122,4.455696202531645,0.0073452467345084356,0.0065528342030104145,4.205681946814853e-05,-0.004169424281255655,0.00698322332305819
1.3131313131313131,4.455696202531645,0.00737827910287069,0.006654753294247474,-4.171737647890851e-05,-0.004209909719135449,0.00704480927917504
1.4141414141414141,4.455696202531645,0.007216771928289539,0.0065683599556519,2.3299444229551522e-05,-0.004135539565182432,0.006915520401344631
1.5151515151515151,4.455696202531645,0.007131339924781756,0.006383401623017305,2.867332497357405e-05,-0.004054422464339718,0.006788525983752392
1.6161616161616161,4.455696202531645,0.007050185994289781,0.006415472836141625,-6.723052788215217e-05,-0.004039697649129421,0.006756233962858049
1.7171717171717171,4.455696202531645,0.007262002561270322,0.006423023323465867,-3.207899534865395e-05,-0.0041055077654208565,0.006881205212272252
1.8181818181818181,4.455696202531645,0.007016535603637559,0.006235386972509677,6.147621567747529e-05,-0.003975576772844171,0.006661257077629342
1.9191919191919191,4.455696202531645,0.007018928293607797,0.00629647657452181,-5.573836379883666e-06,-0.003994621460438882,0.006687043238107265
2.0202020202020203,4.455696202531645,0.007031951092443979,0.006267450006241853,-3.300747578434173e-05,-0.00398982032960575,0.006682823677863094
2.121212121212121,4.455696202531645,0.0070120298836391344,0.006457660908080319,3.057968396470273e-07,-0.004040907237515836,0.006751935760022061
2.2222222222222223,4.455696202531645,0.006983647802850546,0.006274161471720303,-4.50511452015415e-05,-0.003977342782371255,0.006657776929863421
2.323232323232323,4.455696202531645,0.006960110370270457,0.006298558801940016,2.489835402577882e-06,-0.003977600751663142,0.0066540464012916556
2.4242424242424243,4.455696202531645,0.00701883438014486,0.006246700899495792,2.7417603678333005e-05,-0.003979660583892195,0.00666655865666661
2.525252525252525,4.455696202531645,0.006861558256915871,0.006370513667790186,-2.166426359398523e-05,-0.003969621577411817,0.006629795130128983
2.6262626262626263,4.455696202531645,0.006906728566773669,0.0062061273949204345,3.713703189168365e-05,-0.00393385678850823,0.006584756399970231
2.727272727272727,4.455696202531645,0.006974297799487436,0.006048296260497574,-1.3332597754664828e-05,-0.003906778217995503,0.006560535909888503
2.8282828282828283,4.455696202531645,0.006800367033401401,0.006043754029767546,2.7592889815093575e-06,-0.003853236318950684,0.0064554032980374655
2.929292929292929,4.455696202531645,0.006826600364574663,0.006056870651186746,-3.959087820716813e-05,-0.0038650413047284227,0.006476497629132347
3.0303030303030303,4.455696202531645,0.00671373723407771,0.005946746764865109,1.308007884862011e-05,-0.0037981451996828455,0.006365035963932731
3.131313131313131,4.455696202531645,0.006819930329501099,0.005835136634405854,-1.746279052772446e-05,-0.003796520089172086,0.006384822533072148
3.2323232323232323,4.455696202531645,0.006663922267716072,0.005935813350505588,1.095466934172388e-05,-0.0037799206854664973,0.006331374366841935
3.3333333333333335,4.455696202531645,0.006751567712345267,0.0061010400670088805,-3.679435569951218e-05,-0.0038557823338062442,0.00645126598578317
3.4343434343434343,4.455696202531645,0.006651577435867173,0.006026792322366567,0.00010376563829273848,-0.003803510927470122,0.006364772909007346
3.5353535353535355,4.455696202531645,0.006745956661454008,0.005808580098320272,3.1793299364578407e-05,-0.003766361027932284,0.006329781739571965
3.6363636363636362,4.455696202531645,0.006574820955186004,0.0060010859282905015,-6.95952024531472e-05,-0.0037727720650429513,0.006308705720898425
3.7373737373737375,4.455696202531645,0.006575664646136729,0.0060650083522722905,4.633601318288292e-05,-0.003792201899522706,0.006336297967218499
3.8383838383838382,4.455696202531645,0.006511976664967194,0.005972990027514733,-2.691935944532688e-06,-0.0037454900077445777,0.006259912141090112
3.9393939393939394,4.455696202531645,0.006895247386631934,0.006033985861408838,4.11061817413784e-05,-0.0038787699744122313,0.006507892578340165
4.040404040404041,4.455696202531645,0.0067240149402565536,0.006000691974470098,-3.367063099178232e-05,-0.0038174120744179953,0.006393382495613945
4.141414141414141,4.455696202531645,0.006660254346330237,0.005939799443985959,-1.2233140032838069e-05,-0.0037800161370948587,0.006330882977799739
4.242424242424242,4.455696202531645,0.006539911907349135,0.0062974622280176015,-0.00011527480986108838,-0.003851212240610021,0.006425223334909629
4.343434343434343,4.455696202531645,0.006618547149038112,0.00586530710086923,8.155473826789919e-05,-0.0037451562749722025,0.006277510309578021
4.444444444444445,4.455696202531645,0.006596174143715437,0.005831090214613111,9.047886339410049e-05,-0.0037281793074985642,0.00625082388138052
4.545454545454545,4.455696202531645,0.006524285894516835,0.005883234227711309,-5.419634053970695e-05,-0.003722256036668443,0.006229258467545986
4.646464646464646,4.455696202531645,0.006683250994014165,0.006003216763212831,-3.485602926058121e-05,-0.003805940327168099,0.006370800246704778
4.747474747474747,4.455696202531645,0.006588229045560756,0.006084723984531435,0.0001232388195525243,-0.0038018859090276566,0.006355048076570815
4.848484848484849,4.455696202531645,0.006608412084729967,0.005826659994943258,-3.99505129080673e-05,-0.003730521623901967,0.00625466983817103
4.94949494949495,4.455696202531645,0.006527529139683043,0.00603691139732942,-0.00012389809400985367,-0.0037693321611037382,0.006300228015077109
5.05050505050505,4.455696202531645,0.0068500600313092614,0.005816495583483919,-1.429812351806124e-05,-0.0037999666844379543,0.006396265527284413
5.151515151515151,4.455696202531645,0.006542381471859373,0.005821801432007962,-8.34332223216021e-05,-0.0037092548711602003,0.0062151882291050856
5.252525252525253,4.455696202531645,0.006661289111385654,0.005986268837401867,-3.7193676615991e-05,-0.003794267384636256,0.0063510684064527366
5.353535353535354,4.455696202531645,0.006635970631324107,0.006031229625862703,4.637049206543462e-05,-0.0038001600771560427,0.006355723799795459
5.454545454545454,4.455696202531645,0.006732168632564531,0.005863544129490771,-0.0001024597364518437,-0.0037787138286165907,0.006345106018368578
5.555555555555555,4.455696202531645,0.006540602487041447,0.006116318604817967,-3.33856127161646e-05,-0.003797076327557824,0.006339382405907865
5.656565656565657,4.455696202531645,0.006652573636357815,0.006103565093997055,4.5428947460708074e-05,-0.003826841619106461,0.006396250306195487
5.757575757575758,4.455696202531645,0.0067134986480727335,0.005838119086675668,2.7830956043138888e-05,-0.0037654853204245205,0.0063216151147107375
5.858585858585858,4.455696202531645,0.006720116238481808,0.005947817827314111,3.456561428306996e-05,-0.0038003802197387757,0.0063694627988417985
5.959595959595959,4.455696202531645,0.006773553938458312,0.00583112426001456,7.071018805224223e-05,-0.003781403459541861,0.006356147275508661
6.0606060606060606,4.455696202531645,0.00679740061359675,0.0059300584498723505,-3.262769718955279e-05,-0.00381823771904073,0.006408155668729709
6.161616161616162,4.455696202531645,0.006745417091567049,0.006008466305290727,2.2695059508696834e-05,-0.003826165019057333,0.006408919797312523
6.262626262626262,4.455696202531645,0.006757342863923191,0.0059422077219649086,-5.465079519143061e-05,-0.0038098651757664296,0.006389596260630978
6.363636363636363,4.455696202531645,0.006641413821633765,0.005889504544717039,-3.2906941106537575e-05,-0.003759275509905241,0.006299464504772688
6.4646464646464645,4.455696202531645,0.0066440115933404965,0.006088275173163013,6.607674295821833e-05,-0.0038196860299510526,0.006385335716353039
6.565656565656566,4.455696202531645,0.006745534971586468,0.005997897168095348,2.352860245300213e-05,-0.0038230296419045446,0.006404658318284888
6.666666666666667,4.455696202531645,0.006542662206723135,0.006138752385041016,0.00011672714885370768,-0.0038044243775292447,0.0063535660893650255
6.767676767676767,4.455696202531645,0.006698095021273194,0.006071546371739544,-1.3864268876796221e-05,-0.0038308924179038216,0.0064078806471457375
6.8686868686868685,4.455696202531645,0.00694167509189069,0.006111115495521504,-5.461227885908975e-05,-0.003915837176223658,0.006566593863263994
6.96969696969697,4.455696202531645,0.006828489527993227,0.006021222072233077,-2.1504381389592047e-05,-0.003854913480067891,0.006462887893685884
7.070707070707071,4.455696202531645,0.006857940377169694,0.005920480009203913,3.7310918372772625e-05,-0.003833526115912082,0.0064409088770717386
7.171717171717171,4.455696202531645,0.0068243769727015695,0.006104616951743221,-4.0457364861710597e-05,-0.0038786981773334373,0.006494857368374206
7.2727272727272725,4.455696202531645,0.006871558633735569,0.006090658804238254,7.836905594426255e-05,-0.0038886652313921462,0.006517710392607104
7.373737373737374,4.455696202531645,0.0069061649311523065,0.006292392245665836,-9.459572232152521e-05,-0.003959567153045442,0.0066226777531121035
7.474747474747475,4.455696202531645,0.00688919042629274,0.006206017584841769,-3.074665430760197e-05,-0.0039285624033403525,0.006574496036385285
7.575757575757575,4.455696202531645,0.007030417944274284,0.006183188624366374,1.081750178687366e-05,-0.003964081970592197,0.006647446790544798
7.6767676767676765,4.455696202531645,0.0068872477832376865,0.006336366693748744,-8.917528452805204e-05,-0.003967084343095929,0.00663079588994946
7.777777777777778,4.455696202531645,0.0070287889523006995,0.006044106494075873,-4.533419594272526e-05,-0.003921868633912972,0.006592307188199775
7.878787878787879,4.455696202531645,0.007097662662367937,0.006501418927133086,-1.1909266460613713e-05,-0.0040797244768503065,0.0068191502736935205
7.979797979797979,4.455696202531645,0.006923722870284,0.006306482669733586,3.918919254152056e-05,-0.0039690616620052755,0.006637012214475412
8.080808080808081,4.455696202531645,0.007177536335627759,0.006335046231977063,7.3961691350333265e-06,-0.004053774770281447,0.006795585199421759
8.181818181818182,4.455696202531645,0.007106456754551679,0.006277840953454646,7.538746295901442e-05,-0.004015289312401897,0.006731779794543252
8.282828282828282,4.455696202531645,0.0070331144136565,0.006352660538091733,0.00015306492990867584,-0.00401573248552447,0.006724008662293258
8.383838383838384,4.455696202531645,0.00703232479445913,0.0063664186081383,-4.814942123989268e-05,-0.004019623020779228,0.006724664272600865
8.484848484848484,4.455696202531645,0.007103928254549913,0.006448536714195113,4.334844906112254e-05,-0.004065739490623508,0.006800376276335728
8.585858585858587,4.455696202531645,0.007255588076824092,0.00651796869220776,9.503285489267874e-06,-0.004132067030709555,0.006916360981192522
8.686868686868687,4.455696202531645,0.007417812477257474,0.006573811243001135,-7.672980218478643e-05,-0.004197487116077583,0.007035147442131221
8.787878787878787,4.455696202531645,0.007368647001996393,0.006549379511741673,-8.80428332603454e-06,-0.00417540795412142,0.006995105250883277
8.88888888888889,4.455696202531645,0.007387055496094705,0.006590172617239586,-2.7560880636066257e-05,-0.004193168434000287,0.007022768113887091
8.98989898989899,4.455696202531645,0.007435289503094115,0.006795032520418735,2.9740626427240524e-05,-0.004269096607053855,0.007136919257683809
9.09090909090909,4.455696202531645,0.007332222607993769,0.006760471346519481,-0.00013855980979504058,-0.004227808186353974,0.007067798583385988
9.191919191919192,4.455696202531645,0.0076501215033238645,0.006714557294780961,-3.302175366594098e-05,-0.004309403639431448,0.0072281208376075165
9.292929292929292,4.455696202531645,0.007624856859765561,0.00693073126948757,7.804976583946544e-07,-0.004366676438775939,0.007302578039703001
9.393939393939394,4.455696202531645,0.0077478440617250776,0.00704118700418129,-1.8802540328952832e-05,-0.00443670931977191,0.007419868174124572
9.494949494949495,4.455696202531645,0.007747099055926964,0.00686668267256013,4.698725819720785e-05,-0.0043841345185461275,0.0073470148540301745
9.595959595959595,4.455696202531645,0.007715496049325672,0.007101218340475747,-1.0974845933380682e-05,-0.004445014316940425,0.007427457202613781
9.696969696969697,4.455696202531645,0.007859200878037466,0.007295645878832695,-3.0079211440043552e-05,-0.004546454027061048,0.007593303300328756
9.797979797979798,4.455696202531645,0.008032376870987682,0.007361144153167497,-4.481394551147705e-05,-0.0046180563072465534,0.007719071334721425
9.8989898989899,4.455696202531645,0.008113936670493562,0.007559835540569534,-5.570276803182254e-07,-0.0047021316633189284,0.007851563908454815
10.0,4.455696202531645,0.008151504592305367,0.007438416277942807,4.918200519118158e-05,-0.004676976261074451,0.007819848847779226
0.0,4.556962025316456,0.018626882514414755,0.016784386934916684,-3.456245022793831e-05,-0.010623380834799433,0.01777749074426811
0.10101010101010101,4.556962025316456,0.018361128519161725,0.016641731761174797,5.9753217591939816e-05,-0.010500858084100955,0.017564965476788156
0.20202020202020202,4.556962025316456,0.018182997552836783,0.016447781758132718,-1.481235213708014e-05,-0.010389233793290849,0.017380495031190532
0.30303030303030304,4.556962025316456,0.01819294841773376,0.016337412390015644,-3.2109500389391435e-05,-0.01035910824232482,0.01733989065424015
0.40404040404040403,4.556962025316456,0.017828162010886786,0.015951283274358675,-3.318007589597929e-05,-0.010133833585573637,0.016967853106411426
0.5050505050505051,4.556962025316456,0.01765426458280975,0.015939843235233998,2.116465769831723e-05,-0.010078232345413125,0.016862585634135747
0.6060606060606061,4.556962025316456,0.017492826033810943,0.015848277944781722,-7.447542354577931e-06,-0.010002331193577798,0.016731284285384087
0.7070707070707071,4.556962025316456,0.01746689296424939,0.015529063032247534,-5.4211194875568814e-05,-0.009898786798949075,0.016583379728682016
0.8080808080808081,4.556962025316456,0.017172627103828275,0.01542040281697793,3.403979759955221e-05,-0.009777908976241862,0.016367119277431664
0.9090909090909091,4.556962025316456,0.01699887577073115,0.014988849904793348,-6.9266468545613844e-06,-0.009596317702657349,0.01608831704668846
1.0101010101010102,4.556962025316456,0.01702587713770833,0.015073009678545725,1.7920330770821602e-05,-0.009629666044876218,0.016138335280016618
1.1111111111111112,4.556962025316456,0.016736890281527722,0.015133768172980717,4.0123151864733295e-05,-0.009561197536352532,0.01599584469648644
1.2121212121212122,4.556962025316456,0.01651227394782064,0.015006514841472153,6.906068659035715e-05,-0.009455636636787836,0.015813706165414634
1.3131313131313131,4.556962025316456,0.01656012113099822,0.01484958186289549,-5.493885592667687e-05,-0.009422910898168112,0.01577484940706619
1.4141414141414141,4.556962025316456,0.016464750213691138,0.01482934892729948,0.00011506668260642512,-0.009388229742297183,0.01571228132104069
1.5151515151515151,4.556962025316456,0.016388353672726175,0.014810691501451749,1.031818031109572e-05,-0.009359713552253377,0.015659252465703342
1.6161616161616161,4.556962025316456,0.016373727102112188,0.01482230304923179,-4.333210796426574e-06,-0.009358809045403193,0.015655775869465236
1.7171717171717171,4.556962025316456,0.01634259387498202,0.014466347298062007,-8.98192867244556e-06,-0.009242682351913207,0.015489938088617494
1.8181818181818181,4.556962025316456,0.016166905040588493,0.014487584379149295,-9.160070503175942e-05,-0.009196346825921336,0.01539690523698329
1.9191919191919191,4.556962025316456,0.016096908965605183,0.01444860190260982,2.2030787526087915e-05,-0.009163653260464501,0.015339367710153425
2.0202020202020203,4.556962025316456,0.01591760895399476,0.014397806679409965,-1.4175964910817994e-05,-0.009094624690021418,0.01521476448538847
2.121212121212121,4.556962025316456,0.015899741988626426,0.01430917334074191,1.6710327564036253e-05,-0.0090626745988105,0.015167165539978229
2.2222222222222223,4.556962025316456,0.015718281365624566,0.01410294264894211,5.784300895373364e-05,-0.008946367204370002,0.014976427386062622
2.323232323232323,4.556962025316456,0.015814857366593854,0.01409074935837763,8.761239430263582e-05,-0.008971682017491444,0.015027932908755873
2.4242424242424243,4.556962025316456,0.01574110910925127,0.014204281188519328,3.3985408024270465e-05,-0.008983617089331179,0.015031847693772882
2.525252525252525,4.556962025316456,0.015578475157575227,0.013999868212879803,-6.088674630947367e-05,-0.008873503011136508,0.014852599793879326
2.6262626262626263,4.556962025316456,0.015540814782602557,0.014022509050770439,-2.0020894581211925e-05,-0.008868997150011899,0.014840069769019455
2.727272727272727,4.556962025316456,0.015394822476936514,0.013915016965807383,-4.692753082066842e-05,-0.008792951832823168,0.014711072254678765
2.8282828282828283,4.556962025316456,0.015445037669883923,0.01380336876113945,-5.658951742407007e-05,-0.008774521929307012,0.014693475913257656
2.929292929292929,4.556962025316456,0.015466192618648626,0.013788840361868103,4.632867869631225e-05,-0.00877650989415502,0.014699687433996163
3.0303030303030303,4.556962025316456,0.015381727541175803,0.013776229272484753,-5.2868482863317225e-05,-0.008747387044098167,0.014645416181670695
3.131313131313131,4.556962025316456,0.015414738438806329,0.013768958987903443,3.385506632213236e-05,-0.008755109228012932,0.014661409545836454
3.2323232323232323,4.556962025316456,0.015354255756438487,0.013804895351791422,0.00011057224208225638,-0.008747745332468972,0.014642441403260584
3.3333333333333335,4.556962025316456,0.015290269940009144,0.013850581162089452,-3.5681854800850606e-05,-0.008742255330629578,0.01462380416156847
3.4343434343434343,4.556962025316456,0.015125884293520528,0.013825250806126205,-7.52233280890146e-05,-0.008685340529894019,0.014519909336430591
3.5353535353535355,4.556962025316456,0.015327214532886128,0.013635352979043275,3.19002374931527e-05,-0.008688770253578821,0.014555323037784224
3.6363636363636362,4.556962025316456,0.015364924967710391,0.013889520757802235,2.4471074723484887e-05,-0.008776333717653788,0.014682985335557494
3.7373737373737375,4.556962025316456,0.015215806411692748,0.013655723824571555,-4.550120374520249e-05,-0.00866145907087929,0.014499066138323764
3.8383838383838382,4.556962025316456,0.015262113413545629,0.013706457050789236,-8.364404696445382e-05,-0.00869057113930046,0.014547527546143356
3.9393939393939394,4.556962025316456,0.014896987378111088,0.013500841801071854,-2.8617757439012204e-05,-0.008519348753754883,0.014250387689633244
4.040404040404041,4.556962025316456,0.015012916677255562,0.013812082673730013,3.346120068070055e-05,-0.008647499805295672,0.014450086767211818
4.141414141414141,4.556962025316456,0.015106071671455152,0.013571547667628048,-8.340319181434746e-06,-0.00860328580172496,0.01440026889890786
4.242424242424242,4.556962025316456,0.015060012004809404,0.013778152994005428,2.4491739457053006e-05,-0.00865144949964445,0.01446181563820071
4.343434343434343,4.556962025316456,0.014880581877373475,0.01349407273592504,5.657250727110294e-05,-0.008512396383989554,0.014238386957490043
4.444444444444445,4.556962025316456,0.01498071482351344,0.013605542852289931,-5.519067914299713e-06,-0.008575877302741012,0.01434266177597512
4.545454545454545,4.556962025316456,0.015161896314425834,0.01356246040189245,-1.7541484170879625e-05,-0.008617307014895484,0.014428850845833207
4.646464646464646,4.556962025316456,0.015188367914281103,0.013465544321830369,1.116742423652553e-05,-0.008596173670833441,0.014404448500057737
4.747474747474747,4.556962025316456,0.014918564268666489,0.0135059656319183,-5.071748333335039e-05,-0.008527358970175437,0.01426508913354781
4.848484848484849,4.556962025316456,0.015060415832658755,0.01363659354142297,0.0001315508315138002,-0.008609102812224517,0.01440319256469254
4.94949494949495,4.556962025316456,0.015085505416177689,0.013548201822244116,3.509249271133547e-05,-0.008590112171526542,0.014378750597947904
5.05050505050505,4.556962025316456,0.014991206458224033,0.013625569093195594,-2.9510704497951486e-05,-0.008585032665425889,0.014357273329037561
5.151515151515151,4.556962025316456,0.0150110259223774,0.013653244398847755,-9.096094597462647e-05,-0.008599281096367546,0.014381154263214548
5.252525252525253,4.556962025316456,0.014919118335513015,0.013575679158314657,2.436817694608874e-05,-0.008548439248148302,0.014294886291776809
5.353535353535354,4.556962025316456,0.015010034698966187,0.013521399692069214,4.8546194140127543e-05,-0.00855943031731062,0.014324097979949916
5.454545454545454,4.556962025316456,0.01514452947692103,0.013524080021439918,3.7045681548628456e-05,-0.008600582849508284,0.014402978932091406
5.555555555555555,4.556962025316456,0.015144650798934272,0.013445085514307908,8.883630617046574e-05,-0.008576920893972653,0.01437126726842807
5.656565656565657,4.556962025316456,0.015017546705466317,0.013511347249753938,-2.1176346665652966e-05,-0.008558668186566077,0.014324010279608019
5.757575757575758,4.556962025316456,0.0149862156882023,0.01368920006413052,6.696347630389794e-05,-0.008602624725699845,0.01438210716865144
5.858585858585858,4.556962025316456,0.015063223031995896,0.013592169755869262,-3.6044991291644003e-06,-0.008596617836359547,0.014384224735447258
5.959595959595959,4.556962025316456,0.015170591375500333,0.01352378531710231,9.95845364677983e-05,-0.008608313007780793,0.014418929999463804
6.0606060606060606,4.556962025316456,0.015142067392915577,0.013510500237444146,6.273748595648419e-05,-0.008595770289107917,0.014396205210631957
6.161616161616162,4.556962025316456,0.015091702887648313,0.0136154567568164,-6.159113056303296e-05,-0.008612147893339413,0.014410798419740146
6.262626262626262,4.556962025316456,0.015161127344789997,0.013657566050821813,-6.408019324259854e-05,-0.008645608018683543,0.014468486911028653
6.363636363636363,4.556962025316456,0.015185911635463543,0.013647024023374376,3.3821974122063144e-05,-0.008649880697651375,0.014478056076920461
6.4646464646464645,4.556962025316456,0.015349299080973608,0.013401304596060057,-5.277703899216218e-06,-0.0086251811031101,0.014473955865480627
6.565656565656566,4.556962025316456,0.015204204946283467,0.013656765436620297,-2.61445689692713e-07,-0.008658291114871128,0.014492578440112841
6.666666666666667,4.556962025316456,0.01518039686278312,0.01382542183387088,3.0876019321308944e-05,-0.0087017456089962,0.014550402315682883
6.767676767676767,4.556962025316456,0.015271880959952806,0.013599188959435998,4.2548211667722974e-05,-0.008661320975816641,0.014508222651998151
6.8686868686868685,4.556962025316456,0.015288333302501239,0.01377088210139317,-2.627082459730682e-05,-0.008717764621168323,0.014588987766530165
6.96969696969697,4.556962025316456,0.015325934055567836,0.013708020612780642,2.1376062303808742e-05,-0.008710186400504543,0.014584486095173564
7.070707070707071,4.556962025316456,0.015497724421259018,0.013936203345134327,4.814046027661437e-05,-0.008830178329918002,0.014779199555606805
7.171717171717171,4.556962025316456,0.01566811835897896,0.013979819673506798,7.83190413489587e-06,-0.008894381409745727,0.014895905670660688
7.2727272727272725,4.556962025316456,0.015645797832999346,0.01400118757114922,3.326160356646516e-05,-0.008894095621244569,0.01489187067081574
7.373737373737374,4.556962025316456,0.015482206197677543,0.014127245404462302,-5.1722771884841706e-05,-0.008882835480641954,0.014851426559210488
7.474747474747475,4.556962025316456,0.01562209702704012,0.014055265306895043,2.9084394900430656e-05,-0.008903208700180548,0.014900678431213734
7.575757575757575,4.556962025316456,0.015636893807491444,0.014099121775062846,0.00010279832819832213,-0.008920804674766287,0.014928593881813139
7.6767676767676765,4.556962025316456,0.01577905882121916,0.0141597816892487,-1.7384094866494975e-05,-0.008981652153140358,0.015034992292005429
7.777777777777778,4.556962025316456,0.015791644114930743,0.014375170834466234,-9.765019606654374e-05,-0.009050044484819093,0.01513415293783792
7.878787878787879,4.556962025316456,0.01589307654253905,0.014220087564372102,2.049502799530449e-05,-0.009033949232073344,0.015126172429327888
7.979797979797979,4.556962025316456,0.016063348137823286,0.014343040485589282,-7.058753204552925e-05,-0.00912191658702377,0.01527650676340276
8.080808080808081,4.556962025316456,0.016070705693976863,0.014305078262612998,3.672363190100301e-05,-0.009112735186976957,0.015264802284653541
8.181818181818182,4.556962025316456,0.015880078248097403,0.014441683369299468,-3.24969890039652e-05,-0.00909652848521906,0.01521207447815575
8.282828282828282,4.556962025316456,0.016154376823363313,0.014677001771785542,1.1780127127537414e-05,-0.009249413578544656,0.01546870617135785
8.383838383838384,4.556962025316456,0.016113669858438803,0.01456000317572085,4.1725630053897216e-05,-0.009202101910247895,0.015395914638532664
8.484848484848484,4.556962025316456,0.016332182193445094,0.014858259305004918,4.8299720414493705e-05,-0.009357132449535002,0.015647595512309084
8.585858585858587,4.556962025316456,0.016351447107580096,0.01499763281466192,-2.9368599069648906e-05,-0.009404723976672604,0.015718409601209515
8.686868686868687,4.556962025316456,0.016427947951758393,0.01498054211118959,0.00010350490342809862,-0.009422547018884396,0.015755211504583522
8.787878787878787,4.556962025316456,0.01681199173805015,0.015055246664074247,6.296911529692337e-06,-0.009560171520637319,0.016006091176141237
8.88888888888889,4.556962025316456,0.016770030837387657,0.01513650457661723,-5.981352983816076e-05,-0.009571960624201466,0.016016203967851188
8.98989898989899,4.556962025316456,0.01702888977853086,0.015278992343894158,3.719786572280831e-05,-0.009692364636727504,0.01622499826276051
9.09090909090909,4.556962025316456,0.017056549825739516,0.015448707276023892,-5.911342081951505e-05,-0.00975157713052902,0.016312488659030695
9.191919191919192,4.556962025316456,0.017026472083273417,0.01549168027524976,3.569994085431197e-05,-0.009755445707556954,0.016313432228714012
9.292929292929292,4.556962025316456,0.017364157764264355,0.015660593258176477,6.439162486976533e-05,-0.00990742530673225,0.016578527765981323
9.393939393939394,4.556962025316456,0.017575311285773183,0.01593989035880198,-4.658004353882362e-05,-0.01005456049337255,0.016817539820876987
9.494949494949495,4.556962025316456,0.017806006592328196,0.01582594217828085,9.006414461474625e-05,-0.010089584631182712,0.01690389956461189
9.595959595959595,4.556962025316456,0.01769480743035489,0.015957351006846938,7.59415038227306e-05,-0.010095647531160549,0.016893735801306174
9.696969696969697,4.556962025316456,0.018092859120966726,0.01624214515074612,-3.414990433630688e-05,-0.010300501281513854,0.01724225869433035
9.797979797979798,4.556962025316456,0.018336349679336103,0.016492370313661468,-8.157971804281812e-06,-0.01044861599789927,0.01748743345007907
9.8989898989899,4.556962025316456,0.018274714734171724,0.016604899114152173,-6.74537628135771e-05,-0.01046388415449717,0.017500049392388757
10.0,4.556962025316456,0.018547003798026658,0.01670916552362721,-0.00011494953489093498,-0.01057685079649616,0.0177009108844187
0.0,4.658227848101266,0.01878435259493983,0.016684134243493947,-3.6849202132735836e-06,-0.010640546051530132,0.017827271755116125
0.10101010101010101,4.658227848101266,0.018469971480438576,0.016551094826311615,2.6345653996946702e-05,-0.010506319892025056,0.017589270004926785
0.20202020202020202,4.658227848101266,0.018147947497518642,0.016212655891639005,-3.982356306650526e-05,-0.010308181016747294,0.017261996966316355
0.30303030303030304,4.658227848101266,0.018019214483115727,0.016392943465140638,-3.0487161091135407e-05,-0.010323647384476909,0.0172637049943759
0.40404040404040403,4.658227848101266,0.017822350365626224,0.01589313308832257,-2.467317687362015e-05,-0.010114645036184637,0.016940386415534626
0.5050505050505051,4.658227848101266,0.01785842113223675,0.01593878132132413,-1.5318866501234078e-05,-0.010139160736068265,0.016980199945156375
0.6060606060606061,4.658227848101266,0.017433176504827286,0.015859469897968957,-0.00014918275253613728,-0.009987793920838872,0.016704019186103695
0.7070707070707071,4.658227848101266,0.017548574311033314,0.015680047911307716,0.0001130667219258541,-0.00996858666670231,0.016694077666329427
0.8080808080808081,4.658227848101266,0.017342407014448433,0.015620336551885366,-1.6396803711459575e-05,-0.009888823069900141,0.016548733106464982
0.9090909090909091,4.658227848101266,0.01696831187521002,0.015301797699506417,4.4176925917157405e-05,-0.00968103287241493,0.016199654314730534
1.0101010101010102,4.658227848101266,0.016985791386897833,0.015241028224298125,7.10825342780353e-05,-0.009668045883358787,0.016184569274878866
1.1111111111111112,4.658227848101266,0.01671154694422628,0.015048697427003644,5.278400346719653e-06,-0.009528073311368979,0.015945286626532836
1.2121212121212122,4.658227848101266,0.016687947459130503,0.015161770969601583,-1.5748922390974235e-05,-0.009554915528619624,0.015979636919872163
1.3131313131313131,4.658227848101266,0.01653126652319086,0.014814333755393904,6.683260844186455e-05,-0.00940368008357543,0.01574360052833239
1.4141414141414141,4.658227848101266,0.016465600999489228,0.014861869349402004,5.809303987758582e-06,-0.009398241104667368,0.015725192121666495
1.5151515151515151,4.658227848101266,0.016343218566716906,0.014561428528986654,-3.48915261623083e-05,-0.009271394128711068,0.015529296091169249
1.6161616161616161,4.658227848101266,0.016265280894517817,0.014504585030115199,7.404164135546435e-05,-0.009230959777389905,0.015460842350730123
1.7171717171717171,4.658227848101266,0.016187432524804226,0.014672678864801563,3.222124748229895e-05,-0.009258033416881736,0.0154858190729117
1.8181818181818181,4.658227848101266,0.016167866781817284,0.01433391708824235,1.7906630053232695e-05,-0.00915053516101789,0.015333401297986033
1.9191919191919191,4.658227848101266,0.01586089614117594,0.014446315200587081,5.085938318284744e-05,-0.009092163402528906,0.015203299125099573
2.0202020202020203,4.658227848101266,0.016013240966422933,0.014217191464461775,-4.4221021027357995e-06,-0.009069129729265412,0.015195037521001837
2.121212121212121,4.658227848101266,0.015946015047913514,0.014247832954093882,1.9911136196367355e-05,-0.009058154400602219,0.015168426763179583
2.2222222222222223,4.658227848101266,0.01587171137620651,0.014283158814329424,2.0966476338661232e-05,-0.00904646105716078,0.015140112029400344
2.323232323232323,4.658227848101266,0.015777752003101015,0.01416368085774744,2.6436163945650867e-05,-0.008982429858254537,0.015035902576804748
2.4242424242424243,4.658227848101266,0.015592995253306709,0.014127925681722104,-7.707851136085585e-05,-0.008916276280508643,0.01491512421116521
2.525252525252525,4.658227848101266,0.015510174429298968,0.014262629969962286,-6.185842327078553e-05,-0.008931841319778377,0.014925941351428138
2.6262626262626263,4.658227848101266,0.015589410254364142,0.013943446127868714,3.172354308089423e-05,-0.008859856914669857,0.014835171691026607
2.727272727272727,4.658227848101266,0.015545204534677282,0.01401445575069277,-5.1299458390100256e-05,-0.008867898085611016,0.014839429498119757
2.8282828282828283,4.658227848101266,0.015498958967096323,0.013885306492768307,5.763786204837265e-06,-0.008815279637959389,0.014758447396273475
2.929292929292929,4.658227848101266,0.015637403091768486,0.01381429611095923,-1.1776540714606855e-05,-0.008835509760818315,0.014810261707354408
3.0303030303030303,4.658227848101266,0.015401161916282196,0.01394577297218639,7.42387016444891e-06,-0.008804080466540576,0.014727505895856759
3.131313131313131,4.658227848101266,0.015430501819768752,0.013655130747394585,4.8810894668956766e-05,-0.008725689770149,0.014624110564468204
3.2323232323232323,4.658227848101266,0.01521059417989329,0.013644768162747891,5.707962953541932e-05,-0.008656608702792353,0.014491605037765124
3.3333333333333335,4.658227848101266,0.015353553389392954,0.013809588298837083,4.514048694603718e-06,-0.008748942506469012,0.014642750443905455
3.4343434343434343,4.658227848101266,0.015154609078211603,0.013679357933012516,-4.7131144592983975e-05,-0.008650190103367235,0.014473712443306332
3.5353535353535355,4.658227848101266,0.015369589673164387,0.013578203698414067,-2.1315602845469804e-05,-0.008684338011473535,0.014556848770203442
3.6363636363636362,4.658227848101266,0.015133537791870467,0.013487610888412646,0.00010542219615215381,-0.008586344604084934,0.014382547965909492
3.7373737373737375,4.658227848101266,0.015209704160705467,0.013878078931536956,-5.2394672203444e-05,-0.008726334927672726,0.014589823036061147
3.8383838383838382,4.658227848101266,0.015274441855001009,0.013839328661717505,-4.860653932864811e-05,-0.008734131155015553,0.014610087563741221
3.9393939393939394,4.658227848101266,0.015170759583856011,0.013574631930313767,2.6690550443146782e-05,-0.008623617454250934,0.014439087162870668
4.040404040404041,4.658227848101266,0.015285712683857356,0.013565624203183916,2.842041557586078e-05,-0.008655401066112381,0.01450246053221524
4.141414141414141,4.658227848101266,0.015079249190596318,0.013592695788279199,1.4495271881439599e-05,-0.008601583493662655,0.014393683278441708
4.242424242424242,4.658227848101266,0.015197236084315016,0.013568748048860109,5.4238552161505197e-05,-0.008629795239952538,0.01445227546825611
4.343434343434343,4.658227848101266,0.015013707705187333,0.013612462118177434,0.00010258421356026293,-0.008587850947009429,0.014365534697601105
4.444444444444445,4.658227848101266,0.015049140667527142,0.013653995686844946,-3.6536318694029524e-05,-0.008610940906311626,0.0144024767311047
4.545454545454545,4.658227848101266,0.015101479400515625,0.013608418698051362,8.77042655525944e-05,-0.008612969429570095,0.014413866969624971
4.646464646464646,4.658227848101266,0.014902546638466626,0.013549711008703813,-3.89052316221951e-06,-0.00853567729415113,0.014274291922705672
4.747474747474747,4.658227848101266,0.015114324737099618,0.013470605298836338,-2.4920240765611246e-05,-0.008575479010780786,0.014363244046483068
4.848484848484849,4.658227848101266,0.014985722703150618,0.013434751257660027,1.9014218682821334e-05,-0.008526142188243192,0.014273613907464384
4.94949494949495,4.658227848101266,0.015005592414960335,0.013477714622201924,1.617245948736323e-05,-0.008544992111148677,0.014303016727280127
5.05050505050505,4.658227848101266,0.015008538716235103,0.013390115518248792,5.678957351185244e-05,-0.008519596270345167,0.014268673238435893
5.151515151515151,4.658227848101266,0.015029722658605001,0.013412322875237786,5.2615156715469036e-05,-0.008532613660152837,0.014290128765895443
5.252525252525253,4.658227848101266,0.015138443925810704,0.013273825478858841,5.308260467489403e-05,-0.008523680821400863,0.014297913062198008
5.353535353535354,4.658227848101266,0.015028049452845995,0.013398793996057777,6.836480054117235e-06,-0.008528053034671131,0.014283289268831078
5.454545454545454,4.658227848101266,0.015072300521502052,0.013522666112853608,4.703814374971811e-05,-0.008578489990306698,0.014360560297781945
5.555555555555555,4.658227848101266,0.015146482530842198,0.013554337483828054,6.123436074858757e-05,-0.008610246004401075,0.014416889772328903
5.656565656565657,4.658227848101266,0.015024017059166053,0.013472731178139132,-3.5738797984767575e-05,-0.008549024471191555,0.0143117036974512
5.757575757575758,4.658227848101266,0.015052044349452965,0.013591442570526593,8.695735923672312e-05,-0.008593046075993867,0.014378283577958409
5.858585858585858,4.658227848101266,0.015065757562156726,0.013575043479638288,-5.8739467918947764e-05,-0.008592240312538503,0.014378834911461354
5.959595959595959,4.658227848101266,0.015071807677567207,0.013626624376193625,-4.450679687449291e-05,-0.008609529616128249,0.014403900833868326
6.0606060606060606,4.658227848101266,0.015117357535425879,0.013557293672085467,1.101442094074611e-05,-0.008602395362253403,0.014400854796288637
6.161616161616162,4.658227848101266,0.01513270254784124,0.013709846151038117,2.82732228289694e-05,-0.008652764609663808,0.01447390556248164
6.262626262626262,4.658227848101266,0.015158918835440788,0.013534215041329433,-3.4808772408391755e-06,-0.008607940163031066,0.014415400309427196
6.363636363636363,4.658227848101266,0.015118988313071319,0.013681818895084312,-6.770559768774837e-06,-0.00864024216244669,0.014454094694368579
6.4646464646464645,4.658227848101266,0.015297704137115273,0.013515117926694584,-1.3030039025874328e-05,-0.008643846619142956,0.01448890604442342
6.565656565656566,4.658227848101266,0.015147152314373146,0.013757784200753772,4.5396523628861933e-05,-0.008671480954538076,0.01450268178942463
6.666666666666667,4.658227848101266,0.015238095234543943,0.013663282698265743,4.301770603157181e-05,-0.008670413379842905,0.014515095213817426
6.767676767676767,4.658227848101266,0.014963835187347339,0.013748994149832673,-2.3079991151507944e-05,-0.008613848801154003,0.014394968539538502
6.8686868686868685,4.658227848101266,0.015298362158285915,0.01391477185674116,0.00012604411928105112,-0.008763940204508122,0.014657257679965088
6.96969696969697,4.658227848101266,0.015410718377667878,0.013928390237897144,-7.116086123856837e-06,-0.008801732584669507,0.014725622161406042
7.070707070707071,4.658227848101266,0.01528893690073819,0.01379024093225066,-2.204986897160732e-05,-0.008723753349896654,0.014597454286802309
7.171717171717171,4.658227848101266,0.015685549658952795,0.013933248221710649,6.099486395739511e-05,-0.008885639364199033,0.014887322739143078
7.2727272727272725,4.658227848101266,0.015532576458766057,0.014010526340680406,1.562644442423916e-05,-0.008862930839833938,0.014830271094401302
7.373737373737374,4.658227848101266,0.015847198873923912,0.013964803964481578,-4.907228179318506e-05,-0.008943600851521646,0.014995121223988694
7.474747474747475,4.658227848101266,0.015568597850565797,0.01401230119011474,-2.235226293906695e-05,-0.00887426971220416,0.014851782396608414
7.575757575757575,4.658227848101266,0.015795866538331843,0.013951868065786336,-5.312904653071765e-05,-0.008924320381235452,0.014959633831784818
7.6767676767676765,4.658227848101266,0.015634905235461044,0.01428200513863396,3.1360851118642976e-05,-0.008975073112228501,0.015004368900285444
7.777777777777778,4.658227848101266,0.015775076572904338,0.014424326339347412,4.412593046805719e-05,-0.009059820873675524,0.015145138493999961
7.878787878787879,4.658227848101266,0.015946857534813192,0.0141320023491316,-2.265014400814585e-05,-0.009023657965183438,0.015121384413317226
7.979797979797979,4.658227848101266,0.01611610009878636,0.014336823111866239,1.9954214563363986e-05,-0.00913587696319578,0.01530427056339668
8.080808080808081,4.658227848101266,0.01593936476265582,0.014565809589235663,5.058927277398787e-05,-0.009151552305567445,0.01529915304009362
8.181818181818182,4.658227848101266,0.016047940920070572,0.014577137775259564,-2.8383340291460625e-05,-0.00918752360859904,0.015365504369655385
8.282828282828282,4.658227848101266,0.016097539175180992,0.014665426160300114,3.597540431806381e-05,-0.009228889600644332,0.015431529493627453
8.383838383838384,4.658227848101266,0.016235008395339822,0.014710767048126752,-5.9026158299655495e-05,-0.009283732633039972,0.0155294298180864
8.484848484848484,4.658227848101266,0.016458922248439107,0.01494870684808946,7.394637050575601e-06,-0.00942228872895857,0.015758188929088212
8.585858585858587,4.658227848101266,0.016511010459764035,0.015076080766107097,1.4004368713284533e-06,-0.00947612736776134,0.015842359556923657
8.686868686868687,4.658227848101266,0.01666495313822656,0.01500649460546522,-5.7648421760858586e-05,-0.009501434323107533,0.015901037201881234
8.787878787878787,4.658227848101266,0.016478070228182415,0.015202510888003787,3.629338708071981e-05,-0.009504174334855859,0.015878886778278523
8.88888888888889,4.658227848101266,0.016891452449047148,0.015139063231589395,2.3496799936733086e-07,-0.009609154704190962,0.016087002046204956
8.98989898989899,4.658227848101266,0.016740250164380622,0.015103412148345487,1.6750643164850206e-05,-0.009553098693817832,0.015984835880981884
9.09090909090909,4.658227848101266,0.01693440902684749,0.015140980168477354,1.279854640292687e-05,-0.009622616758597453,0.0161127412229821
9.191919191919192,4.658227848101266,0.017196221902536616,0.015557437108236668,-3.6237776228334524e-05,-0.009826097703231984,0.01643833008183319
9.292929292929292,4.658227848101266,0.017379623613434994,0.01574364821711288,2.679217717899426e-05,-0.009936981549164363,0.016622191470302406
9.393939393939394,4.658227848101266,0.017474862999667235,0.01567330766739594,-9.035100422478891e-05,-0.009944451200118951,0.01664809285673607
9.494949494949495,4.658227848101266,0.01755269468843934,0.015885501375964853,-1.0582253240906552e-05,-0.010031458819321258,0.016781335617837595
9.595959595959595,4.658227848101266,0.017958486836932467,0.01617534841800813,-6.045890879076643e-07,-0.01024015057648218,0.017136638099849784
9.696969696969697,4.658227848101266,0.018243943158086945,0.016260308623701578,-5.761974194599315e-05,-0.010351275534536556,0.017337730887684078
9.797979797979798,4.658227848101266,0.01816111547573775,0.01620453055746993,-7.177129850492396e-05,-0.010309693809962304,0.017266616014280065
9.8989898989899,4.658227848101266,0.018360481905085022,0.016481301582193155,1.7707484964562535e-05,-0.010452535046183454,0.01749676823939558
10.0,4.658227848101266,0.018839595276392684,0.016712773376231827,3.163388207513536e-05,-0.010665710595787354,0.01787143698354354
0.0,4.7594936708860756,0.01849796126616123,0.016872489550252792,6.925790037198114e-07,-0.010611135244924205,0.017741161684131666
0.10101010101010101,4.7594936708860756,0.018244765865568186,0.01653240113265431,5.488831593906312e-05,-0.010433150099466748,0.017451963185302084
0.20202020202020202,4.7594936708860756,0.01822856458803324,0.0164199844432951,6.39697756769938e-05,-0.010394564709398502,0.0173952863010543
0.30303030303030304,4.7594936708860756,0.018116951848010085,0.016277328596138986,4.25198005370677e-05,-0.010318284133244721,0.017270935582637828
0.40404040404040403,4.7594936708860756,0.01774394207331555,0.016020968879993505,-2.2871483008317406e-05,-0.010129473285992716,0.01694831406671788
0.5050505050505051,4.7594936708860756,0.01773092101650435,0.015926406707708802,4.616240363110915e-05,-0.010097198317263944,0.01690125806572649
0.6060606060606061,4.7594936708860756,0.017476496395136387,0.015758670513751107,-1.229985995979696e-05,-0.009970550072666246,0.016684056102882643
0.7070707070707071,4.7594936708860756,0.017285794886265412,0.015582097877282734,-2.1334864873611208e-05,-0.009860367829064442,0.016500087782560888
0.8080808080808081,4.7594936708860756,0.017359339469630048,0.015654501374731303,-1.639651603932916e-05,-0.009904152253308403,0.016572841731543313
0.9090909090909091,4.7594936708860756,0.017129670962658345,0.01547131648415125,-2.6183255357385085e-05,-0.009780296234042878,0.01636370242327912
1.0101010101010102,4.7594936708860756,0.01682180764293537,0.015234440210285305,3.0267452958602314e-05,-0.0096168743559662,0.016087054002755855
1.1111111111111112,4.7594936708860756,0.01687798836360992,0.01528752926300796,3.107237073515197e-05,-0.009649655287985363,0.016141722263648055
1.2121212121212122,4.7594936708860756,0.016637256437545694,0.01503841045599217,-1.2410437599733218e-05,-0.009502700068061358,0.01589825970661645
1.3131313131313131,4.7594936708860756,0.016611148046977494,0.014984481983266617,-1.493991332564935e-05,-0.009478689009073234,0.015860522082112177
1.4141414141414141,4.7594936708860756,0.01654578114749776,0.01480721435630066,-5.337616453146965e-05,-0.009405898651139525,0.01574890757086698
1.5151515151515151,4.7594936708860756,0.01636416836626873,0.014733755310211266,3.565538056797975e-05,-0.009329377102943999,0.015613062262591413
1.6161616161616161,4.7594936708860756,0.016270031322723474,0.01461884991622507,-4.083091119109285e-05,-0.009266664371684562,0.015510659159631722
1.7171717171717171,4.7594936708860756,0.016271542148863654,0.014561395818986193,-3.695023303673554e-05,-0.009249881390354953,0.01548757767514593
1.8181818181818181,4.7594936708860756,0.015946451108803442,0.014428399276700907,-2.1241266124094663e-05,-0.009112455115651305,0.01524426444874647
1.9191919191919191,4.7594936708860756,0.016112985468735273,0.014379905913163368,-2.4224518717817903e-05,-0.009147867414569591,0.015320200398442719
2.0202020202020203,4.7594936708860756,0.016142706978358776,0.014560688074645617,-3.397756757780877e-05,-0.009211018515901318,0.015412824797203416
2.121212121212121,4.7594936708860756,0.01576872241208065,0.014263895487594784,1.5929611360369436e-05,-0.00900978536990263,0.015072779232411779
2.2222222222222223,4.7594936708860756,0.015784045781743493,0.014186007668074273,6.020699209674465e-06,-0.008991016034945329,0.01504880158192821
2.323232323232323,4.7594936708860756,0.01573533353841811,0.014155711229114793,7.23018975241777e-05,-0.00896731343025987,0.015008521812518959
2.4242424242424243,4.7594936708860756,0.01572279200111324,0.014243459411388899,3.98364115315558e-05,-0.008989875423750642,0.015037956491213764
2.525252525252525,4.7594936708860756,0.015573513837039067,0.013927962398010899,-6.868251758512927e-05,-0.008850442870514988,0.014819895631560153
2.6262626262626263,4.7594936708860756,0.015589594121615211,0.014020371067364581,-6.172224761600716e-05,-0.008882989556693937,0.014867608559421881
2.727272727272727,4.7594936708860756,0.015481057730856701,0.01395128561533133,6.52544794184185e-05,-0.008829703003856408,0.014776117054128478
2.8282828282828283,4.7594936708860756,0.015532226877150033,0.014006975161904935,-6.360149977634534e-05,-0.00886176061171649,0.014828959650781045
2.929292929292929,4.7594936708860756,0.015298988596431234,0.014084029628024044,-4.443507365900802e-05,-0.008814905467336582,0.014729340018927046
3.0303030303030303,4.7594936708860756,0.015264500129587638,0.013817117528306036,5.049852457392944e-05,-0.008724485297368101,0.01459499773891042
3.131313131313131,4.7594936708860756,0.015360303351540929,0.013843281348680608,5.084321805390526e-05,-0.008761075410066462,0.014661040609455092
3.2323232323232323,4.7594936708860756,0.015282577363824481,0.013685606195403214,6.098088641260574e-05,-0.008690455067768308,0.01455035423521974
3.3333333333333335,4.7594936708860756,0.015282278997679909,0.013623662003429099,-2.909549995059493e-06,-0.0086717823003327,0.014524174311696876
3.4343434343434343,4.7594936708860756,0.015235321120847925,0.01389487809341698,-5.888919645502503e-05,-0.008739059764279472,0.014611643337092802
3.5353535353535355,4.7594936708860756,0.015289136985690814,0.013809505665320207,3.79451246031599e-05,-0.008729592795303305,0.014605788310235745
3.6363636363636362,4.7594936708860756,0.015206575585483889,0.013673334800804827,-5.775387053580449e-05,-0.008663973115886615,0.014501221775648932
3.7373737373737375,4.7594936708860756,0.015190917196750543,0.013735651096319548,-5.611552471538776e-05,-0.008677970487921027,0.014518415365564245
3.8383838383838382,4.7594936708860756,0.01488549591983223,0.013595389711986837,5.044139186217877e-05,-0.00854426568954572,0.014284471467851702
3.9393939393939394,4.7594936708860756,0.01509561403486369,0.01370041430934796,4.09926631716891e-05,-0.008638808503263495,0.014448798912055676
4.040404040404041,4.7594936708860756,0.01515913618498618,0.013521060385134509,-5.154794586249959e-05,-0.008604058971036206,0.014410373334577538
4.141414141414141,4.7594936708860756,0.015098310807673786,0.013606227068392898,1.2232346394795457e-05,-0.008611361362820005,0.014410336844581442
4.242424242424242,4.7594936708860756,0.01499548104087325,0.013510675182633483,5.583561576941364e-05,-0.008551846867052019,0.01431129186465028
4.343434343434343,4.7594936708860756,0.014979839692555091,0.013607353662398588,-1.5874177140183875e-06,-0.008576158006486104,0.01434293212579956
4.444444444444445,4.7594936708860756,0.014995015540260078,0.013566759806934489,-4.66763416536145e-05,-0.008568532604158371,0.014334581424595084
4.545454545454545,4.7594936708860756,0.014914103835013017,0.013729336355111388,-1.6656442887940336e-05,-0.008593032057037321,0.014358455845899721
4.646464646464646,4.7594936708860756,0.015076854937046165,0.013617532547409276,3.96983964385111e-05,-0.008608316245336632,0.014402913335250244
4.747474747474747,4.7594936708860756,0.015022908954351724,0.013592010770120774,5.500711265834836e-06,-0.008584475917341749,0.014361027146175903
4.848484848484849,4.7594936708860756,0.015006247442505975,0.01337244520477433,0.00012291266192140002,-0.008513607794184091,0.014261306180486934
4.94949494949495,4.7594936708860756,0.01500158679462102,0.013301059888537853,-8.091249975873588e-06,-0.008490794004947661,0.014227754304233824
5.05050505050505,4.7594936708860756,0.014987102815626836,0.013328770807648911,-1.3876131332706404e-05,-0.008494762086982724,0.014230611413073796
5.151515151515151,4.7594936708860756,0.015091758024492074,0.013594844552347895,-2.6530267497383753e-05,-0.008605980773051991,0.01440183897538734
5.252525252525253,4.7594936708860756,0.014852569315165338,0.01340938819053821,1.559499300180676e-05,-0.008478587251711063,0.01418616822626281
5.353535353535354,4.7594936708860756,0.014840052852530053,0.01341499259596573,2.6490684300528235e-05,-0.008476513634548734,0.0141813998302119
5.454545454545454,4.7594936708860756,0.015020991196329266,0.013344210972665235,7.61578019504775e-05,-0.00850956065069835,0.014257358363077973
5.555555555555555,4.7594936708860756,0.015069819125816333,0.013535357965869577,2.6571514775602662e-05,-0.008581553127505774,0.014364264183605415
5.656565656565657,4.7594936708860756,0.01520460527182114,0.013422500253730043,6.125100435012345e-05,-0.008588131657665355,0.014396908399756929
5.757575757575758,4.7594936708860756,0.014958352539165323,0.013513745325925808,2.635457572737716e-05,-0.008541629359527339,0.014290988083447021
5.858585858585858,4.7594936708860756,0.015078190301938204,0.013545599274688064,-7.551250662535654e-05,-0.00858713687298788,0.014373902229051124
5.959595959595959,4.7594936708860756,0.015031688621398002,0.013483019471853954,7.5740842707069e-05,-0.008554412427975586,0.014320898593931396
6.0606060606060606,4.7594936708860756,0.015164366958425062,0.013647994481043943,-3.6547638448981584e-05,-0.0086437084318407,0.014466049538035528
6.161616161616162,4.7594936708860756,0.015030357229085007,0.013497354877957484,3.066952977337226e-05,-0.008558313632112747,0.014325605869636583
6.262626262626262,4.7594936708860756,0.015472945856250345,0.013563770661166749,9.19560053441342e-05,-0.008711014955225128,0.014613069721763086
6.363636363636363,4.7594936708860756,0.015030789029581751,0.013649769912185021,4.33305034041498e-05,-0.00860416768253003,0.014390262619305344
6.4646464646464645,4.7594936708860756,0.015335117462588015,0.01367262072148103,-1.1457772022633019e-06,-0.008702321455220713,0.014575155029636357
6.565656565656566,4.7594936708860756,0.015092109883255081,0.013835135699494116,7.836201226740269e-05,-0.00867817367482476,0.014505164395485206
6.666666666666667,4.7594936708860756,0.015326266304828192,0.013679904786884746,-2.0375791663650183e-05,-0.008701851327513882,0.014573044141664857
6.767676767676767,4.7594936708860756,0.015276224970714082,0.01377969422130967,-4.083024265122475e-05,-0.008716775757607124,0.014585825810094988
6.8686868686868685,4.7594936708860756,0.01528403491493843,0.01377482561293545,-4.494858064238146e-06,-0.008717658158362165,0.014588100936852368
6.96969696969697,4.7594936708860756,0.015282472464056266,0.013952806397900462,-5.406881701764045e-05,-0.008770583658587018,0.014663224806659318
7.070707070707071,4.7594936708860756,0.015397952624369778,0.013841892739055858,1.2293653148858563e-05,-0.00877195360902769,0.014681913512754271
7.171717171717171,4.7594936708860756,0.01544013477300469,0.013947705268607608,-7.177496182264108e-05,-0.008816352012483689,0.01475117791508454
7.2727272727272725,4.7594936708860756,0.015509893113903174,0.013975784109987148,9.809301142289531e-05,-0.008845703167167096,0.014803556156594717
7.373737373737374,4.7594936708860756,0.015509479233996145,0.014073225021275641,-7.206049340460028e-05,-0.008874811276581535,0.014844082845717215
7.474747474747475,4.7594936708860756,0.01559611376260876,0.014037508810032148,-2.5680786595065648e-05,-0.008890086771792273,0.014878232833622442
7.575757575757575,4.7594936708860756,0.01568830700229222,0.014289835782174,-1.9971427575935672e-05,-0.008993442835339866,0.01503796027027414
7.6767676767676765,4.7594936708860756,0.015907676000219143,0.014147571640477485,-4.063650469106534e-05,-0.009016574292208987,0.0151048967947592
7.777777777777778,4.7594936708860756,0.01600058078125138,0.014067212741444873,-1.875146410864516e-05,-0.009020338056808876,0.015126881392610352
7.878787878787879,4.7594936708860756,0.015933823110316783,0.01434333572819947,-3.8316835770451744e-05,-0.009083147651554876,0.015201257479478529
7.979797979797979,4.7594936708860756,0.01592799094565105,0.014243906270972865,0.0001224727947728431,-0.009051569164987174,0.015157768637323316
8.080808080808081,4.7594936708860756,0.01598145714547496,0.014433634881981457,-1.3790940824943107e-05,-0.009124527608236925,0.015266526836492048
8.181818181818182,4.7594936708860756,0.016165565372843013,0.01428365425889121,2.1613304292573565e-05,-0.009134765889520266,0.015311640589132702
8.282828282828282,4.7594936708860756,0.016133191836843738,0.014670267852426894,3.685908564266878e-05,-0.009241037906781189,0.0154538819693257
8.383838383838384,4.7594936708860756,0.01629302677887459,0.014619419951393682,8.377046205378534e-06,-0.00927373401908048,0.015524038491879966
8.484848484848484,4.7594936708860756,0.016478431321428236,0.01459746567867408,-1.1523935672022844e-05,-0.009322769100030694,0.015623116392238724
8.585858585858587,4.7594936708860756,0.01633777698417556,0.014852462229028522,5.8506526158999296e-05,-0.009357071763961224,0.015648407092302592
8.686868686868687,4.7594936708860756,0.016631687438828844,0.015001578938698412,-8.51947000676627e-05,-0.009489979913258175,0.015880195217008702
8.787878787878787,4.7594936708860756,0.016628480301849973,0.014990020907413547,4.62695710835226e-05,-0.009485550362779054,0.015873003470990837
8.88888888888889,4.7594936708860756,0.016987731472953013,0.015177882684052346,-3.3477724251410883e-05,-0.009649684247101609,0.0161591061100982
8.98989898989899,4.7594936708860756,0.016833111327372575,0.015204176510413737,-8.13191623093659e-05,-0.009611186351335893,0.01608125812544511
9.09090909090909,4.7594936708860756,0.017034923355789936,0.015212680394331997,6.115668030013568e-06,-0.00967428112503658,0.016200849550821187
9.191919191919192,4.7594936708860756,0.01715894771736503,0.01546577894137811,4.224492079478511e-05,-0.00978741799762294,0.01637829864996386
9.292929292929292,4.7594936708860756,0.017379612537782318,0.015526956328618419,4.139057704918909e-05,-0.009871970659920222,0.01653148388534478
9.393939393939394,4.7594936708860756,0.017505541950954072,0.015746432735687037,2.3832400563726602e-05,-0.009975592405992332,0.016695688306075714
9.494949494949495,4.7594936708860756,0.017574073122295485,0.015814772082878306,-3.244308327923648e-05,-0.010016653561552138,0.016763897482542447
9.595959595959595,4.7594936708860756,0.018016006512185958,0.016003526893137745,-2.175658047898131e-05,-0.01020586002159711,0.017098863675349293
9.696969696969697,4.7594936708860756,0.017850864482391475,0.01604768698386768,-0.0001285745427616802,-0.010169565439877746,0.017022518290052774
9.797979797979798,4.7594936708860756,0.01809845935324692,0.016296103801759162,2.2659359289576536e-05,-0.010318368946501824,0.017268016624560557
9.8989898989899,4.7594936708860756,0.01856802362920797,0.016558814929935106,-3.7713960358071756e-05,-0.010538051567742922,0.017649522756051174
10.0,4.7594936708860756,0.018640171248638926,0.016714603653398438,-2.497681214253876e-05,-0.01060643247061121,0.017755921731629352
0.0,4.860759493670886,0.018678948448916877,0.016547062569746872,4.427996738812058e-05,-0.010567803305599125,0.01770967386118796
0.10101010101010101,4.860759493670886,0.018435916847221383,0.016521590414431356,1.1559467334968069e-06,-0.010487252178495821,0.017557201279367492
0.20202020202020202,4.860759493670886,0.018221977328233937,0.016405340488775202,-5.749750428999763e-05,-0.010388195345102741,0.01738527623432821
0.30303030303030304,4.860759493670886,0.017893405296715095,0.016088334312322733,6.192286731305487e-05,-0.010194521882711348,0.017062967824579136
0.40404040404040403,4.860759493670886,0.018038683886386825,0.016098600176147147,2.4384872881783634e-05,-0.01024118521876019,0.017151188537814614
0.5050505050505051,4.860759493670886,0.017640065898518617,0.015802089941247724,1.904978239940512e-05,-0.010032646751929901,0.016796700634352638
0.6060606060606061,4.860759493670886,0.01761397964144474,0.015822874870249685,3.1029331538340764e-05,-0.010031056353508327,0.01679031686995068
0.7070707070707071,4.860759493670886,0.017249635312306624,0.015662455733537074,4.935164025167986e-05,-0.009873627313753108,0.01651357306179102
0.8080808080808081,4.860759493670886,0.017192519610293822,0.015347640351476574,6.0925333053022834e-05,-0.00976204798853112,0.01634867954553929
0.9090909090909091,4.860759493670886,0.01713797230913416,0.0155465660012987,2.1232297803014737e-05,-0.009805361493129857,0.016400321463325415
1.0101010101010102,4.860759493670886,0.01682345037740842,0.0152363810212415,-5.4392952055248816e-05,-0.009617949419594976,0.01608900758167289
1.1111111111111112,4.860759493670886,0.01678108857458779,0.015112215336929333,-0.00011206821136155991,-0.009567991173455137,0.01601318955931707
1.2121212121212122,4.860759493670886,0.01659790937571907,0.015049840713433366,-9.287720440789417e-05,-0.00949432502674573,0.015881381784625077
1.3131313131313131,4.860759493670886,0.016580253302741696,0.014871100921356564,-1.2378494509774322e-05,-0.009435406267229478,0.01579519805861581
1.4141414141414141,4.860759493670886,0.016344427954092664,0.014919459873992591,-2.0265375973027637e-05,-0.009379166348425576,0.01568061870941776
1.5151515151515151,4.860759493670886,0.016432259791073215,0.014802945851962405,4.099037607269922e-05,-0.009370561692910685,0.01568137610216681
1.6161616161616161,4.860759493670886,0.016317442412188223,0.01461431492915122,-4.292166550311296e-05,-0.009279527202401832,0.015536229023852353
1.7171717171717171,4.860759493670886,0.016125499261380828,0.01465698795881601,-7.706391758346946e-05,-0.00923474616605905,0.015444273712023358
1.8181818181818181,4.860759493670886,0.016066579126173357,0.014346208759951826,-3.520766512985782e-05,-0.009123836365837554,0.01527932888376948
1.9191919191919191,4.860759493670886,0.016059851251386547,0.014473763445996529,-2.5477679961343563e-06,-0.009160084409214923,0.015328476179654403
2.0202020202020203,4.860759493670886,0.016035206354191325,0.014469006239505151,3.189663596854586e-05,-0.009151263778108943,0.015312398106630728
2.121212121212121,4.860759493670886,0.01585458806086503,0.014303543197251498,4.667904170612988e-05,-0.00904743937743496,0.01513899145157816
2.2222222222222223,4.860759493670886,0.015822306524057014,0.014278898691757172,1.8582291921544794e-05,-0.009030361564744255,0.01510987278465515
2.323232323232323,4.860759493670886,0.015920139017453778,0.014090492239721206,2.035383888832288e-05,-0.009003189377152495,0.015088785419915512
2.4242424242424243,4.860759493670886,0.015600991439382497,0.014170203474328591,-2.5558114102869123e-05,-0.008931358474113325,0.014937146211704598
2.525252525252525,4.860759493670886,0.015615699756037394,0.014252127803309853,-6.288122883923799e-05,-0.008960348267804175,0.014980925848499674
2.6262626262626263,4.860759493670886,0.015503691701658665,0.014067966180036041,6.428421465110986e-05,-0.00887149736450841,0.014838433734017822
2.727272727272727,4.860759493670886,0.015620358737038232,0.013891199173246618,1.0018868576634051e-05,-0.008853467373085453,0.014831581449865544
2.8282828282828283,4.860759493670886,0.015550746150053633,0.013895080040659726,5.145129590435823e-05,-0.008833747857214008,0.014792837267418398
2.929292929292929,4.860759493670886,0.015630281573795816,0.013864299333242883,3.07981405865614e-05,-0.00884837427211161,0.01482647770889347
3.0303030303030303,4.860759493670886,0.015332275045121897,0.013687688880083553,2.525358285778071e-05,-0.008705989177561635,0.014579780091828356
3.131313131313131,4.860759493670886,0.015436623467585096,0.01375620536794827,5.802890125450476e-05,-0.008757848650660009,0.014669126410850776
3.2323232323232323,4.860759493670886,0.015451210410208999,0.013917539619528841,1.3640727619807659e-05,-0.008810625008921352,0.014744339163092245
3.3333333333333335,4.860759493670886,0.015242803807907305,0.013741514469367415,-6.094245372988119e-05,-0.008695295483182415,0.01455074639687258
3.4343434343434343,4.860759493670886,0.01540790795414714,0.013676911305113405,0.00010516089403250737,-0.008725445777778163,0.014620605880950656
3.5353535353535355,4.860759493670886,0.015095079410364132,0.013793512610753636,-3.606331320495946e-05,-0.00866657760633533,0.014488345179098663
3.6363636363636362,4.860759493670886,0.015423378447785496,0.013755753005841288,9.194391079391531e-05,-0.008753739436088035,0.014661736599263024
3.7373737373737375,4.860759493670886,0.015432331897765455,0.013416555179429572,1.0579274817877674e-05,-0.008654666123158508,0.014529708324498234
3.8383838383838382,4.860759493670886,0.015063610372740111,0.01363321454374182,8.168075638383232e-06,-0.008609047474944578,0.014401793790875332
3.9393939393939394,4.860759493670886,0.01512204528567611,0.013648677143312155,-5.769271324027954e-05,-0.00863121672869648,0.01444218518373016
4.040404040404041,4.860759493670886,0.015124356419646143,0.013543213510625776,4.668297280125638e-05,-0.008600270979081575,0.014399268696731284
4.141414141414141,4.860759493670886,0.015094445290711597,0.013703404727258369,-4.351958109423483e-05,-0.00863935500539099,0.014449427970098617
4.242424242424242,4.860759493670886,0.015083312920439748,0.013444085971506686,1.1251699607411817e-05,-0.00855821966758393,0.014334182935551998
4.343434343434343,4.860759493670886,0.014916486589121185,0.013418278134748298,4.0195529466252794e-05,-0.008500429417160844,0.014226842287049948
4.444444444444445,4.860759493670886,0.015113646083682089,0.013614723344429154,2.0446588537971816e-05,-0.008618510828433373,0.014422764427187488
4.545454545454545,4.860759493670886,0.015244306545088446,0.013622568705260355,4.430429932828288e-05,-0.00866006257510464,0.014501811456106599
4.646464646464646,4.860759493670886,0.014996611890230003,0.013400511349235006,-2.1806495563549002e-05,-0.008519136971839501,0.014265736270582413
4.747474747474747,4.860759493670886,0.014784722334218098,0.013473275147463996,-6.231592603988329e-05,-0.008477399244504628,0.01417498414585838
4.848484848484849,4.860759493670886,0.015179539716869257,0.013488326794210928,1.2658849955393332e-05,-0.008600359953324055,0.014408583350768726
4.94949494949495,4.860759493670886,0.015018951628183544,0.01329287500344473,-5.529970958078644e-05,-0.008493547989488483,0.01423494156518865
5.05050505050505,4.860759493670886,0.014895384469059695,0.013578855601819696,6.17824798565689e-08,-0.008542272021263817,0.014282700133681894
5.151515151515151,4.860759493670886,0.014994812174559625,0.01343849727678735,-2.209957695110714e-05,-0.008529992835404093,0.014280452507140294
5.252525252525253,4.860759493670886,0.015046574633965647,0.013465240263651418,-1.4170591777885985e-05,-0.00855354446928512,0.014321555900078085
5.353535353535354,4.860759493670886,0.01512414105268103,0.013566672579999982,-2.020202546862784e-05,-0.008607244089804305,0.014408719655970627
5.454545454545454,4.860759493670886,0.01510925452707204,0.013615604369750697,-2.4355061861165506e-05,-0.00861745766904682,0.014420624198073342
5.555555555555555,4.860759493670886,0.015100599948896497,0.013602011447071372,6.719598299676947e-05,-0.00861078341879036,0.01441033819036634
5.656565656565657,4.860759493670886,0.01505684094118182,0.01355717709211194,1.5822523058596824e-05,-0.008584205409988128,0.014365862375934074
5.757575757575758,4.860759493670886,0.014992007258445282,0.013260640132736692,1.8061101771348742e-05,-0.008475794217354593,0.014205710959181005
5.858585858585858,4.860759493670886,0.015078398121780847,0.013639397124251737,-3.336616080716129e-06,-0.008615338573809774,0.014412876786070533
5.959595959595959,4.860759493670886,0.015233172854125579,0.013773508019527458,1.9945167713665665e-05,-0.008702004262095912,0.014558366780915172
6.0606060606060606,4.860759493670886,0.015141514190987483,0.013434005736309228,3.427386044500096e-05,-0.008572655978189013,0.014364201951847537
6.161616161616162,4.860759493670886,0.015177590904987277,0.013817104686669732,9.712690215195883e-05,-0.008698408677497103,0.01454611927908102
6.262626262626262,4.860759493670886,0.015030762729597236,0.013496182587590212,9.396265048895955e-05,-0.008558083595156234,0.014326176788686265
6.363636363636363,4.860759493670886,0.01515189162515369,0.01364317474210123,-2.7594423784170876e-05,-0.008638519910176477,0.014456777514551142
6.4646464646464645,4.860759493670886,0.015309650084882904,0.013851209002098352,-4.321435849476896e-06,-0.008748257726094376,0.014635035684653559
6.565656565656566,4.860759493670886,0.015251547634453123,0.013625523002697487,-1.0273011962447209e-05,-0.008663121191145182,0.014507052968379825
6.666666666666667,4.860759493670886,0.015214247980689904,0.013772567868513566,5.3289671916522724e-05,-0.00869604475476104,0.01454737858844991
6.767676767676767,4.860759493670886,0.015226426753676397,0.013675483478671887,2.6044398735653253e-05,-0.008670573069704484,0.014513311389324884
6.8686868686868685,4.860759493670886,0.015346523161152608,0.013851183086780117,-1.559843682017258e-05,-0.008759311874379817,0.01465620257509954
6.96969696969697,4.860759493670886,0.015493410035965946,0.013794380214626036,-2.4619327489175114e-05,-0.008786337075177595,0.014717693757001382
7.070707070707071,4.860759493670886,0.015521554219572076,0.013900496915680174,-2.2433760849783313e-05,-0.008826615340575675,0.01477791098765665
7.171717171717171,4.860759493670886,0.015578461013677656,0.013839927229743487,2.7924835675703837e-05,-0.008825516473026342,0.014786128833738659
7.2727272727272725,4.860759493670886,0.015540029134830392,0.013895030447691886,-2.042766383575669e-05,-0.008830517874756683,0.014786360286951081
7.373737373737374,4.860759493670886,0.015524027636275249,0.013959873238192337,-3.1007697178958204e-05,-0.008845170262340276,0.01480415216625026
7.474747474747475,4.860759493670886,0.01569247588228512,0.014276767603550013,8.359651486639856e-06,-0.008990773045750541,0.015034702221111536
7.575757575757575,4.860759493670886,0.015606072904715348,0.014306379154357899,-8.325497654734247e-05,-0.008973735617721973,0.014999213116143365
7.6767676767676765,4.860759493670886,0.015802793877330443,0.014120142447952452,9.41684022398951e-06,-0.008976880897584869,0.01503227469436891
7.777777777777778,4.860759493670886,0.01563233239270435,0.01434227807435984,4.1423324118021315e-05,-0.008992383140119258,0.015029060048672738
7.878787878787879,4.860759493670886,0.015809045368121527,0.014170352953534235,-4.53276338421113e-05,-0.008993819496496728,0.015056932932623189
7.979797979797979,4.860759493670886,0.015875164750105454,0.01424034487307076,3.990375657255051e-05,-0.009034652886952864,0.015124325899623805
8.080808080808081,4.860759493670886,0.016136393740684676,0.014351874183897327,4.475928401884649e-05,-0.0091464803773746,0.01532246758773563
8.181818181818182,4.860759493670886,0.015921423252941783,0.014612553708425518,-2.6716601074331065e-07,-0.009160193088410191,0.015309010160584582
8.282828282828282,4.860759493670886,0.0163346936718332,0.014661720722975726,-3.8907714918987724e-05,-0.009298924318442679,0.015565927425959136
8.383838383838384,4.860759493670886,0.0162325978030996,0.0146911886632378,-7.089517545939653e-05,-0.00927713593990122,0.015519896176648715
8.484848484848484,4.860759493670886,0.01636728232427392,0.014740540523982227,5.275692366901719e-05,-0.009332346854476843,0.015617849632142675
8.585858585858587,4.860759493670886,0.016437049272427548,0.01472882817728442,-6.992412823612525e-05,-0.009349763234913589,0.01565347124238467
8.686868686868687,4.860759493670886,0.016377690810817497,0.014867012640956611,-5.07795595832845e-05,-0.009373411035532233,0.015677283582879124
8.787878787878787,4.860759493670886,0.01657653628038027,0.01500046504515853,1.567053214879862e-05,-0.00947310039766164,0.01584741273138531
8.88888888888889,4.860759493670886,0.016834825764708312,0.0152597306632051,8.529342679760988e-05,-0.009628366928374023,0.016105826784619866
8.98989898989899,4.860759493670886,0.016950782208766908,0.015385168357063045,1.319153435978496e-05,-0.009700785169748986,0.01622474366047646
9.09090909090909,4.860759493670886,0.017157034733090812,0.015428478461813071,8.428069013279278e-06,-0.009775653958471164,0.016361389327562797
9.191919191919192,4.860759493670886,0.017255456817363336,0.015494761058775099,-9.20820764398259e-05,-0.00982506536284153,0.01644672208149003
9.292929292929292,4.860759493670886,0.01733109729733152,0.015477256664584037,-3.625939812173996e-05,-0.009842506188574667,0.016482673037864968
9.393939393939394,4.860759493670886,0.01746633863943317,0.015820268349888044,-2.5074368997022317e-05,-0.009985982096796365,0.016704298786118385
9.494949494949495,4.860759493670886,0.017606173157782568,0.016131431001618343,6.825035314187653e-07,-0.010121281247820274,0.016917081111170316
9.595959595959595,4.860759493670886,0.017839738907707105,0.016019595414797232,-1.660383888727245e-05,-0.0101578002967513,0.017002915897112003
9.696969696969697,4.860759493670886,0.017920899061557024,0.016238137431721835,-6.593707998560175e-05,-0.010247710947983657,0.01714195880463999
9.797979797979798,4.860759493670886,0.01841640519814252,0.016398571614554266,-5.600528752193723e-05,-0.010444493043809034,0.017495250831929716
9.8989898989899,4.860759493670886,0.018500998996650815,0.016664610812860213,-3.1325746029244304e-05,-0.010549682942853309,0.01765466548527504
10.0,4.860759493670886,0.018578749575474337,0.016835174989932096,9.591341506014542e-07,-0.010624177369621929,0.017771228300047265
0.0,4.962025316455696,0.018649354614852075,0.016708149071258546,-2.3558333858188898e-05,-0.010607251105833188,0.017758551205981663
0.10101010101010101,4.962025316455696,0.01831230762638533,0.01653054428393113,5.324672134415841e-06,-0.010452855573094937,0.017489630579970692
0.20202020202020202,4.962025316455696,0.018267894457590323,0.016499758743542682,-5.580592893329759e-05,-0.010430295960339902,0.01745140390086551
0.30303030303030304,4.962025316455696,0.017920509221830628,0.016331730715253217,-7.572626403282872e-05,-0.010275671981125153,0.017181802915739234
0.40404040404040403,4.962025316455696,0.017761767824602745,0.016111957440022025,0.00010898564339576562,-0.010162117579387432,0.016998069159937595
0.5050505050505051,4.962025316455696,0.017745201575649433,0.01583957968815075,-5.483053756096455e-05,-0.010075434379140056,0.01687355766818187
0.6060606060606061,4.962025316455696,0.01750921539401997,0.0158180520118318,7.529869529823356e-05,-0.009998180221755531,0.01672838076607443
0.7070707070707071,4.962025316455696,0.01735065960822806,0.015692321775248062,2.5485479051357076e-05,-0.009912894415042837,0.016583852582627914
0.8080808080808081,4.962025316455696,0.017259029877327758,0.01568210189145944,-6.878067612948567e-05,-0.009882339530636159,0.01652751521859344
0.9090909090909091,4.962025316455696,0.01700159388185328,0.015566923681293048,-4.335455796637648e-05,-0.009770555268943897,0.01633176144378229
1.0101010101010102,4.962025316455696,0.01697901870938447,0.015349079167320605,2.057633140874321e-05,-0.009698429363011523,0.01622560554866246
1.1111111111111112,4.962025316455696,0.016710664134108547,0.015162126008297817,1.6808036070986293e-06,-0.009561837042721908,0.01599272253514355
1.2121212121212122,4.962025316455696,0.0167374866245313,0.014970338544713906,2.299864279457289e-05,-0.009512347550773563,0.015927656459930568
1.3131313131313131,4.962025316455696,0.016312513459318168,0.014961865861432637,9.467784782835009e-05,-0.009382313796225242,0.015681733923881475
1.4141414141414141,4.962025316455696,0.016518211703661575,0.015076235173129296,-2.3623022197327222e-05,-0.009478334063037263,0.015846558450972176
1.5151515151515151,4.962025316455696,0.016616993170607015,0.014815283750527658,5.0343530807513475e-06,-0.0094296830763404,0.01579340690831648
1.6161616161616161,4.962025316455696,0.01623036028192104,0.014528085712329424,5.054194580572559e-06,-0.00922753379827514,0.015449721054525968
1.7171717171717171,4.962025316455696,0.016080991645315828,0.014427681315444241,3.083088724465301e-05,-0.00915260188822802,0.015321478694062892
1.8181818181818181,4.962025316455696,0.016114742870821222,0.01445333127389985,1.1031219104244526e-06,-0.009170422243416321,0.015351612594470774
1.9191919191919191,4.962025316455696,0.016181871690240233,0.014291950209874551,-8.714345100508343e-05,-0.009142146570034435,0.01532530879442887
2.0202020202020203,4.962025316455696,0.015985161187654674,0.014140999516715113,-0.00012846231130463694,-0.009037848211310935,0.015149145077992938
2.121212121212121,4.962025316455696,0.015875615154756717,0.014386411014924556,3.554324713655131e-05,-0.009078607850904382,0.015186001569486273
2.2222222222222223,4.962025316455696,0.015821142903082376,0.01422403813966687,0.00013011482733588125,-0.009013554312824773,0.015087812077858271
2.323232323232323,4.962025316455696,0.015732818636567107,0.01410148882567426,4.1448209126499104e-05,-0.00895029223867241,0.01498407678216906
2.4242424242424243,4.962025316455696,0.015785532157159388,0.014078758302638595,3.9015807786890104e-05,-0.008959287137939394,0.015005276925449387
2.525252525252525,4.962025316455696,0.01551682519713332,0.014028778441926654,2.7277198658214218e-06,-0.008863681091717993,0.014828904486837059
2.6262626262626263,4.962025316455696,0.015668630802188777,0.013961159331480387,-3.733763106893453e-05,-0.008888937040100749,0.014888649779441503
2.727272727272727,4.962025316455696,0.015439157743590528,0.013935570119476893,-2.2109384200861997e-05,-0.008812418358920226,0.01474502314475862
2.8282828282828283,4.962025316455696,0.01538168384083869,0.01392035256585892,1.7315754245830512e-05,-0.008790610922009282,0.014705606098434668
2.929292929292929,4.962025316455696,0.015488072999818041,0.014049661282264847,-5.035877490798985e-05,-0.008861320284624866,0.014821565904122955
3.0303030303030303,4.962025316455696,0.01539118675839892,0.013939831542521465,2.3874683946561083e-06,-0.008799305490276115,0.014719273070170234
3.131313131313131,4.962025316455696,0.01531052586464836,0.013785130881238037,4.205417389850788e-05,-0.008728697023765919,0.014607865635362273
3.2323232323232323,4.962025316455696,0.015225467142634879,0.013606200352587207,-5.221893269186655e-05,-0.008649500248566625,0.014484162447051238
3.3333333333333335,4.962025316455696,0.015365039307639628,0.01379053196341008,-4.5473816296025434e-05,-0.008746671381314913,0.014641630464944638
3.4343434343434343,4.962025316455696,0.01531914926251197,0.01368075096980046,1.2823617655200256e-05,-0.008699970069693728,0.014569224702457502
3.5353535353535355,4.962025316455696,0.015117921106334994,0.013631552297192425,-3.6388380240217274e-05,-0.008624842021058225,0.014432394006722379
3.6363636363636362,4.962025316455696,0.015174163178453205,0.013702403819265328,0.00012660208272880202,-0.00866297009931556,0.014496091589252719
3.7373737373737375,4.962025316455696,0.015094224199259322,0.013667401143588586,-1.9715751494920488e-05,-0.008628487602854373,0.014433842428380046
3.8383838383838382,4.962025316455696,0.015100641237459056,0.013623570357320916,1.2877388714273208e-05,-0.00861726347843399,0.014418976531139696
3.9393939393939394,4.962025316455696,0.014974217976328332,0.013527053322443935,-5.056834680039618e-05,-0.008550381389631679,0.014305907941694528
4.040404040404041,4.962025316455696,0.01490712064438482,0.0135550350572085,5.916479537316565e-05,-0.008538646710477996,0.014279537100016842
4.141414141414141,4.962025316455696,0.015017234723251041,0.013609363888345195,1.3566274381362481e-05,-0.00858797958347887,0.014365154519342857
4.242424242424242,4.962025316455696,0.015085664910720983,0.01371249632388802,1.2254540143659902e-05,-0.0086394483703827,0.014448119847260238
4.343434343434343,4.962025316455696,0.015196492124348525,0.013406951401286884,-2.0293467133341215e-05,-0.008581033057690623,0.014385490010948547
4.444444444444445,4.962025316455696,0.0150697705836234,0.0135275616477454,-3.7190035909428285e-05,-0.008579199669410639,0.014361051782009578
4.545454545454545,4.962025316455696,0.015141449990744007,0.01334581981233331,-1.1305023596593603e-05,-0.008546180940923194,0.014328284420063004
4.646464646464646,4.962025316455696,0.014949701635251791,0.01357684913950853,5.168954066505128e-05,-0.008557965232428097,0.01431302145542263
4.747474747474747,4.962025316455696,0.015055389553147093,0.013604299112757129,7.481663965503876e-05,-0.008597906599771266,0.014385425916356834
4.848484848484849,4.962025316455696,0.014845475392827694,0.013660451909087802,-8.078899295909261e-05,-0.00855177819057465,0.014290548062003574
4.94949494949495,4.962025316455696,0.014878429890412473,0.013623147681407374,-4.525128423198475e-05,-0.008550473271545954,0.014292407919065756
5.05050505050505,4.962025316455696,0.015195921662373912,0.01346001981440507,6.552785664395373e-05,-0.008596782443033694,0.014407069223109562
5.151515151515151,4.962025316455696,0.014996326979354657,0.013624349672419893,-4.9928982927019244e-05,-0.008586202995532364,0.01435983993676199
5.252525252525253,4.962025316455696,0.014894900471871008,0.01362109375260978,-8.466859697431213e-07,-0.008554798267344238,0.014300609129397708
5.353535353535354,4.962025316455696,0.015022289255026407,0.013620224316985034,-7.228071019351923e-06,-0.00859275407160343,0.014372643884602812
5.454545454545454,4.962025316455696,0.014880507914109713,0.013615335322698579,2.187682189482515e-05,-0.008548752971042487,0.01429003857569112
5.555555555555555,4.962025316455696,0.014894193774623395,0.013563143016753359,6.757045333460176e-05,-0.008537201037413027,0.014275765258050882
5.656565656565657,4.962025316455696,0.014967323970327993,0.013417029456353268,-7.575254794439808e-05,-0.008515306028004379,0.014256144465397835
5.757575757575758,4.962025316455696,0.014996625292341465,0.013559748080732988,-3.412405519106225e-05,-0.008566912011922336,0.014332430725455007
5.858585858585858,4.962025316455696,0.01518155221138445,0.013555826358829076,7.417740845540714e-05,-0.008621213571064058,0.014438073868991928
5.959595959595959,4.962025316455696,0.015123946671071458,0.013541641775474516,-6.89850634531352e-05,-0.008599676533963792,0.014398646938188289
6.0606060606060606,4.962025316455696,0.015061600156786224,0.013547060364991937,1.0292502315019384e-05,-0.008582598156533448,0.014364350145589427
6.161616161616162,4.962025316455696,0.015152108785913998,0.013663994944315801,-9.903340829861777e-05,-0.008644831119068939,0.014466590596954272
6.262626262626262,4.962025316455696,0.015091234800573318,0.013669687850419318,3.702628422752384e-05,-0.00862827679529779,0.01443320399529798
6.363636363636363,4.962025316455696,0.015102631302282895,0.013526036446178476,4.952524724733206e-05,-0.008588600324538412,0.014379560181678505
6.4646464646464645,4.962025316455696,0.015406360405038707,0.01366379290461555,5.0350339353183186e-05,-0.008721045992896276,0.014613468614667353
6.565656565656566,4.962025316455696,0.015305694496029589,0.013826035003614739,-8.894338685817596e-06,-0.008739518849893298,0.014622130398748804
6.666666666666667,4.962025316455696,0.015125080439800138,0.01371832925595592,-3.411937729026092e-05,-0.008653022908726818,0.014473191589451304
6.767676767676767,4.962025316455696,0.015281494429539844,0.013720390346653157,-6.797207228981626e-05,-0.0087005654328579,0.01456430483129669
6.8686868686868685,4.962025316455696,0.015214527612172927,0.013898513476901157,3.903395160179329e-05,-0.008733912326722226,0.014601225332650621
6.96969696969697,4.962025316455696,0.015241602099315294,0.013936336892730265,4.0262398798020006e-05,-0.008753381697613668,0.01463286308563007
7.070707070707071,4.962025316455696,0.015372447584094813,0.013921171886697833,7.289516880423379e-05,-0.008788085841237794,0.014701177755683277
7.171717171717171,4.962025316455696,0.015260211312864353,0.013758422476046658,-5.3068536045860675e-05,-0.008705590136673304,0.014567781328502937
7.2727272727272725,4.962025316455696,0.015481816156689216,0.013809668473124148,-2.7593357918186806e-05,-0.008787445388944009,0.014717238550135375
7.373737373737374,4.962025316455696,0.015629159943510794,0.014084617368097943,-2.830013530318321e-05,-0.00891413319348262,0.014917062447056737
7.474747474747475,4.962025316455696,0.015448045066860113,0.013956862129958395,2.48145333784629e-05,-0.008821472159045551,0.014759122907885067
7.575757575757575,4.962025316455696,0.015573042876719215,0.014065129303222896,4.629000953033745e-05,-0.008891451653982634,0.014876729927836004
7.6767676767676765,4.962025316455696,0.01573445829488224,0.0143490066404731,2.8211079357469094e-05,-0.009025039480606602,0.015089589472189522
7.777777777777778,4.962025316455696,0.015707381718653685,0.014189619047391081,5.216611639408269e-05,-0.00896910022981343,0.015006449621980139
7.878787878787879,4.962025316455696,0.0159634801104075,0.014276270240656357,-2.970507724192245e-05,-0.009071925105319158,0.01519040092811733
7.979797979797979,4.962025316455696,0.016021818312497268,0.014258111774732156,-7.791111091679739e-05,-0.009083979026168826,0.015217415927449865
8.080808080808081,4.962025316455696,0.016209180310626372,0.014399408624801805,-9.273848147497768e-06,-0.009182576680628452,0.015384347315807442
8.181818181818182,4.962025316455696,0.01622290972115337,0.01448314343878192,1.3306721190543553e-05,-0.009211815947980586,0.015426796375451286
8.282828282828282,4.962025316455696,0.016223599025058044,0.014501764903561058,-2.9703546915415103e-05,-0.009217609178585731,0.015434966102816146
8.383838383838384,4.962025316455696,0.016259840676772795,0.014685050510268931,-2.6921471694132733e-05,-0.009283467356112516,0.015532505270971764
8.484848484848484,4.962025316455696,0.016394571432154892,0.014737379033326085,-3.259165358045084e-05,-0.009339585139644294,0.015632097958335332
8.585858585858587,4.962025316455696,0.016543884717959253,0.014971333575915116,-8.105941708316905e-06,-0.009454565488162309,0.015816356437791532
8.686868686868687,4.962025316455696,0.016625977385831266,0.014894845656412931,-2.188104327664104e-06,-0.00945624691267326,0.015831557045248867
8.787878787878787,4.962025316455696,0.01668911484264672,0.015151204785261278,-4.35176135341247e-05,-0.009552095888372398,0.015975952095520145
8.88888888888889,4.962025316455696,0.01692695977076771,0.015133998969061984,-1.6142024958000082e-05,-0.009618287621948907,0.01610552954272273
8.98989898989899,4.962025316455696,0.01686488425968136,0.015334222695076963,-3.127233089182232e-05,-0.009659732086427496,0.01615412484989662
9.09090909090909,4.962025316455696,0.017120940060727813,0.0154759582215518,6.682995747226044e-06,-0.009779069484683885,0.01636059449812358
9.191919191919192,4.962025316455696,0.017344383573062814,0.015377768681095775,-4.6820259392805435e-05,-0.009816645676247576,0.016449682946675072
9.292929292929292,4.962025316455696,0.01712703198197281,0.015628777965616673,-3.9553232755226855e-05,-0.009826742984276845,0.0164293651285879
9.393939393939394,4.962025316455696,0.017416137350742128,0.015723149347298793,7.184885339209664e-06,-0.009941786009412276,0.01663438883356772
9.494949494949495,4.962025316455696,0.01763497018008021,0.015902898894701915,-2.112208359178977e-05,-0.010061360722434637,0.016835930540061533
9.595959595959595,4.962025316455696,0.01764098594961239,0.01613250535434468,3.388539450871774e-05,-0.01013204739118712,0.016937303759873453
9.696969696969697,4.962025316455696,0.01802418992723164,0.016188599183680097,-0.00011740683758981339,-0.010263836733273522,0.017181301837079395
9.797979797979798,4.962025316455696,0.018223847304806234,0.016336674849556178,-1.821599775772333e-05,-0.010368156646308722,0.01735740427800648
9.8989898989899,4.962025316455696,0.01842273821189031,0.016688216984124177,6.374720690189065e-05,-0.010533286558804344,0.017619971842499523
10.0,4.962025316455696,0.01861307157588363,0.01679477429494201,-4.2479797533820714e-05,-0.010622353761247693,0.017773968455413708
0.0,5.063291139240507,0.021796836533347304,0.019465864042177847,2.987215048766293e-05,-0.012378810172657547,0.020729938887956875
0.10101010101010101,5.063291139240507,0.021355926718984918,0.019342249739406327,-4.427640123550264e-05,-0.012209452937517374,0.02042382050920617
0.20202020202020202,5.063291139240507,0.021269096624789024,0.01910429679027537,2.0773302091751197e-05,-0.012112018024519318,0.020273598281872987
0.30303030303030304,5.063291139240507,0.020898986214504183,0.018862112688918665,-9.365641493235069e-06,-0.011928329671026854,0.019958661026408774
0.40404040404040403,5.063291139240507,0.020894763444704933,0.01861523724246854,2.0553782827365696e-05,-0.011853000206152042,0.01985342503773818
0.5050505050505051,5.063291139240507,0.020621696873921097,0.018504873416023335,-4.2410772866979686e-05,-0.011737971086983328,0.019649127915721498
0.6060606060606061,5.063291139240507,0.020211959995680404,0.018626869125551924,4.5895512194560596e-05,-0.011651648736369698,0.01946803446347662
0.7070707070707071,5.063291139240507,0.02028402006348271,0.018228810287349417,-8.28481002397945e-05,-0.011553849105249637,0.01933902873075764
0.8080808080808081,5.063291139240507,0.02001938108158439,0.018049877904668894,9.32966782689619e-05,-0.011420777695875984,0.019111578684767115
0.9090909090909091,5.063291139240507,0.019948161707330193,0.01804957020255991,-7.404105123889653e-05,-0.01139931957296703,0.01907031308296393
1.0101010101010102,5.063291139240507,0.019738361858247407,0.017783530364080445,1.496334016922499e-05,-0.011256567666698355,0.018837191810845484
1.1111111111111112,5.063291139240507,0.019379748510142677,0.017738940460508227,3.0983706353014854e-05,-0.01113560669119527,0.01861374051573104
1.2121212121212122,5.063291139240507,0.019277846529668845,0.017494262609897313,-2.8977748490525626e-05,-0.011031632741869848,0.018450891590162104
1.3131313131313131,5.063291139240507,0.019433483040868494,0.01764447885944116,2.7572777369935248e-05,-0.011123388570092896,0.018603668923500884
1.4141414141414141,5.063291139240507,0.01909836966755087,0.017118037191970536,6.472614181664386e-06,-0.010864922057856422,0.018189239804708136
1.5151515151515151,5.063291139240507,0.0190146002280983,0.017089098891070388,1.3517174991434984e-05,-0.010831109735750606,0.018128719955173254
1.6161616161616161,5.063291139240507,0.019006025097052962,0.017054931526845892,-5.85261670815723e-05,-0.010818286987169657,0.018109762524234158
1.7171717171717171,5.063291139240507,0.018750982364210165,0.016990869902483857,-1.8779662731634383e-05,-0.010722555680008206,0.017935845555735175
1.8181818181818181,5.063291139240507,0.01869245014021146,0.01693577597814516,-6.341635122075004e-05,-0.010688467835506985,0.017879292968955657
1.9191919191919191,5.063291139240507,0.018546384189066647,0.01679840401957723,7.697527507674712e-05,-0.010603436462593164,0.017737611591251187
2.0202020202020203,5.063291139240507,0.018640254374445983,0.01671147308059728,1.4042559377483392e-05,-0.010605518236512979,0.017754630327155844
2.121212121212121,5.063291139240507,0.018645187754685384,0.01657201764497538,4.711575395253789e-06,-0.010565161619898228,0.017699900603256172
2.2222222222222223,5.063291139240507,0.018366240365368845,0.01639644871806912,3.131774437499804e-05,-0.01042880672503139,0.017464940304267044
2.323232323232323,5.063291139240507,0.01833588133336697,0.016697446513664053,-0.0001004006910409878,-0.010509998354109307,0.017574899925731743
2.4242424242424243,5.063291139240507,0.018378298652306224,0.01641451149879507,-1.4186258406055272e-05,-0.010437843045330387,0.01747935520237084
2.525252525252525,5.063291139240507,0.018242193722750294,0.0163809843698354,3.598821538012973e-05,-0.010386953427775708,0.017386577465222954
2.6262626262626263,5.063291139240507,0.018234804342889786,0.0164063553422538,4.9259283309388614e-05,-0.010392347905543076,0.017393021152888474
2.727272727272727,5.063291139240507,0.018166282142001132,0.01633705014701284,3.1348271393209696e-05,-0.010350999686704193,0.017324332603956296
2.8282828282828283,5.063291139240507,0.018028111326622402,0.016224117997405915,-9.996821497932322e-06,-0.010275668797208494,0.017197235160765514
2.929292929292929,5.063291139240507,0.017870249338745828,0.016155880587478272,3.1845619114060126e-05,-0.01020783897786723,0.01707781359047267
3.0303030303030303,5.063291139240507,0.017989501622633887,0.01603033737871933,-5.889921820520865e-05,-0.010205951700405965,0.0170946340169712
3.131313131313131,5.063291139240507,0.017903463479996634,0.01601637589925053,-3.449501265462626e-05,-0.01017595181377415,0.01703858181449473
3.2323232323232323,5.063291139240507,0.01787104829611956,0.016129297826653826,-7.613032916958904e-06,-0.010200103836832017,0.017066966016703773
3.3333333333333335,5.063291139240507,0.017747171717348256,0.01609924147128318,-3.5047425845385977e-06,-0.01015392395658943,0.01698327747684394
3.4343434343434343,5.063291139240507,0.017861370646173744,0.015987034723653072,-2.7752105503225596e-05,-0.010154521610948045,0.01700193513753503
3.5353535353535355,5.063291139240507,0.017660046415823638,0.015945962142916145,-4.975788088428992e-05,-0.010081802567621935,0.016868667523655356
3.6363636363636362,5.063291139240507,0.017611246305954217,0.015992702597296016,3.547411586157688e-05,-0.010081184670975069,0.016860453241665227
3.7373737373737375,5.063291139240507,0.017809177327806496,0.015854183691370722,-3.978899734050596e-05,-0.010099008305753165,0.01691675850624674
3.8383838383838382,5.063291139240507,0.01753833832322247,0.016127109789994442,-0.0001323448116311114,-0.010099634433965072,0.016878590554106395
3.9393939393939394,5.063291139240507,0.017537984636449837,0.015972896805681373,7.696343624733782e-06,-0.010053264432639363,0.016810178357078
4.040404040404041,5.063291139240507,0.017539565410957757,0.01579304527530355,6.935352664202093e-05,-0.009999783205878392,0.01673522969557402
4.141414141414141,5.063291139240507,0.01744869279319063,0.015848774351800893,1.1814749800406992e-05,-0.009989240143497457,0.0167063027806038
4.242424242424242,5.063291139240507,0.017555990687538114,0.015676333611576235,-7.248649379859304e-06,-0.009969697289734306,0.01669571308005562
4.343434343434343,5.063291139240507,0.017635667344412874,0.015842868208699488,-2.4020243686656354e-05,-0.01004356066593371,0.01681116929803913
4.444444444444445,5.063291139240507,0.01755465640381605,0.015764649608264722,1.539526887335266e-05,-0.009995791803624232,0.016731641956803628
4.545454545454545,5.063291139240507,0.017395104066741326,0.01568959906706635,-1.701234450424825e-05,-0.009925410940142303,0.016608185454786435
4.646464646464646,5.063291139240507,0.017499280899488587,0.015842661739496507,-7.80004600197882e-05,-0.010002582791695528,0.016733135606680914
4.747474747474747,5.063291139240507,0.01756146856068769,0.015729902170661256,-8.848263468484336e-06,-0.009987411219404684,0.016721096039109828
4.848484848484849,5.063291139240507,0.017431543694824116,0.015470611216436909,6.378188965868177e-05,-0.009870646473378307,0.016538866224082446
4.94949494949495,5.063291139240507,0.017495802156980707,0.015790387135175995,-9.285459098041452e-06,-0.00998585678764701,0.016708506466917433
5.05050505050505,5.063291139240507,0.01751869536652004,0.015664000861800084,2.2942782327209357e-05,-0.009954808868496036,0.01666896307928013
5.151515151515151,5.063291139240507,0.017525899170641516,0.015653293238105884,-6.145562781313098e-05,-0.00995375772262422,0.01666901383827687
5.252525252525253,5.063291139240507,0.017518205090112652,0.015703704042909543,-5.1823671130995935e-06,-0.009966572739906658,0.016685119200029963
5.353535353535354,5.063291139240507,0.017425640823925462,0.0156755158573095,-1.4456250312380004e-05,-0.00993034700437049,0.01661985178656883
5.454545454545454,5.063291139240507,0.017569450621231282,0.01582339017520071,-9.968952048942088e-05,-0.010017852238929599,0.01676564384168839
5.555555555555555,5.063291139240507,0.017333148659423564,0.015709136938097303,-6.8577961120727424e-06,-0.009912685679256262,0.016580903504284383
5.656565656565657,5.063291139240507,0.017643219048049743,0.015810295338331202,-6.388692422726883e-07,-0.010036054315914283,0.016801908058867814
5.757575757575758,5.063291139240507,0.017546925854440055,0.015733390997011674,0.00012865208172488704,-0.00998409505543552,0.016715597746326118
5.858585858585858,5.063291139240507,0.017539258183215695,0.01579149214991226,-1.625595529930677e-05,-0.009999225099938386,0.01673399345018852
5.959595959595959,5.063291139240507,0.017523742522919886,0.015839199548159467,4.3484383552799926e-05,-0.010008882621323807,0.016745310160153768
6.0606060606060606,5.063291139240507,0.01758470056912996,0.01594558021395835,-8.366686710435986e-07,-0.010059084234926493,0.01682512915558992
6.161616161616162,5.063291139240507,0.017603879407856213,0.016085329813249477,0.00010271368259315064,-0.010106762766331706,0.016896799976359247
6.262626262626262,5.063291139240507,0.017564761261469712,0.016002668872782892,-2.10477264824393e-05,-0.010070229040275781,0.016838186361599273
6.363636363636363,5.063291139240507,0.01774841179478812,0.01603730218298139,7.076737164592892e-05,-0.010135714193330854,0.016958170991804942
6.4646464646464645,5.063291139240507,0.017725453331242848,0.01587676003987436,8.049196048132021e-05,-0.010080664011335163,0.01687779229907725
6.565656565656566,5.063291139240507,0.01781857006967747,0.015880358920182743,2.1437515489941265e-05,-0.010109678696958063,0.016932906700036488
6.666666666666667,5.063291139240507,0.018015194674238993,0.016085831546519578,-5.977802975433556e-05,-0.010230307866227572,0.017132499792052884
6.767676767676767,5.063291139240507,0.017942262987734253,0.016042535932821733,1.1412833231777819e-05,-0.010195439676166797,0.017071870206228665
6.8686868686868685,5.063291139240507,0.01801305887242162,0.01605579161207369,1.880353436101972e-05,-0.010220655145348593,0.017118582750880983
6.96969696969697,5.063291139240507,0.017868365422916515,0.01620269918257056,-5.0586056565995465e-05,-0.010221319381646122,0.01709672105122343
7.070707070707071,5.063291139240507,0.018150525385778334,0.01623150700226336,4.3221039441977914e-05,-0.010314609716412506,0.01727132350530901
7.171717171717171,5.063291139240507,0.01814563617040788,0.016263926915231545,-7.795756419185748e-05,-0.010322868925691826,0.017282313571173165
7.2727272727272725,5.063291139240507,0.017972243686238582,0.01616798150029901,-5.4073844411691586e-05,-0.010242067555961276,0.017141733792575675
7.373737373737374,5.063291139240507,0.018160819246472483,0.016305403295330256,-1.402086760192799e-05,-0.010339866762540822,0.017307877977766874
7.474747474747475,5.063291139240507,0.01810601201233433,0.016153590959011307,1.3458541899527178e-05,-0.01027788089140369,0.017213064901774558
7.575757575757575,5.063291139240507,0.018166748272942145,0.016346177158184722,-2.2689601956724114e-05,-0.01035387762933806,0.017328384497570994
7.6767676767676765,5.063291139240507,0.01834170540487795,0.01671932490109744,5.396012137755978e-05,-0.010518309091792617,0.017586977724655072
7.777777777777778,5.063291139240507,0.018383526286150205,0.016640385302051235,-4.4246331629260304e-05,-0.01050717347646043,0.017577069559968177
7.878787878787879,5.063291139240507,0.01845882264350172,0.01664500964621033,1.423674810704793e-05,-0.010531149686913615,0.017622082924640462
7.979797979797979,5.063291139240507,0.01866491439338012,0.016682366697294674,-2.319760961454292e-05,-0.010604184327202438,0.01775688756619554
8.080808080808081,5.063291139240507,0.0186831365238534,0.016791680836554062,7.531364002649587e-05,-0.010642445208122237,0.01781336258499365
8.181818181818182,5.063291139240507,0.0188107287827546,0.017022411028538388,-6.696008659839035e-05,-0.010749941943387896,0.017983756238229072
8.282828282828282,5.063291139240507,0.018731500319317227,0.017114681494058075,-8.956812816381067e-05,-0.01075385454401259,0.017978371236945307
8.383838383838384,5.063291139240507,0.018980812420550726,0.017169312650964667,6.363789464368588e-05,-0.01084503752145462,0.018143350946775605
8.484848484848484,5.063291139240507,0.019197005834928074,0.017409003190695306,2.9296774390070493e-05,-0.010981802707687014,0.018368458405397324
8.585858585858587,5.063291139240507,0.019201315825816214,0.017502992716044413,-0.00012314036066227193,-0.011011292562558188,0.018412231887204405
8.686868686868687,5.063291139240507,0.019461550179599465,0.017541344518125328,5.044927616817082e-05,-0.011100868409317436,0.01857623701743421
8.787878787878787,5.063291139240507,0.019560565864736083,0.017608945826676735,2.831408294622461e-06,-0.011150853507423845,0.018661451965880184
8.88888888888889,5.063291139240507,0.019698383534744866,0.01768652032277855,1.2766559881665328e-05,-0.011215471157257025,0.01877349043870022
8.98989898989899,5.063291139240507,0.019551994356307032,0.01757796194544296,-5.498303472683709e-05,-0.011138986890524998,0.018643768023501733
9.09090909090909,5.063291139240507,0.019849012483318107,0.01784687971652749,3.3566165184342906e-05,-0.011308767659953678,0.018927621455423895
9.191919191919192,5.063291139240507,0.020142700715794014,0.01814764702917724,-7.440069455787055e-05,-0.011487104323491376,0.01922340938561942
9.292929292929292,5.063291139240507,0.020216989869708442,0.018224044918606276,-8.535713219894219e-05,-0.011532310436494416,0.019298420106390834
9.393939393939394,5.063291139240507,0.0203305075543084,0.018452998681782115,-4.4222328756816886e-05,-0.011635051870827156,0.019459952094214188
9.494949494949495,5.063291139240507,0.020641708912409282,0.018424941223663383,-9.089897368920043e-05,-0.011719995040821798,0.0196280697044623
9.595959595959595,5.063291139240507,0.020722483526937542,0.0187752071173739,-6.681325765382197e-05,-0.011849307193293432,0.019821054403186
9.696969696969697,5.063291139240507,0.020958426987610402,0.018846381309432038,8.978183384051733e-05,-0.011941442489112733,0.019986881345877148
9.797979797979798,5.063291139240507,0.021172172461481686,0.018996211961217795,-6.079736644925341e-06,-0.012050515326809844,0.020172406667179454
9.8989898989899,5.063291139240507,0.021561757180329013,0.019369889209438117,-1.2722686647786377e-05,-0.012279493916930138,0.02055367652138818
10.0,5.063291139240507,0.021760720163626728,0.019691444506114472,4.163013830522012e-05,-0.01243564940092236,0.020803536104882763
0.0,5.1645569620253164,0.021733192800036313,0.019443155027266543,-0.0001256079027649565,-0.012352904348190856,0.020684618485362558
0.10101010101010101,5.1645569620253164,0.02151135550976697,0.019272994308717692,4.3089650804716243e-05,-0.0122353049455454,0.020484239388684267
0.20202020202020202,5.1645569620253164,0.021134753705087377,0.01905098078681975,8.28560978563377e-06,-0.012055720347572138,0.020173747849586136
0.30303030303030304,5.1645569620253164,0.02106025039393568,0.01900996130707638,-4.607824150140029e-05,-0.012021063510303619,0.02011379129002713
0.40404040404040403,5.1645569620253164,0.020754192656716415,0.018821144635438287,2.467507017362203e-06,-0.01187260118764641,0.01985835730120069
0.5050505050505051,5.1645569620253164,0.0204377826569441,0.018701241143694588,-0.00010336482287795837,-0.011741707140191607,0.01962802922345989
0.6060606060606061,5.1645569620253164,0.02032860046595793,0.018344196035579362,2.694059994130061e-05,-0.011601838950461187,0.019412672933101817
0.7070707070707071,5.1645569620253164,0.020279480611423442,0.018092623995953155,-1.6837868605337608e-05,-0.01151163138221298,0.0192793207850741
0.8080808080808081,5.1645569620253164,0.02009242790330219,0.01807083996554622,-1.1531947123819343e-05,-0.011448980360654523,0.019161791824026872
0.9090909090909091,5.1645569620253164,0.019824607656142645,0.01789250799014432,3.877687360925985e-05,-0.011315134693886088,0.018932761841478386
1.0101010101010102,5.1645569620253164,0.019695960011426424,0.017925244523892988,-3.273252333517832e-05,-0.011286361360595824,0.018873090550561116
1.1111111111111112,5.1645569620253164,0.019838794195008704,0.01768976462076636,9.246168641686752e-07,-0.011258567644732518,0.01885634986802184
1.2121212121212122,5.1645569620253164,0.01954881578315738,0.01781478183222647,6.370899099496535e-05,-0.011209079284615156,0.01874238347982764
1.3131313131313131,5.1645569620253164,0.019444181412196095,0.017391887089146692,-3.70577147200653e-05,-0.011050820550402836,0.01850370339885724
1.4141414141414141,5.1645569620253164,0.01932900375030365,0.017187207416559488,3.367512457391675e-06,-0.010954863350058942,0.01835208222975217
1.5151515151515151,5.1645569620253164,0.019195053763304614,0.017259177628559136,7.029000856092778e-05,-0.010936269417559126,0.01830446068464199
1.6161616161616161,5.1645569620253164,0.018849779771495694,0.017036581534136383,3.503697073685266e-05,-0.010765908391689625,0.018011862218924486
1.7171717171717171,5.1645569620253164,0.019006813539396004,0.017078021250657712,1.841123144026822e-05,-0.010825450437016113,0.01811960325577024
1.8181818181818181,5.1645569620253164,0.018582678133858853,0.016922820205416807,1.0882476291958432e-05,-0.010651649501782698,0.01781086198424732
1.9191919191919191,5.1645569620253164,0.018689629283712622,0.016620926138030522,-8.779334571456305e-05,-0.010593166626522944,0.017746594140605403
2.0202020202020203,5.1645569620253164,0.018702689160106246,0.016586202892722116,-1.3558389237670022e-05,-0.010586667615848509,0.017739409873465874
2.121212121212121,5.1645569620253164,0.018469552439448762,0.016624543254575,-7.756098723751028e-05,-0.010528228708207127,0.017620158326040927
2.2222222222222223,5.1645569620253164,0.0183399373333298,0.01649234717791922,7.627752421190604e-06,-0.010449685353374706,0.017489493350373194
2.323232323232323,5.1645569620253164,0.01834871725319019,0.0166853157332184,6.934616362602737e-05,-0.010510209895922575,0.017576560299356173
2.4242424242424243,5.1645569620253164,0.01828313984113081,0.016318101399830497,4.253885006626688e-05,-0.010380372372288393,0.017384272621307352
2.525252525252525,5.1645569620253164,0.01819897948397096,0.016206022933264057,-2.755276931684324e-05,-0.010321500725170504,0.01728893380626845
2.6262626262626263,5.1645569620253164,0.018173845668622794,0.016479361466973014,9.346802134890282e-06,-0.010395962140678741,0.017388643156266908
2.727272727272727,5.1645569620253164,0.018123735032235366,0.016122967311171705,-3.8733763416890904e-05,-0.010274010703022122,0.01721092559591157
2.8282828282828283,5.1645569620253164,0.01796713762442505,0.016233726365878578,-8.560916389317761e-05,-0.010260259197091089,0.017166837133003886
2.929292929292929,5.1645569620253164,0.018032328613249996,0.016074088488480482,0.00010005137117372759,-0.010231925130519143,0.017138202385303353
3.0303030303030303,5.1645569620253164,0.017808144247774424,0.016096321898230282,5.391077124467198e-05,-0.01017133984380141,0.017017187696339916
3.131313131313131,5.1645569620253164,0.017856669073777334,0.016169781210450214,3.3570079739532474e-05,-0.010207935085268263,0.017075930533490515
3.2323232323232323,5.1645569620253164,0.017826142950973303,0.016073135992565518,6.051283509090018e-05,-0.010169783683061645,0.0170178153321678
3.3333333333333335,5.1645569620253164,0.017591995315439493,0.016042163812985535,4.390564380712744e-05,-0.010090247738527508,0.01687072705754638
3.4343434343434343,5.1645569620253164,0.017766748578997155,0.016064189469923773,-3.361674645566468e-05,-0.010149281414676277,0.01697970886718394
3.5353535353535355,5.1645569620253164,0.01799152534234501,0.015798422696061694,5.159435903848165e-05,-0.010136984411522013,0.017001629552959363
3.6363636363636362,5.1645569620253164,0.017436518971416078,0.01607388423173508,-8.783930064501855e-05,-0.010053120960945346,0.01679739586998513
3.7373737373737375,5.1645569620253164,0.01761886064587982,0.015826653857182908,-0.00010166771534002708,-0.010033654350918818,0.016795553665978406
3.8383838383838382,5.1645569620253164,0.017676897364638157,0.01625454439606366,-4.691899571464029e-05,-0.010179432528210543,0.01701057333371985
3.9393939393939394,5.1645569620253164,0.017652311968845043,0.015914081671834376,2.7781612325458405e-05,-0.010069918092203825,0.016850640770851875
4.040404040404041,5.1645569620253164,0.017728609288087317,0.015804759126219845,8.306048685109682e-06,-0.010060010524292149,0.01684926722020088
4.141414141414141,5.1645569620253164,0.017556754544306438,0.015799347186852757,3.0806114166193503e-05,-0.010006830519347759,0.01674743527200194
4.242424242424242,5.1645569620253164,0.017693458340406486,0.015748942017003262,1.5000612975303366e-05,-0.010032720107222925,0.016805804600508567
4.343434343434343,5.1645569620253164,0.01763523618624444,0.015715024398371698,3.149098329136153e-05,-0.010005078175384841,0.016757934099830153
4.444444444444445,5.1645569620253164,0.01748543240488291,0.015589091538978214,2.245087941553369e-05,-0.009922357183158337,0.016618652988855488
4.545454545454545,5.1645569620253164,0.017576172445506015,0.015902370974088947,-2.945273847311426e-05,-0.010043563025878489,0.016801994771161115
4.646464646464646,5.1645569620253164,0.017676693378268868,0.015786235766974663,4.759452248182893e-05,-0.010038878743573058,0.016811575623530448
4.747474747474747,5.1645569620253164,0.017547723123292756,0.015792428373147233,0.00010530060355442628,-0.010002045448931995,0.01674023550753201
4.848484848484849,5.1645569620253164,0.01754849285540413,0.015707628133252365,-4.784466691009736e-06,-0.009976836296596946,0.016704312367480184
4.94949494949495,5.1645569620253164,0.01736766375424922,0.015483930994655972,2.6157422862942372e-05,-0.009855478424671557,0.016506671646672442
5.05050505050505,5.1645569620253164,0.01736508927814221,0.01576611121628641,4.868296428614143e-05,-0.009939360148328587,0.0166235907605807
5.151515151515151,5.1645569620253164,0.017563772899523475,0.015775136963656084,-7.422786932873433e-05,-0.010001672958953866,0.016741764271705813
5.252525252525253,5.1645569620253164,0.017414174979570075,0.015835435720032657,4.3404021167109264e-05,-0.00997488320988082,0.01668110061965781
5.353535353535354,5.1645569620253164,0.01759496901434143,0.015865450861393182,-2.0119405054001653e-05,-0.010038125962720384,0.016797159394300168
5.454545454545454,5.1645569620253164,0.017460195888946536,0.015959738202501322,-1.0272885629416014e-05,-0.010025980227434358,0.016760424971262705
5.555555555555555,5.1645569620253164,0.01757354704509115,0.015557310532514405,-5.951946052657268e-05,-0.009939257273281668,0.016657519800721405
5.656565656565657,5.1645569620253164,0.0175832589188864,0.01579170857117007,3.4002488831891846e-05,-0.010012490247016942,0.01675955911516242
5.757575757575758,5.1645569620253164,0.01744960010101201,0.015713709395889553,-2.8592522039191684e-05,-0.009948992849070469,0.01664973616003773
5.858585858585858,5.1645569620253164,0.01746847717503441,0.01581362504885881,-7.31857660333978e-06,-0.009984630667167965,0.01670265381503014
5.959595959595959,5.1645569620253164,0.017801400340732416,0.01573071922425159,3.063055247666289e-05,-0.0100596358694952,0.016861772313044192
6.0606060606060606,5.1645569620253164,0.01758121078141823,0.01611464244892047,2.5827517952873898e-05,-0.010108755969101609,0.01689579087872469
6.161616161616162,5.1645569620253164,0.017589248943264794,0.016074753538893313,-2.5321155060403577e-05,-0.010099200744647431,0.016883082109311807
6.262626262626262,5.1645569620253164,0.01775765174038581,0.01588275705203097,6.283560595175526e-05,-0.010092122637725034,0.01689874384206323
6.363636363636363,5.1645569620253164,0.017567893620527804,0.01594071052832753,3.595200710480953e-05,-0.0100525812446566,0.016813575147875976
6.4646464646464645,5.1645569620253164,0.017614752773037846,0.01606348894453586,-2.1719937791254652e-05,-0.010103472515272112,0.016892667674560387
6.565656565656566,5.1645569620253164,0.017735017902074487,0.01607376777440188,1.3799829399338454e-05,-0.010142635702942911,0.016965520402433047
6.666666666666667,5.1645569620253164,0.017691746142892855,0.01593838664947785,7.179410557159146e-05,-0.01008903983771121,0.016883945724378756
6.767676767676767,5.1645569620253164,0.01784688937667907,0.01595343206130676,3.021263174532466e-05,-0.010140096431395748,0.016979607068215528
6.8686868686868685,5.1645569620253164,0.01778554165203825,0.016119758640679435,1.2080646291734009e-05,-0.010171590087815305,0.017013932807895524
6.96969696969697,5.1645569620253164,0.017968124068710144,0.016068510183798446,-3.0912712235658585e-05,-0.010210990275752578,0.01709773038391077
7.070707070707071,5.1645569620253164,0.01780658479813511,0.016201180334291687,5.458486185440015e-05,-0.01020232953972804,0.017060889586021102
7.171717171717171,5.1645569620253164,0.017762288796497737,0.016211277514821477,-5.965317577043027e-05,-0.010192069893395765,0.017040120436148765
7.2727272727272725,5.1645569620253164,0.018178360567041415,0.016233436996396223,5.253446224398108e-05,-0.010323539269031292,0.01728838564666063
7.373737373737374,5.1645569620253164,0.01812857038302504,0.0161783799823038,-7.6275195674475245e-06,-0.01029208510959865,0.017236424145650027
7.474747474747475,5.1645569620253164,0.018346513285330376,0.016333850648581994,-3.0738381349834336e-05,-0.010404109180173711,0.017427646236897246
7.575757575757575,5.1645569620253164,0.018191099439907953,0.01649975273524829,3.573096928770679e-05,-0.010407255652546873,0.017407272230957286
7.6767676767676765,5.1645569620253164,0.018477964539165323,0.016454809057184046,2.8015267137359646e-05,-0.010479832078904811,0.01755411321961985
7.777777777777778,5.1645569620253164,0.018279222295611977,0.016457202398083685,-4.3853129897642733e-05,-0.010420927408108698,0.017439907878095132
7.878787878787879,5.1645569620253164,0.01866273973135828,0.016923703814235348,2.163575982522803e-05,-0.010675933063678087,0.017856884661525452
7.979797979797979,5.1645569620253164,0.01867850270732032,0.01678457586496018,2.7464627479389317e-05,-0.010638923571684148,0.01780730096158264
8.080808080808081,5.1645569620253164,0.01855301375155932,0.01683191311739618,9.03676447764732e-05,-0.01061547806068665,0.017755827264835822
8.181818181818182,5.1645569620253164,0.018523255257062596,0.01703648769565748,-6.502652866376637e-05,-0.010667922885816023,0.017826788084240146
8.282828282828282,5.1645569620253164,0.018870478490050177,0.016842330725197904,2.757913511248239e-05,-0.010713842764574424,0.017942644867864774
8.383838383838384,5.1645569620253164,0.018699227161927817,0.01711657463092706,-0.00013391774359984947,-0.010744740537856462,0.01796177352540198
8.484848484848484,5.1645569620253164,0.019017237311859884,0.017045304204894265,1.9557534243762184e-05,-0.010818762455026245,0.018111992236833074
8.585858585858587,5.1645569620253164,0.019212166408823016,0.017256826884553756,-3.7696619597026793e-06,-0.010940697988013032,0.01831295784630438
8.686868686868687,5.1645569620253164,0.019296988842806527,0.017469595162270386,6.657033101052464e-05,-0.011029975201523075,0.018451646144050524
8.787878787878787,5.1645569620253164,0.019405340620545768,0.0177628567777757,-2.7129797524895446e-05,-0.01115045921949644,0.01863851516130535
8.88888888888889,5.1645569620253164,0.019709265886522553,0.017740169161017737,-6.535772192234412e-05,-0.011234830514262087,0.01880254949936909
8.98989898989899,5.1645569620253164,0.019545082562172862,0.01766957811789596,-8.092136756992135e-05,-0.011164398204020645,0.018678611427960328
9.09090909090909,5.1645569620253164,0.019785163116124903,0.01778080688570504,-1.5795341732861403e-05,-0.011269791000548982,0.018863042091531137
9.191919191919192,5.1645569620253164,0.02019412585285719,0.018276376212511842,-1.873272320158404e-05,-0.01154115061961071,0.01930684484314902
9.292929292929292,5.1645569620253164,0.02025838946146036,0.018152223053048488,9.306008749189176e-05,-0.011523183754352654,0.01929240061992104
9.393939393939394,5.1645569620253164,0.020200997815133178,0.018209645670965693,-3.917236602601041e-05,-0.01152319304582966,0.019282715037006275
9.494949494949495,5.1645569620253164,0.02061685652106308,0.018461222068075867,4.4538256190000996e-05,-0.011723423576741684,0.01962817050681755
9.595959595959595,5.1645569620253164,0.020763972253283143,0.01894940189569656,1.9144486866142103e-05,-0.011914012244693909,0.019918800674119875
9.696969696969697,5.1645569620253164,0.021153730319266158,0.01880110594590997,1.7867497371952763e-05,-0.011986450879552838,0.02008106879795564
9.797979797979798,5.1645569620253164,0.021307855298347063,0.01914618380069659,-4.718665068175372e-05,-0.012136211729713095,0.020313631318515202
9.8989898989899,5.1645569620253164,0.021411879986768717,0.019409132252240967,1.438254447720305e-05,-0.012246303671702905,0.020484082344425843
10.0,5.1645569620253164,0.021740104905083976,0.019502718060253884,-4.521910269657807e-06,-0.01237284688960136,0.020712245117336544
0.0,5.265822784810126,0.02186067461383497,0.019451647856034822,3.2762739583342745e-05,-0.012393696740960938,0.020761328825361587
0.10101010101010101,5.265822784810126,0.021448947382329654,0.01929915530862193,1.2629798151401515e-05,-0.012224430807285474,0.02045895039423138
0.20202020202020202,5.265822784810126,0.02125309694793441,0.01920481181078706,6.160910244557497e-05,-0.012137372627616442,0.02030686057294589
0.30303030303030304,5.265822784810126,0.021277188284578367,0.018731270917239754,3.732975287867337e-05,-0.012002537760545436,0.020125472761856392
0.40404040404040403,5.265822784810126,0.020653187243511093,0.01873781206933726,-8.286543479065143e-05,-0.011817299793854506,0.019765748235279004
0.5050505050505051,5.265822784810126,0.020699309511849555,0.018619992362724252,3.5913918524884912e-06,-0.01179579056237214,0.01974194984101715
0.6060606060606061,5.265822784810126,0.02034307036666319,0.018240094386425945,2.7330074665889917e-05,-0.011574949425926741,0.01937741655562061
0.7070707070707071,5.265822784810126,0.020218663602611535,0.01811880244332544,8.251664746316177e-05,-0.011501239813781093,0.019255332128098365
0.8080808080808081,5.265822784810126,0.02000514616323253,0.01793730890002315,2.075332183942476e-05,-0.011382736518976703,0.019055595749496633
0.9090909090909091,5.265822784810126,0.01985191832472275,0.017896840905059996,-3.622221024819925e-05,-0.011324627768934822,0.018950274081928977
1.0101010101010102,5.265822784810126,0.01978174214278092,0.017806815213501782,2.227835830541997e-05,-0.01127656720688481,0.01887198061384599
1.1111111111111112,5.265822784810126,0.019618598077665483,0.01751517507527628,-2.074811029098344e-05,-0.01114013194588253,0.01865606764141392
1.2121212121212122,5.265822784810126,0.0195118743580052,0.017599399513196345,1.1292913222132078e-05,-0.011133382161360462,0.018629417991432765
1.3131313131313131,5.265822784810126,0.019385639608939822,0.017068100989017936,-5.877656115385092e-05,-0.010936122179387327,0.018337322702328816
1.4141414141414141,5.265822784810126,0.019282185640594068,0.017147655872001778,-3.599383799376949e-05,-0.010928952453778753,0.018308587816297805
1.5151515151515151,5.265822784810126,0.019254929889539217,0.017338066185706623,-6.56211733279097e-06,-0.010977898822573752,0.01837165600780708
1.6161616161616161,5.265822784810126,0.01909730047524972,0.0171565329789411,3.8365780523007435e-05,-0.010876150036257247,0.01820479221761245
1.7171717171717171,5.265822784810126,0.01884887609636823,0.016813970336254397,6.974192799096137e-05,-0.010698853929786789,0.01791870187313172
1.8181818181818181,5.265822784810126,0.018692779489606758,0.016899843920794324,6.816686755478426e-05,-0.010677787023120323,0.01786431118010401
1.9191919191919191,5.265822784810126,0.01882529732867544,0.016749219520952267,9.212012982901458e-05,-0.01067235505488831,0.017878607186351547
2.0202020202020203,5.265822784810126,0.01859679321781467,0.016636435276928516,-2.632336691173286e-05,-0.010569968548422954,0.017698288864800717
2.121212121212121,5.265822784810126,0.018503657901455795,0.016603938612238266,-4.574854886420993e-05,-0.010532278954108219,0.017630905026816527
2.2222222222222223,5.265822784810126,0.018312278888066108,0.016573725508392444,-5.300689634926848e-05,-0.010465801318937566,0.017508103288794423
2.323232323232323,5.265822784810126,0.018458017779685698,0.01656685514370367,-3.192143257419296e-05,-0.010507461877016809,0.01758894140775013
2.4242424242424243,5.265822784810126,0.018146786090334183,0.016497683415487286,3.840691397322374e-05,-0.01039334085174644,0.017381136235361933
2.525252525252525,5.265822784810126,0.018525134444939702,0.016330344083249317,-3.375854771497955e-05,-0.010456643558456704,0.017531182028737245
2.6262626262626263,5.265822784810126,0.018244094097702113,0.01637367666980592,-5.0315035189305405e-06,-0.01038533123025241,0.01738451711126742
2.727272727272727,5.265822784810126,0.018224372913175167,0.01632755087091918,3.3370992501147397e-06,-0.010365577135228303,0.017353885533192604
2.8282828282828283,5.265822784810126,0.01808565917157526,0.016222415320339086,6.386497712450217e-05,-0.010292422347574305,0.017230118637968583
2.929292929292929,5.265822784810126,0.01803491604603431,0.01621731224040772,7.305034613266295e-05,-0.01027566848593261,0.017198766159277713
3.0303030303030303,5.265822784810126,0.017929593381345237,0.016113755783964893,-1.127972130957483e-05,-0.010213004749593038,0.017094172601479985
3.131313131313131,5.265822784810126,0.017907695240585324,0.016140555135541974,4.452043028933045e-05,-0.010214475112838189,0.01709294804117014
3.2323232323232323,5.265822784810126,0.017916927977073296,0.016069016524204036,4.230237563879993e-06,-0.010195783350383198,0.01706816458055579
3.3333333333333335,5.265822784810126,0.01775680416812607,0.01615358436639162,-1.4133747842801018e-05,-0.010173116560355308,0.01701196482563012
3.4343434343434343,5.265822784810126,0.017868127592649264,0.01576898257152763,-4.187991935444698e-05,-0.010091133049253067,0.016916674147034735
3.5353535353535355,5.265822784810126,0.017703541221820183,0.015949731843581495,-9.427067770516878e-06,-0.010095981919620503,0.01689505398375043
3.6363636363636362,5.265822784810126,0.017576038992303433,0.015897867609922185,1.1073989621983926e-05,-0.010042171980667683,0.016799945478924983
3.7373737373737375,5.265822784810126,0.017636833866846807,0.015879240762279895,2.5048820330726292e-05,-0.01005482238873801,0.016827077794656246
3.8383838383838382,5.265822784810126,0.01759522607815663,0.01605561625917176,-0.0001095425865432448,-0.010095252701198517,0.016879235617579633
3.9393939393939394,5.265822784810126,0.017599869954073616,0.015782571545562243,5.077886958764513e-05,-0.010014732449890757,0.016765485848287423
4.040404040404041,5.265822784810126,0.017701901882975806,0.01570275993945348,-0.00013391059368503375,-0.010021398546728786,0.016793423724535215
4.141414141414141,5.265822784810126,0.01756190632284221,0.015742855811162443,-8.108625801195704e-05,-0.009991428640201397,0.016727319830666373
4.242424242424242,5.265822784810126,0.017607007133466995,0.01571661237842484,-6.536390835299474e-05,-0.00999708585356755,0.016742428614520004
4.343434343434343,5.265822784810126,0.017724069593312897,0.015798965564023937,-2.2049073812364514e-05,-0.010056910547201049,0.016844270514559744
4.444444444444445,5.265822784810126,0.017625425142871506,0.015603506538744242,5.089004376817738e-05,-0.009968679504484724,0.016706716035664305
4.545454545454545,5.265822784810126,0.017584405134039208,0.015758736317054083,-6.959449942062103e-05,-0.010002942435327988,0.016746808669473017
4.646464646464646,5.265822784810126,0.017528715257616328,0.015730060502210447,-4.264506049553206e-05,-0.009977632727948032,0.01670234613043995
4.747474747474747,5.265822784810126,0.01758174891923095,0.01589484732124819,-4.680345486858593e-05,-0.010042978872143742,0.0168021255620572
4.848484848484849,5.265822784810126,0.017488755677199815,0.01560381673334344,3.152728045779737e-05,-0.009927771723162976,0.016626704881351297
4.94949494949495,5.265822784810126,0.017431181847199575,0.015647264224690025,5.504214860089334e-05,-0.00992353382156688,0.016611494788549886
5.05050505050505,5.265822784810126,0.017611807025898995,0.015782171825798292,-5.86979273547629e-05,-0.010018193655509185,0.016772312480722935
5.151515151515151,5.265822784810126,0.017481664048732835,0.015728690940099196,2.8777389089917443e-05,-0.009963106496649608,0.01667450419278256
5.252525252525253,5.265822784810126,0.017372458447847027,0.015695864833979896,2.819403064337644e-05,-0.009920496984548076,0.016597864636376903
5.353535353535354,5.265822784810126,0.01748665201728476,0.015732893827137124,5.241484183514231e-06,-0.009965863753326564,0.016679070411417227
5.454545454545454,5.265822784810126,0.01742250585449439,0.015737484231465714,-3.9454169550180745e-05,-0.00994799702578803,0.016644229598340783
5.555555555555555,5.265822784810126,0.017575813440898678,0.015553886763463688,-5.346122439722785e-05,-0.009938910061308709,0.016657399972143508
5.656565656565657,5.265822784810126,0.01748805653801247,0.015771026549780333,-3.514728081603256e-05,-0.00997772492633784,0.01669600257365783
5.757575757575758,5.265822784810126,0.01751763350570126,0.015817040830012733,-4.9885067512437834e-05,-0.010000402300714197,0.016732501469097903
5.858585858585858,5.265822784810126,0.0174582707106571,0.01570173107603519,5.933841157279735e-05,-0.009948000536007686,0.016649956948311343
5.959595959595959,5.265822784810126,0.01763303684884858,0.01580866098187609,0.000110589417617824,-0.0100325093492174,0.016796420421811144
6.0606060606060606,5.265822784810126,0.017588478289946426,0.015797696451249083,5.5841460471269206e-06,-0.010015852422358654,0.016764976415307827
6.161616161616162,5.265822784810126,0.017584480423664024,0.01572285994460647,4.456481821172884e-05,-0.009992202110481149,0.01673170379181561
6.262626262626262,5.265822784810126,0.01778407143667204,0.015855517017852677,-4.485745248436684e-05,-0.010091876536357416,0.016902692271657173
6.363636363636363,5.265822784810126,0.0176162102179717,0.015915542942867886,1.2302064891216949e-05,-0.010059525948251876,0.016830456720413958
6.4646464646464645,5.265822784810126,0.01776637038048565,0.016014287780213517,-8.580775717575463e-06,-0.01013419744820975,0.01695835435442575
6.565656565656566,5.265822784810126,0.01776163610362764,0.015794474313928098,-5.388566282173995e-05,-0.010066833125266721,0.016864582464825858
6.666666666666667,5.265822784810126,0.0178456982151068,0.01612534107110027,-1.4852742654211176e-05,-0.01019131178586212,0.01705075543444776
6.767676767676767,5.265822784810126,0.017793078144438677,0.016059855048598373,5.5699008081707764e-06,-0.010155879957911113,0.016992892962630235
6.8686868686868685,5.265822784810126,0.01781266684802372,0.016159866318019824,-1.2589633695739789e-05,-0.010191759949813061,0.017046481751965648
6.96969696969697,5.265822784810126,0.017922653427413494,0.016241988418407464,1.2105791109130325e-05,-0.010249392553746286,0.017144229464114542
7.070707070707071,5.265822784810126,0.018126687308464506,0.016251575460949356,-6.149254333243189e-05,-0.010313478830824157,0.01726599591943344
7.171717171717171,5.265822784810126,0.017983254326522095,0.01618806407160639,2.0560154618490916e-05,-0.010251395519438544,0.017156283090021294
7.2727272727272725,5.265822784810126,0.018156030264081538,0.016191786097394908,4.3345285498923885e-05,-0.010304344908442934,0.01725811258514453
7.373737373737374,5.265822784810126,0.018031042144398973,0.016317345451716127,-6.29161587559039e-05,-0.010304516278834528,0.017238543302965606
7.474747474747475,5.265822784810126,0.018216787965773657,0.016271158325695173,1.0104194779561897e-05,-0.010346383887440648,0.017326108107631386
7.575757575757575,5.265822784810126,0.018378819921571875,0.016261293140808517,-3.4998065694765924e-05,-0.010392033918714117,0.0174169736920014
7.6767676767676765,5.265822784810126,0.018265035283717913,0.016492508615727385,-3.206933056434874e-05,-0.010427263169833589,0.017446523662263166
7.777777777777778,5.265822784810126,0.01844554348966038,0.016637953979646385,3.07701467821438e-05,-0.010525049240792029,0.01761153951115708
7.878787878787879,5.265822784810126,0.018342597854316533,0.016728836174937655,-2.8732157478308665e-05,-0.010521430208776257,0.017591390448059414
7.979797979797979,5.265822784810126,0.01857138360969003,0.016949400184776673,-2.0394537325121136e-05,-0.01065623513834001,0.01781588871843868
8.080808080808081,5.265822784810126,0.018768822435154223,0.016879807114811518,-2.4528479267173605e-05,-0.010694588864989722,0.01789928172572646
8.181818181818182,5.265822784810126,0.018696535381137934,0.016919241194502263,-4.4928886923760435e-05,-0.01068473297269206,0.017874451657477707
8.282828282828282,5.265822784810126,0.01898000669082647,0.016894943927637213,2.1761951243495642e-05,-0.010762485185539105,0.018028173958049565
8.383838383838384,5.265822784810126,0.018874837038138654,0.017158368135490033,-4.759644405567958e-05,-0.010809961552088606,0.018078010514323343
8.484848484848484,5.265822784810126,0.019114514952283963,0.01727413781438307,3.260055930953696e-05,-0.010916595830000108,0.018264088861477575
8.585858585858587,5.265822784810126,0.019080682148872603,0.01710042539487671,-7.758211905375557e-05,-0.010854332263124794,0.018172156045375816
8.686868686868687,5.265822784810126,0.01924201066473071,0.017552015882956937,-2.6065436625813838e-05,-0.011038207964306294,0.01845519432004882
8.787878787878787,5.265822784810126,0.0194894818670298,0.017500369435171147,-7.438796630842818e-06,-0.011096955390660284,0.01857497959747873
8.88888888888889,5.265822784810126,0.01952796950912013,0.017764211653362765,3.3690012124526315e-05,-0.011187654348744868,0.01870864052636966
8.98989898989899,5.265822784810126,0.019820374589014294,0.017877989135947403,7.510058716426637e-05,-0.011309509117488509,0.018924540235251915
9.09090909090909,5.265822784810126,0.019884240142347416,0.017976608417862035,-2.7069572220955913e-05,-0.011358254568062835,0.01900243289179563
9.191919191919192,5.265822784810126,0.02003993132700791,0.0179624499888147,-0.00010945281810954206,-0.011400714394746781,0.019087119549826736
9.292929292929292,5.265822784810126,0.02036249258012024,0.018269053355246968,1.6332393995850084e-05,-0.011589463780610161,0.01940068945737641
9.393939393939394,5.265822784810126,0.020354684688442416,0.018365931290446336,-5.339837683950706e-05,-0.011616184793666624,0.019436986254680065
9.494949494949495,5.265822784810126,0.020691814720222655,0.01841730871827228,-7.806709033772236e-06,-0.01173273703154848,0.01965352640191214
9.595959595959595,5.265822784810126,0.020796775817112735,0.018592643597973857,0.00012470606542388458,-0.011816825824525977,0.019788175620866245
9.696969696969697,5.265822784810126,0.020921086553741666,0.018872497313259497,2.804809881247264e-05,-0.011938075160100347,0.019975791041651373
9.797979797979798,5.265822784810126,0.02127833130704719,0.019130740470116342,-3.3508602753125235e-05,-0.012122721533149059,0.02029004062969111
9.8989898989899,5.265822784810126,0.021466132940521937,0.01934656715615733,-3.820393852125066e-06,-0.012243810029003781,0.020488742894996886
10.0,5.265822784810126,0.021611745064712837,0.019418470012984766,0.0001010810894859994,-0.012309064523309281,0.020603595100852804
0.0,5.367088607594937,0.021626668417262043,0.01961881957067394,2.3531258998784915e-05,-0.012373646396380793,0.020695961532247103
0.10101010101010101,5.367088607594937,0.021472863555178315,0.019314998159915466,-0.00010136267484721198,-0.012236358514528135,0.020480125153328886
0.20202020202020202,5.367088607594937,0.02114913612626812,0.018917044363120618,4.940052686202532e-05,-0.012019854146816621,0.020126318620591412
0.30303030303030304,5.367088607594937,0.02101811675403217,0.019065377237172013,8.379257796176864e-06,-0.012025048197361256,0.020112974096019205
0.40404040404040403,5.367088607594937,0.020766737200537948,0.018692192361310738,2.8727433071829525e-05,-0.011837678868554604,0.019811159949771742
0.5050505050505051,5.367088607594937,0.02065712000123537,0.01843148344592605,-2.6834884822675193e-05,-0.011726581034148425,0.019639169629919108
0.6060606060606061,5.367088607594937,0.020428188965109513,0.018270676854628694,-6.402222266867319e-05,-0.011609659745921461,0.019439752939496565
0.7070707070707071,5.367088607594937,0.02018003490127281,0.01808672836170524,5.0330152521773586e-05,-0.011480028978893416,0.01921927004936471
0.8080808080808081,5.367088607594937,0.020041648883043595,0.018136790810482677,7.382543595591861e-05,-0.011453531908057882,0.019160794037578095
0.9090909090909091,5.367088607594937,0.019886911685890914,0.017914750837579225,3.132308506576032e-05,-0.011340498757041042,0.018977919527710774
1.0101010101010102,5.367088607594937,0.019900679315689496,0.017866669921045842,-7.003429514600339e-06,-0.011330204771020602,0.018965658699332914
1.1111111111111112,5.367088607594937,0.01946415088903074,0.017747385975472596,4.768717084155167e-05,-0.011163461059351,0.01866525923955195
1.2121212121212122,5.367088607594937,0.01953848347877622,0.017707722661030868,-3.683705673712524e-05,-0.011173861841942126,0.01869058058855694
1.3131313131313131,5.367088607594937,0.019291260581650004,0.017354629141327536,-3.4463033577214826e-05,-0.010993766916893261,0.018399640689452115
1.4141414141414141,5.367088607594937,0.01922234993813045,0.01735671936243037,-0.00010170467982958507,-0.010973720790168244,0.018361605113204175
1.5151515151515151,5.367088607594937,0.019021068437331975,0.016995600189079186,-5.564007756439378e-05,-0.010805000587923348,0.01809381892827995
1.6161616161616161,5.367088607594937,0.01884601162438595,0.016969702601239284,-7.760926981633848e-05,-0.010744714267687569,0.01798193030883931
1.7171717171717171,5.367088607594937,0.018828887274030145,0.016935642464280955,-1.9296296930540658e-05,-0.01072935892149333,0.017957304804009207
1.8181818181818181,5.367088607594937,0.01860872084124316,0.016921168789609087,1.5790677893006756e-05,-0.010658966889255673,0.017824979278442128
1.9191919191919191,5.367088607594937,0.01876049669141764,0.016676712478427703,-3.597405415289578e-06,-0.010631162750953603,0.017810266835327018
2.0202020202020203,5.367088607594937,0.018482721659853107,0.01678844722366203,3.139164410026995e-05,-0.010581350665054542,0.017696601914129376
2.121212121212121,5.367088607594937,0.018322649526766578,0.01669328020840572,-2.9800972050912113e-05,-0.01050477892055169,0.017564812307000268
2.2222222222222223,5.367088607594937,0.018382037811017098,0.016606374483378213,5.631046642397993e-05,-0.010496523688318592,0.017561933165696087
2.323232323232323,5.367088607594937,0.0182249768639345,0.016357394093379597,2.2473312470009573e-05,-0.010374711287194228,0.01736670692619345
2.4242424242424243,5.367088607594937,0.018299488339616466,0.016371245727123524,2.007965428572563e-05,-0.010401220220021996,0.017415646684481034
2.525252525252525,5.367088607594937,0.01838419563701276,0.016628495218654112,6.933227960864403e-06,-0.010503807256700061,0.017572254761892198
2.6262626262626263,5.367088607594937,0.01814019451914305,0.016204770281555755,-1.9903503176360435e-06,-0.01030348944020964,0.017254088324492066
2.727272727272727,5.367088607594937,0.01816203472910692,0.01614736970485383,-4.9828302400511436e-05,-0.010292821330188225,0.017243416514785965
2.8282828282828283,5.367088607594937,0.017912660194216057,0.01628835876753858,-5.8516075917512504e-05,-0.01026030568852639,0.01715856821656537
2.929292929292929,5.367088607594937,0.017857222687829605,0.016096894601902355,-3.326708835525825e-05,-0.010186235186919588,0.01704546586504164
3.0303030303030303,5.367088607594937,0.01789232213931987,0.01619931980762184,-3.7606194787386e-05,-0.010227492584082513,0.017108885060360575
3.131313131313131,5.367088607594937,0.017900046773076116,0.016191390605524034,-3.455140953901364e-05,-0.010227431213580046,0.017109930930855406
3.2323232323232323,5.367088607594937,0.017847444967863883,0.016244121305696406,5.626159448236281e-06,-0.010227469882068086,0.01710224554792143
3.3333333333333335,5.367088607594937,0.0180199131133144,0.015799926493020568,4.770084155387618e-05,-0.010145951881900492,0.01701906193966411
3.4343434343434343,5.367088607594937,0.01773451927294792,0.01586760848932805,-1.7641315062258983e-05,-0.01008063832868279,0.01687870546255156
3.5353535353535355,5.367088607594937,0.017691885906366295,0.01597995366761596,-4.258735046017999e-07,-0.010101551872194678,0.016901071847982264
3.6363636363636362,5.367088607594937,0.017744403243930645,0.015863247687467278,2.4942365225042866e-05,-0.010082295279419376,0.016882667926519546
3.7373737373737375,5.367088607594937,0.017737805369974324,0.015920777599023366,8.858187614911876e-05,-0.010097574890699307,0.01690339565166943
3.8383838383838382,5.367088607594937,0.017786403913355057,0.015914749451711344,2.2725640930231086e-05,-0.01011034600951992,0.01692840221982104
3.9393939393939394,5.367088607594937,0.017630569883431747,0.015789449764813474,3.660912265116424e-05,-0.010026005894473564,0.016786028162559592
4.040404040404041,5.367088607594937,0.017504714899716653,0.015851590712793177,-7.374846712399636e-05,-0.010006891683752949,0.016739973483283703
4.141414141414141,5.367088607594937,0.017742626249673484,0.015803786910982342,2.9961874304416846e-06,-0.010063923948196747,0.016857040351251316
4.242424242424242,5.367088607594937,0.01760045902666719,0.015762852766201388,-7.153923899760311e-05,-0.010008993537860575,0.016757851730205973
4.343434343434343,5.367088607594937,0.017521930589120903,0.015881187457474074,-6.064974979774372e-06,-0.010020935413978492,0.01676189764550807
4.444444444444445,5.367088607594937,0.017683097298638047,0.0158192624408882,1.0494376367814843e-05,-0.010050707921857874,0.0168287779623978
4.545454545454545,5.367088607594937,0.017386514853410587,0.015825515515356558,-0.00010914859689548946,-0.009963609110630144,0.016662023279081214
4.646464646464646,5.367088607594937,0.017613069801793755,0.01570832246640274,2.158291782236635e-05,-0.009996417680458948,0.0167421993760838
4.747474747474747,5.367088607594937,0.017467104370996408,0.015847403320286044,2.4565588547277506e-05,-0.009994352307384735,0.016716264226878136
4.848484848484849,5.367088607594937,0.017670982599424942,0.015667804909952853,-1.9212566754602655e-05,-0.01000163625281334,0.01675945512714313
4.94949494949495,5.367088607594937,0.017492377308839846,0.015736720732656348,-5.182909826352412e-05,-0.009968729412448857,0.01668421545770865
5.05050505050505,5.367088607594937,0.017537496892646023,0.015751684088946016,2.316563004736396e-05,-0.009986754294477611,0.01671633476791303
5.151515151515151,5.367088607594937,0.01760102711859778,0.015777347862711892,-2.6318476409649677e-05,-0.010013512494392902,0.01676381256176807
5.252525252525253,5.367088607594937,0.017270023100351025,0.01557803080096222,-2.6152627446340144e-05,-0.009854416170393974,0.016489325080534842
5.353535353535354,5.367088607594937,0.017509161223030336,0.01563511246234768,2.2656105987604332e-06,-0.009943282105613406,0.016651419729255722
5.454545454545454,5.367088607594937,0.017551265745557924,0.01578917994811428,2.7598114407128867e-05,-0.010002133708101659,0.016739991771177704
5.555555555555555,5.367088607594937,0.017490472678660437,0.015622965020747628,5.083446777736382e-05,-0.00993403130982242,0.016635756073493015
5.656565656565657,5.367088607594937,0.017585358689932752,0.015590678682920977,9.10297658907905e-06,-0.009952811211856117,0.01667772987494325
5.757575757575758,5.367088607594937,0.01754510316558385,0.015753459657056643,5.075626316273906e-06,-0.009989568846792148,0.01672142753013382
5.858585858585858,5.367088607594937,0.017597795422421257,0.015554936625874618,7.01499687964761e-05,-0.009945819614488762,0.016670951612546402
5.959595959595959,5.367088607594937,0.01747188753740853,0.015875172517436417,-3.0163812822712545e-05,-0.010004118016453484,0.016730853453527837
6.0606060606060606,5.367088607594937,0.017539818623595244,0.0157974873133654,8.531030172349059e-05,-0.010001191781088194,0.016737461400174274
6.161616161616162,5.367088607594937,0.017624546695766245,0.015963041763863782,-1.4905913202383748e-05,-0.010076276537889008,0.01685534455806719
6.262626262626262,5.367088607594937,0.017748491850787265,0.01591058039556904,-2.3315622621942416e-05,-0.010097721673906893,0.01690468443550633
6.363636363636363,5.367088607594937,0.017747004889415732,0.015936405018016957,-2.8504404229522786e-06,-0.010105022972229807,0.016914542679120754
6.4646464646464645,5.367088607594937,0.017726680756554494,0.015823559629998808,6.800168348698755e-05,-0.01006507211596599,0.016856302462358294
6.565656565656566,5.367088607594937,0.017623353108053505,0.016269783448006024,-2.098107973958031e-05,-0.010167940966817859,0.016987101287079462
6.666666666666667,5.367088607594937,0.017723142432587338,0.016219823055989627,-1.560326862402682e-05,-0.010182889646573089,0.017021366977616623
6.767676767676767,5.367088607594937,0.01789613304287864,0.016182124739682675,1.1370100880173867e-05,-0.010223477334768393,0.017103674153784207
6.8686868686868685,5.367088607594937,0.01779560611110639,0.01615238118728216,-6.008501541574342e-05,-0.010184396189516564,0.017033861339779303
6.96969696969697,5.367088607594937,0.018083894632834475,0.016196133179791055,-4.48887344180994e-05,-0.010284008343787657,0.01721798054888335
7.070707070707071,5.367088607594937,0.0178466624580872,0.01611281579254605,-4.308972150620802e-05,-0.010187843475189974,0.01704616611237884
7.171717171717171,5.367088607594937,0.018176680098128586,0.01625088173418791,-8.1627362832413e-05,-0.010328268549694949,0.0172949636314304
7.2727272727272725,5.367088607594937,0.01819689463466797,0.016204637673941924,-4.30608985668975e-05,-0.010320459692582967,0.017287241968174383
7.373737373737374,5.367088607594937,0.018077285665323364,0.016321986483402027,1.1456507901493434e-05,-0.010319781644617616,0.017266692829224096
7.474747474747475,5.367088607594937,0.0181844658409306,0.01645197139596212,1.4094110712220459e-05,-0.010390931171067815,0.017383108030486302
7.575757575757575,5.367088607594937,0.01844957396182798,0.01637796485938299,5.3969814818217475e-06,-0.01044826164636329,0.017505945437849574
7.6767676767676765,5.367088607594937,0.018415390541403755,0.016543323682937598,-7.390326542551526e-06,-0.010487614267302405,0.01755438875744457
7.777777777777778,5.367088607594937,0.018478082413052863,0.016476612310008375,-1.2072474616547998e-05,-0.01048640841691837,0.01756310109176529
7.878787878787879,5.367088607594937,0.01845248360850937,0.01667041015765559,5.303267428698533e-05,-0.010536868129849488,0.017629370191788812
7.979797979797979,5.367088607594937,0.018620757275440998,0.016814734533623952,5.302818263531475e-05,-0.010630647542719486,0.017786884058485577
8.080808080808081,5.367088607594937,0.01866548213054356,0.01675283325768885,4.761312466376346e-06,-0.010625494616469723,0.017786455620175952
8.181818181818182,5.367088607594937,0.018700224470619673,0.0170617809459139,-1.1346378083790658e-05,-0.01072860162496007,0.017937224338276776
8.282828282828282,5.367088607594937,0.018824115921234372,0.016950464074589586,5.88415928999146e-05,-0.010732373998747187,0.017961026109340007
8.383838383838384,5.367088607594937,0.01894081349234935,0.016794106295458452,-2.000236824533303e-05,-0.01072047593634234,0.017963952437767088
8.484848484848484,5.367088607594937,0.01923109841471512,0.01717196096534169,3.8945764839753286e-05,-0.010920917814017042,0.01828880172814341
8.585858585858587,5.367088607594937,0.019177733638236185,0.01724570647506778,-2.7354881414598798e-05,-0.01092703203399119,0.018288481047093196
8.686868686868687,5.367088607594937,0.01941951923026583,0.017468628484858223,-3.166964752702148e-05,-0.011066444314537216,0.018521375499360577
8.787878787878787,5.367088607594937,0.019555103113852928,0.017364587463236995,3.7505500896038394e-06,-0.011075907173126976,0.018557066023178033
8.88888888888889,5.367088607594937,0.019644600311735472,0.0175833226877123,3.917307383525739e-05,-0.011168376899834331,0.018699487035339184
8.98989898989899,5.367088607594937,0.019766655445012965,0.017771319930706648,2.347903014586647e-05,-0.011261392612715882,0.01884841042323176
9.09090909090909,5.367088607594937,0.019921015103975773,0.017983368878026536,5.8120689463977815e-06,-0.011371315194600693,0.019026337989137745
9.191919191919192,5.367088607594937,0.020084964006992157,0.017962210890538798,-4.7994475009730004e-05,-0.011414152469259286,0.01911238735545042
9.292929292929292,5.367088607594937,0.02016317944177784,0.018293821755929134,5.37379920240314e-05,-0.011537100359312092,0.019296755484114435
9.393939393939394,5.367088607594937,0.02057630006101771,0.01839841236559259,-2.8957147253347144e-05,-0.01169241372798309,0.0195784821639418
9.494949494949495,5.367088607594937,0.020593508272434835,0.018351182458956943,-1.0267804516645816e-05,-0.011683407219417533,0.019568943995900978
9.595959595959595,5.367088607594937,0.020900091941376736,0.01865116661579507,5.6333530707010196e-05,-0.011865377567151543,0.0198715445450056
9.696969696969697,5.367088607594937,0.020855337712912578,0.019043339364402303,7.549830442049772e-05,-0.011969603123194466,0.02001138954753335
9.797979797979798,5.367088607594937,0.021434875047210263,0.019181923758199108,0.00017603226729885887,-0.012185039641622812,0.02040418806299726
9.8989898989899,5.367088607594937,0.021651678475161928,0.019159644032056878,-4.259556812292773e-05,-0.01224339675216564,0.020519603580321517
10.0,5.367088607594937,0.021599590926831787,0.01956593538378997,-5.033274793152978e-05,-0.012349657893186526,0.020658159536003553
0.0,5.468354430379747,0.021704439109789215,0.019449980822689308,-0.00011396544470565007,-0.012346325979743557,0.020670570166027406
0.10101010101010101,5.468354430379747,0.021617303627709885,0.01941393559001251,8.016884388956182e-05,-0.012309371765316717,0.020604636665038326
0.20202020202020202,5.468354430379747,0.021397333347597497,0.018953092302987966,-3.0426044754861877e-06,-0.012105127695175638,0.020285955142198695
0.30303030303030304,5.468354430379747,0.02095512786119093,0.01871653761409228,3.72020488373471e-05,-0.011901499642584962,0.019930451000762916
0.40404040404040403,5.468354430379747,0.020913536558810612,0.018823288723101614,2.9783710114224007e-05,-0.011921047584573668,0.019950772769255925
0.5050505050505051,5.468354430379747,0.020598126954600275,0.01850103249947482,-2.1435654584795155e-05,-0.011729747836222527,0.01963379229366931
0.6060606060606061,5.468354430379747,0.02037506130275989,0.01827728689371592,-4.0870199623029525e-06,-0.011595704458942743,0.01941137677986876
0.7070707070707071,5.468354430379747,0.0202646874905427,0.018171010079174946,4.03521161169275e-05,-0.011530709270915294,0.019303321233007514
0.8080808080808081,5.468354430379747,0.020008798059150353,0.018240984929378496,5.696687265862336e-05,-0.011474934896558655,0.019186325411278588
0.9090909090909091,5.468354430379747,0.0197026395425934,0.017846634395179528,3.799436595376749e-05,-0.01126478218133188,0.018843430960401857
1.0101010101010102,5.468354430379747,0.0197098124213871,0.01777575368045039,-8.113245086539864e-06,-0.011245669830551246,0.018817479942279457
1.1111111111111112,5.468354430379747,0.01968522370776304,0.01759429890285018,0.0001466919095517489,-0.011183856783183966,0.018729234687318096
1.2121212121212122,5.468354430379747,0.019582509519070854,0.017469455488196017,2.1528119623653737e-05,-0.011115589502180062,0.018616180223337525
1.3131313131313131,5.468354430379747,0.019222859233426523,0.01743242184238554,-4.445602781064848e-05,-0.010996584322743619,0.018393275571261112
1.4141414141414141,5.468354430379747,0.01934740044563516,0.017198260583166824,-1.5736422121815546e-05,-0.010963698308640595,0.018367394467487908
1.5151515151515151,5.468354430379747,0.018991127113662524,0.01713164019773653,3.3813221687307674e-05,-0.010836830193419715,0.01813312654379072
1.6161616161616161,5.468354430379747,0.01904021707021373,0.017148355120835523,-0.00010971810304095861,-0.010856571657314774,0.018169305427553618
1.7171717171717171,5.468354430379747,0.018938460848724317,0.016900824667582987,4.287247893786575e-05,-0.01075178565489219,0.01800647332581318
1.8181818181818181,5.468354430379747,0.018523395141510378,0.016997399777334537,6.472517677137827e-05,-0.010656238475653473,0.017809850711075555
1.9191919191919191,5.468354430379747,0.01874986880310765,0.016869302011031543,8.979326591485607e-05,-0.010685751244241757,0.017884572107213295
2.0202020202020203,5.468354430379747,0.01861895020729825,0.016612802526530364,3.391114486086732e-05,-0.010569525820148584,0.01770144122548882
2.121212121212121,5.468354430379747,0.018472518410727147,0.016746902914511554,-6.162366231810115e-05,-0.01056582639757161,0.01767333057686147
2.2222222222222223,5.468354430379747,0.018478901524668717,0.016661816008108156,-4.0245851794034275e-06,-0.010542215259833062,0.01764068892085372
2.323232323232323,5.468354430379747,0.018364903757902513,0.0165737597869452,-4.1695561395673526e-05,-0.010481599063454314,0.017538213012677786
2.4242424242424243,5.468354430379747,0.018344811039348076,0.016298830424842817,6.367332865449469e-05,-0.010393092439257269,0.017412557648415577
2.525252525252525,5.468354430379747,0.018185715436558093,0.01632982847670999,-9.658784041809708e-06,-0.010354663173980424,0.017332461166531213
2.6262626262626263,5.468354430379747,0.01799806576006672,0.016329227566408807,-5.664085400479807e-05,-0.010298187997942656,0.017224667109321985
2.727272727272727,5.468354430379747,0.018296775146554596,0.01633910102593558,-1.5666425438041646e-06,-0.010390762851747051,0.017400728516186636
2.8282828282828283,5.468354430379747,0.018083381882808565,0.016210153243923858,-1.2395430667409472e-05,-0.010288060538019726,0.017223351531057054
2.929292929292929,5.468354430379747,0.017945120480169274,0.016228004600521775,8.17458594382907e-05,-0.010251937524207314,0.01715173553346273
3.0303030303030303,5.468354430379747,0.017682210922175375,0.01633937018649441,-7.560233814412721e-05,-0.010206474332600935,0.017050998749489746
3.131313131313131,5.468354430379747,0.01784862187581119,0.015973437047938004,-5.6151843534960826e-05,-0.010146617677124757,0.016989102835435484
3.2323232323232323,5.468354430379747,0.017845821864987267,0.016097098821101528,-5.208339499151991e-05,-0.01018287620582664,0.017039135201904847
3.3333333333333335,5.468354430379747,0.017622785313169898,0.015827476073458278,-3.646713878715592e-05,-0.010035078415988453,0.016797361034243334
3.4343434343434343,5.468354430379747,0.01790533259071006,0.016074401251577445,2.5181656307245545e-06,-0.01019392015268625,0.01706369916513159
3.5353535353535355,5.468354430379747,0.017709128660973093,0.01598316406428805,2.4041337486758404e-06,-0.010107687817578342,0.016912329229071498
3.6363636363636362,5.468354430379747,0.017771761987937697,0.01586552089695034,3.9309879743848075e-05,-0.010091184865466412,0.016899605086869884
3.7373737373737375,5.468354430379747,0.017818721870553784,0.01568803643199999,-7.825554617622198e-05,-0.01005202749076613,0.016855235094964116
3.8383838383838382,5.468354430379747,0.017476259862804943,0.015652500750572146,-2.8803195415993695e-05,-0.009938628184013127,0.016639584033003918
3.9393939393939394,5.468354430379747,0.01745383463554285,0.015848078181026095,-8.25630406738335e-05,-0.009990573844970681,0.01670953738501046
4.040404040404041,5.468354430379747,0.017574925349159137,0.01583307570303479,0.00013393051274009288,-0.010022400315658176,0.01677357969739476
4.141414141414141,5.468354430379747,0.017486624217490667,0.01590576986283904,4.86566512410212e-05,-0.010017718224098911,0.01675244529557119
4.242424242424242,5.468354430379747,0.017543352208285148,0.01582642874115888,5.80972593364471e-06,-0.010010934284833206,0.016751016120110217
4.343434343434343,5.468354430379747,0.017627212665508613,0.01589484598313182,-4.248872090740598e-06,-0.01005661759459213,0.016828041446084012
4.444444444444445,5.468354430379747,0.01736240741741202,0.015772362644468546,4.801344852885585e-06,-0.009940431018564169,0.01662451496156008
4.545454545454545,5.468354430379747,0.017658529955375323,0.015550940178750694,-3.061320120245028e-05,-0.009962841040237806,0.016704834304820716
4.646464646464646,5.468354430379747,0.017638664522779762,0.01588761325061275,-4.070982015045813e-06,-0.010057883332017752,0.01683159263027923
4.747474747474747,5.468354430379747,0.01760840671936554,0.015826860538898587,8.001730108098488e-05,-0.010030580177479237,0.01678924991052776
4.848484848484849,5.468354430379747,0.017601459803981735,0.015777815699902026,5.398112135342213e-05,-0.010013782651165128,0.016764456702774173
4.94949494949495,5.468354430379747,0.017568352928268516,0.01564172989695408,5.622439268201731e-05,-0.00996302484756678,0.016688942180082208
5.05050505050505,5.468354430379747,0.017404308980432957,0.015825323871598632,-1.773443059434324e-05,-0.009968889855609477,0.016671021680770802
5.151515151515151,5.468354430379747,0.01737066789425708,0.015496489313812818,-1.3681926558921485e-05,-0.00986014716242097,0.016513554321643947
5.252525252525253,5.468354430379747,0.01736100482994597,0.015865570899992625,8.179234482202102e-06,-0.009967972718981576,0.016663696359544844
5.353535353535354,5.468354430379747,0.017383667021834307,0.015666010508667953,-4.611995533946649e-05,-0.009914903259150678,0.016591848459147195
5.454545454545454,5.468354430379747,0.0175931884864989,0.015852266778665622,4.3241334939889756e-05,-0.010033636579549357,0.016790721700012667
5.555555555555555,5.468354430379747,0.017503250740073917,0.015654048607343065,8.848602424490622e-07,-0.009947189804225095,0.016655818465276927
5.656565656565657,5.468354430379747,0.017539600267352136,0.01593114644375265,2.2000568462801587e-05,-0.010041224013331435,0.01679328783180232
5.757575757575758,5.468354430379747,0.01764821200279383,0.015818030315791883,1.7506273225515192e-05,-0.010039872695575713,0.016808046790033608
5.858585858585858,5.468354430379747,0.017586920545229444,0.015866302311565977,7.1718664336874e-05,-0.010035966857038624,0.0167933128329868
5.959595959595959,5.468354430379747,0.017627320625169765,0.015791973520482172,-1.849737329602745e-06,-0.01002578824369558,0.016785073422806343
6.0606060606060606,5.468354430379747,0.017774509533828114,0.015929778363221462,3.578587223520342e-05,-0.010111286369114871,0.01692781357312903
6.161616161616162,5.468354430379747,0.01752022639081481,0.016036323370530525,-5.1105975389626096e-05,-0.010066964928403602,0.01682765044692157
6.262626262626262,5.468354430379747,0.017703362023854922,0.01603720009855602,-1.4246323438067994e-05,-0.010122168636723283,0.016931894862307915
6.363636363636363,5.468354430379747,0.017675705367116806,0.01597080603388864,2.829517490325508e-05,-0.010093953420301631,0.01688799412356592
6.4646464646464645,5.468354430379747,0.01773616408121803,0.01603291687217016,-1.6365552220512166e-05,-0.010130724286016458,0.016948873086266438
6.565656565656566,5.468354430379747,0.017799433091080053,0.016135542593598947,-3.765355841697962e-06,-0.0101804927054037,0.0170285667307721
6.666666666666667,5.468354430379747,0.017831916407037518,0.016005693821291505,-5.379844496417833e-05,-0.010151283068498707,0.016992821013846922
6.767676767676767,5.468354430379747,0.017952666339059904,0.01608622571074022,-1.791300904292697e-05,-0.010211667614940037,0.017096058203177927
6.8686868686868685,5.468354430379747,0.017963345613312733,0.015894547338443102,-4.741459019608204e-05,-0.01015736788552675,0.01702368696668872
6.96969696969697,5.468354430379747,0.017797402000133678,0.016233384769285472,3.616330962721624e-05,-0.010209236030825743,0.017069333549236787
7.070707070707071,5.468354430379747,0.01778642438299508,0.016284260404709396,5.484375255725149e-05,-0.010221205436311342,0.017085206655191712
7.171717171717171,5.468354430379747,0.018201742602561587,0.016336608344770923,3.430201812316912e-05,-0.010361505284199754,0.017344653233065988
7.2727272727272725,5.468354430379747,0.017859227542005085,0.016253687778463952,2.3689502718151e-05,-0.01023387459614071,0.017113087095618477
7.373737373737374,5.468354430379747,0.018155539348151936,0.01647083287780451,2.1170814454255756e-05,-0.010387911667786935,0.01737459164732221
7.474747474747475,5.468354430379747,0.018336642534499886,0.0163401206043636,-1.4887780551164327e-05,-0.010403028941659046,0.017424399996796902
7.575757575757575,5.468354430379747,0.01834387636553674,0.016322113253355957,6.564370310190835e-05,-0.010399796885667808,0.017421575155906425
7.6767676767676765,5.468354430379747,0.01822532991813386,0.016511688045549155,2.145499923251284e-05,-0.010421105389104904,0.01743183614981199
7.777777777777778,5.468354430379747,0.018011926195224633,0.016468897710401394,3.0198722388603805e-05,-0.010344247171687807,0.01729220179358116
7.878787878787879,5.468354430379747,0.018522728423347814,0.01679726354888598,4.264594441354018e-05,-0.010595997591670138,0.01772325692512922
7.979797979797979,5.468354430379747,0.018593011046028177,0.016926730687328185,0.00011028450190790298,-0.010655922520006909,0.017819423921398514
8.080808080808081,5.468354430379747,0.018621683979481187,0.016799942645997976,3.22902089448133e-05,-0.01062648798764375,0.017781031811626838
8.181818181818182,5.468354430379747,0.01869399064934195,0.01684263234910241,-4.890485569386473e-05,-0.010660986899533308,0.01784070386097538
8.282828282828282,5.468354430379747,0.01894899312412345,0.0170810738001873,-3.0438819736144197e-05,-0.010809020077293225,0.01808759387421028
8.383838383838384,5.468354430379747,0.019117580797022055,0.01695913972427518,-1.827565851023346e-05,-0.01082301615638917,0.01813498259691527
8.484848484848484,5.468354430379747,0.019083440267671524,0.01714108179557919,2.3966376990141724e-05,-0.010867356618975213,0.01819025261410611
8.585858585858587,5.468354430379747,0.01917200834221364,0.01736681710503563,-6.148869595829773e-06,-0.01096164763417478,0.018336182570099422
8.686868686868687,5.468354430379747,0.019215771227461553,0.017285167687516655,-3.0110037638946204e-06,-0.010950281674493462,0.01832689513088645
8.787878787878787,5.468354430379747,0.019564630603658567,0.017507980367510573,3.319558496818336e-05,-0.01112178329135074,0.018621769103414492
8.88888888888889,5.468354430379747,0.0196441262791046,0.017560333813195068,4.59192920017677e-05,-0.011161338027689899,0.018689727973267813
8.98989898989899,5.468354430379747,0.019681122486823358,0.017680287198189294,-7.134838945711145e-05,-0.011208422905503796,0.018761303568250693
9.09090909090909,5.468354430379747,0.01990351297290566,0.017855856802668508,-6.3880697501124475e-06,-0.01132781093267225,0.018962787129746358
9.191919191919192,5.468354430379747,0.02013228850933046,0.018037379306593607,4.658850232789463e-05,-0.01145090034477722,0.019171042751658776
9.292929292929292,5.468354430379747,0.020238192973469495,0.01829178350125656,-5.177775634959736e-05,-0.011558992942417816,0.01933880029808038
9.393939393939394,5.468354430379747,0.020377470232535944,0.018520224264107727,-0.00010897053455795352,-0.0116693083489931,0.01951615497379526
9.494949494949495,5.468354430379747,0.02042925438528943,0.01851184046319031,-1.6550851815813625e-06,-0.011682328454543922,0.019541227758996856
9.595959595959595,5.468354430379747,0.020871288221067333,0.018837586095874607,-5.226312412714083e-05,-0.01191266229508258,0.019932607140878824
9.696969696969697,5.468354430379747,0.021081069394764774,0.01879849983422744,4.8421850429851024e-06,-0.011963870768697664,0.020037531625970856
9.797979797979798,5.468354430379747,0.021170055180919176,0.019294833214520492,-3.621956021545631e-05,-0.012139466518631901,0.020297612589930906
9.8989898989899,5.468354430379747,0.021524045125427157,0.01944774269434599,-0.00011060951217609808,-0.012291536345931943,0.02056554950684918
10.0,5.468354430379747,0.0217359330598928,0.01946911341616944,2.1394765898980148e-05,-0.012361513942818671,0.02069587375431425
0.0,5.5696202531645564,0.011240321842457482,0.010182784389070342,2.8417843413906992e-05,-0.006426931869458347,0.010750747972689708
0.10101010101010101,5.5696202531645564,0.011248277574522313,0.009850127331036596,2.3503988604651787e-05,-0.006329521471667672,0.010618542639161385
0.20202020202020202,5.5696202531645564,0.011175822605573805,0.009826620983758423,6.60957218449869e-05,-0.006300733076799668,0.010566646765949034
0.30303030303030304,5.5696202531645564,0.010847862856747981,0.009766319291176821,-4.18261960504725e-06,-0.0061842546443774404,0.01034956430257076
0.40404040404040403,5.5696202531645564,0.010692319601625833,0.00972662503588058,8.329245483722777e-06,-0.006125683391251924,0.010243678911997943
0.5050505050505051,5.5696202531645564,0.010639485116626227,0.00965432921061349,-8.160196110939821e-06,-0.0060881442981719144,0.01018272183028121
0.6060606060606061,5.5696202531645564,0.010621060164128324,0.00931073855810909,4.353422198688146e-05,-0.0059795396166712235,0.010030580381752537
0.7070707070707071,5.5696202531645564,0.010538017105741926,0.009335268036757235,-7.950463266179176e-05,-0.005961985542749748,0.009992035955741012
0.8080808080808081,5.5696202531645564,0.010442650686987694,0.009338731036582712,5.311760690614499e-05,-0.005934414517071122,0.009937213347302366
0.9090909090909091,5.5696202531645564,0.010341346453493907,0.009481985226429233,-3.108399818688789e-05,-0.0059469995039769415,0.009939713006763704
1.0101010101010102,5.5696202531645564,0.010153297002842995,0.009443433556889707,1.7335770307586824e-05,-0.005879019167919811,0.00981767759342363
1.1111111111111112,5.5696202531645564,0.010219395378217455,0.009293499162307718,2.4393275390106425e-05,-0.005853868362157551,0.00978943365496922
1.2121212121212122,5.5696202531645564,0.010078549700321968,0.009042471390327147,3.772411664325671e-05,-0.005736306327194734,0.009602745696545489
1.3131313131313131,5.5696202531645564,0.010162064506362438,0.008998657359387334,-8.143550145219914e-05,-0.005748216559724932,0.009634227938401201
1.4141414141414141,5.5696202531645564,0.010023985794133092,0.008949988515075512,6.0914657728537094e-05,-0.005692192292762581,0.00953305615606941
1.5151515151515151,5.5696202531645564,0.009885763960168537,0.00910440681448846,-9.89344424628567e-05,-0.0056970512323971,0.00952070899808436
1.6161616161616161,5.5696202531645564,0.009947686860561678,0.008776528498487125,3.4526181342955502e-06,-0.005617264607714641,0.009416889342905044
1.7171717171717171,5.5696202531645564,0.009781521416746498,0.008971885761402244,-8.355348076830654e-06,-0.005626022153444622,0.009402893812741276
1.8181818181818181,5.5696202531645564,0.009747053080725782,0.008859038226631788,-4.295539208077326e-05,-0.00558182739220727,0.009335074810486356
1.9191919191919191,5.5696202531645564,0.009717673047881277,0.008851892586288514,-4.4117133216957706e-05,-0.005570869690250936,0.009315321399743628
2.0202020202020203,5.5696202531645564,0.009730046675702455,0.008790223107274123,-7.495977528170292e-06,-0.0055560809348929735,0.009295844126943295
2.121212121212121,5.5696202531645564,0.009784342135421434,0.008605253283350186,-2.840174116377873e-06,-0.005516878625631486,0.009251325148707216
2.2222222222222223,5.5696202531645564,0.009736335772284022,0.008626391208144152,-2.068808948501242e-06,-0.005508818094128451,0.00923154543296762
2.323232323232323,5.5696202531645564,0.009422909667965445,0.008594513527065346,-0.00010371626010012467,-0.005405226958509237,0.009039017422249471
2.4242424242424243,5.5696202531645564,0.009620002231059997,0.00862620154094533,-5.8610167552650385e-06,-0.005473861131601598,0.009163613966972411
2.525252525252525,5.5696202531645564,0.009408317292602214,0.008508366068579187,7.462212333589352e-06,-0.00537500500835442,0.008992190326848224
2.6262626262626263,5.5696202531645564,0.009431886168811071,0.008500624174456892,-0.00013433442082605494,-0.005379753102980388,0.00900545977112249
2.727272727272727,5.5696202531645564,0.00945151644880924,0.008479511621367362,-1.789328886318571e-05,-0.005379308421052981,0.009004998470913366
2.8282828282828283,5.5696202531645564,0.009358325677670316,0.008394816543230765,-2.1111252164324823e-05,-0.005325942666270325,0.008915778940894637
2.929292929292929,5.5696202531645564,0.009352417612602802,0.008547737439162645,-7.337492810702509e-05,-0.005370046515529634,0.008978066161244353
3.0303030303030303,5.5696202531645564,0.009286765789189792,0.008225839816968995,1.2502891105941537e-05,-0.0052537816818476355,0.00880440121104062
3.131313131313131,5.5696202531645564,0.009262780987084085,0.008271334147703754,-6.382824439617498e-05,-0.005260234540436351,0.008809696115691788
3.2323232323232323,5.5696202531645564,0.009362400271800912,0.008464020932123626,1.014865808242385e-05,-0.005347926361177362,0.008947119441428312
3.3333333333333335,5.5696202531645564,0.009250691406730696,0.008427059295513843,1.5211026771759415e-05,-0.005303325210673362,0.008867648447567926
3.4343434343434343,5.5696202531645564,0.009187154573745773,0.00828222440079843,-1.0323801884680177e-06,-0.005240813692363261,0.0087697763711466
3.5353535353535355,5.5696202531645564,0.009219948912287581,0.008314370352496523,3.5632318526768574e-05,-0.005260295779435231,0.008802383279668095
3.6363636363636362,5.5696202531645564,0.009147305702183422,0.008400295454925698,-4.466270454290562e-05,-0.005264280347132736,0.008797958802807992
3.7373737373737375,5.5696202531645564,0.009270401308787824,0.008126659831825964,9.283195790705188e-05,-0.005219118342184137,0.008756220407480749
3.8383838383838382,5.5696202531645564,0.009187560160706315,0.008124731343087154,1.1009941306867999e-05,-0.005193687451138041,0.008704965637851416
3.9393939393939394,5.5696202531645564,0.009431786188723158,0.008165933132892456,-6.261171425696813e-05,-0.005279315796484684,0.00886755208499473
4.040404040404041,5.5696202531645564,0.009156219640467906,0.008273229642024413,1.7153581114057895e-05,-0.005228834784747696,0.008748260502053625
4.141414141414141,5.5696202531645564,0.009060899887121289,0.008263522268001545,-6.663990549327424e-06,-0.00519732664653685,0.00868970035611946
4.242424242424242,5.5696202531645564,0.009189029836400693,0.008106392277920236,-0.00013717835488214492,-0.005188626634296279,0.008701634231197854
4.343434343434343,5.5696202531645564,0.009138184159294231,0.008282811657570662,-1.8481746457905695e-05,-0.005226298745059468,0.008741998920452406
4.444444444444445,5.5696202531645564,0.009123034045259968,0.008264013618384245,1.3818898141806436e-05,-0.005216114299093263,0.00872532902363222
4.545454545454545,5.5696202531645564,0.009105021707089123,0.008191194154983945,-4.848024169795353e-05,-0.005188864758621921,0.00868464923785654
4.646464646464646,5.5696202531645564,0.00924226426479804,0.008207934782133837,0.00014696663668178558,-0.005235059714079562,0.008774653120227004
4.747474747474747,5.5696202531645564,0.009032430069235979,0.008221977218580694,4.135011481151677e-05,-0.005176322186345002,0.008656003556884753
4.848484848484849,5.5696202531645564,0.009143613151296033,0.008118990308468087,3.515840730510507e-05,-0.005178781037929236,0.008677007944597685
4.94949494949495,5.5696202531645564,0.009000635427868681,0.008228582575068645,-4.5256022075897224e-05,-0.0051687654008811985,0.008640872743908734
5.05050505050505,5.5696202531645564,0.009228481662973027,0.008239154948334274,-0.00013413171859032608,-0.0052402909833921905,0.008778817213109646
5.151515151515151,5.5696202531645564,0.008862834285915635,0.008145959508324904,-2.558271086896082e-05,-0.005102638138272162,0.008527142668801455
5.252525252525253,5.5696202531645564,0.008956934095961292,0.008257016266139913,3.198215124509887e-05,-0.005164185108630362,0.008628470552049898
5.353535353535354,5.5696202531645564,0.00920476494382962,0.008276960041484021,-4.8806512944229396e-05,-0.0052445174955940916,0.008778122794496813
5.454545454545454,5.5696202531645564,0.00904936890076462,0.008134134804460371,-5.600727673563523e-05,-0.005155051111567497,0.00862878035589565
5.555555555555555,5.5696202531645564,0.00914103076272196,0.00809726339358242,6.532826956529778e-06,-0.005171488246891314,0.008666424414310895
5.656565656565657,5.5696202531645564,0.009230385302561405,0.008133771898839412,-1.7587210573171113e-05,-0.005209247160420245,0.008733918792648822
5.757575757575758,5.5696202531645564,0.009297242401017158,0.008184575274905275,9.711984137210904e-05,-0.00524454530277673,0.008795470721027982
5.858585858585858,5.5696202531645564,0.008894584733650724,0.008403532954223395,3.7622695455523465e-05,-0.005189435306362236,0.008659752546989141
5.959595959595959,5.5696202531645564,0.00910642442027779,0.008355733190664325,-2.7076817326574862e-05,-0.005238647283282634,0.008755374895521004
6.0606060606060606,5.5696202531645564,0.009243848264134734,0.008049253112805193,-0.0001494238772730082,-0.005187930413081979,0.008712067175777707
6.161616161616162,5.5696202531645564,0.00903975425150095,0.008094438830955768,6.912699476383175e-05,-0.005140257924737016,0.008606956181146883
6.262626262626262,5.5696202531645564,0.009165719643393766,0.008189326905106807,4.0311553461890536e-05,-0.005206513964550172,0.008718904307521534
6.363636363636363,5.5696202531645564,0.009177022371797875,0.008293353362372274,-2.831026165542878e-05,-0.0052411127202510455,0.008768783534486397
6.4646464646464645,5.5696202531645564,0.00921580059464899,0.008316356058142571,-9.813482574001003e-05,-0.005259646995837468,0.008802259420868222
6.565656565656566,5.5696202531645564,0.00908547814753903,0.008232925354390148,7.889596855718391e-05,-0.005195521050578754,0.008691696231708828
6.666666666666667,5.5696202531645564,0.009143788716587222,0.008520929455285214,5.775628216425625e-05,-0.005299415451561731,0.008849380748495944
6.767676767676767,5.5696202531645564,0.009402850727752834,0.008234629102591182,-8.454544869604079e-06,-0.005291243949103205,0.008876595318789537
6.8686868686868685,5.5696202531645564,0.00943042100701962,0.008447870465547088,2.6638238337649917e-05,-0.005363487441770012,0.008979672012754646
6.96969696969697,5.5696202531645564,0.009312069505907706,0.00851109226305518,1.7201809800758907e-05,-0.005346948530688865,0.00893858685560039
7.070707070707071,5.5696202531645564,0.009406441061166147,0.008408279731546954,9.704719286823783e-05,-0.00534441623781393,0.008950785900325865
7.171717171717171,5.5696202531645564,0.0094283345755435,0.00847871863115629,4.485861577283992e-05,-0.005372115962009936,0.008991551776778984
7.2727272727272725,5.5696202531645564,0.009310464787312848,0.008387648603432314,-2.5643207485465937e-05,-0.005309434017223548,0.008885182575620638
7.373737373737374,5.5696202531645564,0.009442427933079717,0.008417476947626483,1.4358485072819264e-05,-0.0053579714642118595,0.00897399367490223
7.474747474747475,5.5696202531645564,0.009328260372055213,0.008583479034934238,-2.732431809381498e-05,-0.005373521822096835,0.008979190744780142
7.575757575757575,5.5696202531645564,0.009491320843722565,0.008627701926816665,-8.11536811982822e-06,-0.005435706831161768,0.009090342256629132
7.6767676767676765,5.5696202531645564,0.009546493755648996,0.00866102946511083,6.72044734658201e-05,-0.005462256966227948,0.009136742310022332
7.777777777777778,5.5696202531645564,0.009447775328690363,0.008872435606445062,-3.96290556813125e-05,-0.005496063280540627,0.00917390349906306
7.878787878787879,5.5696202531645564,0.009619943473234747,0.008693240814316322,-9.059645086236629e-05,-0.0054939552862653205,0.009193034656831947
7.979797979797979,5.5696202531645564,0.009618264041580523,0.008890419991714032,-6.555508405231748e-06,-0.0055526052099883665,0.009275790683593993
8.080808080808081,5.5696202531645564,0.009704638410468484,0.008700066840855848,3.318490473789271e-06,-0.005521411575397299,0.00924338682048003
8.181818181818182,5.5696202531645564,0.009646254299389959,0.00881636789416035,-4.39294281669091e-05,-0.005538786658065092,0.009259558711602297
8.282828282828282,5.5696202531645564,0.009804208791980363,0.008890540804210402,-5.31031604703786e-05,-0.00560842487885723,0.0093812561710536
8.383838383838384,5.5696202531645564,0.009878030389365812,0.009058728696722418,-4.92165501375759e-05,-0.005681027725826469,0.00949531039120022
8.484848484848484,5.5696202531645564,0.00986127233064732,0.008784314312464037,2.498366392856417e-05,-0.005593675992933406,0.009369430441415848
8.585858585858587,5.5696202531645564,0.009766042859472409,0.008885549334301726,-1.9348994525230705e-05,-0.005595477658132241,0.009356978552256177
8.686868686868687,5.5696202531645564,0.009876625149384519,0.00912154179169737,-1.2169576823098922e-05,-0.0056994500823245664,0.009521588325163845
8.787878787878787,5.5696202531645564,0.010180344495534512,0.009061372410416938,-5.17248494479249e-05,-0.005772515071785435,0.009669954376717605
8.88888888888889,5.5696202531645564,0.010225751569204404,0.009085986378798188,-8.871928953581624e-05,-0.005793521384400777,0.00970740529168502
8.98989898989899,5.5696202531645564,0.010098448592751063,0.009268594413509634,-6.379534910437618e-05,-0.005810112901878209,0.009710782239881257
9.09090909090909,5.5696202531645564,0.010310793154834588,0.009289109914642003,-0.00010389003435285827,-0.005879970920842977,0.009841458580078503
9.191919191919192,5.5696202531645564,0.010387521252612296,0.009258356660586052,5.664197702553254e-05,-0.005893763373959505,0.009871981269870404
9.292929292929292,5.5696202531645564,0.010673810036219353,0.009463656623160087,-7.406126961723579e-05,-0.006041239997813832,0.01012394189739011
9.393939393939394,5.5696202531645564,0.010560043436292809,0.00955284111999526,-7.244788814628515e-05,-0.006033865366886421,0.010094979928786373
9.494949494949495,5.5696202531645564,0.010515842752196834,0.009536489965577336,7.877387100091897e-05,-0.006015699815332251,0.010062901009889297
9.595959595959595,5.5696202531645564,0.0108774320971808,0.00982800388305885,1.737794815798925e-05,-0.006211630794071894,0.010392576699002206
9.696969696969697,5.5696202531645564,0.010915496243881618,0.0098759766168393,6.338378687885675e-05,-0.006237441858216275,0.01043522109176876
9.797979797979798,5.5696202531645564,0.011071646228502686,0.009859048405452089,-2.112084300613536e-05,-0.006279208390186433,0.010517966906457918
9.8989898989899,5.5696202531645564,0.011040789415536763,0.009986590768081137,7.137159567743727e-05,-0.00630821405508537,0.01055397849873844
10.0,5.5696202531645564,0.011215903048729912,0.0100621009346121,-2.5791670549398523e-05,-0.006383401195002604,0.010685916128179925
0.0,5.670886075949367,0.011159363689208572,0.010290042507092355,-7.342449452587173e-05,-0.006434821858890278,0.01075184725993279
0.10101010101010101,5.670886075949367,0.011093557005388624,0.009990441067855928,-4.8865346875643654e-05,-0.006325199421973365,0.010585535212413675
0.20202020202020202,5.670886075949367,0.010900566090980411,0.010124093387311094,4.452176241774723e-05,-0.006307397843487451,0.010534097279841885
0.30303030303030304,5.670886075949367,0.010911188892691489,0.009794391318036357,-1.7331989990148616e-05,-0.006211674063218354,0.01039791285674288
0.40404040404040403,5.670886075949367,0.010757518989146194,0.009882602935262132,0.00012759760635701087,-0.006192036577322498,0.010350198562687698
0.5050505050505051,5.670886075949367,0.010597972155808516,0.009540014626046596,6.134569531101035e-05,-0.006041396034556533,0.010111150942925702
0.6060606060606061,5.670886075949367,0.010613970974739565,0.009607158282417566,-3.066272180822844e-05,-0.00606633877714714,0.010148230957376542
0.7070707070707071,5.670886075949367,0.010463001012433264,0.00955276118594786,-2.483197403433629e-05,-0.006004728659514337,0.010038970882646743
0.8080808080808081,5.670886075949367,0.010354210532338154,0.009384970892351066,2.4487002213252755e-05,-0.005921754427406766,0.009905311139930076
0.9090909090909091,5.670886075949367,0.010366149232444244,0.009344891343287228,1.7983184923232672e-05,-0.005913312172719442,0.009895174383833624
1.0101010101010102,5.670886075949367,0.010209027010037293,0.009186516484679485,7.4293093628430485e-06,-0.005818663048415032,0.009738125501277237
1.1111111111111112,5.670886075949367,0.010323962672802167,0.009152107738425888,-3.4842270301554505e-06,-0.005842821123368417,0.009790776224371016
1.2121212121212122,5.670886075949367,0.010161412456990699,0.009016921954853775,-2.7022870793536297e-06,-0.005753500323553342,0.00964025640179306
1.3131313131313131,5.670886075949367,0.010071787445276766,0.009151784962940899,2.587723472405398e-05,-0.005767071722465299,0.009644855952939676
1.4141414141414141,5.670886075949367,0.009950831756835558,0.008950439504647991,5.473841259940465e-05,-0.005670381378445064,0.009490737126280832
1.5151515151515151,5.670886075949367,0.009990861328766415,0.008966233423195965,-4.26651261440418e-05,-0.005687128425588714,0.009520279305584571
1.6161616161616161,5.670886075949367,0.009790272146612539,0.008852390497482465,5.113866556935167e-05,-0.005592798793228501,0.009357071101341685
1.7171717171717171,5.670886075949367,0.009873576482355179,0.00871452158915877,2.5004475170463892e-05,-0.005576429421454184,0.009348196581933475
1.8181818181818181,5.670886075949367,0.009660060538396999,0.008841679066132275,-3.6436448127390435e-06,-0.005550521881358782,0.009277981628700499
1.9191919191919191,5.670886075949367,0.009629087378431437,0.008593567400458883,8.162623897066119e-05,-0.005466796433667096,0.00915644590138031
2.0202020202020203,5.670886075949367,0.009609682581730615,0.008838688817214719,9.853728799287411e-06,-0.0055345114196836,0.009248335885172078
2.121212121212121,5.670886075949367,0.009610102128666921,0.008764216064466611,1.2655625387828573e-05,-0.005512295457940059,0.00921634500143075
2.2222222222222223,5.670886075949367,0.009518608096063856,0.008703681665376854,1.609046241516978e-05,-0.005466686928432213,0.009138479991880112
2.323232323232323,5.670886075949367,0.009346052762205091,0.008596120973121622,2.5832613678610874e-05,-0.005382652120598014,0.008994676193457929
2.4242424242424243,5.670886075949367,0.009395308933618514,0.008626894688811152,-3.259346171109882e-05,-0.005406661086728899,0.009035816963176894
2.525252525252525,5.670886075949367,0.009493219412324826,0.008576154523561324,-2.3666464601497838e-05,-0.005420812180765845,0.009069619888452478
2.6262626262626263,5.670886075949367,0.009373797120428802,0.008635366324250252,-1.4822876231749327e-05,-0.005402749033403716,0.009027298110610345
2.727272727272727,5.670886075949367,0.009370974757290006,0.008386383957018588,1.1716556461799151e-05,-0.005327207614292577,0.008919552861171244
2.8282828282828283,5.670886075949367,0.009007612477172518,0.008459849400133336,1.1272034721519652e-05,-0.005240238563191757,0.008746626239671457
2.929292929292929,5.670886075949367,0.00918725684017219,0.008360073079127015,3.0313527973287376e-05,-0.005264198975789762,0.008803018134993273
3.0303030303030303,5.670886075949367,0.009383846544350231,0.008387614775821063,5.2518575369196075e-05,-0.005331438396051388,0.008927980861781268
3.131313131313131,5.670886075949367,0.009131906795360955,0.00837753708217334,-1.8160063437971306e-05,-0.005252833163260288,0.008779120163033087
3.2323232323232323,5.670886075949367,0.009301035975187846,0.008257443203222978,-1.1719721084798418e-05,-0.005267543753523247,0.008825659988098993
3.3333333333333335,5.670886075949367,0.00938701013456022,0.008246673801142643,1.5420543169878387e-05,-0.005290105180710858,0.008872017294871864
3.4343434343434343,5.670886075949367,0.009236599758274146,0.008238371561825164,-1.382255964679938e-05,-0.005242491396029793,0.008780180721270962
3.5353535353535355,5.670886075949367,0.009310928091955394,0.008431404440977362,2.9405931166972756e-05,-0.005322699759879827,0.00890395173185068
3.6363636363636362,5.670886075949367,0.00915273480418141,0.008241099825287066,1.0397558330911748e-05,-0.005218150388840542,0.00873269739874454
3.7373737373737375,5.670886075949367,0.009092046128089712,0.008216647766006927,-3.832749392906462e-05,-0.005192608168228991,0.008687742502486486
3.8383838383838382,5.670886075949367,0.009142706455472792,0.008161342197674356,-5.921758870123001e-05,-0.005191214595944145,0.008694271215629224
3.9393939393939394,5.670886075949367,0.009310546449236089,0.008198781317063345,4.727368664915185e-05,-0.005252798329889829,0.008807829493871383
4.040404040404041,5.670886075949367,0.008901648259766482,0.008224830621371413,-2.9133940541603134e-05,-0.005137943664341368,0.008583424588281884
4.141414141414141,5.670886075949367,0.00915397807762892,0.008366634508865935,-1.0243888638513835e-05,-0.005256183775948457,0.008786820447962286
4.242424242424242,5.670886075949367,0.009093520170732818,0.008320450894114742,-4.914064964082082e-05,-0.005224191319454267,0.008733101886043496
4.343434343434343,5.670886075949367,0.00894874056481969,0.008257776021690403,-9.532280294221503e-06,-0.0051619549759530274,0.008624059360501929
4.444444444444445,5.670886075949367,0.00904998283927973,0.008453075460392263,-1.0487323069889253e-05,-0.005250917489901598,0.008766801938363409
4.545454545454545,5.670886075949367,0.009294983295866456,0.008328952430662001,1.6758240531152143e-05,-0.005287180717958536,0.0088516400663083
4.646464646464646,5.670886075949367,0.009083217578159842,0.008299156890790452,3.618347329661086e-07,-0.0052147123406850885,0.008717671667858655
4.747474747474747,5.670886075949367,0.009101989686861954,0.008080063497330809,-7.80306572341265e-05,-0.005154615955257828,0.00863754907998499
4.848484848484849,5.670886075949367,0.0091177700065236,0.008139997868556747,-4.26170076496122e-05,-0.0051773303625241044,0.008670646769468817
4.94949494949495,5.670886075949367,0.009232724597363046,0.00813968711711927,8.331576025124246e-05,-0.005211723514344695,0.008738824002232942
5.05050505050505,5.670886075949367,0.008907833413789838,0.007934660174360607,-0.0001302930296313465,-0.005052748076445133,0.008466323050940689
5.151515151515151,5.670886075949367,0.00915511374943112,0.008182426097425767,5.1345149514236404e-05,-0.005201261954057066,0.008710055792573678
5.252525252525253,5.670886075949367,0.008986875960864654,0.008279186110356822,4.384714011390867e-05,-0.005179818621366443,0.008655091638468686
5.353535353535354,5.670886075949367,0.009235778683788502,0.00808097832847215,-6.6941090775333375e-06,-0.005195027103678196,0.008715952368168823
5.454545454545454,5.670886075949367,0.009065655680117257,0.008284173973605575,2.7672460555204043e-05,-0.005204948896116849,0.008701406770846245
5.555555555555555,5.670886075949367,0.009076218977349792,0.00814441067545453,5.1884004736359994e-06,-0.0051661888958412965,0.008648051931034526
5.656565656565657,5.670886075949367,0.008953101511366964,0.008339579206808657,8.141930060735542e-06,-0.005187804215452686,0.008662661697879525
5.757575757575758,5.670886075949367,0.009287828587221486,0.008126737369543592,-7.754403257706498e-06,-0.005224369787029523,0.008765161542707955
5.858585858585858,5.670886075949367,0.009164221383163878,0.008277085379707717,3.0326268663500197e-05,-0.005232392028861479,0.008754588063600246
5.959595959595959,5.670886075949367,0.009135593054662022,0.008284702864269031,-2.9062673911215156e-05,-0.005226088775679315,0.008741408466597721
6.0606060606060606,5.670886075949367,0.0092982167514124,0.008265875295170194,-2.4309336601739856e-05,-0.005269227613974779,0.008827536567381172
6.161616161616162,5.670886075949367,0.009262307193536955,0.00807318594567027,3.864354872944656e-05,-0.005200647941762167,0.008728964289825364
6.262626262626262,5.670886075949367,0.009208632589614157,0.008328638949967965,-4.2650126669332893e-05,-0.005261181461874637,0.008802001020650776
6.363636363636363,5.670886075949367,0.009146789429542774,0.008232363771178622,-5.190135049035909e-06,-0.005213745960216418,0.008725591843511115
6.4646464646464645,5.670886075949367,0.009242159596866709,0.008156129141961769,3.5523583279717154e-05,-0.005219486621648542,0.00875005686533261
6.565656565656566,5.670886075949367,0.009253866873918107,0.00853042891616451,2.5458220296007584e-05,-0.005335288737024785,0.008914300892906214
6.666666666666667,5.670886075949367,0.009167024541878234,0.008436433803946916,-0.00010526184356482127,-0.005281037503747544,0.008826324190748693
6.767676767676767,5.670886075949367,0.00933340470871785,0.008373432951675674,-9.47525742448928e-05,-0.005312051298118057,0.008893880956286727
6.8686868686868685,5.670886075949367,0.009483473800793344,0.008465518004381743,-2.045065233699456e-05,-0.005384697541552526,0.009017760636415764
6.96969696969697,5.670886075949367,0.009291542483427218,0.008293927721412447,-0.00011235596337392338,-0.005275641061451899,0.008837221768117244
7.070707070707071,5.670886075949367,0.009286679140468766,0.008308313467928985,-2.9639518504622855e-06,-0.005278497782519325,0.008838204971561124
7.171717171717171,5.670886075949367,0.00937641349744982,0.008493551129490627,1.536607016398089e-05,-0.005360989388082133,0.00896767538222317
7.2727272727272725,5.670886075949367,0.009275170773933911,0.008560206409027394,6.790612107148598e-05,-0.005350613154888392,0.008939931994751177
7.373737373737374,5.670886075949367,0.00949439322347394,0.008510379970308285,-0.00010418067360703298,-0.005401431958134667,0.009044431261276114
7.474747474747475,5.670886075949367,0.009555505959870241,0.008437355541579124,-9.974342171414825e-05,-0.00539785845043481,0.009050044628152608
7.575757575757575,5.670886075949367,0.009385032925981671,0.008602194996400282,-1.9243329041605257e-05,-0.0053961683767145855,0.009019192281909756
7.6767676767676765,5.670886075949367,0.009625064305303249,0.00886925990320365,7.24892512115271e-05,-0.005548297262552069,0.009271148865034988
7.777777777777778,5.670886075949367,0.009746483665269876,0.00847902011995451,5.03214997208864e-05,-0.005467651135567316,0.009179035444715154
7.878787878787879,5.670886075949367,0.009756221437913102,0.008713027228598099,-2.3537716766473775e-05,-0.0055407745999533605,0.009278800529564661
7.979797979797979,5.670886075949367,0.009800875880377152,0.00860807844623155,-2.13237717135239e-06,-0.0055226862979826105,0.009262261483032466
8.080808080808081,5.670886075949367,0.009560529608691772,0.008627713657555968,-1.1256809594236634e-06,-0.005456472979874322,0.009129932161771218
8.181818181818182,5.670886075949367,0.009803247808273241,0.008590187747032643,-2.5854331472574944e-05,-0.0055180306665917654,0.009256633257037794
8.282828282828282,5.670886075949367,0.009781942127745273,0.008761955637355406,-4.1506800264347064e-05,-0.005563169329530204,0.009314208707907742
8.383838383838384,5.670886075949367,0.009867681055246543,0.00893314668086473,6.571968323009083e-05,-0.005640248320833382,0.009435875899655539
8.484848484848484,5.670886075949367,0.009797311765966621,0.008999829133617195,7.278953880137768e-05,-0.005639142269875144,0.009424754923193104
8.585858585858587,5.670886075949367,0.00985702455150367,0.00905002000744346,9.355656761917934e-05,-0.005672113367684139,0.009480705893188413
8.686868686868687,5.670886075949367,0.010081871068748532,0.00903082609968466,0.00013402679045972305,-0.005733809150529958,0.009602406440574529
8.787878787878787,5.670886075949367,0.010163210146166357,0.00902112597541551,2.2630694880752716e-05,-0.005755300836474559,0.009643105917769429
8.88888888888889,5.670886075949367,0.01042882646892532,0.009281730511819176,2.9517955449426782e-05,-0.005913167094223349,0.009905352083746573
8.98989898989899,5.670886075949367,0.010208480179508681,0.00933819044994761,-1.9517809802989578e-05,-0.005864001188836887,0.00980241190569165
9.09090909090909,5.670886075949367,0.010196550603784093,0.009488704606307317,1.329009830291665e-05,-0.0059055765630274225,0.009861725635955118
9.191919191919192,5.670886075949367,0.010558377154464641,0.009525710964473298,6.09904559655304e-05,-0.0060252264356813814,0.010082341394459727
9.292929292929292,5.670886075949367,0.010514386757138167,0.009554585360740109,9.151913900460638e-05,-0.006020691635363482,0.010070101874651126
9.393939393939394,5.670886075949367,0.010542892041311735,0.009489823092603485,-1.0421062337399478e-05,-0.006009814540174565,0.010057805941795648
9.494949494949495,5.670886075949367,0.010641057889935716,0.009645883725393222,-7.138431632730433e-06,-0.006086082484598681,0.010180026110521006
9.595959595959595,5.670886075949367,0.0107788364561645,0.009821491765609395,-8.486467178185576e-05,-0.006180098466532168,0.010334523133224579
9.696969696969697,5.670886075949367,0.010858280422320406,0.009878614046636999,9.814100763192228e-06,-0.006221068340687222,0.010403114757591782
9.797979797979798,5.670886075949367,0.011073325174108634,0.009966291253248863,-1.965141966048928e-05,-0.006311884928207249,0.010563459019843712
9.8989898989899,5.670886075949367,0.011256905150956382,0.010032723468371413,-5.286083299943285e-05,-0.006386888585798338,0.010697869885365212
10.0,5.670886075949367,0.011223116470070202,0.010302601800078396,-0.00011605336876065409,-0.006457715481044579,0.010794213836954822
0.0,5.772151898734177,0.011363426487760475,0.010174907242474327,7.849430706231792e-06,-0.00646150011907044,0.010818251860016085
0.10101010101010101,5.772151898734177,0.011134295621646768,0.009907709909475856,-5.693752248029397e-05,-0.006312601659336787,0.010574951972435796
0.20202020202020202,5.772151898734177,0.011052980207196543,0.010086660164596481,3.6066347898203826e-05,-0.006341892111537907,0.010603081246745472
0.30303030303030304,5.772151898734177,0.01081910832530626,0.009649481538277752,-2.691855623082918e-06,-0.006140576959075204,0.010284300394526824
0.40404040404040403,5.772151898734177,0.010849491160484432,0.009536178880929762,8.156375506219581e-05,-0.006115701012424258,0.010257067590471187
0.5050505050505051,5.772151898734177,0.010707235494674033,0.009631642364465192,9.43648431652075e-05,-0.006101663357741767,0.010213318645251261
0.6060606060606061,5.772151898734177,0.010610036746807813,0.009366144429484049,-6.196761453803179e-05,-0.005992854352887558,0.010046587710540665
0.7070707070707071,5.772151898734177,0.010623151210828317,0.00953887680511601,1.3051145681388784e-05,-0.0060486084047832985,0.010124677410480981
0.8080808080808081,5.772151898734177,0.010368509906895732,0.009557261756409492,1.8522347561950066e-05,-0.005977731498991568,0.009987678208566416
0.9090909090909091,5.772151898734177,0.010316133583561876,0.009391006595492012,4.4853635836006065e-05,-0.0059121420537161665,0.009886393377425591
1.0101010101010102,5.772151898734177,0.010177077283824117,0.009180513799655642,-4.91753612286717e-05,-0.005807277325043927,0.009717571294862889
1.1111111111111112,5.772151898734177,0.01019798382445235,0.00919870252051988,0.00011957325391839507,-0.005819005903491668,0.009739079829417031
1.2121212121212122,5.772151898734177,0.01012825710837721,0.008985936040695794,-1.9519557797558245e-05,-0.005734257944721902,0.009608221013313484
1.3131313131313131,5.772151898734177,0.009996133307876468,0.009148930192893033,-4.4966454278046423e-05,-0.00574351905023085,0.009600924168885168
1.4141414141414141,5.772151898734177,0.010101235790503732,0.009125820144914011,-3.351674506372991e-05,-0.005768116780625322,0.009650744368377269
1.5151515151515151,5.772151898734177,0.009949477063041882,0.009006863354686171,-5.831411105052535e-05,-0.005686902125318417,0.009513795381824515
1.6161616161616161,5.772151898734177,0.009966594142931192,0.008851594452839895,-2.0173022079663416e-06,-0.005645456578731325,0.009458513939657996
1.7171717171717171,5.772151898734177,0.00970623914755071,0.008915343916190125,9.990487599887771e-06,-0.005586474919122251,0.009335966732466382
1.8181818181818181,5.772151898734177,0.010012049604617927,0.008876272440525678,9.000493917227887e-05,-0.005666496613543081,0.009496524227966029
1.9191919191919191,5.772151898734177,0.009700198601177157,0.00866673987711978,7.997611945099142e-05,-0.005510081543489081,0.009228018395418444
2.0202020202020203,5.772151898734177,0.009738528852810638,0.008586805976972608,5.176026135055898e-05,-0.005497600448934974,0.009217231727418404
2.121212121212121,5.772151898734177,0.009759341047407999,0.008689255978850974,-9.625303454478435e-05,-0.0055345791078776916,0.00927223212283653
2.2222222222222223,5.772151898734177,0.00958823661929341,0.008736324513483355,0.00010131030021314398,-0.00549736833983303,0.009193611487605148
2.323232323232323,5.772151898734177,0.009618186928490704,0.008493531376696577,5.639986555765254e-05,-0.005433515491556184,0.009108609411362132
2.4242424242424243,5.772151898734177,0.009385623541262253,0.008492894456347044,2.1789600084737942e-06,-0.005363555399282789,0.00897263002723283
2.525252525252525,5.772151898734177,0.00950266669101716,0.008380885623943792,-1.000598431828821e-05,-0.005365065694488285,0.008994412475614295
2.6262626262626263,5.772151898734177,0.009231253296036034,0.008510499517378943,-5.561526126829995e-06,-0.005322525844024493,0.008892814825570389
2.727272727272727,5.772151898734177,0.009491051529041937,0.008441581208849412,3.04792099466818e-05,-0.005379789821367405,0.009012416831209253
2.8282828282828283,5.772151898734177,0.009194365512957593,0.00842706148051733,-0.00010845503486517172,-0.005286428098042477,0.00883773310380008
2.929292929292929,5.772151898734177,0.00940766698635571,0.008456413547012159,-2.3630133787858876e-05,-0.00535922416001036,0.008970043523011966
3.0303030303030303,5.772151898734177,0.009478294821821581,0.00850001360987102,-1.8192861831136324e-05,-0.005393492529507781,0.009029045467499526
3.131313131313131,5.772151898734177,0.009297667630395974,0.0082539309206249,-1.9932535960843467e-05,-0.005265479565306263,0.008822294745785351
3.2323232323232323,5.772151898734177,0.009199350850666076,0.008466094797942952,-6.713571491619341e-05,-0.005299633694582709,0.008856283782308646
3.3333333333333335,5.772151898734177,0.009276980806411926,0.008187117483533776,1.5885417405674045e-05,-0.005239229486983711,0.008782954563049715
3.4343434343434343,5.772151898734177,0.00926709385565686,0.008208742736063044,1.4316150605671361e-05,-0.005242750977515971,0.008785892744672433
3.5353535353535355,5.772151898734177,0.009236838981904047,0.00825533086494269,-6.921117412485315e-05,-0.005247650954054021,0.008788110757458086
3.6363636363636362,5.772151898734177,0.009111968455471135,0.008230967036007522,-7.148963933447346e-05,-0.005202880647443597,0.008705849056629498
3.7373737373737375,5.772151898734177,0.009199074847679898,0.008338814145065262,3.0206665363446456e-05,-0.005261366697823547,0.008800690953880119
3.8383838383838382,5.772151898734177,0.009285360726041693,0.008402877535557862,-2.025382744069107e-05,-0.005306471478479867,0.008877147981670209
3.9393939393939394,5.772151898734177,0.008966321376635228,0.008234096056546006,-5.0182170652715946e-05,-0.0051601252299543696,0.008623993283810598
4.040404040404041,5.772151898734177,0.00908833362865027,0.008059521050831978,-5.38276675129631e-05,-0.005144356403844673,0.008620601125834427
4.141414141414141,5.772151898734177,0.009090909753247485,0.00827570524343735,-1.2373215002678143e-05,-0.00520998449900545,0.008711986409236946
4.242424242424242,5.772151898734177,0.00908545666166579,0.00818827931249336,-9.036850611297655e-05,-0.005182120792247745,0.008673158791572556
4.343434343434343,5.772151898734177,0.008993689668736517,0.008168571574886459,5.840971046668145e-05,-0.005148678373086892,0.008611425708500323
4.444444444444445,5.772151898734177,0.009067556042579895,0.008405752225298602,-9.225761546448268e-06,-0.005241992480363549,0.008755447962242263
4.545454545454545,5.772151898734177,0.009033751544186052,0.008021809356799709,3.712342877015927e-05,-0.005116668270295729,0.008572933809476118
4.646464646464646,5.772151898734177,0.009275687244485978,0.008234621722846324,-3.678834590447215e-05,-0.00525309269019969,0.008801684682224352
4.747474747474747,5.772151898734177,0.009103578614213946,0.008288728768441257,-5.144851158171136e-05,-0.00521769221479656,0.008725194271452607
4.848484848484849,5.772151898734177,0.009069475864715742,0.008343307370979167,2.34401791004834e-05,-0.005223834970708473,0.008729169138027109
4.94949494949495,5.772151898734177,0.009182788563341928,0.008342743282117667,2.399829410867612e-05,-0.005257659553637878,0.008793011510671151
5.05050505050505,5.772151898734177,0.009006288793000798,0.008062041466357016,-3.5054793830058796e-05,-0.005120499077807344,0.008573468565099206
5.151515151515151,5.772151898734177,0.009103939835834641,0.008156067598638477,1.600338746165272e-05,-0.005178002230341935,0.008669001027701117
5.252525252525253,5.772151898734177,0.009191658674390339,0.008205384410788325,3.746752455555066e-05,-0.005219112925553599,0.00874059730026286
5.353535353535354,5.772151898734177,0.008912677611790232,0.007943604919961713,3.1626816983738526e-05,-0.005056884759525583,0.008469999549926483
5.454545454545454,5.772151898734177,0.00908446375473469,0.008228616619162202,-3.268237334945317e-05,-0.005193924112169068,0.008688397329797794
5.555555555555555,5.772151898734177,0.009121657565082732,0.008270879463341008,2.4285444247976203e-05,-0.005217761108527123,0.008727526737483084
5.656565656565657,5.772151898734177,0.009224680473180803,0.008168196895041011,-7.802173785519866e-05,-0.005217863210466544,0.008745480325539231
5.757575757575758,5.772151898734177,0.009151120396236126,0.008179271750564591,-1.3090406794183682e-05,-0.005199117644040215,0.008706003928858137
5.858585858585858,5.772151898734177,0.009245201864772856,0.008160481328640327,5.774509423483956e-05,-0.005221704958023955,0.008753965919868654
5.959595959595959,5.772151898734177,0.009241519514443523,0.008307378841984174,6.308485496291654e-05,-0.005264669506928309,0.008812341435441087
6.0606060606060606,5.772151898734177,0.009227543301481763,0.008275718047553145,-0.00010587465345384821,-0.0052509784047104725,0.008792277650040346
6.161616161616162,5.772151898734177,0.009203957992371524,0.008309889100326713,-2.6650980903448108e-05,-0.005254154127809471,0.008791209257476734
6.262626262626262,5.772151898734177,0.009145490478430605,0.008372644590040243,4.527499118060774e-07,-0.005255440520541254,0.008784602026252863
6.363636363636363,5.772151898734177,0.009202148082722909,0.0082145374929975,-1.7977614098600405e-05,-0.005225005672716123,0.008750299120739026
6.4646464646464645,5.772151898734177,0.009345090613205138,0.008254214712962896,2.3004436067124056e-05,-0.00527979159785041,0.008850309727656706
6.565656565656566,5.772151898734177,0.009202887093576272,0.008346034305598894,9.050288318263787e-05,-0.00526467641975255,0.008807177777778678
6.666666666666667,5.772151898734177,0.009203509195182246,0.008416996046872887,-2.1287940932490863e-05,-0.00528615157261654,0.008836620563029633
6.767676767676767,5.772151898734177,0.009185798256321641,0.008328730551291672,-5.145537742637052e-05,-0.005254358642283993,0.00878911523385781
6.8686868686868685,5.772151898734177,0.00920114319422931,0.008184081410754662,-6.736102568606343e-05,-0.005215567381495191,0.008737902046162621
6.96969696969697,5.772151898734177,0.009284975328195291,0.008491069591004109,3.4331134300369864e-05,-0.00533281347575982,0.008914773909772168
7.070707070707071,5.772151898734177,0.009313409201528424,0.008362738976027094,0.00010253334899062767,-0.005302844453266655,0.008878114848881579
7.171717171717171,5.772151898734177,0.009527507405181053,0.00843414136995732,-0.00011827993702930114,-0.005388494632541512,0.009032926661725095
7.2727272727272725,5.772151898734177,0.009338442352434142,0.00824681229611737,-4.589410668061666e-05,-0.005275576394565454,0.008843661922844817
7.373737373737374,5.772151898734177,0.009533880738487426,0.008431889771924153,3.626735028519976e-05,-0.005389731153123474,0.0090336571519
7.474747474747475,5.772151898734177,0.0094477700256972,0.008543868284595817,-8.268270790821626e-05,-0.0053974914930879055,0.009030949580793623
7.575757575757575,5.772151898734177,0.009378918419413993,0.008684401176064031,6.729728057268142e-06,-0.0054189958786434065,0.009051672785778168
7.6767676767676765,5.772151898734177,0.009787443644228759,0.008571388332098643,-4.2090655834493055e-05,-0.00550764959289822,0.009239918054036032
7.777777777777778,5.772151898734177,0.009526396247448504,0.008546052146425268,-7.271493569540359e-06,-0.005421734518162131,0.009076029543719662
7.878787878787879,5.772151898734177,0.009602852239054046,0.008763832768556861,-4.14522128905375e-05,-0.0055100055022832715,0.009212323249537297
7.979797979797979,5.772151898734177,0.009562033409804849,0.00871343356465992,-1.6156565386597694e-05,-0.005482640092339431,0.009167281366925987
8.080808080808081,5.772151898734177,0.009726854832214927,0.00867533040516886,-3.9568245876768006e-05,-0.005520655571215136,0.009246300883677628
8.181818181818182,5.772151898734177,0.009744641279184185,0.00875241122731843,3.246389578376555e-05,-0.005549115751950784,0.009288530019735964
8.282828282828282,5.772151898734177,0.009702749999032497,0.008887414978769893,4.3142588338768445e-05,-0.005577049493340717,0.009322162877825795
8.383838383838384,5.772151898734177,0.009852488729606083,0.008837905175466924,3.199456167382883e-05,-0.005607118171521903,0.0093865761531495
8.484848484848484,5.772151898734177,0.009958052297655538,0.008826207707931124,-9.08236925925248e-06,-0.0056352780016759975,0.009443154006428735
8.585858585858587,5.772151898734177,0.009979066057221942,0.008850067804544932,3.900589491739628e-05,-0.0056487401585300625,0.00946544307819289
8.686868686868687,5.772151898734177,0.010038311366645843,0.009088451046247748,-2.362482566232757e-05,-0.0057380287238680775,0.009598781717915174
8.787878787878787,5.772151898734177,0.010031752982236934,0.009222457532969401,8.537079973672586e-05,-0.005776263154561901,0.009653716357158391
8.88888888888889,5.772151898734177,0.010202203990106701,0.009264801434864198,-3.087076929999165e-05,-0.00584010162749127,0.009767444739034079
8.98989898989899,5.772151898734177,0.010408618964716955,0.009224743484685037,1.6217939985074313e-05,-0.005890008734820598,0.009870116017367514
9.09090909090909,5.772151898734177,0.010288389437003444,0.009350099758212488,6.888993767163976e-06,-0.00589154675856478,0.009852816728395632
9.191919191919192,5.772151898734177,0.010432829895594022,0.009373999342458882,3.240802090454118e-05,-0.0059420487714158705,0.009945934524266335
9.292929292929292,5.772151898734177,0.010410660712604335,0.009524765126481854,6.499198035232904e-05,-0.0059806277517258566,0.009997828812351717
9.393939393939394,5.772151898734177,0.010611165789220146,0.009553412000485305,-5.366724808298196e-05,-0.006049373336911635,0.010124244277377358
9.494949494949495,5.772151898734177,0.010793714781005232,0.0096872233900553,-3.828756380298031e-05,-0.006144281451318159,0.010285419160297344
9.595959595959595,5.772151898734177,0.01087003790436398,0.009684216293376383,-2.5300357107851036e-05,-0.006166276259322109,0.010328402170730723
9.696969696969697,5.772151898734177,0.010954563600550964,0.009958575445541134,-5.032129298793462e-05,-0.00627394171382763,0.010492446673277369
9.797979797979798,5.772151898734177,0.011034306315444869,0.009768855645939942,-1.5980691512694755e-05,-0.006240948588415444,0.010459191034354354
9.8989898989899,5.772151898734177,0.011097642724841511,0.00996449086608974,-3.2104311191802764e-05,-0.006318640077279375,0.010576837181416493
10.0,5.772151898734177,0.011232776299772982,0.010082403267168989,6.978729885642772e-06,-0.006394553870082591,0.010704059262091389
0.0,5.8734177215189876,0.011343393641803768,0.010117589344666975,6.817070058145352e-06,-0.006438294895941222,0.010782881536717746
0.10101010101010101,5.8734177215189876,0.011310445260157547,0.00994449227036056,3.477093659729247e-05,-0.006376481259155432,0.010693273123249206
0.20202020202020202,5.8734177215189876,0.010881510282078472,0.009880433671886128,-4.4900638316358057e-05,-0.00622858318618938,0.01041740097977711
0.30303030303030304,5.8734177215189876,0.010913448148189384,0.00984563507399616,2.2326768937161526e-05,-0.006227724966655663,0.010420726849951654
0.40404040404040403,5.8734177215189876,0.010898337159306196,0.0097772038174961,-7.367603453705935e-05,-0.006202662293040689,0.010384049697619987
0.5050505050505051,5.8734177215189876,0.010662717765406587,0.009730761375166116,-3.414757788465902e-05,-0.006118043742171811,0.0102288026215414
0.6060606060606061,5.8734177215189876,0.01062091645804564,0.00943622576207368,-1.1930913748683186e-06,-0.006017142666035796,0.010080915722977066
0.7070707070707071,5.8734177215189876,0.01054570234074485,0.009299168906710259,-3.0080396899698373e-05,-0.0059534613742365326,0.009981123553963005
0.8080808080808081,5.8734177215189876,0.010424581875305036,0.009423305582493581,-1.434349593365352e-05,-0.005954366237339585,0.009961786586897774
0.9090909090909091,5.8734177215189876,0.01051445048430934,0.009344086169206161,-1.1383331378272874e-05,-0.00595756099605465,0.009980885367441341
1.0101010101010102,5.8734177215189876,0.010278806271498835,0.009140881147301282,1.6044962962274686e-05,-0.005825906225640035,0.009759763950767216
1.1111111111111112,5.8734177215189876,0.010202407709122351,0.009163659333496036,-3.2788857882637966e-05,-0.005809820112785516,0.009724896510673056
1.2121212121212122,5.8734177215189876,0.010079217075788691,0.008917186986628899,-0.00012665841902041524,-0.005698921218725277,0.00955388425390792
1.3131313131313131,5.8734177215189876,0.010115575934339377,0.009050701500452651,5.662193152622894e-05,-0.005749883230437608,0.009627909117570803
1.4141414141414141,5.8734177215189876,0.009997260493116713,0.008956710768233836,-3.371903320525166e-05,-0.005686191378405164,0.009519912045869536
1.5151515151515151,5.8734177215189876,0.010008279309234274,0.009072494026648907,6.009011090377687e-05,-0.005724232000764954,0.009575311003275582
1.6161616161616161,5.8734177215189876,0.00981059932312343,0.009061631113613446,2.5699950728888956e-05,-0.005661669131021062,0.009458486502124388
1.7171717171717171,5.8734177215189876,0.009797909550599181,0.009006385848820134,9.372184968429746e-05,-0.005641288619825794,0.009428500148503941
1.8181818181818181,5.8734177215189876,0.0096717659389381,0.008770008219570235,-3.98072018595858e-05,-0.0055325322475525,0.009254155153586187
1.9191919191919191,5.8734177215189876,0.009784222858067425,0.008546353211875876,4.620322275105827e-05,-0.005499172820982991,0.00922811735529485
2.0202020202020203,5.8734177215189876,0.009746666655867809,0.008704845210766754,-7.612888022793157e-05,-0.005535453559990368,0.009270706731579726
2.121212121212121,5.8734177215189876,0.009576613470742654,0.00857833579931286,1.6600940668982298e-06,-0.005446484781016655,0.009118551022463258
2.2222222222222223,5.8734177215189876,0.009586882596183026,0.008450190282786372,5.566794804688193e-05,-0.005411121863690819,0.00907261529731829
2.323232323232323,5.8734177215189876,0.009479634536395548,0.008685501984617221,3.2538115812906255e-05,-0.0054495409563038305,0.009108743452092906
2.4242424242424243,5.8734177215189876,0.009425734574982287,0.008627051093828227,3.7695650222915316e-05,-0.0054158357006431545,0.009053090740981283
2.525252525252525,5.8734177215189876,0.009243973630783624,0.008427068220150644,-4.2679529482368515e-05,-0.00530131255528028,0.0088641071455911
2.6262626262626263,5.8734177215189876,0.009421775250456541,0.008507998160425486,-0.0001093952740852472,-0.005378932023264608,0.009001740778708795
2.727272727272727,5.8734177215189876,0.009268176586007768,0.008499750522423426,5.090657980157851e-05,-0.005330378132529358,0.008909289636869435
2.8282828282828283,5.8734177215189876,0.009499944015572352,0.00858495543161598,5.1892440259946166e-05,-0.0054254698341564996,0.00907754804786923
2.929292929292929,5.8734177215189876,0.009403910743403509,0.008383688669756193,-2.5202442685812934e-05,-0.00533627982394791,0.008937685299884963
3.0303030303030303,5.8734177215189876,0.009364659658458948,0.008443734554899893,7.403817694685254e-05,-0.005342518264007653,0.008940763298192664
3.131313131313131,5.8734177215189876,0.009267951052572913,0.008291120462561538,-2.6044001794167516e-05,-0.0052677214545403354,0.008820313570938187
3.2323232323232323,5.8734177215189876,0.009279317870311717,0.008282697453316955,-2.68637692530934e-05,-0.005268604597088601,0.008823446023794538
3.3333333333333335,5.8734177215189876,0.009363117924528293,0.00834420086113284,-3.919357298351833e-05,-0.00531219563569834,0.008897782703533806
3.4343434343434343,5.8734177215189876,0.009235993836112209,0.008283737110685408,1.4284649135375145e-05,-0.005255919284039285,0.008798633412012783
3.5353535353535355,5.8734177215189876,0.009370756634945203,0.008310348603367528,2.0758208279156844e-05,-0.00530433157149382,0.008888195104563198
3.6363636363636362,5.8734177215189876,0.00913880378442451,0.008335405786614344,3.591694591554956e-05,-0.005242262871311656,0.008764984676046058
3.7373737373737375,5.8734177215189876,0.00914645657175555,0.008290287299727703,-5.369471053966908e-06,-0.005231023161444975,0.008749849431296456
3.8383838383838382,5.8734177215189876,0.009097611532332971,0.008344006607625855,1.0790390525424355e-05,-0.005232485441987648,0.008745215858943986
3.9393939393939394,5.8734177215189876,0.009027921555806818,0.008162103036487522,-7.290630606484775e-05,-0.0051570073776883016,0.008628581206699645
4.040404040404041,5.8734177215189876,0.009141042096517529,0.008196043705527078,-6.507934213341988e-05,-0.005201125740613381,0.00870781881175835
4.141414141414141,5.8734177215189876,0.009048403057358753,0.00822954502898709,5.6898984041181036e-05,-0.0051833844259037525,0.008668591659245564
4.242424242424242,5.8734177215189876,0.009191772673826632,0.008346761537802495,1.3511766078565848e-05,-0.005261560263488737,0.008799779891655963
4.343434343434343,5.8734177215189876,0.00906364570157802,0.008262276303072174,-3.122971471097073e-05,-0.005197776601395058,0.008690883953758355
4.444444444444445,5.8734177215189876,0.009275274896473562,0.008175203412900194,-1.9119138825091747e-05,-0.0052351434928121264,0.008777158588211662
4.545454545454545,5.8734177215189876,0.008990407452760389,0.008284914479939703,-1.825947996102936e-05,-0.005182596579810028,0.008659300055227158
4.646464646464646,5.8734177215189876,0.008887535734741835,0.00819677295329956,6.042587623514226e-05,-0.005125292606412418,0.008563715292546657
4.747474747474747,5.8734177215189876,0.00908610138231455,0.008217692471862223,-4.280023973921551e-05,-0.005191138156253033,0.008684838314288956
4.848484848484849,5.8734177215189876,0.009230610314555524,0.008125160742040127,0.00010260560949919926,-0.005206731316978695,0.0087323418991456
4.94949494949495,5.8734177215189876,0.00902418162642593,0.008279995823625765,7.607569316144908e-05,-0.005191253235015508,0.008677059480077706
5.05050505050505,5.8734177215189876,0.00912548350135472,0.008094390907537859,-2.0490346563007294e-05,-0.005165962322667773,0.008656190974105365
5.151515151515151,5.8734177215189876,0.009180777006083954,0.008187920471964134,2.0128415354037455e-06,-0.005210609243414426,0.008726812032385593
5.252525252525253,5.8734177215189876,0.009044965163653667,0.00813939854287639,-1.2641238238541758e-05,-0.005155309111959017,0.008627925972143536
5.353535353535354,5.8734177215189876,0.009043819634257377,0.008363144580513859,-5.6591022306767504e-05,-0.005222089264431371,0.008723972565385011
5.454545454545454,5.8734177215189876,0.009150888040495953,0.008112095477833656,6.642240550251043e-05,-0.0051788950554988835,0.008679009349434417
5.555555555555555,5.8734177215189876,0.009096900669359668,0.008149750316493088,5.682816509089969e-05,-0.005173995295755827,0.008662808506552492
5.656565656565657,5.8734177215189876,0.009089488398989352,0.008260466446756381,-2.8678023317706505e-05,-0.005204986453723719,0.008704777919187905
5.757575757575758,5.8734177215189876,0.008936839318570793,0.008177009182768235,7.031999009840118e-06,-0.005134154550401708,0.008582197117008064
5.858585858585858,5.8734177215189876,0.009088023329420204,0.008144171699347339,3.056500937800802e-05,-0.005169658508630263,0.00865494546265073
5.959595959595959,5.8734177215189876,0.009090489692770624,0.008301662394381402,1.3850409226686368e-05,-0.0052176456261456075,0.008722900918683928
6.0606060606060606,5.8734177215189876,0.009128094937222029,0.008408817601619028,1.5071569715377554e-05,-0.0052610737616523165,0.008790593081215587
6.161616161616162,5.8734177215189876,0.009117128103027559,0.008370480723507328,-3.652647033737552e-05,-0.005246282647960466,0.00876790909502314
6.262626262626262,5.8734177215189876,0.00913942854611043,0.008235140897445382,6.045761813504298e-05,-0.005212370833066742,0.008723140679918768
6.363636363636363,5.8734177215189876,0.00929595040383193,0.008188960346900136,-5.518032974502343e-05,-0.0052454732252196195,0.00879538122176908
6.4646464646464645,5.8734177215189876,0.009232975406003225,0.008247129189578602,-2.9432887031607087e-05,-0.005244031378674548,0.008781801217544516
6.565656565656566,5.8734177215189876,0.00928185198473267,0.008350544159083479,-5.728383700760033e-06,-0.005289718843144844,0.008853019122640688
6.666666666666667,5.8734177215189876,0.009142111593676597,0.008340934728197254,1.401488598684766e-06,-0.005244913896562155,0.00876901626997248
6.767676767676767,5.8734177215189876,0.00940497410980268,0.008210516058179095,-8.014300959265608e-05,-0.005284647050394532,0.008869368055185312
6.8686868686868685,5.8734177215189876,0.009385335923635642,0.008414047478768814,-6.688181170484364e-05,-0.0053398150207213365,0.008940105303574867
6.96969696969697,5.8734177215189876,0.009307570166237246,0.008580734054477474,4.7163047626558305e-05,-0.005366491266214415,0.008966646423407852
7.070707070707071,5.8734177215189876,0.00950165369190576,0.008349380397890281,-2.0695929397623702e-05,-0.005355310226938812,0.00898119924015284
7.171717171717171,5.8734177215189876,0.009303704557826037,0.008518029708400994,9.116417625916009e-06,-0.005346520279868109,0.008936820805967746
7.2727272727272725,5.8734177215189876,0.009445608045859916,0.00842957748704796,8.701142308588237e-05,-0.005362555659872362,0.008982066354383152
7.373737373737374,5.8734177215189876,0.009500656622911096,0.008703751978277729,-1.6462920342284035e-05,-0.0054613225803566475,0.009128374936015538
7.474747474747475,5.8734177215189876,0.00952783715663394,0.00851395879341765,-1.8561602762749645e-06,-0.005412538785015477,0.00906352980981284
7.575757575757575,5.8734177215189876,0.009492190011804635,0.008581976829566892,-2.9769654217446498e-05,-0.005422250052411458,0.009071543500265525
7.6767676767676765,5.8734177215189876,0.009569060594188758,0.008417943534900472,7.771958924742793e-05,-0.005396101238726769,0.00904958580553635
7.777777777777778,5.8734177215189876,0.009789393147902533,0.008559543672274617,4.023743420417243e-05,-0.005504681046053146,0.009236348036998925
7.878787878787879,5.8734177215189876,0.009573366199478808,0.008503857960348802,-4.73033785047933e-05,-0.005423167247948284,0.009086314272860746
7.979797979797979,5.8734177215189876,0.009585372066369991,0.008622996183485302,2.21220067379004e-05,-0.005462510474956587,0.009142333522416444
8.080808080808081,5.8734177215189876,0.009748879347251143,0.008671399109185088,8.294122000529216e-05,-0.005526083536930869,0.009258402944820303
8.181818181818182,5.8734177215189876,0.009746143015596686,0.008732054906466929,-5.836120017419997e-05,-0.005543459376619085,0.00928129563803487
8.282828282828282,5.8734177215189876,0.009744462489181122,0.00893574928093459,6.626261165029555e-05,-0.005604063531034713,0.009367030635964358
8.383838383838384,5.8734177215189876,0.009963441990980013,0.008935845734062324,-9.544571693713045e-05,-0.0056697863175127015,0.009492895466271203
8.484848484848484,5.8734177215189876,0.00993090666971883,0.008851464900811807,4.149441449130523e-05,-0.00563471147115919,0.009437872202568604
8.585858585858587,5.8734177215189876,0.009978525768811431,0.008966771265433413,8.83407381386886e-05,-0.005683589110273453,0.009514316453025702
8.686868686868687,5.8734177215189876,0.010232992177010463,0.009014596128510756,-1.7818166092925944e-05,-0.005774276491656366,0.009681515018533402
8.787878787878787,5.8734177215189876,0.010194273662524955,0.008938627911233076,2.6841900909315264e-05,-0.005739870472127409,0.00962816840371337
8.88888888888889,5.8734177215189876,0.010229733616567087,0.00920202829835791,-2.8058105764679825e-05,-0.005829528574477498,0.009756681721634988
8.98989898989899,5.8734177215189876,0.010246741836166367,0.009460654584303825,7.887610131514865e-05,-0.005912218926141057,0.009878131534461463
9.09090909090909,5.8734177215189876,0.01042025542347958,0.009323059932167746,-3.826257372617088e-05,-0.0059229946066941975,0.009917504516832628
9.191919191919192,5.8734177215189876,0.010515217519698953,0.009531774979818778,-2.676468542892237e-05,-0.00601409774985532,0.010059721444255942
9.292929292929292,5.8734177215189876,0.01038355076224754,0.009451705304045797,-1.144098831509829e-05,-0.005950576819888,0.009950426647183321
9.393939393939394,5.8734177215189876,0.010533890544280923,0.009565547798828818,6.058083006962443e-06,-0.006029831502932921,0.010084653255453503
9.494949494949495,5.8734177215189876,0.010587930660868102,0.009518860790353223,-9.47528646002873e-06,-0.006032037435366397,0.010095950561978762
9.595959595959595,5.8734177215189876,0.010699213492539307,0.00955124522469893,-1.7305514479781248e-05,-0.006075137615171471,0.010173963896393239
9.696969696969697,5.8734177215189876,0.010830926415187906,0.009990870697802717,-7.117098813965082e-05,-0.0062465391338971865,0.01043701465403437
9.797979797979798,5.8734177215189876,0.010964819461787918,0.00994739597736462,2.0110183933859967e-05,-0.006273664631745762,0.010493224709871986
9.8989898989899,5.8734177215189876,0.011121695405231485,0.009878563793709341,-8.21516890248653e-05,-0.006300077759682248,0.010556135678285773
10.0,5.8734177215189876,0.011201411982977014,0.010233738920581308,6.243674926656116e-05,-0.006430545271067497,0.01075083308280437
0.0,5.974683544303797,0.011323970996363293,0.010038417043660102,1.5556852697401035e-05,-0.006408716412007019,0.010739093000068223
0.10101010101010101,5.974683544303797,0.0111973188974901,0.01005081301223747,2.9945732867284486e-05,-0.006374439572918271,0.010670488482854748
0.20202020202020202,5.974683544303797,0.011062894655943562,0.00991060221643446,-7.023232049669712e-06,-0.006292049061713406,0.010534129016719433
0.30303030303030304,5.974683544303797,0.011185912637611,0.009878210695305817,1.0647443577020452e-05,-0.0063192369998750445,0.010592791243467342
0.40404040404040403,5.974683544303797,0.010769011895303762,0.00978125127680284,4.9239518367971784e-05,-0.006165078951631981,0.010311030791381313
0.5050505050505051,5.974683544303797,0.01064732443653141,0.009687860240170428,8.376625777962266e-05,-0.006100555403010552,0.010202519932584963
0.6060606060606061,5.974683544303797,0.01056474616788176,0.009696304663703774,-2.506502230387025e-05,-0.00607831524947566,0.010158497573494157
0.7070707070707071,5.974683544303797,0.010472286300439212,0.00927777692511269,5.3543177615704356e-05,-0.005925018967665571,0.009929500967054647
0.8080808080808081,5.974683544303797,0.01059598587242595,0.009365895562934334,-3.3597514456995095e-05,-0.005988564430608085,0.010037798843168123
0.9090909090909091,5.974683544303797,0.010191424227423656,0.00929661819587614,-9.981369180703237e-08,-0.005846412726989938,0.009774786840568024
1.0101010101010102,5.974683544303797,0.010233500125737729,0.009425509314878835,0.00012020362211034848,-0.005897702832184969,0.009856578850782479
1.1111111111111112,5.974683544303797,0.010322642732095159,0.009162350835200398,-1.5172960683607404e-05,-0.005845498070188667,0.009794214731161184
1.2121212121212122,5.974683544303797,0.010406958249017708,0.009052099395479699,-0.0001261985809236619,-0.005837717293349223,0.009802460978407791
1.3131313131313131,5.974683544303797,0.009956216909005765,0.009052854213010579,4.873125190875629e-05,-0.005702721336604903,0.009537052403945019
1.4141414141414141,5.974683544303797,0.009885929988773728,0.008881994679925086,-1.4877021784236493e-06,-0.005630377400609644,0.009424153559366828
1.5151515151515151,5.974683544303797,0.010031439668411673,0.008968109255860456,-1.6702277850253165e-05,-0.0056998646772816386,0.009544346777249923
1.6161616161616161,5.974683544303797,0.010041270521482895,0.008974265577766087,-1.1403496074884934e-05,-0.0057046608297746946,0.00955258698296255
1.7171717171717171,5.974683544303797,0.009790602726151721,0.008808226659660521,-2.514392638643543e-05,-0.005579648815743672,0.00933835142483681
1.8181818181818181,5.974683544303797,0.009810900356785808,0.008848652587139176,2.0487489680806553e-05,-0.005597865883177494,0.00936698611113135
1.9191919191919191,5.974683544303797,0.00966932593017426,0.008943841701660859,-5.26857746519691e-05,-0.005583950289550535,0.0093282139351334
2.0202020202020203,5.974683544303797,0.009568174411342468,0.008838427478888142,-0.00014395895571984492,-0.0055219805670691825,0.009228343229866669
2.121212121212121,5.974683544303797,0.009470043935428763,0.008529112934915069,3.92425438684522e-05,-0.00539974706110315,0.009036650115134201
2.2222222222222223,5.974683544303797,0.009791954435625564,0.008602450651855923,7.863111469523909e-05,-0.005518321526244446,0.0092557156733495
2.323232323232323,5.974683544303797,0.009478053506739548,0.008576529832329824,-3.288298998606415e-05,-0.005416375001720811,0.009061169762320014
2.4242424242424243,5.974683544303797,0.009466644031641493,0.008638195105327822,-6.227471868463963e-05,-0.005431451741090794,0.009081447031353452
2.525252525252525,5.974683544303797,0.009422149150110566,0.00852826456057907,-3.7700346972256565e-05,-0.005385124113206891,0.009008766524295405
2.6262626262626263,5.974683544303797,0.00944184682425387,0.008508301544058294,-5.93377431096753e-06,-0.005385044510493649,0.009011420106330036
2.727272727272727,5.974683544303797,0.009367865331171408,0.00860245538823367,-0.00015963147893772943,-0.005391096215821523,0.009013819534599878
2.8282828282828283,5.974683544303797,0.009608883325825957,0.00845885683587892,-4.396369039799589e-05,-0.005420322048511463,0.00908892335492087
2.929292929292929,5.974683544303797,0.009282356900491933,0.008494967455194674,2.4299234683113846e-05,-0.005333197306705982,0.008914879319102686
3.0303030303030303,5.974683544303797,0.009429827077520965,0.008351438696793344,6.220431792198899e-05,-0.005334379732294293,0.0089401986773489
3.131313131313131,5.974683544303797,0.009301916826784757,0.008289586174200683,0.00010065762917176201,-0.005277450900295633,0.008841054820889437
3.2323232323232323,5.974683544303797,0.009053141758455063,0.00826078887837127,5.92153446419101e-05,-0.0051941791910479,0.008684724244917877
3.3333333333333335,5.974683544303797,0.009367074616855443,0.008151569382202824,2.0894701168964693e-05,-0.00525559319971748,0.008822421515017678
3.4343434343434343,5.974683544303797,0.009179491241916228,0.008387618983101487,1.5701499574318607e-05,-0.0052701330675053145,0.008810327819182291
3.5353535353535355,5.974683544303797,0.009131282464701834,0.008235566223462311,4.433054789025933e-05,-0.005210054606449243,0.008718341850400286
3.6363636363636362,5.974683544303797,0.009163481187435403,0.008385569305361116,6.526501609129616e-05,-0.005264715147838955,0.008801075618290122
3.7373737373737375,5.974683544303797,0.009187340230183541,0.008264670499379423,-3.8628369525130514e-07,-0.005235603218868888,0.008762514459214724
3.8383838383838382,5.974683544303797,0.009070896431593263,0.008405761092051251,6.3227876355199e-05,-0.0052429972570933545,0.008757978454396085
3.9393939393939394,5.974683544303797,0.00918698846837497,0.008393283522072293,4.458014999875743e-06,-0.005274081597134179,0.008816973749113603
4.040404040404041,5.974683544303797,0.009117068860115563,0.008321197064511355,2.971130548790805e-05,-0.005231479777388076,0.00874648425573391
4.141414141414141,5.974683544303797,0.008929316045310592,0.008145529256289571,-5.038515037705182e-06,-0.0051224535904800484,0.008564368218162888
4.242424242424242,5.974683544303797,0.00910736777261932,0.008187120617504972,1.1391300785555015e-05,-0.005188346517037287,0.008683914012362673
4.343434343434343,5.974683544303797,0.009116969900515394,0.008205329818575819,6.78233262103026e-05,-0.005196689915727364,0.008697852184849468
4.444444444444445,5.974683544303797,0.009021977243530733,0.008219683284723577,7.160211853458103e-05,-0.005172498158476292,0.008649673504259017
4.545454545454545,5.974683544303797,0.00904128594668248,0.008196973741914962,-5.875815021895926e-05,-0.0051714779065792325,0.008650688074244262
4.646464646464646,5.974683544303797,0.009031845642456205,0.008145843880011326,-7.363687112079595e-05,-0.005153306856740259,0.008623993903130362
4.747474747474747,5.974683544303797,0.009062463272192851,0.008164894693241604,-0.00012037019922937909,-0.005168207389630336,0.008651193824399755
4.848484848484849,5.974683544303797,0.009090602484411682,0.008195907064520799,6.403365910510802e-05,-0.005185952864679744,0.008678623966137082
4.94949494949495,5.974683544303797,0.008826193307632456,0.008132577550286452,-7.51574862532076e-05,-0.0050876312573756724,0.008501632214474971
5.05050505050505,5.974683544303797,0.009203873757394286,0.008049620889722395,7.945016714993524e-05,-0.005176048394135004,0.008685558769221358
5.151515151515151,5.974683544303797,0.009130616465714078,0.008140091580878257,-4.340907462072562e-05,-0.005181212413977701,0.00867818222968064
5.252525252525253,5.974683544303797,0.008972625923208839,0.008184809706095959,6.490909071191785e-05,-0.005147230688791439,0.008606539938184516
5.353535353535354,5.974683544303797,0.009095130372453294,0.008020345709998267,-7.966875706798012e-05,-0.005134642824735468,0.00860931433203525
5.454545454545454,5.974683544303797,0.00917074756371703,0.008230755179866395,-1.4508070159048648e-05,-0.005220450823075027,0.008738786823541784
5.555555555555555,5.974683544303797,0.009224230307507167,0.008168381301812183,4.187391748727284e-05,-0.005217783482795805,0.008744547316195108
5.656565656565657,5.974683544303797,0.009095371984149652,0.008042015693846908,-1.481912894971951e-05,-0.005141216303398967,0.008617153969378512
5.757575757575758,5.974683544303797,0.008988188253896402,0.008092171405112663,4.195971162138776e-05,-0.00512410789770272,0.00857566837147125
5.858585858585858,5.974683544303797,0.009059799974920374,0.008311545320860647,3.704702146463262e-05,-0.005211403588734306,0.008710048252576048
5.959595959595959,5.974683544303797,0.009125864405057997,0.008042836213863834,-6.458310616152544e-06,-0.00515061018567655,0.008635444858955486
6.0606060606060606,5.974683544303797,0.009124283757814395,0.008197681751474256,-7.324700084138278e-05,-0.005196589652786595,0.008699003454664123
6.161616161616162,5.974683544303797,0.00922180646203918,0.00838825003492785,5.767746588003662e-05,-0.005283016949090108,0.008835135243146403
6.262626262626262,5.974683544303797,0.009201520468126436,0.008161607210026336,6.434039543558625e-05,-0.005208938303445832,0.008728862150343103
6.363636363636363,5.974683544303797,0.009275785331014936,0.008274148031168745,-3.959544763736715e-06,-0.005264980008655104,0.008817740370899368
6.4646464646464645,5.974683544303797,0.009263516980543613,0.008302153832749879,4.0965288928033616e-05,-0.0052697012439880475,0.008822493784151423
6.565656565656566,5.974683544303797,0.009300453460162766,0.008319830483433474,4.505701842612263e-05,-0.005286085183078872,0.008851322389046411
6.666666666666667,5.974683544303797,0.009166604640675792,0.008254120994029553,1.593915319694651e-05,-0.005226217690411604,0.008746179302059927
6.767676767676767,5.974683544303797,0.009314575014636518,0.008191293021317941,2.764623718141673e-06,-0.0052517604107863375,0.008806826822407784
6.8686868686868685,5.974683544303797,0.009189768368023587,0.008332263829687664,8.479020993637925e-05,-0.0052566096593133745,0.008793660031435183
6.96969696969697,5.974683544303797,0.009324921580716454,0.008322094120857014,1.3675562653039284e-05,-0.005294104710472041,0.008866177250744702
7.070707070707071,5.974683544303797,0.009330464053697632,0.00828488774128643,-1.1265578721621646e-05,-0.0052846055384952175,0.008854120951503903
7.171717171717171,5.974683544303797,0.009413553066036164,0.008555559202883617,-2.491872782300551e-05,-0.005390733680675934,0.009015332875948363
7.2727272727272725,5.974683544303797,0.00959989403617671,0.008457991037570006,3.94327417611036e-05,-0.0054173655221240145,0.009083194647325342
7.373737373737374,5.974683544303797,0.009282594953357664,0.008289077674709548,-1.4423912869344409e-05,-0.005271501788420164,0.008827901864090259
7.474747474747475,5.974683544303797,0.009480854252989989,0.008431368454731348,7.222167764933655e-05,-0.005373666812316402,0.009002979719264026
7.575757575757575,5.974683544303797,0.00955993494407449,0.008295381878090083,-1.6726359401728168e-05,-0.0053565950466493715,0.008994623108323257
7.6767676767676765,5.974683544303797,0.009361357065885392,0.008528283006774906,-6.26117992785258e-06,-0.00536689202179809,0.00897387499246717
7.777777777777778,5.974683544303797,0.00946696777327709,0.008618284068643636,-1.5392616204167222e-05,-0.005425575552576217,0.009072485456985194
7.878787878787879,5.974683544303797,0.009574110566052969,0.008597582967759481,-8.400610816005904e-05,-0.0054515080601437345,0.009126280028740984
7.979797979797979,5.974683544303797,0.009550151238357943,0.008756885403481659,-5.786079905189914e-05,-0.00549211099255188,0.009179809054724488
8.080808080808081,5.974683544303797,0.009742250459188816,0.008741559601628276,-1.607757564206482e-05,-0.005545143018245127,0.009282490005419359
8.181818181818182,5.974683544303797,0.009879415928974114,0.008839706977085676,3.1398380038463223e-05,-0.005615736871817936,0.00940293008568754
8.282828282828282,5.974683544303797,0.009744004852960262,0.008802488745187947,-5.2418742593560196e-05,-0.005563948079444462,0.009309467697250978
8.383838383838384,5.974683544303797,0.009899524560822836,0.008880691701847035,-5.990292017868393e-05,-0.005634064878800961,0.009432041724547072
8.484848484848484,5.974683544303797,0.009913126510864277,0.009044760627675149,-6.967145295335468e-05,-0.0056873661415618275,0.009509494098204419
8.585858585858587,5.974683544303797,0.00992309660707817,0.00872057283486259,2.6228380289989857e-05,-0.005593100832582228,0.00937993677569015
8.686868686868687,5.974683544303797,0.009978990844201029,0.009001547329213096,1.4412035607689454e-05,-0.005694161452024237,0.009527978659042154
8.787878787878787,5.974683544303797,0.010091987146470083,0.009134221672446803,2.5134178935803227e-05,-0.005767862645675066,0.00964892002223176
8.88888888888889,5.974683544303797,0.010373543740022674,0.009209496835878163,-6.083918067286971e-05,-0.005874912172770251,0.00984384211897701
8.98989898989899,5.974683544303797,0.010078088122673055,0.009247337612931476,-7.168488289856689e-06,-0.005797627720681359,0.009689467680649
9.09090909090909,5.974683544303797,0.01041655927026001,0.009267674030046868,2.777141701377174e-05,-0.005905269990092063,0.009892397428400312
9.191919191919192,5.974683544303797,0.010390870735236991,0.009242530088279079,2.4772089150682228e-05,-0.005890020247054821,0.009867039202542211
9.292929292929292,5.974683544303797,0.010498660786551981,0.009509120274850553,-8.87024156267255e-05,-0.00600233431842076,0.010041704184255392
9.393939393939394,5.974683544303797,0.010553558043146501,0.00963367551944362,-8.074011109970836e-05,-0.006056170068777036,0.010125971287601152
9.494949494949495,5.974683544303797,0.010814033578589823,0.00968319158683212,6.157100570017277e-05,-0.006149167549626582,0.010295850404142068
9.595959595959595,5.974683544303797,0.010902845387269905,0.009671232001760555,-6.536866040866877e-07,-0.006172223216709138,0.010342186424199502
9.696969696969697,5.974683544303797,0.01095440481004603,0.00995325162244368,-3.697718974180682e-05,-0.006272296929746912,0.010489916924896281
9.797979797979798,5.974683544303797,0.010974864628146645,0.009962744689849192,8.053648732394598e-05,-0.006281282795398751,0.010506360903888292
9.8989898989899,5.974683544303797,0.011135753328086417,0.009845064245620797,-8.734140634190448e-06,-0.006294245272112164,0.010549801614325748
10.0,5.974683544303797,0.011194244186778793,0.00999509055358328,3.690291575561272e-07,-0.0063568004221086225,0.01064544288277058
0.0,6.075949367088607,0.011358067123164646,0.010063563184063888,2.7926380182706185e-05,-0.006426489092168561,0.010769433886666646
0.10101010101010101,6.075949367088607,0.011097342768782789,0.010144728134529928,-1.101395267288598e-05,-0.006372621270993815,0.010653044821451104
0.20202020202020202,6.075949367088607,0.011121333389409368,0.009904933463849375,-4.583606121694067e-05,-0.006307880055977623,0.010566077742654188
0.30303030303030304,6.075949367088607,0.010815490755212756,0.01011160210962679,3.0434486678798817e-05,-0.0062781278594518635,0.01048142056862434
0.40404040404040403,6.075949367088607,0.010798698433438588,0.009734884898739736,6.075374071275586e-05,-0.006160074999653497,0.010308581793504187
0.5050505050505051,6.075949367088607,0.010729787672126925,0.009690649243141738,-7.347293453704485e-05,-0.006126131074580599,0.010250590825649544
0.6060606060606061,6.075949367088607,0.010775124612970463,0.009625973208778437,-4.249664212034095e-05,-0.006120329346524669,0.010249245225343855
0.7070707070707071,6.075949367088607,0.010550016511093541,0.009557911123859113,6.925119644000413e-05,-0.006032378290485796,0.010091322036893034
0.8080808080808081,6.075949367088607,0.010312958183197508,0.009185340012329212,-3.186515935037235e-05,-0.005849489458658016,0.009798091464668804
0.9090909090909091,6.075949367088607,0.010249339881232439,0.009328136543032528,-2.9647369541021548e-05,-0.00587324292727949,0.009821328544446405
1.0101010101010102,6.075949367088607,0.010125560940959346,0.009174379143900327,5.686047382740005e-05,-0.005789982025457901,0.00968556561428073
1.1111111111111112,6.075949367088607,0.010247132058061503,0.009102514682241991,4.919690673743153e-05,-0.005804894022091048,0.009725845976227618
1.2121212121212122,6.075949367088607,0.010145896828308404,0.009066596626085522,-1.790793005583266e-05,-0.005763748036318178,0.0096516633261085
1.3131313131313131,6.075949367088607,0.010246771964893,0.008942619223318345,-6.539149500827615e-05,-0.005756817356463404,0.009661605584292219
1.4141414141414141,6.075949367088607,0.0100115476659752,0.00907308566136754,7.230057917003415e-05,-0.005725389998202822,0.00957768357336963
1.5151515151515151,6.075949367088607,0.009909365409579941,0.00904019874726315,1.5959501138406178e-05,-0.005684869247052926,0.009504675037357671
1.6161616161616161,6.075949367088607,0.009804410025201452,0.009034811624435174,6.503758680156714e-06,-0.0056517664948909875,0.009443167173226985
1.7171717171717171,6.075949367088607,0.009787456657650212,0.008761553988070154,9.518111832317474e-05,-0.005564703193716109,0.00931842178349994
1.8181818181818181,6.075949367088607,0.009575680885592928,0.00883068465930085,4.252482947665687e-05,-0.005521909663468133,0.009226064315802342
1.9191919191919191,6.075949367088607,0.009799430843133256,0.008589059653398443,-4.332558496413918e-05,-0.005516547148959509,0.009254108591155696
2.0202020202020203,6.075949367088607,0.009721990323407119,0.008607467182676121,5.513816666245442e-06,-0.005498837251824971,0.009215419995679479
2.121212121212121,6.075949367088607,0.009692875484650709,0.008462582361619926,-1.091653912917413e-05,-0.005446637353881191,0.00914006213276692
2.2222222222222223,6.075949367088607,0.009565429253570516,0.008737444678611027,-1.542386057392058e-05,-0.005490862179654463,0.00917952510062671
2.323232323232323,6.075949367088607,0.009558555161599805,0.008620011405840412,-0.00011564966761089131,-0.005453569970232065,0.009127751280281225
2.4242424242424243,6.075949367088607,0.009437841898769497,0.008527582819215437,4.26098398333347e-06,-0.00538962741539548,0.009017239294056829
2.525252525252525,6.075949367088607,0.009540612517950721,0.008367934457133899,4.455589079066989e-06,-0.0053725640925253865,0.00901168428332163
2.6262626262626263,6.075949367088607,0.0093132263685323,0.008441385763973987,-8.444443777352054e-05,-0.005326383639751886,0.008910557508538114
2.727272727272727,6.075949367088607,0.00945127801594353,0.008534403872900631,-5.8495837047628274e-05,-0.005395704566653248,0.00902839671182904
2.8282828282828283,6.075949367088607,0.009300552229334567,0.008310064963518318,1.097328440729218e-05,-0.005283185157855866,0.00884701189583362
2.929292929292929,6.075949367088607,0.009316412526286458,0.008395465416986169,6.044900228464472e-05,-0.005313563382981788,0.008892397033341173
3.0303030303030303,6.075949367088607,0.00937086840957207,0.008606808560011244,3.44880374317653e-05,-0.0053933030908749945,0.009013358207135254
3.131313131313131,6.075949367088607,0.009219584886215106,0.00842090814933452,6.268545410954536e-07,-0.005292147910664888,0.00884732520091153
3.2323232323232323,6.075949367088607,0.009299643572290574,0.008328776121046684,-2.941484421615112e-05,-0.005288525908001177,0.008854367771117519
3.3333333333333335,6.075949367088607,0.009161227032225938,0.008321820491417017,4.6490617980790866e-05,-0.005244914257092887,0.008772067847248722
3.4343434343434343,6.075949367088607,0.009213902811692199,0.00818188996194354,7.088316769280222e-05,-0.005218737832090721,0.00874455617614414
3.5353535353535355,6.075949367088607,0.009262855282258007,0.00822690057215585,-5.873316858858689e-05,-0.005246926756324156,0.008791367375901513
3.6363636363636362,6.075949367088607,0.009312867226695267,0.008458289571145684,1.0160074102013672e-05,-0.005331347039352285,0.008916363630522417
3.7373737373737375,6.075949367088607,0.00919219458780343,0.008295710113720569,1.5306940830478624e-05,-0.005246371410457199,0.008778392160806715
3.8383838383838382,6.075949367088607,0.009243382361987648,0.008279171764306427,2.3451273610636243e-05,-0.0052567662378882225,0.008801073924325305
3.9393939393939394,6.075949367088607,0.0090240249133768,0.008151445332731499,-3.288112096348475e-05,-0.005152641073832489,0.008621106912195479
4.040404040404041,6.075949367088607,0.009173590069296711,0.008192970514727475,-1.6571859478255728e-05,-0.0052099681752072555,0.008724757391602818
4.141414141414141,6.075949367088607,0.009019204685540365,0.008150278786260555,-4.6409281984585986e-05,-0.005150845041540276,0.008618034944249392
4.242424242424242,6.075949367088607,0.009214482656597306,0.008187419269208242,-2.7914757042716456e-05,-0.005220570577741664,0.00874642954359705
4.343434343434343,6.075949367088607,0.009100238850069942,0.008157474921298948,1.1476976342622425e-05,-0.005177314131410667,0.008667419984379756
4.444444444444445,6.075949367088607,0.00916300378125532,0.00819076687586383,-3.351960339776128e-06,-0.0052061311971357445,0.00871764338350914
4.545454545454545,6.075949367088607,0.009082076858557853,0.008169267236635405,-3.24853847806143e-06,-0.0051754032285579775,0.008661822324782598
4.646464646464646,6.075949367088607,0.009132258699509095,0.008278080147686077,-3.9549906971747465e-05,-0.005223101654158552,0.008736811948746443
4.747474747474747,6.075949367088607,0.009240307594082077,0.008218017902969665,1.4351750310331227e-05,-0.005237497649115523,0.008773978992901606
4.848484848484849,6.075949367088607,0.00911606006325278,0.008232924494455417,-0.00014546777061308995,-0.005204695367312459,0.00871178771765113
4.94949494949495,6.075949367088607,0.009152626329719984,0.008203066191927105,2.520489384091029e-05,-0.0052067077564941265,0.008716832562804776
5.05050505050505,6.075949367088607,0.00897303630591681,0.008154195413513369,4.096244485516511e-05,-0.005138169515829054,0.008593219749531221
5.151515151515151,6.075949367088607,0.009121165968149773,0.00815227614643584,3.7232204642791264e-05,-0.0051820326343756835,0.008677624671973218
5.252525252525253,6.075949367088607,0.009021326031981948,0.008302812266294798,9.124966699676162e-06,-0.005197241489483024,0.008684404888253313
5.353535353535354,6.075949367088607,0.009216808411362869,0.008157490667053855,-4.982504423687027e-05,-0.005212289723525017,0.008735881769130328
5.454545454545454,6.075949367088607,0.008998017268785007,0.008317893334290593,8.82090585828e-05,-0.00519477318092268,0.008679312123790618
5.555555555555555,6.075949367088607,0.009104790274678377,0.008262082237937554,-7.013377772660327e-06,-0.005210061753784779,0.008714059352916855
5.656565656565657,6.075949367088607,0.009043037956890232,0.008243600635008225,6.479713602503805e-05,-0.005185991577569537,0.008671729324762898
5.757575757575758,6.075949367088607,0.009170611814000824,0.007998962459756653,7.47426952642455e-05,-0.0051508722821272425,0.008645513359771087
5.858585858585858,6.075949367088607,0.009096683765161644,0.008210817606271945,1.5496826823969566e-05,-0.0051922504114300765,0.008687732185332845
5.959595959595959,6.075949367088607,0.009079465041013594,0.008150770296573948,3.982807900531029e-05,-0.005169070601276262,0.008652853097161463
6.0606060606060606,6.075949367088607,0.009182418700437543,0.008329103865890015,4.134694066644201e-05,-0.005253456769898267,0.008787183508462845
6.161616161616162,6.075949367088607,0.009151210682399906,0.008300942651571795,-8.798287034707174e-05,-0.005235646000191511,0.008758416166620804
6.262626262626262,6.075949367088607,0.00923957317456502,0.008374542120056108,8.95584930810732e-06,-0.0052842345883863375,0.008838875158565742
6.363636363636363,6.075949367088607,0.00916140865621544,0.008318451878320799,-1.810368729635172e-05,-0.005243958160360872,0.008770421677675451
6.4646464646464645,6.075949367088607,0.009269196303615142,0.008238768237130307,-4.845483419962926e-05,-0.0052523893622236344,0.008799749184097335
6.565656565656566,6.075949367088607,0.009185918082233083,0.008289059573550049,1.955492625355834e-05,-0.0052424932967349396,0.008772008013642038
6.666666666666667,6.075949367088607,0.009134925260148833,0.008283391502053416,3.529302401423301e-05,-0.005225495028660675,0.008740538244617332
6.767676767676767,6.075949367088607,0.009305381274647055,0.00837534520711476,8.742407628855112e-06,-0.005304217944528545,0.008876991429249834
6.8686868686868685,6.075949367088607,0.009386872127306971,0.008526916077688365,7.588978132535362e-05,-0.0053741364614986005,0.008988763710630236
6.96969696969697,6.075949367088607,0.00935201293037236,0.00830936946958747,-7.468127402086908e-05,-0.00529841471998795,0.008877678074091726
7.070707070707071,6.075949367088607,0.009330280068684171,0.008305523501942542,-3.400984006880393e-06,-0.005290741071188013,0.008862450062557146
7.171717171717171,6.075949367088607,0.009542069539361828,0.008448387114213389,-5.504624657200126e-05,-0.005397136996072565,0.009045459018432182
7.2727272727272725,6.075949367088607,0.009363445809879582,0.008452172851949782,4.640054530034731e-06,-0.005344685598548809,0.008942703476529867
7.373737373737374,6.075949367088607,0.009580969993747187,0.008414401645110807,3.3890139481196696e-05,-0.005398611491657398,0.00905441643695749
7.474747474747475,6.075949367088607,0.009361977330938779,0.00862176968894899,-4.524424998811412e-05,-0.00539512410596633,0.009015035266722286
7.575757575757575,6.075949367088607,0.009596927090694814,0.008518492064739331,5.751647643664487e-05,-0.005434625746630243,0.009106277714212232
7.6767676767676765,6.075949367088607,0.009521248414699956,0.008703461494875482,-6.626231519145732e-05,-0.005467412972872631,0.00914055613679851
7.777777777777778,6.075949367088607,0.009871449804663748,0.008766115643168742,4.9826863741448414e-05,-0.005591269634349747,0.009368216602482925
7.878787878787879,6.075949367088607,0.009402214848224308,0.008786903704494406,0.00014459511406771244,-0.005456735565815615,0.009113599043459694
7.979797979797979,6.075949367088607,0.009588076196276909,0.008568955004593048,4.53022086437451e-05,-0.005447109360260987,0.009121653270113354
8.080808080808081,6.075949367088607,0.009666188298401504,0.008795055711190965,-3.370027739393173e-05,-0.00553837320287774,0.009261584298050352
8.181818181818182,6.075949367088607,0.009733025793533882,0.008656156590770783,-1.5862360585018792e-05,-0.0055167547152913995,0.009241807047009257
8.282828282828282,6.075949367088607,0.009787518147585661,0.008998961376041894,9.224143027899502e-05,-0.005635943857088266,0.00941938665751437
8.383838383838384,6.075949367088607,0.009936487510403939,0.00876934258160007,5.7607200890685945e-06,-0.005611749027601203,0.009407379543690312
8.484848484848484,6.075949367088607,0.010102439334874655,0.008822735802089973,-5.361509267961539e-05,-0.005677552541089388,0.009527718408651221
8.585858585858587,6.075949367088607,0.010121908374662016,0.009042361119973537,-8.373845967237393e-06,-0.005749280848390666,0.009627646824950147
8.686868686868687,6.075949367088607,0.0099589484124599,0.009163850549516328,-1.5688145652281864e-05,-0.005736839688592868,0.009586200177730741
8.787878787878787,6.075949367088607,0.009963040018938775,0.009156960147152969,4.603226305159852e-05,-0.005736000049827523,0.009585785417238155
8.88888888888889,6.075949367088607,0.010163706040136394,0.009125024629701894,-3.1847334616436503e-05,-0.005786619200951485,0.009686380633438024
8.98989898989899,6.075949367088607,0.010241701387652355,0.009222755146555227,1.2154779037849173e-05,-0.005839336960262275,0.009772174724218704
9.09090909090909,6.075949367088607,0.010243372680305918,0.009152637542747475,-3.087056270148132e-05,-0.005818803066916018,0.009744046360385962
9.191919191919192,6.075949367088607,0.010412398524022691,0.00922608264171353,-8.512954828716795e-05,-0.005891544349720866,0.009873942261006139
9.292929292929292,6.075949367088607,0.010658328394829457,0.00954123547835041,-4.4989893017601983e-05,-0.00605986916195396,0.010146309175070768
9.393939393939394,6.075949367088607,0.010727918331457326,0.009542805034593508,-4.959001852665673e-05,-0.00608121700981525,0.010187556336057967
9.494949494949495,6.075949367088607,0.010607867706896803,0.009705776765335336,-2.2933624168209185e-06,-0.006094093341669642,0.010186823831044238
9.595959595959595,6.075949367088607,0.010893335511499591,0.0096956591599928,-7.140108073143215e-05,-0.0061766984014477175,0.010347356726280066
9.696969696969697,6.075949367088607,0.010987405563496358,0.009840907897605217,5.2759811351194754e-05,-0.006248494038330472,0.010461780626402854
9.797979797979798,6.075949367088607,0.011021271984220527,0.009877633376009927,-5.4702240088531134e-05,-0.006269671608069135,0.010496712355248277
9.8989898989899,6.075949367088607,0.011267705412320262,0.010149536938902576,1.271853203598887e-05,-0.0064251727053668516,0.010752338272075227
10.0,6.075949367088607,0.011242581445838552,0.010104883564712014,2.229878773930475e-05,-0.006404239503165169,0.010719180223016775
0.0,6.177215189873418,0.01131470657598255,0.010037238437178303,-8.013636107688468e-05,-0.006405583503948255,0.010734039225967365
0.10101010101010101,6.177215189873418,0.01106092329613924,0.009949231965329973,-6.984644323979881e-05,-0.006303046578440764,0.010549795486923324
0.20202020202020202,6.177215189873418,0.01099972488235248,0.00976247221818341,6.791243681471975e-05,-0.006228659130160766,0.010436912331903659
0.30303030303030304,6.177215189873418,0.010977998916406374,0.009649755245993402,-0.0001235468181531722,-0.006188326248719933,0.010380030121869672
0.40404040404040403,6.177215189873418,0.010657061423876589,0.00979438692421484,-6.136626918234882e-06,-0.006135434504427428,0.010252985093498757
0.5050505050505051,6.177215189873418,0.010536247951456483,0.009619906808966695,-2.9122469729214076e-05,-0.006046846428126953,0.010109399035220961
0.6060606060606061,6.177215189873418,0.010624344407424135,0.009606751295127688,2.4168412838139552e-05,-0.006069328710765547,0.010153949107349068
0.7070707070707071,6.177215189873418,0.01059513664507108,0.009432889151353223,-9.004142952154072e-05,-0.00600840773892729,0.010065678870803512
0.8080808080808081,6.177215189873418,0.010434093794655255,0.009363568404007438,6.839227154384147e-06,-0.005939298659598807,0.00994215851398427
0.9090909090909091,6.177215189873418,0.010248009023320606,0.009352040915794764,5.007508396879873e-05,-0.0058800149817346105,0.009831077310413905
1.0101010101010102,6.177215189873418,0.010443766205391463,0.009274534865084916,3.6493769156992706e-05,-0.005915490321142913,0.009911214411333033
1.1111111111111112,6.177215189873418,0.010119001611598405,0.009298569530123313,2.7208713009945984e-05,-0.005825271342516516,0.009734863625309917
1.2121212121212122,6.177215189873418,0.01017346527981591,0.009140984689088557,-5.9737521820002384e-05,-0.00579433499067134,0.009699083061946607
1.3131313131313131,6.177215189873418,0.009910028018061987,0.009128442885789055,-8.534814282139812e-05,-0.005711541271155313,0.009544414753922183
1.4141414141414141,6.177215189873418,0.009816069800964155,0.009046095023881415,-1.0307307281925319e-05,-0.0056586494474536704,0.009454643306844967
1.5151515151515151,6.177215189873418,0.009871251994328385,0.008905944944911311,-4.117363591715383e-05,-0.005633159081771908,0.009426013489454214
1.6161616161616161,6.177215189873418,0.00992352298800114,0.009037783949269029,-7.047384534069687e-05,-0.00568839208118105,0.009512417679776489
1.7171717171717171,6.177215189873418,0.00968608953597339,0.008806202471414991,7.755430167152231e-05,-0.0055476876022165144,0.009278464898114139
1.8181818181818181,6.177215189873418,0.009853602411389453,0.008724429718613666,3.846661913577124e-06,-0.005573409639000936,0.00934034994386525
1.9191919191919191,6.177215189873418,0.009716774099223087,0.008784048058942819,-4.973879874500085e-05,-0.005550246647449771,0.009286011542959934
2.0202020202020203,6.177215189873418,0.009684027195208538,0.00877405285978692,-4.433552545534163e-05,-0.0055374240164986375,0.009262943199326657
2.121212121212121,6.177215189873418,0.009677821685488162,0.008826924632189025,8.291142034788237e-07,-0.005551423895303155,0.00928167175023836
2.2222222222222223,6.177215189873418,0.009591491238128485,0.008606351072298566,-7.517368965328808e-06,-0.0054593526931281154,0.00913884082261253
2.323232323232323,6.177215189873418,0.0097027862701574,0.008699003150064707,3.2750277860397895e-05,-0.005520536826066632,0.009242043422468142
2.4242424242424243,6.177215189873418,0.009445063062064976,0.008701112107157289,7.7697947871442e-05,-0.0054438525507666796,0.009096929509390297
2.525252525252525,6.177215189873418,0.009577690953937791,0.00858818865317992,4.28510005180898e-05,-0.005449763882135313,0.009123576064362801
2.6262626262626263,6.177215189873418,0.00935249598417999,0.008408417209268715,-6.929391964891625e-06,-0.005328273958034611,0.008918022032135408
2.727272727272727,6.177215189873418,0.009498799522398328,0.008563492876302694,3.112013062531877e-05,-0.005418687719610307,0.009067557882545145
2.8282828282828283,6.177215189873418,0.009327888325974474,0.008357404776524698,-2.388473117986727e-05,-0.005305587930749752,0.008882594677868134
2.929292929292929,6.177215189873418,0.00941706169158011,0.008296607712073955,-2.521779906250181e-05,-0.005314100821096218,0.00890993779932271
3.0303030303030303,6.177215189873418,0.009361043764917108,0.008365483067614747,0.00010270983152140723,-0.005317958049759556,0.008906876115737846
3.131313131313131,6.177215189873418,0.009325045057986042,0.008361949485419,-2.06499091968339e-05,-0.005306098363021512,0.008882814197217183
3.2323232323232323,6.177215189873418,0.009269300097890325,0.008500102885227975,8.642808609153896e-05,-0.005330820894935489,0.008910896604735428
3.3333333333333335,6.177215189873418,0.00928082086471425,0.008338017568669705,-3.676016134685369e-05,-0.005285651530015186,0.008847405235722108
3.4343434343434343,6.177215189873418,0.009253783309829832,0.008369669967752846,8.490771997586e-07,-0.0052870359832748026,0.008844929102079343
3.5353535353535355,6.177215189873418,0.009323071179324734,0.008292673901135944,-5.6054488589859254e-05,-0.005284723524138203,0.00885349275230917
3.6363636363636362,6.177215189873418,0.00908138132764358,0.008159172702647573,1.605438804700487e-05,-0.005172166209087346,0.008657239780033044
3.7373737373737375,6.177215189873418,0.00928613797152443,0.008386786370783742,3.76232178755016e-05,-0.005301877302692452,0.008870960218495134
3.8383838383838382,6.177215189873418,0.009224819241860553,0.008105943898858204,8.496595837310197e-06,-0.005199228942215626,0.00871940169170055
3.9393939393939394,6.177215189873418,0.009245935387021054,0.008150041228697594,3.310604837361793e-05,-0.0052187929847155945,0.008749801520015177
4.040404040404041,6.177215189873418,0.00914596074423073,0.008142419873785946,9.808069618459342e-06,-0.0051865141854050036,0.008687786565174837
4.141414141414141,6.177215189873418,0.009116929572780087,0.008119089872890032,-1.838449919935404e-05,-0.005170805833701035,0.008661285620640828
4.242424242424242,6.177215189873418,0.009134517684756776,0.00833372331826571,-9.267245630391365e-05,-0.005240472300906746,0.008763080462967579
4.343434343434343,6.177215189873418,0.00901864185515929,0.00825800532636378,-3.228814080413725e-05,-0.005182994154456921,0.008663584014570446
4.444444444444445,6.177215189873418,0.00916528540571435,0.008286660997577803,1.936484505125804e-05,-0.005235583920987646,0.008759150583558148
4.545454545454545,6.177215189873418,0.008894602747109124,0.008152259502221607,-2.5330497798008374e-05,-0.005114058674799219,0.00854775456825902
4.646464646464646,6.177215189873418,0.009162754998099775,0.0082043988181512,9.177222152059727e-06,-0.005210146144875292,0.00872316430598918
4.747474747474747,6.177215189873418,0.009260886897352568,0.008065559684013034,-2.015926990236641e-05,-0.005197933974409681,0.00872492190984713
4.848484848484849,6.177215189873418,0.009075043798638624,0.008169876723566701,-4.5287027220426615e-06,-0.0051734761566615975,0.00865802391178757
4.94949494949495,6.177215189873418,0.009059739817314137,0.008131312764957564,3.6601572447631085e-06,-0.00515731577468151,0.008633052473228774
5.05050505050505,6.177215189873418,0.009178340390976647,0.008030684343167565,2.9402802749586606e-05,-0.005162707420243264,0.008661874072773164
5.151515151515151,6.177215189873418,0.009108148589294453,0.008213027511018434,-4.9943451394832875e-05,-0.005196352830093866,0.008695642571317245
5.252525252525253,6.177215189873418,0.009167633058889528,0.008388654251037648,5.471299390780627e-06,-0.0052668861929781536,0.008804033270032567
5.353535353535354,6.177215189873418,0.00907580133040513,0.008091854820081587,4.374883672638402e-05,-0.005150296845146015,0.008626352610394745
5.454545454545454,6.177215189873418,0.00904312807849331,0.008314023225684787,-1.629504206770432e-05,-0.005207145391253429,0.008701561201819622
5.555555555555555,6.177215189873418,0.00899656226529623,0.008130358483190433,9.050346526986601e-05,-0.005138076224545999,0.008597683290108685
5.656565656565657,6.177215189873418,0.009049706861150437,0.008212056097849947,1.7029338028504516e-05,-0.005178528887700116,0.008661364165602547
5.757575757575758,6.177215189873418,0.009104088408715974,0.007916793009656977,-4.098411076600759e-05,-0.0051062644255118845,0.008572624623185962
5.858585858585858,6.177215189873418,0.009099913646094774,0.008240029424662426,8.840466304983966e-05,-0.0052019829212271605,0.00870324096146506
5.959595959595959,6.177215189873418,0.009048769769757508,0.008321748277227096,1.4222123496688003e-05,-0.0052111554140953815,0.008708085398036448
6.0606060606060606,6.177215189873418,0.009109118851001023,0.00834053233450652,-2.0501152324971235e-06,-0.005234895355652263,0.008750179321470587
6.161616161616162,6.177215189873418,0.009251954669383297,0.008405295009616268,-6.449033614592777e-05,-0.005297174903699869,0.008859724487906428
6.262626262626262,6.177215189873418,0.00923464262974489,0.008100228301271238,1.1015829246063803e-05,-0.005200461279304838,0.008722956694591213
6.363636363636363,6.177215189873418,0.0091376229298118,0.008314854414172365,-3.7664891660366263e-06,-0.005235743203195249,0.008755283829930226
6.4646464646464645,6.177215189873418,0.009244965741935954,0.00834424658580729,-2.3265474044331613e-06,-0.005276763698322973,0.008829132747033543
6.565656565656566,6.177215189873418,0.009130695660146735,0.00823271432187564,2.157479401037897e-05,-0.005209022994606713,0.008716546095161242
6.666666666666667,6.177215189873418,0.009233668843431984,0.00844089121732787,1.5083076892958678e-05,-0.0053023680182279565,0.008863947941313507
6.767676767676767,6.177215189873418,0.009437038977810544,0.008482382086986328,2.1013278678493893e-05,-0.005375826319439062,0.00899784778891111
6.8686868686868685,6.177215189873418,0.009296185385963291,0.008468084970647959,-3.4541039635289984e-05,-0.005329281106983374,0.008911241063922333
6.96969696969697,6.177215189873418,0.009370106653717418,0.008493583850281814,-1.875427834811696e-05,-0.00535910715119977,0.008964102517443905
7.070707070707071,6.177215189873418,0.009247859843969036,0.008422698349862985,-3.4016368648622304e-05,-0.005301167458149607,0.008864327198322815
7.171717171717171,6.177215189873418,0.009388480339384785,0.00850438905069707,-0.0001365395746254253,-0.005367860817024556,0.008982251164045617
7.2727272727272725,6.177215189873418,0.009316827746891736,0.008420175506820787,-1.7735075590542088e-05,-0.005321100976113757,0.008902485812063333
7.373737373737374,6.177215189873418,0.009336451664019205,0.008540912088137832,3.770597274955245e-05,-0.0053632091256471115,0.008965431462872977
7.474747474747475,6.177215189873418,0.009381323519342432,0.008517590502487954,8.029454868356711e-05,-0.005369674206549116,0.008981739724416835
7.575757575757575,6.177215189873418,0.009429010883367521,0.008400242925366974,-1.282245294610025e-05,-0.005348776142620348,0.008959064612085545
7.6767676767676765,6.177215189873418,0.009616517300702988,0.008461865820613337,0.00011178481622700452,-0.005423514936394897,0.009096394155710568
7.777777777777778,6.177215189873418,0.009727249473313755,0.008575794438700981,6.086414891680371e-05,-0.005490913173604421,0.009206294258153298
7.878787878787879,6.177215189873418,0.009464550849982134,0.008714942467521263,-5.62063817709796e-05,-0.005453847995251019,0.009113419025680468
7.979797979797979,6.177215189873418,0.009519598067627515,0.008801956770722489,6.0248287617220835e-05,-0.005496466451505001,0.00918242828806284
8.080808080808081,6.177215189873418,0.009592980739588922,0.008670063409309306,-3.638047021932007e-05,-0.005478913244669468,0.009166651423005536
8.181818181818182,6.177215189873418,0.009535773911556716,0.008773199367378588,3.0554313267490927e-05,-0.005492691983680591,0.009178429401697266
8.282828282828282,6.177215189873418,0.009793635999586625,0.008709124004799439,-3.3891528287972686e-06,-0.005550828001315819,0.009298934944614668
8.383838383838384,6.177215189873418,0.009956516631561304,0.008882725215609004,-1.4050990388796189e-05,-0.0056517725541510916,0.00946544355214089
8.484848484848484,6.177215189873418,0.009984724880931863,0.008890476962919268,1.564849636030536e-05,-0.005662560553155339,0.009485097767941111
8.585858585858587,6.177215189873418,0.009983646773476353,0.00894636304371182,0.00010198595514480708,-0.005679002945156451,0.009509179222039945
8.686868686868687,6.177215189873418,0.010049582498408883,0.009247101642585107,-4.960010087909364e-05,-0.005789005242298196,0.00967372042506484
8.787878787878787,6.177215189873418,0.010000227813277026,0.008988697767568523,-2.3621108180680535e-05,-0.005696677674253665,0.009534877677453757
8.88888888888889,6.177215189873418,0.010341084026804807,0.009175674839940154,-3.3043904688922045e-05,-0.005855027660023489,0.009810600327920799
8.98989898989899,6.177215189873418,0.010110144369389281,0.009119576571453987,4.1066373031637775e-05,-0.005768916282252981,0.009653316509282611
9.09090909090909,6.177215189873418,0.010418910593549609,0.009328749603513034,-3.006959617397786e-05,-0.005924298059118793,0.009919000534058529
9.191919191919192,6.177215189873418,0.010427793393593563,0.009370599736103201,2.1125665301887514e-05,-0.00593951793890903,0.00994151272859356
9.292929292929292,6.177215189873418,0.010575791260903383,0.009426225577335617,1.777316653055778e-05,-0.0060006050514717,0.010050484714742477
9.393939393939394,6.177215189873418,0.010671947910350742,0.009453060629201997,3.0859520817832665e-05,-0.006037502561865821,0.010117861125873028
9.494949494949495,6.177215189873418,0.01078133597573377,0.009775894586861743,3.4035505061923065e-05,-0.006167169168778654,0.010315599431811266
9.595959595959595,6.177215189873418,0.01098850344932943,0.009854238911632516,-1.7271059815748618e-05,-0.006252822708288583,0.01046760665964233
9.696969696969697,6.177215189873418,0.010953728920214224,0.009888012002529282,-0.00011335228151395664,-0.006252522276823051,0.010463503323616976
9.797979797979798,6.177215189873418,0.010991741317095344,0.010045544847972742,3.930755140619309e-05,-0.006311185849520426,0.010550732361650019
9.8989898989899,6.177215189873418,0.011161123591081144,0.009978747735823542,-1.0249091533775702e-06,-0.006341961398071407,0.01061941865537658
10.0,6.177215189873418,0.011458314628898753,0.010186980870006844,-1.96383752963868e-05,-0.00649358864967168,0.010878560495348742
0.0,6.2784810126582276,0.011203114012888418,0.010169564499949449,-7.421459608363427e-05,-0.00641180355385136,0.010724529759801508
0.10101010101010101,6.2784810126582276,0.011110477722178005,0.009867251645989842,3.294759466126086e-06,-0.006293318810450354,0.010543980426514858
0.20202020202020202,6.2784810126582276,0.011105829639516103,0.010107117604429915,2.6594644216711335e-05,-0.006363884173183805,0.010641779635741465
0.30303030303030304,6.2784810126582276,0.011201812246871674,0.009861493920154195,-2.8620167959998906e-05,-0.006318991850107761,0.01059554217235771
0.40404040404040403,6.2784810126582276,0.010788317616669159,0.009781825983916291,0.00010053882472004179,-0.0061710430801756345,0.01032341005473027
0.5050505050505051,6.2784810126582276,0.010601469508208757,0.009647159072917237,-6.24862978030792e-05,-0.0060745885743377975,0.010158567062903962
0.6060606060606061,6.2784810126582276,0.010646846842124523,0.009508933381555548,1.2838371744726292e-05,-0.006046734067104022,0.0101259813776492
0.7070707070707071,6.2784810126582276,0.010592541802434567,0.00968275009283277,1.51790536234041e-05,-0.006082587568580201,0.01016825192875969
0.8080808080808081,6.2784810126582276,0.010495496606410054,0.009338241748740506,0.00011926888511012946,-0.005950121506545167,0.00996952348862315
0.9090909090909091,6.2784810126582276,0.010237396840812376,0.009446564691353897,-4.630439242755054e-06,-0.005905188459649882,0.009865784882071774
1.0101010101010102,6.2784810126582276,0.010248445437556772,0.009105266358057612,-4.249958377559553e-05,-0.005806113538684315,0.00972764629890718
1.1111111111111112,6.2784810126582276,0.01015923983149574,0.009112972857500005,-2.3903691232666257e-05,-0.005781663806698724,0.009678701647302258
1.2121212121212122,6.2784810126582276,0.010179312078890569,0.009190956573343357,2.6767812739167053e-05,-0.005811080595670178,0.009722993953321924
1.3131313131313131,6.2784810126582276,0.010010285798768313,0.008982015109580282,8.758396764403382e-05,-0.005697690272504578,0.009539019433891616
1.4141414141414141,6.2784810126582276,0.009892590775833794,0.009053422869290418,6.800505646536565e-05,-0.005683804093537264,0.009501572733234855
1.5151515151515151,6.2784810126582276,0.00984515620254414,0.008755133912273621,-7.535567337456553e-05,-0.005580087034445329,0.009348841905088619
1.6161616161616161,6.2784810126582276,0.01001727822857673,0.008806622696204585,-8.696520540643177e-06,-0.005647170277434394,0.009470179697790942
1.7171717171717171,6.2784810126582276,0.009593951561053542,0.00883818066324688,-4.343464847441745e-05,-0.005529639667290126,0.009239584759450309
1.8181818181818181,6.2784810126582276,0.009698549127061182,0.00863680498001081,3.989997743560917e-06,-0.005500606232121597,0.009213676019565872
1.9191919191919191,6.2784810126582276,0.009608536826646433,0.008815859702446157,-9.174130745962895e-05,-0.0055273189587277775,0.009239107047502792
2.0202020202020203,6.2784810126582276,0.009634279750969612,0.008823646817457492,6.169914440111335e-05,-0.0055373779705281305,0.009256242648574643
2.121212121212121,6.2784810126582276,0.009616193637276343,0.008523285990526201,3.242705969845307e-05,-0.005441843888340764,0.009119164993447133
2.2222222222222223,6.2784810126582276,0.00947604751348798,0.008418872586390822,-1.7361202866731147e-05,-0.005368476029963641,0.00899422924431097
2.323232323232323,6.2784810126582276,0.009442805986590008,0.008701817135862266,-5.648546084671113e-05,-0.005443386936735683,0.009095504782225983
2.4242424242424243,6.2784810126582276,0.009504449900284217,0.008455089639373272,-5.0941347803819395e-06,-0.005387861861897246,0.009025641843527915
2.525252525252525,6.2784810126582276,0.009408701483850803,0.008383387094417464,9.579650780426068e-05,-0.00533762657348048,0.008941788809004762
2.6262626262626263,6.2784810126582276,0.00939053406238013,0.008362775842842243,1.790577956174248e-05,-0.0053259929715667115,0.00892122078063942
2.727272727272727,6.2784810126582276,0.009455617867709114,0.008576160620716922,3.600662234308456e-05,-0.00540953354652781,0.009048217066441266
2.8282828282828283,6.2784810126582276,0.009523826324875952,0.008331267807122282,-4.3512484792256685e-05,-0.00535652823959947,0.008987403601058984
2.929292929292929,6.2784810126582276,0.009397685890239415,0.00818671758260318,-6.202057171274233e-05,-0.0052753210418527785,0.008855178383830046
3.0303030303030303,6.2784810126582276,0.009365873975578719,0.008537253038509924,7.640201696615976e-05,-0.005370938104226593,0.008981256065732048
3.131313131313131,6.2784810126582276,0.009351063950639178,0.008405664841356712,2.6744975296506862e-05,-0.005327018637598767,0.008916155832874886
3.2323232323232323,6.2784810126582276,0.009159764397849953,0.008403684453773578,3.396956330838349e-05,-0.005269034655487059,0.008806298220363024
3.3333333333333335,6.2784810126582276,0.009400985309916435,0.008391446230999043,5.8901263121618336e-05,-0.0053377294622746424,0.008939655472937924
3.4343434343434343,6.2784810126582276,0.009288928450163986,0.008361205645517969,4.7930157531306166e-05,-0.005295040228704586,0.008861952521909989
3.5353535353535355,6.2784810126582276,0.009109274123269546,0.008088254229728947,2.6970027844626667e-05,-0.005159258505899549,0.008644234421133361
3.6363636363636362,6.2784810126582276,0.009353241025370653,0.00819595859239328,2.9479345425013737e-05,-0.00526475988532918,0.008831799696194997
3.7373737373737375,6.2784810126582276,0.009257719995645279,0.008228638566251391,-3.1247060679564192e-06,-0.005245907568569,0.008788485061227038
3.8383838383838382,6.2784810126582276,0.009067447198896976,0.008303328920933812,1.0346589408514102e-05,-0.005211232835949237,0.00871057945627592
3.9393939393939394,6.2784810126582276,0.009119674453409258,0.008359283577556668,7.735286803423587e-05,-0.005243687409289778,0.008765277495533517
4.040404040404041,6.2784810126582276,0.009036975802352626,0.008218473876307721,4.376120533319875e-05,-0.005176634903598105,0.008657126548958144
4.141414141414141,6.2784810126582276,0.00910379110125418,0.008408009573708172,-4.506562392581276e-05,-0.005253540202488705,0.00877695661387466
4.242424242424242,6.2784810126582276,0.009116583369120907,0.008089959034156958,-3.958732378092535e-06,-0.005161962720983359,0.008649091890336871
4.343434343434343,6.2784810126582276,0.009094717427443883,0.008206265553415946,2.8978693999652874e-05,-0.005190294894257949,0.008684787410723762
4.444444444444445,6.2784810126582276,0.00915490313219572,0.008213983306897935,3.966856182739892e-05,-0.005210665931728097,0.008722859187568835
4.545454545454545,6.2784810126582276,0.009005388127460228,0.008170513277859665,-2.9804094060464395e-05,-0.005152770421595967,0.008618487346063543
4.646464646464646,6.2784810126582276,0.009056093983382947,0.008345800484285163,8.454729775118573e-05,-0.005220568340300433,0.008723893347799537
4.747474747474747,6.2784810126582276,0.009113562350384888,0.008210946944345918,-6.929121184293001e-05,-0.005197352788419241,0.008698281170457395
4.848484848484849,6.2784810126582276,0.009118042845599172,0.008123042584636421,-1.2791611543246888e-07,-0.005172325629070678,0.008663502518712916
4.94949494949495,6.2784810126582276,0.009184935890133946,0.008203323716942735,-5.1896832135142706e-05,-0.005216477882123004,0.008736054299753894
5.05050505050505,6.2784810126582276,0.009111970113220472,0.00823847235505441,-7.276154642407594e-05,-0.005205132740482464,0.008709052470807836
5.151515151515151,6.2784810126582276,0.00912025829779969,0.008058469080540843,2.4668111136862983e-05,-0.00515361821350216,0.00863854972714594
5.252525252525253,6.2784810126582276,0.00922366007712688,0.008316555257282112,5.211370932668299e-05,-0.005262064600322697,0.008805683697254726
5.353535353535354,6.2784810126582276,0.009028915671007874,0.008004732953657941,-2.554011725396675e-05,-0.005110094587399745,0.008562999821254328
5.454545454545454,6.2784810126582276,0.009203152269707186,0.008142591931434693,-4.4194937585883596e-05,-0.005203723260342563,0.00872170632523957
5.555555555555555,6.2784810126582276,0.00922004003439484,0.008309510642994376,1.899650861386943e-06,-0.005258865203216764,0.008800175872859724
5.656565656565657,6.2784810126582276,0.009192827929546201,0.00811242482715076,4.121564091200433e-05,-0.005191575827009088,0.008703360993214553
5.757575757575758,6.2784810126582276,0.009299634206370954,0.008226572470125901,-0.00012432916230134184,-0.005257862002949056,0.008814870926789646
5.858585858585858,6.2784810126582276,0.00926296071230815,0.00824137300366278,3.1047173250344487e-05,-0.005251300114791279,0.008796933987234482
5.959595959595959,6.2784810126582276,0.009186112247734298,0.0082791216809178,-4.087487422437838e-05,-0.0052395701785956286,0.008768157459117864
6.0606060606060606,6.2784810126582276,0.009029854693003238,0.008210910956207244,-3.500697361281532e-05,-0.005172229694763144,0.008649721275300242
6.161616161616162,6.2784810126582276,0.009215997933591577,0.008114132517266488,-9.003502901379197e-05,-0.00519903913525742,0.008718844810355212
6.262626262626262,6.2784810126582276,0.009231809203195588,0.008251773760675641,-8.436942169195426e-05,-0.005245074889161369,0.008784112078806737
6.363636363636363,6.2784810126582276,0.009227499584499782,0.008385729275794845,3.43919742016419e-05,-0.0052839686580883885,0.008836936068819908
6.4646464646464645,6.2784810126582276,0.00913955339119037,0.008223096835497955,5.063241644366785e-05,-0.005208795068006498,0.008717970871264627
6.565656565656566,6.2784810126582276,0.009441424321298499,0.00820744041024696,5.4756464871154147e-05,-0.005294659419463637,0.008889411600830696
6.666666666666667,6.2784810126582276,0.009315258238247017,0.008215429152160024,1.4742179006937867e-05,-0.005259206217122113,0.00881697908041762
6.767676767676767,6.2784810126582276,0.00927984228120438,0.008455010418109473,1.6727634371541826e-05,-0.005320455809794155,0.00889619863816155
6.8686868686868685,6.2784810126582276,0.009334899828600945,0.008320070764231672,3.536488664493334e-05,-0.005296491177849785,0.00887133908756084
6.96969696969697,6.2784810126582276,0.00951855392897214,0.008438799044420252,-6.115553537432678e-06,-0.005387205892017717,0.009027244685438167
7.070707070707071,6.2784810126582276,0.009337368999176142,0.008160489115838426,5.629521519297292e-06,-0.00524935743450437,0.008808100784089987
7.171717171717171,6.2784810126582276,0.009382817239525755,0.008293341594119256,-6.72992846728325e-05,-0.005302847650093504,0.008889063687794373
7.2727272727272725,6.2784810126582276,0.009474166187667558,0.008627161576634044,-1.6905508847341055e-05,-0.005430398329290481,0.009080387475471033
7.373737373737374,6.2784810126582276,0.009249292403898306,0.008325815580522433,4.714752816076387e-05,-0.005272532395326221,0.008824249595106188
7.474747474747475,6.2784810126582276,0.009488952798955872,0.008604748151317818,3.334369507243954e-05,-0.005428110285082107,0.009079383366708643
7.575757575757575,6.2784810126582276,0.009711240601800968,0.008562389470566114,-3.692156179975688e-05,-0.005482089021710125,0.009191048514827431
7.6767676767676765,6.2784810126582276,0.009602173871323788,0.00855846071761953,-0.00011128204944976917,-0.005448190376682996,0.009127229377652443
7.777777777777778,6.2784810126582276,0.009575376714546576,0.008569465901212114,-6.322173199878874e-05,-0.005443452784727606,0.009114807281184904
7.878787878787879,6.2784810126582276,0.009539511007173828,0.008640848443436029,-8.214813864069617e-05,-0.005454107835182956,0.009124544273057643
7.979797979797979,6.2784810126582276,0.0096504430356382,0.008671156987441673,-4.593742011563689e-05,-0.005496480006923961,0.00920031730236925
8.080808080808081,6.2784810126582276,0.009640379722786536,0.008721085463897455,5.567233080807203e-05,-0.005508439556005197,0.009215691814862554
8.181818181818182,6.2784810126582276,0.00954269256582226,0.00888759379680512,-1.4267455123655523e-06,-0.0055290859087882135,0.009232590955782471
8.282828282828282,6.2784810126582276,0.009732325944513658,0.00878811407086765,1.5200875257657596e-05,-0.005556132004614391,0.009296290649361749
8.383838383838384,6.2784810126582276,0.00983473220143945,0.008964691873122172,-1.3403651861871793e-05,-0.0056398272223684865,0.009429891462107362
8.484848484848484,6.2784810126582276,0.009915250618333708,0.008943043910896111,-1.0950518346465428e-05,-0.005657488358768945,0.009466681957837234
8.585858585858587,6.2784810126582276,0.010089843075803965,0.008950936553698228,-3.77238646406773e-06,-0.005712233888850658,0.009571347656787237
8.686868686868687,6.2784810126582276,0.010015024471199098,0.0089424179783567,-4.028530174977798e-05,-0.00568723273486674,0.00952438387981249
8.787878787878787,6.2784810126582276,0.010177750905720954,0.009125868342721718,2.0586308773974257e-05,-0.005791085774532801,0.009694768852597508
8.88888888888889,6.2784810126582276,0.010175417808270755,0.009154789363298338,1.5792745954774395e-05,-0.005799062151470728,0.009705474608355575
8.98989898989899,6.2784810126582276,0.010207960612358149,0.00939036983495856,1.9061815224197622e-05,-0.005879499134195013,0.009824768198202992
9.09090909090909,6.2784810126582276,0.010367873699341832,0.00918713265279818,2.1656891548414444e-05,-0.005866501905642003,0.009830899627458234
9.191919191919192,6.2784810126582276,0.010312742569072842,0.009496409457535031,2.579327212594601e-05,-0.005942745607982362,0.009929875210380105
9.292929292929292,6.2784810126582276,0.010492844045290854,0.009336679432942939,3.489043278720252e-05,-0.005948857043470138,0.009965374545318944
9.393939393939394,6.2784810126582276,0.010699929913152917,0.00958102316805858,3.424104011975218e-05,-0.006084285924363449,0.010186841809178357
9.494949494949495,6.2784810126582276,0.010534399835798803,0.009677135528648835,3.141765460619626e-05,-0.006063460609334291,0.010133147498352979
9.595959595959595,6.2784810126582276,0.010998619810182245,0.009823451435033125,6.713059355176217e-05,-0.006246621373564611,0.010461307175369671
9.696969696969697,6.2784810126582276,0.01072190522856537,0.009906759351630158,4.290355211219208e-05,-0.0061885993740586585,0.01033872912090351
9.797979797979798,6.2784810126582276,0.010880071705181064,0.010112143591703477,6.262692270418035e-05,-0.006297664589065361,0.01051771493018481
9.8989898989899,6.2784810126582276,0.011013287875768116,0.00991755381530891,3.9220140737013915e-05,-0.006279252507323108,0.010508573784343342
10.0,6.2784810126582276,0.011550542940559254,0.010070211804392019,-4.574918588231839e-05,-0.006486226423485382,0.01088641690841801
0.0,6.379746835443038,0.011315207440000577,0.010163138462231967,2.308435600277687e-05,-0.006443503770669762,0.010785494032895117
0.10101010101010101,6.379746835443038,0.011054884630760745,0.010110585777887916,-7.570644622141943e-06,-0.006349641122594598,0.010614293739645526
0.20202020202020202,6.379746835443038,0.011026452109762518,0.00991235292927095,3.992226321792174e-05,-0.006281641511710041,0.010513994636433084
0.30303030303030304,6.379746835443038,0.010941175004425867,0.009931213794278833,8.383844205583083e-05,-0.0062617166396114095,0.010473789019675432
0.40404040404040403,6.379746835443038,0.010764550836481996,0.009647477461585034,4.2774551299052464e-05,-0.006123608489420109,0.010252029237700532
0.5050505050505051,6.379746835443038,0.010619866522037535,0.009524729159997986,2.6114503808365555e-06,-0.006043378704610656,0.010116852209975765
0.6060606060606061,6.379746835443038,0.01068304368189349,0.009311394738022945,-4.043656188736614e-05,-0.00599833152597493,0.010067788381639999
0.7070707070707071,6.379746835443038,0.01069616445111216,0.009449278236177779,2.0704593306618655e-05,-0.006043632806186982,0.010130500739451034
0.8080808080808081,6.379746835443038,0.010347674022075032,0.009379515605668865,3.8083005412581716e-06,-0.005918156888323169,0.009899168864159468
0.9090909090909091,6.379746835443038,0.010564562073198443,0.009278886561090924,-8.161631937404654e-05,-0.00595303459028681,0.009985004668902732
1.0101010101010102,6.379746835443038,0.01020979656104136,0.009118336535062662,5.953036017363217e-05,-0.005798439928831206,0.009710730022905446
1.1111111111111112,6.379746835443038,0.01028509473887263,0.009339611761419482,1.36318401387102e-05,-0.005887411950087633,0.00984648603981841
1.2121212121212122,6.379746835443038,0.010043826365929548,0.009161011504671709,4.176759688993585e-05,-0.005761451361180377,0.009633078664939532
1.3131313131313131,6.379746835443038,0.010177710661067676,0.00897911585847461,-5.990582980014233e-05,-0.005747047955862686,0.00963505261147515
1.4141414141414141,6.379746835443038,0.009821792862359633,0.008998654543117617,-3.287291618580713e-05,-0.005646134221643175,0.00943735765672219
1.5151515151515151,6.379746835443038,0.009984319607500748,0.00892705064160772,-3.488166398510102e-05,-0.00567341107473254,0.009500104979201214
1.6161616161616161,6.379746835443038,0.009865012858462136,0.008993021114715158,-1.7058777935168085e-05,-0.005657410191953188,0.009459255337496888
1.7171717171717171,6.379746835443038,0.009896767445310874,0.0088107077623349,-4.546632303471098e-05,-0.0056122425622937315,0.009401236777520318
1.8181818181818181,6.379746835443038,0.009643286732138408,0.008823588046767325,-7.994962051420639e-05,-0.005540062433671719,0.009261720752727678
1.9191919191919191,6.379746835443038,0.009714857241975952,0.00877855774999473,2.128762212981256e-06,-0.005548024497591205,0.009282192934065224
2.0202020202020203,6.379746835443038,0.009680866521158014,0.008804215163112356,6.65157065086267e-07,-0.005545524505281111,0.009273669756278321
2.121212121212121,6.379746835443038,0.009822861562278079,0.008671148437361635,-9.619206431147594e-06,-0.0055482029998919135,0.009300656503477004
2.2222222222222223,6.379746835443038,0.009343482132943953,0.008429384164959388,2.045284666862938e-05,-0.005331859889371002,0.008921694367602085
2.323232323232323,6.379746835443038,0.009417621400394009,0.008718558956699766,2.8235008580907486e-05,-0.005440854107128132,0.00908840840623511
2.4242424242424243,6.379746835443038,0.009712734127203514,0.008453467230953303,6.587855271353408e-05,-0.005449860407447045,0.009149046547831706
2.525252525252525,6.379746835443038,0.009258364723283731,0.00866165796351998,1.5747042205323716e-05,-0.005376006806041113,0.008974942417629507
2.6262626262626263,6.379746835443038,0.00943161104232724,0.008397334420227687,-2.118278632199584e-05,-0.005348683638766478,0.008959434485851483
2.727272727272727,6.379746835443038,0.009398203434058939,0.008444660185456171,5.617894558773057e-05,-0.005352859085854532,0.008960097505225764
2.8282828282828283,6.379746835443038,0.009181902208135247,0.008501580459450151,6.028557908326168e-05,-0.005305044800275619,0.008861964857080792
2.929292929292929,6.379746835443038,0.00932168699839782,0.008351196069860334,-5.727415113623453e-05,-0.005301864920477447,0.008876876108915046
3.0303030303030303,6.379746835443038,0.009162723790161852,0.008438184502256163,5.387387363252821e-07,-0.005280272487725404,0.00882279501830541
3.131313131313131,6.379746835443038,0.0092808296008621,0.008361052644076139,-2.265268565499284e-06,-0.0052925646734814724,0.008856834079854246
3.2323232323232323,6.379746835443038,0.009224778094578858,0.008423793564336889,-6.588101719467533e-05,-0.005294571497674724,0.008852243980399323
3.3333333333333335,6.379746835443038,0.009157826218984888,0.008293497995632013,1.7259695076978473e-05,-0.00523539726438507,0.008757760579075239
3.4343434343434343,6.379746835443038,0.009351274704185814,0.0082458877647302,8.902138008397363e-05,-0.005279148740674804,0.008851848189623004
3.5353535353535355,6.379746835443038,0.009302861251177968,0.008309939203964585,-1.9489043586381272e-05,-0.0052838401365427655,0.008848347025321113
3.6363636363636362,6.379746835443038,0.009369640235914382,0.008458175800023744,-4.1517811289962344e-05,-0.005348344810781437,0.008949078326967317
3.7373737373737375,6.379746835443038,0.009233803919904495,0.008310358019932847,-5.816308974480923e-05,-0.005263248581951202,0.008809036134871176
3.8383838383838382,6.379746835443038,0.009147419581330382,0.008200839419759869,4.484370246941124e-05,-0.005204477700327075,0.008713126073166272
3.9393939393939394,6.379746835443038,0.009030767212441554,0.008018244249280779,5.95845691487791e-05,-0.0051147034385166995,0.00857010799122874
4.040404040404041,6.379746835443038,0.009147283065235006,0.008297029855201277,-5.451208303563724e-05,-0.005233293876130885,0.00875369213012402
4.141414141414141,6.379746835443038,0.009013956573537199,0.008100313293242952,-5.9009987693982005e-05,-0.005134280960034044,0.008594245914384102
4.242424242424242,6.379746835443038,0.00897199130054871,0.00820445225660956,2.167213867236672e-05,-0.005152933067147481,0.008613988594189286
4.343434343434343,6.379746835443038,0.009047601241354574,0.008278049932252288,-3.1270286627786315e-05,-0.005197695352082058,0.008688592380406581
4.444444444444445,6.379746835443038,0.009149332871129725,0.008272349373949446,1.30789726649375e-05,-0.005226504673523751,0.008743917387615778
4.545454545454545,6.379746835443038,0.00893971877730854,0.008181913115799903,-8.17386331624278e-06,-0.005136489567932533,0.008585946201343361
4.646464646464646,6.379746835443038,0.008994461235643092,0.008136195408077642,-4.362392817135437e-05,-0.00513919699311622,0.008597849939122314
4.747474747474747,6.379746835443038,0.009217363311226922,0.008202860644014614,3.6194119823841346e-05,-0.005226067186572461,0.00875453553604975
4.848484848484849,6.379746835443038,0.009192472091302509,0.008172539779466238,-5.353321666494585e-05,-0.005209503561230624,0.008727812049671449
4.94949494949495,6.379746835443038,0.009128897176668625,0.008218512394250676,-2.319747000857007e-05,-0.00520422287127579,0.008709556212126634
5.05050505050505,6.379746835443038,0.009163848828597955,0.00803796805629214,-1.4695308439045725e-05,-0.0051605450654670275,0.008656037172209856
5.151515151515151,6.379746835443038,0.009287842843106945,0.008090059093490427,6.0761981986438375e-05,-0.005213370580979211,0.008751283301207741
5.252525252525253,6.379746835443038,0.009078443751559365,0.008109045379400767,-8.446227186084896e-05,-0.005156246739288039,0.008635892958216868
5.353535353535354,6.379746835443038,0.009389541666456929,0.008205365309580557,-5.786974915591623e-05,-0.005278472092811246,0.008857592214060997
5.454545454545454,6.379746835443038,0.009351359238312583,0.008393978837995664,-8.999809752088686e-05,-0.005323601422892474,0.008912686898824294
5.555555555555555,6.379746835443038,0.009103805689235113,0.00822130080810442,7.909067642298553e-06,-0.005197531949201859,0.008696213405558
5.656565656565657,6.379746835443038,0.00902069798725194,0.008183948113370495,-4.262615540306476e-05,-0.00516139383018673,0.008633106369834064
5.757575757575758,6.379746835443038,0.009188318544154818,0.008237264366392993,3.224207984313169e-05,-0.005227674873164344,0.008751813048449474
5.858585858585858,6.379746835443038,0.009238658054166711,0.00811132578719851,-7.469976759385199e-05,-0.0052049951524095655,0.008730714948952063
5.959595959595959,6.379746835443038,0.008963685726804048,0.008310639632692806,3.2618134597005476e-05,-0.0051822976078490565,0.008655843279850223
6.0606060606060606,6.379746835443038,0.009192668105829447,0.008119970158217858,-1.5159889116478982e-05,-0.005193791479214191,0.008706064613087844
6.161616161616162,6.379746835443038,0.009028778614066995,0.00834259775419107,1.580424351162599e-06,-0.005211412910477419,0.008705993329568264
6.262626262626262,6.379746835443038,0.009250925045451464,0.008218667074955353,-2.274915159110726e-07,-0.0052408776361220445,0.008780423096687409
6.363636363636363,6.379746835443038,0.009283634592359086,0.008526391983650631,1.9346989126708027e-05,-0.005343007972802916,0.008929190716623797
6.4646464646464645,6.379746835443038,0.009133347287287971,0.00831791436905393,-5.2409403687500744e-05,-0.00523537849690257,0.008754631443951064
6.565656565656566,6.379746835443038,0.009307216970056017,0.00843816334041768,3.0323090949277942e-05,-0.0053236140931421086,0.008904708289369267
6.666666666666667,6.379746835443038,0.009148497284042798,0.008258859499263093,1.183593575962628e-05,-0.005222207034991767,0.008737735939849244
6.767676767676767,6.379746835443038,0.009333403955211424,0.008390706623678468,-4.95625005106978e-07,-0.005317233173666967,0.008899580517320526
6.8686868686868685,6.379746835443038,0.009241114934019164,0.00844186700665148,4.300831780958166e-05,-0.005304894582201194,0.008868856164228542
6.96969696969697,6.379746835443038,0.00928618082204744,0.008429374374332338,1.3621329599193916e-05,-0.005314666558913933,0.008888833926195798
7.070707070707071,6.379746835443038,0.009369763361204113,0.008478649380409703,9.839764969068225e-06,-0.005354523822484145,0.008957528281102438
7.171717171717171,6.379746835443038,0.009135429259582791,0.008272997663767958,-3.163441818084002e-05,-0.005222528077005224,0.008736370836265281
7.2727272727272725,6.379746835443038,0.009432422824159082,0.008362120925458315,-2.1416150644743807e-05,-0.00533836312488522,0.00894550067824932
7.373737373737374,6.379746835443038,0.009521459168200914,0.008515080951254408,-1.922140543205428e-05,-0.005410962035836597,0.00906034773582775
7.474747474747475,6.379746835443038,0.00947083223969099,0.008529472578456602,1.9877079711780592e-05,-0.005400091445444278,0.009037065186790452
7.575757575757575,6.379746835443038,0.009627464579412366,0.008621005084640613,-1.6032383267335043e-05,-0.0054745408992158935,0.009165814361957552
7.6767676767676765,6.379746835443038,0.009582028186713294,0.008639221039587365,4.426861740822553e-05,-0.005466374767890198,0.009147459973167748
7.777777777777778,6.379746835443038,0.00970493130747205,0.008477515768713449,3.974681150682529e-06,-0.005454734122855649,0.009153158170403915
7.878787878787879,6.379746835443038,0.009826385990116563,0.008547920811083298,-2.5845476677932905e-05,-0.005512292040359959,0.009253736892880055
7.979797979797979,6.379746835443038,0.009641580861118996,0.008545419731379832,1.832063172845212e-05,-0.0054561001777496485,0.009142971699140945
8.080808080808081,6.379746835443038,0.009784696647121796,0.008734019044973129,0.00010349280979840454,-0.005555614707628477,0.009305685497261514
8.181818181818182,6.379746835443038,0.009847215561381783,0.009048903939003766,-1.725024761416602e-05,-0.005668835850115664,0.00947336803049258
8.282828282828282,6.379746835443038,0.00970905796209277,0.008730270152137678,4.508369403845431e-05,-0.005531798434269135,0.009258878016647282
8.383838383838384,6.379746835443038,0.00981238480259052,0.00875005471625132,-4.320782153271318e-05,-0.005568731855652552,0.009327006480079567
8.484848484848484,6.379746835443038,0.009800511900238132,0.009122135708824723,2.811099767935982e-05,-0.005676794282718857,0.009479671118323253
8.585858585858587,6.379746835443038,0.00987378058414864,0.008987711086452936,4.7952969580428165e-06,-0.005658447501180473,0.009461917108108796
8.686868686868687,6.379746835443038,0.010082534263393079,0.008964838399720204,2.931290342569411e-05,-0.005714211798933984,0.009572884210808888
8.787878787878787,6.379746835443038,0.009788187393382554,0.009042308205642422,4.692218948935353e-05,-0.005649148679707493,0.009437730024950497
8.88888888888889,6.379746835443038,0.010058688364998552,0.009093346924215265,4.996018077522217e-05,-0.005745610586764145,0.009612830751749575
8.98989898989899,6.379746835443038,0.00998670064873973,0.00926894722360698,0.00013945897965591525,-0.005776694361704013,0.009650892065060096
9.09090909090909,6.379746835443038,0.010293423537381413,0.009334199489832912,2.085645386542874e-05,-0.005888286908164298,0.00984897377799629
9.191919191919192,6.379746835443038,0.01018588407720701,0.009306206146745037,-8.768967326329061e-05,-0.005847627067185614,0.009776954469929234
9.292929292929292,6.379746835443038,0.01051034562427213,0.009396822637163961,-1.6669254690104756e-05,-0.005972150478430827,0.010000231033408758
9.393939393939394,6.379746835443038,0.010618278566623913,0.009463163342630811,4.470808963110714e-05,-0.006024432572776417,0.0100907280269589
9.494949494949495,6.379746835443038,0.010591771772784255,0.009562934005391419,5.7752873835210055e-05,-0.006046411733452701,0.010117160065859691
9.595959595959595,6.379746835443038,0.010819963830800585,0.009604875803398794,-6.30287587774546e-05,-0.006127451890259814,0.01026707190876449
9.696969696969697,6.379746835443038,0.011002810503918277,0.009736127500914349,2.982430031174697e-06,-0.006221681401449787,0.010427333237665022
9.797979797979798,6.379746835443038,0.010940813248769216,0.009893905190247828,2.3262050791171275e-05,-0.006250415531705113,0.010456816381650202
9.8989898989899,6.379746835443038,0.011235092106439958,0.010058739002343319,-5.435998286146956e-05,-0.006388149332634983,0.010695958620651775
10.0,6.379746835443038,0.011426974241510972,0.010311027107387159,-4.7420696716205667e-05,-0.0065214004046694396,0.010912191591665937
0.0,6.481012658227848,0.011444439883869114,0.010135630497193087,5.784851626971905e-05,-0.00647402111431866,0.010849867984145788
0.10101010101010101,6.481012658227848,0.011214973690285806,0.010010364148301995,2.3255210628618178e-05,-0.00636760135157634,0.010663895963318928
0.20202020202020202,6.481012658227848,0.011186661134388607,0.009958618345178437,-1.5500648134648098e-05,-0.0063435838438701125,0.010626029300572527
0.30303030303030304,6.481012658227848,0.011058791939495848,0.009921172680391136,2.3743930714241515e-05,-0.006293989385966096,0.010536225764934954
0.40404040404040403,6.481012658227848,0.010767488133010953,0.009775713697310688,-2.883709285011506e-05,-0.0061629605490964925,0.010307569669548017
0.5050505050505051,6.481012658227848,0.010838123334392054,0.009476950804911066,-6.204501853046336e-05,-0.006094522241790936,0.010226275033734385
0.6060606060606061,6.481012658227848,0.010578493279088488,0.009429413816378919,2.5742048809675162e-05,-0.0060023721286402215,0.01005342539899512
0.7070707070707071,6.481012658227848,0.010491131740961963,0.009716853239065359,6.525332958778743e-06,-0.006062395494008196,0.010126224487786035
0.8080808080808081,6.481012658227848,0.010342893892423379,0.009484148489341425,-1.930744574733827e-05,-0.005948112714529441,0.00994143367351732
0.9090909090909091,6.481012658227848,0.0102342398189684,0.009360000968039165,5.687126090867708e-05,-0.005878272236102268,0.009826825082503264
1.0101010101010102,6.481012658227848,0.010205951588343143,0.009193440404729981,4.404625431559499e-05,-0.005819817597921937,0.009739548594031009
1.1111111111111112,6.481012658227848,0.010104117794734037,0.009452532123377684,4.18350861612593e-05,-0.0058669949754335165,0.009794861532637141
1.2121212121212122,6.481012658227848,0.010149881059053383,0.009033935634142641,-9.665974639976582e-05,-0.005755145007958807,0.009641925932758103
1.3131313131313131,6.481012658227848,0.009899600836705852,0.009171458395585707,-1.066564770786826e-06,-0.0057213177696874675,0.00955635767612299
1.4141414141414141,6.481012658227848,0.009941131107559807,0.008888153276874965,-4.930951535121702e-06,-0.005648785315330431,0.00945870669194601
1.5151515151515151,6.481012658227848,0.01000446734489081,0.00896811049385112,5.099617544143654e-05,-0.005691773351622578,0.009529061125500874
1.6161616161616161,6.481012658227848,0.009858432500839667,0.008936395885019814,7.653798092736727e-06,-0.005638448515757844,0.009431287446368997
1.7171717171717171,6.481012658227848,0.009856197796187637,0.008883727452356641,-7.061096412370754e-05,-0.0056219775745632835,0.009408529706189132
1.8181818181818181,6.481012658227848,0.009658400090816555,0.008839588459235792,-8.079021226049072e-05,-0.005549396565015704,0.009277193306203508
1.9191919191919191,6.481012658227848,0.009808889329388193,0.008732202336083475,-4.5211502469017326e-05,-0.0055623274996415,0.00931764956616667
2.0202020202020203,6.481012658227848,0.009825109107079674,0.008696331428973228,-2.0083458899675327e-05,-0.005556432160815871,0.009312236799155377
2.121212121212121,6.481012658227848,0.009646352923762966,0.008828339445815065,5.599411073537272e-05,-0.005542407710873409,0.009264978688401048
2.2222222222222223,6.481012658227848,0.009529341088854153,0.008771136043393747,-1.7702412131277539e-06,-0.0054901431396743704,0.00917376865777992
2.323232323232323,6.481012658227848,0.009392047563448584,0.008511878786326067,-2.0625991521333835e-05,-0.005371177904932395,0.008984427849689901
2.4242424242424243,6.481012658227848,0.009511477668290523,0.00858698471456191,-9.534646657439135e-05,-0.0054295387148557295,0.009086081301532921
2.525252525252525,6.481012658227848,0.009562475162421919,0.008583863086787939,-3.685073497988655e-05,-0.005443901474762957,0.009112888295684433
2.6262626262626263,6.481012658227848,0.00940284660760766,0.008521694380744457,-4.0464885265371396e-05,-0.005377362296505635,0.00899497229383042
2.727272727272727,6.481012658227848,0.00955478677790328,0.008455587312668033,2.681765262990345e-05,-0.0054031122271713935,0.009055480709401265
2.8282828282828283,6.481012658227848,0.009307826609116925,0.008357399349573233,2.4616354757971974e-05,-0.005299567787607047,0.008870983819138813
2.929292929292929,6.481012658227848,0.009381355597356863,0.008481299105233162,-4.8765162449007925e-05,-0.005358796410777008,0.00896567446687403
3.0303030303030303,6.481012658227848,0.009291726555733218,0.008375733055567821,6.036805071416607e-06,-0.0053002378833903125,0.008869282647291366
3.131313131313131,6.481012658227848,0.009335764484222213,0.008568826779503057,-9.655939455093067e-05,-0.00537137737911758,0.008978458292629356
3.2323232323232323,6.481012658227848,0.00943254909259441,0.008271838335035264,5.500022796781392e-05,-0.005311316228288902,0.00890959290423348
3.3333333333333335,6.481012658227848,0.00918748383060281,0.008416517764365557,0.00017721919466912487,-0.00528120047849051,0.008832623023443079
3.4343434343434343,6.481012658227848,0.009268710800793707,0.008457339277023673,-5.3343066681042165e-05,-0.005317815023345213,0.008891315543877627
3.5353535353535355,6.481012658227848,0.009179503838400641,0.008339292752428968,4.510110218244107e-05,-0.005255638977248883,0.00878991620140444
3.6363636363636362,6.481012658227848,0.009142942482047046,0.00827856314736548,-2.8565241948794308e-05,-0.005226451688823758,0.00874299869860017
3.7373737373737375,6.481012658227848,0.00921021635369275,0.0081960548945326,3.995418591894495e-05,-0.005221881374467605,0.008747614034784048
3.8383838383838382,6.481012658227848,0.009204392845560771,0.008162644776898776,-1.2052485236282989e-05,-0.005210111286737864,0.008730284302993987
3.9393939393939394,6.481012658227848,0.009288139753994668,0.008373446312123433,-3.90995885922871e-05,-0.00529847581983543,0.008866509459514504
4.040404040404041,6.481012658227848,0.008948165836208354,0.008053146143513757,-1.693239011811742e-06,-0.005100393593916633,0.00853592151128799
4.141414141414141,6.481012658227848,0.00918375173455204,0.008186808431362866,1.2689950366366954e-05,-0.005211168049774472,0.00872811521385165
4.242424242424242,6.481012658227848,0.00914643826411011,0.008407503328153536,-0.0001129182828861223,-0.005266182477679093,0.008802442081698897
4.343434343434343,6.481012658227848,0.009015200464209356,0.008158841517400784,-0.00010409329172809213,-0.005152212594483042,0.008620872851458232
4.444444444444445,6.481012658227848,0.009154293980562089,0.00832509825430369,3.4339405349611255e-05,-0.005243817670459733,0.008769350031426771
4.545454545454545,6.481012658227848,0.009090165229823394,0.00822197747010453,4.8286092602575014e-05,-0.005193642809978377,0.00868906659805745
4.646464646464646,6.481012658227848,0.009145510851141797,0.008129677354042695,-2.93773152738532e-05,-0.005182556461555347,0.008682428187521385
4.747474747474747,6.481012658227848,0.009166363575107412,0.008025466843253327,3.43654211168838e-05,-0.005157549125508222,0.008652718373117808
4.848484848484849,6.481012658227848,0.009046204955904545,0.008154409980160609,5.945807136275019e-05,-0.005160184480819546,0.008635529401288554
4.94949494949495,6.481012658227848,0.009045126182408384,0.008248204001334032,3.693293868855464e-05,-0.0051879990551227245,0.008674400443770214
5.05050505050505,6.481012658227848,0.009072770831583647,0.00810208436417463,-2.7223926067720606e-05,-0.005152456558727483,0.008628604194119472
5.151515151515151,6.481012658227848,0.009043156627607095,0.008330166256581147,-3.8856533049722284e-05,-0.0052119968652564715,0.008708839357338521
5.252525252525253,6.481012658227848,0.008963470329858754,0.008232939026324044,-2.534777583021804e-05,-0.005158922806854839,0.008621560659454559
5.353535353535354,6.481012658227848,0.009211231550205463,0.008162220183498676,-0.00014163817433255152,-0.005212035520111241,0.008737545939148567
5.454545454545454,6.481012658227848,0.008978939553034885,0.008167579485202876,-1.3470076562532687e-05,-0.005143955711471328,0.008602037664460938
5.555555555555555,6.481012658227848,0.009125115723792402,0.008078124996761717,-1.110070424495551e-05,-0.005160972216166235,0.008649299664487482
5.656565656565657,6.481012658227848,0.00913226044931995,0.00817491093296179,-1.9761465556586557e-05,-0.005192151414684522,0.008693279325595967
5.757575757575758,6.481012658227848,0.009140916753391603,0.008219935746965204,-2.8345885265881794e-05,-0.005208255750107042,0.0087171305406693
5.858585858585858,6.481012658227848,0.009114782265305271,0.008236300136418321,-9.858974978503477e-05,-0.005205324720517077,0.008710509346887751
5.959595959595959,6.481012658227848,0.009137405344015812,0.00813350403538627,2.8905136348047607e-05,-0.0051812728138206235,0.008679253861750023
6.0606060606060606,6.481012658227848,0.009204755141659,0.008411545649777119,8.042728033754648e-05,-0.005284890237430836,0.008835994851139534
6.161616161616162,6.481012658227848,0.009036598486734703,0.008243600007755932,-6.560114787003724e-05,-0.005184059548347189,0.008668094396971094
6.262626262626262,6.481012658227848,0.009333612074871296,0.00820827870515308,-1.7950697163003433e-05,-0.005262567234007313,0.008824977683366287
6.363636363636363,6.481012658227848,0.009209746200765105,0.008143647996776455,1.1016770722905795e-05,-0.005206018259262468,0.008725701157324815
6.4646464646464645,6.481012658227848,0.009310905392919245,0.008180249014192172,-1.4757430644313195e-05,-0.005247346322133425,0.008800259192415762
6.565656565656566,6.481012658227848,0.009039731957111604,0.008299917859371989,2.4088466848643914e-05,-0.005201894944945078,0.00869356649348735
6.666666666666667,6.481012658227848,0.009327271311915512,0.008517873997571502,-1.278705279745078e-05,-0.0053535435928461035,0.008950091413761359
6.767676767676767,6.481012658227848,0.009438222417958162,0.008308647403039956,-4.0669806411687575e-05,-0.005324060946299436,0.008927472430428993
6.8686868686868685,6.481012658227848,0.009415821859012678,0.00841014307425748,3.510353189208973e-06,-0.0053477894799810475,0.008955436102271229
6.96969696969697,6.481012658227848,0.009187319392467173,0.008525298038092082,-2.7794773188303637e-05,-0.0053137852291677765,0.0088749775162433
7.070707070707071,6.481012658227848,0.009331899503564615,0.00845811777903246,-3.764684710138005e-05,-0.005337005184779122,0.008927376516125018
7.171717171717171,6.481012658227848,0.009453156168566786,0.008250413685660355,-1.0509269234653149e-05,-0.005311070956268143,0.008912876631045417
7.2727272727272725,6.481012658227848,0.009231576629778998,0.008511025957549103,-5.343016065631642e-05,-0.005322780776198429,0.008893702600301348
7.373737373737374,6.481012658227848,0.009460979202472736,0.008480908569894165,-8.938614319340038e-06,-0.005382566331710071,0.009011019794627149
7.474747474747475,6.481012658227848,0.009454213864643802,0.008682671760242271,-4.423774537079915e-05,-0.005441065687465821,0.009093348332217597
7.575757575757575,6.481012658227848,0.009559939166612444,0.008436934021516579,-2.5188283393334522e-05,-0.005399061956438707,0.009050945801583065
7.6767676767676765,6.481012658227848,0.00965335235527946,0.00849378602940669,-3.285358852709137e-05,-0.005444141515405845,0.009129147907178864
7.777777777777778,6.481012658227848,0.009563223815342064,0.008452089615175963,-3.1108556032815325e-05,-0.0054045940291554085,0.009059069882433308
7.878787878787879,6.481012658227848,0.009573077163723446,0.008558975203334594,2.3842257655082877e-05,-0.005439615710117412,0.009108558514371657
7.979797979797979,6.481012658227848,0.009821424451861975,0.008691471438845116,5.190690287210399e-05,-0.005553868767212128,0.009308464261276218
8.080808080808081,6.481012658227848,0.009746355646127716,0.008700787909391182,1.699962494185603e-05,-0.005534143066655669,0.00926795836310799
8.181818181818182,6.481012658227848,0.009823861196959592,0.008641519935639424,-7.170039897587393e-06,-0.005539614339779705,0.009289304466165238
8.282828282828282,6.481012658227848,0.009739547910073733,0.008959283668050114,4.076473372203908e-05,-0.005609649473437154,0.009374069025926905
8.383838383838384,6.481012658227848,0.009907600694076464,0.008795411621668128,-8.494384113798477e-05,-0.005610903694723377,0.009402129396511924
8.484848484848484,6.481012658227848,0.009735333156305667,0.008907584677731409,4.1046322020604e-05,-0.005592875350211123,0.009349252718862356
8.585858585858587,6.481012658227848,0.00996266281789982,0.008791840199043227,3.0926167737502526e-05,-0.005626350905082914,0.009432064161163446
8.686868686868687,6.481012658227848,0.00998800069813267,0.008930706720631561,2.9490374229152577e-05,-0.00567561222562927,0.009503703728645101
8.787878787878787,6.481012658227848,0.010095639319420615,0.008925113310142568,-2.2907784778195024e-05,-0.005706225788868954,0.00956433114767396
8.88888888888889,6.481012658227848,0.010143167312498357,0.009136580472693901,-4.534336423857439e-05,-0.005783924335557677,0.00967952734004861
8.98989898989899,6.481012658227848,0.01037401958305954,0.009333197142469506,-0.00011799991466143608,-0.0059121650176587135,0.00989686077607188
9.09090909090909,6.481012658227848,0.01029179376191127,0.009404026087573136,-6.523291469803597e-06,-0.005908745954845322,0.00987788216818416
9.191919191919192,6.481012658227848,0.010411434217530857,0.009272327213547595,7.36858054967236e-05,-0.005905128429323535,0.009892020945569758
9.292929292929292,6.481012658227848,0.010645497996347909,0.009446355042990165,-4.127363784334836e-05,-0.006027555911801422,0.010099713265487927
9.393939393939394,6.481012658227848,0.010521392091772216,0.009616258255035277,3.554419815495335e-05,-0.006041295104042247,0.010099479243477904
9.494949494949495,6.481012658227848,0.01052599941006045,0.009486920074360462,1.657212524852338e-05,-0.006003875845326273,0.01004688135084183
9.595959595959595,6.481012658227848,0.010988243686827099,0.0096998922722002,3.4724837952315686e-06,-0.006206440787708189,0.010404069663593621
9.696969696969697,6.481012658227848,0.010811551541440097,0.009967553904286792,3.2994370225419626e-05,-0.006233731633718066,0.010415388647342892
9.797979797979798,6.481012658227848,0.011184058209949296,0.009955791836201012,-4.321160904754223e-05,-0.006341955013845092,0.010623577337063081
9.8989898989899,6.481012658227848,0.011209615049945776,0.010329416010792004,-7.80454589540756e-05,-0.006461709318221333,0.010797305256462936
10.0,6.481012658227848,0.011132795768843509,0.010198451395534349,-3.643133906983322e-05,-0.006399374149313357,0.010696460053695088
0.0,6.582278481012658,0.011184026219209192,0.01012495107941062,3.460118368349738e-06,-0.006392693189585944,0.010693895193489393
0.10101010101010101,6.582278481012658,0.011252004887634769,0.010017091113060008,-2.335804300310947e-05,-0.006380728800208434,0.01068826491948938
0.20202020202020202,6.582278481012658,0.011098334426043502,0.010095851297960479,4.083021809861231e-05,-0.0063582557172011936,0.010632831596644039
0.30303030303030304,6.582278481012658,0.010936866553297852,0.009774933767489254,-4.727532986655203e-06,-0.006213540096236132,0.01040467688252722
0.40404040404040403,6.582278481012658,0.01065588109686607,0.009711725556779918,-2.261860384462153e-05,-0.006110281996093796,0.010216650980925073
0.5050505050505051,6.582278481012658,0.010518829767640533,0.00960612329283065,-4.297142749371424e-05,-0.006037485918141355,0.010093747984973402
0.6060606060606061,6.582278481012658,0.010567030960084905,0.009724251336151617,-9.332179015254112e-05,-0.006087384688870956,0.01017314451371011
0.7070707070707071,6.582278481012658,0.010540272279978927,0.009406565129722717,-7.36061537093982e-05,-0.005984051222910493,0.010022439981699391
0.8080808080808081,6.582278481012658,0.010482243850225554,0.009227663436465583,7.48118591467585e-05,-0.0059129721860073405,0.00991551212828867
0.9090909090909091,6.582278481012658,0.01033440069711483,0.009189727002307472,7.886087893554609e-05,-0.00585723830982669,0.00981321843847393
1.0101010101010102,6.582278481012658,0.010180211475188381,0.009366338389929812,6.816532347022331e-05,-0.005863964959535458,0.00979936908635146
1.1111111111111112,6.582278481012658,0.010393372395254697,0.009429580562896549,8.602388551213562e-05,-0.005946885887445373,0.009947674971770808
1.2121212121212122,6.582278481012658,0.010107731711249533,0.00889934905157972,-4.502058942090633e-05,-0.005702124228848776,0.009561302308301777
1.3131313131313131,6.582278481012658,0.010187877236436507,0.009119243743957613,-6.211425043463974e-05,-0.005792136294118236,0.009698416769460394
1.4141414141414141,6.582278481012658,0.009783721412630874,0.008889306947149256,6.082020993685791e-06,-0.005601908507934039,0.00936859599573348
1.5151515151515151,6.582278481012658,0.00995218758582417,0.008832103312447395,6.24202733794355e-05,-0.0056352872694814685,0.009442723473336904
1.6161616161616161,6.582278481012658,0.009737158733228495,0.008969824018632902,6.753693737612805e-06,-0.005612094825558419,0.009377075219913449
1.7171717171717171,6.582278481012658,0.009753916053765658,0.008697809048708809,8.853245642408849e-05,-0.00553551753074234,0.009272355434647696
1.8181818181818181,6.582278481012658,0.009795973492339455,0.008836891467742521,2.6742650991213243e-05,-0.005589859488024593,0.009353498725650073
1.9191919191919191,6.582278481012658,0.009819456350917351,0.008687986994701528,6.235782283665378e-05,-0.005552233003685664,0.009306083895499303
2.0202020202020203,6.582278481012658,0.009643382250347488,0.008589989049924106,-7.371104174417603e-05,-0.005470011390081478,0.00916310455699599
2.121212121212121,6.582278481012658,0.009570893410333244,0.008447846401191688,-2.0602739548830412e-05,-0.005405621943457479,0.009061784893498934
2.2222222222222223,6.582278481012658,0.009581848563671653,0.008617571262395924,3.2334004603523745e-05,-0.0054598259478202725,0.00913811960964854
2.323232323232323,6.582278481012658,0.009670486220864664,0.008496861611546305,-5.30521995140597e-05,-0.0054502043497232895,0.009140821706294789
2.4242424242424243,6.582278481012658,0.009335395736762082,0.008543231837118819,3.411201255678543e-05,-0.00536358827216427,0.008965794142322762
2.525252525252525,6.582278481012658,0.009398516801361619,0.008396533706337085,-1.2300880175198453e-05,-0.0053385151523096105,0.00893976437999808
2.6262626262626263,6.582278481012658,0.009573410881636855,0.008328438616948526,-1.636985870551648e-05,-0.0053705548495756135,0.009015671064274967
2.727272727272727,6.582278481012658,0.009579073998533683,0.008407467157786539,1.3524813428226121e-05,-0.005395962346896066,0.009050356976147363
2.8282828282828283,6.582278481012658,0.009647438133726314,0.00854953548535213,-7.681018405332544e-05,-0.005459092085723534,0.009149000180646101
2.929292929292929,6.582278481012658,0.009349395671289618,0.008383210302535958,1.644507933851935e-05,-0.005319781792147672,0.008905743966830464
3.0303030303030303,6.582278481012658,0.009469085128523255,0.008556774510649791,1.2794080344401586e-05,-0.005407757891751914,0.009047520544098313
3.131313131313131,6.582278481012658,0.00930813328950451,0.008406872307094242,6.51894090848226e-05,-0.005314501678979625,0.008892542286537809
3.2323232323232323,6.582278481012658,0.00925787412678528,0.008284376649693745,2.0452952874091253e-05,-0.0052626752329437065,0.008811621221403653
3.3333333333333335,6.582278481012658,0.009172145475956406,0.00819088255162571,1.3436026838368023e-05,-0.0052089084082746345,0.008723037592897422
3.4343434343434343,6.582278481012658,0.009310015977200534,0.00841110018067239,6.636507914479134e-05,-0.0053163348473618775,0.008895433640263512
3.5353535353535355,6.582278481012658,0.009270516420538161,0.008252506798387096,-1.6817327771323763e-05,-0.005256906965677577,0.008805804440446235
3.6363636363636362,6.582278481012658,0.009321675566903196,0.00836025733924264,2.0096524122037616e-05,-0.005304579871843751,0.008880154457641181
3.7373737373737375,6.582278481012658,0.009193342469487862,0.008221605496756094,-4.300728468268366e-05,-0.005224484389873186,0.008748363081427513
3.8383838383838382,6.582278481012658,0.009356579269668474,0.008424305709835826,-3.973585644362872e-06,-0.00533426549385129,0.00892703005061097
3.9393939393939394,6.582278481012658,0.009025435785051342,0.008272699968956087,-5.616160211084666e-07,-0.005189440726202229,0.008673599857837555
4.040404040404041,6.582278481012658,0.009047416835751311,0.00831723353815208,1.2834884351215682e-05,-0.005209395112171017,0.008705351261770796
4.141414141414141,6.582278481012658,0.008917043423558103,0.008166597702636558,-0.00012374151460564382,-0.005125092337858399,0.00856918963522807
4.242424242424242,6.582278481012658,0.00915210607985261,0.00825837631661528,8.792272179569381e-05,-0.005223144718940367,0.008740908431148657
4.343434343434343,6.582278481012658,0.00901730588779136,0.008152130745493792,-3.161509699730159e-05,-0.005150830989985544,0.008617527669773401
4.444444444444445,6.582278481012658,0.008999412879099155,0.008404200280104546,-1.3906404908518353e-05,-0.00522108394776111,0.008717093921806507
4.545454545454545,6.582278481012658,0.009315499735350164,0.008142314996307442,6.799504028355897e-05,-0.005237344419497281,0.00878862706010853
4.646464646464646,6.582278481012658,0.009081761861927395,0.008295681224809046,3.0387127272588633e-05,-0.005213232926020932,0.008715508835790482
4.747474747474747,6.582278481012658,0.009011201514332151,0.008137730407798657,-6.735065466129872e-05,-0.0051446795766392425,0.008608559036213949
4.848484848484849,6.582278481012658,0.009021892716430852,0.008159481331093866,-4.3283599116617535e-05,-0.005154412214257415,0.008623418057723143
4.94949494949495,6.582278481012658,0.009059259621937349,0.00815860451962637,-4.490103762204267e-05,-0.0051653592424691155,0.008644544199601511
5.05050505050505,6.582278481012658,0.009190865519782468,0.008182919740952397,0.00013144612150752693,-0.00521213557822046,0.008733607721892835
5.151515151515151,6.582278481012658,0.009093933178538904,0.00826091377776694,-2.054987004628701e-05,-0.005206454086891753,0.008707432807792613
5.252525252525253,6.582278481012658,0.009179636580868168,0.008156648259887541,4.586279232070402e-05,-0.005200885452226712,0.008713660656449702
5.353535353535354,6.582278481012658,0.008988330543312092,0.008238642313634574,-2.134670732518201e-05,-0.005168091857084,0.008637999758654947
5.454545454545454,6.582278481012658,0.00927003700716209,0.008139594944079655,6.935067614460419e-05,-0.0052228895853725235,0.008760517916296905
5.555555555555555,6.582278481012658,0.008935787204585512,0.008157087355205003,-9.822226611556542e-07,-0.005127862367937154,0.008573002575821172
5.656565656565657,6.582278481012658,0.009095667468803945,0.008144080786699861,-1.0862770922750364e-05,-0.005171924476651141,0.008659198686242936
5.757575757575758,6.582278481012658,0.009100341219448775,0.00824579415468904,-6.993457115365907e-05,-0.005203840612241345,0.008705427252675382
5.858585858585858,6.582278481012658,0.008971076695154482,0.008027639316194518,7.46269837958196e-05,-0.0050996148034047,0.008539516943877373
5.959595959595959,6.582278481012658,0.009061779295480585,0.008310629890171693,-3.683138420251025e-05,-0.0052117227556956825,0.008710762822671884
6.0606060606060606,6.582278481012658,0.009047020353436547,0.00830427866477428,-0.00017166425753051674,-0.005205389705463249,0.008704541870129593
6.161616161616162,6.582278481012658,0.009193776871518771,0.008237819125861872,-1.2718470211528174e-05,-0.005229478799214193,0.008755056335686186
6.262626262626262,6.582278481012658,0.009197133724451028,0.008359188774692623,-0.0001011004819098287,-0.005266896749743095,0.008809846346556268
6.363636363636363,6.582278481012658,0.009493114836761005,0.008273399672502743,-1.1330632636483191e-05,-0.005329954352779124,0.008945860685988734
6.4646464646464645,6.582278481012658,0.009164018668467661,0.008285912841482798,3.408632821769094e-05,-0.005234979452985137,0.008758242714228873
6.565656565656566,6.582278481012658,0.009030089395955464,0.008156924196898641,-2.5803627788378594e-05,-0.005156104077856232,0.00862682848099416
6.666666666666667,6.582278481012658,0.009312463470900747,0.008291249457726906,-6.069789701604979e-05,-0.005281113878588296,0.00884680103020389
6.767676767676767,6.582278481012658,0.00911475271255128,0.008494010040550493,2.8343806247821243e-06,-0.0052826288259305324,0.008820779252624377
6.8686868686868685,6.582278481012658,0.009423748994157504,0.008332346474351228,1.5361556185942257e-05,-0.005326828640552619,0.008928259018369933
6.96969696969697,6.582278481012658,0.009235250304635876,0.008339513549094667,6.444925599806402e-05,-0.005272429156119163,0.008822261643128429
7.070707070707071,6.582278481012658,0.009394192556499655,0.008494538160472423,-4.791917493304508e-05,-0.005366619215091623,0.008978618709594599
7.171717171717171,6.582278481012658,0.0096111013880337,0.008433577209793135,1.411052762125551e-05,-0.00541340357934805,0.00907981971949017
7.2727272727272725,6.582278481012658,0.009299032406288474,0.008554272124856184,-6.368103842438553e-05,-0.005355991359343397,0.008950602627868771
7.373737373737374,6.582278481012658,0.009375270048121687,0.008503390285306854,7.086468000126441e-05,-0.005363598100028562,0.00897200200505703
7.474747474747475,6.582278481012658,0.009353911762512985,0.008399931626883244,-3.508669876728708e-05,-0.0053261530168188685,0.008915491606045921
7.575757575757575,6.582278481012658,0.009475563959708926,0.008610414698262247,1.64027772170893e-06,-0.005425793597391352,0.009073975231899001
7.6767676767676765,6.582278481012658,0.00978643181881233,0.008477590715134646,-5.543953001695854e-05,-0.005479206760184092,0.009202589265016853
7.777777777777778,6.582278481012658,0.009694600147687504,0.008647741494481385,6.632764595730414e-05,-0.005502702492650667,0.009216588689922634
7.878787878787879,6.582278481012658,0.009582308407060215,0.008643585828777195,-4.887694318624914e-05,-0.005467768270751223,0.009149528517904201
7.979797979797979,6.582278481012658,0.00958754002407837,0.008872523667561642,-3.898896065646003e-06,-0.005538019107492003,0.00925078211675034
8.080808080808081,6.582278481012658,0.009715055226255808,0.008671774325749537,-1.703173730042522e-05,-0.005516048865601603,0.009237752527637422
8.181818181818182,6.582278481012658,0.009832158698595078,0.008916940477675115,3.2724267971003576e-05,-0.005624729752881057,0.009408167244871583
8.282828282828282,6.582278481012658,0.009766690131530972,0.008937429959327753,1.703851998662535e-05,-0.0056112360272576175,0.009379640310358822
8.383838383838384,6.582278481012658,0.00974240455354037,0.008845994415380707,2.015659572986614e-05,-0.005576519690676322,0.009326629952659609
8.484848484848484,6.582278481012658,0.009948494033615049,0.009039640475050596,0.00010202613912866748,-0.005696440352599693,0.009528276450763682
8.585858585858587,6.582278481012658,0.010064304007569953,0.00890921644767632,0.00010389606629278697,-0.005692056136573882,0.00954105199899106
8.686868686868687,6.582278481012658,0.010287178528569509,0.008909897940200327,-3.264427395933392e-05,-0.005759122940630951,0.00967252860151574
8.787878787878787,6.582278481012658,0.010136472120259444,0.009073652333837475,6.812795999892684e-05,-0.005763037336229075,0.00964978414608749
8.88888888888889,6.582278481012658,0.010308532922241471,0.009146048990982383,0.0001386725651830767,-0.005836374573967157,0.009782198437131311
8.98989898989899,6.582278481012658,0.010165500694412459,0.009336411778410696,7.317250826212959e-05,-0.005850573741846946,0.00977817730946252
9.09090909090909,6.582278481012658,0.01023415560557631,0.009358395960998654,1.350520922823339e-05,-0.005877765469972489,0.009825618688436712
9.191919191919192,6.582278481012658,0.010435046892040752,0.009281712523816068,-3.521010344800059e-05,-0.005915027824757046,0.00990903652448336
9.292929292929292,6.582278481012658,0.010556777441679197,0.009560081315151236,3.0006748139743685e-05,-0.0060350576270491296,0.010095531444745488
9.393939393939394,6.582278481012658,0.010466482762141975,0.00964264188850015,-4.8343329778142465e-05,-0.006032737395192638,0.010080191968667065
9.494949494949495,6.582278481012658,0.01083071633952237,0.009559686005888593,2.3356464711383816e-05,-0.006117120703623288,0.010254530808722042
9.595959595959595,6.582278481012658,0.01092121311404182,0.00968608299978855,-0.00011681522688670625,-0.006182188834149111,0.01036099707903739
9.696969696969697,6.582278481012658,0.011082684167152636,0.009553352954298924,1.314271658839959e-05,-0.006190811136435468,0.01040269992268527
9.797979797979798,6.582278481012658,0.011133964242584482,0.010055362347304865,6.991667920803739e-06,-0.006356797976966804,0.010635768590933353
9.8989898989899,6.582278481012658,0.011008916410595477,0.00989113788225883,5.8063791469680176e-05,-0.0062700162878562915,0.010495249077630876
10.0,6.582278481012658,0.011016761817228517,0.01015465251830285,-4.590612300582921e-06,-0.006351424300659409,0.010612006586660236
0.0,6.6835443037974684,0.01141559209074236,0.010105271917053895,-2.3969531367197957e-05,-0.006456259202338877,0.010820181363729454
0.10101010101010101,6.6835443037974684,0.011292856981763091,0.010027137373498512,-1.7480715241372143e-05,-0.0063959983065784804,0.01071624893086997
0.20202020202020202,6.6835443037974684,0.011158716427973354,0.00999197293672018,-3.606407180481981e-05,-0.00634520680940806,0.010623689791360236
0.30303030303030304,6.6835443037974684,0.010900400094662333,0.009773750383379754,1.5137432370733962e-05,-0.006202245143412626,0.010383054300238833
0.40404040404040403,6.6835443037974684,0.010797614461163927,0.009680248255367988,-1.261072569422079e-05,-0.0061433588149595745,0.010284579372968089
0.5050505050505051,6.6835443037974684,0.010690171382271239,0.009630536230192317,-1.61389858210749e-05,-0.006096212283739066,0.010201749401942765
0.6060606060606061,6.6835443037974684,0.010641367861785381,0.009547375099581454,-2.2643756159863562e-05,-0.006056622888410051,0.010138811021610461
0.7070707070707071,6.6835443037974684,0.010513622591871361,0.009539530067598946,-3.578275037015605e-05,-0.006015945797841093,0.01006219241994805
0.8080808080808081,6.6835443037974684,0.010538120893692559,0.009141040691547087,-5.338997991122954e-05,-0.005903748475571894,0.009914120054890289
0.9090909090909091,6.6835443037974684,0.010376277684641133,0.009055803932318382,-6.634968141521616e-05,-0.005829624485087855,0.009783782194562881
1.0101010101010102,6.6835443037974684,0.010261414296918894,0.009141343773711624,1.6831698231074706e-05,-0.005820827421189155,0.009749796079291547
1.1111111111111112,6.6835443037974684,0.010295923037710859,0.009094154509247568,-2.3080605682958868e-05,-0.005817023264087528,0.009750823588771619
1.2121212121212122,6.6835443037974684,0.010087356540697041,0.009121365505795691,-5.704179262239279e-05,-0.005762616613947819,0.009641232596136402
1.3131313131313131,6.6835443037974684,0.010073065213910997,0.009099629179787148,4.27442465297314e-07,-0.005751808318109444,0.009623343307346743
1.4141414141414141,6.6835443037974684,0.010000935325008477,0.00892431837437177,1.2198171147694291e-05,-0.005677576109814074,0.00950847418497906
1.5151515151515151,6.6835443037974684,0.009844527485574368,0.008855649899017584,5.314096741492377e-05,-0.005610053215377586,0.009389677289553151
1.6161616161616161,6.6835443037974684,0.010085289875932046,0.008919805285079895,1.1062255947300848e-05,-0.005701528548303581,0.009556021315847676
1.7171717171717171,6.6835443037974684,0.00979278601267585,0.008965065282298675,-6.922024621513883e-05,-0.005627355388492357,0.009407043203588188
1.8181818181818181,6.6835443037974684,0.00987812989083589,0.008704097481164037,-4.159423198784495e-05,-0.005574668211599978,0.009346857645262377
1.9191919191919191,6.6835443037974684,0.009692168779689689,0.008614010729479253,4.713547098463074e-05,-0.005491853852750682,0.009200952988646297
2.0202020202020203,6.6835443037974684,0.009765750619600975,0.008576177659567792,-8.36238147987784e-06,-0.005502578483750629,0.009228656777031333
2.121212121212121,6.6835443037974684,0.009475962071702532,0.008695680747946868,2.7482406836619368e-05,-0.005451492845894819,0.009111039773123423
2.2222222222222223,6.6835443037974684,0.009692428245356322,0.00852157286294814,1.8572254863951048e-06,-0.005464200332491339,0.009163277044053302
2.323232323232323,6.6835443037974684,0.00939491519341272,0.008514483016918714,-9.833149208468574e-06,-0.0053728194630994295,0.008987118378522688
2.4242424242424243,6.6835443037974684,0.009735104904193196,0.008674188928523965,-2.03317019266281e-05,-0.005522788149815148,0.00925045523310674
2.525252525252525,6.6835443037974684,0.009503560769982025,0.008525869194032799,4.56655730420326e-05,-0.005408828989204448,0.00905473648726313
2.6262626262626263,6.6835443037974684,0.009298691130374752,0.008497075685347683,5.484974572671478e-06,-0.00533873004471673,0.008924929124985229
2.727272727272727,6.6835443037974684,0.009383014662034226,0.008398539327091703,2.935008502617507e-06,-0.005334466196737778,0.008931563982512101
2.8282828282828283,6.6835443037974684,0.009363046501034518,0.008422399965515897,-8.23570925207422e-05,-0.005335633939965123,0.008931096601441809
2.929292929292929,6.6835443037974684,0.009447496082003128,0.008584832367091684,6.996553116007634e-06,-0.005409698534728443,0.00904707166397192
3.0303030303030303,6.6835443037974684,0.009639392480672882,0.008241407037251467,5.446116154188364e-05,-0.005364239855377304,0.009022495130473278
3.131313131313131,6.6835443037974684,0.009349830794576035,0.008369635791728416,1.3312032775741157e-05,-0.005315839975891336,0.008900336641899868
3.2323232323232323,6.6835443037974684,0.009187366900836456,0.008242262219150993,-6.92043564930136e-05,-0.0052288887359962346,0.008753986388409529
3.3333333333333335,6.6835443037974684,0.009269996800681905,0.008367619806784255,1.46111256221235e-05,-0.005291284982239849,0.008853402370405638
3.4343434343434343,6.6835443037974684,0.009169833315522083,0.008245358470820984,-5.9583551611618906e-05,-0.00522455753590292,0.008744933798577869
3.5353535353535355,6.6835443037974684,0.009086317860599463,0.008082961926233308,4.3713525537309234e-05,-0.005150783936049831,0.008628836367949715
3.6363636363636362,6.6835443037974684,0.00920957892747507,0.008243386006186269,-0.00010281477111059804,-0.005235889480098401,0.008768315428076255
3.7373737373737375,6.6835443037974684,0.00924290996716259,0.00826328610332011,6.348247651497997e-05,-0.005251858821144809,0.008794803151576314
3.8383838383838382,6.6835443037974684,0.009220135226918516,0.008118776239911123,2.078005262694685e-05,-0.005201673440048892,0.008721840508694083
3.9393939393939394,6.6835443037974684,0.00936139520350775,0.008309565395869158,3.0719973665681455e-05,-0.005301288179813073,0.008882471656847921
4.040404040404041,6.6835443037974684,0.009198487342090018,0.008109592591326277,2.4459577508307825e-05,-0.0051924239800248875,0.008705370261617724
4.141414141414141,6.6835443037974684,0.009095372979264615,0.008272567049702965,-2.9048166735611853e-05,-0.005210382008690274,0.008713301544117306
4.242424242424242,6.6835443037974684,0.009072582578252449,0.008237951331271021,1.9423746062164494e-05,-0.005193160172857041,0.00868546112148066
4.343434343434343,6.6835443037974684,0.009217947451008464,0.008328120970692614,-1.3582302193782354e-06,-0.005263820526510323,0.00880681430330658
4.444444444444445,6.6835443037974684,0.00909297246874579,0.008252430816902611,-5.991639483785972e-05,-0.005203620985694521,0.008703815623616985
4.545454545454545,6.6835443037974684,0.009087045209792215,0.008159052230429294,0.00010248303196095168,-0.005173829232066452,0.008662237342178613
4.646464646464646,6.6835443037974684,0.009071989005232798,0.008189417624506557,-6.597745668106438e-05,-0.005178421988921806,0.008665235020772979
4.747474747474747,6.6835443037974684,0.009126902060465174,0.008136868233742711,4.472825105304116e-06,-0.005179131088262365,0.008674366054348176
4.848484848484849,6.6835443037974684,0.009088526779428638,0.008039559308310473,-4.302165440746874e-05,-0.005138425826321733,0.00861241170707093
4.94949494949495,6.6835443037974684,0.009252201161477345,0.00828689500527137,-7.403768723839603e-05,-0.005261728850024614,0.008810237244559115
5.05050505050505,6.6835443037974684,0.009032377755519454,0.008159152374620147,4.357972213652279e-05,-0.00515745903904188,0.00862929699076373
5.151515151515151,6.6835443037974684,0.00900867722853786,0.008119365152243221,-6.442421131871275e-05,-0.005138412714234325,0.00859930621406477
5.252525252525253,6.6835443037974684,0.009104659661414922,0.008182769966192271,-4.58249137929807e-05,-0.005186228888282158,0.008680870694127313
5.353535353535354,6.6835443037974684,0.009096531265060017,0.008182853033053786,-2.092178367240276e-05,-0.00518381528943414,0.008675926436254694
5.454545454545454,6.6835443037974684,0.009197998723442997,0.008224526275781806,7.354875199399912e-05,-0.00522675749976744,0.008752888611691545
5.555555555555555,6.6835443037974684,0.009159794348215197,0.00817013452933162,-5.727127838627224e-05,-0.005198978663264044,0.008707813654472991
5.656565656565657,6.6835443037974684,0.009312449752286626,0.008094961867810852,2.897974145870491e-05,-0.0052222234860292436,0.008767480930447193
5.757575757575758,6.6835443037974684,0.009182568131793521,0.008085029780921916,-4.301864306126714e-05,-0.005180279373814631,0.008686281083034417
5.858585858585858,6.6835443037974684,0.008978709796920802,0.008214838218572577,2.230619767791218e-05,-0.005158064404648014,0.008622275852742696
5.959595959595959,6.6835443037974684,0.00923765534428198,0.00830754388955053,2.757854865763284e-05,-0.005263559770149753,0.008809632015948475
6.0606060606060606,6.6835443037974684,0.00908724276415057,0.008265517374742902,-6.060568106335193e-05,-0.005205828041668041,0.008706148098724364
6.161616161616162,6.6835443037974684,0.00922067506774521,0.008254359144664453,1.594208288228335e-05,-0.005242510263722899,0.008777544786478818
6.262626262626262,6.6835443037974684,0.009250931705258534,0.008231153123192126,-7.970969915289421e-05,-0.005244625448535198,0.008786628742756484
6.363636363636363,6.6835443037974684,0.009357805576451333,0.008219928916278695,2.2559724923707118e-05,-0.005273320347819009,0.008844025484366148
6.4646464646464645,6.6835443037974684,0.009116822677465988,0.008573190995842573,9.759465288111674e-05,-0.005307004101992568,0.008859140570237185
6.565656565656566,6.6835443037974684,0.009284321048027174,0.00830364472150026,9.013581147416308e-05,-0.005276389730858229,0.008836277661668697
6.666666666666667,6.6835443037974684,0.00933309181446922,0.008362412055927887,-4.294225826153703e-05,-0.005308651161119132,0.00888790812366301
6.767676767676767,6.6835443037974684,0.009330500718531287,0.008417788870709288,-2.153637335363951e-05,-0.005324486876772172,0.008909355726980712
6.8686868686868685,6.6835443037974684,0.009292952777513607,0.008335467728435826,-1.1839216282858347e-05,-0.00528852615178483,0.008853152325537883
6.96969696969697,6.6835443037974684,0.009268244602536061,0.008296452743554393,-5.559201442395486e-05,-0.005269409203827136,0.008823106266731105
7.070707070707071,6.6835443037974684,0.009469883288819089,0.008374998107737291,8.605551295795935e-05,-0.005353464418966913,0.008973920260289633
7.171717171717171,6.6835443037974684,0.00946392360861281,0.008179207058878629,-2.5445409236526764e-05,-0.005292939200247431,0.008891559469742558
7.2727272727272725,6.6835443037974684,0.00948812149337359,0.008423943964189174,6.728122015639663e-05,-0.0053736196372688285,0.009004080068889675
7.373737373737374,6.6835443037974684,0.00929211180643873,0.008604293392428136,3.871829858500771e-05,-0.005368921559660059,0.00896825778556974
7.474747474747475,6.6835443037974684,0.009501158310733124,0.008419674204088538,-4.0489904741793695e-05,-0.005376249754446499,0.009009505186630615
7.575757575757575,6.6835443037974684,0.009412825420517083,0.008577364770516077,7.541578674739416e-05,-0.005397057057309947,0.009025092480043276
7.6767676767676765,6.6835443037974684,0.009501423358281452,0.008682465427875527,-7.13830866994627e-05,-0.005455166635847094,0.009120403420401022
7.777777777777778,6.6835443037974684,0.00959274001328124,0.008680032639491783,4.2674554799451685e-05,-0.005481831795831907,0.009170812097109592
7.878787878787879,6.6835443037974684,0.009483134704664319,0.008663905469402327,-2.7978824049880564e-05,-0.005444112052219994,0.009101344275353713
7.979797979797979,6.6835443037974684,0.009615239762354883,0.008847086004926953,9.094056775438618e-05,-0.005538697730184551,0.009256442291247117
8.080808080808081,6.6835443037974684,0.009865470255368287,0.008778577235115182,4.223819402120014e-06,-0.0055932142471450405,0.009369428080566495
8.181818181818182,6.6835443037974684,0.009674142687696303,0.008876068206397397,3.635627472326494e-05,-0.005565063268228109,0.009301034273039145
8.282828282828282,6.6835443037974684,0.009814397746150456,0.008905946018432101,3.334998303715601e-05,-0.005616103129374767,0.009393354977660423
8.383838383838384,6.6835443037974684,0.009998343523507225,0.008905043295869036,-5.879858013956466e-06,-0.005671016045812879,0.00949900474101093
8.484848484848484,6.6835443037974684,0.009816183441994726,0.008912349367137133,3.946163485580842e-06,-0.005618559842739557,0.009396926041980756
8.585858585858587,6.6835443037974684,0.009888098236213474,0.008982793723108572,-3.126418291363772e-05,-0.005661267587796614,0.009468117837172666
8.686868686868687,6.6835443037974684,0.010006148581408393,0.009027101221425018,5.1296535650334545e-05,-0.005709974940850023,0.00955473410502833
8.787878787878787,6.6835443037974684,0.010047213240618953,0.009056176445676264,-4.862754264273563e-05,-0.005731016905888565,0.009590546581765856
8.88888888888889,6.6835443037974684,0.010256144816974937,0.008932192558521132,4.471254876728932e-06,-0.005756501212648821,0.009662441201493755
8.98989898989899,6.6835443037974684,0.0101863392334489,0.009331469843481172,2.7795172410742083e-05,-0.005855342723079021,0.009787064767392181
9.09090909090909,6.6835443037974684,0.010398528889639392,0.009254079906083835,-7.046739195042167e-06,-0.005895782638716968,0.009876169788739224
9.191919191919192,6.6835443037974684,0.010657867661345452,0.009341424176098189,2.2956860031862202e-05,-0.0059997875512330925,0.010064505310220915
9.292929292929292,6.6835443037974684,0.010557189504294033,0.009627887972798488,-5.6731174455873646e-05,-0.006055523243127756,0.010125052813188302
9.393939393939394,6.6835443037974684,0.010463375357428343,0.009509254707708775,-3.1842387883934666e-05,-0.005991789019541134,0.010020593266038155
9.494949494949495,6.6835443037974684,0.010775798774708058,0.009759544997603758,-1.3404598338416113e-05,-0.006160603131693545,0.010305348311247676
9.595959595959595,6.6835443037974684,0.01072010653371738,0.009628563200106865,-5.419858410174019e-05,-0.0061046009201472734,0.010218586134122555
9.696969696969697,6.6835443037974684,0.010922079366517195,0.009894627317199794,7.626781754839715e-05,-0.006245012005115097,0.01044715334022587
9.797979797979798,6.6835443037974684,0.011171692222677207,0.009992729799305869,-3.252683316319343e-05,-0.006349326606594923,0.010631501688969843
9.8989898989899,6.6835443037974684,0.011192600360645772,0.010223361641364156,1.8649255962486e-05,-0.006424788600602979,0.010740878375316572
10.0,6.6835443037974684,0.011181385073183454,0.009909865735796448,7.804757460337707e-05,-0.0063273752426939705,0.010603822919708726
0.0,6.784810126582278,0.011333796777436822,0.010035698145317734,-1.1845865742368063e-05,-0.006410848476826367,0.01074374442785409
0.10101010101010101,6.784810126582278,0.011196683544967912,0.010032596400167388,7.928508830961883e-06,-0.0063687839835405895,0.010662415040294818
0.20202020202020202,6.784810126582278,0.011045462290653616,0.010012550178046984,8.403741946005e-05,-0.00631740374061018,0.010567939237186838
0.30303030303030304,6.784810126582278,0.010639632340766196,0.009820221941075912,1.7182866313963402e-05,-0.006137956284552632,0.010254553628197473
0.40404040404040403,6.784810126582278,0.010932761356690211,0.009706600794947642,9.209542857793915e-05,-0.006191808645491356,0.01037539707687806
0.5050505050505051,6.784810126582278,0.010692990740424017,0.009631947865187066,3.647187432440966e-05,-0.006097481581683325,0.01020412327986258
0.6060606060606061,6.784810126582278,0.010712779309678538,0.009686318043434984,3.581740110049099e-05,-0.006119729205934056,0.010238401189269705
0.7070707070707071,6.784810126582278,0.010546023676411389,0.009577945790582241,5.843877009774434e-05,-0.006037190840098089,0.010097359216223227
0.8080808080808081,6.784810126582278,0.010486950632851362,0.009347708434213352,-4.093199792255028e-05,-0.005950397720119413,0.009966536808360418
0.9090909090909091,6.784810126582278,0.010465262687621156,0.009266421214306972,3.5863052636376207e-05,-0.005919505170578439,0.009920514680985013
1.0101010101010102,6.784810126582278,0.010231201613790158,0.009213735664131686,2.5264631918410347e-05,-0.005833481183376553,0.009762414612148593
1.1111111111111112,6.784810126582278,0.010141960790299555,0.009310892642466474,7.720867268330483e-05,-0.005835856029829809,0.009753935918711936
1.2121212121212122,6.784810126582278,0.010226502511450037,0.00929777370155956,2.9042113393625643e-05,-0.005857282863902879,0.009795344488340603
1.3131313131313131,6.784810126582278,0.010155095157275246,0.009026045472839831,-6.559172511494955e-05,-0.005754342189034523,0.009640954863690439
1.4141414141414141,6.784810126582278,0.00989160624931742,0.009019797437268415,2.2100292000621926e-05,-0.005673421105975751,0.009485873737908771
1.5151515151515151,6.784810126582278,0.009966297574103283,0.008937482556172424,-3.581485202548176e-05,-0.005671134039082712,0.009493993847173515
1.6161616161616161,6.784810126582278,0.009805718293135809,0.009029645199066167,3.852956490276676e-05,-0.0056506090476605925,0.009441869525600461
1.7171717171717171,6.784810126582278,0.009722036702576268,0.009074880843780475,4.327726954590593e-05,-0.0056390752639070224,0.009415452942184557
1.8181818181818181,6.784810126582278,0.00993992658054113,0.00889756872520832,-2.0440749401191063e-05,-0.005651248591724834,0.009461973538600281
1.9191919191919191,6.784810126582278,0.009577000527577659,0.0085731608256532,-1.949428967217639e-06,-0.005445048405969257,0.009116626091831807
2.0202020202020203,6.784810126582278,0.00962411864210766,0.008753461686718433,6.067660193862568e-05,-0.005513274098647827,0.009220273438795518
2.121212121212121,6.784810126582278,0.009618260490486514,0.0088002581874037,4.0385186529170006e-05,-0.005525555603367064,0.00923673082252088
2.2222222222222223,6.784810126582278,0.009519689674917738,0.008570251244749406,-2.4442251082230044e-05,-0.0054269822759001425,0.00908236521450697
2.323232323232323,6.784810126582278,0.009387495667388253,0.008409527179877708,-1.6547131252610945e-05,-0.005339106854179788,0.008938771937526287
2.4242424242424243,6.784810126582278,0.009527550788026518,0.008653954553606263,-3.221548148196007e-05,-0.005454451602489834,0.009122350323205726
2.525252525252525,6.784810126582278,0.009552283489885835,0.008620603979500187,-1.5951346723641494e-05,-0.005451866240815806,0.009122238930914005
2.6262626262626263,6.784810126582278,0.009323983446862399,0.008504934624173852,-5.70253515841314e-05,-0.005348675421310876,0.00894317987622754
2.727272727272727,6.784810126582278,0.009347005436130722,0.00849342151886329,1.8742109372214377e-05,-0.005352128086498204,0.00895085003851442
2.8282828282828283,6.784810126582278,0.009426338250263738,0.008260635572504641,8.165687462265522e-06,-0.005306092146830514,0.008900932975642482
2.929292929292929,6.784810126582278,0.009303964626459733,0.008427333279216787,2.5294902978257232e-06,-0.005319389371702956,0.00889809600078311
3.0303030303030303,6.784810126582278,0.00935583861114499,0.008378765344601868,2.1802753060748917e-05,-0.005320381186724057,0.008907663811183382
3.131313131313131,6.784810126582278,0.009247748513055017,0.008268851244126364,9.868966332363022e-06,-0.005254979927154414,0.008799249334468713
3.2323232323232323,6.784810126582278,0.009318501155650026,0.008251920135849801,8.302303674024094e-06,-0.005271126387449948,0.008833647557990133
3.3333333333333335,6.784810126582278,0.009275045756261263,0.008242620645532193,7.948444370937466e-05,-0.005255299920538036,0.008805426655106164
3.4343434343434343,6.784810126582278,0.009243477320402866,0.008349898429882055,1.2531309256437867e-05,-0.0052780127250854755,0.00883068803089554
3.5353535353535355,6.784810126582278,0.009037188298630976,0.00832448525728855,-1.992859530846192e-05,-0.005208502066775858,0.008702820107940058
3.6363636363636362,6.784810126582278,0.009298609822117604,0.008296750049878355,-5.767593575650568e-05,-0.005278607961598788,0.008840924388851033
3.7373737373737375,6.784810126582278,0.009289901232445823,0.00819194239699645,-3.841486603567587e-05,-0.0052445530888326816,0.008792739987064412
3.8383838383838382,6.784810126582278,0.009108755132089572,0.008162309498635568,-4.7669052057372295e-05,-0.005181319389217542,0.008674736588972397
3.9393939393939394,6.784810126582278,0.009272906218711935,0.008159293640173355,2.9490814307677054e-06,-0.005229659957665588,0.008769294373128516
4.040404040404041,6.784810126582278,0.00917099875986374,0.008186164295376342,-1.6040354744019593e-05,-0.005207148916572024,0.008720434243907834
4.141414141414141,6.784810126582278,0.009227124191834947,0.008302372003097839,-4.657898448120675e-05,-0.005258848858479835,0.008801630131706126
4.242424242424242,6.784810126582278,0.0089943858566881,0.00804379535935591,-3.721462579906574e-05,-0.005111454364813203,0.008559017250422069
4.343434343434343,6.784810126582278,0.009057838755290088,0.008053741643475113,7.189027912490359e-05,-0.0051334741196295604,0.008600767920948438
4.444444444444445,6.784810126582278,0.009050651697788056,0.008256429198213653,-4.387530903884957e-05,-0.0051921242688005124,0.008681165212547175
4.545454545454545,6.784810126582278,0.009010918666065607,0.008140148412423309,-0.00011099125719698856,-0.005145320123546675,0.008610773094571722
4.646464646464646,6.784810126582278,0.009075872847497363,0.00836035270741451,1.2668731295359273e-05,-0.005230867666473561,0.008740134363603715
4.747474747474747,6.784810126582278,0.009050952567887193,0.008168161455872215,6.813041839548472e-05,-0.005165734207127823,0.008644240123523217
4.848484848484849,6.784810126582278,0.009183912800316168,0.008294068021025919,-2.340861087194115e-05,-0.005243394246402627,0.00877299635731213
4.94949494949495,6.784810126582278,0.008890691525437295,0.008222791353897425,-2.5273292434833944e-05,-0.0051340448638004165,0.008576380837078621
5.05050505050505,6.784810126582278,0.009099550147503731,0.008018356287568197,-3.997499462797834e-05,-0.005135371930521579,0.008610296702357443
5.151515151515151,6.784810126582278,0.009142819333848199,0.008023539680139042,-3.582183186770077e-05,-0.005149907704196172,0.008637963317101769
5.252525252525253,6.784810126582278,0.009028682014618207,0.008273402489082276,-7.845455977406027e-05,-0.005190625351110144,0.008676798532201635
5.353535353535354,6.784810126582278,0.009288629732859174,0.008186825545855814,4.764448142533943e-05,-0.005242636583614496,0.008790061071420174
5.454545454545454,6.784810126582278,0.009070166112493037,0.00822556232490914,5.898372629017815e-05,-0.005188718531220653,0.00867934383772717
5.555555555555555,6.784810126582278,0.009192330208043904,0.007976132548053804,0.0001494351175019757,-0.005150538826829312,0.008652477880701635
5.656565656565657,6.784810126582278,0.009148476490047611,0.008156163884707765,2.4947012930246717e-05,-0.005191392112426613,0.008694999995129567
5.757575757575758,6.784810126582278,0.009171122546380101,0.008259610111327082,5.973950542601427e-05,-0.005229219797312155,0.00875165457848302
5.858585858585858,6.784810126582278,0.009279457724947711,0.008205950056456943,-2.7448231088170706e-05,-0.005245622334421396,0.00879212406488913
5.959595959595959,6.784810126582278,0.009132022090296349,0.008236727165541533,-2.062384764605847e-05,-0.005210624776751364,0.008718990965647126
6.0606060606060606,6.784810126582278,0.009287936904298072,0.008280205349318242,2.8479112562408473e-05,-0.005270442676084894,0.008827456083468119
6.161616161616162,6.784810126582278,0.009287167109716806,0.008436253923876211,-2.836084221070527e-05,-0.005317026310077905,0.0088924330884743
6.262626262626262,6.784810126582278,0.009204316672323886,0.008179250709038126,-3.426003850009391e-05,-0.005215070214408604,0.008737201791656046
6.363636363636363,6.784810126582278,0.009222466306143162,0.008308549981746264,3.9591416565104596e-05,-0.005259304886366827,0.008801435550429107
6.4646464646464645,6.784810126582278,0.009363901552443122,0.008295064303472826,1.207668907864376e-05,-0.005297689756774784,0.008877894801863132
6.565656565656566,6.784810126582278,0.009134901431082431,0.00831912947229307,-2.7987229920903302e-05,-0.00523620927101265,0.008755698799391911
6.666666666666667,6.784810126582278,0.009292266244982186,0.00822243876895213,-1.7232667529103798e-05,-0.005254411504180295,0.008806276849334577
6.767676767676767,6.784810126582278,0.009135126187696232,0.008293774062291436,-9.531234124032841e-06,-0.0052286700749962995,0.00874487384491447
6.8686868686868685,6.784810126582278,0.009411302213963895,0.00820709692735458,1.0717835191827667e-05,-0.005285519742395543,0.008870734156252226
6.96969696969697,6.784810126582278,0.009251589473157625,0.008324562426230309,-1.3719472891695177e-05,-0.00527284556981638,0.00882470271049965
7.070707070707071,6.784810126582278,0.009340779441188081,0.00842738759953154,6.574715490714532e-05,-0.005330450112215887,0.00891995636503719
7.171717171717171,6.784810126582278,0.009453769077247199,0.008508932694401044,-3.4715460206932494e-05,-0.0053888105314944725,0.009018748032104468
7.2727272727272725,6.784810126582278,0.00928194454476757,0.008336573546529938,3.972474351996348e-05,-0.005285555427389252,0.008847489691563317
7.373737373737374,6.784810126582278,0.0094305438339549,0.008399657981288321,-6.023576678351769e-06,-0.005349060544572966,0.008959697387435848
7.474747474747475,6.784810126582278,0.009590791075397738,0.008387323683978997,-4.638817449113921e-05,-0.00539343442781302,0.009049633058040747
7.575757575757575,6.784810126582278,0.009473607210061586,0.00841185038026406,-8.635584364425803e-05,-0.005365637277097694,0.008991121508090363
7.6767676767676765,6.784810126582278,0.009680711171834134,0.008483246416410658,-1.9444349352712492e-05,-0.005449187276473437,0.009141056527853615
7.777777777777778,6.784810126582278,0.009602702387613252,0.008793356925405353,-9.927768633104072e-05,-0.005518817793905581,0.009226299247094243
7.878787878787879,6.784810126582278,0.009600151383540867,0.00868228261200995,-4.282305626383344e-05,-0.005484730198665245,0.009176012857127823
7.979797979797979,6.784810126582278,0.009600000307877941,0.008516966234985674,-1.794254072293593e-05,-0.005435089962859084,0.009106964757008609
8.080808080808081,6.784810126582278,0.009875421644175068,0.008856419923417258,4.4810566578451025e-05,-0.005619552470277698,0.00940772392607036
8.181818181818182,6.784810126582278,0.009848329264236212,0.008861919851955075,-1.6693367681999618e-05,-0.005613074734857386,0.009394090916610054
8.282828282828282,6.784810126582278,0.009780731180056684,0.008874174381565902,3.899598864972591e-05,-0.005596471668486776,0.009360679535232687
8.383838383838384,6.784810126582278,0.009910649026351125,0.009001103832766966,2.426517771340098e-05,-0.005673525857735427,0.009488720661502146
8.484848484848484,6.784810126582278,0.009964445099276175,0.008758120791299112,-5.625746128085446e-05,-0.005616769767172586,0.009419900574825345
8.585858585858587,6.784810126582278,0.009811110695218596,0.009031454370107763,1.065692297485557e-05,-0.005652769519597908,0.009445464692605134
8.686868686868687,6.784810126582278,0.01004478767543079,0.009009793602890186,1.848599726456603e-05,-0.0057163743834962935,0.00956941490724304
8.787878787878787,6.784810126582278,0.010207292860728388,0.008980642207625615,3.141495461431462e-05,-0.005756380520506201,0.009652754923519538
8.88888888888889,6.784810126582278,0.010153665508113597,0.009101432927243053,-4.7166645743788284e-05,-0.005776529530606996,0.009670924106279337
8.98989898989899,6.784810126582278,0.010386713774959781,0.009281052060096159,4.842337979246906e-05,-0.005900329750516781,0.00988074661033094
9.09090909090909,6.784810126582278,0.010214806378676966,0.009291523031309935,-7.069346556650377e-05,-0.00585189882299607,0.00978665180567876
9.191919191919192,6.784810126582278,0.010450641022803788,0.009408225746596199,1.9110789511003224e-06,-0.005957660030819996,0.009970387680723164
9.292929292929292,6.784810126582278,0.010549491486847803,0.009551399612148126,-4.1547399754368585e-05,-0.0060302673296987784,0.010087803271548203
9.393939393939394,6.784810126582278,0.010650249170988276,0.00947873401224457,-9.456154216690866e-05,-0.006038694954969855,0.010116825217372461
9.494949494949495,6.784810126582278,0.010754501763386732,0.009665139863480159,9.32702936763926e-05,-0.006125892488060067,0.010254587807278859
9.595959595959595,6.784810126582278,0.010791891844236682,0.009803697464439076,-2.1441681080190828e-05,-0.006178676792602727,0.010333361025299083
9.696969696969697,6.784810126582278,0.011035894160651953,0.009792367817680996,6.464019968417194e-05,-0.006248478593499885,0.010470263972317515
9.797979797979798,6.784810126582278,0.011190413816404949,0.01000580281570495,-5.063676885398053e-05,-0.006358864989632969,0.010648007773435723
9.8989898989899,6.784810126582278,0.011222423637953862,0.009954925620912403,9.698959668676134e-05,-0.0063532047776598795,0.010646744327304957
10.0,6.784810126582278,0.011360302517405324,0.010092204293141454,-3.305072706303269e-05,-0.006435752043164033,0.010782478564578882
0.0,6.886075949367089,0.011338872326603501,0.010204648776730389,-1.9129305123729576e-05,-0.0064630563310001665,0.010816504540248054
0.10101010101010101,6.886075949367089,0.011105329711590648,0.009918150816205293,-8.279099597929845e-05,-0.0063070441583387826,0.010562873270087822
0.20202020202020202,6.886075949367089,0.010845237319696058,0.009924086215139776,-1.1454362615338475e-05,-0.00623079706045075,0.010415276431713617
0.30303030303030304,6.886075949367089,0.010690280254216455,0.00981275409756189,-7.821968496317009e-06,-0.006150910305533504,0.010279655980325117
0.40404040404040403,6.886075949367089,0.010563230807536942,0.009806693011831472,-4.001020319057702e-05,-0.0061109771458105235,0.010206248753976379
0.5050505050505051,6.886075949367089,0.010525663063364983,0.009553422858369662,-6.229999158333629e-06,-0.006023725776520393,0.01007479416980447
0.6060606060606061,6.886075949367089,0.010556357148645713,0.009486742496337682,5.2564099678441614e-05,-0.006012929893495019,0.010064681138850472
0.7070707070707071,6.886075949367089,0.010383631617727818,0.009468166157355754,2.9821507138055543e-05,-0.005955539332525071,0.009957645025276704
0.8080808080808081,6.886075949367089,0.010453424868679605,0.00919992714085707,-1.7511010602103507e-05,-0.005896005602861003,0.009886502092469758
0.9090909090909091,6.886075949367089,0.01036093023454626,0.009181976187088875,3.904026839914142e-05,-0.00586287192649054,0.009824882684458839
1.0101010101010102,6.886075949367089,0.010437221122633981,0.009179585604443397,-5.796693432404678e-06,-0.005885042018123213,0.009868693564464457
1.1111111111111112,6.886075949367089,0.010108211410991623,0.00929283655662267,-2.786872646557874e-06,-0.005820314390284288,0.009726192264974409
1.2121212121212122,6.886075949367089,0.010193125887124638,0.009038870451559057,-1.8893972576963851e-06,-0.005769598901605108,0.009667815715566326
1.3131313131313131,6.886075949367089,0.009983377634880261,0.009191237170076088,-1.8450917240876528e-06,-0.005752384441486905,0.009611820240188034
1.4141414141414141,6.886075949367089,0.010023212662479538,0.008951304302307546,4.6383146875046575e-05,-0.005692355089436125,0.0095329045075541
1.5151515151515151,6.886075949367089,0.009859967267899113,0.009003660046867075,-5.6289046725189706e-05,-0.0056590881944298555,0.009461424881091413
1.6161616161616161,6.886075949367089,0.009834847955334625,0.008777908236625517,8.867597393251699e-05,-0.005583826857588043,0.009352545360870214
1.7171717171717171,6.886075949367089,0.009685169005295527,0.008799732173790036,1.4532780714315594e-05,-0.005545470353725669,0.009274239876789119
1.8181818181818181,6.886075949367089,0.009875295383309808,0.008710325356314781,8.029784570999658e-08,-0.005575686221887376,0.009347416271969585
1.9191919191919191,6.886075949367089,0.009739384467884651,0.00884279077710567,5.216641267452448e-05,-0.0055746525734970956,0.009323914596213078
2.0202020202020203,6.886075949367089,0.00969019691521334,0.00870591187375277,-3.69960743388612e-05,-0.005518832636689832,0.009237690379881262
2.121212121212121,6.886075949367089,0.009548375443136347,0.008742731392265562,-5.5321955637299106e-05,-0.005487332050620572,0.009172629155529827
2.2222222222222223,6.886075949367089,0.009565791061978022,0.008520288326552211,-4.3813801372398625e-05,-0.00542582381655907,0.009088571550962437
2.323232323232323,6.886075949367089,0.00946977356063676,0.00868909141314885,4.874948185176976e-05,-0.005447659492135683,0.00910496141021705
2.4242424242424243,6.886075949367089,0.009523436641934474,0.008521627724582577,-6.909091972287306e-05,-0.005413519309955116,0.009064939243793344
2.525252525252525,6.886075949367089,0.009320592447777377,0.008667131028422185,-2.300259971495565e-05,-0.005396317042859869,0.009011736524820032
2.6262626262626263,6.886075949367089,0.009545333548964403,0.00851982520437841,-1.6092525216908472e-05,-0.0054195476260028436,0.009076178580635398
2.727272727272727,6.886075949367089,0.00939487927060556,0.00838096702740424,1.977745176856767e-05,-0.00533275388940294,0.008931257743067194
2.8282828282828283,6.886075949367089,0.009516585207967096,0.008485904846876892,1.915271671330762e-05,-0.005400747016453196,0.009045454053192379
2.929292929292929,6.886075949367089,0.009308297941713286,0.008429364453296383,5.3356012643783436e-05,-0.005321298718502901,0.008901915550031142
3.0303030303030303,6.886075949367089,0.009244534306218204,0.008393010885821473,-2.4222873427290606e-05,-0.005291263557611903,0.00884965137419067
3.131313131313131,6.886075949367089,0.009279031958400057,0.008306173624173706,4.5262191511970705e-05,-0.005275561674772129,0.008833224204510067
3.2323232323232323,6.886075949367089,0.00914536587047565,0.00827151100563877,7.485416959198627e-05,-0.0052250630628343266,0.008742220897068864
3.3333333333333335,6.886075949367089,0.009300652702611071,0.00823122371014449,-5.14346265535478e-05,-0.005259562923826668,0.008815178272610594
3.4343434343434343,6.886075949367089,0.00939642919615983,0.008298405998662823,5.830204161616807e-05,-0.005308450558446795,0.008898945821491139
3.5353535353535355,6.886075949367089,0.009092255162945106,0.008365130328620426,-6.260808561944535e-05,-0.0052372156474696585,0.008752049432044717
3.6363636363636362,6.886075949367089,0.009168739295831053,0.008259067232375844,-0.00016715891648565493,-0.005228341958462069,0.008754231197170191
3.7373737373737375,6.886075949367089,0.009101876033105648,0.00814347917667686,-0.00015244631796043122,-0.0051736065629347525,0.008666555377904285
3.8383838383838382,6.886075949367089,0.009214774905452366,0.008317452343125855,-1.441459538423647e-05,-0.005259668174573466,0.008800526248541765
3.9393939393939394,6.886075949367089,0.008998780718477999,0.008318794785050834,-0.00012259788705879806,-0.00519527265105865,0.008681387084336432
4.040404040404041,6.886075949367089,0.00898375389210977,0.008307352734746606,-3.653872656471052e-05,-0.005187331988056913,0.008665606512253352
4.141414141414141,6.886075949367089,0.00909708584108405,0.008097848083155324,-1.4672075069034464e-05,-0.005158480177271813,0.008640945610681324
4.242424242424242,6.886075949367089,0.009225219466725842,0.008090815785275634,3.4339278734121224e-05,-0.0051948105756004425,0.00871377992347163
4.343434343434343,6.886075949367089,0.00899761911774131,0.008295913877180117,-8.312418141774319e-05,-0.005188059898476428,0.008669290192033684
4.444444444444445,6.886075949367089,0.00898013947050916,0.008147573103758448,4.082879166648888e-05,-0.0051383137722802825,0.008594446494315466
4.545454545454545,6.886075949367089,0.009057859668148432,0.008176223437529566,6.775294843028182e-05,-0.0051702249317033995,0.008651597444505369
4.646464646464646,6.886075949367089,0.009091221137151195,0.008121978126458566,-5.395787124286704e-05,-0.0051639597790829285,0.008647939962102159
4.747474747474747,6.886075949367089,0.009151904559488897,0.008035277238958903,-1.1912574555648295e-05,-0.0051561545395343395,0.008647853647075496
4.848484848484849,6.886075949367089,0.00925600486255847,0.008163265050212296,1.904270515602838e-05,-0.005225780973831229,0.008760958233576048
4.94949494949495,6.886075949367089,0.009149978024298214,0.00827073941778723,4.5494905605947446e-05,-0.0052262152326256325,0.00874393239932342
5.05050505050505,6.886075949367089,0.009251014253750401,0.008132691140309857,-6.0837934720922374e-05,-0.005215111618218076,0.008746278752093073
5.151515151515151,6.886075949367089,0.009280722462186643,0.008218682170447052,-6.692106735747038e-05,-0.005249821389790108,0.008798674508009028
5.252525252525253,6.886075949367089,0.008888629019950921,0.008043574170944763,-2.7895694392471393e-05,-0.005079660957268705,0.008497811424544147
5.353535353535354,6.886075949367089,0.009265185770763481,0.00822325638983095,-7.575115759188843e-06,-0.0052465326481783295,0.008790664768627474
5.454545454545454,6.886075949367089,0.00910174982356821,0.008273205169888121,1.6413747427479084e-05,-0.005212486498036899,0.008717106066340395
5.555555555555555,6.886075949367089,0.009037964455724417,0.00821355928629056,3.584154488509963e-05,-0.005175457122604492,0.008655481189216913
5.656565656565657,6.886075949367089,0.009106908139298152,0.008276260507221857,3.409560342157655e-05,-0.005214950593956003,0.00872150257669873
5.757575757575758,6.886075949367089,0.008935032207438189,0.008211882265668415,2.166784196662548e-05,-0.00514407434193198,0.008596382195542835
5.858585858585858,6.886075949367089,0.008945145802502802,0.008221386579893002,5.015726614079692e-05,-0.005149959714718741,0.008606560074863571
5.959595959595959,6.886075949367089,0.009163145290475072,0.008334808364736053,-1.2383202579504886e-05,-0.005249386096563337,0.008778363293234368
6.0606060606060606,6.886075949367089,0.00915140535084479,0.008180745244532881,-1.0149477167571471e-05,-0.005199645178613301,0.00870676782063023
6.161616161616162,6.886075949367089,0.008904667895215537,0.008208794060428543,-4.1089720650352685e-05,-0.005134038586693224,0.008578221868062433
6.262626262626262,6.886075949367089,0.00922429193832887,0.0082875951954112,3.22714729670624e-05,-0.005253566140122021,0.008793618292901937
6.363636363636363,6.886075949367089,0.009226398655614655,0.00822578507407808,-5.838577048527394e-05,-0.00523565511890782,0.008769596717237914
6.4646464646464645,6.886075949367089,0.009221167908567541,0.008366923763824896,7.325698295186178e-05,-0.005276427501717731,0.008826020718301878
6.565656565656566,6.886075949367089,0.009181110758529652,0.008303782760327174,-6.882130299960778e-05,-0.005245468055657048,0.00877621004585707
6.666666666666667,6.886075949367089,0.00915172899372069,0.008257585477472676,-3.2999259789575066e-05,-0.005222794341358009,0.008739218724428515
6.767676767676767,6.886075949367089,0.009359712585931927,0.00846157460043863,2.5955151164483032e-05,-0.005346386155911167,0.008944639687272441
6.8686868686868685,6.886075949367089,0.009330308172020406,0.008511162307999538,-1.469916297844552e-05,-0.005352441144005984,0.00894893375651197
6.96969696969697,6.886075949367089,0.009349096113977955,0.00832424789134559,-2.5242609795464557e-05,-0.005302003201597063,0.00888123972541271
7.070707070707071,6.886075949367089,0.009320550220419086,0.008312473739399221,-8.487439226886159e-05,-0.005289907187945492,0.00886084974045716
7.171717171717171,6.886075949367089,0.009503011210563655,0.00853428773118942,-0.00011133442345468023,-0.005411189682525922,0.009059638139831955
7.2727272727272725,6.886075949367089,0.009375449034651304,0.008414512329283877,7.244119694415266e-05,-0.005336988409180554,0.008934706152270063
7.373737373737374,6.886075949367089,0.009559673505197246,0.008607905498923018,3.530604642974152e-05,-0.005450273701236079,0.009121313941631808
7.474747474747475,6.886075949367089,0.009505070428897217,0.008512854024114797,-3.0268290731289617e-05,-0.005405377335903604,0.009050001047089608
7.575757575757575,6.886075949367089,0.009499526739943203,0.008639927983443615,4.65350242287734e-05,-0.005441836417016045,0.009100584237153224
7.6767676767676765,6.886075949367089,0.009480918338697464,0.008489466197893992,-6.366538585874294e-05,-0.005391115360977437,0.009026797491521497
7.777777777777778,6.886075949367089,0.009722430548524839,0.00876706749803162,-1.6724831718198376e-05,-0.0055468494139669375,0.009281743509819564
7.878787878787879,6.886075949367089,0.009536122116339026,0.008631224759607526,-1.5137501634863657e-05,-0.005450204062783966,0.009117452493941122
7.979797979797979,6.886075949367089,0.009470220123311217,0.008854682292084623,4.6486032274724134e-05,-0.005497470724618752,0.009178298322853117
8.080808080808081,6.886075949367089,0.009811989470602238,0.00878047595354422,-4.023791076218794e-05,-0.0055777396272439364,0.009339315553471408
8.181818181818182,6.886075949367089,0.009735428829096915,0.008745098866173737,-0.00010888485361909184,-0.005544158308581195,0.009281896831173943
8.282828282828282,6.886075949367089,0.009870640160052397,0.008687865868133344,3.594092930884311e-05,-0.005567551808455722,0.009335824978006436
8.383838383838384,6.886075949367089,0.009887541460660731,0.008765551057053414,-1.6362597326228014e-05,-0.005595927755314243,0.009377068580943344
8.484848484848484,6.886075949367089,0.00994739526536008,0.008800682719403987,4.5319301262614564e-05,-0.00562442339542922,0.00942682241241392
8.585858585858587,6.886075949367089,0.00993469117497672,0.009075352043138812,-0.00010842646612383667,-0.005703012965434659,0.009535961015647786
8.686868686868687,6.886075949367089,0.009879652169051909,0.008928672175669002,-8.276936347962448e-05,-0.005642497303416274,0.00944124412763004
8.787878787878787,6.886075949367089,0.010202574296170424,0.009252525734169723,6.974890474767101e-05,-0.005836530009102044,0.009763030688745965
8.88888888888889,6.886075949367089,0.010126445991669597,0.009122637451530895,-6.831628044313291e-05,-0.005774725032960147,0.009664446615419122
8.98989898989899,6.886075949367089,0.010249934536632017,0.00917046375857722,3.9001051800948284e-05,-0.005826119488562771,0.009755330522477025
9.09090909090909,6.886075949367089,0.010423304471253843,0.009281956690214895,-4.41530846377262e-05,-0.005911578348440621,0.009902382739171064
9.191919191919192,6.886075949367089,0.01047377259624328,0.009456915794416198,-1.0723293168754046e-05,-0.0059792065171978435,0.010004195530626526
9.292929292929292,6.886075949367089,0.010374923935365148,0.0095259232855083,-1.677912358378011e-05,-0.005970254166262034,0.009977593708990876
9.393939393939394,6.886075949367089,0.010489427442179044,0.00947730037024102,-2.9314659250300052e-05,-0.00599001834372602,0.010021897716444251
9.494949494949495,6.886075949367089,0.01049337775203051,0.00968649825684658,-5.747764382711666e-05,-0.006053962802663127,0.010114595931713944
9.595959595959595,6.886075949367089,0.010701684722702727,0.00975023034314053,-7.142227250760021e-06,-0.006135574519752976,0.01025910861511067
9.696969696969697,6.886075949367089,0.010962276613531143,0.009886269010143257,4.532770060468329e-05,-0.00625456368710232,0.010466134517043337
9.797979797979798,6.886075949367089,0.011119841055694435,0.009950670266757345,2.348994065140772e-05,-0.006321153396735534,0.010583878657165598
9.8989898989899,6.886075949367089,0.011133874298471772,0.010180846478403966,-3.793498713224433e-05,-0.006394416233062722,0.010689473521093456
10.0,6.886075949367089,0.01135415622875595,0.01017419056779915,8.936304595473682e-08,-0.00645850403896653,0.010812569916209618
0.0,6.987341772151899,0.011163726032638807,0.010096842705647745,-1.2885410950798269e-05,-0.006378170621485965,0.010670385367706108
0.10101010101010101,6.987341772151899,0.011279371214214825,0.010100168257093516,-1.1949467903855354e-05,-0.006413861841392502,0.010738458692066572
0.20202020202020202,6.987341772151899,0.010952360948013176,0.009887093298832457,4.2850673384556325e-05,-0.0062518362740536905,0.010460751322945924
0.30303030303030304,6.987341772151899,0.011017810496086395,0.009702096171920622,-4.837692104548814e-05,-0.006215972000402105,0.010422762695145235
0.40404040404040403,6.987341772151899,0.010943937179740047,0.009863912319155616,-1.5490956339714684e-05,-0.006242354849668699,0.010445918359625848
0.5050505050505051,6.987341772151899,0.010790398045224655,0.009696673045469615,-7.341770992095514e-05,-0.006146121327208281,0.010288020544813137
0.6060606060606061,6.987341772151899,0.010748855059866082,0.009677974345600053,-2.3922250914172942e-05,-0.00612804882163984,0.010255517824098916
0.7070707070707071,6.987341772151899,0.010347382015292428,0.009475056917134846,5.9545769503189995e-06,-0.005946731679728181,0.00993997439564453
0.8080808080808081,6.987341772151899,0.01048519332414761,0.009331096228124214,-3.0569692680402375e-06,-0.005944886865681548,0.009958429395258065
0.9090909090909091,6.987341772151899,0.010290500230966787,0.009359647487516855,9.584050788550033e-07,-0.005895044315545092,0.009858090292631178
1.0101010101010102,6.987341772151899,0.010298379943814277,0.009141178790064814,-5.0077034473835414e-06,-0.005831867620163728,0.009771311173836625
1.1111111111111112,6.987341772151899,0.010283947766658561,0.009086865198497851,2.2522309532177523e-05,-0.005811243889546924,0.009740809797049403
1.2121212121212122,6.987341772151899,0.010184146951471814,0.00914536755303697,0.00010335509504708984,-0.005798854351352635,0.009708186058733111
1.3131313131313131,6.987341772151899,0.010182283075561686,0.008901973441957006,8.026806180284783e-06,-0.005725276955255608,0.009606341632686803
1.4141414141414141,6.987341772151899,0.009960042967008283,0.00897305406131141,7.75703096901667e-07,-0.005679929108495908,0.009505059331801378
1.5151515151515151,6.987341772151899,0.009902980223143183,0.00903340834258338,-2.8520263842983585e-05,-0.005680916569717968,0.00949822402536333
1.6161616161616161,6.987341772151899,0.009743024970715726,0.008945655599756672,3.74533937529543e-05,-0.005606604171141719,0.009370045467963679
1.7171717171717171,6.987341772151899,0.0097719591642748,0.009039087965142299,1.564551375143255e-05,-0.005643314138825129,0.009426952477788242
1.8181818181818181,6.987341772151899,0.009834507645163155,0.008725045302926735,2.283431842184143e-05,-0.005567865884426967,0.009329469204791982
1.9191919191919191,6.987341772151899,0.009748634371807001,0.008707104915287358,1.5354699796296868e-05,-0.005536721786128308,0.009271886170856265
2.0202020202020203,6.987341772151899,0.00963504000343034,0.008654136445242835,9.185920389628353e-06,-0.005486752934601952,0.009183973855522689
2.121212121212121,6.987341772151899,0.009660700088786788,0.00868343484329712,1.6358293285677125e-05,-0.005503240479625172,0.009211075393401925
2.2222222222222223,6.987341772151899,0.009514420253593362,0.008515959980168944,1.535105874638369e-05,-0.0054091140701286915,0.009056602674111888
2.323232323232323,6.987341772151899,0.009407727159129893,0.008542442387758501,-5.965369407074175e-05,-0.005385050864066518,0.009006906276954043
2.4242424242424243,6.987341772151899,0.009401685897073301,0.008589069321825715,4.241859209612253e-05,-0.005397226565669704,0.009023163282420811
2.525252525252525,6.987341772151899,0.009463754657436306,0.008379162097214189,6.100630837096749e-05,-0.005352875026395148,0.008971390118236796
2.6262626262626263,6.987341772151899,0.009294334404077252,0.008504479031946835,2.659390822906121e-06,-0.005339644030807227,0.008925657666600204
2.727272727272727,6.987341772151899,0.00943597136553166,0.008381448845299615,-9.107627270671557e-05,-0.005345226063249383,0.008956785903098419
2.8282828282828283,6.987341772151899,0.00938924541512415,0.008399801853804225,-0.00010823873595210216,-0.005336714180678512,0.008937670080994354
2.929292929292929,6.987341772151899,0.009424698255384343,0.008514220947361237,1.2645143925222858e-05,-0.005381675760823675,0.009004077517212517
3.0303030303030303,6.987341772151899,0.009401471914259673,0.008409490597640894,2.4266727434581116e-05,-0.00534328875357017,0.008946920320515521
3.131313131313131,6.987341772151899,0.009137525225162866,0.008399252489556164,-4.334450447275863e-05,-0.005261033314415709,0.008791988646840691
3.2323232323232323,6.987341772151899,0.009250375662548768,0.008148280474105566,-5.395623604632217e-06,-0.0052195968409962995,0.008751534524409953
3.3333333333333335,6.987341772151899,0.009025749069447732,0.008385378147336088,-1.995846697940584e-05,-0.005223338165035145,0.008723278566535903
3.4343434343434343,6.987341772151899,0.00916483736654933,0.008337376574348548,-2.9025210010808234e-05,-0.005250664182269362,0.008780542074306157
3.5353535353535355,6.987341772151899,0.009190000811237988,0.008220297251059024,-6.308210731057108e-05,-0.0052230894186891036,0.008746244991838601
3.6363636363636362,6.987341772151899,0.00946886951278412,0.008255069153574117,2.897676431601343e-05,-0.005317181599907471,0.008924236824784043
3.7373737373737375,6.987341772151899,0.009065906049458483,0.00810840065669685,-5.1520940366685224e-05,-0.005152292011846599,0.008627559235614528
3.8383838383838382,6.987341772151899,0.009264852454750373,0.00829160762610273,-3.692037990432918e-07,-0.005266938024255931,0.008818601202795628
3.9393939393939394,6.987341772151899,0.009202620586591319,0.008332445179377741,6.676315823894563e-05,-0.005260519729790718,0.008800619793037229
4.040404040404041,6.987341772151899,0.009198259509350088,0.008357919098033417,4.496485177550984e-05,-0.005266853582215051,0.00880854961627861
4.141414141414141,6.987341772151899,0.009215605446499612,0.008302107975717779,-8.377903741254515e-05,-0.0052553140266652166,0.008795708379028192
4.242424242424242,6.987341772151899,0.00887002271640188,0.008296991133241685,1.0113149327672279e-05,-0.00515010415489307,0.008597858562008669
4.343434343434343,6.987341772151899,0.009167638470325692,0.008316345907215509,-0.00010269615809947932,-0.00524519531326236,0.008774827132325537
4.444444444444445,6.987341772151899,0.00884811285610417,0.008164880541280454,-6.884281406847146e-05,-0.005103898019215386,0.008527884197210017
4.545454545454545,6.987341772151899,0.009159730824984853,0.008239552988601637,-3.594656311698245e-05,-0.005219785144075948,0.008736285893362302
4.646464646464646,6.987341772151899,0.009185411831421348,0.00823351265494873,7.648299427911406e-06,-0.0052256773459110235,0.008748399401407389
4.747474747474747,6.987341772151899,0.009051745364033675,0.008062721273939684,-9.804328033294674e-05,-0.005134339991392007,0.008601668792630928
4.848484848484849,6.987341772151899,0.009171762218696148,0.008091082969110406,7.757532977561488e-05,-0.005178853556341966,0.008683053064462827
4.94949494949495,6.987341772151899,0.009154722712726075,0.008059468709849337,1.0513137664763104e-05,-0.0051642574267726235,0.008659221336792993
5.05050505050505,6.987341772151899,0.009014910933954626,0.008151087762943569,-7.039868786040234e-05,-0.005149799609069458,0.008616402299934512
5.151515151515151,6.987341772151899,0.009062398864109273,0.008271197197973852,-4.2232126295763606e-05,-0.005200078818624936,0.00869414968963106
5.252525252525253,6.987341772151899,0.009176992101569494,0.008276199597105207,-6.33728993899163e-05,-0.00523595750960241,0.008762082734309087
5.353535353535354,6.987341772151899,0.009168727273619491,0.008260735201108477,-3.170160864312352e-05,-0.00522883874241839,0.008750308149903432
5.454545454545454,6.987341772151899,0.00912525851833391,0.00805649938042912,2.9338095435722948e-08,-0.005154527369628908,0.008640595216572169
5.555555555555555,6.987341772151899,0.009147210545303843,0.008152973038740763,-2.091897295057525e-05,-0.005190055075213382,0.008692915620509159
5.656565656565657,6.987341772151899,0.009104354137287836,0.008377177363178724,-3.503471956282609e-05,-0.005244459450139968,0.00876363267947593
5.757575757575758,6.987341772151899,0.009156621105401207,0.00841177345149822,0.00011053690275404989,-0.005270518367069828,0.008809930508691785
5.858585858585858,6.987341772151899,0.009075694497040886,0.008212728188190665,-1.0844500011233328e-06,-0.005186526805569465,0.00867645817148683
5.959595959595959,6.987341772151899,0.009203592434213145,0.008076865867504442,1.771052883265339e-05,-0.005184137490515276,0.008695207607351308
6.0606060606060606,6.987341772151899,0.008962388223106807,0.008405476386357951,4.6697567293922894e-05,-0.005210359382839428,0.00869769138087696
6.161616161616162,6.987341772151899,0.00921718124276254,0.008234661701868016,8.38716252086131e-06,-0.005235552883389167,0.008767321430213335
6.262626262626262,6.987341772151899,0.009059383726882737,0.008237529809347818,-4.390899282733941e-05,-0.005189074060869167,0.008678028080459173
6.363636363636363,6.987341772151899,0.009277695772085969,0.008277662092952628,-1.8701510486498047e-05,-0.005266607359511579,0.008820359811335776
6.4646464646464645,6.987341772151899,0.009300480129831538,0.008330059941728508,6.92584615698761e-05,-0.005289162021468014,0.008856052309766844
6.565656565656566,6.987341772151899,0.009236887008183686,0.008368873824391665,0.00010516695765349652,-0.005281728249772605,0.008836796311776961
6.666666666666667,6.987341772151899,0.009183450262809725,0.008308652453830372,-1.4061924038804525e-05,-0.005247630814992029,0.008778835969560047
6.767676767676767,6.987341772151899,0.009301014009689444,0.008292645081281445,2.734607433352693e-05,-0.005278097727291266,0.008840195665114209
6.8686868686868685,6.987341772151899,0.009345759001918369,0.008505265275059102,7.036819736424115e-05,-0.005355307283093241,0.008955972546997783
6.96969696969697,6.987341772151899,0.009407931449160153,0.008467196601226482,-4.993785004987319e-06,-0.005362538415115991,0.008974623226558506
7.070707070707071,6.987341772151899,0.009347892959711076,0.008511963619827017,-6.538863585870901e-05,-0.005357956973861427,0.00895994027198146
7.171717171717171,6.987341772151899,0.00932207359997631,0.008268902915222117,4.9061327807647316e-05,-0.005277292954559528,0.008843060052925322
7.2727272727272725,6.987341772151899,0.009382845488631093,0.008417738753290438,-3.568096208451616e-05,-0.00534017527257646,0.008939664003168802
7.373737373737374,6.987341772151899,0.009340755828281661,0.008494167246360722,5.9939462558862256e-05,-0.005350476922392715,0.008948152471733903
7.474747474747475,6.987341772151899,0.009444215421552524,0.008821190008918518,-2.048504113285319e-05,-0.0054796216291413125,0.009148695988729309
7.575757575757575,6.987341772151899,0.009651305748253784,0.008682694817945721,-1.1739783126184376e-05,-0.005500200169859852,0.009205322536913559
7.6767676767676765,6.987341772151899,0.009541955722786308,0.008460559887504679,-0.00013060110509920307,-0.005400754683087297,0.009052672242773147
7.777777777777778,6.987341772151899,0.009543897753669126,0.008664244955270519,-1.7370758732817458e-05,-0.005462442812681894,0.009135937950826544
7.878787878787879,6.987341772151899,0.009769330366322482,0.008618524120709138,-6.022965137452572e-05,-0.005516356346109486,0.009248375384519345
7.979797979797979,6.987341772151899,0.009694743272814929,0.008723546964260231,-3.2184807701298663e-06,-0.005525487071122549,0.009247475417239706
8.080808080808081,6.987341772151899,0.009781311109512351,0.008647513116461482,6.945635244756188e-05,-0.00552864726779215,0.009267361359061737
8.181818181818182,6.987341772151899,0.009822376046677997,0.008665161927711017,-9.762039503150478e-05,-0.005546261392316704,0.009299473786244556
8.282828282828282,6.987341772151899,0.010044222627115119,0.008941417003122199,-1.0920169323134595e-05,-0.005695691889071195,0.00954076102707936
8.383838383838384,6.987341772151899,0.009887661685966635,0.008960704811844493,2.373408370498943e-05,-0.005654509949343338,0.009458401377294257
8.484848484848484,6.987341772151899,0.009889709201963484,0.008866823864362851,-2.419515417949515e-05,-0.005626959919897901,0.00942010404368839
8.585858585858587,6.987341772151899,0.010159315285195128,0.008929231855180091,-2.274149981143696e-05,-0.005726564142112566,0.009603621110998753
8.686868686868687,6.987341772151899,0.01016917676823794,0.008790602310312584,2.135962130053224e-05,-0.005687933723565157,0.00955484301436502
8.787878787878787,6.987341772151899,0.01021426838871612,0.009190795545359443,3.387185658230192e-05,-0.005821519180222669,0.009743109923182202
8.88888888888889,6.987341772151899,0.010222604805817727,0.009339587615114076,2.5071498718868758e-05,-0.00586865772627954,0.009811040634807455
8.98989898989899,6.987341772151899,0.01015397810890649,0.009209302794119632,3.4583013643910402e-06,-0.005808984270907837,0.009716146679609914
9.09090909090909,6.987341772151899,0.010282456678156374,0.009328895202091491,-4.8400767781885586e-05,-0.00588340556407436,0.009840745305217856
9.191919191919192,6.987341772151899,0.010295451092999007,0.009285044644745406,4.150497047739756e-05,-0.005874148721323323,0.009829537741658258
9.292929292929292,6.987341772151899,0.010523232475231249,0.009744394001239163,-3.795063919488348e-05,-0.006080287942941124,0.01015644787939685
9.393939393939394,6.987341772151899,0.01049762747551301,0.009701788209848367,-2.0906122312100606e-05,-0.006059824705608413,0.010123261816624938
9.494949494949495,6.987341772151899,0.010724504379375253,0.009608578458659919,3.6350415560527886e-05,-0.006099924851410551,0.010212565616833395
9.595959595959595,6.987341772151899,0.01077821066673382,0.009791929588540737,-3.1498083995672494e-05,-0.006171042076582368,0.010320620460621745
9.696969696969697,6.987341772151899,0.01089109580611443,0.00982342660281401,1.9354934149315202e-06,-0.0062143567226785315,0.010398452242601348
9.797979797979798,6.987341772151899,0.011225781969273131,0.009789949671857309,0.0001078620945404055,-0.0063047194923391316,0.010582833155022595
9.8989898989899,6.987341772151899,0.011220668027344222,0.010146275545875084,1.7729521347538554e-05,-0.006410083071965791,0.010723956910872225
10.0,6.987341772151899,0.011232467072383295,0.0102289115280137,3.872162015727889e-05,-0.006438413580119098,0.010766036120456478
0.0,7.0886075949367084,0.011259816306960579,0.010269917092390397,-4.014104399051542e-05,-0.006458920019805294,0.010799171927202344
0.10101010101010101,7.0886075949367084,0.011151590431041917,0.009905530393625954,-2.3044501703507252e-05,-0.006317136247400361,0.010583793115701734
0.20202020202020202,7.0886075949367084,0.011150990796969204,0.009846886770392022,6.572754022099802e-05,-0.0062993632702083675,0.010560122697971106
0.30303030303030304,7.0886075949367084,0.010801127872521793,0.00986304992363653,-3.3987921548341914e-05,-0.006199253338847498,0.010364145850618024
0.40404040404040403,7.0886075949367084,0.010802356942938407,0.009868879879914706,-6.38421612274073e-05,-0.006201371046855934,0.010367775556099953
0.5050505050505051,7.0886075949367084,0.01064876251632744,0.009621976196483051,1.4415292427905903e-06,-0.006081221613843147,0.010174302719830133
0.6060606060606061,7.0886075949367084,0.010694922574593094,0.009467273610060905,5.752672863865323e-05,-0.0060486588553962,0.010137495164276545
0.7070707070707071,7.0886075949367084,0.010429827875560507,0.009503489248056912,1.0020537935381165e-05,-0.005979995137085226,0.009998908018419827
0.8080808080808081,7.0886075949367084,0.010522113414531875,0.009408864452330327,8.0634358756977e-05,-0.005979293360058661,0.010012989954087457
0.9090909090909091,7.0886075949367084,0.010333908033834844,0.009205113557720008,-2.79918570981492e-06,-0.005861706477466455,0.009818299110442404
1.0101010101010102,7.0886075949367084,0.010439110496415594,0.009154052629140909,-2.1022078257014587e-05,-0.005877948937666951,0.009859658533193373
1.1111111111111112,7.0886075949367084,0.01012050028924112,0.009068534475508351,-9.508006523141678e-06,-0.005756710429424842,0.00963768691451439
1.2121212121212122,7.0886075949367084,0.010190654973731993,0.009028949214254971,7.300314273172995e-06,-0.005765881256396089,0.009662330276552781
1.3131313131313131,7.0886075949367084,0.010284030221409288,0.008963290666677693,-8.827362246306485e-07,-0.005774196266426094,0.009691393470935514
1.4141414141414141,7.0886075949367084,0.010020104198005931,0.008942563449304455,-1.4833485405649991e-05,-0.005688800294193116,0.009527180680625826
1.5151515151515151,7.0886075949367084,0.009849519586304041,0.008673605839603705,-8.623217215559631e-05,-0.005556937627772324,0.009318579918811699
1.6161616161616161,7.0886075949367084,0.009870808984488326,0.009017120883025528,0.00012097133543716718,-0.005666378960254156,0.009475176166856064
1.7171717171717171,7.0886075949367084,0.009727759372397787,0.008648544488677105,2.2344796917437376e-05,-0.005512891158322468,0.009235646287208061
1.8181818181818181,7.0886075949367084,0.009797172763901808,0.008869370051494704,7.321681476463094e-05,-0.005599962844618954,0.009368652554157033
1.9191919191919191,7.0886075949367084,0.009950450466209402,0.008770188613837729,7.948577259695013e-08,-0.00561619172401414,0.00941596226842609
2.0202020202020203,7.0886075949367084,0.009616455032081684,0.008772554711829394,4.132199005500452e-05,-0.005516702923173323,0.009223782747544084
2.121212121212121,7.0886075949367084,0.009655974574220138,0.00856845863781928,-2.529876049683922e-05,-0.005467329963611826,0.009160864028071465
2.2222222222222223,7.0886075949367084,0.009834165477145976,0.008679274803370308,1.7912152594820142e-05,-0.005554032084154885,0.009310647648900315
2.323232323232323,7.0886075949367084,0.009544733922384465,0.00875447492041978,2.6786358919410083e-05,-0.005489762652841274,0.009175281770215747
2.4242424242424243,7.0886075949367084,0.009380381401840531,0.008567119723617912,-3.782297920646074e-05,-0.005384250337637533,0.009001585238906549
2.525252525252525,7.0886075949367084,0.009395417577291704,0.008493181357320318,-6.296806351735098e-05,-0.005366579680383606,0.008979026146492233
2.6262626262626263,7.0886075949367084,0.00959028002324148,0.008450415810250682,-4.38497251361681e-06,-0.005412208750047648,0.009074205311824284
2.727272727272727,7.0886075949367084,0.00936434053604149,0.00855483563849891,-7.5126394232608e-05,-0.005375752852362119,0.008987915456502934
2.8282828282828283,7.0886075949367084,0.009546506736796913,0.008114677400820492,-1.5987085415088696e-05,-0.005298355241285222,0.008917271134261277
2.929292929292929,7.0886075949367084,0.009436213819219443,0.008336213286676315,5.580980382632107e-05,-0.005331728131768727,0.008937652733794278
3.0303030303030303,7.0886075949367084,0.009307427875825999,0.008383196595745691,-5.4914261188250874e-05,-0.005307187341471507,0.008881961938169827
3.131313131313131,7.0886075949367084,0.00935319483843915,0.008401033776389722,-9.576635579872259e-05,-0.005326268584448662,0.00891687333249011
3.2323232323232323,7.0886075949367084,0.009316579185964595,0.008486836023087726,3.060750858518782e-05,-0.005341024562715696,0.008930821016148512
3.3333333333333335,7.0886075949367084,0.009309235696842907,0.008425057228486634,-1.4852434914368848e-05,-0.0053202878775988624,0.008900184090666083
3.4343434343434343,7.0886075949367084,0.009091540224426908,0.008366954313165214,-6.763948462179187e-05,-0.005237548361277636,0.008752556868511188
3.5353535353535355,7.0886075949367084,0.0092234424777249,0.008305328926748873,-1.1638331131108543e-05,-0.005258631421342132,0.008800401266941938
3.6363636363636362,7.0886075949367084,0.009346960208149254,0.008351801168358038,-1.1574373455021825e-05,-0.0053096284129521875,0.008891270809049617
3.7373737373737375,7.0886075949367084,0.009267368459030676,0.008326308545676089,-2.2172814700458718e-05,-0.005278103101412029,0.008834593248023041
3.8383838383838382,7.0886075949367084,0.009166693836994755,0.008124384724527388,2.1658702899370454e-05,-0.005187323568456643,0.008692615427353606
3.9393939393939394,7.0886075949367084,0.009428958010095106,0.008410662279612577,5.552309370963986e-06,-0.005351886086912305,0.008963302971042248
4.040404040404041,7.0886075949367084,0.009236126055470093,0.008371572477920185,3.974814324114028e-05,-0.005282309560017083,0.008835897878637046
4.141414141414141,7.0886075949367084,0.009206778921293424,0.008311110840056172,-5.980903534758724e-05,-0.005255366928404879,0.008793833792415984
4.242424242424242,7.0886075949367084,0.00910725667314841,0.008306556296793935,6.899305778601795e-05,-0.005224143890982702,0.008735292867650271
4.343434343434343,7.0886075949367084,0.009048255978595609,0.008043500646442726,1.3581803494362652e-05,-0.0051275269875115,0.008590095429426915
4.444444444444445,7.0886075949367084,0.008953168100824454,0.008279600549528778,-4.074027382078835e-05,-0.005169830595105969,0.008636395549272922
4.545454545454545,7.0886075949367084,0.009084870770860438,0.00829658485296345,-9.547469286044477e-05,-0.005214436687147167,0.008719067735023978
4.646464646464646,7.0886075949367084,0.009077653052025863,0.00820814825116008,-3.1481718905059186e-05,-0.005185740390955784,0.00867581315602338
4.747474747474747,7.0886075949367084,0.009184016340705963,0.008107873344220546,-6.122097161817448e-05,-0.005187566905477952,0.008696675747242623
4.848484848484849,7.0886075949367084,0.009018772603954952,0.00808238729674313,-3.576796216856968e-05,-0.0051303479702094245,0.008589171590516498
4.94949494949495,7.0886075949367084,0.009145193631410543,0.008167380900837492,4.374283280998912e-06,-0.00519377235967441,0.008697612025077718
5.05050505050505,7.0886075949367084,0.009028675399556136,0.008244820097423075,-1.6699160411121358e-05,-0.005182048649093763,0.008663432928575552
5.151515151515151,7.0886075949367084,0.009049688785191174,0.00817041505857834,-1.119337209991753e-05,-0.005166031153130854,0.008643680447993322
5.252525252525253,7.0886075949367084,0.009092271399431322,0.008183691276081796,-6.386846155275685e-05,-0.0051827888026539344,0.008674450847920191
5.353535353535354,7.0886075949367084,0.00898229462457641,0.00824786699530034,-5.388179105786335e-05,-0.005169048485963024,0.00863903148859722
5.454545454545454,7.0886075949367084,0.009133427657483657,0.008190042914737784,-7.826050192993974e-05,-0.005197041171666432,0.008701236312431516
5.555555555555555,7.0886075949367084,0.009266900100681649,0.008158236978924389,8.294483801813555e-05,-0.005227541123881811,0.008766489635959497
5.656565656565657,7.0886075949367084,0.009138840709883665,0.008099378384209937,-5.622596629710073e-05,-0.0051714657282280795,0.008666538807778035
5.757575757575758,7.0886075949367084,0.009259965907889878,0.008309072354223375,6.659430838336543e-05,-0.005270711478633976,0.008823787717439174
5.858585858585858,7.0886075949367084,0.009131782214686083,0.008165198892058799,-9.245528008031849e-06,-0.005189094332023463,0.008688921554532684
5.959595959595959,7.0886075949367084,0.00911916124624035,0.008172757153395424,9.156607221148538e-05,-0.005187575519890732,0.008686168548437883
6.0606060606060606,7.0886075949367084,0.009319372471510353,0.008056120469795114,-2.8726897181095657e-05,-0.00521264788239164,0.008756498652833915
6.161616161616162,7.0886075949367084,0.009241552879151077,0.008322144116978018,-4.668385227378503e-05,-0.005269109098838727,0.008818241635559686
6.262626262626262,7.0886075949367084,0.009291004029156304,0.008144376572318085,6.508299169300327e-05,-0.005230614180442317,0.008774787602020459
6.363636363636363,7.0886075949367084,0.009151280747796978,0.008206775567196761,2.1099906336387908e-05,-0.005207416894498122,0.00871756462000146
6.4646464646464645,7.0886075949367084,0.009139983188263338,0.008250576189018819,2.270400899084409e-05,-0.005217167813184647,0.00872941686984278
6.565656565656566,7.0886075949367084,0.009188377738761052,0.008419152550689757,5.817615123743435e-06,-0.005282259086835242,0.008828938939640006
6.666666666666667,7.0886075949367084,0.009338484950845247,0.008441263602864119,-2.5185387578585996e-05,-0.005333924566112811,0.008923873720530778
6.767676767676767,7.0886075949367084,0.009396563175068984,0.008414685241264354,-2.387082200705844e-05,-0.005343374524900001,0.00894622351571787
6.8686868686868685,7.0886075949367084,0.009346603393336528,0.008332579910296328,7.1204702606496505e-06,-0.005303754991089857,0.008883114059397786
6.96969696969697,7.0886075949367084,0.009199332924790365,0.008342930819837209,-3.7266378032059315e-05,-0.005262679123388272,0.00880266943002745
7.070707070707071,7.0886075949367084,0.009196054497230833,0.008361259276702159,2.3653737054953022e-05,-0.0052671941321798975,0.008808470782836112
7.171717171717171,7.0886075949367084,0.009524962032419487,0.008493519278395254,-6.41515836874136e-05,-0.005405544393244422,0.009054096811954003
7.2727272727272725,7.0886075949367084,0.009393592486354605,0.008522395271599975,-8.149528559501689e-05,-0.005374796327386374,0.008990818495596738
7.373737373737374,7.0886075949367084,0.009478178454348906,0.008452513166612828,8.233584297278801e-05,-0.0053792074862885194,0.009010369306330958
7.474747474747475,7.0886075949367084,0.009464617816461662,0.008587713454908372,-1.0766555931646092e-05,-0.005415699381411011,0.00905807566669016
7.575757575757575,7.0886075949367084,0.009419271051942369,0.008794614917957855,4.279452724911995e-05,-0.005464165790970066,0.009123297162216784
7.6767676767676765,7.0886075949367084,0.009393837847990479,0.008707819497945846,6.419216515670415e-05,-0.005430497203780897,0.00907098822907811
7.777777777777778,7.0886075949367084,0.009729924368469527,0.008703605704257576,-5.655104400912025e-06,-0.00553005902181813,0.009259527589274376
7.878787878787879,7.0886075949367084,0.009540095079354948,0.008653987642889889,9.503119188269555e-06,-0.005458224816673451,0.009129365927900686
7.979797979797979,7.0886075949367084,0.00956028253223009,0.008760491285399973,4.454483887746085e-05,-0.005496232145289019,0.009186859668901077
8.080808080808081,7.0886075949367084,0.009706285387714411,0.008807150099647365,2.730388121235783e-05,-0.0055540306462085335,0.009289531370938468
8.181818181818182,7.0886075949367084,0.009721452229326416,0.008754937868235288,-1.5263297501441616e-05,-0.005542917029268511,0.009276074556175011
8.282828282828282,7.0886075949367084,0.00960769596182988,0.0087393121606966,0.00013596710277791584,-0.0055041024367579435,0.009207290901273818
8.383838383838384,7.0886075949367084,0.009819988038945198,0.008775607411774466,-6.969745489413506e-05,-0.005578678635215898,0.009342465623065989
8.484848484848484,7.0886075949367084,0.009775387069752764,0.009009039096519516,-3.598877103873359e-05,-0.005635327849881684,0.009415838735132166
8.585858585858587,7.0886075949367084,0.010068714820810613,0.009074886910037628,1.6095925041118735e-06,-0.005743080519254471,0.009610418826298445
8.686868686868687,7.0886075949367084,0.010082289534387077,0.009031135725403329,-0.00011405897390826686,-0.005734027577937122,0.009602003847457638
8.787878787878787,7.0886075949367084,0.01019934394438906,0.00913144755511269,-8.799244919244385e-06,-0.0057992374498505245,0.009709552476973788
8.88888888888889,7.0886075949367084,0.0101593081182801,0.009200761175573814,1.947962679555563e-06,-0.005808020788156174,0.009715564385583103
8.98989898989899,7.0886075949367084,0.010299019264917908,0.009073356825897303,5.6631410245735536e-05,-0.005811712827244564,0.009744667593699435
9.09090909090909,7.0886075949367084,0.010273989733677593,0.00910722040029469,-1.246006051965168e-05,-0.005814363040191685,0.00974316710990908
9.191919191919192,7.0886075949367084,0.010515498621730693,0.009190205567314261,2.8182613245863326e-05,-0.0059117112567134865,0.009919595679041932
9.292929292929292,7.0886075949367084,0.010522391365973488,0.009399774109636591,-6.833418231871632e-05,-0.005976649642683023,0.010009114851923025
9.393939393939394,7.0886075949367084,0.010556331706440648,0.009599053863381146,-2.7064156548950066e-05,-0.006046615670946537,0.010111843300030105
9.494949494949495,7.0886075949367084,0.010536973743575633,0.009701376781399079,3.330078686373668e-05,-0.006071505157492414,0.010145181197620489
9.595959595959595,7.0886075949367084,0.010687682778438502,0.009781269745114176,-6.177845232966971e-05,-0.006140685757065803,0.01026509340067665
9.696969696969697,7.0886075949367084,0.010907801026174854,0.009780102854378681,1.6774927678277372e-05,-0.00620637116416606,0.010389993422151704
9.797979797979798,7.0886075949367084,0.011079737344227533,0.009793321023981803,5.8329399481407864e-05,-0.006261917510462801,0.010496308807335365
9.8989898989899,7.0886075949367084,0.01109535366447473,0.009938567100268329,7.8161019447797e-05,-0.006310176229422917,0.0105654341834873
10.0,7.0886075949367084,0.011062364209890051,0.010170049534969184,3.2353063474296504e-05,-0.00636972412345777,0.01064444257017152
0.0,7.189873417721519,0.011391831822459293,0.010221244665308507,-4.97056416526484e-05,-0.00648392294633034,0.010854325703991308
0.10101010101010101,7.189873417721519,0.011240918928288459,0.01009577342624066,-2.7929270076552715e-05,-0.006401007706358736,0.010714451407140805
0.20202020202020202,7.189873417721519,0.011167687305998266,0.009954882191302852,-1.1856670348483579e-05,-0.0063367708491903355,0.010613403293413837
0.30303030303030304,7.189873417721519,0.011158824317780222,0.009939099863959555,-1.4222425982006363e-05,-0.006329377254521933,0.010601745320193676
0.40404040404040403,7.189873417721519,0.010861897500922832,0.009529454612738393,6.220586969249629e-05,-0.006117405634098367,0.010261333831632543
0.5050505050505051,7.189873417721519,0.010772588318207836,0.009600004700555043,4.781733698022974e-05,-0.006111777905628864,0.01023712412377006
0.6060606060606061,7.189873417721519,0.010604838296693534,0.009627662330481002,9.119134454097245e-05,-0.0060697501881523605,0.010152813533342353
0.7070707070707071,7.189873417721519,0.010577459641519333,0.009422666880258647,-2.3433689078914538e-05,-0.006000037956533395,0.010050028476388926
0.8080808080808081,7.189873417721519,0.01041396762648262,0.00938865428506264,-3.610316062500304e-05,-0.005940786573463579,0.009941243360042788
0.9090909090909091,7.189873417721519,0.010363176405667269,0.009302318524529023,-9.529146671171487e-05,-0.005899648479058888,0.009876954423619563
1.0101010101010102,7.189873417721519,0.010271682940339975,0.009186646769902863,-8.947719266826592e-06,-0.005837498913072852,0.009774449681774298
1.1111111111111112,7.189873417721519,0.010413056942799507,0.009233468329235233,-9.22421635535589e-06,-0.005893957581610422,0.009876250100499424
1.2121212121212122,7.189873417721519,0.0101572545858286,0.009159232676863294,-2.0373353135812367e-05,-0.005794946178807569,0.009696904199850052
1.3131313131313131,7.189873417721519,0.01015197185120014,0.009048281043751674,3.494673915075832e-05,-0.005760075868485545,0.009647781697369242
1.4141414141414141,7.189873417721519,0.010106512618640508,0.009041212872673243,-6.407950416061075e-05,-0.005744317647394125,0.009618852014809534
1.5151515151515151,7.189873417721519,0.01001634335241037,0.008936011386596021,6.904416808095168e-05,-0.005685706421701918,0.009523002504304654
1.6161616161616161,7.189873417721519,0.00989138455870471,0.008915068623983663,-5.335623960823232e-05,-0.0056419359548065115,0.009441615624265291
1.7171717171717171,7.189873417721519,0.009645717338998851,0.008907914158019416,3.517068016366784e-07,-0.00556608944910548,0.009298794327937232
1.8181818181818181,7.189873417721519,0.009733671274814679,0.008781292209185679,8.461458106597168e-05,-0.005554489045200107,0.009295306154126385
1.9191919191919191,7.189873417721519,0.009695169291715825,0.008533938671763554,2.440274390296604e-05,-0.005468732389043814,0.009169963096016956
2.0202020202020203,7.189873417721519,0.00964700365871808,0.008467570554534202,3.5331957298016015e-05,-0.005434372263975684,0.00911490491496808
2.121212121212121,7.189873417721519,0.009527626834154932,0.008598433207899492,-0.0001243280748838815,-0.005437818012616326,0.00910123267304813
2.2222222222222223,7.189873417721519,0.00958568151334266,0.0086758181327879,-8.312744211313264e-05,-0.005478449893839167,0.009165817550811242
2.323232323232323,7.189873417721519,0.009477178464955115,0.008573959668928231,-1.841124264530194e-05,-0.005415341440165004,0.009059457326397858
2.4242424242424243,7.189873417721519,0.009478990729656089,0.008368151657194962,-1.6742987379614715e-05,-0.005354142716055315,0.008975323749631139
2.525252525252525,7.189873417721519,0.009436447660323016,0.008597202730012488,3.405867609767367e-05,-0.005410095117100651,0.009046262522183041
2.6262626262626263,7.189873417721519,0.00939155843298634,0.008508199115197018,7.172920948568794e-06,-0.005369927264455007,0.008982523430894323
2.727272727272727,7.189873417721519,0.00937705270484851,0.008447501110386505,8.01127562642557e-06,-0.005347366144570504,0.008948570938688418
2.8282828282828283,7.189873417721519,0.009225764682931022,0.008190155962011397,4.9392084545662e-05,-0.005224776193482726,0.008754442059829615
2.929292929292929,7.189873417721519,0.0093281255216658,0.008323471178187911,-8.278953380346961e-06,-0.005295479009956114,0.008868591765279344
3.0303030303030303,7.189873417721519,0.009347595376142258,0.008296159336439637,-2.4290379661906896e-05,-0.005293126413774568,0.008868845948953024
3.131313131313131,7.189873417721519,0.00929344966412902,0.008445909616543883,3.6232800467589707e-06,-0.005321807784201871,0.008899999966621872
3.2323232323232323,7.189873417721519,0.009282289478626181,0.008293279312913819,-6.282298023545456e-05,-0.005272670637462,0.008830096296076702
3.3333333333333335,7.189873417721519,0.009324388033750944,0.0082973428552707,5.708615438931716e-06,-0.005286519266706493,0.008855651528550862
3.4343434343434343,7.189873417721519,0.009144069089171147,0.00819802343689934,4.713859155278638e-05,-0.005202627757821147,0.008710049438337017
3.5353535353535355,7.189873417721519,0.009141435884392972,0.008200051685980644,2.2291905265392562e-06,-0.0052024462711120845,0.0087089876479986
3.6363636363636362,7.189873417721519,0.009054075884217862,0.008285618316620214,-1.8354343128435988e-05,-0.005201908260251424,0.00869540997683709
3.7373737373737375,7.189873417721519,0.009205492371089306,0.008383754333069869,-2.003209161271074e-05,-0.005276774011247752,0.008823437188044847
3.8383838383838382,7.189873417721519,0.009186025327618919,0.008181032611379854,-3.102657071988015e-05,-0.005210117381699631,0.008727202935544536
3.9393939393939394,7.189873417721519,0.009332684742809723,0.008275012250806625,-3.024775248116367e-05,-0.005282309098084905,0.008851525092298902
4.040404040404041,7.189873417721519,0.009217257463207253,0.008255616431985989,-3.685806354213825e-05,-0.005241862168557972,0.008776273195073852
4.141414141414141,7.189873417721519,0.009071569684647535,0.008137539966256269,-2.9976727870523835e-05,-0.005162732895271141,0.00864264821643098
4.242424242424242,7.189873417721519,0.009134840829845791,0.008314761253974581,-3.515898320015435e-05,-0.005234880625146112,0.008753871118898594
4.343434343434343,7.189873417721519,0.009038554832613694,0.008414232098155578,4.8014613995746395e-05,-0.0052358360792307814,0.008743522932991604
4.444444444444445,7.189873417721519,0.00911041519818173,0.008189366667344095,-8.041094813433821e-05,-0.0051899345596577474,0.008687707333212386
4.545454545454545,7.189873417721519,0.00914063347402679,0.00804219362226175,-4.655133998602407e-07,-0.005154848128886562,0.00864391780307427
4.646464646464646,7.189873417721519,0.009204682015851678,0.008147913095421446,7.9452772401557e-05,-0.005205778533381937,0.008725517057255824
4.747474747474747,7.189873417721519,0.009161035357523675,0.008226320197402952,3.681822128044698e-07,-0.0052162066664779875,0.008731283011559843
4.848484848484849,7.189873417721519,0.009028221999271765,0.008212855569113268,-4.073747286452548e-05,-0.00517232327051551,0.008649698513036487
4.94949494949495,7.189873417721519,0.009131461453407718,0.00815581008606064,8.217077874005856e-05,-0.0051861814618405075,0.008686001215946213
5.05050505050505,7.189873417721519,0.008883556386612802,0.008184716471940615,-1.9201301085224594e-05,-0.005120481857566026,0.008555634025783954
5.151515151515151,7.189873417721519,0.009071993260870595,0.008229153833265137,4.33546554632154e-06,-0.005190344128240719,0.008681316882107203
5.252525252525253,7.189873417721519,0.009139209383828999,0.008087766685744232,-3.794595682068204e-05,-0.005168092820871969,0.008661734504292204
5.353535353535354,7.189873417721519,0.009290557378465868,0.00800774341415133,5.231841210523624e-06,-0.0051894902377851585,0.008720211777516234
5.454545454545454,7.189873417721519,0.008861012179976521,0.008293559578267454,2.0918528107192436e-05,-0.005146371527473192,0.00859142873147591
5.555555555555555,7.189873417721519,0.009292488147293373,0.008309327090983327,3.7487435417927315e-05,-0.00528054457148301,0.008842236430396645
5.656565656565657,7.189873417721519,0.009080094203382558,0.008171932733919878,-2.8780651995605396e-05,-0.00517560808119073,0.00866193750151215
5.757575757575758,7.189873417721519,0.009231518611471985,0.008244285148859111,-5.721521372239265e-05,-0.0052427411280993284,0.008780189203070825
5.858585858585858,7.189873417721519,0.009040292869857587,0.008183641694865861,-4.44103450100813e-05,-0.005167180369417035,0.008644205327004419
5.959595959595959,7.189873417721519,0.009118784809840862,0.008356545964765389,3.0932206557244875e-05,-0.005242599232381876,0.008762729190576933
6.0606060606060606,7.189873417721519,0.009310467483522017,0.008252468083785866,4.41879035692979e-05,-0.005268880670192364,0.008829470889877783
6.161616161616162,7.189873417721519,0.009207251711906372,0.008407536310997258,5.036871211448396e-05,-0.005284436406871089,0.008835013233508817
6.262626262626262,7.189873417721519,0.009177788425892489,0.008417240082541253,-8.733584858430289e-06,-0.005278508552530123,0.008822148900159938
6.363636363636363,7.189873417721519,0.009343176245729067,0.008283405764759156,4.6625920016738216e-05,-0.005287974603146467,0.008861317925490563
6.4646464646464645,7.189873417721519,0.009279549431447867,0.008220391072760801,8.112430659958878e-05,-0.0052499821512626,0.008799038878971788
6.565656565656566,7.189873417721519,0.009337155454862005,0.00849063327563221,-4.5959645048217065e-07,-0.005348336619148265,0.008943990342035081
6.666666666666667,7.189873417721519,0.009241036627772854,0.008253491833827703,-2.809835371928817e-05,-0.005248358538480167,0.008789108806694755
6.767676767676767,7.189873417721519,0.009232908206504969,0.008511604432270588,-1.7361585107873504e-05,-0.005323353791632667,0.008894270392891838
6.8686868686868685,7.189873417721519,0.009181225140523266,0.008469354117100385,7.337529652012433e-05,-0.005295173777287095,0.008847709257221536
6.96969696969697,7.189873417721519,0.009302246150920854,0.008362335926635866,-5.235153299566606e-06,-0.005299374623267016,0.008869724947057903
7.070707070707071,7.189873417721519,0.0092803170827376,0.0083986043995268,7.348859444188333e-06,-0.00530367644467932,0.008872389258425484
7.171717171717171,7.189873417721519,0.00930155843268529,0.008549242054906935,5.934786702104874e-05,-0.005355240146277667,0.008949738597809474
7.2727272727272725,7.189873417721519,0.00937841008580727,0.008392642273164696,6.298721687987e-05,-0.00533131570769159,0.008927109346822922
7.373737373737374,7.189873417721519,0.009497207522975948,0.008650356611415553,-6.229457230879535e-05,-0.005444269240317451,0.009104011763722003
7.474747474747475,7.189873417721519,0.009535692752261873,0.008588861127863199,5.128383866776e-05,-0.005437366164037521,0.009099731920690617
7.575757575757575,7.189873417721519,0.009428951514478336,0.008666783027895576,-3.667514069190195e-05,-0.005428720362712173,0.009072133870060851
7.6767676767676765,7.189873417721519,0.00944778453016223,0.008516363142189612,1.6346097722326205e-05,-0.005389244301705552,0.00901826542826989
7.777777777777778,7.189873417721519,0.009479097985725837,0.008780758706919623,7.374882910763422e-05,-0.005477957007793638,0.009150828737858349
7.878787878787879,7.189873417721519,0.00969178795329939,0.008497976460410821,-3.162044858678199e-05,-0.005456929324113063,0.009153620667544111
7.979797979797979,7.189873417721519,0.009665938241613218,0.008784294870194121,4.690828554615343e-06,-0.005535069933542201,0.00925666315458227
8.080808080808081,7.189873417721519,0.009746456756639823,0.008819846656148793,-9.361675874177523e-05,-0.005569891023836584,0.00931918197081871
8.181818181818182,7.189873417721519,0.009755452582638671,0.008757990134536583,2.3479222125067753e-05,-0.005554032815152576,0.009297028699196186
8.282828282828282,7.189873417721519,0.009861408596240346,0.00887199686336897,-1.9391829994720093e-05,-0.005620021637882795,0.009405873156735599
8.383838383838384,7.189873417721519,0.009868684243621757,0.008953470816229325,6.705041682724459e-05,-0.005646646517955324,0.009445108748062094
8.484848484848484,7.189873417721519,0.01000767222730489,0.00886787264616569,-4.556575557662044e-06,-0.0056626634620411745,0.009489255406438201
8.585858585858587,7.189873417721519,0.009960529993050714,0.008817455195591465,-2.065557336468217e-05,-0.005633395556592653,0.009441103054664174
8.686868686868687,7.189873417721519,0.01014038095450514,0.00915789846379029,3.648558679523497e-05,-0.0057894838254886295,0.009686787114632157
8.787878787878787,7.189873417721519,0.010002203872316482,0.009135662262964138,7.552991249513333e-05,-0.005741359840584186,0.009599206484214149
8.88888888888889,7.189873417721519,0.010300168746489567,0.009198968763430909,-4.8920656021706006e-05,-0.005849741252976142,0.009796466283893902
8.98989898989899,7.189873417721519,0.010274211284668955,0.009084303633955522,-7.718567543568816e-05,-0.0058075544755873424,0.009734875860125222
9.09090909090909,7.189873417721519,0.010398419036129303,0.009246427673667467,-5.0925590444570186e-06,-0.005893454012939031,0.009872962647539802
9.191919191919192,7.189873417721519,0.010339024823980079,0.009498004261094156,6.150528258373221e-05,-0.00595110872552227,0.009945791377274868
9.292929292929292,7.189873417721519,0.010567245385447663,0.009460161249387193,1.5228948580924649e-05,-0.006008221990450456,0.010059531617084316
9.393939393939394,7.189873417721519,0.010552485761664699,0.009560070559857798,8.962420524318973e-05,-0.0060337668964567485,0.010094131656100147
9.494949494949495,7.189873417721519,0.010726127714446611,0.009689340154508307,6.740785724827273e-05,-0.006124640360686475,0.01024781244305687
9.595959595959595,7.189873417721519,0.010840747534685696,0.009908811717099963,-5.3541688114983736e-05,-0.0062248677755356975,0.010406537882457064
9.696969696969697,7.189873417721519,0.010997887728775775,0.009684695482113488,3.2621939299193257e-06,-0.0062047749632667785,0.010403638757765852
9.797979797979798,7.189873417721519,0.010986931662838095,0.009889192797235106,-3.787727544791209e-05,-0.0062628373380219605,0.01048147032361845
9.8989898989899,7.189873417721519,0.011208509716019872,0.01017066402092566,2.328046031885819e-05,-0.00641375212108366,0.010727382538310199
10.0,7.189873417721519,0.011351328835310873,0.01011582186044305,7.700506641154778e-05,-0.006440145208726177,0.010787598769096924
0.0,7.291139240506329,0.01111131646965035,0.010148638182806959,-3.089934499718262e-05,-0.006377986395737193,0.010662755008799032
0.10101010101010101,7.291139240506329,0.01115909623119211,0.009978519849971331,2.1095636438803877e-05,-0.006341284824349033,0.010618208837662657
0.20202020202020202,7.291139240506329,0.010883904578651016,0.00980019978890607,-2.3575872248402108e-05,-0.006205231310267125,0.010384629164815778
0.30303030303030304,7.291139240506329,0.010901502872774655,0.009816194905039934,-4.042166537578072e-05,-0.006215309333344377,0.010401637951540732
0.40404040404040403,7.291139240506329,0.010851755443319665,0.009448237413904596,0.00011877463988494601,-0.006089997857167278,0.010224585414101067
0.5050505050505051,7.291139240506329,0.010782335476679698,0.009625862609006476,4.508783872469904e-05,-0.006122459425705853,0.01025342909157722
0.6060606060606061,7.291139240506329,0.010350548046770509,0.009395411593708141,2.132477952765932e-05,-0.005923787892143595,0.009907638921685382
0.7070707070707071,7.291139240506329,0.010451768536838482,0.009431753511205539,-8.812877717377784e-06,-0.005965056614413206,0.009980940248723659
0.8080808080808081,7.291139240506329,0.010344181355526668,0.009485743460585932,2.5594076113557103e-05,-0.0059489774448337794,0.009942893514363341
0.9090909090909091,7.291139240506329,0.010334055104830295,0.009374783276080875,-3.5200193731514716e-06,-0.005912651514273351,0.009889376450712282
1.0101010101010102,7.291139240506329,0.010302382566857192,0.009235324467171272,-1.514302145901008e-05,-0.005861312110208538,0.009812499513949392
1.1111111111111112,7.291139240506329,0.01018165760736769,0.008980241281525202,2.8664897315058857e-05,-0.005748569666667868,0.009637406714311353
1.2121212121212122,7.291139240506329,0.009955452949768745,0.00911998593704914,-5.0205432567461876e-05,-0.005722631666045364,0.009565519211447219
1.3131313131313131,7.291139240506329,0.010157499839226364,0.00916594165070549,6.614033980175118e-05,-0.005797032446979556,0.009700482571412069
1.4141414141414141,7.291139240506329,0.010008016596793328,0.009129073767951638,-2.0797508313446172e-05,-0.00574112710942349,0.009598841590964973
1.5151515151515151,7.291139240506329,0.009856585166440203,0.008943531792463377,-4.956299461311699e-05,-0.005640035087671074,0.009433648219867878
1.6161616161616161,7.291139240506329,0.009889815457848977,0.009053152715656052,5.591917668417423e-05,-0.005682890452051508,0.00949965236609738
1.7171717171717171,7.291139240506329,0.009803236851310503,0.00888810446699672,-5.053352344171336e-05,-0.005607402395492166,0.009379622670499804
1.8181818181818181,7.291139240506329,0.009867417340657932,0.008871677102867655,8.760513792914038e-05,-0.005621728333057676,0.00941036997611059
1.9191919191919191,7.291139240506329,0.009577860324590709,0.008876973283283915,-5.776950465089054e-06,-0.005536450082362387,0.009247364650350852
2.0202020202020203,7.291139240506329,0.00966047399908861,0.008619856690387043,-2.955546802890532e-05,-0.005484099206842696,0.009184628810877145
2.121212121212121,7.291139240506329,0.009649365415769745,0.008693759134751228,6.371396767487994e-05,-0.005502937365156291,0.009209485354853086
2.2222222222222223,7.291139240506329,0.009640821087014737,0.0086529700752507,-3.13711982151938e-05,-0.00548813734867963,0.009186976567100845
2.323232323232323,7.291139240506329,0.00958954354422544,0.008472711460415481,9.7851562793877e-06,-0.005418676501392276,0.009082787933150796
2.4242424242424243,7.291139240506329,0.009494422317223462,0.008640479150310536,5.6750279503114023e-05,-0.0054404704402602,0.009098089842994555
2.525252525252525,7.291139240506329,0.009410814462866936,0.008511902285349702,6.141457471504692e-06,-0.005376815024464992,0.008995114751289585
2.6262626262626263,7.291139240506329,0.009423617290192247,0.008623293549561548,-4.540139671944516e-05,-0.005414073251926138,0.009050376795600326
2.727272727272727,7.291139240506329,0.009189686490392819,0.00835354847648073,5.113395747431615e-06,-0.005262970490062065,0.00880145992434855
2.8282828282828283,7.291139240506329,0.009296577788210457,0.008341467386696073,2.3885924099460554e-05,-0.00529141355247196,0.008857824107501336
2.929292929292929,7.291139240506329,0.00942612360962594,0.008229583025531543,-9.867148246236268e-05,-0.005296711990547245,0.008890105984074581
3.0303030303030303,7.291139240506329,0.00927096565450327,0.008318602579435673,3.455511866263481e-05,-0.005276870470181683,0.008833575516337651
3.131313131313131,7.291139240506329,0.009322475096238243,0.008432025594457295,9.496308300232447e-06,-0.005326350207208661,0.00891069691270035
3.2323232323232323,7.291139240506329,0.00920813983853462,0.008289101415287676,7.847974271250019e-05,-0.005249172376146689,0.008785801830295117
3.3333333333333335,7.291139240506329,0.009232563720775772,0.008229978726465283,-5.453022974444847e-05,-0.005238762734172316,0.008774844746284932
3.4343434343434343,7.291139240506329,0.009262584126503576,0.008382993622726759,5.435102632901038e-05,-0.0052936733247691,0.008856112308398813
3.5353535353535355,7.291139240506329,0.009127514331494118,0.00812682405329537,4.180284362576738e-05,-0.0051763015154368455,0.008670889601538685
3.6363636363636362,7.291139240506329,0.009096328410313869,0.008272088324056142,5.775146748750663e-05,-0.005210525020311003,0.008714069626214982
3.7373737373737375,7.291139240506329,0.009174633351985933,0.008296824812195958,5.106672301968154e-05,-0.005241437449254567,0.008769190207806282
3.8383838383838382,7.291139240506329,0.00907233086825052,0.008241620699756326,3.9877264399495e-08,-0.005194185470402053,0.008686816981358708
3.9393939393939394,7.291139240506329,0.009022496498081489,0.00831091160345536,0.0001274006299795342,-0.005200022430461055,0.008691387499234999
4.040404040404041,7.291139240506329,0.009172395018208003,0.008211856256477251,-9.713933272909072e-05,-0.005215275382405576,0.00873346049855546
4.141414141414141,7.291139240506329,0.009170952210826006,0.008242789047702934,-2.203151872130325e-05,-0.005224122377558681,0.008743978926165921
4.242424242424242,7.291139240506329,0.009044482937895443,0.008284723677415513,6.808957119622183e-06,-0.005198761984593286,0.008689557823338261
4.343434343434343,7.291139240506329,0.009100934187405246,0.008105654974478642,-7.23941961313291e-06,-0.005161976748565167,0.008646373251705995
4.444444444444445,7.291139240506329,0.008982398906750427,0.008085078195418883,-6.876798807286817e-05,-0.005120243130650793,0.00856987567652283
4.545454545454545,7.291139240506329,0.009264293790458967,0.00833741435720071,-6.041658895553051e-05,-0.0052805124442979025,0.008838003848967152
4.646464646464646,7.291139240506329,0.00923058205270062,0.008037945782797469,2.0288782725199694e-05,-0.005180558350649425,0.008695891803585924
4.747474747474747,7.291139240506329,0.008977187963231359,0.008399073282197283,-4.172922412422937e-05,-0.005212878373628591,0.008702844370670126
4.848484848484849,7.291139240506329,0.00915778761462732,0.00815814457804295,5.480696993903772e-05,-0.00519477965780108,0.00870165805968001
4.94949494949495,7.291139240506329,0.009318760805236543,0.008109244793131508,3.179325136943866e-05,-0.0052284016795104155,0.008776905716386544
5.05050505050505,7.291139240506329,0.00907713638265147,0.008122611781031843,3.209212255343714e-06,-0.005159924449104994,0.008639514050685061
5.151515151515151,7.291139240506329,0.00897572227373433,0.00831701916785211,1.7458487703504793e-05,-0.005187822432475933,0.008665221195909723
5.252525252525253,7.291139240506329,0.009101054583837422,0.008150891679579265,-5.9531314635818514e-05,-0.0051755838790250065,0.008665745874400672
5.353535353535354,7.291139240506329,0.009141273521212847,0.008184077359711413,-2.3524681043158216e-05,-0.005197605264277278,0.008702343040086108
5.454545454545454,7.291139240506329,0.00902868026563473,0.008168709763580133,8.378835107142308e-05,-0.005159217008764459,0.00863210746955015
5.555555555555555,7.291139240506329,0.009074995977371152,0.008137631480109531,-6.863968872249884e-05,-0.005163788237244205,0.008645331651744376
5.656565656565657,7.291139240506329,0.009143318034094032,0.008159470362310801,1.2317156333961253e-05,-0.005190836518921449,0.008693275785954675
5.757575757575758,7.291139240506329,0.009401648670188813,0.00819940280288566,4.971261815483597e-05,-0.005280315441922342,0.008862319877817057
5.858585858585858,7.291139240506329,0.009166184020791874,0.008225293201852737,8.102108381140894e-05,-0.005217443166793384,0.008734959638966887
5.959595959595959,7.291139240506329,0.00922075364859776,0.008281717923793336,4.925299299568146e-06,-0.005250741471717329,0.008788944284193263
6.0606060606060606,7.291139240506329,0.009240678519641422,0.008124441594335039,-8.758536833394147e-05,-0.005209536034192938,0.008737525472838927
6.161616161616162,7.291139240506329,0.009292335905116883,0.008052313430895673,9.413534085263341e-06,-0.005203394800803766,0.008738576702965557
6.262626262626262,7.291139240506329,0.009213162123110175,0.008338807894457814,-9.293426083277683e-06,-0.005265591005270396,0.008808606215831094
6.363636363636363,7.291139240506329,0.00908403376848248,0.00843255840641744,5.25374829395952e-05,-0.005254977652469976,0.008776921215740488
6.4646464646464645,7.291139240506329,0.009225030003190438,0.008361248519952453,-3.735682232436807e-05,-0.005275883556942867,0.008825138724575401
6.565656565656566,7.291139240506329,0.009170203058134187,0.008316656123670002,3.0371839416391506e-05,-0.005246057754541257,0.00877477835241158
6.666666666666667,7.291139240506329,0.00921688902101699,0.008256984733180863,-4.7389942624148845e-05,-0.005242162126259355,0.008776779910408575
6.767676767676767,7.291139240506329,0.00926663403067704,0.00840842959599052,8.320152989272766e-05,-0.005302519088000268,0.008869899783774495
6.8686868686868685,7.291139240506329,0.009307002471776002,0.008171394946751976,1.2090540114618445e-05,-0.005243519225558393,0.008794386616566873
6.96969696969697,7.291139240506329,0.009378622836875202,0.008394987468059008,-2.9854323666303925e-05,-0.005332083091480263,0.008927689150274568
7.070707070707071,7.291139240506329,0.009187267915462417,0.008346492323161854,-3.175602764017643e-05,-0.005260128071587281,0.00879723763801576
7.171717171717171,7.291139240506329,0.009702327609384243,0.008382489372909602,-8.006514192317273e-05,-0.005425445094688154,0.009115418933294556
7.2727272727272725,7.291139240506329,0.009276946233184957,0.008482156295163907,4.0490813355190694e-05,-0.0053277307585046585,0.008906464924715354
7.373737373737374,7.291139240506329,0.009478082706782468,0.008526806041268622,-9.15833555745726e-05,-0.0054014666244153265,0.009041452466901677
7.474747474747475,7.291139240506329,0.009588037061712568,0.008433107312523162,3.8083555596545565e-05,-0.005406343312270718,0.009066154601321041
7.575757575757575,7.291139240506329,0.009622068076465503,0.00855742542659853,6.289441148732247e-05,-0.00545384805091921,0.009137037873781234
7.6767676767676765,7.291139240506329,0.0096733929952948,0.008371919250327733,-7.005509110461949e-05,-0.0054135936736867596,0.009093592364379526
7.777777777777778,7.291139240506329,0.009605287263591654,0.008598094144637988,-0.00010418646153824467,-0.0054610144224688925,0.00914517176513511
7.878787878787879,7.291139240506329,0.009647575184562928,0.008653643750036452,-1.8601783941637243e-05,-0.005490365680379813,0.009191061770793244
7.979797979797979,7.291139240506329,0.009676638320950764,0.008571594599253095,7.355596713747561e-05,-0.005474469876061158,0.009175051707677462
8.080808080808081,7.291139240506329,0.00957096195370711,0.008897097044202879,-3.857258587237315e-05,-0.005540417699372996,0.00925269337857413
8.181818181818182,7.291139240506329,0.009673840427966882,0.008691328699002748,4.349416380270725e-05,-0.005509550738090889,0.009222230286951653
8.282828282828282,7.291139240506329,0.009876172031793327,0.008847863303737635,3.9687387135749546e-05,-0.005617210600659289,0.009404528920035956
8.383838383838384,7.291139240506329,0.009827372170346665,0.008800889405514918,1.4239053914172121e-05,-0.005588478472758474,0.009356489231358194
8.484848484848484,7.291139240506329,0.009874273246492015,0.008948244885850392,-6.562647384750527e-05,-0.005646755439702722,0.009446050185465517
8.585858585858587,7.291139240506329,0.010039319269619639,0.008765398184045677,2.1577755473585552e-05,-0.005641415236099594,0.009466937341392017
8.686868686868687,7.291139240506329,0.010077400295539246,0.008996812364944103,3.7834871627845445e-05,-0.005722263798145004,0.0095831333233802
8.787878787878787,7.291139240506329,0.010128421248028163,0.009098101076526392,3.409279747527945e-05,-0.0057679566973663655,0.009654762911253716
8.88888888888889,7.291139240506329,0.010165664479948875,0.009108272310934034,-2.2892557744659733e-05,-0.0057821810372648726,0.009680459220081357
8.98989898989899,7.291139240506329,0.010247974487605836,0.009056911887691406,3.950004975679705e-06,-0.005791465912589173,0.009707403302948135
9.09090909090909,7.291139240506329,0.010406235312449027,0.009407686355114731,4.933291743841759e-05,-0.005944176500269128,0.009944998702235319
9.191919191919192,7.291139240506329,0.010461096540553287,0.009402152623210865,-4.8774846072852374e-05,-0.005958974749129246,0.00997423307614826
9.292929292929292,7.291139240506329,0.010348505105764887,0.009460230649162344,7.248506258277924e-05,-0.005942620726478169,0.009934990636015488
9.393939393939394,7.291139240506329,0.010784831060119644,0.009566077727959916,2.3529977189872536e-05,-0.006105272636423868,0.010230129660378258
9.494949494949495,7.291139240506329,0.010780766671514324,0.009569791139312743,-2.1496779790286622e-05,-0.00610516734324812,0.010229248918775555
9.595959595959595,7.291139240506329,0.010692304360702594,0.009679093315020431,-3.433835246508911e-05,-0.006111419302716908,0.010223597490623479
9.696969696969697,7.291139240506329,0.010982164944485335,0.009899737653244518,-1.984677101839996e-05,-0.006264570779318955,0.010483004451913866
9.797979797979798,7.291139240506329,0.010955165313899805,0.010114564908314982,1.948740773869947e-05,-0.006320919066664436,0.01056004161771207
9.8989898989899,7.291139240506329,0.011232551704165922,0.009970362332899253,1.488164342260296e-05,-0.006360874211119552,0.01065769190830879
10.0,7.291139240506329,0.011344631965090474,0.010200853062026246,-2.1839843430751644e-05,-0.006463645508135016,0.010818252392786555
0.0,7.3924050632911396,0.011347808698255453,0.01009441614528824,7.322799780531778e-05,-0.006432667453063107,0.010776668467023265
0.10101010101010101,7.3924050632911396,0.011108289637926184,0.009975034345262274,-5.860841774667757e-05,-0.006324997194956538,0.010587735501686742
0.20202020202020202,7.3924050632911396,0.010760062272314973,0.00999660749550804,-2.1103481486962135e-05,-0.006227000930346904,0.010399438370920762
0.30303030303030304,7.3924050632911396,0.010962704556071535,0.0097683613555297,0.00010113687943114054,-0.006219319773480369,0.010418483633592858
0.40404040404040403,7.3924050632911396,0.01082810633564726,0.009762133839950199,-3.520014248433163e-05,-0.006177072052679237,0.01033660668660062
0.5050505050505051,7.3924050632911396,0.010532166753964189,0.009656697172197833,-4.515166000652456e-06,-0.006056659177848607,0.010122867827789327
0.6060606060606061,7.3924050632911396,0.010625454812170903,0.00962348309077403,-8.25584487070269e-06,-0.0060746813708834795,0.010161596160255179
0.7070707070707071,7.3924050632911396,0.010392775195891246,0.009370048230812255,1.3540191189470738e-05,-0.00592884702801105,0.009921054646201797
0.8080808080808081,7.3924050632911396,0.010487681958334081,0.009514716444146927,3.3423323496279055e-05,-0.0060007195207443026,0.010036798953720375
0.9090909090909091,7.3924050632911396,0.010391007605077182,0.009298590042088932,4.996062341650441e-05,-0.005906879294149834,0.009890530024596392
1.0101010101010102,7.3924050632911396,0.010249792179566888,0.009349043367876002,1.4641815272718683e-05,-0.005879650664232868,0.00983044979482186
1.1111111111111112,7.3924050632911396,0.010291635327269528,0.009229314100898414,9.086978901272976e-06,-0.005856284828450382,0.009803749749704356
1.2121212121212122,7.3924050632911396,0.009977869620099824,0.009432237179840024,-2.0594253519336515e-05,-0.005823032039981954,0.009716615662667724
1.3131313131313131,7.3924050632911396,0.010014882990303536,0.00896512978191215,-3.823230117816742e-05,-0.005694003831664705,0.009533682010840502
1.4141414141414141,7.3924050632911396,0.010010093853636605,0.00899600140975936,6.799768591591932e-06,-0.0057018285790187894,0.009543549686276381
1.5151515151515151,7.3924050632911396,0.01002965492956792,0.00880053000709739,8.93849710355123e-06,-0.005649055480999592,0.009475086645182953
1.6161616161616161,7.3924050632911396,0.009805612755258214,0.00883110610733474,4.8443743887083575e-05,-0.005591015658777885,0.00935687502775006
1.7171717171717171,7.3924050632911396,0.009864492878962104,0.00874330901992064,5.10148776611617e-05,-0.005582340569664823,0.009354847426044732
1.8181818181818181,7.3924050632911396,0.009761580890961487,0.008881062788814089,-3.3619773164661015e-05,-0.005592793103932673,0.009352642183167755
1.9191919191919191,7.3924050632911396,0.009752956953894736,0.008685282251892901,7.289957901408132e-05,-0.005531471761736292,0.00926623204168196
2.0202020202020203,7.3924050632911396,0.009633831040767394,0.00854903020292881,3.4315965187585864e-06,-0.005454858373108861,0.009139843583058345
2.121212121212121,7.3924050632911396,0.009603418955310888,0.008739217223039018,6.708623850833158e-05,-0.005502790853504972,0.009202538272594445
2.2222222222222223,7.3924050632911396,0.00949355487168585,0.008656058490497567,6.879281517922671e-05,-0.005444884008655025,0.009104524358516768
2.323232323232323,7.3924050632911396,0.009464556573375521,0.008576724652885778,7.773774622197797e-07,-0.00541238436787839,0.009053349823324492
2.4242424242424243,7.3924050632911396,0.00963420258519361,0.008462504433180263,-9.024640632899684e-06,-0.005429012105512163,0.009105086654129372
2.525252525252525,7.3924050632911396,0.009567105939156573,0.008496034501347822,-4.736253757679852e-06,-0.005418942132151318,0.009079081641791343
2.6262626262626263,7.3924050632911396,0.009229281020095365,0.008399281217575187,8.435768321964392e-05,-0.005288568671301165,0.008844748444820139
2.727272727272727,7.3924050632911396,0.009394539948830657,0.008637785725338874,-8.937310381272939e-06,-0.005409697702250859,0.009039963476002458
2.8282828282828283,7.3924050632911396,0.009316442484854614,0.00837976344869265,9.20923374602872e-05,-0.005308861780064179,0.008886641368879135
2.929292929292929,7.3924050632911396,0.009576336039414279,0.00837505184515898,-6.853118198560871e-05,-0.005385416365371978,0.009036563733014868
3.0303030303030303,7.3924050632911396,0.009276278981138725,0.008360555527103686,-5.212239917666634e-05,-0.005291050352472723,0.00885446470344045
3.131313131313131,7.3924050632911396,0.009254430886136226,0.008360581845782719,1.518672190348743e-05,-0.005284503819575684,0.008841497886455033
3.2323232323232323,7.3924050632911396,0.009229281592091227,0.008275534106221389,4.957687571225776e-05,-0.005251444709493785,0.00879171442085623
3.3333333333333335,7.3924050632911396,0.009289849016512175,0.008329591838900481,6.300426423965371e-06,-0.005285832256623797,0.008848890522875262
3.4343434343434343,7.3924050632911396,0.009149625745470135,0.008387346698131197,-8.945023193068819e-05,-0.0052610917330804,0.008794666375900479
3.5353535353535355,7.3924050632911396,0.009424344795641536,0.0082905441968652,-1.3483201145292697e-05,-0.0053144666977520206,0.008911733627229195
3.6363636363636362,7.3924050632911396,0.009317367865659607,0.00820035998020557,5.0215482917732725e-05,-0.005255318353759553,0.008812550253289277
3.7373737373737375,7.3924050632911396,0.009294438652914743,0.008442985307623397,1.677781700169918e-05,-0.005321227188161442,0.008899361003679086
3.8383838383838382,7.3924050632911396,0.009103344111996032,0.008068125437834292,4.915006972727209e-05,-0.005151440864949096,0.00863283540273704
3.9393939393939394,7.3924050632911396,0.009116588301383,0.008134932816415114,-6.238465380652933e-05,-0.005175456335339434,0.008668226829803538
4.040404040404041,7.3924050632911396,0.009182960755243889,0.008308348518075086,7.292487434353694e-05,-0.005247392781995692,0.00877930174100832
4.141414141414141,7.3924050632911396,0.009154569457421553,0.008249211883931703,4.274586142900077e-05,-0.005221134402405977,0.008737455986860446
4.242424242424242,7.3924050632911396,0.009166663334985458,0.008142610715148497,-1.5559127409854085e-05,-0.005192782215040186,0.00869999891500819
4.343434343434343,7.3924050632911396,0.009102063999597093,0.008195563689644204,-2.4226604340628154e-05,-0.00518928830677239,0.008684471706035661
4.444444444444445,7.3924050632911396,0.009041295543044255,0.008270521001225177,-8.861877974188658e-05,-0.00519354496328083,0.008682964811958892
4.545454545454545,7.3924050632911396,0.009066656295925062,0.008341519805060513,1.2051060523486993e-05,-0.005222452830295672,0.008726737745154143
4.646464646464646,7.3924050632911396,0.008943177052266073,0.008254739914237053,-2.660768491425299e-05,-0.005159375089950938,0.00861972564372769
4.747474747474747,7.3924050632911396,0.009223165767425802,0.008308988652620237,-1.2594250149137859e-05,-0.005259646326013812,0.008801782509550046
4.848484848484849,7.3924050632911396,0.00909161921063372,0.008301390205395637,0.00014145000030528872,-0.005217902824808807,0.008726830172222916
4.94949494949495,7.3924050632911396,0.009265093936185128,0.008225689324813087,-5.963220654195153e-05,-0.005247234978299465,0.008792201898874998
5.05050505050505,7.3924050632911396,0.009070506772953783,0.008144331511759202,-5.165333601629957e-05,-0.005164451485413895,0.008645173159307247
5.151515151515151,7.3924050632911396,0.009199474324948609,0.008109708601790154,3.580491940254309e-05,-0.0051927548780216284,0.008706118042682096
5.252525252525253,7.3924050632911396,0.00913780776701322,0.008130347886507312,3.656707541514672e-05,-0.005180446696056159,0.008678279952253686
5.353535353535354,7.3924050632911396,0.008995343348701544,0.008104382976500742,9.401458507396063e-05,-0.005129917897560685,0.00858615362746603
5.454545454545454,7.3924050632911396,0.009303029666745805,0.008181177682127951,0.00010819170402872653,-0.005245262204662127,0.008797920600665135
5.555555555555555,7.3924050632911396,0.009046896126514199,0.008374663358958208,-1.7380615852904836e-05,-0.005226467845641723,0.008730264180093159
5.656565656565657,7.3924050632911396,0.009045417357101177,0.008169935032273846,-6.25115938385187e-05,-0.005164605716812506,0.008641681812384472
5.757575757575758,7.3924050632911396,0.009128529521808868,0.008300483893779373,-1.3507304325978263e-05,-0.0052287040246764725,0.008743993319620804
5.858585858585858,7.3924050632911396,0.009084264139578963,0.008144145273593164,-1.9021264908127674e-05,-0.005168522823951639,0.008652657150503677
5.959595959595959,7.3924050632911396,0.009233149642240073,0.008267733450368481,-8.005246003531896e-05,-0.005250264927782566,0.00879138633902566
6.0606060606060606,7.3924050632911396,0.009024116631304528,0.008233242137886872,1.151905894715707e-05,-0.005177207630757419,0.00865584298821079
6.161616161616162,7.3924050632911396,0.009255620775177014,0.008185120364082909,5.655910714840336e-06,-0.0052322223417779765,0.008769517500253985
6.262626262626262,7.3924050632911396,0.009153171022601402,0.00831995011747172,-1.4046830506318784e-05,-0.005241936342021936,0.00876634332785445
6.363636363636363,7.3924050632911396,0.009062327721633382,0.008495669323156959,-7.89144253946007e-05,-0.005267399113437102,0.008793766190958546
6.4646464646464645,7.3924050632911396,0.009178283336412846,0.008447492557844672,-5.0632754337682026e-06,-0.005287732768277255,0.008835587827103069
6.565656565656566,7.3924050632911396,0.009044225434932428,0.008173947516084,0.00010450616250458762,-0.005165451885304929,0.008643909549434739
6.666666666666667,7.3924050632911396,0.00939566008663077,0.008167024062796121,-1.310637944125924e-05,-0.005268805244828066,0.008845600252327536
6.767676767676767,7.3924050632911396,0.009153298646903663,0.008118473210710688,-4.490606236637097e-05,-0.005181531557284306,0.008682610390961092
6.8686868686868685,7.3924050632911396,0.00911389966786631,0.008175341606147276,1.5081841496964468e-05,-0.005186772382204076,0.008682788536524766
6.96969696969697,7.3924050632911396,0.009541065839373804,0.008434873005519206,0.00016552815572543007,-0.005392781653467903,0.009043425235445936
7.070707070707071,7.3924050632911396,0.009477026398967907,0.00833050886684703,-3.220539408855563e-05,-0.005342260579744481,0.008959133131147861
7.171717171717171,7.3924050632911396,0.009374776992040462,0.008526807403408061,-3.3888469658456025e-05,-0.005370475318634557,0.008981058710942878
7.2727272727272725,7.3924050632911396,0.009229289396403065,0.008356581219720214,9.559474374604035e-06,-0.005275761184836984,0.008825372522089071
7.373737373737374,7.3924050632911396,0.009385668134035605,0.008548376948100832,2.5769758405999006e-05,-0.005380213524640931,0.008996403608715179
7.474747474747475,7.3924050632911396,0.009423865273024369,0.008467158538649199,-5.6406406698321255e-05,-0.0053673071435020705,0.008984330477966436
7.575757575757575,7.3924050632911396,0.009405890844058084,0.008565118452441428,-5.673123586545607e-05,-0.005391302788949853,0.009015493483108122
7.6767676767676765,7.3924050632911396,0.009668504127226384,0.00861845892549127,-6.403700610157809e-05,-0.005486088915815296,0.00918926018956813
7.777777777777778,7.3924050632911396,0.009699597887342868,0.008827813506597669,7.663886163266494e-05,-0.005558223418182161,0.009295368190141795
7.878787878787879,7.3924050632911396,0.009743109813888613,0.008802064702487625,-4.3948481293098434e-05,-0.005563552354912871,0.009308643472279157
7.979797979797979,7.3924050632911396,0.009749682973022372,0.008608522932563768,-2.4811850262962377e-05,-0.005507461771675842,0.009232251219511385
8.080808080808081,7.3924050632911396,0.009674573102852151,0.008890798526070675,-1.0893489889681295e-05,-0.0055696114886768485,0.009307488322569942
8.181818181818182,7.3924050632911396,0.009787977862232148,0.008771642196051463,6.602361503459174e-05,-0.005567886017485084,0.009322159361969241
8.282828282828282,7.3924050632911396,0.00970919082641001,0.008785442041644925,-6.333479494505874e-06,-0.00554838986041648,0.009281862174851456
8.383838383838384,7.3924050632911396,0.009817335737499489,0.008772299849346198,0.00015205533416254435,-0.005576890676053706,0.009342487639409432
8.484848484848484,7.3924050632911396,0.010026437779733256,0.008981226044850426,4.4635208507415003e-05,-0.0057022991473751035,0.00954715395291523
8.585858585858587,7.3924050632911396,0.009818609283334098,0.008982959252887585,-2.7205391857777297e-05,-0.005640470560866505,0.009428716693465641
8.686868686868687,7.3924050632911396,0.010073870854994534,0.009080222654301714,2.6102957200340968e-05,-0.005746228052788874,0.009615735603368836
8.787878787878787,7.3924050632911396,0.010211984727057248,0.00913684502042426,-3.355928494925915e-05,-0.005804648924244453,0.009719291428270861
8.88888888888889,7.3924050632911396,0.010045811515729105,0.009317114724948155,8.766211691239093e-05,-0.005808877872203177,0.009703196965452807
8.98989898989899,7.3924050632911396,0.010174893358869978,0.009345795496425316,7.0562545483772485e-06,-0.005856206656588588,0.00978672698953179
9.09090909090909,7.3924050632911396,0.010281054377144808,0.00920455627701278,-1.9907126458033895e-05,-0.005845683196247277,0.009787368422722079
9.191919191919192,7.3924050632911396,0.010323730696445618,0.009231159663705774,4.6430944344272506e-05,-0.0058664671080454174,0.00982345078591786
9.292929292929292,7.3924050632911396,0.010337202828348243,0.009444970878014004,-2.4968033856121468e-05,-0.005934652111908674,0.009921316834735917
9.393939393939394,7.3924050632911396,0.010527732174845102,0.009456455749483613,-1.267866400626144e-06,-0.005995256377298614,0.010035072070285719
9.494949494949495,7.3924050632911396,0.010636052443818659,0.009797888993291273,2.1420345102099856e-05,-0.00613018243113298,0.010242790422278124
9.595959595959595,7.3924050632911396,0.010872785617120852,0.009728883171065255,5.537916235433587e-05,-0.006180500636455832,0.01034880545637846
9.696969696969697,7.3924050632911396,0.011127757705316047,0.009815171778430712,2.2723391250558375e-05,-0.006282878845124027,0.010533056738640505
9.797979797979798,7.3924050632911396,0.011114199484292184,0.010017006427908112,-7.253498646670706e-05,-0.006339361773660088,0.010608987899463851
9.8989898989899,7.3924050632911396,0.011107287865443552,0.01016247993070646,-3.4458691571166074e-06,-0.006380930338845003,0.010666315562214274
10.0,7.3924050632911396,0.011278150906916208,0.010206246841724364,5.253088845876616e-05,-0.006445319324592171,0.010782617904846019
0.0,7.493670886075949,0.01126378458594182,0.010099517011710631,4.2420196370152165e-05,-0.006408990479295735,0.01072938495187631
0.10101010101010101,7.493670886075949,0.011284245810912238,0.00997251367845064,1.2102902370344765e-06,-0.006377027846808863,0.01068891674970206
0.20202020202020202,7.493670886075949,0.010947159712835402,0.010029069228428052,-3.005148200615968e-05,-0.006292868682379036,0.010518337417432301
0.30303030303030304,7.493670886075949,0.01093818012835177,0.00976324129493234,-0.00012124374074162442,-0.0062104264269852326,0.010402724321869556
0.40404040404040403,7.493670886075949,0.011036915270992044,0.00982465962034544,-2.7268677445969615e-05,-0.006258472467401245,0.010483593386855627
0.5050505050505051,7.493670886075949,0.010673509545835038,0.009864490646553885,3.046988885604617e-05,-0.006161400057716677,0.010293008884799825
0.6060606060606061,7.493670886075949,0.010675479131580302,0.009453806158306445,4.883165569937192e-05,-0.006038785586966024,0.010120452005835936
0.7070707070707071,7.493670886075949,0.010639275788370307,0.009343278509197592,-5.1999948272311424e-05,-0.00599476628927037,0.010054523248687159
0.8080808080808081,7.493670886075949,0.010407853780270739,0.009468215715243908,-1.3986093386264126e-05,-0.005962820848654394,0.00997132444813587
0.9090909090909091,7.493670886075949,0.01048095363351018,0.00924390965815476,-6.227049943380502e-05,-0.005917458987499481,0.00992103317007555
1.0101010101010102,7.493670886075949,0.010196465395395878,0.00921760567786055,-3.870561470834241e-05,-0.005824221321976928,0.009744211514696961
1.1111111111111112,7.493670886075949,0.010202239135787735,0.00934403857913007,-3.4468980626712214e-05,-0.005863883314475342,0.009801540113963473
1.2121212121212122,7.493670886075949,0.010036223733612726,0.009152207581026554,-1.6506297617195212e-05,-0.005756529394391784,0.009624754795383899
1.3131313131313131,7.493670886075949,0.010058498958780221,0.009156527437636378,4.4895118135962285e-05,-0.005764507918924979,0.009639529087946148
1.4141414141414141,7.493670886075949,0.010069094743550814,0.008972961626565861,4.462041939935773e-05,-0.005712616911035002,0.00956854646766011
1.5151515151515151,7.493670886075949,0.00988727885238784,0.008985496174850983,-1.8560941206911697e-05,-0.005661832508171647,0.009468703809441764
1.6161616161616161,7.493670886075949,0.00980364883492556,0.008853615682597824,-2.6170953640252004e-05,-0.0055971793552570155,0.009364953647431682
1.7171717171717171,7.493670886075949,0.009714254334842036,0.00883924195784046,2.65069029459244e-06,-0.005566048887804749,0.009307648051148708
1.8181818181818181,7.493670886075949,0.009718977618811294,0.008864566195152848,-6.5987570895105516e-06,-0.005575063144189242,0.009321194663927213
1.9191919191919191,7.493670886075949,0.00966607040408559,0.008545007646080377,4.422366956245824e-06,-0.00546332341504979,0.009157154901487545
2.0202020202020203,7.493670886075949,0.009748375391673128,0.008572806020647373,3.282963041775829e-05,-0.00549635442369615,0.009217164854187
2.121212121212121,7.493670886075949,0.009423762818529097,0.00860790761057408,0.0001625797092395148,-0.005409501128730953,0.009047861398793542
2.2222222222222223,7.493670886075949,0.009494338179147667,0.008486255743342306,-5.36378930927475e-05,-0.0053941781767469915,0.009033063886087133
2.323232323232323,7.493670886075949,0.009461742021490823,0.008649515350536716,-4.5130616363331105e-05,-0.005433377211608262,0.00908324310696969
2.4242424242424243,7.493670886075949,0.009613681376562667,0.008363283164072281,6.725544143632874e-06,-0.005393089362190484,0.009053483914493527
2.525252525252525,7.493670886075949,0.009577903981975845,0.008541169991464169,-6.905311743563883e-05,-0.0054357221920320045,0.009104703643619722
2.6262626262626263,7.493670886075949,0.009368201460934752,0.00839788442660268,3.785167368521356e-05,-0.00532982576626123,0.00892294158609019
2.727272727272727,7.493670886075949,0.009483440738528727,0.008493053559215133,6.88935404656415e-05,-0.005392948289323158,0.009029865771021715
2.8282828282828283,7.493670886075949,0.009396502445023734,0.008405033786756864,2.0578819298782065e-05,-0.005340460869534179,0.008942158637124744
2.929292929292929,7.493670886075949,0.00934754772625974,0.008482865393982941,9.207670701145435e-06,-0.005349123936072804,0.008946614946729492
3.0303030303030303,7.493670886075949,0.009188755687852596,0.00837015496834089,1.725172740380567e-05,-0.005267673196858045,0.008808082031738256
3.131313131313131,7.493670886075949,0.009278193002152895,0.008346917259057328,4.0134430065994704e-05,-0.0052875330783630665,0.008849656271835834
3.2323232323232323,7.493670886075949,0.00929268512137533,0.008142718650464696,-5.356642504347493e-05,-0.0052306211315520075,0.008774893242690372
3.3333333333333335,7.493670886075949,0.009317229157644264,0.008532259044709428,1.3068860319842199e-05,-0.005354846460706108,0.008950625856076868
3.4343434343434343,7.493670886075949,0.00914257029075055,0.008300558859012009,1.998253300006185e-05,-0.0052329387449287675,0.008752063983831652
3.5353535353535355,7.493670886075949,0.00916782870535659,0.008100694483285174,0.00010314023607996317,-0.0051805569565925285,0.00868541700725978
3.6363636363636362,7.493670886075949,0.009220162983322391,0.008364219189375398,-4.627064514467587e-05,-0.005275314651809336,0.008823747891371135
3.7373737373737375,7.493670886075949,0.009084961762856818,0.008373072697212056,-2.569043251021489e-05,-0.005237410338020662,0.008750874889320736
3.8383838383838382,7.493670886075949,0.009217316356586768,0.008280059213853054,0.00012681790299251286,-0.0052492126711319465,0.008789005889093393
3.9393939393939394,7.493670886075949,0.009089473957777816,0.00823090494173793,-8.370263113820929e-06,-0.005196113669854723,0.008692062301668638
4.040404040404041,7.493670886075949,0.008995537636779594,0.008170453593344508,8.887491449322029e-05,-0.005149797369037231,0.008614063079552025
4.141414141414141,7.493670886075949,0.009160595317773683,0.008062722430679861,-2.5853556866882774e-05,-0.005166995324536063,0.00866410222945335
4.242424242424242,7.493670886075949,0.008973033005794554,0.008032729924942235,2.141306867801465e-06,-0.005101728879221036,0.008541787540239218
4.343434343434343,7.493670886075949,0.00917010283202712,0.008234529419545554,5.084009421859767e-05,-0.0052213896754718025,0.008740396633235139
4.444444444444445,7.493670886075949,0.009305078747454629,0.008165107990815957,-1.5091477912402083e-06,-0.005241056021481175,0.008790706057796839
4.545454545454545,7.493670886075949,0.009064888021162468,0.00817911080157961,-1.8929896112675086e-05,-0.005173199646822624,0.00865611921328675
4.646464646464646,7.493670886075949,0.009151689859128754,0.00808730121884175,4.057164025257618e-05,-0.005171697323391151,0.008668929224751118
4.747474747474747,7.493670886075949,0.009103516097053921,0.00809465697079038,2.7472601088815438e-05,-0.005159451920353291,0.008643488936870168
4.848484848484849,7.493670886075949,0.00908968539888245,0.008110031107815309,6.460876777237233e-06,-0.005159914952009327,0.008641613223466077
4.94949494949495,7.493670886075949,0.009173672038820087,0.008154924018458827,-4.5062201408217554e-05,-0.005198578817183674,0.00870945106087722
5.05050505050505,7.493670886075949,0.009067599958218571,0.008071905721394096,3.5380929017910476e-05,-0.0051418517038838004,0.008613244128997931
5.151515151515151,7.493670886075949,0.009255369969144198,0.008156928929166484,5.352318263553106e-06,-0.005223689669493205,0.008757970867255195
5.252525252525253,7.493670886075949,0.009126865262637973,0.008351490435857763,-1.3205843617309822e-05,-0.00524350670954872,0.008764967612901079
5.353535353535354,7.493670886075949,0.00912739415282834,0.008322308126960533,9.561377563856331e-05,-0.005234910683936662,0.008754231892483689
5.454545454545454,7.493670886075949,0.008854783854304094,0.008320296131532626,-7.807508355302465e-05,-0.005152523995751016,0.008601069010903982
5.555555555555555,7.493670886075949,0.00911571825733379,0.00825042698829307,0.00010809180087947079,-0.005209843573688058,0.008717359027854294
5.656565656565657,7.493670886075949,0.00903897010877372,0.008085625642665151,-9.900525595035539e-06,-0.005137378725431661,0.008602028146144698
5.757575757575758,7.493670886075949,0.009002549455545164,0.008341175533741143,5.2048380753588665e-05,-0.005203117496785892,0.008691224759845278
5.858585858585858,7.493670886075949,0.009152176597526871,0.00833372099679028,2.1774678958957516e-05,-0.0052457692782951456,0.008771714670316785
5.959595959595959,7.493670886075949,0.009189981025138044,0.008216205722250866,-1.273877793797615e-06,-0.005221856024216673,0.008743856008359412
6.0606060606060606,7.493670886075949,0.009178472833384039,0.008517021908077007,-1.0679259053461317e-05,-0.0053086484224383135,0.008866290863203891
6.161616161616162,7.493670886075949,0.009237610607264362,0.008312600387037489,-5.443023940646622e-05,-0.005265063298290556,0.008812099487049444
6.262626262626262,7.493670886075949,0.009195712412394207,0.00820695167416752,-3.437404703178096e-05,-0.005220799225968518,0.008743566772253087
6.363636363636363,7.493670886075949,0.009243109201848263,0.008113823321830466,-5.370104370208259e-05,-0.005207079757103619,0.008733893347944766
6.4646464646464645,7.493670886075949,0.009151414838011185,0.008300181994559846,5.3515165011841415e-05,-0.00523547904977131,0.008757373900641517
6.565656565656566,7.493670886075949,0.00906982510264996,0.008078278844112212,7.205604229761339e-05,-0.005144431184028652,0.008617848713516039
6.666666666666667,7.493670886075949,0.00920658021227788,0.0082658389488442,1.2005440611442744e-05,-0.005241725748336624,0.00877414017558669
6.767676767676767,7.493670886075949,0.009284097655859533,0.008343485567424879,6.35505397633358e-05,-0.005288274966985324,0.008852039421085357
6.8686868686868685,7.493670886075949,0.009276292212765679,0.008176128878579388,-5.1599446802821505e-05,-0.00523572632740352,0.008778525361218337
6.96969696969697,7.493670886075949,0.009253011284276417,0.00842795541851788,3.1395827648751624e-05,-0.005304290010838288,0.008869478049272591
7.070707070707071,7.493670886075949,0.00918695439329536,0.008636012080688519,2.5569545844985187e-05,-0.0053468899421951635,0.008924357005525827
7.171717171717171,7.493670886075949,0.009360367283805059,0.008492793969581476,7.520567452502654e-06,-0.00535594837601596,0.008958154048314008
7.2727272727272725,7.493670886075949,0.00952884473722722,0.008476377431235643,2.8846981567294846e-05,-0.005401566650538859,0.009048771648770852
7.373737373737374,7.493670886075949,0.009294820332122361,0.008564846116173187,7.3236204956260336e-06,-0.005357899934488665,0.008952191300698834
7.474747474747475,7.493670886075949,0.009369935126186328,0.00837766658740886,-3.982052594209887e-05,-0.0053242805140785564,0.008915578854384402
7.575757575757575,7.493670886075949,0.009445785005089066,0.008365816536957739,4.169408836177085e-05,-0.005343480462614042,0.008955068480100664
7.6767676767676765,7.493670886075949,0.009671092824766104,0.008516349771860884,3.528414623806814e-05,-0.005456232778988096,0.009148747214947102
7.777777777777778,7.493670886075949,0.009627072353891007,0.008627333554191504,-5.301830046871357e-05,-0.005476321772424754,0.009168635385679358
7.878787878787879,7.493670886075949,0.009618012112871385,0.008612768325796343,-1.511844423217548e-06,-0.005469234131600318,0.009156868024130188
7.979797979797979,7.493670886075949,0.009767881617298354,0.008553088820275355,4.365712399440314e-05,-0.0054962911312721125,0.009221008536587149
8.080808080808081,7.493670886075949,0.009662648163524747,0.008760902930221113,0.00010756545439723078,-0.0055270653281237585,0.009246695520900667
8.181818181818182,7.493670886075949,0.00988360193221863,0.008831640658647132,5.3864696346584444e-05,-0.005614572777259728,0.009402326702263493
8.282828282828282,7.493670886075949,0.009986663845032204,0.008797112803383432,-2.99492645037279e-05,-0.00563513299452469,0.009448361282796072
8.383838383838384,7.493670886075949,0.009633846815679685,0.008808870708509853,4.57663530539042e-05,-0.005532815257256861,0.009249334045190948
8.484848484848484,7.493670886075949,0.009835268513947424,0.00894846161572156,0.00010013541301983959,-0.005635119038900694,0.009424809311330192
8.585858585858587,7.493670886075949,0.009946396652007871,0.009088615694571985,4.221364293983422e-05,-0.005710503703973957,0.009546732994159172
8.686868686868687,7.493670886075949,0.009988308396995289,0.009124286606202642,-1.586840712504959e-05,-0.005733778500959379,0.009585586972080744
8.787878787878787,7.493670886075949,0.010027803461380456,0.009211072265105319,-3.805895369648536e-05,-0.005771662717945733,0.009645632049891136
8.88888888888889,7.493670886075949,0.010097808423495913,0.009118034133494095,9.995093275616182e-05,-0.005764752767097002,0.009646869445843299
8.98989898989899,7.493670886075949,0.01027265250712845,0.009299519180468408,-5.453535653058613e-05,-0.005871651506279058,0.009822761312946583
9.09090909090909,7.493670886075949,0.01047362005652244,0.009402969166537075,-1.2146285583911434e-05,-0.005962976766917855,0.009981475961925255
9.191919191919192,7.493670886075949,0.010414609475840662,0.00932510662116581,4.8926202504842715e-06,-0.005921914829101941,0.009914859155003734
9.292929292929292,7.493670886075949,0.010400958527352929,0.009319910304217189,-3.139297284346299e-05,-0.005916260649471035,0.009904929195596957
9.393939393939394,7.493670886075949,0.01062845275701944,0.009689088045924244,-9.420895635487956e-05,-0.006095262240883106,0.010192597637380327
9.494949494949495,7.493670886075949,0.010664420840862245,0.00955291097366671,2.4639813520092876e-05,-0.006065199544358687,0.010154483661150716
9.595959595959595,7.493670886075949,0.010980628685987148,0.009615422847259001,3.590280332273887e-06,-0.006178815459973844,0.010365674777695105
9.696969696969697,7.493670886075949,0.010938919940413714,0.00987734529565838,-1.3154424929031037e-05,-0.006244879570821628,0.010448681699434723
9.797979797979798,7.493670886075949,0.01098720299883736,0.009875782303627288,-2.3767474766097968e-05,-0.0062588955907393945,0.010475885431914104
9.8989898989899,7.493670886075949,0.011192134809725827,0.0100709728925753,-4.776316841150347e-05,-0.0063789323106903375,0.01067611981405398
10.0,7.493670886075949,0.01128114673787525,0.00997334186371375,3.784279972154851e-05,-0.0063763465804766994,0.010687627559608441
0.0,7.594936708860759,0.011128250176293736,0.01001731754425862,3.621229658071352e-05,-0.006343670316165707,0.01061665300516494
0.10101010101010101,7.594936708860759,0.011119724885404863,0.010114508283754648,2.6452023480269795e-05,-0.006370269950747853,0.010652845113460159
0.20202020202020202,7.594936708860759,0.011099134454647908,0.010009369532564323,-4.4500703913433426e-05,-0.006332551196163668,0.01059664412781414
0.30303030303030304,7.594936708860759,0.010820476915222067,0.009885051782256599,4.548408606928646e-05,-0.006211658609243599,0.010384709971940595
0.40404040404040403,7.594936708860759,0.010844297492428833,0.00952979903568376,9.058446443604934e-05,-0.006112228958433778,0.010251658334844796
0.5050505050505051,7.594936708860759,0.010625606279301853,0.009562193971841763,8.488783778381372e-05,-0.006056340075343085,0.010136891628195133
0.6060606060606061,7.594936708860759,0.01070628040332712,0.00957852292488472,-3.6413617075857966e-05,-0.0060854409984635515,0.010189512602093453
0.7070707070707071,7.594936708860759,0.010598978373737505,0.00958345565157578,-0.00011245273752281227,-0.006054730207593986,0.010131340604800533
0.8080808080808081,7.594936708860759,0.010461612138307359,0.009526289177701826,-4.51465048503512e-06,-0.005996370394802756,0.010026725920324856
0.9090909090909091,7.594936708860759,0.010450685142297364,0.009334039134000738,0.00012257801168011798,-0.005935417282889431,0.009941784473122056
1.0101010101010102,7.594936708860759,0.01022773166914574,0.00929746119790107,-3.074588985269998e-05,-0.005857557860114043,0.009795926572577232
1.1111111111111112,7.594936708860759,0.009965126185151807,0.009038257162371255,1.0337610383944773e-05,-0.005701015004256918,0.009535553465889496
1.2121212121212122,7.594936708860759,0.010234782669941342,0.009044744266418063,-2.242202148770044e-05,-0.0057838580809078215,0.009694776506706585
1.3131313131313131,7.594936708860759,0.010039557566679309,0.009144566747614276,0.00013768708960925358,-0.0057552372942880755,0.009626281008528725
1.4141414141414141,7.594936708860759,0.009993792708629783,0.009046191146169943,3.850347877382544e-05,-0.005711995156439918,0.009555530094781444
1.5151515151515151,7.594936708860759,0.009741158298139228,0.008944254130927679,-2.525539818782951e-05,-0.005605623728720072,0.009368263718816003
1.6161616161616161,7.594936708860759,0.009821064099085182,0.008997884152167018,-1.2173445876891693e-05,-0.0056456844753756605,0.009436464741519292
1.7171717171717171,7.594936708860759,0.00969215564812393,0.00886172672487641,2.9964172112630534e-05,-0.0055661647119001015,0.009304920229644041
1.8181818181818181,7.594936708860759,0.009866736813369276,0.008773080948977986,-4.570577221840156e-05,-0.0055919453287041785,0.00936824588535706
1.9191919191919191,7.594936708860759,0.009678101192842683,0.008856336799356618,-6.22287564899386e-05,-0.0055603313976597905,0.00929512978472459
2.0202020202020203,7.594936708860759,0.009689402663433686,0.00877239862571187,-8.92461831589356e-05,-0.005538540386743666,0.009266288019347231
2.121212121212121,7.594936708860759,0.009481249256779302,0.008513625829277168,-5.485377694813798e-05,-0.00539846252581694,0.009036876145788356
2.2222222222222223,7.594936708860759,0.009645874429430816,0.008412946624388339,-1.110049289201059e-05,-0.005417646316145746,0.009092343336875702
2.323232323232323,7.594936708860759,0.00972594163299415,0.008632697825696426,2.7778713905492675e-05,-0.005507591837607172,0.009228142401427955
2.4242424242424243,7.594936708860759,0.009424263667470949,0.008621250572193085,-3.228810936275311e-05,-0.00541365427189921,0.009049690388786173
2.525252525252525,7.594936708860759,0.00940764476475472,0.008520354497686934,-1.2144134410297389e-05,-0.005378399778732495,0.008996899179275812
2.6262626262626263,7.594936708860759,0.009382220528156281,0.008478080370310401,-1.279960598093265e-05,-0.005358090269540004,0.008964439781963757
2.727272727272727,7.594936708860759,0.0093392571850865,0.008478335714612607,3.867283022218748e-05,-0.005345277869909732,0.008940191848164468
2.8282828282828283,7.594936708860759,0.009376569399296323,0.008530284748943009,6.635281779373805e-05,-0.005372056244471799,0.008984108900883508
2.929292929292929,7.594936708860759,0.00938652405817884,0.008303053480442826,4.704636766171796e-05,-0.0053068732615865,0.0088947939731886
3.0303030303030303,7.594936708860759,0.009361585248134418,0.008216919582516715,1.8470268580992832e-05,-0.005273551449195339,0.008845036805310857
3.131313131313131,7.594936708860759,0.009307302640428504,0.00830550616823373,1.589392232613158e-05,-0.00528384264259867,0.00884907981157926
3.2323232323232323,7.594936708860759,0.00924034938674349,0.008331025265755835,-1.8942549753439845e-07,-0.005271412395749798,0.008820910081733488
3.3333333333333335,7.594936708860759,0.00931882996906754,0.008316269667615056,3.785452128176685e-06,-0.005290529891004779,0.008860195999886826
3.4343434343434343,7.594936708860759,0.009249395208083757,0.008269789524156279,8.283551513828773e-05,-0.005255755419672011,0.008801747784405099
3.5353535353535355,7.594936708860759,0.00912368139705181,0.008364127286615067,6.268423661942972e-05,-0.005246342605100063,0.00876928405941479
3.6363636363636362,7.594936708860759,0.009109219184771446,0.008308959372497147,1.1234176992640092e-05,-0.005225453567180577,0.008736642748148567
3.7373737373737375,7.594936708860759,0.00931863631417403,0.00830014699502358,-2.3504468096684018e-05,-0.005285634992759283,0.008853532011242421
3.8383838383838382,7.594936708860759,0.008989545491520704,0.008153513533657121,1.371910168753051e-05,-0.005142917707553348,0.008602086659779878
3.9393939393939394,7.594936708860759,0.00902712157110627,0.008193186633064817,-8.203231904584775e-06,-0.005166092461251326,0.008640401677663266
4.040404040404041,7.594936708860759,0.009405604675201584,0.008130551226921277,8.13920414923992e-05,-0.005260846770636858,0.008838460608110619
4.141414141414141,7.594936708860759,0.009119019877524205,0.00830450516532305,7.726000467152783e-05,-0.005227057512854177,0.008741297913750624
4.242424242424242,7.594936708860759,0.009285976356953659,0.008231711956402597,-1.1038497201526473e-05,-0.005255306494006876,0.008806322818063051
4.343434343434343,7.594936708860759,0.009259900626226877,0.00818961008930062,-2.092982787413532e-06,-0.00523485321465825,0.008773853803753144
4.444444444444445,7.594936708860759,0.009186715951962337,0.00817349426283116,2.2644929147272582e-05,-0.005208063064438048,0.008724432743588417
4.545454545454545,7.594936708860759,0.009060897544377144,0.008294232753064588,7.747501071079086e-05,-0.00520653908923252,0.008703963190341953
4.646464646464646,7.594936708860759,0.009060348473462675,0.008210454362471645,-6.125221475026926e-05,-0.005181240850780296,0.008667361371881732
4.747474747474747,7.594936708860759,0.009029688293696539,0.008169157107690082,6.331679614219351e-05,-0.005159653620415987,0.008632350970436027
4.848484848484849,7.594936708860759,0.009037929501353684,0.008192030154730233,5.765361658012314e-05,-0.005168987896825176,0.00864664724240255
4.94949494949495,7.594936708860759,0.009059231658800578,0.00811145632127393,1.810512577826399e-05,-0.005151206394022352,0.008624547720421342
5.05050505050505,7.594936708860759,0.00897098488001758,0.008155849076361434,1.1258635559015196e-05,-0.005138050186913703,0.008592486566574886
5.151515151515151,7.594936708860759,0.008856297858816729,0.007963079938067602,-1.2919254194004005e-05,-0.0050458133390653,0.008445220351206281
5.252525252525253,7.594936708860759,0.009170222653295085,0.0079165851027735,4.815850898611972e-05,-0.005126042326820576,0.008612514898694402
5.353535353535354,7.594936708860759,0.00905518883492694,0.008418689375084314,2.5838919114383163e-05,-0.005242163463003377,0.00875442496944171
5.454545454545454,7.594936708860759,0.009168853480909425,0.008320849881716295,-2.9497822281843346e-05,-0.005246911008787716,0.00877578337647995
5.555555555555555,7.594936708860759,0.009321095566871529,0.008214611319261631,2.48057839134528e-06,-0.005260712065839947,0.008820062528211383
5.656565656565657,7.594936708860759,0.009047618493232334,0.00828907365221153,4.11091142786666e-05,-0.0052010076436331595,0.008693493901831618
5.757575757575758,7.594936708860759,0.009028472761686052,0.008307235180303818,5.0113657902889874e-05,-0.005200712382596961,0.008690763161841223
5.858585858585858,7.594936708860759,0.009112509217030008,0.008239980728198225,2.601594819081953e-05,-0.00520574698356847,0.008709204141961528
5.959595959595959,7.594936708860759,0.009225053036472117,0.008254831708031051,3.682037344266754e-06,-0.00524396542335095,0.00878024090854557
6.0606060606060606,7.594936708860759,0.009379184964522039,0.00812515037380596,4.730816690093672e-05,-0.0052513006014984,0.008819671488392326
6.161616161616162,7.594936708860759,0.009147689099469046,0.008408403653214434,-9.322966970963426e-05,-0.005266827825805044,0.00880284503597739
6.262626262626262,7.594936708860759,0.0091580241275687,0.008364920714881853,2.9775532922893053e-05,-0.005256883452735166,0.008788504907115047
6.363636363636363,7.594936708860759,0.00922862253532221,0.008348503665350091,1.709927100837905e-05,-0.005273137860201691,0.008821602770628363
6.4646464646464645,7.594936708860759,0.00917363590487474,0.008295599562407057,-5.119844488070742e-05,-0.005240770640184539,0.0087681025118967
6.565656565656566,7.594936708860759,0.009249335503109293,0.008111834449408798,5.736487414441146e-05,-0.005208350985755427,0.008736867814141883
6.666666666666667,7.594936708860759,0.00945378794214155,0.008327342458288695,1.694137739167892e-05,-0.005334339120129073,0.008943973959105053
6.767676767676767,7.594936708860759,0.009461833834784798,0.00820791521038567,-2.7818105030446258e-05,-0.005300924713551141,0.00890149219559223
6.8686868686868685,7.594936708860759,0.009266162204095662,0.008402102442075957,1.9051702029107297e-06,-0.005300479393851486,0.0088657686776199
6.96969696969697,7.594936708860759,0.009155435795799338,0.008241753707197498,5.8276414333782245e-05,-0.005219156850899051,0.00873509303278863
7.070707070707071,7.594936708860759,0.009329773873693813,0.008407319936814829,6.21582628595896e-05,-0.005321128143152593,0.008905105620309555
7.171717171717171,7.594936708860759,0.009359654041679724,0.00851052080672328,-3.08289566695811e-05,-0.005361052454520901,0.008965456429533444
7.2727272727272725,7.594936708860759,0.00937190321250759,0.008556758456467075,5.3102990427031676e-05,-0.0053785985006924,0.008992554299135064
7.373737373737374,7.594936708860759,0.009485505082050113,0.008497111021572527,5.159074429637264e-05,-0.005394784831086791,0.009032402637800682
7.474747474747475,7.594936708860759,0.009508720649701855,0.008533390708669385,-4.566711570002818e-05,-0.005412633407511373,0.009060858314406091
7.575757575757575,7.594936708860759,0.009305404111792875,0.008423454547502054,7.171397404330471e-06,-0.005318657597788479,0.008897282613393877
7.6767676767676765,7.594936708860759,0.009759509823705626,0.008770017616507215,-2.8344464188695164e-05,-0.005558858232063852,0.009304438625539445
7.777777777777778,7.594936708860759,0.009780026474296738,0.008657718608766254,-8.189207304343218e-05,-0.005531323524918898,0.00927105231786873
7.878787878787879,7.594936708860759,0.00968339944556147,0.008692942813499303,2.158431780182914e-05,-0.0055129026777182314,0.009228198069442244
7.979797979797979,7.594936708860759,0.009891780169568473,0.008730554488038807,-6.330716398150335e-05,-0.005586700397282184,0.009365959333063403
8.080808080808081,7.594936708860759,0.009796798712719977,0.00890106268820269,-2.9664579384290688e-06,-0.0056093584202767995,0.009381060116578513
8.181818181818182,7.594936708860759,0.009880586363693801,0.008709936103782841,-8.508666422826327e-06,-0.0055771567402429926,0.009350396522015714
8.282828282828282,7.594936708860759,0.009936758433356577,0.00866661823836321,-2.080397387607747e-05,-0.005581013001515937,0.009366570685136714
8.383838383838384,7.594936708860759,0.00981866909827866,0.008947534977035017,-6.550612590922205e-07,-0.005629861222594103,0.0094133820239748
8.484848484848484,7.594936708860759,0.010026314311857729,0.008994272164849295,7.889770365245306e-05,-0.005706175943012107,0.009553176710775256
8.585858585858587,7.594936708860759,0.009939483405058151,0.008925169998836843,-3.453873974486611e-05,-0.005659396021168499,0.009473330436041564
8.686868686868687,7.594936708860759,0.010076814375300398,0.00903844969875968,-1.982903705213447e-05,-0.005734579222218023,0.009599904198923542
8.787878787878787,7.594936708860759,0.010101715726265987,0.009077602902604514,2.199671262807481e-05,-0.00575379558866115,0.009630660550539875
8.88888888888889,7.594936708860759,0.010151090477069186,0.00936044747715482,-2.7030115857215115e-05,-0.005853461386267202,0.00977988023859474
8.98989898989899,7.594936708860759,0.010242615329915517,0.009221221591301187,3.621476539252848e-05,-0.005839151076365011,0.009772236454803341
9.09090909090909,7.594936708860759,0.010259603205396876,0.009234592316711417,8.574353530282871e-05,-0.005848258656632487,0.00978856251533024
9.191919191919192,7.594936708860759,0.010391169853135476,0.009385299141711113,-5.026642880224484e-06,-0.005932940698453976,0.009926534601436901
9.292929292929292,7.594936708860759,0.010516985213926262,0.009349283357808255,-1.6200614995129872e-05,-0.005959880571520355,0.009984517506591713
9.393939393939394,7.594936708860759,0.010786375149659905,0.00968310773376271,-4.2222133910498186e-05,-0.006140844865026785,0.010279502893997067
9.494949494949495,7.594936708860759,0.010831422690658203,0.009545767758385093,-7.005084018449441e-05,-0.006113157134712988,0.010249969534756462
9.595959595959595,7.594936708860759,0.010674870599042935,0.009701646812740208,7.412578450617424e-05,-0.006112955223534943,0.010223867798325173
9.696969696969697,7.594936708860759,0.010955174960008586,0.00990802490050915,5.6086225312335055e-06,-0.00625895995815532,0.010470948567835158
9.797979797979798,7.594936708860759,0.011135940142943033,0.009964913850995743,1.1440483301681122e-05,-0.006330256198181632,0.01059907445981388
9.8989898989899,7.594936708860759,0.01118474291686734,0.010165974396524403,-4.042472403948243e-05,-0.006405215194017522,0.010711984031801194
10.0,7.594936708860759,0.011446077771333309,0.010280222686681906,5.539052057294809e-05,-0.0065178901374045636,0.010910391871335407
0.0,7.69620253164557,0.0111675513229389,0.010035713589636099,-5.482436893078904e-05,-0.0063609794737725005,0.010647272907340664
0.10101010101010101,7.69620253164557,0.011092010200943154,0.010038069967026955,3.6205891132051393e-05,-0.006339024050391033,0.01060457906229047
0.20202020202020202,7.69620253164557,0.011042058463622972,0.009856903703459681,-7.145161362822572e-05,-0.006269688650124796,0.01050049592965549
0.30303030303030304,7.69620253164557,0.011057054849116467,0.00986599075227856,2.5900275720485434e-05,-0.006276913680418507,0.010512347361291072
0.40404040404040403,7.69620253164557,0.010788319410812115,0.009689044418564052,-6.903065695773688e-05,-0.00614320914881285,0.01028354059535904
0.5050505050505051,7.69620253164557,0.010758600500206994,0.009686873081536785,3.67399512414462e-05,-0.006133642074523133,0.010264981573896978
0.6060606060606061,7.69620253164557,0.010450912955950147,0.00926914007839411,-2.462568118573285e-05,-0.005916015910303277,0.009913091472515243
0.7070707070707071,7.69620253164557,0.010489701956056068,0.009508055643980882,2.195570086185505e-05,-0.005999327280011084,0.010035025935560308
0.8080808080808081,7.69620253164557,0.010442182620455435,0.009350155459901073,1.9160739357671813e-05,-0.005937701424106952,0.009941310555611975
0.9090909090909091,7.69620253164557,0.010447570497432198,0.009464143307681219,-1.5332237469842623e-05,-0.005973514141534025,0.0099922539336658
1.0101010101010102,7.69620253164557,0.010243205525783004,0.009275488783319703,-1.4378104537452105e-05,-0.005855608292730811,0.009795296516336436
1.1111111111111112,7.69620253164557,0.010175572701253074,0.009043102657583561,3.268998666054357e-05,-0.00576560260765099,0.009659422490119626
1.2121212121212122,7.69620253164557,0.010077307038507588,0.009259497074014763,-5.892646861533715e-05,-0.005801041233756706,0.009694845288148932
1.3131313131313131,7.69620253164557,0.010130639560455448,0.009157127405997357,3.2199744227135445e-05,-0.005786330089935841,0.009680826077602577
1.4141414141414141,7.69620253164557,0.009843227091633388,0.008950793958433416,4.059479714354818e-05,-0.005638206315020042,0.009429001977578472
1.5151515151515151,7.69620253164557,0.009922022866471267,0.008951636849782047,-1.7477082664611303e-05,-0.005662097914875994,0.009474223497602623
1.6161616161616161,7.69620253164557,0.009917039216799452,0.008855257648462548,1.690522516993674e-05,-0.0056316890595786,0.00943112797248773
1.7171717171717171,7.69620253164557,0.009885063636168622,0.008819613635726623,-2.332579350104368e-05,-0.005611403181568574,0.00939783262337372
1.8181818181818181,7.69620253164557,0.009644103289172675,0.008711206475725446,-4.394861945179678e-05,-0.005506592929469436,0.009213461126699412
1.9191919191919191,7.69620253164557,0.009737621173823733,0.0088419034173729,5.4475212376408854e-05,-0.00557385737735899,0.009322570400883357
2.0202020202020203,7.69620253164557,0.009826777642678256,0.008631697688874694,6.131443246304307e-05,-0.005537542599465885,0.009287694457843634
2.121212121212121,7.69620253164557,0.009798842455247014,0.008641249024962184,-9.985639005749357e-07,-0.005532027444062759,0.009274387492087524
2.2222222222222223,7.69620253164557,0.009667578212324847,0.00864905874544225,-9.902355265477175e-07,-0.0054949910873301295,0.009200697621956348
2.323232323232323,7.69620253164557,0.009602597782790304,0.008706884029821286,-2.658507059461642e-05,-0.005492844543783478,0.009187661764832638
2.4242424242424243,7.69620253164557,0.00942533403859556,0.008649818221019307,3.63580983066489e-05,-0.00542254567788446,0.00906271574217606
2.525252525252525,7.69620253164557,0.009419504448366402,0.008676360513980949,3.1967070467301123e-05,-0.005428759488704205,0.009070961638386022
2.6262626262626263,7.69620253164557,0.009335542395001057,0.008414611753653479,-2.2654628399999012e-05,-0.005325046244596361,0.008910926871344132
2.727272727272727,7.69620253164557,0.009417153839789546,0.008357283520864187,-6.718576137987624e-06,-0.00533233120819612,0.008934499712320269
2.8282828282828283,7.69620253164557,0.009292557501435178,0.008187225323265103,-9.830374260090295e-05,-0.0052439348474100835,0.008793805330752634
2.929292929292929,7.69620253164557,0.009401268628320232,0.00841615234596352,-6.215200766432741e-05,-0.005345226292285126,0.008950114620897601
3.0303030303030303,7.69620253164557,0.009115120784059743,0.008271246912937551,-5.581520858021535e-05,-0.005215910309099188,0.008724384434967111
3.131313131313131,7.69620253164557,0.00927138534919733,0.008370501817379219,-6.284391651604064e-05,-0.005292566149972965,0.008856048053534354
3.2323232323232323,7.69620253164557,0.009276608427601704,0.00815177388073061,4.981554385228137e-07,-0.005228514692499694,0.008768470093705074
3.3333333333333335,7.69620253164557,0.009224198024896019,0.008199494059729383,-0.00011684260034876001,-0.00522710762538762,0.008759265477589968
3.4343434343434343,7.69620253164557,0.009057189649243215,0.008262841527103989,-2.576242741253863e-05,-0.005196009352904161,0.008687410592332327
3.5353535353535355,7.69620253164557,0.009366129978387846,0.008332943253261003,4.102051990098713e-05,-0.005309721969494655,0.008894939711471338
3.6363636363636362,7.69620253164557,0.009130053859284129,0.008375236442979139,6.391247267417852e-05,-0.005251587090678981,0.008777719723999286
3.7373737373737375,7.69620253164557,0.009110049204141473,0.008138726666592223,5.531313749365803e-05,-0.005174632761220108,0.00866584366886472
3.8383838383838382,7.69620253164557,0.009145381332307257,0.008354758429821816,4.823844462977025e-05,-0.005250041928638722,0.008777215799818558
3.9393939393939394,7.69620253164557,0.0091642719579435,0.008255521463867358,4.08689533277425e-05,-0.0052259380265432575,0.008745666476835385
4.040404040404041,7.69620253164557,0.00904557018813804,0.008263431364555937,-3.103249714712248e-05,-0.005192700465808193,0.008681133485319988
4.141414141414141,7.69620253164557,0.009053080471023767,0.008117785368412662,-1.8634103138472e-05,-0.005151259751830929,0.008623617733011292
4.242424242424242,7.69620253164557,0.008998178827241821,0.008036824225029653,7.347550218467921e-05,-0.005110500915681442,0.008559040845759784
4.343434343434343,7.69620253164557,0.009346087137095515,0.008242561075691658,-6.845339020867091e-05,-0.0052765944638361525,0.008846893319936478
4.444444444444445,7.69620253164557,0.00896163800230508,0.00813271361388445,5.481495112932059e-05,-0.005128305484856859,0.008577794883440102
4.545454545454545,7.69620253164557,0.009076577116282337,0.008019595380381743,1.247327130912549e-05,-0.005128851748999223,0.008596985113918447
4.646464646464646,7.69620253164557,0.009179859624675395,0.008302245110699864,-3.5436758438820813e-06,-0.005244631420612577,0.008774034966532123
4.747474747474747,7.69620253164557,0.009007201929734724,0.008147315034264179,2.1593826553014917e-05,-0.005146355089199671,0.008609606033484844
4.848484848484849,7.69620253164557,0.009025322434778991,0.008112037515939575,-4.8668905623768145e-05,-0.005141207985215569,0.008605518550005088
4.94949494949495,7.69620253164557,0.009068752776459677,0.008363476545552351,4.4664302619362814e-05,-0.005229668796603608,0.00873783156194954
5.05050505050505,7.69620253164557,0.009075572716816088,0.008236156396145987,1.6761467482505375e-05,-0.005193518733888622,0.008686385835321653
5.151515151515151,7.69620253164557,0.00900931536179271,0.008229672901514001,7.569037645562262e-05,-0.0051716964789920135,0.008646892387399806
5.252525252525253,7.69620253164557,0.009238150818959723,0.008183306163311817,-2.164464251165181e-05,-0.005226437094681462,0.008758579750941046
5.353535353535354,7.69620253164557,0.009289393088766437,0.008213018689944193,-7.173030348719226e-07,-0.005250723533613189,0.008800712610140616
5.454545454545454,7.69620253164557,0.009098476011587043,0.00828893136756234,9.468541595821921e-06,-0.005216222213744815,0.008721942140370243
5.555555555555555,7.69620253164557,0.009136437784769925,0.008143888940156607,6.017416036983275e-05,-0.00518409801747796,0.008683441174182537
5.656565656565657,7.69620253164557,0.009053028987049929,0.008144956884469076,-5.228279732734125e-05,-0.005159395761455701,0.00863535327531799
5.757575757575758,7.69620253164557,0.009317677169565683,0.008185188252539157,-7.36912415308903e-05,-0.005250859626631452,0.00880714278604045
5.858585858585858,7.69620253164557,0.009154586614139253,0.008268377745293258,-5.191205864355634e-06,-0.005226889307829753,0.008745228826782341
5.959595959595959,7.69620253164557,0.009285568110520686,0.008333459444294141,-8.784997218613562e-05,-0.005285708266444448,0.008849325908304999
6.0606060606060606,7.69620253164557,0.009281931962712021,0.008292100182041207,1.2842779652450846e-05,-0.005272209643425968,0.00882875820728442
6.161616161616162,7.69620253164557,0.009066784277371728,0.008262221550620678,-1.5624026815754446e-05,-0.005198701748397721,0.008692515974287784
6.262626262626262,7.69620253164557,0.00927227964600077,0.008300952059858707,-3.2811262880853616e-05,-0.005271969511757843,0.008826973198303716
6.363636363636363,7.69620253164557,0.009277286196798329,0.00808668676759037,-7.53900933234781e-06,-0.005209191889316609,0.008743008923569351
6.4646464646464645,7.69620253164557,0.009045145200212457,0.008166553640217433,-1.9110145401403843e-05,-0.005163509652128966,0.008639483907234076
6.565656565656566,7.69620253164557,0.009090988717927928,0.008239411796972282,-2.4891609452409566e-05,-0.005199120154470062,0.008696633930297687
6.666666666666667,7.69620253164557,0.009219062018902487,0.008381373434448797,2.7686168208357815e-05,-0.005280130636005386,0.008830199501258134
6.767676767676767,7.69620253164557,0.009279940951288692,0.008420888982312302,9.875304670580067e-05,-0.005310248980080299,0.00888327525698258
6.8686868686868685,7.69620253164557,0.009291025454404979,0.00830104930203107,3.648710761628062e-05,-0.0052776224269308145,0.00883794699422762
6.96969696969697,7.69620253164557,0.009420811775711474,0.008365659281349937,3.6039871247824745e-05,-0.005335941317118423,0.008940276554595363
7.070707070707071,7.69620253164557,0.009443453376121645,0.008543112908001521,6.255642673780697e-05,-0.005395969885236949,0.00902767086859998
7.171717171717171,7.69620253164557,0.009504451466347699,0.008475531633819634,-3.1410663294362685e-05,-0.005393994930050199,0.009034208043664298
7.2727272727272725,7.69620253164557,0.009327077335214649,0.008317849418405795,4.725549303743663e-05,-0.005293478026086132,0.008866028706307804
7.373737373737374,7.69620253164557,0.00941923519687186,0.00848638606772546,-4.546014998990379e-05,-0.005371686379379196,0.00898953134022142
7.474747474747475,7.69620253164557,0.009582339864326926,0.008538802534844845,-3.613442194453738e-05,-0.005436342719751531,0.009105745173824599
7.575757575757575,7.69620253164557,0.00952858551236821,0.00852966113870435,4.9300184637025266e-05,-0.005417473995321767,0.009070873551129675
7.6767676767676765,7.69620253164557,0.009691070476765623,0.008501214324158773,4.765561065131556e-05,-0.005457685440277318,0.00915469486051218
7.777777777777778,7.69620253164557,0.009513371087643312,0.008522201418538593,-5.230021271275614e-05,-0.005410671751854571,0.009059000376857284
7.878787878787879,7.69620253164557,0.009550366179223472,0.008431604586350868,1.901258029922515e-05,-0.005394591229672302,0.009043098098239706
7.979797979797979,7.69620253164557,0.00956266990880945,0.008754572033402411,5.344508678439689e-06,-0.0054951725826635585,0.009185324731106594
8.080808080808081,7.69620253164557,0.009762423199769226,0.008684785500230302,-1.1462995053311154e-05,-0.005534162609999859,0.009270719964743948
8.181818181818182,7.69620253164557,0.009738170736593934,0.008469518980358602,3.6575073770180246e-05,-0.005462306915085762,0.00917012063029805
8.282828282828282,7.69620253164557,0.00957307962501253,0.008686823785193571,3.134009517273672e-05,-0.005477971023061829,0.009162316945097474
8.383838383838384,7.69620253164557,0.009874618446910635,0.008846524407903431,-1.6564291412372091e-06,-0.00561634285644422,0.00940282078387348
8.484848484848484,7.69620253164557,0.009972351550084949,0.009054673542235303,-6.354257528561307e-06,-0.005708107527696076,0.009546656052790448
8.585858585858587,7.69620253164557,0.009979084651750838,0.008975276829330003,3.5414492268586218e-06,-0.005686308444324252,0.0095169698445841
8.686868686868687,7.69620253164557,0.009980895759850375,0.009156206260557348,-1.6269257312965104e-05,-0.005741130606122317,0.00959520959014221
8.787878787878787,7.69620253164557,0.009898081095948228,0.009033075695229997,3.588274683156602e-05,-0.005679347037353467,0.009495378498778111
8.88888888888889,7.69620253164557,0.010202915457787105,0.00914213599094524,0.00017627214481431998,-0.0058035154346197035,0.009720849206915651
8.98989898989899,7.69620253164557,0.01018802039039869,0.00938598435619358,-1.6585421662360137e-05,-0.005872201423977681,0.009811660768374633
9.09090909090909,7.69620253164557,0.010410206150158387,0.00932210393815734,5.406080320472383e-05,-0.005919693026494717,0.009911496248524351
9.191919191919192,7.69620253164557,0.010230547937848406,0.00920959074844416,8.443304643252609e-05,-0.00583204160588777,0.009761296022583733
9.292929292929292,7.69620253164557,0.010407289635865711,0.009532729128080562,5.312582156772403e-05,-0.0059820056291838815,0.009999159774536916
9.393939393939394,7.69620253164557,0.0106043369593924,0.009368384419932265,-4.120833038997114e-05,-0.005991816413797399,0.010043812932017511
9.494949494949495,7.69620253164557,0.010649812882425898,0.009607814270060243,-6.106276657256258e-05,-0.006077288145745843,0.01016948235053286
9.595959595959595,7.69620253164557,0.01075949810604802,0.009487511297005962,0.00010601565379637065,-0.006074102820916195,0.010184916702171474
9.696969696969697,7.69620253164557,0.010875295026204351,0.010045246546455116,-7.497673840702725e-05,-0.0062761624717978404,0.010485745792088432
9.797979797979798,7.69620253164557,0.011184068087655404,0.009857392195469102,1.4804207336899129e-05,-0.006312438084937352,0.010583311008253625
9.8989898989899,7.69620253164557,0.011097582569786886,0.010031997109661276,1.8864476585207057e-05,-0.0063388739038344475,0.01060506747939828
10.0,7.69620253164557,0.011400135893695902,0.01017356414091789,-4.61204207532297e-05,-0.006472110010384138,0.010839320701687898
0.0,7.7974683544303796,0.01122129858657196,0.0101858180615826,-5.0241464105971836e-05,-0.0064221349944463685,0.01074141044506236
0.10101010101010101,7.7974683544303796,0.011029720963905629,0.010144750722006629,-4.704809672674932e-06,-0.006352341505773677,0.010614942696353205
0.20202020202020202,7.7974683544303796,0.011028087103147496,0.00979915305377226,-6.222210991312843e-05,-0.006248172047075927,0.010468419512260397
0.30303030303030304,7.7974683544303796,0.010859969798489931,0.009845467250659809,4.3246767000969335e-05,-0.0062116311147449215,0.010390202272444417
0.40404040404040403,7.7974683544303796,0.010717106204281424,0.009771498401052986,1.554078484015778e-05,-0.0061465813816003224,0.010277017310706344
0.5050505050505051,7.7974683544303796,0.010686855875531701,0.009666967967655916,0.00011016382956421553,-0.006106147152956285,0.01021695027767016
0.6060606060606061,7.7974683544303796,0.010474521999525385,0.009486239748151258,6.072384189202869e-05,-0.0059882285243029925,0.010017564119988751
0.7070707070707071,7.7974683544303796,0.010404077456512596,0.009392379388656535,1.5594261860734445e-05,-0.005938937053550739,0.009936966598718526
0.8080808080808081,7.7974683544303796,0.010559322120175107,0.00929964650030432,-4.745313231546731e-05,-0.005957690586143829,0.009989569613705533
0.9090909090909091,7.7974683544303796,0.010199496576771777,0.009441780255229338,2.8732610298450176e-05,-0.0058923830496003336,0.009842663059581917
1.0101010101010102,7.7974683544303796,0.010065972839103841,0.00922408371657717,-2.500230775616986e-05,-0.005787016966704303,0.009672643320080294
1.1111111111111112,7.7974683544303796,0.010404306930226013,0.009119337195888182,6.789633176611081e-05,-0.005857093237834258,0.009825749851284298
1.2121212121212122,7.7974683544303796,0.010076825977698002,0.009063217083899906,-0.00012974316513972986,-0.005742012918479373,0.009612822905309707
1.3131313131313131,7.7974683544303796,0.010023094897433476,0.009139754744756633,3.681295560705055e-05,-0.005748854892657033,0.009612126952573834
1.4141414141414141,7.7974683544303796,0.009885855887691614,0.008953070864104344,-5.555289346178485e-05,-0.0056516780255387875,0.009454528787145915
1.5151515151515151,7.7974683544303796,0.009915293016689126,0.008841943783838124,3.9357514051868404e-05,-0.005627171040158176,0.009424817720849929
1.6161616161616161,7.7974683544303796,0.009764180270694518,0.008884300538445692,-2.8900053235031873e-05,-0.0055945442427420625,0.009355458621514252
1.7171717171717171,7.7974683544303796,0.009826457958636521,0.008902601053406945,1.3612814507629462e-05,-0.00561871770361304,0.009398675570595752
1.8181818181818181,7.7974683544303796,0.009709617539905202,0.008920093165523061,1.3088969796758286e-05,-0.0055889132116284795,0.009339944098263425
1.9191919191919191,7.7974683544303796,0.009696982717465077,0.00871829991583135,3.800648409173112e-05,-0.005524584789988928,0.009246802534617387
2.0202020202020203,7.7974683544303796,0.009692638576940122,0.008666960345381027,4.625857354867022e-05,-0.005507879676696344,0.009223022801122466
2.121212121212121,7.7974683544303796,0.009710341272915302,0.008724165108792927,-9.481164136925798e-05,-0.005530351914512469,0.009258192679802041
2.2222222222222223,7.7974683544303796,0.009529724996258496,0.008643410266711298,-9.337238912009971e-06,-0.0054519405788909375,0.009118943920405465
2.323232323232323,7.7974683544303796,0.00945775865932594,0.008633055289098116,-6.596251056499782e-05,-0.005427244184527217,0.009074279157275942
2.4242424242424243,7.7974683544303796,0.009467287714486485,0.008644253099206368,9.194667884632104e-05,-0.0054334622441078555,0.009085173620808249
2.525252525252525,7.7974683544303796,0.009270136065885282,0.008432717465488598,5.8608589904157706e-05,-0.005310856059412164,0.008881667249056823
2.6262626262626263,7.7974683544303796,0.009417572222794286,0.008608696656700466,6.733114184585754e-05,-0.005407880663848425,0.009041067560748274
2.727272727272727,7.7974683544303796,0.009307202396362846,0.008365082724730025,-8.166074242048495e-05,-0.005301685536327861,0.008874858471413291
2.8282828282828283,7.7974683544303796,0.009305288005256972,0.008448895837935866,2.7974347248094208e-05,-0.0053262551529578515,0.008908151566681552
2.929292929292929,7.7974683544303796,0.009319196464911198,0.008337652889300568,1.3686713141118568e-05,-0.00529705480626353,0.008869284926125601
3.0303030303030303,7.7974683544303796,0.009275135781869299,0.008522574957535832,-1.1468073532753077e-05,-0.005339313221821539,0.008922711599438646
3.131313131313131,7.7974683544303796,0.009246407500960223,0.00832357973679665,4.814433118457797e-05,-0.005270996171327061,0.008821665082360803
3.2323232323232323,7.7974683544303796,0.009324839337821108,0.00840391838536283,2.5466143193875543e-05,-0.005318627316955181,0.008900293799964895
3.3333333333333335,7.7974683544303796,0.009354433498518487,0.008382040947369829,-8.457964051042378e-05,-0.005320942333766494,0.00890933516286855
3.4343434343434343,7.7974683544303796,0.00936554676113292,0.008222480451750766,2.6280882428154374e-05,-0.005276408163865105,0.008849672186322004
3.5353535353535355,7.7974683544303796,0.009099208649738939,0.00832846158128374,-1.4436117245147155e-05,-0.005228301069306804,0.008739398486589972
3.6363636363636362,7.7974683544303796,0.009305805381091934,0.008271595483886354,6.705453429865026e-05,-0.005273220259493487,0.008834983690270932
3.7373737373737375,7.7974683544303796,0.009298083329879346,0.008450115929527826,8.896462419899484e-05,-0.0053244597778221514,0.008905766383923739
3.8383838383838382,7.7974683544303796,0.00904702627666068,0.00837428766415207,-1.3200983695777137e-05,-0.005226394182243824,0.008730148944008389
3.9393939393939394,7.7974683544303796,0.00909734532342424,0.00830835077893868,1.5606239245220253e-05,-0.005221708830708876,0.00872967233975503
4.040404040404041,7.7974683544303796,0.009085815485024509,0.008055799976502532,-2.7694468712564837e-05,-0.005142484638458112,0.008617235349539572
4.141414141414141,7.7974683544303796,0.009115732538181093,0.008260091768736483,6.288549403273736e-05,-0.005212747292075273,0.008720136018838696
4.242424242424242,7.7974683544303796,0.009081389434736057,0.008177077796071346,2.5396551764711173e-05,-0.00517754016924222,0.008664810580653578
4.343434343434343,7.7974683544303796,0.009298422671654977,0.008357392207419649,1.4638704219556156e-06,-0.005296744463722387,0.008865444711956208
4.444444444444445,7.7974683544303796,0.009111576208242336,0.008268566898692807,-3.0158335355058676e-05,-0.005214042932080542,0.008720841169402804
4.545454545454545,7.7974683544303796,0.008920752236400842,0.008198541782128217,5.548056532436278e-05,-0.005135788205558718,0.00858300542687658
4.646464646464646,7.7974683544303796,0.00915017200468991,0.008248824280507125,4.5110795572964834e-05,-0.00521969888555911,0.008734797861119846
4.747474747474747,7.7974683544303796,0.00918919253410833,0.008128277712382444,-4.838874886260887e-05,-0.005195241073947232,0.008707747902976464
4.848484848484849,7.7974683544303796,0.00892853446378555,0.008289636355458211,-6.331079579675099e-06,-0.005165451245773128,0.008626854289512978
4.94949494949495,7.7974683544303796,0.009362467076421263,0.008199219055871503,-7.796879303092697e-05,-0.00526850583968783,0.008839474069102515
5.05050505050505,7.7974683544303796,0.00904693793768477,0.008282946764959685,5.434090580117993e-05,-0.005198965410793336,0.008690675844712472
5.151515151515151,7.7974683544303796,0.009244834708828883,0.008343947301250562,7.850662856901251e-05,-0.005276634603023834,0.008829977441226069
5.252525252525253,7.7974683544303796,0.009091402127843165,0.008074700209604376,-4.879829410839726e-05,-0.005149830701234262,0.00862850933118618
5.353535353535354,7.7974683544303796,0.009284210301290072,0.008191056047291536,7.279440537272448e-06,-0.005242579904574482,0.008788778761950212
5.454545454545454,7.7974683544303796,0.009049287245543573,0.00824932764884275,-3.992283027623463e-05,-0.005189584468315896,0.008677283695400778
5.555555555555555,7.7974683544303796,0.008945189882682862,0.008145002596628433,-0.00012853132120767868,-0.005127057743793389,0.008576039611390774
5.656565656565657,7.7974683544303796,0.009096214640039388,0.00811240409172167,-8.181527376713704e-05,-0.005162585619528317,0.008647550709714288
5.757575757575758,7.7974683544303796,0.008974207076255864,0.00818352727173768,-5.912437179326882e-05,-0.0051473203043980635,0.008606760713419068
5.858585858585858,7.7974683544303796,0.009212797429133366,0.008073665511853451,-2.987680904664028e-05,-0.005185938882296045,0.008699502529881145
5.959595959595959,7.7974683544303796,0.00903100024543593,0.008364694894529165,4.8530088452976935e-05,-0.005218708541989528,0.00871737288261735
6.0606060606060606,7.7974683544303796,0.009003506418430961,0.00815428429163894,2.478200070295084e-05,-0.00514733721302097,0.008610468722479146
6.161616161616162,7.7974683544303796,0.009148428102035694,0.008250907455133048,-1.3191370633928734e-06,-0.005219800667150623,0.008734322077976017
6.262626262626262,7.7974683544303796,0.009393901327050981,0.008492984305006489,5.946028256473245e-05,-0.005366065689617241,0.008978001703588676
6.363636363636363,7.7974683544303796,0.009200685165513079,0.00838034971448167,0.00010080741599793708,-0.005274310463998425,0.008820906753697306
6.4646464646464645,7.7974683544303796,0.009112477487466722,0.008361216064808347,-3.523499449854335e-05,-0.005242108065682522,0.008761250561312453
6.565656565656566,7.7974683544303796,0.009352513295692179,0.008153064588672699,-5.404519361060235e-05,-0.005251673365309463,0.008814708436234657
6.666666666666667,7.7974683544303796,0.009290846881417892,0.008262184126530809,4.5689268250272455e-05,-0.0052659093023846104,0.008821966743117478
6.767676767676767,7.7974683544303796,0.009235662016338476,0.00827929193350299,4.107014336889175e-05,-0.00525448618495244,0.008796842958573428
6.8686868686868685,7.7974683544303796,0.009269775838077306,0.00838407550386095,-7.117061509383151e-06,-0.005296155402581477,0.008860198506242997
6.96969696969697,7.7974683544303796,0.009307249199676269,0.008213293253690218,3.3172351133776327e-06,-0.005256162736009946,0.008811352886249613
7.070707070707071,7.7974683544303796,0.009277469508689355,0.008560926963119027,-8.31067930986044e-06,-0.0053515189415425145,0.008940770620491138
7.171717171717171,7.7974683544303796,0.009408958039239699,0.008558109366729447,8.011483252892183e-05,-0.005390120221790743,0.00901477068756979
7.2727272727272725,7.7974683544303796,0.009433172888833337,0.008510998808131331,-3.592939922367273e-05,-0.0053832515090894,0.00900777447619897
7.373737373737374,7.7974683544303796,0.009359377367100605,0.008394034173270913,6.129123646333851e-05,-0.005326023462111455,0.008916618798000493
7.474747474747475,7.7974683544303796,0.009410879563350252,0.008452212373950482,2.450745981189975e-06,-0.00535892758119022,0.008970050919231505
7.575757575757575,7.7974683544303796,0.00952051726546172,0.00847295683748998,-5.105451780483857e-05,-0.005398042230885509,0.009042794612422229
7.6767676767676765,7.7974683544303796,0.009662752733667056,0.008771823316961877,9.134203283088233e-06,-0.00553037281518868,0.009249538651293765
7.777777777777778,7.7974683544303796,0.009705793534737054,0.0085635592215364,-1.1526150432986408e-05,-0.005480805826882037,0.00918810293310922
7.878787878787879,7.7974683544303796,0.00967240666501111,0.008770903924115558,-8.131254919483506e-06,-0.005532993176738,0.009254655861648737
7.979797979797979,7.7974683544303796,0.009574379909079436,0.008691400555319148,-2.467996989851468e-05,-0.005479734139319575,0.00916494684657358
8.080808080808081,7.7974683544303796,0.009883181295727662,0.008746766198886728,-5.622172145403398e-05,-0.005588984248384317,0.009367326086624614
8.181818181818182,7.7974683544303796,0.009718425664287864,0.008573898361041544,-2.7783595466347456e-05,-0.005487697207598822,0.009199839803352513
8.282828282828282,7.7974683544303796,0.009839332863997498,0.008829160110911926,-6.580242607263182e-05,-0.005600547892472827,0.009375845781032191
8.383838383838384,7.7974683544303796,0.009729539951277174,0.008702847692056183,1.703691228482327e-05,-0.005529716293000007,0.009259031918836109
8.484848484848484,7.7974683544303796,0.009777142926836128,0.008794439072462489,-3.7396956853854884e-05,-0.005571474599789585,0.009324933792545903
8.585858585858587,7.7974683544303796,0.009968517272335012,0.009075725807741167,-5.013435709303184e-05,-0.005713272924022853,0.009553855056152957
8.686868686868687,7.7974683544303796,0.010029219828930657,0.009134965955879827,-2.4915218924485573e-05,-0.005749255735443145,0.009613435077805698
8.787878787878787,7.7974683544303796,0.010173208853727665,0.009207908393122398,6.49956280167056e-05,-0.005814335174055019,0.009727201728321186
8.88888888888889,7.7974683544303796,0.010244547556988119,0.009291493572284695,2.309913774341471e-05,-0.005860812338781844,0.00980291081184423
8.98989898989899,7.7974683544303796,0.010204956897642663,0.009291559965941748,9.937593533901232e-06,-0.005848955059075323,0.009780314881762963
9.09090909090909,7.7974683544303796,0.01043792939429597,0.009201112601505237,4.4943602450960524e-05,-0.005891712598740362,0.009878073660618832
9.191919191919192,7.7974683544303796,0.01053792448291734,0.009392408067395722,3.5592451455767823e-06,-0.005979099765093918,0.010014426233682448
9.292929292929292,7.7974683544303796,0.010692581043882638,0.009409422483212748,-4.6738809734971645e-05,-0.0060306010581286165,0.01011256950130433
9.393939393939394,7.7974683544303796,0.010524761155200435,0.009445438108660567,-4.922857601641233e-05,-0.005991059779158301,0.010029117044723455
9.494949494949495,7.7974683544303796,0.010601170270755585,0.009695427694015492,-1.597329955590371e-05,-0.006088979389431323,0.010178605743729016
9.595959595959595,7.7974683544303796,0.010709243814969169,0.009837203587455134,2.1614800974327422e-05,-0.006163934220727291,0.010301012932367992
9.696969696969697,7.7974683544303796,0.010940308709551887,0.009848577163304183,5.888044961502357e-05,-0.006236665761856821,0.010437851934545899
9.797979797979798,7.7974683544303796,0.011133868189425203,0.009794545687549654,-7.760798282743741e-05,-0.006278524163092457,0.010529151647759031
9.8989898989899,7.7974683544303796,0.011201563218623109,0.010240370855457467,5.476429810754821e-05,-0.006432580222224173,0.010753652852105744
10.0,7.7974683544303796,0.011401253496306746,0.010070501662398222,-3.819415698316924e-06,-0.00644152654761149,0.010797559284173456
0.0,7.898734177215189,0.011358104088904572,0.010169901820704286,-1.1308381209982815e-06,-0.006458401772882657,0.010813076894207322
0.10101010101010101,7.898734177215189,0.011116438608648593,0.010133245577921102,-5.3560068745752135e-05,-0.006374905255970909,0.010659309403140665
0.20202020202020202,7.898734177215189,0.011006649563536428,0.009938796472922659,0.00014752424693720694,-0.006283633810937725,0.01051657978119351
0.30303030303030304,7.898734177215189,0.010852225460288373,0.00972179936770402,3.376611931121834e-05,-0.006172207448397718,0.010333655801372936
0.40404040404040403,7.898734177215189,0.010962010417390592,0.009815189297157053,1.4098424397035087e-05,-0.006233159914364294,0.01043599551085671
0.5050505050505051,7.898734177215189,0.010696269033115682,0.009589165538424298,-3.0292659779128447e-05,-0.006085630371461994,0.010188067799427684
0.6060606060606061,7.898734177215189,0.010450008890909227,0.009624605417193476,3.102565239625622e-05,-0.00602238429243081,0.010062871898663265
0.7070707070707071,7.898734177215189,0.01043685799403673,0.009462933006056664,-4.709614499598788e-05,-0.005969937300028018,0.009985913679485165
0.8080808080808081,7.898734177215189,0.01042066089016038,0.009420381655670948,-6.778906799995549e-05,-0.005952312763749398,0.009958963164396492
0.9090909090909091,7.898734177215189,0.010365475645741062,0.009296441641525969,3.5418460733202545e-05,-0.005898575186180109,0.009874646147155896
1.0101010101010102,7.898734177215189,0.010299998182541141,0.009075372393539581,-6.193251672487045e-05,-0.005812611172824216,0.009746154851648575
1.1111111111111112,7.898734177215189,0.010099326917180811,0.009246358127390083,-1.3056510963776236e-05,-0.0058037055133712675,0.00970103400136485
1.2121212121212122,7.898734177215189,0.010183943493438378,0.009175253066468532,4.4599811006524e-05,-0.005807758967972072,0.009719242901265447
1.3131313131313131,7.898734177215189,0.01014759555479697,0.00903738021883158,0.00013406510768359096,-0.005755492732088565,0.009643348888593256
1.4141414141414141,7.898734177215189,0.009841113318910903,0.00905148293137839,7.034966437674477e-05,-0.005667778875086788,0.00947180197251986
1.5151515151515151,7.898734177215189,0.009981126278638822,0.009190959097449944,7.395847483257089e-05,-0.0057516256128266295,0.009611290085918685
1.6161616161616161,7.898734177215189,0.009814754191979509,0.008911772631179201,0.000125082418335894,-0.005617958046947613,0.009398359980502445
1.7171717171717171,7.898734177215189,0.009779777550110294,0.008815664997222509,-2.5327042182370718e-05,-0.00557863276419984,0.009335238616177025
1.8181818181818181,7.898734177215189,0.009820392235774777,0.008912395846138907,5.7276033927317416e-05,-0.0056198364245741055,0.009399868192977653
1.9191919191919191,7.898734177215189,0.009747978141124622,0.008602459807153668,2.404401238975291e-05,-0.005505131384483487,0.00922878847721065
2.0202020202020203,7.898734177215189,0.009698065258399951,0.008604813508633987,7.522175059394367e-06,-0.005490863630110181,0.009200294130125028
2.121212121212121,7.898734177215189,0.009683879253063075,0.008550823032240392,-3.5737902562412165e-05,-0.00547041068559104,0.00917021187056822
2.2222222222222223,7.898734177215189,0.00962041222480447,0.00877232028165259,-7.50207294999736e-05,-0.005517819751937118,0.009226563908146631
2.323232323232323,7.898734177215189,0.009604965370185754,0.00860749647682612,8.902479097703884e-06,-0.005463738554103562,0.009147124550345486
2.4242424242424243,7.898734177215189,0.009517396755285892,0.008537292206953692,-2.3738835465329225e-05,-0.005416406688671876,0.009067253866081936
2.525252525252525,7.898734177215189,0.00958145570879423,0.00856544231449197,0.00010131627333309443,-0.00544406940698586,0.009117701702823179
2.6262626262626263,7.898734177215189,0.009406249981339692,0.008560215309397008,-6.675622260365974e-05,-0.0053899395872210095,0.009013804354443104
2.727272727272727,7.898734177215189,0.009128927852839187,0.008468209265587102,3.863410430169059e-06,-0.005279141135527886,0.008817157436365183
2.8282828282828283,7.898734177215189,0.009360950350194335,0.008436584431199523,-4.9959648725207905e-05,-0.005339260434418157,0.008935121053314421
2.929292929292929,7.898734177215189,0.009378024960459547,0.008491816189838592,-4.205542267952529e-06,-0.005360952345089442,0.008967824888612825
3.0303030303030303,7.898734177215189,0.009165185732741164,0.008445822760898523,-5.902472680812048e-06,-0.005283302548091906,0.008827520709251111
3.131313131313131,7.898734177215189,0.00923209890016832,0.00837760971149633,3.222699945408746e-05,-0.005282912583499395,0.00883607316151148
3.2323232323232323,7.898734177215189,0.009419711088802043,0.008499592056547992,-4.183431439933104e-05,-0.00537579094360501,0.00899530827200818
3.3333333333333335,7.898734177215189,0.009263080466124037,0.008416964590947786,-1.9057869938255547e-05,-0.005304013517121548,0.008870401454720702
3.4343434343434343,7.898734177215189,0.0091706637739637,0.008296269809157734,7.478040328213956e-05,-0.00524008007493643,0.008767191233782104
3.5353535353535355,7.898734177215189,0.009212597131121944,0.00829858337688424,-3.413415210444261e-05,-0.005253354152401856,0.008791497140659
3.6363636363636362,7.898734177215189,0.009133175447954575,0.008102374301841932,4.063227888169542e-05,-0.005170664924938951,0.008664173935973893
3.7373737373737375,7.898734177215189,0.008948343089574278,0.008092039369842966,-2.7130148882684897e-05,-0.0051121147378251726,0.008552532301667044
3.8383838383838382,7.898734177215189,0.009216414964384712,0.008162283193719895,4.989806797272284e-06,-0.005213609447431382,0.008737176743925148
3.9393939393939394,7.898734177215189,0.009132181752711686,0.008082600833786072,4.4414541802368234e-05,-0.005164434775949327,0.00865559460168374
4.040404040404041,7.898734177215189,0.009174740423426067,0.008288361582833581,-3.0677111283469525e-05,-0.005238930601877894,0.008765389709677208
4.141414141414141,7.898734177215189,0.009075340164968554,0.008201334854154772,-7.106659097732155e-05,-0.005183002505736997,0.008672308820184934
4.242424242424242,7.898734177215189,0.009135741006969888,0.008069053261029219,8.51849938904779e-05,-0.005161438280399731,0.008653113483660149
4.343434343434343,7.898734177215189,0.009148721854659059,0.008222525020460909,5.289476988011115e-05,-0.005211374062535991,0.008723063022866013
4.444444444444445,7.898734177215189,0.009177806072745206,0.008232803003136434,-1.654114293354808e-05,-0.005223182722764492,0.008743736102359172
4.545454545454545,7.898734177215189,0.008993191686541476,0.008096958376144922,0.00011611032668633011,-0.005127045018805919,0.008582609027864013
4.646464646464646,7.898734177215189,0.009072376031125047,0.008343801405423805,2.837556766956586e-05,-0.005224853230964655,0.008731056086337542
4.747474747474747,7.898734177215189,0.008930558447213683,0.008226659152933049,3.430264709335621e-05,-0.00514716528004402,0.008600445606005286
4.848484848484849,7.898734177215189,0.009051625521573346,0.008222934016739623,4.2737400073421604e-05,-0.00518236786149389,0.008667359948358709
4.94949494949495,7.898734177215189,0.008890748611211651,0.007967876847096047,7.037569042430044e-05,-0.0050575876374923095,0.008467995070796545
5.05050505050505,7.898734177215189,0.009116806433024227,0.008061714482182285,5.1942706802112753e-05,-0.005153556274561953,0.008638194464786336
5.151515151515151,7.898734177215189,0.008986572633150768,0.008352924526558048,2.632167747866442e-05,-0.005201849147912645,0.008687217700290744
5.252525252525253,7.898734177215189,0.009012432036636058,0.008183056169356205,3.275816737845166e-05,-0.0051586464617976785,0.008627880458149289
5.353535353535354,7.898734177215189,0.00899962003904599,0.008158708029797448,3.9082132817895574e-05,-0.005147498420653031,0.008610283823678854
5.454545454545454,7.898734177215189,0.008978839387453988,0.008408740781421325,1.5739370002073088e-05,-0.005216274050662594,0.008707840635371148
5.555555555555555,7.898734177215189,0.009148465972691516,0.008272210946748342,0.00011452986108970858,-0.005226203075831957,0.008745582570817558
5.656565656565657,7.898734177215189,0.009119091351375713,0.008214750560432835,2.948541756916427e-05,-0.0052001525735425646,0.008702384801022232
5.757575757575758,7.898734177215189,0.009214208588871781,0.008239411054789663,6.681020123640348e-06,-0.005236085893098433,0.008767554747409924
5.858585858585858,7.898734177215189,0.009126469838785779,0.008222606264478355,2.292730039767484e-06,-0.00520472283097924,0.008709784911222871
5.959595959595959,7.898734177215189,0.009074913695302791,0.008256284323117818,-6.0636052158688494e-05,-0.0051993594055261836,0.008695185559701632
6.0606060606060606,7.898734177215189,0.00926986441677755,0.008018023031702922,-3.6099973141106788e-06,-0.005186366234544141,0.008711666450462459
6.161616161616162,7.898734177215189,0.009213752444404356,0.00834084996663231,9.704987859830819e-05,-0.005266380723311,0.008811398387371714
6.262626262626262,7.898734177215189,0.009097722337150036,0.00823486814007531,3.677872026797347e-05,-0.005199777143167603,0.008698684912654985
6.363636363636363,7.898734177215189,0.009248968045237874,0.008351269541651515,-4.629097923803378e-05,-0.005280071276066817,0.008834756153710235
6.4646464646464645,7.898734177215189,0.009114073580728568,0.008387888739719946,-6.749747586235649e-05,-0.005250588696134554,0.00877432888099291
6.565656565656566,7.898734177215189,0.009373987950588053,0.008316911860845828,2.3883180545221045e-05,-0.005307269943430165,0.008892792173896522
6.666666666666667,7.898734177215189,0.009335076968647844,0.008305609840453332,-0.00013483550674205495,-0.005292206042730353,0.008868362393466958
6.767676767676767,7.898734177215189,0.009243975171856834,0.008396558270557125,-3.762582907420283e-05,-0.005292160032724188,0.008850985182211538
6.8686868686868685,7.898734177215189,0.009239226977163301,0.008261319842981596,6.255672641482272e-05,-0.005250164046043468,0.008791828680962382
6.96969696969697,7.898734177215189,0.009454739804305806,0.008255116424633606,4.280355832353522e-05,-0.005312956868681823,0.008915972775644484
7.070707070707071,7.898734177215189,0.009340486706998465,0.00844956590777294,9.64809480540725e-05,-0.005337015784431421,0.00892999012496461
7.171717171717171,7.898734177215189,0.009306585767941633,0.008485783494469884,3.1694999470457875e-07,-0.005337710778723455,0.008924538563588356
7.2727272727272725,7.898734177215189,0.009467131145400922,0.00835237927687883,8.527121682933147e-05,-0.005345853126683926,0.008963121959449897
7.373737373737374,7.898734177215189,0.009528308986696097,0.008430501905876834,2.511960613220747e-05,-0.0053876432677718794,0.00902970101623849
7.474747474747475,7.898734177215189,0.009466245416743768,0.008533511876052577,3.14703635642656e-05,-0.005399927187838903,0.009036220487277306
7.575757575757575,7.898734177215189,0.00945811648273546,0.008529027882276618,-1.0770239227486469e-05,-0.005396143309503624,0.009029512324413342
7.6767676767676765,7.898734177215189,0.009502326966700158,0.008531565530233052,5.0270280088401756e-05,-0.005410167749079963,0.009056471955227113
7.777777777777778,7.898734177215189,0.009471775820543085,0.00858260307577715,7.494508650044194e-05,-0.00541631366889607,0.009060903418449562
7.878787878787879,7.898734177215189,0.009678369842491489,0.008707782263227767,4.082833365196693e-05,-0.005515845631715776,0.009231694230146128
7.979797979797979,7.898734177215189,0.009865727345786616,0.008835815306696887,3.0621361525415484e-05,-0.005610462795745051,0.009393363428783452
8.080808080808081,7.898734177215189,0.009627859072034029,0.008844116347976825,-1.4672183222130459e-05,-0.005541592626003256,0.009260928910826778
8.181818181818182,7.898734177215189,0.009695739593317716,0.008932830388272627,-4.435972670043893e-05,-0.005588570994477102,0.009338004663051305
8.282828282828282,7.898734177215189,0.00971178603047326,0.008848757045998105,-1.3091795829774971e-05,-0.005568162922941409,0.009310347376965834
8.383838383838384,7.898734177215189,0.01001486604811337,0.008953128550636387,-7.9003589874261e-05,-0.005690398379624927,0.009529448796302468
8.484848484848484,7.898734177215189,0.00981366988530537,0.008875577619481463,-7.268773187795641e-07,-0.00560677425143605,0.009379872466256996
8.585858585858587,7.898734177215189,0.010062233646174252,0.008847845192495844,3.0541969038453475e-05,-0.0056730236516010285,0.009513496904089392
8.686868686868687,7.898734177215189,0.010032442579112975,0.009060878119730711,1.46535098744613e-05,-0.0057279962096531065,0.00958370080539502
8.787878787878787,7.898734177215189,0.0102250305290908,0.009169583410144067,-3.1679979274798634e-05,-0.00581838418177046,0.009740444024371844
8.88888888888889,7.898734177215189,0.010208426404920071,0.009279604790879383,-1.8889543749085768e-05,-0.005846409358739837,0.009777215483445897
8.98989898989899,7.898734177215189,0.010384736416170418,0.009311424599094236,-3.722251002317698e-05,-0.005908848304579396,0.00989205969063428
9.09090909090909,7.898734177215189,0.010331954575426747,0.00933864397967286,7.475668659537519e-05,-0.005901179566529882,0.009873696218755747
9.191919191919192,7.898734177215189,0.010495149605509553,0.009320130981245692,-4.917712247822677e-05,-0.005944584176026574,0.009960125146131987
9.292929292929292,7.898734177215189,0.01059521553275311,0.009512505545719961,-1.7873882070861424e-05,-0.006032316323541921,0.01009753761351818
9.393939393939394,7.898734177215189,0.0107987876777952,0.009637220814609338,-9.528505297909272e-05,-0.006130802547721362,0.010268728094686794
9.494949494949495,7.898734177215189,0.010665539368395496,0.009622753538048362,2.7145598489279984e-05,-0.0060864878719331566,0.01018437379670182
9.595959595959595,7.898734177215189,0.010899249728154035,0.009757657399389656,3.4208854480575376e-06,-0.006197072138263108,0.010375664456321983
9.696969696969697,7.898734177215189,0.01089947142594332,0.009890090619906968,6.396638025642458e-05,-0.006236868613755085,0.010432060430071808
9.797979797979798,7.898734177215189,0.010887885896026468,0.009975030746072295,7.908116530282995e-05,-0.00625887499262963,0.010462268520235261
9.8989898989899,7.898734177215189,0.011095211269400435,0.010106451803676718,-2.1653314373435295e-05,-0.0063604989219231455,0.010635425230094685
10.0,7.898734177215189,0.011216545802159167,0.01023649786571579,0.00010130540815686225,-0.006435913100362486,0.01076147896338594
0.0,8.0,0.011248499172950701,0.01013851406868871,6.15498773129561e-05,-0.0064161039724918234,0.010737155079930122
0.10101010101010101,8.0,0.011031665515273533,0.009918485160554668,2.802775002914259e-05,-0.00628504520274846,0.010519455208131755
0.20202020202020202,8.0,0.011009381472329514,0.009889631602615589,0.00012985476565274953,-0.006269703922483531,0.010496816349980266
0.30303030303030304,8.0,0.011084043031020065,0.009739649439133215,3.38095628957943e-05,-0.006247107741045984,0.01047690397397719
0.40404040404040403,8.0,0.010824450478420226,0.009889700016302991,-5.888903995697184e-05,-0.0062142451484169655,0.010389164078808891
0.5050505050505051,8.0,0.010534263433088494,0.009650617624785652,7.699397343168213e-05,-0.006055464317362243,0.010122290377274523
0.6060606060606061,8.0,0.010691407837734968,0.009528653047458807,4.9178540168606306e-05,-0.006066018265558133,0.01016041190914068
0.7070707070707071,8.0,0.010701737084427402,0.009475335567358812,-3.158407920391662e-05,-0.006053121795535864,0.010144437065300537
0.8080808080808081,8.0,0.010486239573802491,0.009387148810226604,3.3878805756017284e-05,-0.005962016515208729,0.009982351184264526
0.9090909090909091,8.0,0.010393526351691888,0.009219831834678555,3.308516777968605e-05,-0.005884007455911133,0.009859381716727855
1.0101010101010102,8.0,0.010154439917610572,0.00916730919641318,-1.2880435404510488e-06,-0.005796524734207126,0.009698624772566297
1.1111111111111112,8.0,0.010487500473444607,0.009426001731835982,-2.0664744006082258e-05,-0.005974050661584177,0.009999162879896033
1.2121212121212122,8.0,0.010238119833450117,0.009072046874208217,2.238033725332633e-05,-0.005793050012297499,0.009707828378045328
1.3131313131313131,8.0,0.010082172785615892,0.009040902168333078,-4.254453977507762e-06,-0.005736922486184692,0.00960396983536162
1.4141414141414141,8.0,0.009970529261049936,0.0089077288995754,0.00010108762594107233,-0.0056634774481876,0.00948551381715415
1.5151515151515151,8.0,0.009935381686928117,0.009035856323878922,8.844031117163676e-05,-0.005691371403242111,0.009518786287687599
1.6161616161616161,8.0,0.009841992761040155,0.008956536452087861,-0.00012093519991628773,-0.005639558763938405,0.009432819078527947
1.7171717171717171,8.0,0.009754345879115653,0.008831493644497215,-3.2919289665417386e-06,-0.00557575185708386,0.009327225332057048
1.8181818181818181,8.0,0.009865700514652211,0.008665962825246384,-1.2342336761602028e-05,-0.005559499001969579,0.009323927360731699
1.9191919191919191,8.0,0.009638433130477906,0.008701103768402392,-1.5133897300839704e-05,-0.00550186106966409,0.009205665661463445
2.0202020202020203,8.0,0.00975746089140492,0.008576046541474267,1.2150201368602417e-05,-0.005500052229863756,0.009223698904436632
2.121212121212121,8.0,0.009459369428217512,0.008593783789106912,4.388151538976244e-06,-0.005415945965197328,0.009057652671285507
2.2222222222222223,8.0,0.009665607221905969,0.008647716402002117,-3.810989808735935e-05,-0.005493997087172425,0.009199233061643105
2.323232323232323,8.0,0.009571928656699948,0.008757742721493145,-2.605361195573791e-05,-0.005498901413457928,0.009192030441259538
2.4242424242424243,8.0,0.009507595990173647,0.008624248780279157,-2.094977042523658e-05,-0.005439553431135841,0.009098213675964808
2.525252525252525,8.0,0.009503872143175919,0.008688004767119398,-2.5452969802449067e-05,-0.005457563073088595,0.009123446148376953
2.6262626262626263,8.0,0.009318723821559871,0.00862296296965399,-2.7115230210439047e-05,-0.005382506037364159,0.00899117897207681
2.727272727272727,8.0,0.00956741084001901,0.008450256597490248,-8.778233416110702e-05,-0.005405300231252777,0.00906191080225041
2.8282828282828283,8.0,0.009297799584541359,0.008203370277175938,-1.7146192005206762e-05,-0.005250350958515189,0.008801815167309898
2.929292929292929,8.0,0.009235787033978511,0.00832475255007716,-2.84317230211692e-05,-0.005268161875216702,0.008815784172866385
3.0303030303030303,8.0,0.009412881596875476,0.008392238660214163,2.5427929321825056e-05,-0.005341536077126892,0.008946440665663758
3.131313131313131,8.0,0.009324671081481696,0.008390176312176919,9.849689361119571e-05,-0.005314454218097584,0.008895955250264022
3.2323232323232323,8.0,0.009320827225365704,0.008149119069283851,7.441255496676833e-05,-0.005240983888394867,0.008794659889487856
3.3333333333333335,8.0,0.009314591386997296,0.008518669857054238,-2.211200725668915e-05,-0.005349978373215459,0.008943315200953868
3.4343434343434343,8.0,0.009086042927035944,0.008286105749142094,-1.075647942335795e-06,-0.005211644602853411,0.008713656838222207
3.5353535353535355,8.0,0.00926931627784311,0.008344933321569117,1.2220341202608466e-05,-0.005284274879823668,0.00884345849400579
3.6363636363636362,8.0,0.009270856608175348,0.008159401547659907,-1.8806893079169593e-05,-0.005229077446750576,0.00876818311887396
3.7373737373737375,8.0,0.009290785164143469,0.008286567367746172,-0.0001675083907289473,-0.0052732057595668924,0.008836365074363235
3.8383838383838382,8.0,0.009130016223951598,0.008204193156847754,-1.093356201305095e-05,-0.0052002628142398056,0.008704132559099104
3.9393939393939394,8.0,0.009061895116572799,0.008076147339549292,3.081928938327124e-06,-0.005141412736836627,0.00861144165118413
4.040404040404041,8.0,0.009225460647911674,0.008261205375839084,1.5709742594389936e-05,-0.005245999807125226,0.008783163081537128
4.141414141414141,8.0,0.009252480784662075,0.0082794701124995,7.913755337945628e-06,-0.005259585269148472,0.008806394027852632
4.242424242424242,8.0,0.008977080798037742,0.00819402964460687,-5.898940126452418e-05,-0.005151333132793383,0.008612901632924087
4.343434343434343,8.0,0.009210386255492448,0.008139275917827194,-7.988653182318765e-05,-0.0052048986519958925,0.008725382396925068
4.444444444444445,8.0,0.0091501490320466,0.008450653079919072,2.9548734971172216e-05,-0.005280240633589701,0.008821374556702661
4.545454545454545,8.0,0.009244817805871238,0.00832585671010459,7.147513654975698e-05,-0.005271202354792747,0.008822179092700085
4.646464646464646,8.0,0.009057394051748529,0.008258930642963638,7.644305800321325e-05,-0.00519489740841365,0.008686740684393747
4.747474747474747,8.0,0.009116916726190947,0.008164760154308595,9.853670820727463e-06,-0.005184503064149863,0.0086801112802785
4.848484848484849,8.0,0.009039400618400284,0.008143220786615541,-2.157440597382284e-06,-0.0051547864215047475,0.008626296266002581
4.94949494949495,8.0,0.009050965215032573,0.007938581539959024,-4.594162363842559e-05,-0.005096864026497479,0.008549593833264044
5.05050505050505,8.0,0.00910374788130699,0.008244659394685754,5.5711820063521303e-05,-0.005204522182797823,0.008706586296878803
5.151515151515151,8.0,0.009032979314273283,0.008274668673147944,8.053313854416446e-05,-0.005192294396226368,0.008679827345325814
5.252525252525253,8.0,0.008931313659840236,0.008173007393495425,1.5606292768942427e-05,-0.005131296316000698,0.0085773802316442
5.353535353535354,8.0,0.009183291758088973,0.00814360957377857,9.36575495428034e-06,-0.005198070399560262,0.00871012886681048
5.454545454545454,8.0,0.0090276258897155,0.008163676849193816,3.7322470248431814e-05,-0.0051573908216727945,0.0086283954084191
5.555555555555555,8.0,0.00895420599186243,0.008355922781822935,-4.4469545673043586e-05,-0.00519303863210561,0.008670901294642383
5.656565656565657,8.0,0.009052378915829707,0.008267749862997923,3.2723493959994867e-06,-0.005196038633648289,0.008686684028817657
5.757575757575758,8.0,0.009198557906389005,0.008374953782983011,-4.1926636260257925e-05,-0.005272053506811605,0.008815956817990689
5.858585858585858,8.0,0.009242614228795942,0.008344968552717873,-1.0203413531007703e-05,-0.005276274834454145,0.008828103146935338
5.959595959595959,8.0,0.009080172461924373,0.00831326518124827,5.850405007994567e-05,-0.005218031292951794,0.008722631283977706
6.0606060606060606,8.0,0.009163947684291565,0.008098671936105388,5.676144172092633e-06,-0.005178785886119085,0.00868047896202863
6.161616161616162,8.0,0.009237183309793248,0.008102438542466445,4.5636441738786305e-06,-0.0052018865556779075,0.008725331984550303
6.262626262626262,8.0,0.00934332911444155,0.008259999096128623,2.5726591870290016e-05,-0.005280998463171052,0.008851637110799624
6.363636363636363,8.0,0.009254454570653397,0.008315087963799758,-1.6996506975584304e-05,-0.005270862760335946,0.008822407839008098
6.4646464646464645,8.0,0.009170617171634077,0.008325455963239138,-1.6879583668002302e-05,-0.005248821940461965,0.008778651470890856
6.565656565656566,8.0,0.009111677494718941,0.00825615748018011,-4.8221293711795964e-05,-0.005210350492469714,0.008715866834675182
6.666666666666667,8.0,0.00937908197392493,0.008472929619540473,-2.377760932684254e-05,-0.0053556034780396205,0.008960530658082649
6.767676767676767,8.0,0.009324707990387706,0.00828393220854519,2.0290333816721394e-05,-0.005282592059679869,0.008850406667371873
6.8686868686868685,8.0,0.00921331879849344,0.008417135822659488,-4.915313135687036e-06,-0.005289136386345878,0.008842156723124661
6.96969696969697,8.0,0.009388953055502565,0.008332234340447536,-1.4020387090923019e-05,-0.0053163562187850295,0.008907760730195799
7.070707070707071,8.0,0.009331892394337703,0.008340603001832918,3.379344049843175e-05,-0.005301748618851186,0.0088780454136341
7.171717171717171,8.0,0.009271529113731006,0.008406040694998519,-4.501876577496773e-05,-0.005303270942618858,0.008870851216521565
7.2727272727272725,8.0,0.009476563728487795,0.008501589567741084,-1.624109157870991e-05,-0.005393445988868663,0.009028688789931577
7.373737373737374,8.0,0.009522391697833593,0.00834015638202947,-1.929374097687578e-06,-0.0053587644239589186,0.00898976792805348
7.474747474747475,8.0,0.009434177618650138,0.008419305450862648,-1.312329372046776e-05,-0.005356044920853836,0.008969933401568342
7.575757575757575,8.0,0.009550769235012045,0.008508143398432498,-8.239260617622284e-05,-0.005417673790033363,0.00907561284303053
7.6767676767676765,8.0,0.009593450233919453,0.008414486513309135,-3.0502510319627793e-05,-0.0054023810241685755,0.009061826762487813
7.777777777777778,8.0,0.009471615817935878,0.008426518405275649,-6.613873014187008e-05,-0.005369440266963459,0.008995448661093013
7.878787878787879,8.0,0.009575274717077087,0.008672564153119155,-0.0001135930839299632,-0.005474351661058873,0.009159464001568121
7.979797979797979,8.0,0.009705343670069897,0.008494609341287493,4.877378186640615e-05,-0.005459985903407218,0.009160574068281203
8.080808080808081,8.0,0.009662834222086046,0.008684024158202842,2.376555714617793e-05,-0.005504057514086666,0.009212602746649983
8.181818181818182,8.0,0.009635050072845607,0.008806833364316343,4.970278195666877e-06,-0.005532565031148585,0.00924879978568454
8.282828282828282,8.0,0.009873230072257997,0.008974526481527804,1.934954133462059e-05,-0.00565432696613574,0.009456022213380053
8.383838383838384,8.0,0.009763111351497468,0.008896772891138546,-3.0372685094039553e-05,-0.005597965272790804,0.00936020802295901
8.484848484848484,8.0,0.009972504564957728,0.008844894203909196,1.3304377626327494e-05,-0.005645219630660077,0.009459269737711716
8.585858585858587,8.0,0.010032198359253718,0.009002046967473027,4.765388412781586e-05,-0.005710273598018023,0.009559202131193425
8.686868686868687,8.0,0.009836035758231335,0.00903411918475699,-2.8105360847682544e-05,-0.005661046482896497,0.009460727206199924
8.787878787878787,8.0,0.010215152745013523,0.008927487403418366,-3.954051482484535e-05,-0.005742792044529566,0.009636307375960254
8.88888888888889,8.0,0.010135425926759546,0.00914006742504651,3.631257276832903e-05,-0.005782648005541816,0.009676423446082872
8.98989898989899,8.0,0.010163675059784034,0.009432555628632057,5.2799302897704105e-05,-0.005878869206524827,0.009818978017824491
9.09090909090909,8.0,0.010312549484608146,0.009390089339781544,-4.8442609032886075e-05,-0.005910791647316907,0.009884014050945692
9.191919191919192,8.0,0.010413315115209551,0.009292883174730536,-3.871871457454383e-05,-0.005911859486982026,0.00990098914134939
9.292929292929292,8.0,0.010562965979476197,0.009480625045159185,2.2197595944478117e-05,-0.006013077307390615,0.010065607776686008
9.393939393939394,8.0,0.010630431118139782,0.009474404761519133,-1.1025244321525329e-05,-0.006031450763897675,0.010102166540299332
9.494949494949495,8.0,0.01085116473266283,0.009583656250447667,3.0174922005369777e-05,-0.0061304462949331485,0.010276338941717662
9.595959595959595,8.0,0.010766697687002072,0.009881163649263286,-1.553098331931973e-05,-0.006194358400879608,0.010352410152893602
9.696969696969697,8.0,0.011090982504282965,0.009871011670708262,1.2306445795960817e-05,-0.006288598252497368,0.010534135034258657
9.797979797979798,8.0,0.011099856720766223,0.009888030212492509,9.42092314026708e-05,-0.0062963660799776194,0.010547552712988626
9.8989898989899,8.0,0.01116164705910542,0.01017349089899928,3.3928602882374616e-05,-0.00640054138743141,0.010702000785866512
10.0,8.0,0.01138887066965943,0.010191540258457482,1.6526988027257473e-05,-0.006474123278435073,0.010839951728019295
