x_mm,y_mm,E_xx,E_yy,E_xy,E_zz,von_mises
0.0,0.0,0.01881822777599059,0.016743478499384783,-1.826470019382503e-06,-0.010668511882612612,0.017871406960073916
0.10101010101010101,0.0,0.01831987635309434,0.0167329488809095,-2.9502774127213832e-05,-0.010515847570201152,0.017580287385703598
0.20202020202020202,0.0,0.018400418159251593,0.01633938354229001,-5.795789496926258e-05,-0.01042194051046248,0.01746165601217741
0.30303030303030304,0.0,0.018186961336370273,0.016343443346801295,-2.853566081673575e-05,-0.01035912140495147,0.01733893231087521
0.40404040404040403,0.0,0.017990011651794733,0.01619357098820718,-2.6008464535623634e-06,-0.010255074792000574,0.017162451751221622
0.5050505050505051,0.0,0.017683675633290385,0.0158818302505441,-0.00010967775991610713,-0.010069651765150347,0.01685621158594023
0.6060606060606061,0.0,0.017535876146022936,0.01581810484672794,4.7414000850309756e-05,-0.010006194297825262,0.016743410941505846
0.7070707070707071,0.0,0.017532305672339956,0.015555468029533054,3.277164986115976e-05,-0.009926332110561903,0.01663232784005917
0.8080808080808081,0.0,0.017062352708569976,0.015445948650228008,3.37513426716075e-05,-0.009752490407639394,0.016314423168713975
0.9090909090909091,0.0,0.016966855893066898,0.015498584632169365,-8.376587001890124e-05,-0.009739632157570878,0.016283093153913863
1.0101010101010102,0.0,0.017081919268661365,0.015154936389231825,5.27959792354242e-05,-0.009671056697367958,0.016204845731645868
1.1111111111111112,0.0,0.016837125977940237,0.01534926351300631,8.181222259561101e-06,-0.009655916847283962,0.016144702504191307
1.2121212121212122,0.0,0.016687944600360435,0.015074964578048123,9.655690495926541e-06,-0.009528872753522566,0.015942777611831587
1.3131313131313131,0.0,0.016539839898979482,0.014993826349305526,4.9726493699907214e-05,-0.009460099874485501,0.01582381317378703
1.4141414141414141,0.0,0.016581169140198162,0.014863342196365054,2.2799439592389758e-05,-0.009433353400968965,0.015792532406136435
1.5151515151515151,0.0,0.016553426926040192,0.014676292014786466,1.445101575027872e-05,-0.009368915682247996,0.015699273530409334
1.6161616161616161,0.0,0.01644433694856911,0.014774186291637275,0.000124519604348425,-0.009365556972061914,0.015677615129000497
1.7171717171717171,0.0,0.016222718041506684,0.014534090099335066,-5.0265164600340865e-05,-0.009227042442252526,0.01544802543235757
1.8181818181818181,0.0,0.016087706530471188,0.014519385579885101,-1.720907056630897e-05,-0.009182127633106886,0.015363727844254571
1.9191919191919191,0.0,0.015873295717702837,0.014350369321545667,-5.146741989684476e-05,-0.00906709951177455,0.015169538799620434
2.0202020202020203,0.0,0.01600884960658248,0.014219314108277745,-1.3305108539252878e-05,-0.009068449114458067,0.01519334819733976
2.121212121212121,0.0,0.015785990653268408,0.014145772176936654,-1.9956861020901726e-05,-0.008979528849061518,0.015033181261708774
2.2222222222222223,0.0,0.015880556218232124,0.014220912837609812,5.572067371351237e-06,-0.00903044071675258,0.015119210134358518
2.323232323232323,0.0,0.015868965749570547,0.014196343151227473,-1.1797431244315606e-05,-0.009019592670239406,0.015102296750184025
2.4242424242424243,0.0,0.015708069190148694,0.014137393632360185,-2.489353163445313e-05,-0.008953638846752663,0.01498466009347784
2.525252525252525,0.0,0.01580562664173188,0.014016827817727914,6.187679743453804e-05,-0.008946736337837938,0.014991865615572635
2.6262626262626263,0.0,0.01571910455401672,0.014052439314448866,-2.4164546615640698e-05,-0.008931463160539676,0.014955644005509089
2.727272727272727,0.0,0.015613476678285346,0.014134557767458259,-4.928840774677144e-05,-0.008924410333723081,0.014929302637641957
2.8282828282828283,0.0,0.015447012971890845,0.013971323366631101,-5.013563001754157e-05,-0.008825500901556583,0.014764837074417576
2.929292929292929,0.0,0.015319208221517177,0.013942546800037058,-2.9712979060800243e-06,-0.00877852650646627,0.01467937330825949
3.0303030303030303,0.0,0.015401603987062511,0.014001235085356006,1.4714653625697622e-05,-0.008820851721725554,0.014751378265720774
3.131313131313131,0.0,0.015459422623447691,0.013987510051411885,-6.36545683317626e-05,-0.008834079802457873,0.014778955026199397
3.2323232323232323,0.0,0.015361236326986452,0.013775289555120735,-1.0601240446975936e-07,-0.008740957764632157,0.014632863886669106
3.3333333333333335,0.0,0.015246679559544295,0.013914848716109329,3.440952842556966e-05,-0.008748458482696087,0.014626433773702985
3.4343434343434343,0.0,0.01537714586149094,0.013623724702491562,-7.133602732415578e-05,-0.00870026116919475,0.014580252198580787
3.5353535353535355,0.0,0.01526359187914667,0.01367713537901691,-3.0452730413744694e-05,-0.008682218177449073,0.014535537101680318
3.6363636363636362,0.0,0.015186052082871982,0.0135731470816447,1.9100785431006804e-05,-0.008627759749355006,0.014447320705699533
3.7373737373737375,0.0,0.015258502663969253,0.013702264628797175,3.798141550337426e-05,-0.008688230187829929,0.014543116788597984
3.8383838383838382,0.0,0.01504048658618861,0.01361327532792398,-2.9586351587070067e-05,-0.008596128574233777,0.014380189254528294
3.9393939393939394,0.0,0.015036024410826934,0.013604034249061947,3.278273700583603e-05,-0.008592017597966664,0.014373740327470425
4.040404040404041,0.0,0.015063968515350894,0.013610209984523865,-6.135501310541967e-05,-0.008602253549962429,0.0143926537467221
4.141414141414141,0.0,0.014966966917867763,0.013462372127711538,2.4006422673525832e-05,-0.008528801713673791,0.014274327048202223
4.242424242424242,0.0,0.015171966558207309,0.013724329823158502,-7.402461677874158e-06,-0.008668888914409742,0.014502444263528388
4.343434343434343,0.0,0.01499005945896767,0.013559149242092403,4.765416874112651e-05,-0.00856476261031802,0.01432852993716155
4.444444444444445,0.0,0.015134819793428919,0.013487437636613512,-3.03585436763284e-05,-0.008586677229012728,0.014382161555182604
4.545454545454545,0.0,0.014981018357780963,0.013506304300763152,5.346888994870354e-06,-0.008546196797563235,0.014300806270736642
4.646464646464646,0.0,0.015026539994682096,0.01352781161568847,2.6641184405811056e-08,-0.008566305483111169,0.014336052073001057
4.747474747474747,0.0,0.014973188123026936,0.013470277638153817,-4.2194253719249464e-05,-0.008533039728354225,0.014281354352307154
4.848484848484849,0.0,0.015252707797006932,0.013532368393701552,-9.9318010705144e-06,-0.008635522857212545,0.014469454878991277
4.94949494949495,0.0,0.015167324062495748,0.013476808757886304,-2.9421230743071166e-06,-0.008593239846114615,0.014396700792977732
5.05050505050505,0.0,0.015068432461241642,0.013435270210769156,-4.848365184042049e-05,-0.00855111080160324,0.014322106433739505
5.151515151515151,0.0,0.014946496126903437,0.01360321778217434,1.1128264635525137e-05,-0.008564914172723332,0.014322192922905777
5.252525252525253,0.0,0.015115417510993484,0.013396599868526161,6.496313951390602e-05,-0.008553605213855894,0.014333952523886662
5.353535353535354,0.0,0.014908723753078473,0.01353625387029496,-1.4944323160319344e-05,-0.00853349328701203,0.014272092109473609
5.454545454545454,0.0,0.015104382022429643,0.01343764306286915,2.7780125436385517e-06,-0.008562607525589638,0.014343825717499675
5.555555555555555,0.0,0.015123969910051684,0.013590620170009816,3.418441109501762e-05,-0.00861437702401845,0.014418696115021713
5.656565656565657,0.0,0.015271157584425373,0.013484721897223304,0.00012995191443567356,-0.008626763844494604,0.014462687441805351
5.757575757575758,0.0,0.015248346451891869,0.013644517607775698,6.972793359994234e-05,-0.008667859217900269,0.014513551755779633
5.858585858585858,0.0,0.015033343505808452,0.01363318264920028,-5.952181135845225e-05,-0.00859995784650262,0.014384832178559308
5.959595959595959,0.0,0.015164508098824105,0.013590366678754507,1.3285321358334234e-05,-0.008626462433273583,0.014441941568765312
6.0606060606060606,0.0,0.015078036105444632,0.01366774242740636,-1.794129150630561e-05,-0.008623733559855297,0.014424722102296736
6.161616161616162,0.0,0.015088358654017291,0.013552744255202672,-5.3170036081718e-05,-0.008592330872765988,0.01438246358621248
6.262626262626262,0.0,0.01509002814566393,0.013583497273735465,-5.003237118180637e-05,-0.008602057625819818,0.01439626691749598
6.363636363636363,0.0,0.015486433049031419,0.013579092498788086,7.508795684734827e-05,-0.008719657664345851,0.014626912504950575
6.4646464646464645,0.0,0.015298215185227705,0.013642371701338779,8.607839142367601e-05,-0.008682176065969945,0.014541938799055966
6.565656565656566,0.0,0.015192668444360513,0.013579620879456276,-6.712446589221195e-05,-0.008631686797145037,0.014454276777137691
6.666666666666667,0.0,0.015488260148881916,0.013666048968966128,4.686204013472243e-05,-0.008746292735354412,0.014662549688759241
6.767676767676767,0.0,0.015300452020934219,0.013832640780863784,-0.00010646216313414522,-0.0087399278405394,0.014623068385377915
6.8686868686868685,0.0,0.015332004041706952,0.013703088981141488,-1.3739472263252278e-05,-0.008710527906854532,0.014585943446913625
6.96969696969697,0.0,0.015256008539544463,0.013838343536772501,1.2613579115371219e-05,-0.008728305622895088,0.014598908813242512
7.070707070707071,0.0,0.01562303397170064,0.013982752777472126,-5.797059304900072e-07,-0.00888173602475183,0.014870895906590667
7.171717171717171,0.0,0.015689666712939285,0.013935451443424613,6.7373464431184125e-06,-0.00888753544690917,0.014890265143005031
7.2727272727272725,0.0,0.015469616008382628,0.013951680291340541,-4.607836090048118e-05,-0.00882638888991695,0.014769483243020387
7.373737373737374,0.0,0.015696448018353886,0.014003748640710165,-4.930024993485124e-05,-0.008910058997719215,0.014922521078155908
7.474747474747475,0.0,0.015728697450816845,0.014183361035990457,-9.510322503016112e-05,-0.00897361754604219,0.015016690483459393
7.575757575757575,0.0,0.015679298219795614,0.014184580916299426,5.179259162717543e-05,-0.008959163740828512,0.014988212086319494
7.6767676767676765,0.0,0.015850715858468527,0.014247107838730618,-6.241466032992136e-05,-0.009029347109159744,0.015113242656925704
7.777777777777778,0.0,0.015856409600834193,0.0143836858123523,3.841439322068367e-05,-0.009072028623955947,0.015173890607367168
7.878787878787879,0.0,0.015911009116409133,0.014185064955619022,9.970245402478138e-06,-0.009028822221608446,0.01512209903714612
7.979797979797979,0.0,0.01581867941662987,0.014354313938866988,-4.156289585448051e-05,-0.009051898006649057,0.015139875796055847
8.080808080808081,0.0,0.016009997881575564,0.014422404220617729,3.9259880383626973e-05,-0.009129720630657987,0.015278342143905962
8.181818181818182,0.0,0.016063881697693887,0.014393458231610657,-6.042948930307366e-05,-0.009137201978791363,0.015297584122300674
8.282828282828282,0.0,0.016291059252821052,0.014403925809465229,-9.416235672000479e-06,-0.009208495518685885,0.01543427184757192
8.383838383838384,0.0,0.01636735383892918,0.014786892786970124,1.2378620663668165e-05,-0.009346273987769792,0.015637155216028195
8.484848484848484,0.0,0.016285757862222784,0.01490580480270304,1.8966827383981218e-05,-0.009357468799477747,0.015641536926609228
8.585858585858587,0.0,0.016570468906299145,0.014835541987169092,9.925169521128821e-06,-0.00942180326804047,0.01577473150795832
8.686868686868687,0.0,0.01672195068448019,0.01468811414663828,7.960646238723886e-05,-0.00942301944933554,0.01580409513503773
8.787878787878787,0.0,0.016758889968275747,0.015201414501222704,1.162015551180005e-06,-0.009588091340849534,0.0160369749912337
8.88888888888889,0.0,0.01692281627828446,0.015247902427725318,-1.5185858881417289e-05,-0.009651215611802934,0.01615064951174806
8.98989898989899,0.0,0.01703607121760402,0.015229271313179913,-3.8476494020548837e-05,-0.009679602759235179,0.016208513747409115
9.09090909090909,0.0,0.01711507019462958,0.015517823177812048,7.503737680576077e-05,-0.009789868011732488,0.016375491528885146
9.191919191919192,0.0,0.017129275960514164,0.015605111994714848,5.2959299803790205e-05,-0.009820316386568703,0.01642058950248585
9.292929292929292,0.0,0.01743414074547035,0.01557466034479221,-3.007910053038024e-07,-0.009902640327078768,0.016582776852684684
9.393939393939394,0.0,0.01735848236041992,0.015638281403411256,9.456274517182055e-05,-0.009899029129149353,0.016566313698563536
9.494949494949495,0.0,0.017659250035282487,0.016045387958972642,1.9066806488450594e-05,-0.01011139139827654,0.016910208730565358
9.595959595959595,0.0,0.017845996296422133,0.0160087496362985,1.8879936899480123e-05,-0.010156423779816189,0.01700201844975824
9.696969696969697,0.0,0.018100960879211234,0.01613567347216316,1.2075525973807216e-05,-0.010270990305412316,0.017202731943695343
9.797979797979798,0.0,0.01837792689148712,0.01642208188894321,0.00016874867427822004,-0.010440002634129097,0.017484695547255062
9.8989898989899,0.0,0.018458094865867025,0.016640119987951424,1.367098389552961e-05,-0.010529464456145535,0.01761960574647321
10.0,0.0,0.018746580524677394,0.016858851308664942,-2.7602300006744064e-05,-0.0106816295500027,0.017877684997374077
0.0,0.10126582278481013,0.018600955754592023,0.016788422359291278,3.4957665710226084e-05,-0.010616813434164991,0.01776428002815866
0.10101010101010101,0.10126582278481013,0.01838983410736098,0.016589607402084268,-4.351178642023667e-05,-0.010493832452833574,0.017559231875217133
0.20202020202020202,0.10126582278481013,0.01824746185787763,0.016509133795719784,-1.4932444606865854e-05,-0.010426978696079224,0.017443401119890196
0.30303030303030304,0.10126582278481013,0.018219931045711468,0.016267470016512495,0.00010644096212661349,-0.010346220318667188,0.0173273851199433
0.40404040404040403,0.10126582278481013,0.018090608026796667,0.016073509436116594,-7.578056717364565e-05,-0.010249235238873977,0.017171647376748974
0.5050505050505051,0.10126582278481013,0.01799153574173734,0.01594077800433132,-0.00012462171227790438,-0.010179694123820597,0.01706022497586334
0.6060606060606061,0.10126582278481013,0.017635541820116042,0.0158219562641328,-1.1429231368190547e-05,-0.010037249425274654,0.01680232888093258
0.7070707070707071,0.10126582278481013,0.017529180520582763,0.01583872936795047,-4.8619631701990674e-05,-0.01001037296655997,0.01674827343377985
0.8080808080808081,0.10126582278481013,0.017319364298368525,0.015407214240527352,3.3178008888755935e-05,-0.009817973561668763,0.016446968609419427
0.9090909090909091,0.10126582278481013,0.01691585276230233,0.015469883584310277,1.724084746073779e-05,-0.009715720903983783,0.016241243535096594
1.0101010101010102,0.10126582278481013,0.016949573416022382,0.015496635577719279,-2.639402707407888e-05,-0.009733862698122498,0.01627189235220863
1.1111111111111112,0.10126582278481013,0.016806481238945112,0.015213396472669637,-5.142711904597956e-05,-0.009605963313484425,0.016069521328179476
1.2121212121212122,0.10126582278481013,0.016851287033854825,0.015056440792643146,2.4031212871392443e-06,-0.009572318347949391,0.016029407221093292
1.3131313131313131,0.10126582278481013,0.016488206010027262,0.015027629016535813,-2.8568270092272388e-05,-0.009454750507968923,0.01580868042117971
1.4141414141414141,0.10126582278481013,0.016264412477467783,0.0147757785098724,1.2928668187527033e-05,-0.009312057296202055,0.015573563782934563
1.5151515151515151,0.10126582278481013,0.016312828298664872,0.014735031094772312,-1.1511310051470757e-05,-0.009314357818031154,0.015583962069124048
1.6161616161616161,0.10126582278481013,0.01632978906037592,0.014442517728571856,-6.410462069609989e-05,-0.009231692036684332,0.015473118279627777
1.7171717171717171,0.10126582278481013,0.016213577382460022,0.014564158382463449,-3.4505416883927155e-05,-0.009233320729477041,0.015455137134733149
1.8181818181818181,0.10126582278481013,0.01617721514105641,0.0146024334242884,6.0204900011211494e-05,-0.009233894569603444,0.01545048602578862
1.9191919191919191,0.10126582278481013,0.01600514032876062,0.01465967482131739,5.6752109142016186e-05,-0.009199444545023402,0.015376933781693254
2.0202020202020203,0.10126582278481013,0.01612812319750307,0.014471743034859217,-3.118432749331065e-05,-0.009179959869708685,0.01536712618477704
2.121212121212121,0.10126582278481013,0.01591002230077047,0.014371462859950595,2.3577101389916934e-05,-0.00908444554821632,0.015199313385432062
2.2222222222222223,0.10126582278481013,0.01583554010813408,0.014123480701570122,3.866949057783437e-05,-0.00898770624291126,0.015052859479722786
2.323232323232323,0.10126582278481013,0.015905986445777183,0.014138811920569875,9.869058615898126e-06,-0.009013439509904117,0.01510016386551725
2.4242424242424243,0.10126582278481013,0.015740300691456623,0.014082359552809915,8.238006814437506e-06,-0.00894679807327996,0.014980305277928105
2.525252525252525,0.10126582278481013,0.015670039350311752,0.014297929518975752,-6.348178229889435e-05,-0.008990390660786251,0.015031430184438022
2.6262626262626263,0.10126582278481013,0.01574806246121158,0.014019965586959053,-4.85700759638806e-05,-0.00893040841445119,0.014959301111051504
2.727272727272727,0.10126582278481013,0.015616113591112203,0.014083336656567812,9.098199376730816e-05,-0.008909835074304005,0.014909769390284957
2.8282828282828283,0.10126582278481013,0.015484084026122912,0.013995496918918956,-3.524386933168372e-05,-0.00884387428351256,0.01479618424616954
2.929292929292929,0.10126582278481013,0.015465555228173108,0.013868859532186863,4.465071658572764e-05,-0.008800324428107992,0.014732448243651388
3.0303030303030303,0.10126582278481013,0.01550967618801928,0.014028454422752128,-6.195235856820541e-05,-0.008861439183231422,0.014825057089851967
3.131313131313131,0.10126582278481013,0.01537126609027996,0.01389816626548034,2.0312736033032992e-05,-0.00878082970672809,0.014690257749583937
3.2323232323232323,0.10126582278481013,0.015283367891260126,0.013762450686413508,0.00010267450900552676,-0.00871374557330209,0.014583600797957275
3.3333333333333335,0.10126582278481013,0.015252190429073225,0.013642365661709812,-2.095944286414816e-05,-0.008668366827234911,0.014514434630801154
3.4343434343434343,0.10126582278481013,0.015236130304271409,0.013622519767861678,7.40318740285233e-05,-0.008657595021639927,0.014497402090512031
3.5353535353535355,0.10126582278481013,0.015190248617995096,0.013778366623445793,-7.873355780186882e-05,-0.008690584572432268,0.014536465259681672
3.6363636363636362,0.10126582278481013,0.015296391067641175,0.013761219267214119,4.652631269708535e-05,-0.008717283100456589,0.014589730567389231
3.7373737373737375,0.10126582278481013,0.015034821842468786,0.013621204025514927,-4.884940260191454e-05,-0.008596807760395115,0.014380467653325766
3.8383838383838382,0.10126582278481013,0.015136975470320923,0.013888409489094868,-0.0001177935273428958,-0.008707615487824737,0.014554348378162729
3.9393939393939394,0.10126582278481013,0.015179489889589863,0.013650593805580194,5.10942277158734e-05,-0.008649025108551017,0.014475994119739075
4.040404040404041,0.10126582278481013,0.015130062444055573,0.013482311814149852,9.771598203391688e-07,-0.008583712277461627,0.014377179996132555
4.141414141414141,0.10126582278481013,0.015175758433553265,0.013575230793169732,-4.8843556828852626e-05,-0.0086252967680169,0.014442412160149713
4.242424242424242,0.10126582278481013,0.015198158104275153,0.013712057197626627,-4.8820472017074485e-05,-0.008673064590570533,0.014512534563080255
4.343434343434343,0.10126582278481013,0.015140106766757535,0.013623278124540616,-4.283795546563374e-06,-0.008629015467389445,0.014441561878873759
4.444444444444445,0.10126582278481013,0.01529839162079534,0.013487448820414449,1.1876752210328052e-05,-0.008635752132362937,0.014478128712582817
4.545454545454545,0.10126582278481013,0.015047039372529006,0.013556690062996715,-3.9087565283557926e-05,-0.008581118830657717,0.014360145323665325
4.646464646464646,0.10126582278481013,0.015023167234360783,0.013558966816956003,8.707607560169095e-07,-0.008574640215395035,0.014347212661464239
4.747474747474747,0.10126582278481013,0.01509045438772396,0.013396712765187854,-1.783535719367724e-05,-0.008546150145873545,0.01431894541900054
4.848484848484849,0.10126582278481013,0.015038542972200909,0.013638518799366815,1.9003642349776208e-05,-0.008603118531470317,0.014389739474404506
4.94949494949495,0.10126582278481013,0.015127751923323506,0.013691278976775504,4.500054500249465e-06,-0.008645709270029703,0.014463118168338049
5.05050505050505,0.10126582278481013,0.015132404501894459,0.013445842195247472,-1.5253876963136813e-05,-0.008573474009142578,0.014363603775641227
5.151515151515151,0.10126582278481013,0.01518941673612208,0.013656555904294343,-5.0196464477463624e-05,-0.008653791792124927,0.014484210030076375
5.252525252525253,0.10126582278481013,0.015217335339591397,0.01338990193809834,5.591433290234728e-05,-0.008582171183306921,0.01439123066422922
5.353535353535354,0.10126582278481013,0.014986734779462333,0.01353259788798627,1.3622949941801426e-05,-0.008555799800234581,0.014315185163937257
5.454545454545454,0.10126582278481013,0.015188030527720352,0.013619922777316813,-4.068974793922205e-05,-0.00864238599151115,0.014468024461228949
5.555555555555555,0.10126582278481013,0.015036718798263089,0.013510248213807478,2.938178877198326e-05,-0.008564090103621169,0.014334660986556388
5.656565656565657,0.10126582278481013,0.015055686944233215,0.013697982025443318,2.498287087798632e-05,-0.00862610069090296,0.014424900839202549
5.757575757575758,0.10126582278481013,0.015084081785180958,0.013787193835962887,-6.768689915867735e-05,-0.008661382686343153,0.0144797383371243
5.858585858585858,0.10126582278481013,0.015221874828935002,0.01369788886575753,7.02071463798255e-05,-0.008675929108407759,0.014520498272490306
5.959595959595959,0.10126582278481013,0.015051766541887694,0.013643378063781622,-2.1618968178382408e-05,-0.008608543381700794,0.014399371573210062
6.0606060606060606,0.10126582278481013,0.015149495326995445,0.013639410410963296,3.4814837662025665e-06,-0.008636671721387622,0.01445373920823525
6.161616161616162,0.10126582278481013,0.015127824699883812,0.01361996611569074,-2.3785642766370457e-05,-0.008624337244672367,0.014433149157299565
6.262626262626262,0.10126582278481013,0.015187888979013681,0.0137358982774801,-5.166622750761505e-05,-0.008677136176948133,0.014516734593562274
6.363636363636363,0.10126582278481013,0.015236962281127198,0.013800420606128648,-1.6248070810806794e-05,-0.008711214866176754,0.014571922735956831
6.4646464646464645,0.10126582278481013,0.015267390740683872,0.013732361168554502,4.864374028353369e-06,-0.008699925572771513,0.014560690592352807
6.565656565656566,0.10126582278481013,0.01539649175058522,0.013531124717156697,5.579556854750558e-05,-0.008678284940322575,0.014554064163993968
6.666666666666667,0.10126582278481013,0.015292768611604756,0.013920814422319116,4.4572061734100924e-05,-0.008764074910177161,0.014655238385955265
6.767676767676767,0.10126582278481013,0.015409058898440093,0.013806960122138612,6.461740000096988e-05,-0.008764805706173611,0.014674178288566037
6.8686868686868685,0.10126582278481013,0.015391090565231675,0.013976068932245298,7.763510191082717e-05,-0.008810147849243092,0.014735240430039603
6.96969696969697,0.10126582278481013,0.015304187538285722,0.013770223340935382,8.147639946173541e-05,-0.00872232326376633,0.014598460255229484
7.070707070707071,0.10126582278481013,0.01538357936438144,0.014039191537712064,-2.0675153032691e-05,-0.008826831270628051,0.014757427900772594
7.171717171717171,0.10126582278481013,0.01543269765290478,0.013907013641628267,3.9732018805374506e-05,-0.008801913388359913,0.01472939864313174
7.2727272727272725,0.10126582278481013,0.015551243895035849,0.013959011463323746,3.938207332997738e-05,-0.008853076607507879,0.014819576537790948
7.373737373737374,0.10126582278481013,0.015725673173662285,0.014046317434494417,2.936308960247165e-05,-0.00893159718244701,0.014956958900128822
7.474747474747475,0.10126582278481013,0.015748956467305175,0.014024211766825207,8.480063740275088e-05,-0.008931950470239114,0.01496205261086007
7.575757575757575,0.10126582278481013,0.01587871162914918,0.014239542720353274,8.281847357822017e-06,-0.009035476304850736,0.015125894124513442
7.6767676767676765,0.10126582278481013,0.01565187677703077,0.01435319408034992,3.5902028067080896e-05,-0.009001521257214207,0.015044762168806814
7.777777777777778,0.10126582278481013,0.01576755315329473,0.014057967001365697,1.67481558875671e-05,-0.008947656046398128,0.014986102503130738
7.878787878787879,0.10126582278481013,0.015901418996131934,0.014191354447340453,-8.620585751050698e-06,-0.009027832033041716,0.015119101061052218
7.979797979797979,0.10126582278481013,0.016015017127195136,0.014303337489915746,-5.1576437139590614e-05,-0.009095506385133264,0.015231743906865488
8.080808080808081,0.10126582278481013,0.015935089141297307,0.014346896182324148,-2.9046241833261095e-05,-0.009084595597086435,0.015203419269812274
8.181818181818182,0.10126582278481013,0.016162127711137578,0.014754155358256948,-9.574365195584534e-05,-0.009274884920818358,0.015507044523611175
8.282828282828282,0.10126582278481013,0.01624712141089569,0.014563134520631195,-1.6599100898817616e-05,-0.009243076779458065,0.015474031572829875
8.383838383838384,0.10126582278481013,0.016162002401290197,0.014701932808625794,-4.464901642714211e-05,-0.009259180562974796,0.015483877330179422
8.484848484848484,0.10126582278481013,0.01640600539174575,0.014739632090631453,1.442535711909159e-05,-0.00934369124471316,0.01563956226378152
8.585858585858587,0.10126582278481013,0.016614945859791674,0.014874258381486425,-2.849374376589915e-05,-0.00944676127238343,0.015816681898880674
8.686868686868687,0.10126582278481013,0.016754670432216488,0.014953682752495404,3.841669888281442e-05,-0.009512505955413567,0.015930850900587414
8.787878787878787,0.10126582278481013,0.016771647950316076,0.015021840402834743,-3.0057121954598188e-05,-0.009538046505945247,0.015968893372652403
8.88888888888889,0.10126582278481013,0.01700099882654529,0.015353328157298183,2.242342924800681e-05,-0.009706298095153042,0.016240019736768366
8.98989898989899,0.10126582278481013,0.01712077414727355,0.015393290828558991,-5.00719332337564e-06,-0.009754219492749763,0.016325726001971484
9.09090909090909,0.10126582278481013,0.01705144776279383,0.015428537591265898,1.230203430485345e-05,-0.009743995606217918,0.016300711464189665
9.191919191919192,0.10126582278481013,0.017041897420607292,0.015406406505842305,-8.686382559695259e-05,-0.009734491177934878,0.016286554755306975
9.292929292929292,0.10126582278481013,0.017448297162374646,0.015579155893555102,-3.560245823045744e-05,-0.009908235916778923,0.01659298747235139
9.393939393939394,0.10126582278481013,0.017473330854075955,0.015853523050927385,5.838920693872146e-05,-0.009998056171501,0.016722674986053388
9.494949494949495,0.10126582278481013,0.017791905789107432,0.016033632929479232,5.400836469855075e-05,-0.010147661615575999,0.01698143576667481
9.595959595959595,0.10126582278481013,0.017792029257426234,0.01623085371463917,-6.401096845294226e-05,-0.010206864891619621,0.017065444191450414
9.696969696969697,0.10126582278481013,0.017943327382753397,0.01630725076258415,2.467481444436093e-05,-0.010275173443601265,0.01718385615606027
9.797979797979798,0.10126582278481013,0.01824327667435351,0.01627833221776364,-1.5585817473285676e-05,-0.010356482667635145,0.017344505006379022
9.8989898989899,0.10126582278481013,0.018548499970369326,0.01696950238918424,8.944543154844643e-05,-0.01065540070786607,0.017812244366727882
10.0,0.10126582278481013,0.018657202302682144,0.01679818654170216,4.12216516364659e-05,-0.01063661665331529,0.017800792170574675
0.0,0.20253164556962025,0.01858566344612289,0.016865199371062616,-3.995288521074055e-05,-0.010635258845155652,0.01778807760256898
0.10101010101010101,0.20253164556962025,0.018373940995216845,0.01680923984128925,2.0195714405062867e-05,-0.010554954250951829,0.017643738105062663
0.20202020202020202,0.20253164556962025,0.018289362262989092,0.01639062237169622,-5.650318679869069e-05,-0.010403995390405594,0.017418060204194605
0.30303030303030304,0.20253164556962025,0.0180730356226972,0.016289317511306425,3.803621033229194e-05,-0.010308705940201087,0.017250605966517788
0.40404040404040403,0.20253164556962025,0.0178584048931627,0.016145225969936082,-5.8747062294682384e-05,-0.010201089258929633,0.01706673132552618
0.5050505050505051,0.20253164556962025,0.017806170634972873,0.016016117550678027,9.139900693525873e-06,-0.01014668645569527,0.016982057080198038
0.6060606060606061,0.20253164556962025,0.017647100760072976,0.015874685651349044,2.409936073925709e-05,-0.010056535923426606,0.01683108359194494
0.7070707070707071,0.20253164556962025,0.017381193289674742,0.01556376443541095,2.6914512108953364e-05,-0.009883487317525707,0.016547568364567646
0.8080808080808081,0.20253164556962025,0.017373569392835606,0.01550303204301175,9.110468408498222e-05,-0.009862980430754207,0.01651868073322114
0.9090909090909091,0.20253164556962025,0.017165243638003154,0.015375686194648474,4.381373301132649e-05,-0.009762278949795486,0.016344285680484478
1.0101010101010102,0.20253164556962025,0.01703760422097547,0.015433979399958568,-1.2848107768194784e-05,-0.009741475086280212,0.016295095592213742
1.1111111111111112,0.20253164556962025,0.016678813778003676,0.015225291216619778,2.6104725765447617e-05,-0.009571231498387036,0.016001705194273835
1.2121212121212122,0.20253164556962025,0.01641282039371141,0.015057897653195774,-1.4394696035220487e-05,-0.009441215414072154,0.01577906863358478
1.3131313131313131,0.20253164556962025,0.01645149304559442,0.015012450112014903,4.999301890514301e-05,-0.009439182947282796,0.015781494260229265
1.4141414141414141,0.20253164556962025,0.016458423420454785,0.015001512349215608,5.2953985970343814e-05,-0.009437980730901118,0.01578075550897236
1.5151515151515151,0.20253164556962025,0.01656018170779514,0.014937294065777226,-4.638078466083595e-06,-0.009449242732071709,0.015811329254239535
1.6161616161616161,0.20253164556962025,0.016546072252987584,0.014668865693392366,-7.191852025461086e-05,-0.009364481383913985,0.015692403669301115
1.7171717171717171,0.20253164556962025,0.01624555217596936,0.01456758427805336,3.3433520161693235e-05,-0.009243940936206816,0.015475056708593822
1.8181818181818181,0.20253164556962025,0.016186652025432225,0.014593786777067658,-1.0419268837211986e-05,-0.009234131640749965,0.015451928477594148
1.9191919191919191,0.20253164556962025,0.01614861669789244,0.014464271936657032,9.178442809825536e-05,-0.009183866590364841,0.015376614508323406
2.0202020202020203,0.20253164556962025,0.016144701656890845,0.014381829982928071,8.230345531755712e-06,-0.009157959491945674,0.015339435260436554
2.121212121212121,0.20253164556962025,0.015909312122292466,0.014434302573725586,-5.016076088130568e-05,-0.009103084408805416,0.015225735659966315
2.2222222222222223,0.20253164556962025,0.015824088169625435,0.014127389141640422,3.282680464511886e-05,-0.008985443193379758,0.01504775969281813
2.323232323232323,0.20253164556962025,0.01609534240572726,0.014047148509584042,-4.608420260121206e-05,-0.00904274727459339,0.015175478067699977
2.4242424242424243,0.20253164556962025,0.01578001567625428,0.013902533958016943,4.4536950683721065e-05,-0.008904764890281367,0.014930274345081837
2.525252525252525,0.20253164556962025,0.015581501661002365,0.014094372095236726,1.5593550645103934e-05,-0.008902762126871726,0.0148937492269259
2.6262626262626263,0.20253164556962025,0.015504539878875002,0.014240389624130548,-3.908600905319846e-05,-0.008923478850901665,0.014912858472906241
2.727272727272727,0.20253164556962025,0.015450506590372655,0.01404682347858,4.4743051560654145e-05,-0.008849199020685795,0.01479888072895793
2.8282828282828283,0.20253164556962025,0.015524400884934507,0.01411552482498149,-1.8541964262869893e-05,-0.0088919777129748,0.014870138844337754
2.929292929292929,0.20253164556962025,0.015449218913710799,0.013920980522894477,3.0065867089640947e-05,-0.008811059830981582,0.01474471091747673
3.0303030303030303,0.20253164556962025,0.015387148572916336,0.013876778789987073,2.979982093968774e-05,-0.008779178208871023,0.014690402919055528
3.131313131313131,0.20253164556962025,0.015100087280046356,0.013691283790795495,5.2865804061109126e-05,-0.008637411321252555,0.014447584291774816
3.2323232323232323,0.20253164556962025,0.015325723684187987,0.013882736261559076,4.082149286842804e-05,-0.008762537983724119,0.014657768991555862
3.3333333333333335,0.20253164556962025,0.015357643579137444,0.013781573182711384,3.24529778617801e-05,-0.008741765028554649,0.014633511074984267
3.4343434343434343,0.20253164556962025,0.015415351507968952,0.013623384127002145,2.5164294366174707e-05,-0.008711620690491329,0.014602133469647671
3.5353535353535355,0.20253164556962025,0.015288904158939187,0.013664847709886121,5.071053630187358e-05,-0.008686125560647592,0.014545302369085886
3.6363636363636362,0.20253164556962025,0.015459848979182253,0.013534129755205964,6.719213917254025e-06,-0.008698193620316465,0.014592605389485454
3.7373737373737375,0.20253164556962025,0.015240620750553402,0.013661182567378189,-2.6621144883018063e-05,-0.008670540995379478,0.014515565905055818
3.8383838383838382,0.20253164556962025,0.015207112422765416,0.013750620455354535,-1.5412675263861423e-05,-0.008687319863435985,0.014533730169855328
3.9393939393939394,0.20253164556962025,0.015086048891416116,0.013657736554022873,-7.908731317078035e-05,-0.008623135633631696,0.014425675788070852
4.040404040404041,0.20253164556962025,0.015217823199256877,0.013547135739493725,2.091277404562657e-05,-0.00862948768162518,0.014455117611438318
4.141414141414141,0.20253164556962025,0.015312993068175558,0.013636517573784711,-1.2919924404750512e-06,-0.00868485319258808,0.014547387194009992
4.242424242424242,0.20253164556962025,0.015049381432728999,0.01335628180505675,-3.7925375395857845e-05,-0.008521698971335723,0.01427846913218773
4.343434343434343,0.20253164556962025,0.015118146325390333,0.013542645724222509,1.0069776565440514e-05,-0.008598237614883852,0.014395214692292645
4.444444444444445,0.20253164556962025,0.015094817063327456,0.01371241364378623,-0.00014805956532307126,-0.008642169212134105,0.014455558777461314
4.545454545454545,0.20253164556962025,0.015089520584659132,0.013581096573666926,3.871863799098721e-05,-0.008601185147497817,0.01439486285819744
4.646464646464646,0.20253164556962025,0.015159074192262577,0.013546945065118427,6.998730148243454e-06,-0.008611805777214302,0.014420757698189552
4.747474747474747,0.20253164556962025,0.015250471540323675,0.013614066300958752,5.083587187658561e-05,-0.008659361352384728,0.01450194833930532
4.848484848484849,0.20253164556962025,0.014998247195635974,0.013559903489901054,0.00010420125455507648,-0.008567445205661108,0.014334440721935501
4.94949494949495,0.20253164556962025,0.015054923122731762,0.013697568252790664,2.0615847279046035e-05,-0.008625747412656726,0.014424268587923776
5.05050505050505,0.20253164556962025,0.015214117355216746,0.013477055821801049,-3.733440119900976e-05,-0.008607351953105339,0.01442439160654963
5.151515151515151,0.20253164556962025,0.014951150662158873,0.013684483654128997,9.235115193287469e-06,-0.008590690294886362,0.014359786837485518
5.252525252525253,0.20253164556962025,0.015029511023712186,0.01357547231412289,6.663161163062647e-05,-0.008581495001350522,0.014358281884724202
5.353535353535354,0.20253164556962025,0.015127297200635027,0.013407074022148406,5.279171788456315e-05,-0.00856031136683503,0.014345045207464017
5.454545454545454,0.20253164556962025,0.01523607524433073,0.013486040182967002,6.4588151846834e-05,-0.00861663462818932,0.014441241656444653
5.555555555555555,0.20253164556962025,0.014926659162765211,0.013563985407369123,-8.898540462079531e-05,-0.0085471933710403,0.014294950928033009
5.656565656565657,0.20253164556962025,0.015170442535844859,0.013603939770483233,2.9149300184591057e-05,-0.008632314691898428,0.014451099145331466
5.757575757575758,0.20253164556962025,0.015064673916961244,0.013570831247657017,1.6194220355554263e-05,-0.008590651549385478,0.01437610866010041
5.858585858585858,0.20253164556962025,0.015147132673918356,0.013687273628706318,-4.2673694851667195e-05,-0.008650321890787403,0.014472719204172476
5.959595959595959,0.20253164556962025,0.015093331268061002,0.013915729592055798,-2.0913011375944357e-05,-0.00870271825803504,0.014540384256928088
6.0606060606060606,0.20253164556962025,0.015197352703003974,0.013621907578212222,3.499539523252523e-05,-0.008645778084364859,0.014474205861742686
6.161616161616162,0.20253164556962025,0.01523256375808959,0.013656812574769849,-2.0345418221882594e-05,-0.008666812899857832,0.014509048965294825
6.262626262626262,0.20253164556962025,0.015397662262830857,0.013656798408336578,-1.4529490654884312e-05,-0.00871633820135023,0.014605273354556341
6.363636363636363,0.20253164556962025,0.01517856723313211,0.013727257735931288,8.626170838616047e-06,-0.008671747490719018,0.014507467972065325
6.4646464646464645,0.20253164556962025,0.015281104234316613,0.013780466054880165,6.249929804829014e-05,-0.008718471086759034,0.014589186804425992
6.565656565656566,0.20253164556962025,0.015456800629996511,0.013769069859893087,1.1413741912458691e-05,-0.008767761146966879,0.014685863735501861
6.666666666666667,0.20253164556962025,0.015327208128305736,0.013731991162097426,1.225982048814225e-05,-0.008717759787120949,0.014595144899465584
6.767676767676767,0.20253164556962025,0.015131606946308863,0.01371115911114577,-2.066592595625081e-06,-0.00865282981723639,0.014473754015907338
6.8686868686868685,0.20253164556962025,0.015398454867773931,0.013724783192659294,-2.6569906791219078e-05,-0.008736971418129966,0.014633651264058061
6.96969696969697,0.20253164556962025,0.015500239720353068,0.013981904892763165,2.8972329624547285e-05,-0.00884464338393487,0.014799687037952208
7.070707070707071,0.20253164556962025,0.015224716547959262,0.013863738497809822,0.00010963756911432685,-0.008726536513730725,0.014593142614490464
7.171717171717171,0.20253164556962025,0.015552018699602484,0.013790695392286409,-1.2346232649530866e-05,-0.008802814227566668,0.014750453203296394
7.2727272727272725,0.20253164556962025,0.015555836553017772,0.014000469101215397,-1.4024771983963172e-06,-0.00886689169626995,0.014839413156019192
7.373737373737374,0.20253164556962025,0.015655298768628093,0.014252875823465582,-2.3838288189174572e-05,-0.008972452377628103,0.015003383759591685
7.474747474747475,0.20253164556962025,0.0154993809832819,0.01405885009719163,4.173559687330286e-05,-0.008867469324142058,0.014831851828316719
7.575757575757575,0.20253164556962025,0.015629536197464988,0.014262721693844576,-4.03949835498834e-05,-0.00896767736739287,0.01499309181388909
7.6767676767676765,0.20253164556962025,0.015672292079728846,0.013949990777344786,-6.038777983083921e-05,-0.00888668485712209,0.014886423069365039
7.777777777777778,0.20253164556962025,0.01609564113285654,0.014191875694111403,7.26101924323744e-05,-0.009086255048090382,0.015233761116035072
7.878787878787879,0.20253164556962025,0.015853527229245722,0.014182865060875715,-1.2880636613299501e-05,-0.00901091768703643,0.015087744935693086
7.979797979797979,0.20253164556962025,0.016050175025460703,0.014395173121228209,1.2656092166979752e-05,-0.009133604444006673,0.015290015040886656
8.080808080808081,0.20253164556962025,0.015919417187615723,0.014463278127913258,-2.5280427273495238e-06,-0.009114808594658694,0.015243599265034494
8.181818181818182,0.20253164556962025,0.016110200923019215,0.014459255078597839,-1.378403550575456e-06,-0.009170836800485116,0.015351453755087771
8.282828282828282,0.20253164556962025,0.01630310605153653,0.014706573691151274,-9.099152810240824e-05,-0.009302903922806341,0.015567163662462498
8.383838383838384,0.20253164556962025,0.01626375591945807,0.014788469972742644,-1.2352431137817038e-05,-0.009315667767660213,0.015578606883516966
8.484848484848484,0.20253164556962025,0.01636068667573068,0.014923826023081682,-0.00013224911425149515,-0.009385353809643709,0.01569334507320052
8.585858585858587,0.20253164556962025,0.016461983843646128,0.014860371197585421,9.081414947043177e-06,-0.009396706512369464,0.015722487113988975
8.686868686868687,0.20253164556962025,0.016537816046375164,0.014900558700359088,-1.4234546959072905e-05,-0.009431512424020275,0.015783026270611684
8.787878787878787,0.20253164556962025,0.016747801285329888,0.01491149374279217,1.9592063351843538e-05,-0.009497788508436618,0.01590936551246917
8.88888888888889,0.20253164556962025,0.016800882721714004,0.01512154652108241,7.113966574030832e-05,-0.009576728772838923,0.016027809653927284
8.98989898989899,0.20253164556962025,0.017050882728036676,0.015202931273304097,3.108189867671026e-05,-0.009676144200402232,0.01620620933765308
9.09090909090909,0.20253164556962025,0.016969495466709138,0.015460329240679053,-5.144463468066726e-05,-0.009728947412216457,0.016267744444533057
9.191919191919192,0.20253164556962025,0.017279426051979206,0.01564381498849278,-4.275613470078508e-05,-0.009876972312141595,0.01652261638109013
9.292929292929292,0.20253164556962025,0.01736908207990897,0.015590843726480676,-1.254581028983313e-05,-0.009887977741916893,0.016551774775351056
9.393939393939394,0.20253164556962025,0.01762506919563415,0.015993345361978415,-2.6784510756435243e-05,-0.01008552436728377,0.01686856524941922
9.494949494949495,0.20253164556962025,0.017799207364713368,0.015974089294961906,2.073416529027494e-05,-0.010131988997902582,0.016960497442847573
9.595959595959595,0.20253164556962025,0.017669742643462213,0.016143129704096218,-8.31937235065619e-05,-0.01014386170426753,0.016958663213382796
9.696969696969697,0.20253164556962025,0.01814822855730362,0.01608848597936539,3.993058396698435e-05,-0.010271014361000702,0.017211183676216966
9.797979797979798,0.20253164556962025,0.01843739498258498,0.016487805191420252,-9.246565849247035e-05,-0.010477560052201568,0.017544763513879163
9.8989898989899,0.20253164556962025,0.01847399366485332,0.016716913772412946,-1.4922782706992597e-05,-0.010557272231179879,0.01766114823402503
10.0,0.20253164556962025,0.018890975246670147,0.01661925904223855,-4.912923651675416e-05,-0.010653070286672608,0.01786398462673003
0.0,0.3037974683544304,0.018759907669528574,0.016966305759328008,-5.37279672955861e-05,-0.010717864028656975,0.017930755629188323
0.10101010101010101,0.3037974683544304,0.018534633369811187,0.016742641190561888,0.00015833069107402066,-0.010583182368111923,0.017708900527787213
0.20202020202020202,0.3037974683544304,0.018168511374633246,0.016411345346068015,1.513166134865274e-05,-0.010373957016210378,0.01735678639456453
0.30303030303030304,0.3037974683544304,0.018109264280500283,0.016130640946246205,9.43881480734167e-06,-0.010271971568023945,0.017205500791373708
0.40404040404040403,0.3037974683544304,0.01792757589633394,0.01606464415762618,4.582858968588154e-05,-0.010197666016188035,0.017072695827707568
0.5050505050505051,0.3037974683544304,0.017763425911533126,0.016070273321941303,0.0001261723794760143,-0.010150109770042328,0.01698168524122565
0.6060606060606061,0.3037974683544304,0.017456053204817825,0.01573741960893892,-6.70984763537397e-06,-0.009958041844127023,0.016663345117449574
0.7070707070707071,0.3037974683544304,0.017399468885020888,0.015524244651695022,1.7999219720799752e-06,-0.009877114061014772,0.016541767965517755
0.8080808080808081,0.3037974683544304,0.01740488034188222,0.015544642184029766,7.19308336958691e-05,-0.009884856757773597,0.01655381059783069
0.9090909090909091,0.3037974683544304,0.01713035804631967,0.015563380008774368,-5.049459333830952e-05,-0.009808121416528212,0.016403333235755994
1.0101010101010102,0.3037974683544304,0.016808056178511097,0.015440583933429628,-2.2775505714740864e-05,-0.009674592033582216,0.016167799438827502
1.1111111111111112,0.3037974683544304,0.016677883499876867,0.015005996602781986,-5.524844448643936e-05,-0.009505164030797654,0.015908256538957312
1.2121212121212122,0.3037974683544304,0.01674172308291404,0.015122335568812154,-3.842026987594982e-06,-0.009559217595517857,0.015993636692894383
1.3131313131313131,0.3037974683544304,0.01667826738197788,0.014966061446419819,4.609167676980767e-06,-0.009493298648519308,0.015891497328997688
1.4141414141414141,0.3037974683544304,0.016517365863469118,0.014943682723823494,-3.9915002880451194e-05,-0.009438314576187783,0.015789602057789967
1.5151515151515151,0.3037974683544304,0.016273351699495495,0.014913046468829494,1.651210307007841e-05,-0.009355919450497496,0.015637662816655257
1.6161616161616161,0.3037974683544304,0.016319468958661962,0.014693267864499206,7.330093744478543e-05,-0.00930382104694835,0.01557070897219992
1.7171717171717171,0.3037974683544304,0.016522455100729982,0.014611411453251552,6.106237855580318e-05,-0.00934015996619446,0.015655020388342933
1.8181818181818181,0.3037974683544304,0.01597520198829299,0.014477280060340979,4.0346361815979687e-05,-0.00913574461459019,0.01528156166083848
1.9191919191919191,0.3037974683544304,0.01611915550728941,0.01431689696720607,6.9298410387059e-05,-0.009130815742348645,0.015298327727257796
2.0202020202020203,0.3037974683544304,0.016116691341382144,0.01432125465980068,3.060890794105848e-05,-0.009131383800354846,0.015298288942448519
2.121212121212121,0.3037974683544304,0.015960824252775365,0.014415177767234815,6.128697752118006e-05,-0.009112800606003054,0.015247242709895274
2.2222222222222223,0.3037974683544304,0.01575232948186024,0.014192804882071202,-2.993827626883248e-05,-0.008983540309179434,0.015033447530511593
2.323232323232323,0.3037974683544304,0.015759646180255573,0.014191928249633357,3.1303443923104346e-05,-0.00898547232896668,0.015037301854275396
2.4242424242424243,0.3037974683544304,0.01577991262833875,0.014110027106735196,-4.853067566807268e-05,-0.008966981920522183,0.015015011763647619
2.525252525252525,0.3037974683544304,0.015559771131462579,0.014294598873082688,-2.4361378864900216e-05,-0.00895631100136358,0.014967402184579131
2.6262626262626263,0.3037974683544304,0.015662314146898813,0.01409585544232329,6.274913587478156e-05,-0.00892745087676663,0.014941195445553886
2.727272727272727,0.3037974683544304,0.01543277388175479,0.013921806823624825,-7.367325378410332e-05,-0.008806374211613883,0.014736057866003245
2.8282828282828283,0.3037974683544304,0.01549481241762703,0.014014979385251078,4.391156234164175e-05,-0.008852937540863432,0.014810643709542408
2.929292929292929,0.3037974683544304,0.015666906300370226,0.01379204559993984,-7.056746208755257e-06,-0.00883768557009302,0.014818702309706827
3.0303030303030303,0.3037974683544304,0.015355716708573984,0.013991211246800911,-1.510087794471208e-05,-0.008804078386612468,0.014720993022905816
3.131313131313131,0.3037974683544304,0.015585650954073224,0.013842048596258079,3.5045806640447634e-05,-0.008828309865099391,0.014791253216629937
3.2323232323232323,0.3037974683544304,0.015103325696250346,0.013761049094454933,-9.604309492036955e-05,-0.008659312437211584,0.014479882102407355
3.3333333333333335,0.3037974683544304,0.015174180102809968,0.013683895773509135,5.553821073341623e-05,-0.00865742276289573,0.014486963099146133
3.4343434343434343,0.3037974683544304,0.015132590156844402,0.013814065059563669,0.00010367295842567219,-0.00868399656492242,0.014519412440778957
3.5353535353535355,0.3037974683544304,0.015205558474591893,0.013674624145359008,-4.6867843403746646e-05,-0.008664054785985269,0.014501056746492038
3.6363636363636362,0.3037974683544304,0.015131977336349552,0.013774316138566394,8.227403571798446e-06,-0.008671888042474783,0.014500899511098446
3.7373737373737375,0.3037974683544304,0.015157514945062154,0.013679587609104432,1.800590219381356e-05,-0.008651130766249975,0.014475282224371309
3.8383838383838382,0.3037974683544304,0.0151225624039526,0.013469579415006948,-9.978722108544626e-06,-0.008577642545687865,0.01436757483867289
3.9393939393939394,0.3037974683544304,0.01512895525480044,0.013579937431379944,-4.2400666572298694e-05,-0.008612667805854115,0.014417181258109663
4.040404040404041,0.3037974683544304,0.015002727945225494,0.01369921958085005,3.086811467010528e-05,-0.008610584257822662,0.014395404023885746
4.141414141414141,0.3037974683544304,0.015041210000820314,0.013768216934918233,-8.550151821052447e-06,-0.008642828080721565,0.014446846469596021
4.242424242424242,0.3037974683544304,0.015167618317343957,0.013559264401119007,2.5593272964548246e-06,-0.00861806481553889,0.014430820110805459
4.343434343434343,0.3037974683544304,0.015201086539546415,0.013591964157200202,-5.189307740992807e-05,-0.008637915209023985,0.014464092675029088
4.444444444444445,0.3037974683544304,0.01498790242995474,0.013720442261256367,-1.2116235065459623e-05,-0.008612503407363331,0.014396094803669204
4.545454545454545,0.3037974683544304,0.015067073519744527,0.013524873582051886,6.687259116267787e-05,-0.008577584130538923,0.014358692875195565
4.646464646464646,0.3037974683544304,0.014855417675915432,0.013573077678720447,1.2075809800982109e-05,-0.008528548606390764,0.014257579437232326
4.747474747474747,0.3037974683544304,0.015106099622807179,0.013472573245053873,-5.3479786550792075e-05,-0.008573601860358316,0.014359492411115192
4.848484848484849,0.3037974683544304,0.015160723659170811,0.013320359470840046,-5.7410007634820674e-05,-0.008544324939003256,0.014329798220869857
4.94949494949495,0.3037974683544304,0.015061262215375857,0.013532127356944715,-4.380312640779613e-05,-0.008578016871696171,0.014358096253045663
5.05050505050505,0.3037974683544304,0.015027425577537465,0.013625266137116909,6.79242623130583e-05,-0.00859580751439631,0.014378197559578133
5.151515151515151,0.3037974683544304,0.015051158450545192,0.013461275871623964,1.553743006642397e-05,-0.008553730296650746,0.014322578222522283
5.252525252525253,0.3037974683544304,0.014971847520992414,0.013386693865121957,5.681990428027263e-05,-0.008507562415834311,0.014245909482237251
5.353535353535354,0.3037974683544304,0.01500364882737638,0.013500685370283668,3.340640392440703e-05,-0.008551300259298013,0.014311596324011503
5.454545454545454,0.3037974683544304,0.01502571766191764,0.013525697609007572,1.8489346117847387e-05,-0.008565424581277563,0.014334727035430922
5.555555555555555,0.3037974683544304,0.01495530149550427,0.013378677240627374,2.9833584647249945e-05,-0.008500193620839492,0.014232728688273672
5.656565656565657,0.3037974683544304,0.015211517234393826,0.013527564679694203,-4.770815569075117e-06,-0.008621724574226408,0.014443356526551177
5.757575757575758,0.3037974683544304,0.015093272209487077,0.013735745256013877,-5.9907024172380244e-05,-0.008648705239650287,0.01446274483399434
5.858585858585858,0.3037974683544304,0.01513705941046124,0.013399912663725864,6.4574033579021e-05,-0.00856109162225613,0.014348012486854812
5.959595959595959,0.3037974683544304,0.014860053287197063,0.013587948050353507,-5.484722972384327e-05,-0.008534400401265171,0.01426691657231332
6.0606060606060606,0.3037974683544304,0.015112519813608,0.01353978282437675,5.57645343886985e-05,-0.008595690791395424,0.014391075946312209
6.161616161616162,0.3037974683544304,0.015250847201841528,0.01369828451628143,-8.080447749173642e-05,-0.008684739515436888,0.01453755423269339
6.262626262626262,0.3037974683544304,0.015180262054934923,0.013710285984430968,-9.156411082026008e-05,-0.008667164411809767,0.014502127971397464
6.363636363636363,0.3037974683544304,0.015197444673930948,0.01359325036545131,0.00010946219292580098,-0.008637208511814678,0.014463473153507659
6.4646464646464645,0.3037974683544304,0.01508387385187535,0.013625327218252735,6.72360892689035e-05,-0.008612760321038426,0.014410539105397838
6.565656565656566,0.3037974683544304,0.01524402498360846,0.013800688756522494,0.00014569067369225774,-0.008713414122039286,0.014578235180468682
6.666666666666667,0.3037974683544304,0.015382467600097472,0.01383053911499217,3.8579576520540696e-05,-0.008763902014526892,0.014668359383458757
6.767676767676767,0.3037974683544304,0.015338033847632574,0.013747793692745085,2.588193863470732e-06,-0.008725748262113298,0.014607977575148888
6.8686868686868685,0.3037974683544304,0.015387567226891602,0.013942778874298196,-4.1493944846592707e-05,-0.00879910383035694,0.014718628532717097
6.96969696969697,0.3037974683544304,0.015567185479694719,0.014048057181946415,-5.978557475206458e-05,-0.00888457279849234,0.01486631042022809
7.070707070707071,0.3037974683544304,0.01557750315396343,0.014031203721615084,5.788685223127124e-05,-0.008882612062673554,0.014865134201372922
7.171717171717171,0.3037974683544304,0.015594705800569632,0.013892137389135324,-4.159820798861361e-05,-0.008846052956911486,0.014817142975384844
7.2727272727272725,0.3037974683544304,0.01569352593114138,0.01391928058031285,-3.9794759140963794e-05,-0.008883841953436269,0.014886076990378435
7.373737373737374,0.3037974683544304,0.01549812901017389,0.013906877235441989,4.584995168368184e-05,-0.008821501873684764,0.014767158372155625
7.474747474747475,0.3037974683544304,0.01576176596549664,0.014106924931139653,-3.92428796287043e-06,-0.00896060726899089,0.015002952852907085
7.575757575757575,0.3037974683544304,0.01581172676899861,0.014177011108501555,-1.698602170883578e-05,-0.00899662136325005,0.015061081864001654
7.6767676767676765,0.3037974683544304,0.015812042866623147,0.014165684716682194,-1.0422697864127195e-05,-0.008993318274991603,0.015056534628891753
7.777777777777778,0.3037974683544304,0.015904807711180996,0.014482774374511028,-3.490507743824595e-05,-0.009116274625707608,0.015243738893555977
7.878787878787879,0.3037974683544304,0.015960829348141883,0.014430708047979638,-4.352252381164257e-06,-0.009117461218836456,0.015253438843296066
7.979797979797979,0.3037974683544304,0.0158519976827264,0.014406551419019064,-3.8357964461902425e-07,-0.009077564730523638,0.01518097279666341
8.080808080808081,0.3037974683544304,0.016132078912807213,0.014589752442590188,-3.700851636658117e-05,-0.00921654940661922,0.015419011562151762
8.181818181818182,0.3037974683544304,0.01616834421202157,0.01453390888187459,-1.3363854323316962e-05,-0.009210675928168847,0.0154162627174859
8.282828282828282,0.3037974683544304,0.01596064304060765,0.014594777641648397,9.920676046509646e-06,-0.009166626204676814,0.015323443468845552
8.383838383838384,0.3037974683544304,0.01616943021920269,0.014785045584429914,1.00004465675207e-05,-0.009286342741089781,0.015523613745161272
8.484848484848484,0.3037974683544304,0.016348284789268554,0.014833581996070794,0.00010176973406245293,-0.009354560035601804,0.01564701309211335
8.585858585858587,0.3037974683544304,0.016378141070722704,0.014937380414715675,5.527057287955801e-05,-0.009394656445631514,0.015707688545290196
8.686868686868687,0.3037974683544304,0.016712648686346455,0.014949220570571218,-9.537700969525751e-06,-0.009498560777075303,0.015904434072087772
8.787878787878787,0.3037974683544304,0.016677213869284627,0.015086318272828,-6.755263585703058e-05,-0.009529059642633788,0.01594184415965443
8.88888888888889,0.3037974683544304,0.016838948864851745,0.015032222960226086,2.7356374972595668e-05,-0.009561351547523349,0.016012287074634205
8.98989898989899,0.3037974683544304,0.017003921345789035,0.015379455703292586,5.7511400940328205e-05,-0.009715013114724485,0.016252995613953738
9.09090909090909,0.3037974683544304,0.017226642258788234,0.015567366575913599,-4.196993143459469e-05,-0.00983820265041055,0.016460010180188032
9.191919191919192,0.3037974683544304,0.017228636884001832,0.015664604942177453,0.0001131167330193047,-0.009867972547853784,0.016503465471864674
9.292929292929292,0.3037974683544304,0.017418789961100387,0.015714804645136186,1.7541987154440768e-05,-0.009940078381870972,0.016632419262221403
9.393939393939394,0.3037974683544304,0.01736737366951429,0.015914914099361174,-3.266572206583731e-05,-0.00998468633066264,0.016688711754744602
9.494949494949495,0.3037974683544304,0.01768800248953653,0.01581304236537171,7.031168836284653e-05,-0.010050313456472473,0.016829481257412866
9.595959595959595,0.3037974683544304,0.017830305520645292,0.016167165430875558,-6.533316891240053e-05,-0.010199241285456255,0.017060021666528032
9.696969696969697,0.3037974683544304,0.018131978121347266,0.016240036291264012,0.00010138315684874809,-0.010311604323783382,0.01726482731581701
9.797979797979798,0.3037974683544304,0.018137672094974758,0.01640168682042181,-0.00010211620112680844,-0.01036180767461897,0.017335897593789087
9.8989898989899,0.3037974683544304,0.018464627630200067,0.01667770831536753,7.42265009359487e-06,-0.010542700783670278,0.017639187047403217
10.0,0.3037974683544304,0.018727115533865447,0.016688737306244535,1.8944084334596608e-05,-0.010624755852032994,0.01779572909667386
0.0,0.4050632911392405,0.018691568600623546,0.01705509857304138,3.930103539432122e-05,-0.010724000152099478,0.017929562538827423
0.10101010101010101,0.4050632911392405,0.018205553037961907,0.016669992046225292,-1.569125903993465e-05,-0.01046266352525616,0.017488427903792025
0.20202020202020202,0.4050632911392405,0.01825908321341745,0.016576119671411392,4.067765483240024e-05,-0.010450560865448653,0.017478617758117945
0.30303030303030304,0.4050632911392405,0.018222708484343424,0.01612103917841076,7.168122458869055e-06,-0.010303124298826254,0.017268067796667255
0.40404040404040403,0.4050632911392405,0.01795223909304726,0.0160942477795674,-1.3775436083628673e-05,-0.010213946061784399,0.017099136971508926
0.5050505050505051,0.4050632911392405,0.017732464395223566,0.016121475268143386,2.5787413386511795e-05,-0.010156181899010085,0.016984427194652985
0.6060606060606061,0.4050632911392405,0.01749593210193122,0.015857807618721232,4.0311407945661234e-05,-0.010006121916195734,0.016737247450938818
0.7070707070707071,0.4050632911392405,0.01738306022443154,0.015707187009928292,3.567784719244769e-05,-0.00992707417030795,0.01660877320898273
0.8080808080808081,0.4050632911392405,0.017301554804219858,0.01538070010170981,-8.824736275058518e-05,-0.009804676471778899,0.01642629207448396
0.9090909090909091,0.4050632911392405,0.017217425115440967,0.015363575009137554,-8.565749536005396e-06,-0.009774300037373555,0.01636942829050919
1.0101010101010102,0.4050632911392405,0.017056830052520015,0.015272425229516355,3.484204037149755e-05,-0.00969877658461091,0.01623843909079225
1.1111111111111112,0.4050632911392405,0.016812866422878357,0.015054984916416018,5.700063234214239e-05,-0.009560355401788312,0.016006790590408045
1.2121212121212122,0.4050632911392405,0.016639408869761695,0.015044947921288732,2.252221618128551e-05,-0.00950530703731513,0.0159022912611191
1.3131313131313131,0.4050632911392405,0.016568748969484615,0.014977261419277835,-2.6842606462449427e-05,-0.009463803116628736,0.015833176526060384
1.4141414141414141,0.4050632911392405,0.016674114014885392,0.014997174095735843,3.296179960216433e-05,-0.00950138643318637,0.015902200404551616
1.5151515151515151,0.4050632911392405,0.01663801266451394,0.014658785115543672,-6.251177234976487e-05,-0.009389039334017284,0.015742366952096305
1.6161616161616161,0.4050632911392405,0.016248077428294976,0.01459242907831067,-4.63316617366529e-05,-0.009252151951981693,0.015486979332934438
1.7171717171717171,0.4050632911392405,0.016257278103768903,0.014576297262364379,3.1187550104027134e-05,-0.009250072609839984,0.015485461985245275
1.8181818181818181,0.4050632911392405,0.016080803463328613,0.014546730790913814,3.2063085115013713e-06,-0.009188260276272727,0.015371289103003968
1.9191919191919191,0.4050632911392405,0.016155672870588448,0.0144594399556779,-4.58513406814416e-05,-0.009184533847879903,0.015378084892267987
2.0202020202020203,0.4050632911392405,0.015977877357692252,0.014371564506202809,1.5583542312162587e-05,-0.009104832559168517,0.015238374737336809
2.121212121212121,0.4050632911392405,0.01614215091574745,0.01424994473409689,-5.5066158579485085e-05,-0.0091176286949533,0.015284446326844534
2.2222222222222223,0.4050632911392405,0.01591795659857534,0.014269276441666227,2.2166337858879024e-05,-0.00905616991207247,0.015161046909461911
2.323232323232323,0.4050632911392405,0.015884372432716246,0.014350178550344915,7.279190534853806e-05,-0.009070365294918347,0.01517607417690139
2.4242424242424243,0.4050632911392405,0.01562496684874884,0.014106970232478241,-5.8778064090869426e-06,-0.008919581124368125,0.01492398604902835
2.525252525252525,0.4050632911392405,0.01562740140859005,0.014115166117755604,6.387600967985209e-05,-0.008922770257903695,0.014929248570500106
2.6262626262626263,0.4050632911392405,0.015725848695874116,0.01400376712460497,-5.939675161983684e-05,-0.008918884746143727,0.014939788212495106
2.727272727272727,0.4050632911392405,0.015606377283772026,0.013925637630536825,-1.911890410167875e-05,-0.008859604474292656,0.01483761224586659
2.8282828282828283,0.4050632911392405,0.01554691520378138,0.013895185447877031,3.00598024632056e-05,-0.008832630195497524,0.014790476390592475
2.929292929292929,0.4050632911392405,0.015510577413619562,0.013924006158648682,1.0946648505987326e-05,-0.008830375071680472,0.014781303841876613
3.0303030303030303,0.4050632911392405,0.015448358827286674,0.013832597915129145,2.1687720907282676e-05,-0.008784287022724746,0.014707244150535584
3.131313131313131,0.4050632911392405,0.015330723005573262,0.01382977705472272,3.97078176948329e-05,-0.008748150018088794,0.014638239311287398
3.2323232323232323,0.4050632911392405,0.015239324997211161,0.013772759000304993,2.93545340789006e-05,-0.008703625199254847,0.01456162598761578
3.3333333333333335,0.4050632911392405,0.015332912950361316,0.013779163003414351,-8.436797107559255e-05,-0.0087336227861327,0.014618830309619829
3.4343434343434343,0.4050632911392405,0.01510904857400683,0.013781204814932429,4.615104095972403e-05,-0.008667076016681778,0.01449104729691435
3.5353535353535355,0.4050632911392405,0.01530467250697511,0.013714538905052349,-6.672329106680668e-05,-0.008705763423608237,0.01457526697493639
3.6363636363636362,0.4050632911392405,0.01523324791130089,0.013978116087504882,2.5685550926920314e-05,-0.008763409199641732,0.014646140885284079
3.7373737373737375,0.4050632911392405,0.01529620461994548,0.013773291051635212,-6.329986239304903e-05,-0.008720848701474207,0.014594874599329611
3.8383838383838382,0.4050632911392405,0.01505978065055442,0.013502765434406918,2.612905082697895e-05,-0.008568763825488402,0.014344860758587466
3.9393939393939394,0.4050632911392405,0.015214278673006404,0.013492256707166137,-2.2717318425286033e-05,-0.008611960614051763,0.014430587699434528
4.040404040404041,0.4050632911392405,0.01514690445900982,0.013586441867350474,3.748746203711148e-05,-0.008620003897908088,0.01443023895616586
4.141414141414141,0.4050632911392405,0.014868436565642483,0.013499383411386952,4.219781297420434e-05,-0.00851034599310883,0.014233565064063529
4.242424242424242,0.4050632911392405,0.015193238074366691,0.013463276282565346,0.00010561238173299645,-0.00859695430707961,0.014407532458703964
4.343434343434343,0.4050632911392405,0.01507645771475435,0.013449284212337669,4.233931753917727e-05,-0.008557722578127605,0.014332502788467132
4.444444444444445,0.4050632911392405,0.015188230349948767,0.013525786620618995,-3.3281606434433285e-05,-0.008614205091170328,0.014429130431435736
4.545454545454545,0.4050632911392405,0.014960282279197391,0.013599316346400249,1.547380202274759e-06,-0.008567879587679293,0.01432835813342345
4.646464646464646,0.4050632911392405,0.015000102119308809,0.013495609268219714,-0.00010304454977319191,-0.008548713416258557,0.014308419565496331
4.747474747474747,0.4050632911392405,0.015058203745336833,0.013566822278146687,3.733112042212571e-05,-0.008587507807045055,0.014370816732511824
4.848484848484849,0.4050632911392405,0.015070220565273249,0.013377483624066317,-0.00010134064848136309,-0.008534311256801869,0.014300272618248953
4.94949494949495,0.4050632911392405,0.015051766470043663,0.01350610813207895,1.94254660263981e-05,-0.008567362380636783,0.01434158210474426
5.05050505050505,0.4050632911392405,0.014767375934348648,0.01355747748779177,4.361387090903051e-05,-0.008497456026642125,0.014201335414103755
5.151515151515151,0.4050632911392405,0.01503314341748717,0.013519900180049798,-2.9527760794312993e-05,-0.00856591307926109,0.014336635559238496
5.252525252525253,0.4050632911392405,0.014989616164063701,0.013408365159351152,-3.8324415696490076e-05,-0.008519394397024456,0.014265027449980545
5.353535353535354,0.4050632911392405,0.014790591304448809,0.013450446600320952,-6.094599552360719e-06,-0.00847231137143093,0.014168138825833588
5.454545454545454,0.4050632911392405,0.015125161492151732,0.013478044740073745,4.176055127542974e-05,-0.008580961869667643,0.014372746039569685
5.555555555555555,0.4050632911392405,0.015095523299764053,0.013562304042630273,2.384875036142277e-05,-0.008597348202718296,0.014390362895116188
5.656565656565657,0.4050632911392405,0.015235737561981884,0.013592836108918763,-1.5526388062228625e-05,-0.008648572101270194,0.014484361638304015
5.757575757575758,0.4050632911392405,0.015083901323255988,0.013458107168351838,3.906963356551106e-05,-0.008562602547482347,0.014340451403918377
5.858585858585858,0.4050632911392405,0.015187313712473961,0.013819076249601115,-0.00010990992174099968,-0.008701916988622523,0.014552764704577283
5.959595959595959,0.4050632911392405,0.015039426049073469,0.013668470319842689,-6.466778085402705e-05,-0.008612368910674847,0.014403402860309857
6.0606060606060606,0.4050632911392405,0.015208084218552591,0.01367883467520007,2.2874155413899328e-05,-0.008666075668125798,0.014504104370794555
6.161616161616162,0.4050632911392405,0.015343277040149681,0.013545809091444693,-8.856314843215236e-05,-0.008666725839478312,0.014528989054418635
6.262626262626262,0.4050632911392405,0.015115481148855267,0.013716781667514494,-2.044571099634001e-05,-0.008649678844910929,0.014466975117096048
6.363636363636363,0.4050632911392405,0.01504580578233096,0.013775979275920423,5.875805370681114e-06,-0.008646535517475414,0.014452794594076399
6.4646464646464645,0.4050632911392405,0.015467041406627958,0.013744307070676075,5.471840628420564e-05,-0.00876340454319121,0.01468198087697238
6.565656565656566,0.4050632911392405,0.015223182220683714,0.013816310028644257,0.00011137620878381414,-0.00871184767479839,0.014572052310086401
6.666666666666667,0.4050632911392405,0.01548058692708974,0.013641045552687083,-8.129878036782274e-05,-0.008736489743933047,0.01464838326908367
6.767676767676767,0.4050632911392405,0.015409843818063132,0.013828379993648013,-2.5749585448671194e-05,-0.008771467143513343,0.014683194233896479
6.8686868686868685,0.4050632911392405,0.015419418226782475,0.01402818532153711,7.495786560604646e-05,-0.008834281064495875,0.014773585938325123
6.96969696969697,0.4050632911392405,0.01531886811565621,0.013925389216572336,3.599636568688019e-05,-0.008773277199668564,0.014671975719891059
7.070707070707071,0.4050632911392405,0.015519111183248634,0.013946449247358349,0.00015522543872257627,-0.008839668129182094,0.014798041994006047
7.171717171717171,0.4050632911392405,0.01548428409126044,0.014096034349157058,5.4401863614231516e-05,-0.008874095532125249,0.014839242448900737
7.2727272727272725,0.4050632911392405,0.015467433003933348,0.013901268938753167,6.796605481654398e-05,-0.008810610582805955,0.01474732769055831
7.373737373737374,0.4050632911392405,0.015675478655022026,0.014138186638137736,-4.237028416504831e-06,-0.008944099587947929,0.014966167293908327
7.474747474747475,0.4050632911392405,0.01568300492428588,0.013855603753891879,-3.118530467098612e-05,-0.008861582603453327,0.01485394945825789
7.575757575757575,0.4050632911392405,0.015585171259813811,0.014057606931977587,6.45598089199135e-05,-0.008892833457537419,0.01488073144104407
7.6767676767676765,0.4050632911392405,0.015725986656349382,0.014103443243772081,1.479487531711485e-05,-0.008948828970036437,0.014980783158795322
7.777777777777778,0.4050632911392405,0.01587473477336593,0.014389859893042705,-2.6381192205809367e-05,-0.00907937839992259,0.015186907207857373
7.878787878787879,0.4050632911392405,0.01606396818073951,0.014137327940235898,-7.249072395933099e-06,-0.009060388836292623,0.015192553651579076
7.979797979797979,0.4050632911392405,0.0159973509098299,0.014364410148531315,2.6673655334473807e-05,-0.009108528317508363,0.015246676350613416
8.080808080808081,0.4050632911392405,0.016343404666611265,0.014422176417434825,-6.093074903802193e-05,-0.009229674325213827,0.01547287048408807
8.181818181818182,0.4050632911392405,0.01620232041935094,0.014528831166782155,-3.913655095628928e-05,-0.009219345475839927,0.015433921704161335
8.282828282828282,0.4050632911392405,0.016271512939231167,0.014517580989970729,5.1753755791789915e-05,-0.009236728178760568,0.01546956106555701
8.383838383838384,0.4050632911392405,0.016196537630697488,0.014617382864946779,-3.25783643464172e-05,-0.00924417614869328,0.015467640591185418
8.484848484848484,0.4050632911392405,0.016412545436484193,0.014742058345828002,-3.796487235255689e-05,-0.009346381134693658,0.01564447357832312
8.585858585858587,0.4050632911392405,0.016584722306020774,0.01490958409153449,1.7675436867595396e-05,-0.009448291919266579,0.015813865345234296
8.686868686868687,0.4050632911392405,0.016553395746157926,0.014834928492348392,1.8342409980973133e-05,-0.009416497271551897,0.015764598987421923
8.787878787878787,0.4050632911392405,0.01685225812570252,0.01527945171245846,-2.358392549721452e-05,-0.009639512951448293,0.01612354343485713
8.88888888888889,0.4050632911392405,0.01699351593857767,0.015328888977597092,2.3716868291368745e-05,-0.009696721474852428,0.01622542417165825
8.98989898989899,0.4050632911392405,0.01703989991737673,0.015264286983672147,-7.819462253220415e-05,-0.009691256070314664,0.016225691572293848
9.09090909090909,0.4050632911392405,0.017063917011088673,0.015471889146261112,-4.584908008602946e-05,-0.009760741847204936,0.016326416983936946
9.191919191919192,0.4050632911392405,0.0171622778099402,0.01563972628302053,-3.640580927185246e-05,-0.00984060122788822,0.01645404104290473
9.292929292929292,0.4050632911392405,0.017613803944812396,0.015586868427033818,6.911804584919717e-05,-0.009960201711553865,0.016693317348369627
9.393939393939394,0.4050632911392405,0.01760285998977827,0.015666581451249568,3.7652064450638055e-05,-0.00998083243230835,0.016719152712307
9.494949494949495,0.4050632911392405,0.017790672336359017,0.016103090631033688,-2.2490294266168896e-05,-0.01016812889021781,0.017009828290478726
9.595959595959595,0.4050632911392405,0.01784922356071094,0.01612861933878609,3.620688610498513e-05,-0.010193352869849107,0.017054258823176946
9.696969696969697,0.4050632911392405,0.018180324002476527,0.016208639979435745,6.862595140181531e-05,-0.01031668919457368,0.01727946737940635
9.797979797979798,0.4050632911392405,0.018179645840792673,0.01646321697440545,-7.289131576333543e-05,-0.010392858844559438,0.01738555496611845
9.8989898989899,0.4050632911392405,0.018450616537879227,0.016424306950934057,5.084773377690085e-05,-0.010462477046643985,0.017525760367822715
10.0,0.4050632911392405,0.018561223067527926,0.016892161576237845,4.813267591420014e-05,-0.01063601539312973,0.01778572167876396
0.0,0.5063291139240507,0.018752733291853896,0.016718485995177338,4.4856338893388604e-05,-0.010641365786109368,0.017823061107694372
0.10101010101010101,0.5063291139240507,0.01840724002893858,0.016617559365345196,2.242715192522834e-05,-0.010507439818285133,0.01758089502107659
0.20202020202020202,0.5063291139240507,0.018137273858603583,0.016412867887146017,-2.3006917961031257e-05,-0.010365042523724879,0.01733954565677741
0.30303030303030304,0.5063291139240507,0.01788179541087598,0.016380131574373596,3.1484390298866155e-05,-0.010278578095574873,0.01718034137305004
0.40404040404040403,0.5063291139240507,0.017789230584372356,0.01582707150295239,-6.440423769958814e-05,-0.010084890626197423,0.016894198306509504
0.5050505050505051,0.5063291139240507,0.017903983960594554,0.01594295683306989,4.711918766190512e-06,-0.010154082238099334,0.017008472518870048
0.6060606060606061,0.5063291139240507,0.017702179104645072,0.01585526548966507,-0.00015345982497801824,-0.010067233378293043,0.01685688254407067
0.7070707070707071,0.5063291139240507,0.017439001407237847,0.015677136763959768,2.9902912450504682e-05,-0.009934841451359285,0.016628302969993874
0.8080808080808081,0.5063291139240507,0.017215205030347548,0.015379394507689303,5.585304756395471e-05,-0.009778379861411056,0.016374950035231914
0.9090909090909091,0.5063291139240507,0.01718445348637616,0.015427159715180978,-1.834520093694571e-05,-0.00978348396046714,0.01637670295236185
1.0101010101010102,0.5063291139240507,0.016978659856026278,0.015306156285974514,3.152662382921102e-05,-0.009685444842600237,0.01620735238274919
1.1111111111111112,0.5063291139240507,0.01699128734031362,0.015191748722844914,6.302562124199554e-05,-0.00965491081894756,0.016167177356429918
1.2121212121212122,0.5063291139240507,0.016970740436604695,0.015053055255949398,1.3929077534337547e-05,-0.009607138707766227,0.01609781326877328
1.3131313131313131,0.5063291139240507,0.016621794018173052,0.015061988963663862,8.784718191411138e-06,-0.009505134894551072,0.015899386824022803
1.4141414141414141,0.5063291139240507,0.016561657521236613,0.014728713666812339,2.6512818299442787e-05,-0.009387111356414684,0.01572557482066005
1.5151515151515151,0.5063291139240507,0.016350915634635192,0.014908265611399268,9.71409152015586e-06,-0.009377754373810337,0.015679455202620637
1.6161616161616161,0.5063291139240507,0.016348321760687144,0.01461994427603155,2.7289881046530107e-05,-0.009290479811015608,0.015556383772913518
1.7171717171717171,0.5063291139240507,0.016334440404814486,0.014687341514730164,-6.047965798504517e-05,-0.009306534575863395,0.015576694540188061
1.8181818181818181,0.5063291139240507,0.016156431645356156,0.014609652267241034,4.025656624196025e-05,-0.009229825173779157,0.015441413032363372
1.9191919191919191,0.5063291139240507,0.016094463445706253,0.014464739432193527,1.781182349035862e-05,-0.009167760863369933,0.015344678953516514
2.0202020202020203,0.5063291139240507,0.015920173698107814,0.014355521374836052,-3.0738876165168456e-05,-0.009082708521883158,0.015198465887797125
2.121212121212121,0.5063291139240507,0.01579387947520001,0.014390027914793204,-1.7044784090884487e-05,-0.009055172216997963,0.015140873069564329
2.2222222222222223,0.5063291139240507,0.015698362324791368,0.014338368641217595,-6.000286072662602e-05,-0.009011019289802689,0.015064836206394911
2.323232323232323,0.5063291139240507,0.015843068525240603,0.014326856903802958,-3.591788476516366e-05,-0.009050977628713068,0.015142131410161097
2.4242424242424243,0.5063291139240507,0.015660110667643824,0.01422800190404866,-5.1115646732952e-05,-0.008966433771507744,0.014995694659989511
2.525252525252525,0.5063291139240507,0.015604346049889374,0.014077462432236877,3.573455141971901e-05,-0.008904542544637876,0.014899825494055044
2.6262626262626263,0.5063291139240507,0.015661635295521087,0.014049876966070402,-5.91457019022425e-05,-0.008913453678477446,0.014921538410775585
2.727272727272727,0.5063291139240507,0.015622115679746819,0.013957158150714787,5.352321425679793e-05,-0.008873782149138481,0.01486004767717322
2.8282828282828283,0.5063291139240507,0.015448565262835518,0.013930603056237114,-5.476302244393686e-05,-0.00881375049572179,0.01474859439714435
2.929292929292929,0.5063291139240507,0.015502793292930977,0.014052218155551896,-3.6379643157192494e-05,-0.008866503434544861,0.014830939688272753
3.0303030303030303,0.5063291139240507,0.015547713948044087,0.014092882569360785,-4.047958020074319e-06,-0.008892178955221462,0.01487375844869386
3.131313131313131,0.5063291139240507,0.015469677963127319,0.013741059630974368,-2.2406878243986255e-05,-0.008763221278230504,0.014681941115061582
3.2323232323232323,0.5063291139240507,0.015378080755719288,0.013992683625499653,1.3019325424885681e-05,-0.008811229314365681,0.014734329048147695
3.3333333333333335,0.5063291139240507,0.01530336199757915,0.013801475936325313,0.00012273896414999812,-0.008731451380171338,0.014611975864181212
3.4343434343434343,0.5063291139240507,0.015126364731993002,0.013840801952154752,-5.90082508998295e-05,-0.008690150005244326,0.014526669821177248
3.5353535353535355,0.5063291139240507,0.01509556415235226,0.013698771730702726,-2.8971613234445426e-05,-0.008638300764916496,0.01444798375558162
3.6363636363636362,0.5063291139240507,0.0151625566155178,0.01372111320247523,3.00099737534347e-05,-0.008665100945397908,0.01449577927084423
3.7373737373737375,0.5063291139240507,0.01508893100296959,0.013579519325094436,-6.894784729518512e-05,-0.008600535098419208,0.014394200748221064
3.8383838383838382,0.5063291139240507,0.015135963418754849,0.013637664737089114,-1.5218648483370346e-05,-0.00863208844675319,0.014445234104682765
3.9393939393939394,0.5063291139240507,0.014985047129636782,0.013595924108910558,-6.667393920292125e-05,-0.0085742913715642,0.01434149791870458
4.040404040404041,0.5063291139240507,0.015080670905127215,0.013631307880006093,1.585556532158063e-05,-0.008613593635539991,0.014410783306964355
4.141414141414141,0.5063291139240507,0.015029725415846745,0.013563945398408214,3.698459287641779e-05,-0.008578101244276487,0.014353222270050243
4.242424242424242,0.5063291139240507,0.015191920903253352,0.013475033685972271,5.8989735342464546e-05,-0.008600086376767686,0.014410752478946257
4.343434343434343,0.5063291139240507,0.015092236230797017,0.013655440514559235,-0.00011226280875945423,-0.008624303023606875,0.014428905877654594
4.444444444444445,0.5063291139240507,0.015224083415459928,0.013641356493587652,-1.2587295339245183e-05,-0.008659631972714273,0.014497677365275982
4.545454545454545,0.5063291139240507,0.015090847521557335,0.013417071641346376,-1.1530166470772703e-05,-0.008552375748871114,0.014327487806896284
4.646464646464646,0.5063291139240507,0.01508192217292389,0.013358021988723068,-1.3662845370854435e-05,-0.008531983248494086,0.01429814812775577
4.747474747474747,0.5063291139240507,0.015168099057593998,0.013656215874878593,-3.826282918799485e-06,-0.008647294479741776,0.014471512354330723
4.848484848484849,0.5063291139240507,0.014991454637227255,0.01342525246965222,-3.940008933310381e-05,-0.008525012132063843,0.01427311142403609
4.94949494949495,0.5063291139240507,0.015092600539009154,0.013544089571948198,-1.3486426034283292e-05,-0.008591007033287206,0.014381027968825566
5.05050505050505,0.5063291139240507,0.015090973371942172,0.013536784359298618,1.7522447014305142e-06,-0.008588327319372237,0.014377022118853581
5.151515151515151,0.5063291139240507,0.015087528713812288,0.013496415332022078,8.13725426053137e-05,-0.00857518321375031,0.014358936594372214
5.252525252525253,0.5063291139240507,0.015098223346236821,0.013465414868282816,4.031853445964817e-05,-0.008569091464355891,0.014351821536286374
5.353535353535354,0.5063291139240507,0.015000428188225922,0.013607006850647925,1.7863809707828183e-06,-0.008582230511662155,0.014354531051808379
5.454545454545454,0.5063291139240507,0.014921743052334248,0.013573576570251749,-5.6190797231467476e-05,-0.008548595886775798,0.014295749262034927
5.555555555555555,0.5063291139240507,0.015137738385403585,0.013601037205097543,2.0532568036116824e-05,-0.008621632677150338,0.014430927144764879
5.656565656565657,0.5063291139240507,0.01513467179092613,0.013577987535255317,-4.3138234605336554e-05,-0.008613797797854435,0.014419682157422307
5.757575757575758,0.5063291139240507,0.015079091773230082,0.013273001304853071,4.29989774000371e-05,-0.008505627923424946,0.014262268904287868
5.858585858585858,0.5063291139240507,0.01512453106440908,0.013731497335961063,2.1928134554346862e-05,-0.008656808520111043,0.014478413017884332
5.959595959595959,0.5063291139240507,0.015312051117239094,0.013583348682331992,-3.953883495030467e-06,-0.008668619939871326,0.014525060701256554
6.0606060606060606,0.5063291139240507,0.01509279862749513,0.013570262302705789,-0.00010642674072432868,-0.008598918279060275,0.014393239144499527
6.161616161616162,0.5063291139240507,0.015236774126981597,0.013721177210187775,-1.884561142307823e-05,-0.008687385401150811,0.014538382901592711
6.262626262626262,0.5063291139240507,0.015324136970399426,0.01368184622877392,3.524431317374679e-05,-0.008701794959752002,0.014572691274522235
6.363636363636363,0.5063291139240507,0.015193679759247491,0.013856213307703487,-1.692273645764677e-05,-0.008714967920085293,0.014571085866163288
6.4646464646464645,0.5063291139240507,0.015213480676262247,0.013596002428592841,4.18884788977875e-05,-0.008642844931456525,0.014472871865579705
6.565656565656566,0.5063291139240507,0.015029426684156525,0.013658034793147509,3.0348306732702065e-05,-0.00860623844319121,0.014392911844069612
6.666666666666667,0.5063291139240507,0.015230645794414034,0.013811588312623763,5.730455235057e-05,-0.008712670232111338,0.014573365603717846
6.767676767676767,0.5063291139240507,0.01516428930116402,0.013896112962980758,-2.9913579862415788e-05,-0.008718120679243433,0.014571740898870122
6.8686868686868685,0.5063291139240507,0.015414877221310578,0.013804850689710466,-2.209665575223245e-05,-0.008765918373306312,0.014676298193327024
6.96969696969697,0.5063291139240507,0.015389975961230042,0.013959633975733559,2.7099516340369454e-06,-0.00880488298108908,0.01472699329602269
7.070707070707071,0.5063291139240507,0.015331008309334627,0.013923873187060625,-5.039543059036046e-06,-0.008776464448918575,0.01467811707857203
7.171717171717171,0.5063291139240507,0.015438301378638681,0.013947245180634397,-4.894175028891112e-05,-0.008815663967781924,0.01474965114742619
7.2727272727272725,0.5063291139240507,0.01563222036829434,0.014017613317664566,-2.572702886741995e-06,-0.008894950105787672,0.014890715100478347
7.373737373737374,0.5063291139240507,0.01538626175842404,0.014081062865957165,3.6507626207982645e-05,-0.008840197387314362,0.014777092463054172
7.474747474747475,0.5063291139240507,0.01548774276141289,0.01425676821378868,-4.0433028905576463e-05,-0.00892335329256047,0.01491057884626298
7.575757575757575,0.5063291139240507,0.015724772626421683,0.01407928265161886,4.300475266139273e-05,-0.008941216583412162,0.014970193850557211
7.6767676767676765,0.5063291139240507,0.015578941076946348,0.014096469191962838,-9.172576393234409e-06,-0.008902623080672755,0.014893154072687834
7.777777777777778,0.5063291139240507,0.015805276625096246,0.01419115038838191,-7.863016428912938e-05,-0.008998928104043446,0.015063831157211502
7.878787878787879,0.5063291139240507,0.01589506475030002,0.014190006068285264,-1.8939809218105262e-06,-0.009025521245575586,0.015114837118975169
7.979797979797979,0.5063291139240507,0.015748187036848754,0.014514541533072611,4.6453517808365193e-05,-0.00907881857097641,0.01516924750387686
8.080808080808081,0.5063291139240507,0.01624039248168605,0.014460798739061087,3.678938590337577e-05,-0.009210357366224142,0.015427898800113974
8.181818181818182,0.5063291139240507,0.016265181048759497,0.014614535125334564,8.875745028534329e-05,-0.009263914852228218,0.015506654228958758
8.282828282828282,0.5063291139240507,0.01635274663306038,0.01456018882023692,-4.5110468483971106e-05,-0.009273880635989188,0.015534427800285005
8.383838383838384,0.5063291139240507,0.016333681612494193,0.014828624002373827,4.75852306075385e-05,-0.009348691684460406,0.015635792742245615
8.484848484848484,0.5063291139240507,0.016455168786728147,0.014775179830993536,2.1612282194980127e-05,-0.009369104585316505,0.0156828518496119
8.585858585858587,0.5063291139240507,0.0164345406498958,0.0149672259562888,0.00010347110626884262,-0.00942052998185538,0.01575324140024447
8.686868686868687,0.5063291139240507,0.016450764478447195,0.015044789570257098,3.8341548523538823e-05,-0.009448666214611287,0.015794918977746864
8.787878787878787,0.5063291139240507,0.016813622794821566,0.01508623654024267,4.419322970418912e-05,-0.009569957800519271,0.0160201127642179
8.88888888888889,0.5063291139240507,0.016788325065667933,0.014970637724106343,3.5366792500484365e-05,-0.009527688836932282,0.015957433134885984
8.98989898989899,0.5063291139240507,0.01706920243963479,0.015254863830681437,6.63249451211704e-05,-0.009697219881094867,0.016238638505057586
9.09090909090909,0.5063291139240507,0.017109934221659132,0.01528517756391935,-1.3372881482776684e-05,-0.009718533535673543,0.016274478672046094
9.191919191919192,0.5063291139240507,0.017104536203886446,0.015625185419374625,2.4496588668730597e-05,-0.009818916486978321,0.01641498792842495
9.292929292929292,0.5063291139240507,0.01761934170926665,0.015620880411133948,-1.0968875601173666e-05,-0.009972066636120179,0.016709992168525655
9.393939393939394,0.5063291139240507,0.01723272402360601,0.015578094029806746,-0.00011536114057043013,-0.009843245416023827,0.01646908377002453
9.494949494949495,0.5063291139240507,0.01777399100492886,0.015969966647396264,-3.1917134945814525e-05,-0.010123187295697536,0.016944249866338593
9.595959595959595,0.5063291139240507,0.01785020188372815,0.016158730176448723,4.650895285874388e-05,-0.010202679618053061,0.017067634915796468
9.696969696969697,0.5063291139240507,0.018026509149316847,0.016199134667500503,2.3068690521207342e-05,-0.010267693145045205,0.017185887910869026
9.797979797979798,0.5063291139240507,0.018188929857953347,0.016461697756224393,-3.309061667790198e-05,-0.010395188284253322,0.01738986145806725
9.8989898989899,0.5063291139240507,0.018455272379990038,0.01674191901083214,-3.520428028989749e-05,-0.010559157417246655,0.017661143034931163
10.0,0.5063291139240507,0.01875820992037852,0.01680619789801098,-7.710902354661691e-05,-0.01066932234551685,0.017862877049185513
0.0,0.6075949367088608,0.01851939764647117,0.016882851878567997,-1.669296245874964e-05,-0.010620674857511751,0.01775779731163475
0.10101010101010101,0.6075949367088608,0.018443581278454926,0.016718011900213797,-7.93938275847441e-05,-0.010548477953600617,0.017644730406398083
0.20202020202020202,0.6075949367088608,0.0181861983755878,0.016536940959511512,-2.5925625626342175e-05,-0.010416941800529793,0.017420279999292052
0.30303030303030304,0.6075949367088608,0.018045203156052854,0.016258363000076447,-3.551965416179588e-05,-0.010291069846838788,0.017221557595111354
0.40404040404040403,0.6075949367088608,0.01799125394153111,0.015989245701059338,-4.1363006520485585e-05,-0.010194149892777135,0.017078634296428252
0.5050505050505051,0.6075949367088608,0.017683840944440383,0.016033756070364193,9.399768634617757e-07,-0.010115279104441372,0.016919254559010586
0.6060606060606061,0.6075949367088608,0.017598654366941267,0.015823298399529763,-7.334899179821168e-05,-0.01002658582994131,0.016782037674642383
0.7070707070707071,0.6075949367088608,0.01752781114336919,0.015613795786210362,5.9241298211113475e-05,-0.009942482078873865,0.01665381779513364
0.8080808080808081,0.6075949367088608,0.017343600376842055,0.015461074164774633,-8.581916190102431e-05,-0.009841402362485006,0.016483831212292164
0.9090909090909091,0.6075949367088608,0.016885488103794272,0.01552476093446455,-5.625466813818203e-05,-0.009723074711477646,0.016248207232355368
1.0101010101010102,0.6075949367088608,0.016977768501365148,0.015419386150596685,-1.5979308015525118e-05,-0.009719146395588548,0.016254725161134746
1.1111111111111112,0.6075949367088608,0.016783461616311512,0.015162183155893657,3.9794177423730464e-05,-0.009583693431661551,0.016034563093277956
1.2121212121212122,0.6075949367088608,0.016650368498104747,0.015149487659455509,6.080079379698874e-05,-0.009539956847268077,0.015953315817999348
1.3131313131313131,0.6075949367088608,0.016682045198766503,0.014831466122772101,5.095929708332159e-06,-0.009454053396461581,0.01583805256482202
1.4141414141414141,0.6075949367088608,0.016536826469121337,0.014935983029502232,0.00010109593984928655,-0.009441842849587071,0.015798326505992753
1.5151515151515151,0.6075949367088608,0.016388704175748007,0.014619881158151465,0.00014199844814907544,-0.009302575600169841,0.015581724324699951
1.6161616161616161,0.6075949367088608,0.016415538405849733,0.014550647322377493,-3.09130805298071e-05,-0.009289855718468167,0.015567189712961041
1.7171717171717171,0.6075949367088608,0.016138986368418845,0.014583640582529107,6.644850404463246e-05,-0.009216788085284386,0.015420684916310021
1.8181818181818181,0.6075949367088608,0.01602771916810795,0.014360811984484202,7.825504619278513e-06,-0.009116559345777644,0.015262693890257247
1.9191919191919191,0.6075949367088608,0.01607492621200171,0.0143729927313712,-1.9839822208208675e-06,-0.009134375683011873,0.015295142594414621
2.0202020202020203,0.6075949367088608,0.016008906841760137,0.014353621544477592,3.6401200737608664e-05,-0.009108758515871318,0.015248925690194317
2.121212121212121,0.6075949367088608,0.015816800551538453,0.01432968826570507,-5.63259748161434e-05,-0.009043946645173056,0.015128477850113394
2.2222222222222223,0.6075949367088608,0.01598005891954345,0.014270833937153546,7.080148891080369e-05,-0.009075267857009099,0.015198199095276243
2.323232323232323,0.6075949367088608,0.01564226601000043,0.0142913618620511,1.3136410203929334e-05,-0.008980088361615459,0.01501248625658469
2.4242424242424243,0.6075949367088608,0.015645337851876388,0.01417244921841701,4.890137966623224e-06,-0.00894533612108802,0.01496336288665143
2.525252525252525,0.6075949367088608,0.01574960594407585,0.014217675040280438,-1.3982909168314321e-05,-0.008990184295306885,0.015042279687088309
2.6262626262626263,0.6075949367088608,0.015459073173212795,0.014215685369532608,5.2083675289202096e-05,-0.00890242756282362,0.01487667542473824
2.727272727272727,0.6075949367088608,0.01570234997917485,0.014168240742903451,-2.81147510380804e-05,-0.00896117721662349,0.014994350176008472
2.8282828282828283,0.6075949367088608,0.015249748179555895,0.013911134441311238,-9.435149953386033e-05,-0.00874826478626014,0.014627367858864886
2.929292929292929,0.6075949367088608,0.015541697722596299,0.013864456295952711,2.525754448078349e-05,-0.008821846205564702,0.014774716290804138
3.0303030303030303,0.6075949367088608,0.015316485624256021,0.013921037344435658,2.4062897320446047e-05,-0.008771256890607503,0.014668687103197613
3.131313131313131,0.6075949367088608,0.015344064950547166,0.013955588995159631,3.902520881301594e-05,-0.008789896183712039,0.014699248223780992
3.2323232323232323,0.6075949367088608,0.015371200812574523,0.013708765673105331,7.625903764892962e-06,-0.008723989945703956,0.014611093563111457
3.3333333333333335,0.6075949367088608,0.01518024618360808,0.013829975196838663,1.548051496106532e-05,-0.008703066414134023,0.014552194984879295
3.4343434343434343,0.6075949367088608,0.0151711075438947,0.013633638960381294,-2.4931139234325213e-05,-0.008641423951282798,0.014463854161770942
3.5353535353535355,0.6075949367088608,0.015280609826659354,0.013767659096633914,-1.9525478052283876e-05,-0.008714480676987981,0.014583154340761956
3.6363636363636362,0.6075949367088608,0.015307075698093513,0.013652266646767932,-1.656994052359181e-05,-0.008687802703458434,0.014550446580698819
3.7373737373737375,0.6075949367088608,0.01504280244142994,0.013782349154122006,-4.831678739491757e-05,-0.008647545478665584,0.014454096358111922
3.8383838383838382,0.6075949367088608,0.015116485977392877,0.013578837538675954,-4.899574785192861e-05,-0.008608597054820649,0.014409575695130735
3.9393939393939394,0.6075949367088608,0.01509593598826978,0.013700699922545535,1.441070748814141e-05,-0.008638990773244594,0.01444895137059464
4.040404040404041,0.6075949367088608,0.015174337386864242,0.013762141115308072,7.1201718071927355e-06,-0.008680943550651693,0.014519842383760839
4.141414141414141,0.6075949367088608,0.015062614235954485,0.01347482415096388,8.38729578833489e-05,-0.00856123151607551,0.01433555926556333
4.242424242424242,0.6075949367088608,0.015038412898084715,0.01358896934819141,-3.9247191425535395e-05,-0.008588214673882837,0.014368786989441776
4.343434343434343,0.6075949367088608,0.01509381829003207,0.013671611861158325,5.428188526851787e-05,-0.008629629045357119,0.014435661947403231
4.444444444444445,0.6075949367088608,0.015125109806921874,0.013579610767717371,-0.00011572031535663695,-0.008611416172391773,0.014416027360244733
4.545454545454545,0.6075949367088608,0.014827038560351677,0.013615657949417836,3.9896306846027e-05,-0.008532808952930853,0.014260157908348118
4.646464646464646,0.6075949367088608,0.015040991558714426,0.013504430876892369,1.9048090908942962e-05,-0.008563626730682039,0.01433464816599291
4.747474747474747,0.6075949367088608,0.015134543844451797,0.013605582484198804,-0.00012778087489679694,-0.00862203789859518,0.014432636326518002
4.848484848484849,0.6075949367088608,0.015054092676746046,0.013517846694320115,3.12403310512926e-06,-0.008571581811319848,0.014347787213490745
4.94949494949495,0.6075949367088608,0.014979033763749872,0.013521344265588138,6.92410445644492e-05,-0.008550113408801402,0.014306499010077153
5.05050505050505,0.6075949367088608,0.015084723004309065,0.013536706748779513,-7.75187987737101e-06,-0.008586428925926573,0.014373378388472514
5.151515151515151,0.6075949367088608,0.015076425096692884,0.013557817458751155,3.30733998606567e-05,-0.008590272766633211,0.014377512653405903
5.252525252525253,0.6075949367088608,0.014996469200225805,0.013638004481990873,-1.0582687801157677e-05,-0.008590342104665003,0.014365503003280114
5.353535353535354,0.6075949367088608,0.015119506573410133,0.013530320232524094,7.292255874957383e-05,-0.008594948041780267,0.014391429116692151
5.454545454545454,0.6075949367088608,0.014939706760980907,0.01366756472971783,3.330708284819057e-05,-0.00858218144720962,0.014346117336468405
5.555555555555555,0.6075949367088608,0.015097680951884301,0.01352265805606441,-2.9109965828679036e-05,-0.008586101702384613,0.01437511795584916
5.656565656565657,0.6075949367088608,0.015210551451320773,0.013743680875684535,2.5457568465618627e-05,-0.008686269698101592,0.014532811793977684
5.757575757575758,0.6075949367088608,0.015112640060369139,0.013796323332371394,-4.240831372271454e-05,-0.00867268901782216,0.014499550124132352
5.858585858585858,0.6075949367088608,0.015166790945217449,0.013476273815884425,-1.376786300870819e-05,-0.008592919428330561,0.014396188541164315
5.959595959595959,0.6075949367088608,0.01513016461357171,0.013472571830127083,-7.537012633226922e-05,-0.008580820933109638,0.014373826399450828
6.0606060606060606,0.6075949367088608,0.015083453071813932,0.013812838858977012,4.495670183799462e-05,-0.008668887579237282,0.014490197738847157
6.161616161616162,0.6075949367088608,0.015260699402530411,0.01349009180782929,-4.9028395558827045e-05,-0.00862523736310791,0.014457195391809136
6.262626262626262,0.6075949367088608,0.015360632448860542,0.013809145108959893,7.018636655168665e-05,-0.00875093326734613,0.014647153095251457
6.363636363636363,0.6075949367088608,0.015102970085633074,0.01362459978877507,-4.3931954645326965e-05,-0.008618270962322443,0.014420932418645524
6.4646464646464645,0.6075949367088608,0.01512568339646562,0.013695282252823408,7.227657213074458e-05,-0.008646289694786709,0.014464170301880823
6.565656565656566,0.6075949367088608,0.015263949635343468,0.013792705525737779,-2.4365152056224716e-05,-0.008716996548324373,0.014584152450243333
6.666666666666667,0.6075949367088608,0.015357267728741146,0.013820240448551013,-3.7634902153394055e-05,-0.008753252453187647,0.014649499467954682
6.767676767676767,0.6075949367088608,0.015435666026624701,0.013716482084807876,6.691545484048723e-05,-0.008745644433429773,0.014652373970840548
6.8686868686868685,0.6075949367088608,0.01526052553720832,0.013825645846983878,-1.490326346403624e-05,-0.00872585141525766,0.014596101108292578
6.96969696969697,0.6075949367088608,0.015551833304882736,0.013811929747100925,-1.9086426363932685e-05,-0.008809128915595097,0.01475903744527605
7.070707070707071,0.6075949367088608,0.01550081806598349,0.013807142049749106,-0.00010398702878361326,-0.008792388034719779,0.014728305241228014
7.171717171717171,0.6075949367088608,0.01531785379121216,0.013942998666903739,-2.2345080844019603e-05,-0.008778255737434768,0.014678846668299538
7.2727272727272725,0.6075949367088608,0.015522600398679125,0.013897292230139559,6.392449268096682e-06,-0.008825967788645604,0.014777139883789047
7.373737373737374,0.6075949367088608,0.015508591063832585,0.013926668393942658,9.4381099486087e-05,-0.008830577837332572,0.014782158425365056
7.474747474747475,0.6075949367088608,0.01552574543377628,0.014036211397885662,2.305072499782904e-05,-0.008868587049498581,0.014837215057755525
7.575757575757575,0.6075949367088608,0.015724519364164236,0.014103748138056892,4.665466792310049e-06,-0.008948480250666338,0.014980040900187475
7.6767676767676765,0.6075949367088608,0.015665842668932582,0.014203493558280511,-0.00010678479707781983,-0.008960800868163928,0.014989408571831835
7.777777777777778,0.6075949367088608,0.01593978121198202,0.014163867245773743,-1.569425386204919e-05,-0.009031094537326728,0.015130219904462007
7.878787878787879,0.6075949367088608,0.015950571942777395,0.01435899747977123,6.096762815367315e-05,-0.009092870826764587,0.0152177029394581
7.979797979797979,0.6075949367088608,0.016075909086285665,0.014337038578945256,-4.15229327145698e-05,-0.009123884299569276,0.015281026531775151
8.080808080808081,0.6075949367088608,0.016124942915507628,0.014521934341803246,8.877122803344704e-06,-0.009194063177193262,0.015386202753818912
8.181818181818182,0.6075949367088608,0.016204212866009742,0.01469822361463012,-7.44714237424557e-05,-0.009270730944191957,0.015506701319359035
8.282828282828282,0.6075949367088608,0.016149274022562287,0.014585958794893364,9.569045286915791e-06,-0.009220569845236696,0.01542714732740567
8.383838383838384,0.6075949367088608,0.016134793174576487,0.014735004329536503,-6.934694952934034e-05,-0.009260939251233898,0.015482896469733496
8.484848484848484,0.6075949367088608,0.01644269944693483,0.014782679230866912,-0.00011056248442057946,-0.009367613603340522,0.015679907235702267
8.585858585858587,0.6075949367088608,0.016401949873349933,0.014548205746713607,6.498787764374665e-05,-0.009285046686019063,0.015558533959359367
8.686868686868687,0.6075949367088608,0.016624875370951572,0.01512078842237537,1.2351541916234976e-06,-0.009523699137998082,0.015926189285520028
8.787878787878787,0.6075949367088608,0.016751989204556603,0.015049899119525284,1.046231679172777e-05,-0.009540566497224566,0.015969132306350692
8.88888888888889,0.6075949367088608,0.01679717793815315,0.015162944919731447,1.937065996984676e-05,-0.00958803685736538,0.01604264713534045
8.98989898989899,0.6075949367088608,0.017027844822852214,0.015332743161340817,3.911841350038959e-05,-0.009708176395257909,0.016246892984618413
9.09090909090909,0.6075949367088608,0.017121035683778468,0.015526777329120006,4.236444653099708e-06,-0.00979434390386954,0.01638219222966616
9.191919191919192,0.6075949367088608,0.01727764878247076,0.015616496759823632,8.69813045995524e-06,-0.009868243662688316,0.016509875809453883
9.292929292929292,0.6075949367088608,0.01764284261195848,0.015433588782469504,-9.395146709097665e-06,-0.009922929418328393,0.016648526815194613
9.393939393939394,0.6075949367088608,0.01765785093654972,0.01595909708484332,1.8579419042876932e-05,-0.010085084406417909,0.016872763781882676
9.494949494949495,0.6075949367088608,0.01780130440876301,0.015807967855222024,-8.479836977575046e-05,-0.010082781679195511,0.016893709207304958
9.595959595959595,0.6075949367088608,0.01788567368367192,0.01609801877058367,7.387138094939758e-05,-0.010195107736276675,0.01706270763142074
9.696969696969697,0.6075949367088608,0.018288287840776147,0.016410943700245584,-9.186103428484896e-05,-0.010409769462306519,0.017426353562914627
9.797979797979798,0.6075949367088608,0.018357326378043347,0.0163434736374004,-4.31638324151908e-05,-0.010410240004633123,0.017437995066032903
9.8989898989899,0.6075949367088608,0.018441800563002174,0.016658059311296908,-3.449860205791309e-06,-0.010529957962289725,0.01761778579002595
10.0,0.6075949367088608,0.01854741848668048,0.01670999350642058,5.3093297904200136e-05,-0.010577223597930318,0.01770061664819127
0.0,0.7088607594936709,0.01876192723717712,0.01684601597348053,-3.2831748141352524e-05,-0.010682382963197293,0.017881210128852652
0.10101010101010101,0.7088607594936709,0.018634013264333064,0.016304964542302507,6.022159329264126e-06,-0.010481693341990672,0.01758554810930118
0.20202020202020202,0.7088607594936709,0.01829692670510443,0.0163708833684075,3.647282179027849e-05,-0.010400343022053579,0.017414088745168033
0.30303030303030304,0.7088607594936709,0.018060490125923083,0.016260672494794882,7.024268285662644e-05,-0.01029634878621539,0.017231652870282547
0.40404040404040403,0.7088607594936709,0.01781067684361874,0.016214488199708818,-2.1736676722299837e-05,-0.010207549512998267,0.017068691957674288
0.5050505050505051,0.7088607594936709,0.017675700058378672,0.015953775510530545,-4.909887564042388e-05,-0.010088842670672764,0.016880948047135694
0.6060606060606061,0.7088607594936709,0.01762741789237443,0.015801856200596633,-1.102540966528798e-05,-0.010028782227891319,0.0167892514095354
0.7070707070707071,0.7088607594936709,0.01745865992619077,0.0157238536803771,-7.763527510644613e-05,-0.009954754081970362,0.016659683326919025
0.8080808080808081,0.7088607594936709,0.017270007592508047,0.015446103274111462,-2.805111269425189e-05,-0.00981483325998585,0.016434211522796102
0.9090909090909091,0.7088607594936709,0.01694074386212406,0.015341400610220277,-0.00011441682613550279,-0.0096846433417033,0.016201602102622274
1.0101010101010102,0.7088607594936709,0.017203890180071593,0.015244656095455304,4.74881432294212e-05,-0.009734563882658068,0.01631296272504588
1.1111111111111112,0.7088607594936709,0.017041117454264954,0.01512112834067503,-3.0365625951082215e-05,-0.009648673738481994,0.016166943078531566
1.2121212121212122,0.7088607594936709,0.016540995290754715,0.01511960004745879,-3.2742939271396005e-05,-0.009498178601464052,0.015878186732778753
1.3131313131313131,0.7088607594936709,0.016770577319183463,0.014797191197361365,1.0274057546500261e-05,-0.00947033055496345,0.015876145896805846
1.4141414141414141,0.7088607594936709,0.016381734344486927,0.014891753872307616,4.6432756346889137e-05,-0.009382046465038362,0.015690100881437616
1.5151515151515151,0.7088607594936709,0.016568032697523195,0.014973672734851066,5.915707018733822e-06,-0.009462511629712279,0.01583118404132693
1.6161616161616161,0.7088607594936709,0.01646237759989224,0.014540690666312604,-1.1154156667589658e-05,-0.009300920479861453,0.015590625203255654
1.7171717171717171,0.7088607594936709,0.01634796382721988,0.014756131538515228,-2.8658216189290383e-05,-0.009331228609720531,0.015613106626702244
1.8181818181818181,0.7088607594936709,0.01619065057584697,0.014608860777666606,1.95475715622149e-05,-0.009239853406054073,0.015460600423356317
1.9191919191919191,0.7088607594936709,0.01599745772438626,0.014366661460144637,-4.5779397932953e-05,-0.009109235755359268,0.015247814370083436
2.0202020202020203,0.7088607594936709,0.01606151557270665,0.014351719829748172,1.4259386233588984e-05,-0.009123970620736447,0.015278559585692275
2.121212121212121,0.7088607594936709,0.015951885903208982,0.014419419264669043,-7.133421188691436e-05,-0.009111391550363408,0.015244036558868803
2.2222222222222223,0.7088607594936709,0.015795451695142255,0.01421855605870866,7.249980946308328e-05,-0.009004202326155274,0.0150695349601547
2.323232323232323,0.7088607594936709,0.01581927763770167,0.014319497485808802,-8.081817646927324e-07,-0.00904163253705314,0.015125258636594136
2.4242424242424243,0.7088607594936709,0.015782292545439496,0.014127568655056632,-1.4691127631535046e-05,-0.00897295836014884,0.015023454333507392
2.525252525252525,0.7088607594936709,0.01587356736350376,0.014108846799342076,2.515394235170936e-05,-0.008994724248853751,0.015068970333859361
2.6262626262626263,0.7088607594936709,0.01561691215973778,0.013932174170288317,0.00011880086838851531,-0.008864725899007829,0.014847835641723815
2.727272727272727,0.7088607594936709,0.01553453815473127,0.01414076910340514,-1.8994941377432513e-05,-0.008902592177440922,0.014886705201820873
2.8282828282828283,0.7088607594936709,0.015662356150565052,0.01407136745811747,-2.447162543471224e-05,-0.008920117082604756,0.014930633283801373
2.929292929292929,0.7088607594936709,0.01543557489554862,0.014047334106660335,-1.5550411358040132e-05,-0.008844872700662686,0.014790423104832516
3.0303030303030303,0.7088607594936709,0.015399438522123162,0.013887579356529008,-1.9387384210157656e-05,-0.00878610536359565,0.014701964843875998
3.131313131313131,0.7088607594936709,0.01534092001966704,0.013814354409769197,6.268856634928537e-05,-0.008746582328830872,0.014637865221881895
3.2323232323232323,0.7088607594936709,0.015554222281579946,0.01388400466873485,-8.193757198943715e-05,-0.008831468085094439,0.014790695147536649
3.3333333333333335,0.7088607594936709,0.015256051898733908,0.013783198017216653,-9.756521704879778e-05,-0.008711774974785168,0.01457652358253563
3.4343434343434343,0.7088607594936709,0.015258814255199536,0.013782287792139063,6.995231127439391e-05,-0.00871233061420158,0.014577248704938456
3.5353535353535355,0.7088607594936709,0.015424713188443986,0.013660178229098109,-2.2486700167139102e-05,-0.008725467425262628,0.014622565844087417
3.6363636363636362,0.7088607594936709,0.015260346349971414,0.01369548959121987,5.291378196226464e-05,-0.008686750782357386,0.014541495482749313
3.7373737373737375,0.7088607594936709,0.015122758053341963,0.013690958383139057,4.573786222237337e-06,-0.008644114930944306,0.014460123242930547
3.8383838383838382,0.7088607594936709,0.01519949993470829,0.013588780342846348,2.0350634255649625e-06,-0.008636484083266392,0.014461573080474879
3.9393939393939394,0.7088607594936709,0.015164654169678531,0.013592024703891327,-4.0708410572353565e-05,-0.008627003662070956,0.014442869834661509
4.040404040404041,0.7088607594936709,0.014985379881233444,0.013547768942556944,4.191454336974879e-05,-0.008559944647137116,0.01432097970968579
4.141414141414141,0.7088607594936709,0.014964034089588287,0.013598643703794483,5.435698947632499e-05,-0.008568803338014831,0.014330517189141455
4.242424242424242,0.7088607594936709,0.015025747719717831,0.01369584825225942,1.539802783405768e-05,-0.008616478791593175,0.014406932516580971
4.343434343434343,0.7088607594936709,0.015030892824678756,0.013650743773926447,-3.4075098393068244e-05,-0.008604490979581561,0.01439066229825171
4.444444444444445,0.7088607594936709,0.015132238798090307,0.013504010433149007,-4.661047691073433e-05,-0.008590874769371794,0.014387618142847227
4.545454545454545,0.7088607594936709,0.015120806823160839,0.013476813214939988,-5.561476157023475e-05,-0.008579286011430248,0.014369839359015578
4.646464646464646,0.7088607594936709,0.015070261288888987,0.01351897899459559,-1.2737763249742898e-05,-0.008576772085045373,0.014357628958709836
4.747474747474747,0.7088607594936709,0.015080385985973941,0.013595207485283218,4.1783123724362416e-05,-0.008602678041377147,0.014395553796386976
4.848484848484849,0.7088607594936709,0.014850340909762057,0.01346365730040813,-9.100393776582194e-05,-0.008494199463051055,0.014208716950723769
4.94949494949495,0.7088607594936709,0.014977505318702556,0.01341165253850956,-6.76486578572619e-05,-0.008516747357163634,0.014259688677530283
5.05050505050505,0.7088607594936709,0.015119900637096293,0.013587805873467333,-4.9754021218483274e-05,-0.008612311953169088,0.014415304902623495
5.151515151515151,0.7088607594936709,0.014964049075135008,0.013587713647708414,5.768996312710211e-05,-0.008565528816853026,0.014325903023806798
5.252525252525253,0.7088607594936709,0.015040563345827148,0.01356160569860015,-7.165804854428986e-05,-0.008580650713328189,0.014358861721284899
5.353535353535354,0.7088607594936709,0.015051631069199775,0.013757536108998639,4.205915323082019e-05,-0.008642750153459524,0.014448299090791662
5.454545454545454,0.7088607594936709,0.015095880277586573,0.013479347540086034,-2.2168681530476594e-05,-0.008572568345301781,0.01435608822513477
5.555555555555555,0.7088607594936709,0.015092293367789606,0.01344116310315018,7.64561323166179e-05,-0.008560036941281936,0.01433881949563375
5.656565656565657,0.7088607594936709,0.015216572224084084,0.013507240493483418,5.852211548480203e-05,-0.00861714381527025,0.014438351360055076
5.757575757575758,0.7088607594936709,0.015104023203924948,0.01333505286798991,-3.9313798061746815e-05,-0.008531722821574456,0.014301987299576858
5.858585858585858,0.7088607594936709,0.015088714029861396,0.01367961072166624,3.879193550553482e-05,-0.008630497425458291,0.014435990468097265
5.959595959595959,0.7088607594936709,0.015182045651292306,0.013731581082357244,3.9911796022748264e-05,-0.008674088020094865,0.014511447797407769
6.0606060606060606,0.7088607594936709,0.015071223343723326,0.013600872587395127,-8.501894513946501e-05,-0.008601628779335535,0.014393241623897268
6.161616161616162,0.7088607594936709,0.015128015445859224,0.013597548855863317,3.415998526140829e-05,-0.008617669290516761,0.014423930040533287
6.262626262626262,0.7088607594936709,0.015172065475216249,0.013635443623442123,8.137365403198141e-05,-0.00864225272959751,0.014465784291511645
6.363636363636363,0.7088607594936709,0.015200875554700946,0.013689889759209362,3.8847085460335615e-05,-0.008667229594173091,0.014504685999691272
6.4646464646464645,0.7088607594936709,0.015197411165847418,0.013805985282570377,-3.5453081982995216e-05,-0.008701018934525339,0.014551806473444446
6.565656565656566,0.7088607594936709,0.015375496106841581,0.013420391141388724,7.0058516261926735e-06,-0.008638766174469091,0.014497163668060144
6.666666666666667,0.7088607594936709,0.015202144150488815,0.013802464762301734,1.1409684813555325e-05,-0.008701382673837164,0.01455288809415477
6.767676767676767,0.7088607594936709,0.015298426589519234,0.013702376216072598,-1.7636161973476412e-05,-0.008700240841677549,0.014566163068590423
6.8686868686868685,0.7088607594936709,0.015299413780939023,0.013841145321212497,-4.232864981142643e-05,-0.008742167730645456,0.01462509253016048
6.96969696969697,0.7088607594936709,0.01568198254788109,0.01386809530788359,-1.9469183654704027e-05,-0.008865023356729403,0.01485834959399409
7.070707070707071,0.7088607594936709,0.015448421029617628,0.013805660778635254,-7.059567141390781e-05,-0.008776224542475864,0.014696573505042288
7.171717171717171,0.7088607594936709,0.015617392453810048,0.013880093739260628,1.344897190294066e-05,-0.008849245857921201,0.01482530339216759
7.2727272727272725,0.7088607594936709,0.015452333649064119,0.013935792831967057,6.195582779967334e-05,-0.008816437944309351,0.014753031286061438
7.373737373737374,0.7088607594936709,0.015516046363504569,0.014074354702716972,8.420812780952863e-05,-0.008877120319866462,0.014848504570323474
7.474747474747475,0.7088607594936709,0.015659999588075013,0.01415403103272585,-1.9510193868871228e-05,-0.00894420918624026,0.01496399690506459
7.575757575757575,0.7088607594936709,0.015715246261266035,0.014239746512805773,-1.6698043976981807e-05,-0.008986497832221541,0.01503193464356705
7.6767676767676765,0.7088607594936709,0.015708862532534743,0.014237030739237516,8.310504985024639e-05,-0.008983767981531677,0.015027793149023779
7.777777777777778,0.7088607594936709,0.015899676334413977,0.014333154985468544,-3.197054025664158e-05,-0.009069849395964755,0.015177271843219275
7.878787878787879,0.7088607594936709,0.01606658864650866,0.014416457469655966,3.397499623833472e-07,-0.009144913834849387,0.015308371080946558
7.979797979797979,0.7088607594936709,0.01602377996582401,0.014259280400588678,6.1927850132649e-06,-0.009084918109923805,0.015218447535063954
8.080808080808081,0.7088607594936709,0.015969286151401085,0.01441996185257681,-9.90774579199559e-05,-0.009116774401193368,0.015254715727505962
8.181818181818182,0.7088607594936709,0.016263953772001585,0.014365185714586847,2.7847981808554934e-05,-0.009188741845976529,0.015402673893009259
8.282828282828282,0.7088607594936709,0.01609722547491172,0.014683694071113015,1.771830421499973e-05,-0.00923427586380742,0.015439098001883676
8.383838383838384,0.7088607594936709,0.01632201280075156,0.014757324617688389,4.593854514423031e-05,-0.009323801225531983,0.015598840388784143
8.484848484848484,0.7088607594936709,0.01656334465283005,0.014837340680648169,-2.8512062617058434e-05,-0.009420205600043466,0.015771414519635304
8.585858585858587,0.7088607594936709,0.0164502303790029,0.014945649012374322,0.00012033425362045984,-0.009418763817413167,0.015753303637772744
8.686868686868687,0.7088607594936709,0.016849136158836476,0.015053868617447617,-3.837567522704555e-06,-0.009570901432885227,0.016027093054529512
8.787878787878787,0.7088607594936709,0.016766272546651757,0.015037627863076379,-2.3471013177330866e-06,-0.009541170122918441,0.015972263339181777
8.88888888888889,0.7088607594936709,0.016801654614421947,0.015210221303000579,9.772594058845454e-05,-0.009603562775226756,0.01606605726384143
8.98989898989899,0.7088607594936709,0.01709520518156845,0.015262491756800917,-2.8330252689686905e-05,-0.00970730908151081,0.016256588648036963
9.09090909090909,0.7088607594936709,0.01713450011536748,0.015337067586903747,7.710140784610614e-05,-0.009741470310681368,0.016310781217123115
9.191919191919192,0.7088607594936709,0.017327365321366712,0.015498650627248901,-1.2293896117716954e-06,-0.009847804784584685,0.016489238410953067
9.292929292929292,0.7088607594936709,0.017451960802124567,0.01579065580446688,-9.527803151015788e-05,-0.009972784981977434,0.016684276254740706
9.393939393939394,0.7088607594936709,0.01749845942176069,0.015804698982593946,1.1773657238465022e-05,-0.009990947521306389,0.01671607382438721
9.494949494949495,0.7088607594936709,0.017708395112643296,0.015872957874882514,3.297648408152775e-05,-0.010074405896257741,0.016865844237808805
9.595959595959595,0.7088607594936709,0.017851374755967934,0.015995425900689118,1.6169452223357113e-05,-0.010154040196997114,0.016999578601879627
9.696969696969697,0.7088607594936709,0.018224338442846565,0.01641490264117658,7.685678513414196e-05,-0.010391772325206943,0.01739087462020834
9.797979797979798,0.7088607594936709,0.018306728642466834,0.01629284487490201,2.9572661765569023e-06,-0.010379872055210652,0.01738747951843994
9.8989898989899,0.7088607594936709,0.01838584235780818,0.016536108238688944,2.9623929249369385e-05,-0.010476585178949137,0.017534378470056313
10.0,0.7088607594936709,0.01859901469710995,0.01691851628078342,-8.478944823009339e-05,-0.01065525929336801,0.017818905006718403
0.0,0.810126582278481,0.01869531892560376,0.016875098063567052,5.666025461539103e-05,-0.010671125096751242,0.017855200232402252
0.10101010101010101,0.810126582278481,0.018678273719933757,0.016514661243568603,1.1909236454904368e-05,-0.010557880489050707,0.01769596020387076
0.20202020202020202,0.810126582278481,0.018264434747982908,0.016397646345777884,3.0831690469533975e-06,-0.010398624328128237,0.01740628246235714
0.30303030303030304,0.810126582278481,0.018109711779249985,0.01621536067544935,6.386563142345008e-06,-0.0102975217364098,0.017240771348695772
0.40404040404040403,0.810126582278481,0.017721530163701964,0.015995296811876388,4.833112622887547e-05,-0.010115048092673506,0.016924775455150826
0.5050505050505051,0.810126582278481,0.01757366682437055,0.01585079917447622,-5.193081307109504e-05,-0.01002733979965403,0.016778945943036586
0.6060606060606061,0.810126582278481,0.017525382839474295,0.01582827829104538,1.9405863584744725e-05,-0.010006098339155901,0.016741503228540525
0.7070707070707071,0.810126582278481,0.017435298468431448,0.015375297108410029,2.389905745865663e-05,-0.009843178673052443,0.01650206693793454
0.8080808080808081,0.810126582278481,0.017348362324595405,0.015468199534834257,-6.062548434550883e-05,-0.009844968557828898,0.016489207637224463
0.9090909090909091,0.810126582278481,0.016930202205931923,0.015245349388629207,-2.8681891238034513e-05,-0.00965266547836834,0.016153886368864955
1.0101010101010102,0.810126582278481,0.017128097486238506,0.015397270188183243,7.855640410550424e-05,-0.009757610302326523,0.0163321836037539
1.1111111111111112,0.810126582278481,0.01691255940245055,0.015180482372807868,1.4519144325379941e-05,-0.009627912532577524,0.016116498786685595
1.2121212121212122,0.810126582278481,0.01660755929457326,0.014965239878744981,0.00010041279350342028,-0.009471839751995472,0.015851295527327527
1.3131313131313131,0.810126582278481,0.016621891637711595,0.014971807448979779,1.940521953012379e-05,-0.00947810972600741,0.015861389237868256
1.4141414141414141,0.810126582278481,0.01649222938875844,0.014931396310796957,-2.3226415488404974e-05,-0.00942708770986662,0.01576990270574023
1.5151515151515151,0.810126582278481,0.016374641940244457,0.014852214879093505,-5.0050037234212665e-05,-0.009368057045801388,0.015669237372633472
1.6161616161616161,0.810126582278481,0.016442414837515882,0.014557994201273065,9.568804349978355e-05,-0.009300122711636685,0.015586760073818633
1.7171717171717171,0.810126582278481,0.016147500086528092,0.01465599680034166,1.1219719690284907e-06,-0.009241049066060925,0.01545581752709447
1.8181818181818181,0.810126582278481,0.01603232138315306,0.014463793890292492,-3.918249741210475e-05,-0.009148834582033666,0.015308594852860425
1.9191919191919191,0.810126582278481,0.01607709161576543,0.014508068602764924,3.1027403168346276e-05,-0.009175548065559105,0.015352923806527176
2.0202020202020203,0.810126582278481,0.016217241248955006,0.014384795774461421,-3.551569161346712e-05,-0.009180611107024927,0.015383216305488064
2.121212121212121,0.810126582278481,0.01602771519432604,0.014382121368793375,-4.4248606167072314e-05,-0.009122950968935823,0.015271751636447116
2.2222222222222223,0.810126582278481,0.015810733544233548,0.014241059085291654,2.3197936264491895e-05,-0.009015537788857561,0.01508731529878752
2.323232323232323,0.810126582278481,0.015867362111964205,0.014168740951192884,2.494336107624723e-05,-0.009010830918947126,0.015089987531631665
2.4242424242424243,0.810126582278481,0.015766249087374416,0.014194955742056686,3.167605797625078e-05,-0.00898836144882933,0.015042379496226917
2.525252525252525,0.810126582278481,0.01563137675534965,0.014199716112824926,-0.00011303637490103207,-0.008949327860452373,0.01496826964749373
2.6262626262626263,0.810126582278481,0.015558905138036976,0.013937175599934574,5.1819368301135717e-05,-0.008848824221391464,0.01481503477846383
2.727272727272727,0.810126582278481,0.01551854223980096,0.013990493160881644,-1.1222112561863356e-05,-0.008852710620204781,0.014813756136368842
2.8282828282828283,0.810126582278481,0.01556136166548495,0.013939827181769183,9.95329436685205e-06,-0.00885035665417624,0.014817299471089652
2.929292929292929,0.810126582278481,0.015178184817938922,0.013953511474466019,5.783481349245774e-05,-0.008739508887721481,0.014604753863514609
3.0303030303030303,0.810126582278481,0.015463639282544456,0.013804505869420986,-1.3211353406682853e-05,-0.008780443545589633,0.014704460090075158
3.131313131313131,0.810126582278481,0.015401930483344458,0.013927244700303449,-2.8195610898095724e-05,-0.008798752555094371,0.014720174517808077
3.2323232323232323,0.810126582278481,0.015295178689979677,0.013791203510277237,3.2528328431059846e-05,-0.008725914660077074,0.014601508061059238
3.3333333333333335,0.810126582278481,0.01524112836655956,0.01392864671425722,2.8006445349338366e-05,-0.008750932524245034,0.014629191833967655
3.4343434343434343,0.810126582278481,0.015336458127513886,0.013699214439448992,5.182882417194609e-05,-0.008710701770088864,0.014587188015707365
3.5353535353535355,0.810126582278481,0.0153193258303974,0.013837701161802845,-5.6356789344533415e-05,-0.008747108097660073,0.014635197052415456
3.6363636363636362,0.810126582278481,0.01513240246926768,0.013725441295003653,-3.7320584266364336e-05,-0.0086573531292814,0.014480421954080558
3.7373737373737375,0.810126582278481,0.015041495474718211,0.013629750090503304,5.075005591955372e-05,-0.008601373669566453,0.01438793161097957
3.8383838383838382,0.810126582278481,0.015340243815192885,0.013724232025670692,-5.0785281300597754e-05,-0.008719342752259074,0.01459973619584724
3.9393939393939394,0.810126582278481,0.015327232813699099,0.013604862864966668,-3.179605823269189e-05,-0.00867962870359973,0.014542850193069013
4.040404040404041,0.810126582278481,0.015118738048426086,0.013627996495799018,-2.122323079290133e-05,-0.008624020363267532,0.014431277517883121
4.141414141414141,0.810126582278481,0.015224567571645538,0.013566463694426814,3.716832620497479e-05,-0.008637309379821706,0.01446710047470271
4.242424242424242,0.810126582278481,0.015107915617457392,0.013481549402018365,-1.6610147644223445e-05,-0.008576839505842726,0.014363982926612394
4.343434343434343,0.810126582278481,0.015030721273748214,0.013533927868964995,-8.134539550048376e-05,-0.008569394742813962,0.014341720233435596
4.444444444444445,0.810126582278481,0.015199270922704091,0.013545531976139866,-3.433499171766818e-05,-0.008623440869653188,0.014443704492818083
4.545454545454545,0.810126582278481,0.014897677354024868,0.013421671418014853,-6.440780747144734e-05,-0.008495804631611916,0.014217692110798057
4.646464646464646,0.810126582278481,0.0149473986874392,0.01354177989375105,9.090592558756316e-06,-0.008546753574357075,0.014296516887663006
4.747474747474747,0.810126582278481,0.014935721069920565,0.013613689181624374,-3.22233669142894e-05,-0.008564823075463482,0.014320654583472595
4.848484848484849,0.810126582278481,0.015203887005600271,0.013638753048098032,-4.688239072969368e-05,-0.008652792016109492,0.01448510608940014
4.94949494949495,0.810126582278481,0.015068326212483985,0.013573748394884289,0.00010347612603252168,-0.008592622382210481,0.014380526886005758
5.05050505050505,0.810126582278481,0.015280273797845502,0.01354526874831745,6.207137194509352e-06,-0.008647662763848886,0.01449088586827027
5.151515151515151,0.810126582278481,0.015067865820367638,0.013624740321245235,-7.113608468222933e-05,-0.008607781842483862,0.014401164926203884
5.252525252525253,0.810126582278481,0.015118042664586483,0.013489203483803638,-2.095149999295731e-05,-0.008582173844517036,0.014373057703646124
5.353535353535354,0.810126582278481,0.015075619852756298,0.013537248515111268,-5.132876312051024e-05,-0.00858386051036027,0.014368608240339958
5.454545454545454,0.810126582278481,0.015029861566754196,0.01371488426172012,6.652901137648946e-06,-0.008623423748542294,0.014417423832077093
5.555555555555555,0.810126582278481,0.015305886996245676,0.013509550454988676,3.36611770642427e-05,-0.008644631235370305,0.01449157951460486
5.656565656565657,0.810126582278481,0.015117331856116266,0.01373568815887539,-6.422631528530079e-05,-0.008655906004497496,0.014476473000516965
5.757575757575758,0.810126582278481,0.015264027683875912,0.013572530599802813,7.574121667404945e-07,-0.008650967485103618,0.014492503128241527
5.858585858585858,0.810126582278481,0.015213825379570748,0.013531037319972298,5.6058435710843284e-05,-0.008623458809862913,0.014446454315460374
5.959595959595959,0.810126582278481,0.015139657629235172,0.013739118890660304,7.574639498748708e-05,-0.008663632955968642,0.014490834256151854
6.0606060606060606,0.810126582278481,0.015187590720937866,0.013646916344893689,-0.00012628632026660995,-0.008650352119749466,0.014480514572562025
6.161616161616162,0.810126582278481,0.015027000136412873,0.013630265615181578,6.9135280581675345e-06,-0.008597179725478335,0.01437960409650026
6.262626262626262,0.810126582278481,0.015213909031945073,0.013553493302781723,-3.5228856037457095e-05,-0.008630220700418039,0.01445552896936477
6.363636363636363,0.810126582278481,0.015216806781889969,0.013886953058666923,-4.2049455893254995e-05,-0.008731127952167067,0.014597564758489803
6.4646464646464645,0.810126582278481,0.015128301863205327,0.013894726850043658,6.628657877099806e-05,-0.008706908613974695,0.014551237443561868
6.565656565656566,0.810126582278481,0.015137040029660707,0.013789916652333197,-1.8228697370234075e-05,-0.00867808700459817,0.014510487883666011
6.666666666666667,0.810126582278481,0.015234626701828777,0.013843251746224985,1.9327264695079657e-05,-0.008723363534416129,0.014588825092848987
6.767676767676767,0.810126582278481,0.015435049462647833,0.013762616125888789,-4.6862193950760915e-05,-0.008759299676560986,0.014670728751500273
6.8686868686868685,0.810126582278481,0.015351013221764858,0.014050453875769173,1.634281214676662e-05,-0.008820440129260209,0.014743844786680074
6.96969696969697,0.810126582278481,0.01551637017129517,0.013852938781597865,-1.909927791527495e-05,-0.00881079268586791,0.014755182968402803
7.070707070707071,0.810126582278481,0.015511128568133184,0.013816335754991669,-7.207531385444402e-05,-0.008798239296937455,0.014737532611270077
7.171717171717171,0.810126582278481,0.015546296533611087,0.01395379104562187,-6.994335229108816e-06,-0.008850026273769886,0.01481438469376087
7.2727272727272725,0.810126582278481,0.015601294722405148,0.014039797944310926,6.682763032089787e-06,-0.008892327800014822,0.014882117851239338
7.373737373737374,0.810126582278481,0.015489434690202225,0.014066889540371639,3.0497723627574253e-05,-0.008866897269172159,0.014829517587117298
7.474747474747475,0.810126582278481,0.015506532749146812,0.014017143293474097,-2.000500414557177e-05,-0.008857102812786273,0.014818123129498598
7.575757575757575,0.810126582278481,0.015769366078147152,0.01416751686371746,-2.758626891334246e-05,-0.008981064882559384,0.015032663228940856
7.6767676767676765,0.810126582278481,0.015683787873797705,0.014179145802744507,-6.138706858932278e-06,-0.008958880102962663,0.014988221235858605
7.777777777777778,0.810126582278481,0.015834681915205134,0.014324604183520091,-6.827507609215876e-05,-0.009047785829617567,0.01513670604923788
7.878787878787879,0.810126582278481,0.015872343083042095,0.014222846466325385,1.803805762427277e-05,-0.009028556864810244,0.01511528080897202
7.979797979797979,0.810126582278481,0.015869635753799325,0.014406013832976503,1.650504871231012e-05,-0.009082694876032749,0.015190826131930537
8.080808080808081,0.810126582278481,0.016114445821197386,0.014521550617779454,1.8184238710221844e-05,-0.00919079893169305,0.015380021059760182
8.181818181818182,0.810126582278481,0.016097932594662835,0.014864663920313452,-4.1095685091111755e-05,-0.009288778954492885,0.015518259439146306
8.282828282828282,0.810126582278481,0.016117587978012198,0.014451651799414066,-2.4293420591499348e-05,-0.009170771933227878,0.015352618120915687
8.383838383838384,0.810126582278481,0.0163287628083367,0.014796497130684632,0.00010697014794453268,-0.0093375779817064,0.015620200318361742
8.484848484848484,0.810126582278481,0.016430348781612616,0.014868671545464002,6.507478729533477e-05,-0.009389706098122985,0.015708246222444506
8.585858585858587,0.810126582278481,0.016612398447396936,0.014827563692814256,1.0030735162828594e-05,-0.009431988642063358,0.015795801119832344
8.686868686868687,0.810126582278481,0.016478718882316012,0.015040996527353101,2.807171765575002e-05,-0.009455914622900734,0.01580904055020733
8.787878787878787,0.810126582278481,0.01679963317588509,0.015131741423626895,0.00011155757074686824,-0.009579412379853594,0.016032058613955374
8.88888888888889,0.810126582278481,0.01689419295603102,0.01512518053771495,-5.35297316721857e-07,-0.009605812048123791,0.016082820781652317
8.98989898989899,0.810126582278481,0.01713241844130491,0.015479141345777794,-6.266088788467145e-05,-0.00978346793612481,0.01636887995444938
9.09090909090909,0.810126582278481,0.01721806936151122,0.01548292829015898,1.5449276505731452e-05,-0.00981029929550106,0.016419426414987483
9.191919191919192,0.810126582278481,0.01720564473690718,0.015522391853419186,-2.5515033574260104e-05,-0.00981841097709791,0.016428878629339807
9.292929292929292,0.810126582278481,0.017482143848547214,0.015646312144241573,9.014517702669656e-05,-0.009938536797836635,0.016641085785196217
9.393939393939394,0.810126582278481,0.017624150710946043,0.015805578449763984,9.349552764046021e-05,-0.010028918748213008,0.01678967915067255
9.494949494949495,0.810126582278481,0.017789833708294386,0.016071430759478058,-3.6678157596458775e-05,-0.010158379340331734,0.016996029689951613
9.595959595959595,0.810126582278481,0.017984577258213955,0.016158909852462124,4.48891280567284e-07,-0.010243046133202824,0.017144801682464995
9.696969696969697,0.810126582278481,0.018053138394412405,0.016338115888848627,7.542896692945165e-05,-0.01031737628497831,0.017260145944547483
9.797979797979798,0.810126582278481,0.018327505104135187,0.01640449630401512,0.00016877726756135008,-0.01041960042244509,0.01744812052589274
9.8989898989899,0.810126582278481,0.018476519569306824,0.016520348641647514,-5.3329875294949114e-05,-0.010499060463286301,0.017580491514579112
10.0,0.810126582278481,0.01860476326741191,0.016870491353635133,-4.0304662307899705e-05,-0.010642576386314113,0.017801237886945598
0.0,0.9113924050632911,0.018700965545429667,0.01680328080867852,9.496771539322079e-06,-0.010651273906232456,0.01782804120982964
0.10101010101010101,0.9113924050632911,0.01857993808156928,0.016374239431315152,-6.347528974752602e-05,-0.010486253253865329,0.01758151155730315
0.20202020202020202,0.9113924050632911,0.01824965634189555,0.016637649003029987,0.0001423793099748537,-0.010466191603477662,0.01750116453001518
0.30303030303030304,0.9113924050632911,0.018037199838256548,0.016395608957180747,-5.5441569355222955e-05,-0.010329842638631188,0.017275268945930972
0.40404040404040403,0.9113924050632911,0.01790336544274143,0.016100313629531904,2.843066884793809e-05,-0.010201103721682,0.01707346536008938
0.5050505050505051,0.9113924050632911,0.01761896574288996,0.0158614263926769,6.1121843512595e-05,-0.010044117640670059,0.016809582994612195
0.6060606060606061,0.9113924050632911,0.01759344653954894,0.015801126212384168,4.4672881119494774e-08,-0.010018371825579932,0.016769277904650555
0.7070707070707071,0.9113924050632911,0.017456939888938146,0.015585774299872719,3.4258926362947095e-05,-0.00991281425664326,0.01660074416281524
0.8080808080808081,0.9113924050632911,0.017205997461091055,0.015449941856058547,2.625211852777326e-05,-0.00979678179514488,0.016398702971835773
0.9090909090909091,0.9113924050632911,0.017243100634788264,0.015330225442591628,-9.451459545948074e-05,-0.009771997823213968,0.0163715152196669
1.0101010101010102,0.9113924050632911,0.017070144826623876,0.015518775368287592,-3.337131701657379e-06,-0.009776676058473441,0.01634975607384144
1.1111111111111112,0.9113924050632911,0.016929009718019927,0.015136610011803556,4.946537439208575e-05,-0.009619685918947045,0.016108005933831035
1.2121212121212122,0.9113924050632911,0.01674695752029486,0.014845850549962077,8.404597129842819e-05,-0.009477842421077081,0.01588263918249682
1.3131313131313131,0.9113924050632911,0.01651724987803661,0.01489405246965407,7.185199104039687e-06,-0.009423390704307205,0.015768440349181748
1.4141414141414141,0.9113924050632911,0.016686603779647004,0.014746829528919285,2.827632559470609e-05,-0.009430029992569885,0.015806315957573046
1.5151515151515151,0.9113924050632911,0.016422502354535864,0.014737520165353443,-2.2277937527540976e-05,-0.009348006755966792,0.015648246339858667
1.6161616161616161,0.9113924050632911,0.016293124889465015,0.014765666249322537,6.206247186044908e-06,-0.009317637341636266,0.015585637289704548
1.7171717171717171,0.9113924050632911,0.01634259574401409,0.014667605580238918,-4.508307309351954e-06,-0.009303060397275902,0.015572809687199606
1.8181818181818181,0.9113924050632911,0.016179476881107626,0.014675550584790864,-1.7884814087055827e-05,-0.009256508239769546,0.015482425046116875
1.9191919191919191,0.9113924050632911,0.01605734225177695,0.014548895795022183,-2.573288354986672e-05,-0.00918187141403974,0.015358840985663372
2.0202020202020203,0.9113924050632911,0.01601698331906116,0.014561459061982706,-1.0791537824049196e-05,-0.00917353271431316,0.015341106450702264
2.121212121212121,0.9113924050632911,0.01590840966845489,0.01447586381964447,3.970944040091362e-05,-0.009115282046429809,0.015242863578592551
2.2222222222222223,0.9113924050632911,0.015987796665741166,0.0140791667363336,2.069452053931578e-05,-0.00902008902062243,0.015124120073595674
2.323232323232323,0.9113924050632911,0.01575879530299386,0.01417221622781797,-2.4694533269304865e-05,-0.008979303459243549,0.01502851014391172
2.4242424242424243,0.9113924050632911,0.015697452375682232,0.014295174334427693,6.699159721519269e-05,-0.008997788013032977,0.015045852107608617
2.525252525252525,0.9113924050632911,0.015719252633321003,0.014105927828638962,7.796744771738092e-05,-0.008947554138587988,0.014978507831552582
2.6262626262626263,0.9113924050632911,0.015676083302463784,0.013920506264016754,-9.594368284375512e-05,-0.00887897686994416,0.01487711941593368
2.727272727272727,0.9113924050632911,0.015474756710095468,0.013970359065392209,1.1628934648478597e-05,-0.008833534732646302,0.014780105739113404
2.8282828282828283,0.9113924050632911,0.01554102613095034,0.013993181152033476,-0.00010250392640126228,-0.008860262184895145,0.014828881926241613
2.929292929292929,0.9113924050632911,0.015573127346784557,0.014083338403712783,2.1992336887247247e-05,-0.0088969397251492,0.014884305308358362
3.0303030303030303,0.9113924050632911,0.015370809791579097,0.01389348321182069,4.055321077708477e-05,-0.008779287901019934,0.01468814199629643
3.131313131313131,0.9113924050632911,0.015396167964126403,0.013712674606634,-2.4254677020418062e-05,-0.00873265277122812,0.014627322250977489
3.2323232323232323,0.9113924050632911,0.015376143037759327,0.01376332525752647,-2.1146867641337365e-05,-0.008741840488585739,0.014636576805974855
3.3333333333333335,0.9113924050632911,0.01522435297497123,0.013542459698522158,-2.189674008058459e-05,-0.008630043802048017,0.01445701871046264
3.4343434343434343,0.9113924050632911,0.015211187525328127,0.013931648366953842,-8.181614415492749e-05,-0.008742850767684591,0.014614178661451096
3.5353535353535355,0.9113924050632911,0.015108344580236046,0.013692257606064507,7.973715889835098e-06,-0.008640180655890166,0.01445243367231395
3.6363636363636362,0.9113924050632911,0.015238603942632888,0.013754308785338178,3.580735048044349e-05,-0.00869787381839132,0.014553468407821495
3.7373737373737375,0.9113924050632911,0.015025995982098724,0.013620158431211508,5.664032048004117e-05,-0.008593846323993069,0.014375063459342677
3.8383838383838382,0.9113924050632911,0.015139923683197684,0.013776910091038983,-5.660164734536847e-05,-0.008675050132271,0.01450685302401807
3.9393939393939394,0.9113924050632911,0.015261147726147261,0.013735395666453067,3.140303268804796e-05,-0.008698963017780097,0.014558460775159928
4.040404040404041,0.9113924050632911,0.015285370972602642,0.013829518542254239,-5.344739564160801e-05,-0.008734466854457064,0.014612234512972234
4.141414141414141,0.9113924050632911,0.015085383572611865,0.013642589125199195,1.1048376807560504e-05,-0.008618391809343318,0.0144182423302755
4.242424242424242,0.9113924050632911,0.015029976347852934,0.013561722125657115,8.858515331711936e-05,-0.008577509542053014,0.0143531068146914
4.343434343434343,0.9113924050632911,0.015111867035883814,0.013569012289520099,1.09045130778971e-05,-0.008604263797621173,0.014402564598747496
4.444444444444445,0.9113924050632911,0.01521903558611667,0.013455028094260368,-6.27111675960803e-05,-0.008602219104113112,0.014418601592446371
4.545454545454545,0.9113924050632911,0.014943687851295637,0.013705842400925235,-2.326932513385363e-05,-0.008594859075666261,0.014364877873548329
4.646464646464646,0.9113924050632911,0.01510981565681576,0.013640112279858375,1.92882862520177e-06,-0.00862497838100224,0.014431203042861968
4.747474747474747,0.9113924050632911,0.01496289123642084,0.013729047617225813,-0.0001352520834435868,-0.008607581656093996,0.014387616054477139
4.848484848484849,0.9113924050632911,0.014963681144333696,0.013551765462578583,8.944146526993433e-05,-0.008554633982073684,0.014310898034167342
4.94949494949495,0.9113924050632911,0.015129413931463699,0.013430426188139494,-7.106983553322039e-05,-0.008567952035880956,0.014356050612646455
5.05050505050505,0.9113924050632911,0.015096483250319858,0.013545071721618694,-5.812664636153163e-05,-0.008592466491581565,0.014384017596702124
5.151515151515151,0.9113924050632911,0.015104628231393923,0.013614871262948717,-8.330147776894293e-06,-0.008615849848302791,0.014417598719767659
5.252525252525253,0.9113924050632911,0.015099987193145523,0.013471834028279237,-1.883733773217849e-05,-0.008571546366427428,0.014355363755730509
5.353535353535354,0.9113924050632911,0.015080726749460904,0.01374754173637089,-5.063459887683146e-06,-0.008648480545749538,0.014460303579040955
5.454545454545454,0.9113924050632911,0.015075297240409454,0.013676305343937252,1.6424198920674783e-05,-0.008625480775304012,0.014426792983881753
5.555555555555555,0.9113924050632911,0.015143614092951672,0.013562681192069553,-3.9500956388645835e-05,-0.008611888585506367,0.014418461771360821
5.656565656565657,0.9113924050632911,0.015224343155506123,0.01342603016585223,8.638347759768539e-05,-0.008595111996407506,0.014410371486727004
5.757575757575758,0.9113924050632911,0.015018898708283759,0.013538254983162913,-5.274580323841002e-05,-0.008567146107434002,0.014336329114492983
5.858585858585858,0.9113924050632911,0.015080908379845107,0.013688577689556858,7.339365673786521e-05,-0.00863084582082059,0.014435751820541437
5.959595959595959,0.9113924050632911,0.014974567457909272,0.013501324522050884,-8.455325166429622e-05,-0.008542767593988048,0.014295747176406462
6.0606060606060606,0.9113924050632911,0.015178891459364494,0.013541760355691882,-4.726913621680407e-05,-0.008616195544516913,0.014430378095257953
6.161616161616162,0.9113924050632911,0.015182853219699855,0.013575655645199627,-6.0865366901613335e-06,-0.008627552659469843,0.01444646608010145
6.262626262626262,0.9113924050632911,0.015167333074333421,0.013874575633654141,4.533608350935009e-05,-0.00871257261239627,0.014564260976187519
6.363636363636363,0.9113924050632911,0.015367890998039278,0.013508291299987745,-4.4235116567752805e-05,-0.008662854689408106,0.014527832926544158
6.4646464646464645,0.9113924050632911,0.015233658282829198,0.013728560654349409,2.835412759645472e-05,-0.008688665681153581,0.014539736327195334
6.565656565656566,0.9113924050632911,0.015374965236537556,0.013728330117609266,2.1492753970573082e-05,-0.008730988606244047,0.014621401825552218
6.666666666666667,0.9113924050632911,0.015398387988259989,0.013923366499879089,4.313814593584306e-05,-0.008796526346441723,0.014716612061135859
6.767676767676767,0.9113924050632911,0.01541841657858116,0.013782815340574734,-8.550035892639626e-05,-0.008760369575746767,0.014669911754694983
6.8686868686868685,0.9113924050632911,0.015494913470476596,0.013747789506139228,-4.7479869734508314e-05,-0.008772810892984748,0.01469966033515079
6.96969696969697,0.9113924050632911,0.015324235645959132,0.013800001098757885,5.8468598716575303e-05,-0.008737271023415105,0.014622175468713614
7.070707070707071,0.9113924050632911,0.015353477711500795,0.013878712669297995,-2.141311576413049e-05,-0.008769657114239637,0.014671837414811892
7.171717171717171,0.9113924050632911,0.015553266838609015,0.013957172927593055,1.9426915883150754e-05,-0.008853131929860621,0.014819861093931649
7.2727272727272725,0.9113924050632911,0.015527787215549968,0.013889815064396994,-3.5193784719114774e-06,-0.008825280683984088,0.014777045804534959
7.373737373737374,0.9113924050632911,0.015725549586000004,0.014052142260623623,5.727227604813526e-06,-0.008933307553987089,0.014959212893364222
7.474747474747475,0.9113924050632911,0.015690026864123668,0.014259226416578775,6.0902822990864274e-05,-0.008984775984210732,0.015026175924698282
7.575757575757575,0.9113924050632911,0.015511740593129176,0.014258982131440523,1.649755238436003e-05,-0.00893121681737091,0.014924873608041246
7.6767676767676765,0.9113924050632911,0.015832013879563983,0.014166362009060445,-1.1396071938324488e-05,-0.008999512766587328,0.015068404882914837
7.777777777777778,0.9113924050632911,0.015776875649701802,0.014200723745840369,-7.2900373625990195e-06,-0.00899327981866265,0.015050829443318776
7.878787878787879,0.9113924050632911,0.01601714934946217,0.01413604699356201,4.865423155604552e-05,-0.009045958902907254,0.015164591114930084
7.979797979797979,0.9113924050632911,0.015927161088959526,0.01447618830822048,4.951302256201129e-05,-0.009121004819154002,0.015253762151279118
8.080808080808081,0.9113924050632911,0.016105317160921083,0.014472456589759602,-4.896008424008116e-05,-0.009173332125204206,0.015354378150551748
8.181818181818182,0.9113924050632911,0.016143560956090645,0.014476027220915774,5.9607786448178506e-05,-0.009185876453101925,0.015378099878250347
8.282828282828282,0.9113924050632911,0.016213834219657327,0.014669666060238151,3.209516758194322e-05,-0.009265050083968643,0.015499647710910894
8.383838383838384,0.9113924050632911,0.01639644804295511,0.014727655020957783,5.539922169198798e-05,-0.009337230919173867,0.015629309252723243
8.484848484848484,0.9113924050632911,0.0163169618607858,0.01481166887376051,-4.8040360529377024e-05,-0.009338589220363893,0.015619035396375967
8.585858585858587,0.9113924050632911,0.016461248210565188,0.014849598825042444,-5.6762766390969536e-05,-0.009393254110682288,0.0157178246542943
8.686868686868687,0.9113924050632911,0.01656498100889408,0.01496004379071276,-8.253597536953066e-05,-0.009457507439882051,0.01582431993235017
8.787878787878787,0.9113924050632911,0.01686072059274845,0.015106415920234201,6.352945309596776e-05,-0.009590140953894795,0.01605598800594822
8.88888888888889,0.9113924050632911,0.01670614461917084,0.015055282191754981,1.618644205932912e-05,-0.009528428043277746,0.01594496329048327
8.98989898989899,0.9113924050632911,0.017073554200448173,0.015311757592057896,-2.242872517007072e-05,-0.00971559353775182,0.01626442619905781
9.09090909090909,0.9113924050632911,0.016976188632324148,0.015282084805729746,3.520452303645065e-05,-0.009677482031416168,0.01619584083052965
9.191919191919192,0.9113924050632911,0.017111955092578186,0.015550977534570748,5.08718284119333e-05,-0.00979887978814468,0.01638755759662335
9.292929292929292,0.9113924050632911,0.017320044115200238,0.015564778984635656,-1.3032597618553419e-05,-0.009865446929950769,0.016512544439958643
9.393939393939394,0.9113924050632911,0.01757593125314392,0.016037270830943775,-2.293729094380924e-05,-0.010083960625226306,0.016859389783308015
9.494949494949495,0.9113924050632911,0.017691682175948853,0.015980654829574087,-6.01121378091404e-05,-0.010101701101656882,0.016901571559939182
9.595959595959595,0.9113924050632911,0.01778150125099845,0.016016859043183434,-1.8305943251698893e-06,-0.010139508088254565,0.01696813988887
9.696969696969697,0.9113924050632911,0.018213877082731564,0.016351977538631553,1.4180530533200813e-06,-0.010369756386408935,0.017357983318725876
9.797979797979798,0.9113924050632911,0.01816678854395167,0.01635654944291457,3.3070139529411944e-05,-0.010357001396059872,0.017332807664756124
9.8989898989899,0.9113924050632911,0.018498682923648525,0.016610443800107247,5.532733219689151e-05,-0.01053273801712673,0.01763082424074392
10.0,0.9113924050632911,0.018607080060815694,0.016678014235798823,-1.955491670413122e-05,-0.010585528288984354,0.017721500734488672
0.0,1.0126582278481013,0.01852179934924135,0.01692148841701548,0.00010163679648508568,-0.010632986329877048,0.01777662505498367
0.10101010101010101,1.0126582278481013,0.018461043507128124,0.016667534939377164,-3.430095656270021e-06,-0.010538573533951585,0.01763283289638068
0.20202020202020202,1.0126582278481013,0.01841532791675203,0.016504424410614872,6.267154010463704e-05,-0.01047592569821007,0.01753846409963838
0.30303030303030304,1.0126582278481013,0.01798215463526496,0.016229074771696786,-2.183917423264851e-05,-0.010263368822088522,0.017172898764872827
0.40404040404040403,1.0126582278481013,0.017875015381080717,0.01618029035402926,-5.362220233443384e-05,-0.010216591720532993,0.01709104028102705
0.5050505050505051,1.0126582278481013,0.017764413764775562,0.0159212416729484,6.7630471115700496e-06,-0.010105696631317189,0.016918302080993586
0.6060606060606061,1.0126582278481013,0.01768931345342488,0.015862045141627545,-5.711885144658251e-05,-0.010065407578515729,0.016850441706243054
0.7070707070707071,1.0126582278481013,0.017454032822790254,0.01555726570191337,-5.970160680397753e-06,-0.009903389557411086,0.016587189594182622
0.8080808080808081,1.0126582278481013,0.017078402195271968,0.015575180476153277,6.03570631617159e-05,-0.009796074801427574,0.0163789438272968
0.9090909090909091,1.0126582278481013,0.017110792872043656,0.015188562066639735,1.1249782700694608e-05,-0.009689806481605017,0.016235260715138766
1.0101010101010102,1.0126582278481013,0.016798127331850293,0.015461175616539787,8.812548066564756e-05,-0.009677790884517022,0.016171874810819976
1.1111111111111112,1.0126582278481013,0.017027833743729192,0.015176408828564513,-4.206944144793363e-05,-0.009661272771688111,0.016181917379898596
1.2121212121212122,1.0126582278481013,0.01670469956514793,0.015094422759396889,-2.902914259719039e-05,-0.009539736697363447,0.015960680335422913
1.3131313131313131,1.0126582278481013,0.016658024782187007,0.014876906497892715,-4.734037834796123e-06,-0.009460479384023918,0.015842737348708582
1.4141414141414141,1.0126582278481013,0.016451148683678887,0.014807245341214633,7.890660753355014e-06,-0.009377518207468056,0.015693909636893537
1.5151515151515151,1.0126582278481013,0.016376426517628523,0.014513405909268516,4.23669852249948e-06,-0.00926694972806911,0.015528960848352622
1.6161616161616161,1.0126582278481013,0.016327144929232804,0.014682457281087394,2.6622333181303077e-05,-0.009302880663096058,0.015570155158231963
1.7171717171717171,1.0126582278481013,0.016192790443076536,0.014604831774609627,1.528004441073538e-05,-0.00923928666530585,0.015460119454734819
1.8181818181818181,1.0126582278481013,0.016119894771257418,0.014519446692744954,1.7879974836549733e-05,-0.009191802439200711,0.015382273757687609
1.9191919191919191,1.0126582278481013,0.01602212030969966,0.014431007012912434,4.564498153872022e-06,-0.009135938196783627,0.015288787871448339
2.0202020202020203,1.0126582278481013,0.016093788439937265,0.014441470663241389,4.6383267898475233e-05,-0.009160577730953596,0.015334750792679203
2.121212121212121,1.0126582278481013,0.01591039101603779,0.014478218431448697,-2.4878889998434425e-05,-0.009116582834245945,0.015244903792727107
2.2222222222222223,1.0126582278481013,0.015809258629601735,0.014208821289178716,1.8426114123893396e-06,-0.009005423975634134,0.015072900863758383
2.323232323232323,1.0126582278481013,0.01568145447298797,0.014200893702069084,-2.0869790090657446e-05,-0.008964704452517116,0.014996133998652357
2.4242424242424243,1.0126582278481013,0.015554637123220201,0.014348090146825943,-0.00010832524418700245,-0.008970818181013843,0.01498900578180419
2.525252525252525,1.0126582278481013,0.015881771054747484,0.014101757135853089,7.608213027733656e-05,-0.00899505845718017,0.015071386576037746
2.6262626262626263,1.0126582278481013,0.015657455132014886,0.014230895042890846,5.779053257867892e-06,-0.00896650505247172,0.01499515836871114
2.727272727272727,1.0126582278481013,0.0155648685636933,0.013903999789535762,1.0150897472237837e-05,-0.008840660505968717,0.014804483221000099
2.8282828282828283,1.0126582278481013,0.015365947950480928,0.014096122325755878,-3.5898213756991695e-05,-0.008838621082871041,0.014772156414133928
2.929292929292929,1.0126582278481013,0.015475909659799147,0.014032676183140217,1.8228642449521678e-05,-0.008852575752881809,0.014807172201803382
3.0303030303030303,1.0126582278481013,0.015434966604209219,0.013841774343666168,-4.104368063956526e-05,-0.008783022284362615,0.014703422733081672
3.131313131313131,1.0126582278481013,0.015520576493035424,0.013807527931279692,5.974232406256944e-05,-0.008798431327294536,0.014739268511291061
3.2323232323232323,1.0126582278481013,0.015313759358884209,0.013531807139273965,-7.394803504993876e-06,-0.008653669949447452,0.014505114821469128
3.3333333333333335,1.0126582278481013,0.015370927870458557,0.013750062148533118,2.0124890959809032e-05,-0.008736297005697502,0.014628042733792047
3.4343434343434343,1.0126582278481013,0.015258264663556856,0.013709184586198872,8.38497236525712e-06,-0.008690234774926718,0.01454572881457401
3.5353535353535355,1.0126582278481013,0.015159759114493446,0.013739118604042849,-0.00013187950510365595,-0.00866966331556089,0.014503521108830004
3.6363636363636362,1.0126582278481013,0.015375577406851023,0.013758040411511826,-7.647071756991482e-05,-0.008740085345508854,0.014634609135778532
3.7373737373737375,1.0126582278481013,0.015284502499889862,0.013715696294948582,0.00011706790116596536,-0.008700059638451533,0.014565021863937733
3.8383838383838382,1.0126582278481013,0.01526804645245813,0.013413626969965562,9.141918960604477e-06,-0.008604502026727107,0.014430488627017252
3.9393939393939394,1.0126582278481013,0.015045089827727053,0.013629608774724024,-4.4062935454405736e-05,-0.008602409580735323,0.014389860999007353
4.040404040404041,1.0126582278481013,0.014977575123197511,0.01359651353645837,-3.077786708317891e-05,-0.008572226597896764,0.014337118812493329
4.141414141414141,1.0126582278481013,0.015190513362505754,0.013796486203080972,-1.288551491924606e-06,-0.008696099869676018,0.014543693641088448
4.242424242424242,1.0126582278481013,0.014918718813753468,0.01355592058662002,6.926446643790599e-06,-0.008542391820112046,0.014286158700932293
4.343434343434343,1.0126582278481013,0.01533972845068522,0.013524025712424927,7.321911667211251e-07,-0.008659126248933044,0.014517288315340464
4.444444444444445,1.0126582278481013,0.015111073008135703,0.013632315318897885,4.462369052073862e-05,-0.008623016498110076,0.014428846460425715
4.545454545454545,1.0126582278481013,0.015147703947198766,0.013621722205110173,4.4776319015446566e-05,-0.008630827845692681,0.014445499307653367
4.646464646464646,1.0126582278481013,0.01493340811992719,0.013561083066470164,7.53352949996174e-05,-0.008548347355919205,0.01429732458371833
4.747474747474747,1.0126582278481013,0.015041680177844493,0.013639912819715654,-3.746758598638361e-05,-0.008604477899268043,0.014392232956499778
4.848484848484849,1.0126582278481013,0.014911365354464098,0.013450193674947462,5.908440078792473e-05,-0.008508467708823467,0.014237494426749202
4.94949494949495,1.0126582278481013,0.015255091845187562,0.013633862476096775,-4.435633288730352e-05,-0.008666686296385302,0.014512756850354682
5.05050505050505,1.0126582278481013,0.014890025095835896,0.013590433722395578,-1.64724116237797e-05,-0.008544137645469442,0.014284664887519036
5.151515151515151,1.0126582278481013,0.014992873448366476,0.013627171203552217,-0.00011351863154115406,-0.008586013395575607,0.014360162094304296
5.252525252525253,1.0126582278481013,0.014919402508397663,0.013650952298980449,-1.688984856728462e-05,-0.008571106442213433,0.014327381955756962
5.353535353535354,1.0126582278481013,0.014991754453083322,0.013509320476232153,8.8846997709014e-06,-0.008550322478794642,0.014308258549420886
5.454545454545454,1.0126582278481013,0.015138308355193147,0.013751714446030574,-2.588667963502641e-05,-0.008667006840367116,0.01449490761357413
5.555555555555555,1.0126582278481013,0.015148929164532381,0.01370258314330042,-2.5838037504570602e-06,-0.00865545369234984,0.014480034469925563
5.656565656565657,1.0126582278481013,0.015096934040339923,0.013642783962076731,3.898598126492966e-06,-0.008621915400724996,0.014424937006773884
5.757575757575758,1.0126582278481013,0.015105419038582913,0.013582441225417281,5.002905245487963e-05,-0.008606358079200058,0.014404701885652302
5.858585858585858,1.0126582278481013,0.015018728123411462,0.013679978090762032,5.156906010448245e-06,-0.008609611864252048,0.01439611764019515
5.959595959595959,1.0126582278481013,0.015056583528403854,0.013510623693274113,-1.3939689153237684e-05,-0.008570162166503388,0.014346233265747818
6.0606060606060606,1.0126582278481013,0.015268748171311486,0.013652434261840984,-4.17845117012097e-05,-0.00867635472994574,0.014528361544222285
6.161616161616162,1.0126582278481013,0.01526937777503028,0.01379729486311719,-6.904656458709894e-05,-0.008720001791444242,0.014589634605507138
6.262626262626262,1.0126582278481013,0.015284630369699941,0.013726273304323442,1.692813877453418e-05,-0.008703271102207014,0.014568127890670085
6.363636363636363,1.0126582278481013,0.015271583708398614,0.013753359365375755,4.731778731004852e-05,-0.00870748292213231,0.014572141259772322
6.4646464646464645,1.0126582278481013,0.015330193476435636,0.013775731654374485,3.59573824093111e-06,-0.008731777539243035,0.014615095685121798
6.565656565656566,1.0126582278481013,0.0154750637587509,0.013819748498903524,-4.071339168854687e-06,-0.008788443677296327,0.014717391327518798
6.666666666666667,1.0126582278481013,0.015325833743627152,0.013895974871356458,4.083280493915372e-05,-0.008766542584495081,0.014663454536108421
6.767676767676767,1.0126582278481013,0.015322091126432898,0.013751670350316906,4.269545794816094e-06,-0.00872212844302494,0.01460036377455513
6.8686868686868685,1.0126582278481013,0.015251522617828115,0.013824303186414956,2.8144796096361447e-05,-0.008722747741272921,0.014590442228300218
6.96969696969697,1.0126582278481013,0.015430183473149311,0.013695145929907462,3.62831845374309e-05,-0.008737598820917031,0.014640113355945214
7.070707070707071,1.0126582278481013,0.015303269865980665,0.013922473019127276,-8.83533132820969e-05,-0.008767722865532382,0.014662516177986754
7.171717171717171,1.0126582278481013,0.015476266413076962,0.014005519841782157,9.911254739153596e-08,-0.008844535876457735,0.014795818727988711
7.2727272727272725,1.0126582278481013,0.015626938816272733,0.01411794648366566,3.6244492695974704e-05,-0.008923465589981517,0.014929878926544425
7.373737373737374,1.0126582278481013,0.015564306568139117,0.014052097327088883,-6.371233694105118e-05,-0.008884921168568401,0.014866408621401903
7.474747474747475,1.0126582278481013,0.015589821762883769,0.014101927427471994,-9.907959465842744e-05,-0.008907524757106728,0.01490267811364769
7.575757575757575,1.0126582278481013,0.015671852353092184,0.014004966823457008,-0.00013055049618291043,-0.008903045752964757,0.0149101780650749
7.6767676767676765,1.0126582278481013,0.015786528226487472,0.014217509380876799,3.155362761360274e-05,-0.00900121128220928,0.01506352947299172
7.777777777777778,1.0126582278481013,0.015961667450955088,0.014349404786529033,6.187705630618122e-05,-0.009093321671245236,0.015220095417937205
7.878787878787879,1.0126582278481013,0.015876603788383743,0.01433231627135128,-3.9758145431485005e-05,-0.009062676017920506,0.015163709073828094
7.979797979797979,1.0126582278481013,0.01601694601808805,0.01443705907802734,-6.555088324898045e-05,-0.009136201528834617,0.01528877135060141
8.080808080808081,1.0126582278481013,0.015980067050284073,0.014428492540578168,5.449274604033467e-05,-0.009122567877258672,0.015263832089951882
8.181818181818182,1.0126582278481013,0.016104732564675123,0.014520138093100658,7.309642576961975e-05,-0.009187461197332734,0.01537432631672891
8.282828282828282,1.0126582278481013,0.016201373064521376,0.014582519415356012,-4.507318709438167e-05,-0.009235167743963216,0.015455860350779877
8.383838383838384,1.0126582278481013,0.01628544662511292,0.014680722116009425,-1.4122283279005316e-05,-0.009289850622336702,0.015545348355863844
8.484848484848484,1.0126582278481013,0.016315602223848254,0.014776871265868888,-1.3019339450233473e-05,-0.009327742046915144,0.01560326104240947
8.585858585858587,1.0126582278481013,0.01636363791974054,0.014833327122866455,-2.5533731674968027e-05,-0.009359089512782097,0.01565474372939533
8.686868686868687,1.0126582278481013,0.016646566070289148,0.015005982217625047,-5.195817779875619e-05,-0.009495764486374259,0.015890175857101837
8.787878787878787,1.0126582278481013,0.016950756834481454,0.014804538760745906,3.329399756643341e-05,-0.009526588678568206,0.01598617258980117
8.88888888888889,1.0126582278481013,0.01688358984524177,0.015106832372315351,-3.454124966244361e-05,-0.009597126665267136,0.016069163265284774
8.98989898989899,1.0126582278481013,0.017045279950436608,0.01522303103726863,-1.0933216733765756e-05,-0.00968049329631157,0.016211162062963143
9.09090909090909,1.0126582278481013,0.017258012831672727,0.015549246613769777,-3.913492020490232e-05,-0.009842177833632752,0.016470384761646195
9.191919191919192,1.0126582278481013,0.017216541700820057,0.015436176048991085,7.525365008774429e-05,-0.009795815324943342,0.016399520110003885
9.292929292929292,1.0126582278481013,0.01734948122890966,0.015512490513035122,5.39360017620001e-05,-0.009858591522583433,0.01650808665886539
9.393939393939394,1.0126582278481013,0.017456267660560573,0.016001457045843697,-3.6160823845890216e-05,-0.01003731741192128,0.016776355798904807
9.494949494949495,1.0126582278481013,0.0178404502676254,0.015996735634564923,4.931225642022524e-05,-0.010151155770657096,0.016993985561864752
9.595959595959595,1.0126582278481013,0.017983066058501446,0.016053698590144203,-3.7841563953132104e-05,-0.010211029394593694,0.01710033558178544
9.696969696969697,1.0126582278481013,0.018100573093996646,0.01629789296191346,-2.2813458229643503e-05,-0.010319539816773032,0.017269986098879312
9.797979797979798,1.0126582278481013,0.018286174526753327,0.01643729785594514,1.518969012396646e-05,-0.01041704171480954,0.01743543330307446
9.8989898989899,1.0126582278481013,0.018452339256872556,0.016608324813491313,1.7896118134313237e-05,-0.010518199221109161,0.01760294844699057
10.0,1.0126582278481013,0.0186581479116397,0.016793949046531278,0.00012904398540574183,-0.010635629087451292,0.017800819638148713
0.0,1.1139240506329113,0.01858007665228478,0.01691753793626951,1.005839183199426e-05,-0.010649284376566285,0.017807119085349307
0.10101010101010101,1.1139240506329113,0.018451591077172928,0.016352191925558184,5.2263608110071695e-05,-0.010441134900819334,0.01749684628376918
0.20202020202020202,1.1139240506329113,0.018235606245562454,0.016440045800113247,3.5306011752326137e-06,-0.01040269561370271,0.01740742015861551
0.30303030303030304,1.1139240506329113,0.017995580281408474,0.016202930639708266,3.417403321422488e-05,-0.010259553276335022,0.017169689439605177
0.40404040404040403,1.1139240506329113,0.018006851365452527,0.016285216297550895,-2.3597374371549743e-05,-0.010287620298901028,0.017210786360288843
0.5050505050505051,1.1139240506329113,0.01777294881845137,0.015892507514461453,8.646810998420492e-05,-0.010099636899873846,0.01691198428190084
0.6060606060606061,1.1139240506329113,0.01749686862549908,0.015923321868561064,-5.736358950161502e-05,-0.010026057148218042,0.01676586388935032
0.7070707070707071,1.1139240506329113,0.01743921390367233,0.015622056564821699,1.0716682092108959e-05,-0.009918381140548207,0.016605384409436538
0.8080808080808081,1.1139240506329113,0.01715990791060812,0.015518873836347738,-3.558482785054472e-05,-0.009803634524086757,0.016401196224083047
0.9090909090909091,1.1139240506329113,0.017250382567973278,0.015411646886178965,1.5606248154625645e-05,-0.009798608836245672,0.01640848818025443
1.0101010101010102,1.1139240506329113,0.01702143048396437,0.015225614112022619,7.458183462272523e-05,-0.009674113378796095,0.016198869589430027
1.1111111111111112,1.1139240506329113,0.016833801773157003,0.01510951554165226,1.88839227053203e-05,-0.009582995194442778,0.016041347272981035
1.2121212121212122,1.1139240506329113,0.016992404225288055,0.015169618644264676,-4.886467429102204e-05,-0.00964860686086582,0.016158527237665535
1.3131313131313131,1.1139240506329113,0.016345639290024555,0.014852097513690774,-6.659049595416926e-05,-0.009359321041114598,0.0156528271752795
1.4141414141414141,1.1139240506329113,0.016376771625851272,0.014809870879200807,-5.5537004156703295e-05,-0.009355992751515623,0.01565254944804081
1.5151515151515151,1.1139240506329113,0.01639237455313221,0.014768226952168173,3.196250317419161e-05,-0.009348180451590115,0.015643760031403817
1.6161616161616161,1.1139240506329113,0.01632096975050746,0.014817260965011243,-7.916603372742262e-05,-0.00934146921465561,0.015624084289634075
1.7171717171717171,1.1139240506329113,0.016360902922937803,0.014574425600738811,2.6479919830802745e-05,-0.009280598557102985,0.0155449145122275
1.8181818181818181,1.1139240506329113,0.016144130420039524,0.014486917376479355,7.01678240539622e-05,-0.009189314338955664,0.015383101415272634
1.9191919191919191,1.1139240506329113,0.016114298826013257,0.01447603550326839,7.239924778594099e-05,-0.009177100298784494,0.015361340878436852
2.0202020202020203,1.1139240506329113,0.015798360264004208,0.014418448248607415,-5.281414998420669e-05,-0.009065042553783487,0.015155868996957996
2.121212121212121,1.1139240506329113,0.01592369502368422,0.014290293216664895,-8.121455851966764e-06,-0.009064196472104734,0.015173083744529475
2.2222222222222223,1.1139240506329113,0.016015322363086733,0.014245707608656713,-2.2394141034428683e-05,-0.009078308991523032,0.015207979501389036
2.323232323232323,1.1139240506329113,0.01578908094485495,0.014184302042394122,-4.224072482073675e-05,-0.008992014896174723,0.015051171424706973
2.4242424242424243,1.1139240506329113,0.015681918098225472,0.014152752337759715,-1.86012433204864e-05,-0.008950401130795555,0.014976037158305831
2.525252525252525,1.1139240506329113,0.01569591450186091,0.014113135765104297,-3.191188724001325e-05,-0.00894271508008956,0.014967525378545477
2.6262626262626263,1.1139240506329113,0.015749006321786538,0.014118257114568116,-1.1612934796385842e-06,-0.008960179030906396,0.015000262250127232
2.727272727272727,1.1139240506329113,0.015587110346816166,0.013894697777271349,5.68231513007171e-06,-0.008844542437226254,0.01481359323937507
2.8282828282828283,1.1139240506329113,0.015390793900230283,0.013989968168421438,1.1291137810257672e-05,-0.008814228620595516,0.014740400671326183
2.929292929292929,1.1139240506329113,0.015570122324861824,0.013784523708253858,-1.1206224164527992e-05,-0.008806393809934704,0.014758572406756789
3.0303030303030303,1.1139240506329113,0.015330287524085504,0.013715627077794702,1.3404886027046603e-05,-0.008713774380564062,0.014590139619121185
3.131313131313131,1.1139240506329113,0.015393924464414205,0.013913050932618977,-1.0127996897593155e-05,-0.008792092619109954,0.014709512203755068
3.2323232323232323,1.1139240506329113,0.015362619101738448,0.013718936277379835,8.420301181804669e-06,-0.008724466613735484,0.014610294262673683
3.3333333333333335,1.1139240506329113,0.015181716664886347,0.013832158097306382,3.329239216943037e-05,-0.008704162428657817,0.014554055743148593
3.4343434343434343,1.1139240506329113,0.015393479057438684,0.013822260116433444,-7.019549581988069e-05,-0.008764721752161638,0.014671611459286332
3.5353535353535355,1.1139240506329113,0.01529630893332777,0.013544189774036847,-2.1914792880053995e-05,-0.008652149612209385,0.014499912874154856
3.6363636363636362,1.1139240506329113,0.01512195745440193,0.013669776424147335,1.5538230205022294e-05,-0.008637520163564779,0.014450720796955686
3.7373737373737375,1.1139240506329113,0.01525219178422374,0.013498365684612833,-2.754847375655422e-05,-0.008625167240650971,0.014455374257977374
3.8383838383838382,1.1139240506329113,0.015144716400984599,0.013772173847017288,-5.644470915029e-05,-0.008675067074400565,0.014507553143661346
3.9393939393939394,1.1139240506329113,0.015338164207301216,0.0138163163543809,-3.88968123409505e-07,-0.008746344168504634,0.01463669875090836
4.040404040404041,1.1139240506329113,0.015239558122606784,0.01362028059174698,4.362306917545124e-06,-0.008657951614306129,0.014497902418462253
4.141414141414141,1.1139240506329113,0.015038710065953517,0.01344687326893058,6.084494930624971e-07,-0.00854567500046523,0.014309352671733834
4.242424242424242,1.1139240506329113,0.01518587251663257,0.013376356255818338,1.3208369001613146e-05,-0.008568668631735272,0.01436685467731556
4.343434343434343,1.1139240506329113,0.01515747283936456,0.013583413183750255,2.304330017846506e-05,-0.008622265806934445,0.014435008596431213
4.444444444444445,1.1139240506329113,0.014938256430433642,0.013427274593105547,5.505507078511638e-05,-0.008509659307061757,0.014243322306570544
4.545454545454545,1.1139240506329113,0.014944941267316799,0.013429294143247393,2.9364732252593767e-05,-0.008512270623169256,0.014247799314264446
4.646464646464646,1.1139240506329113,0.015014668355457544,0.013494687911157738,9.401192084741896e-06,-0.008552806879984585,0.014315336854043193
4.747474747474747,1.1139240506329113,0.015025719403073866,0.013646841310500849,1.0877406648620795e-05,-0.008601768214072414,0.014385939942108981
4.848484848484849,1.1139240506329113,0.014942347301866915,0.013520931549976863,3.7860891869728e-05,-0.008538983655553133,0.014284928356335734
4.94949494949495,1.1139240506329113,0.01500812595720597,0.013583548207857106,-3.987535538829912e-05,-0.008577502249518922,0.014349139149967874
5.05050505050505,1.1139240506329113,0.015159572715550886,0.013497586637212665,4.33054623142371e-05,-0.008597147805829064,0.014400884345242905
5.151515151515151,1.1139240506329113,0.01507249698907952,0.013594429722530504,-7.394435513074876e-05,-0.008600078013483007,0.014391076652165569
5.252525252525253,1.1139240506329113,0.015032638936223903,0.01361126793973599,4.8673311740420675e-05,-0.008593172062787967,0.014375001884721121
5.353535353535354,1.1139240506329113,0.01514062054887191,0.013432572178824308,7.019215560114911e-05,-0.008571957818308865,0.014363484549560337
5.454545454545454,1.1139240506329113,0.0150953910224906,0.013513918736859781,2.6664726069854834e-05,-0.008582792927805115,0.014370145273869995
5.555555555555555,1.1139240506329113,0.015126492047276736,0.013627074976516773,2.1946556529899676e-06,-0.008626070107138053,0.014435307660786156
5.656565656565657,1.1139240506329113,0.015074497197829474,0.013385043322417908,2.213099126478738e-05,-0.008537862156074215,0.01430484259948641
5.757575757575758,1.1139240506329113,0.01511534601560449,0.01359106906644588,-2.6912465111953023e-05,-0.008611924524615112,0.014413858078993966
5.858585858585858,1.1139240506329113,0.0148990534337383,0.013731473219527793,5.997042326409632e-05,-0.008589157995979826,0.014351306077612112
5.959595959595959,1.1139240506329113,0.015212653988617623,0.013491545824307309,-9.827364241365073e-05,-0.00861125994387748,0.014430294689866919
6.0606060606060606,1.1139240506329113,0.015187481165595549,0.013600057848817756,-7.744740439434239e-06,-0.00863626170432399,0.014459277822892566
6.161616161616162,1.1139240506329113,0.0153269323954573,0.013671288338783644,-1.0713551305540047e-05,-0.008699466220272283,0.014569846042779047
6.262626262626262,1.1139240506329113,0.015060748969783114,0.01383529658927886,-4.134426491201879e-05,-0.008668813667718591,0.014487124988597022
6.363636363636363,1.1139240506329113,0.015273119070423311,0.013603575483557104,-4.268261829374719e-05,-0.008663008366194123,0.014510750130507325
6.4646464646464645,1.1139240506329113,0.01520716631828561,0.013704606694004834,3.3195957782507334e-05,-0.008673531903687134,0.014514448823905781
6.565656565656566,1.1139240506329113,0.015127308397201776,0.013756327504730836,5.364679445544338e-05,-0.008665090770579783,0.014490839558844027
6.666666666666667,1.1139240506329113,0.01539905658450962,0.01386291530591197,2.0294079735319797e-05,-0.008778591567126477,0.014691384645391034
6.767676767676767,1.1139240506329113,0.015284888818380707,0.013845667835238237,3.148863555329812e-06,-0.008739166996085684,0.014618511561105973
6.8686868686868685,1.1139240506329113,0.015441358994710283,0.013724818300590441,-1.5686909607993157e-05,-0.008749853188590217,0.014658686732056015
6.96969696969697,1.1139240506329113,0.015417584584338588,0.014038188552697848,-4.924061962868195e-05,-0.008836731941110931,0.014776500490646736
7.070707070707071,1.1139240506329113,0.015545091758314717,0.01370208313353613,1.4932804165449e-06,-0.008774152467555254,0.014710432592943794
7.171717171717171,1.1139240506329113,0.01545499774522514,0.013923479864391835,5.7850936576514914e-05,-0.008813543282885092,0.014749336836677233
7.2727272727272725,1.1139240506329113,0.015480257578414734,0.014059543307104018,9.209555443725104e-05,-0.008861940265655626,0.014821917070439788
7.373737373737374,1.1139240506329113,0.015638762718398105,0.013900087409008747,8.579096741088116e-05,-0.008861655038222055,0.014846724920204758
7.474747474747475,1.1139240506329113,0.015658488526194843,0.013886769909879837,2.0915430715260474e-05,-0.008863577530822404,0.014852142152594838
7.575757575757575,1.1139240506329113,0.015697155392849597,0.014086379750853579,-9.399217415108391e-05,-0.008935060543110952,0.014957847225690307
7.6767676767676765,1.1139240506329113,0.01571300666114262,0.01431057819662264,3.4937561825663196e-05,-0.009007075457329579,0.015060965374972108
7.777777777777778,1.1139240506329113,0.01612222360666752,0.014403564449595539,1.961543537794207e-06,-0.009157736416878916,0.015335295485597034
7.878787878787879,1.1139240506329113,0.016033580148834648,0.014377244438373408,5.4984453564327156e-05,-0.009123247376162416,0.015273219008388432
7.979797979797979,1.1139240506329113,0.015976105236450915,0.014498432264258907,-7.252620480582043e-05,-0.009142361250212947,0.015291428225684248
8.080808080808081,1.1139240506329113,0.01597280008036179,0.014472107365571961,-6.17068520208784e-05,-0.009133472233780124,0.015278206030905411
8.181818181818182,1.1139240506329113,0.016185994641447196,0.014507088934577249,1.7033839049158566e-05,-0.009207925072807334,0.015415293010048299
8.282828282828282,1.1139240506329113,0.016252708840654422,0.014476757309330792,-2.6080469399751596e-05,-0.009218839844995564,0.015441585602509614
8.383838383838384,1.1139240506329113,0.016404449579684996,0.014923710622372997,-4.808946816496246e-05,-0.009398448060617397,0.015716703983248963
8.484848484848484,1.1139240506329113,0.016454108840332243,0.014675668895791555,-3.389650695825998e-06,-0.009338933320837139,0.015640905869596114
8.585858585858587,1.1139240506329113,0.01652035895441966,0.015002238808849114,-1.245635488755592e-05,-0.009456779328980631,0.01581605274715632
8.686868686868687,1.1139240506329113,0.016683167402405864,0.015034452160992631,-1.186079938834985e-05,-0.009515285869019549,0.01592296976660627
8.787878787878787,1.1139240506329113,0.016635861904525467,0.015261674912173468,-2.5383044279347994e-05,-0.00956926104500968,0.015993168512131634
8.88888888888889,1.1139240506329113,0.016856915385282077,0.015116121858480406,-0.00010529600436652802,-0.009591911173128746,0.01605848096709581
8.98989898989899,1.1139240506329113,0.016975021928901147,0.015300780228682446,-3.2845944377117734e-05,-0.009682740647275078,0.016203005947975177
9.09090909090909,1.1139240506329113,0.017259140878788597,0.015349775802284547,-3.402869474480415e-05,-0.009782675004321943,0.016388199775479326
9.191919191919192,1.1139240506329113,0.01739463059629846,0.015612421072772482,-2.68203641029644e-05,-0.009902115500721282,0.016575606355614312
9.292929292929292,1.1139240506329113,0.017396043507398262,0.015659368707542046,6.969308229218591e-05,-0.009916623664482092,0.016596435462845813
9.393939393939394,1.1139240506329113,0.017612997922849448,0.015627837421194116,5.297606145754817e-05,-0.00997225060321307,0.016709349168795174
9.494949494949495,1.1139240506329113,0.01749134739427519,0.015731705503804656,5.349738895218469e-06,-0.009966915869423955,0.01668128147095707
9.595959595959595,1.1139240506329113,0.017678790717001704,0.015918472837618755,4.353682519341705e-05,-0.010079179066386139,0.016867831965977645
9.696969696969697,1.1139240506329113,0.017914151451401555,0.016124475534623903,8.14286981301348e-06,-0.010211588095807637,0.01708974650507584
9.797979797979798,1.1139240506329113,0.018143252698793553,0.01659275610964445,4.262369184709524e-05,-0.010420802642531401,0.017419990157201953
9.8989898989899,1.1139240506329113,0.018435345822515388,0.016534770222007104,-6.08520793014696e-06,-0.010491034813356748,0.017562360486023644
10.0,1.1139240506329113,0.01873654103030904,0.01673694834640174,-1.1116701290219667e-05,-0.010642046813013234,0.017821090344285827
0.0,1.2151898734177216,0.018714245741223115,0.016787080724987708,3.432980527766213e-06,-0.010650397939863245,0.017828952698379044
0.10101010101010101,1.2151898734177216,0.018355930143781545,0.016640646158504132,-1.9209507627691206e-05,-0.010498972890685703,0.017561259766844393
0.20202020202020202,1.2151898734177216,0.018374898803815168,0.016399667064135297,-4.5149828148607285e-05,-0.01043236976038514,0.017471401737300045
0.30303030303030304,1.2151898734177216,0.01807856420597978,0.01625339854936609,0.00011845046217823834,-0.010299588826603761,0.017239821067811183
0.40404040404040403,1.2151898734177216,0.01781598729170436,0.016213509338648124,1.3689659363357803e-05,-0.010208848989105745,0.01707126750249192
0.5050505050505051,1.2151898734177216,0.01760649632291238,0.015962029729683306,6.158324345220965e-05,-0.010070557815778706,0.016844912157852172
0.6060606060606061,1.2151898734177216,0.017520146159399837,0.01567636074605389,1.7219578395246783e-05,-0.009958952071636117,0.016674908266927586
0.7070707070707071,1.2151898734177216,0.017417491824298626,0.01546750774241746,-4.884989925365083e-05,-0.009865499870014826,0.016529210099196907
0.8080808080808081,1.2151898734177216,0.01726545506443905,0.01552989644484921,0.00010646226951844634,-0.009838605452786477,0.01646744957758977
0.9090909090909091,1.2151898734177216,0.017152655443351233,0.015480113754410742,1.1868414683589295e-07,-0.009789830759328594,0.016380551065113512
1.0101010101010102,1.2151898734177216,0.01682059656354537,0.01528909777397431,-4.507249511421291e-05,-0.009632908301255903,0.016109727763327555
1.1111111111111112,1.2151898734177216,0.016762369930894666,0.015325930624677327,-0.00010410598055855945,-0.009626490166671596,0.01609331509391646
1.2121212121212122,1.2151898734177216,0.01681426328696393,0.015114407758869507,-2.1672580427197227e-06,-0.009578601313750032,0.016032066441715422
1.3131313131313131,1.2151898734177216,0.016660597162837,0.01491240240568585,2.5962192341734404e-05,-0.009471899870556855,0.015858995435603027
1.4141414141414141,1.2151898734177216,0.01644054922711769,0.015001883941554365,-1.9006002136771507e-05,-0.009432729950601616,0.015770543837447953
1.5151515151515151,1.2151898734177216,0.0163831681542635,0.014746985736679982,-7.416487950342705e-05,-0.009339046167283045,0.015629969330879005
1.6161616161616161,1.2151898734177216,0.016484870027093212,0.014748282977266351,-8.091188375744723e-05,-0.009369945901307868,0.01568945195930862
1.7171717171717171,1.2151898734177216,0.016093246103231755,0.014611591425691085,1.0660634285133405e-05,-0.009211451258676851,0.015405959181575349
1.8181818181818181,1.2151898734177216,0.01614735219733924,0.014682461506488885,3.0721849432510387e-05,-0.009248944111148438,0.015467113929282017
1.9191919191919191,1.2151898734177216,0.015938577362078345,0.014410059001520195,3.210288552879695e-05,-0.00910459090907956,0.01523204846211383
2.0202020202020203,1.2151898734177216,0.015961557088488825,0.014328651247625411,2.405176133253074e-05,-0.00908706250083427,0.015211038815176794
2.121212121212121,1.2151898734177216,0.016012058891591244,0.014232196895241961,-8.148639410047645e-06,-0.009073276736049962,0.015200489556930642
2.2222222222222223,1.2151898734177216,0.015968862131461793,0.014270745313118617,5.148155327077703e-05,-0.009071882233374122,0.015191415872067925
2.323232323232323,1.2151898734177216,0.015660380451299444,0.014190428079264338,0.00011308078774889644,-0.008955242559169133,0.01498087528343412
2.4242424242424243,1.2151898734177216,0.01574835901367236,0.014158971432584877,6.1656229177676786e-06,-0.00897219913387717,0.01501688490707412
2.525252525252525,1.2151898734177216,0.01557447721524495,0.014123815253303888,-6.563186298969015e-05,-0.008909487740564652,0.014902630023155367
2.6262626262626263,1.2151898734177216,0.015529076164328156,0.013832445045224045,2.084282999014681e-05,-0.00880845636286566,0.014754150367647956
2.727272727272727,1.2151898734177216,0.01544990653131606,0.013889917773389925,-2.2519948182202793e-05,-0.008801947291411795,0.014732040513642172
2.8282828282828283,1.2151898734177216,0.015526222028524798,0.013730647961984364,5.6898930929290885e-05,-0.008777060997152749,0.01471118239798338
2.929292929292929,1.2151898734177216,0.015483249327764551,0.013985309530262705,-8.610473527696318e-05,-0.008840567657408177,0.014792028261745258
3.0303030303030303,1.2151898734177216,0.015334443947295766,0.013831630701526028,6.055328529024733e-06,-0.008749822394646539,0.01464100144610736
3.131313131313131,1.2151898734177216,0.015448333479734436,0.014037284064661718,5.0710301384994815e-05,-0.008845685263318845,0.014793627696965782
3.2323232323232323,1.2151898734177216,0.015355915315100076,0.013740853078790421,4.5977625542392906e-05,-0.008729030518167149,0.014615681444545886
3.3333333333333335,1.2151898734177216,0.015581381810444533,0.013573891162471409,-3.1394909670037794e-05,-0.008746581891874782,0.014681040715107526
3.4343434343434343,1.2151898734177216,0.015239740893230437,0.013731376926856843,6.717852860972496e-05,-0.008691335346026183,0.014544804130401824
3.5353535353535355,1.2151898734177216,0.015125063025267282,0.013677876971043171,5.243475493877723e-05,-0.008640881998893136,0.014456187150317235
3.6363636363636362,1.2151898734177216,0.015362747257122639,0.013882792176540093,7.758710647193367e-05,-0.00877366183009882,0.014679446643152428
3.7373737373737375,1.2151898734177216,0.015085293184593012,0.013754826068994272,-1.8522687849781345e-05,-0.008652035776076185,0.014466055300925915
3.8383838383838382,1.2151898734177216,0.015233518487666853,0.013671685570003067,-7.1103449058553805e-06,-0.008671561217300975,0.014515762075134811
3.9393939393939394,1.2151898734177216,0.015128472846559696,0.013621557802223667,-3.309641451963414e-06,-0.008625009194635009,0.01443413291995089
4.040404040404041,1.2151898734177216,0.01516213606184501,0.013591150535385144,2.1001820141339208e-05,-0.008625985979169045,0.01444092076040241
4.141414141414141,1.2151898734177216,0.015046511470851228,0.013632813723166892,3.634534671525571e-05,-0.008603797558205435,0.014391969717175617
4.242424242424242,1.2151898734177216,0.015024339863594123,0.013668682123891227,1.1700910373120962e-05,-0.008607906596245605,0.01439448312229037
4.343434343434343,1.2151898734177216,0.01502852626853864,0.01348760987764691,4.316175806229277e-05,-0.008554840843855663,0.014320576506615007
4.444444444444445,1.2151898734177216,0.015127406094915287,0.013500567103027036,3.91157120794881e-06,-0.008588391959382697,0.014383157236359476
4.545454545454545,1.2151898734177216,0.015025835612985174,0.013599330420464812,3.273451287956705e-05,-0.008587549810034996,0.01436591225971608
4.646464646464646,1.2151898734177216,0.015030676046239325,0.01341962683439813,-3.636847495173655e-07,-0.008535090864191236,0.0142934090954199
4.747474747474747,1.2151898734177216,0.015032640983624976,0.01359403032029657,-7.794899812127477e-05,-0.008588001391176464,0.014368089855826254
4.848484848484849,1.2151898734177216,0.015092154819008968,0.013416266437196865,-9.318731367647871e-07,-0.00855252637686175,0.014327908941527525
4.94949494949495,1.2151898734177216,0.014972042064322174,0.013502533851239522,-2.3171510371864412e-05,-0.00854237277466851,0.014294109623921608
5.05050505050505,1.2151898734177216,0.015030353675794276,0.013552220478698904,3.456722655777782e-05,-0.008574772246347954,0.014348628133553313
5.151515151515151,1.2151898734177216,0.015078089279058375,0.013358534475649785,3.627896448851859e-05,-0.008530987126412447,0.014296223021236948
5.252525252525253,1.2151898734177216,0.014967699082368382,0.013600293084716173,5.536089735765316e-06,-0.008570397650125365,0.014333003363961486
5.353535353535354,1.2151898734177216,0.014973096149213473,0.013565630208251588,1.3448528240279823e-05,-0.008561617907239518,0.01432134729683381
5.454545454545454,1.2151898734177216,0.01508081130737757,0.013459313038279195,-1.0566399729472811e-06,-0.008562037303697029,0.014338989512631925
5.555555555555555,1.2151898734177216,0.01504799735333863,0.013659929058488151,-7.689803179746426e-06,-0.008612377923548034,0.014404217691680137
5.656565656565657,1.2151898734177216,0.015045083869091787,0.013552250831579673,-3.4544841974916394e-06,-0.008579200410201437,0.01435699608742567
5.757575757575758,1.2151898734177216,0.014924888744927518,0.013562118522666401,8.374362127994901e-06,-0.008546102180278176,0.01429232182554051
5.858585858585858,1.2151898734177216,0.01509902946257579,0.013519951312677934,1.950617826890106e-05,-0.008585694232576118,0.014374726866245883
5.959595959595959,1.2151898734177216,0.0151189076684659,0.013497504253126277,1.1420565976532694e-05,-0.008584923576477653,0.01437695589758133
6.0606060606060606,1.2151898734177216,0.01515551478772144,0.013751798904517628,-3.684623621568626e-05,-0.00867219410767172,0.01450482963951376
6.161616161616162,1.2151898734177216,0.014974617196433428,0.013678967542278094,-1.7583465644730833e-05,-0.008596075421613456,0.014370697204699476
6.262626262626262,1.2151898734177216,0.015220885763640923,0.01368174071041854,3.038779787052834e-05,-0.008670787942217838,0.014512751295005134
6.363636363636363,1.2151898734177216,0.015144827313210348,0.013689984767981328,4.871289294820868e-05,-0.008650443624357502,0.014472599659383377
6.4646464646464645,1.2151898734177216,0.015278238039483843,0.013632517649073764,-2.649935260753925e-05,-0.008673226706567281,0.014525541365831807
6.565656565656566,1.2151898734177216,0.015373301592185402,0.01377658920235098,-9.225838575657402e-05,-0.008744967238360914,0.014641266543727167
6.666666666666667,1.2151898734177216,0.01547896569680987,0.013816191357762433,-1.5929781136955798e-05,-0.008788547116371689,0.014718217686382462
6.767676767676767,1.2151898734177216,0.01541995352851973,0.01368233689836286,1.4749248881233951e-05,-0.008730687128064777,0.014628771763505353
6.8686868686868685,1.2151898734177216,0.015374187113292503,0.013962267007835425,1.7391087273441854e-05,-0.008800936236338378,0.014719134867177354
6.96969696969697,1.2151898734177216,0.015405591305378977,0.013761553051588646,-3.951647002123145e-05,-0.008750143307090286,0.014653068227309949
7.070707070707071,1.2151898734177216,0.015361097986080933,0.014042446048993105,-0.00012713029781945035,-0.008821063210522211,0.01474770215972287
7.171717171717171,1.2151898734177216,0.015591510375286978,0.013829694354239946,-3.614581116280272e-05,-0.008826361418858076,0.01478964970045578
7.2727272727272725,1.2151898734177216,0.015571367722055335,0.014043986625660835,2.297568030816906e-05,-0.00888460630431485,0.014866692863279045
7.373737373737374,1.2151898734177216,0.015613332623038148,0.013931666732964712,-1.1749678616300056e-05,-0.008863499806800857,0.014844128840244296
7.474747474747475,1.2151898734177216,0.01552620759302045,0.014019924142303589,7.716378084149156e-05,-0.008863839520597211,0.014831149829090442
7.575757575757575,1.2151898734177216,0.015697712357365882,0.01417555385071654,2.8851499442812413e-05,-0.008961979862424726,0.014994773442814125
7.6767676767676765,1.2151898734177216,0.015676243301445725,0.014020195677757204,5.3508917739596533e-05,-0.008908931693760879,0.014917609792562516
7.777777777777778,1.2151898734177216,0.015911977550247793,0.014294620275453689,2.0095642163861518e-05,-0.009061979347710443,0.015168148633606125
7.878787878787879,1.2151898734177216,0.016086025612989774,0.014389976644905673,-9.816842049931852e-06,-0.009142800677368633,0.015308638218129658
7.979797979797979,1.2151898734177216,0.01594073208493703,0.014218443048129619,2.6082449260692394e-05,-0.009047752539919993,0.015153240963699976
8.080808080808081,1.2151898734177216,0.016149070437513385,0.014369322655449065,2.7022726550120807e-05,-0.009155517927888735,0.015336912875582795
8.181818181818182,1.2151898734177216,0.016238877667831716,0.014462400590932997,-5.0976432568888445e-05,-0.009210383477629414,0.015427793768848385
8.282828282828282,1.2151898734177216,0.016260641992070005,0.014455952353534404,4.380921220598438e-05,-0.009214978303681322,0.015437801926048439
8.383838383838384,1.2151898734177216,0.016307959357191038,0.014854708738161372,-7.100673924533627e-07,-0.009348800428605723,0.015632080003606153
8.484848484848484,1.2151898734177216,0.016482032436185505,0.014916115866002564,4.281768540897568e-05,-0.009419444490656419,0.015757712406713115
8.585858585858587,1.2151898734177216,0.016576732763223863,0.01488368860133622,-9.594919016497372e-05,-0.009438126409368024,0.015799270418306456
8.686868686868687,1.2151898734177216,0.01661450584291885,0.014810858509879716,-2.0882969563760788e-05,-0.009427609305839569,0.015790172489503512
8.787878787878787,1.2151898734177216,0.01686683921231155,0.015028476581187599,2.5486109498976184e-06,-0.009568594738049744,0.0160269302971794
8.88888888888889,1.2151898734177216,0.01678498985767274,0.015268734985296552,-5.637084044081063e-06,-0.009616117452890786,0.016080568585589552
8.98989898989899,1.2151898734177216,0.01698003808948824,0.015210321220422469,7.809700936429659e-05,-0.009657107792973213,0.01616855061226564
9.09090909090909,1.2151898734177216,0.017201729929924487,0.01534029201860957,-3.548121559214554e-05,-0.009762606584560218,0.016350788610888407
9.191919191919192,1.2151898734177216,0.017291880994126034,0.01563752449088381,8.922847292336785e-05,-0.009878821645502954,0.016527643302662806
9.292929292929292,1.2151898734177216,0.017255704157143528,0.015363966384358487,3.0199716450372445e-05,-0.009785901162450603,0.01639199397505962
9.393939393939394,1.2151898734177216,0.01745476018722402,0.015849643368285503,-1.7666763946315882e-05,-0.009991321066652856,0.016710148425209553
9.494949494949495,1.2151898734177216,0.017921181140837444,0.01591095728912856,4.535637677367438e-05,-0.0101496415289898,0.01700559670341862
9.595959595959595,1.2151898734177216,0.017759837104831467,0.016148563522478655,-0.0001222390628577863,-0.010172520188193037,0.017012844775606974
9.696969696969697,1.2151898734177216,0.018172428565635307,0.016417143993042903,3.249930768519947e-05,-0.010376871767603464,0.01736155433741754
9.797979797979798,1.2151898734177216,0.01820144376183384,0.01657560972559623,-6.641962259656658e-05,-0.010433116046229022,0.017445818961881156
9.8989898989899,1.2151898734177216,0.018579898888093298,0.016404984154547535,-6.168343949796725e-05,-0.01049546491279225,0.017593880057866294
10.0,1.2151898734177216,0.01849571938890106,0.016670095576411633,-2.914862838422055e-05,-0.010549744489593808,0.017653919145612082
0.0,1.3164556962025316,0.018855950510473753,0.01671167121736282,7.252526730473168e-05,-0.010670286518350973,0.01788094401456364
0.10101010101010101,1.3164556962025316,0.018551494728248682,0.016585107011919335,4.9111455625714916e-05,-0.010540980522050403,0.017650848187982744
0.20202020202020202,1.3164556962025316,0.018368814528752404,0.016363050052127077,3.746895844077286e-05,-0.010419559374263846,0.017452711377790177
0.30303030303030304,1.3164556962025316,0.018315359238137492,0.01663993843905434,-7.735076634035785e-05,-0.01048658930315755,0.017538284821753063
0.40404040404040403,1.3164556962025316,0.017818605574316162,0.01613234698224172,-6.528669220819462e-05,-0.010185285766967365,0.017038549907796092
0.5050505050505051,1.3164556962025316,0.01763624571542971,0.01590958838174734,-1.5729246810827677e-05,-0.010063750229153116,0.016839462512426476
0.6060606060606061,1.3164556962025316,0.01730383142092527,0.015753682944237284,8.865078687810873e-05,-0.009917254309548764,0.016583896137868447
0.7070707070707071,1.3164556962025316,0.017339990470173462,0.015617435816390595,-7.677846801931953e-06,-0.009887227885969217,0.016546104061319757
0.8080808080808081,1.3164556962025316,0.017071203835241043,0.015529789885545023,-1.810129428154437e-05,-0.00978029811623582,0.016355095493132566
0.9090909090909091,1.3164556962025316,0.01717508605611503,0.015368452123223119,3.108819762726561e-05,-0.009763061453801443,0.01634690531449951
1.0101010101010102,1.3164556962025316,0.017040810297861524,0.015231550755716155,9.499679788613463e-05,-0.009681708316073302,0.01621291029507282
1.1111111111111112,1.3164556962025316,0.016920188732684867,0.015137188851712996,-1.4540475409540261e-05,-0.009617213275319359,0.01610291324900865
1.2121212121212122,1.3164556962025316,0.016616485918354115,0.0151384751698271,9.685751454288563e-05,-0.009526488326454365,0.015929875058892245
1.3131313131313131,1.3164556962025316,0.016555894792689888,0.014907483079166148,-2.80765127672726e-05,-0.00943901336155681,0.015796402993449782
1.4141414141414141,1.3164556962025316,0.016466700334971433,0.014790348572335132,-5.520286511014691e-05,-0.00937711467219197,0.015696099359122896
1.5151515151515151,1.3164556962025316,0.016301869372852072,0.014767807280885479,1.5960223926625733e-05,-0.009320902996121264,0.015591567461442133
1.6161616161616161,1.3164556962025316,0.016115341639300812,0.014744773050681205,-2.964614179750183e-06,-0.009258034406994605,0.015475643435043525
1.7171717171717171,1.3164556962025316,0.01616895185606344,0.014577736504989967,-1.4771874908307304e-05,-0.009224006508316021,0.015435003745963849
1.8181818181818181,1.3164556962025316,0.016119381732781678,0.014447786121323187,-4.047809127439565e-05,-0.009170150356231458,0.015352150565932466
1.9191919191919191,1.3164556962025316,0.016069199817312762,0.014477555232286417,-0.0001032767902281488,-0.009164026514879754,0.01533649434078843
2.0202020202020203,1.3164556962025316,0.01617125194287321,0.014090212138484515,-4.2329476378391454e-05,-0.009078439224407318,0.015237863119254123
2.121212121212121,1.3164556962025316,0.015862398074576012,0.01441148494470243,-6.6475526970915875e-06,-0.009082164905783532,0.01518900893800972
2.2222222222222223,1.3164556962025316,0.015997813985280072,0.014254286764387704,-0.00011398236125525337,-0.009075630224900332,0.015202509373637593
2.323232323232323,1.3164556962025316,0.015760492491794943,0.0140176567221417,-6.12247798247415e-05,-0.008933444764180993,0.014965757430309022
2.4242424242424243,1.3164556962025316,0.015775803513885953,0.014246725495377938,4.5148823347029744e-05,-0.009006758702779167,0.015069762339426099
2.525252525252525,1.3164556962025316,0.015814450034705874,0.014269114145875153,3.1155373041788705e-05,-0.009025069254174308,0.015101296887372743
2.6262626262626263,1.3164556962025316,0.015606467383021037,0.013983808370994177,-3.194695420191917e-05,-0.008877082726204563,0.014861828061355624
2.727272727272727,1.3164556962025316,0.015649702656139384,0.013974354898572334,-4.86743142459294e-05,-0.008887217266413514,0.014883158154417655
2.8282828282828283,1.3164556962025316,0.015491633071442764,0.01391520484551531,-7.036691064675359e-05,-0.008822051375087422,0.014767167231345633
2.929292929292929,1.3164556962025316,0.015300130921084513,0.013950607354557583,-2.5584147003483843e-05,-0.008775221482692629,0.014672058357835166
3.0303030303030303,1.3164556962025316,0.015254572117369209,0.0139175881547677,-8.258544323500229e-05,-0.008751648081641073,0.014632663441400679
3.131313131313131,1.3164556962025316,0.015404429609291866,0.01396923390504331,2.756901616079494e-06,-0.008812099054300552,0.014739331392467778
3.2323232323232323,1.3164556962025316,0.015502626570973597,0.013841774988703372,4.3785147772527886e-05,-0.008803320467903091,0.014742728652632
3.3333333333333335,1.3164556962025316,0.015421019741653077,0.013737277048700135,-0.00012662683294802372,-0.008747489037105963,0.014653529031776007
3.4343434343434343,1.3164556962025316,0.015287304664185515,0.013871529617769596,4.0402185518255906e-05,-0.008747650284586534,0.01463104970318106
3.5353535353535355,1.3164556962025316,0.015226891063789143,0.013869628077759159,-6.0622930466640426e-05,-0.008728955742464491,0.014596044123927964
3.6363636363636362,1.3164556962025316,0.015147904461491479,0.013785233328235388,2.1498446989632153e-05,-0.00867994133691806,0.014514670392487602
3.7373737373737375,1.3164556962025316,0.015189124845063441,0.013697099737589811,-5.041014911097256e-05,-0.008665867374795976,0.014501059285454603
3.8383838383838382,1.3164556962025316,0.015309636866194434,0.013660984906910825,-6.010506738624989e-05,-0.008691186531931577,0.014555878856997743
3.9393939393939394,1.3164556962025316,0.01509497424273275,0.013802888908397508,4.955808165406984e-06,-0.008669358945339076,0.014492198271444877
4.040404040404041,1.3164556962025316,0.015053039180973933,0.013597271618206369,-1.6967222009330877e-05,-0.008595093239754091,0.014380555805666193
4.141414141414141,1.3164556962025316,0.015070680317178568,0.013561597804088756,-4.238674415216517e-05,-0.008589683436380197,0.014375855627931347
4.242424242424242,1.3164556962025316,0.015087038285271625,0.013654521463778395,-2.2948166514787715e-05,-0.008622467924715006,0.014424284120537421
4.343434343434343,1.3164556962025316,0.015083926419968691,0.013417851769710209,-3.68631274636461e-05,-0.00855053345690367,0.014323888097129516
4.444444444444445,1.3164556962025316,0.014945067615867112,0.013467574808278862,3.850085801847346e-05,-0.008523792727243792,0.01426398429879098
4.545454545454545,1.3164556962025316,0.015038278472455062,0.013512158661631938,8.914625633093864e-05,-0.0085651311402261,0.01433710178382148
4.646464646464646,1.3164556962025316,0.01491401985919355,0.013716038640790996,5.423762550919839e-05,-0.008589017549995364,0.014352883223865891
4.747474747474747,1.3164556962025316,0.015170282240147494,0.013506772868257886,0.00010200570182019768,-0.008603116532521615,0.014411801951352742
4.848484848484849,1.3164556962025316,0.015111807660426016,0.013574923841582797,-4.888156486064896e-05,-0.008606019450602643,0.014405235790979003
4.94949494949495,1.3164556962025316,0.015048633541232353,0.013554278584600333,9.682942125164514e-05,-0.008580873637749805,0.01436087030379059
5.05050505050505,1.3164556962025316,0.015121912506548799,0.013400734133038801,-3.3005780222013285e-05,-0.008556793991876279,0.01433912313293102
5.151515151515151,1.3164556962025316,0.015185353133793489,0.013406269292435992,3.842462733057952e-05,-0.008577486727868844,0.01437875175677319
5.252525252525253,1.3164556962025316,0.014991038783530251,0.013490135231449934,-6.024345579361332e-05,-0.008544352204494055,0.01430016572436414
5.353535353535354,1.3164556962025316,0.015117046976948292,0.013441652875964393,3.96276588723244e-05,-0.008567609955873806,0.014353039901757418
5.454545454545454,1.3164556962025316,0.015202268705850728,0.013536174167468567,-2.40325663333155e-05,-0.008621532861995788,0.014441542876251589
5.555555555555555,1.3164556962025316,0.015127372929803115,0.0135139651553145,-3.332933844043895e-05,-0.008592401425535285,0.014388787573871192
5.656565656565657,1.3164556962025316,0.015126800815477391,0.013637284308687068,-1.14721149678185e-05,-0.008629225537249338,0.014439790083439959
5.757575757575758,1.3164556962025316,0.01508992544364564,0.013635431838665656,-1.0932519573831777e-05,-0.008617607184693388,0.014417820918719204
5.858585858585858,1.3164556962025316,0.015152845631967535,0.013528074491076618,2.0595002378490335e-06,-0.008604276036913246,0.014409327480695877
5.959595959595959,1.3164556962025316,0.015232163542316011,0.013725220181980514,-3.179157204901185e-05,-0.008687215117288958,0.014537493211336084
6.0606060606060606,1.3164556962025316,0.015101132687230836,0.013809683958609896,-0.00010069990968397,-0.00867324499375222,0.01449965968779195
6.161616161616162,1.3164556962025316,0.015198897462843789,0.013683745520175138,-2.972021818207327e-05,-0.008664792894905678,0.014500902742666365
6.262626262626262,1.3164556962025316,0.01521931307755052,0.013756562885897735,3.26839695511595e-05,-0.008692762789034476,0.014543324251362432
6.363636363636363,1.3164556962025316,0.015245329355318669,0.013707440134687495,8.665809303737805e-07,-0.00868583084700185,0.01453752196832203
6.4646464646464645,1.3164556962025316,0.015169670040185596,0.013683288819162177,-1.1917988275859248e-05,-0.008655887657804331,0.014483809295237071
6.565656565656566,1.3164556962025316,0.015098819015907275,0.013653339212819915,-5.984271908714965e-05,-0.008625647468618157,0.014430850739002691
6.666666666666667,1.3164556962025316,0.015334849083235529,0.013759473120520305,-2.5058981722437663e-05,-0.00872829666112675,0.014611062146524821
6.767676767676767,1.3164556962025316,0.0153527154645055,0.013913288490841546,-3.1541834520123024e-05,-0.008779801186604113,0.014686105475923677
6.8686868686868685,1.3164556962025316,0.015284658121902488,0.013803308598484566,-8.02057922063359e-06,-0.008726390016116116,0.014600460344747941
6.96969696969697,1.3164556962025316,0.015421473278376884,0.013987235731357591,-2.8110807370528103e-05,-0.008822612702920342,0.014756801484849025
7.070707070707071,1.3164556962025316,0.015310677724702735,0.013947466127990237,9.276481015757167e-06,-0.008777443155807892,0.014676640043912557
7.171717171717171,1.3164556962025316,0.015584459374849308,0.014082636643341135,1.6514515201773538e-05,-0.008900128805457132,0.014890485833693469
7.2727272727272725,1.3164556962025316,0.015778146306629513,0.013937601160490434,-3.764649949136228e-05,-0.008914724240135985,0.014943271679435377
7.373737373737374,1.3164556962025316,0.015650192680738247,0.013978263642936632,-4.700863034329196e-05,-0.008888536897102464,0.01488504267698084
7.474747474747475,1.3164556962025316,0.015719603896374036,0.014097271722521877,-8.901296227724593e-05,-0.008945062685668774,0.01497528828110746
7.575757575757575,1.3164556962025316,0.01583953392756906,0.01413055771894201,-5.3565047681288286e-05,-0.008991027493953321,0.015058242119494141
7.6767676767676765,1.3164556962025316,0.015827759648911345,0.014115880075219144,1.358367355396068e-05,-0.008983091917239146,0.015045060394920703
7.777777777777778,1.3164556962025316,0.015953345229766876,0.014286641658111793,1.0330337151156742e-05,-0.009071996066363601,0.015188744105066465
7.878787878787879,1.3164556962025316,0.015870272588352382,0.014274443098515383,-3.4110235137672866e-05,-0.00904341470606033,0.015135701678660999
7.979797979797979,1.3164556962025316,0.015892188430653563,0.014322364138195,9.736260938728626e-07,-0.00906436577065457,0.015168324258456054
8.080808080808081,1.3164556962025316,0.016015450783192373,0.014565306666800237,7.523919394683277e-05,-0.009174227234997782,0.015342420044812585
8.181818181818182,1.3164556962025316,0.016112644848404658,0.014584414436130498,2.0385716293957767e-05,-0.009209117785360547,0.015405525796174654
8.282828282828282,1.3164556962025316,0.016127274898800066,0.014651734881473342,3.490827639649706e-06,-0.009233702934082022,0.015442467778118358
8.383838383838384,1.3164556962025316,0.016344597698968902,0.014659214299199539,1.6939244089226995e-05,-0.009301143599450532,0.015570495763513052
8.484848484848484,1.3164556962025316,0.016489163851490535,0.014710141848629732,6.595202153444836e-05,-0.00935979171003608,0.015675965919675246
8.585858585858587,1.3164556962025316,0.016560750752373385,0.014704654893648653,-7.3952755481541125e-06,-0.00937962169380661,0.01571513221390324
8.686868686868687,1.3164556962025316,0.016427087952989323,0.01516012925107695,1.4448603546375603e-05,-0.009476165161219881,0.01583169565223233
8.787878787878787,1.3164556962025316,0.01673525864122592,0.014998324659671807,6.026852963336963e-05,-0.009520074990269318,0.01593827716247758
8.88888888888889,1.3164556962025316,0.0168221291509344,0.01519385665474757,3.0581412831339125e-05,-0.009604795741704591,0.01607006832397481
8.98989898989899,1.3164556962025316,0.017009692956661663,0.015393926979175923,6.917789715999383e-05,-0.009721085980751274,0.01626256522666149
9.09090909090909,1.3164556962025316,0.017265782174142704,0.015566091245410191,-1.2807704237863816e-06,-0.00984956202586587,0.01648179889819119
9.191919191919192,1.3164556962025316,0.017124340189886452,0.015455788238252338,2.1122198101228213e-05,-0.009774038528441636,0.016354069210803124
9.292929292929292,1.3164556962025316,0.01727637726112072,0.015479538276897693,-3.8006991645829635e-05,-0.009826774661405526,0.016451848134149207
9.393939393939394,1.3164556962025316,0.01763150762911653,0.015802675607544968,0.00010157313214666069,-0.01003025497099845,0.016792872696520113
9.494949494949495,1.3164556962025316,0.017544599260175972,0.01584741580337111,-3.081008178405669e-05,-0.010017604519064124,0.016760663442984484
9.595959595959595,1.3164556962025316,0.017842347233172344,0.016038889454543844,2.089740527091693e-06,-0.010164371006314855,0.017012463312018618
9.696969696969697,1.3164556962025316,0.017962584915767396,0.016220359699876785,-7.676134426747414e-05,-0.010254883384693254,0.01715845605199181
9.797979797979798,1.3164556962025316,0.01824080774554315,0.016242185707469898,3.6323169247173775e-05,-0.010344898035903913,0.01732827270752373
9.8989898989899,1.3164556962025316,0.01859783480382528,0.01644321940052492,6.245409808989622e-06,-0.010512316261305062,0.017619613009529685
10.0,1.3164556962025316,0.018593598891924426,0.01679893288153123,4.4019268463370905e-05,-0.010617759532036695,0.017764550627257663
0.0,1.4177215189873418,0.018700499370984315,0.01682812359562271,-6.480105281232418e-05,-0.010658586889982108,0.017838517407236697
0.10101010101010101,1.4177215189873418,0.01832788800468261,0.01656714165820568,3.7830893657533176e-05,-0.010468508898866488,0.017514143944123622
0.20202020202020202,1.4177215189873418,0.01823683168394038,0.016500910373435478,-6.561745653608307e-06,-0.010421322617212757,0.01743381418617027
0.30303030303030304,1.4177215189873418,0.01797820707417404,0.016403207654973318,-0.00010624011944844205,-0.010314424418744207,0.017245716800446745
0.40404040404040403,1.4177215189873418,0.017994748617975013,0.015941698391143247,1.2480480855014668e-05,-0.010180934102735477,0.017061135296729243
0.5050505050505051,1.4177215189873418,0.01784333165916109,0.01615103992557938,1.1142683966448981e-05,-0.010198311475422142,0.01706026335735273
0.6060606060606061,1.4177215189873418,0.017543083811154905,0.01588393390444895,4.1601827691147774e-05,-0.010028105314681157,0.016775313835684775
0.7070707070707071,1.4177215189873418,0.017633093081567484,0.015565753726892128,-1.014285428448826e-05,-0.009959654042537883,0.016695705585296882
0.8080808080808081,1.4177215189873418,0.01729475207154336,0.01553602113749954,5.505112985559792e-05,-0.00984923196271287,0.016486171785177098
0.9090909090909091,1.4177215189873418,0.017167237131630757,0.015235391476860486,-0.00012594325619383508,-0.009720788582547374,0.01628892847985057
1.0101010101010102,1.4177215189873418,0.01684893613449741,0.015209370242330033,1.8499020369495865e-05,-0.009617491913048233,0.0160919517403877
1.1111111111111112,1.4177215189873418,0.01691801298764202,0.014978246976849158,-8.334545447937301e-05,-0.009568877989347352,0.01603701058356632
1.2121212121212122,1.4177215189873418,0.01657865770530981,0.014949175640245959,-8.571657000767575e-06,-0.009458350003666731,0.01582696111502361
1.3131313131313131,1.4177215189873418,0.016556967427968028,0.014934318681541513,2.5140202113393106e-05,-0.009447385832852862,0.01580828621365212
1.4141414141414141,1.4177215189873418,0.016461253827986508,0.014934201676314717,1.4170104934385913e-06,-0.009418636651290368,0.015753335482044422
1.5151515151515151,1.4177215189873418,0.016350731580847086,0.014777239062710942,3.589247772629171e-05,-0.009338391193067407,0.015623649155523733
1.6161616161616161,1.4177215189873418,0.01611815159526614,0.014652126895022065,-0.0001260084536040085,-0.00923108354708646,0.015438978764798744
1.7171717171717171,1.4177215189873418,0.016056927317354804,0.014584415063471377,-4.915580521104824e-05,-0.009192402714247854,0.015373888052723978
1.8181818181818181,1.4177215189873418,0.016262890430550122,0.014389450819387715,9.993760208359472e-05,-0.009195702374981352,0.01541278042992552
1.9191919191919191,1.4177215189873418,0.016208788089026066,0.01442382234061708,-7.889242405290403e-05,-0.009189783128892943,0.015394721644756502
2.0202020202020203,1.4177215189873418,0.016017993705548447,0.014434693629276836,-5.477024550163926e-05,-0.009135806200447585,0.01528825268518856
2.121212121212121,1.4177215189873418,0.01607005787848635,0.014169721962013026,-4.0083209914964696e-06,-0.009071933952149811,0.015209193826332758
2.2222222222222223,1.4177215189873418,0.015921952161717996,0.014184670163546924,-4.1216356973782036e-05,-0.009031986697579476,0.015128479265251963
2.323232323232323,1.4177215189873418,0.015803294591660737,0.01421947346752254,3.22245016691639e-06,-0.009006830417754982,0.015073919485368889
2.4242424242424243,1.4177215189873418,0.015676941240048294,0.014188112019322456,-7.318000020858831e-05,-0.008959515977811224,0.014988624914244793
2.525252525252525,1.4177215189873418,0.015586557009114451,0.014024024597427617,5.257950807388283e-06,-0.008883174481962621,0.014867005393176556
2.6262626262626263,1.4177215189873418,0.01569672579232025,0.0140941518532022,5.938269587109068e-07,-0.008937263293656733,0.014959955922504216
2.727272727272727,1.4177215189873418,0.015600373946821467,0.01403889144358393,3.620041935443468e-05,-0.008891779617121618,0.014881334460919252
2.8282828282828283,1.4177215189873418,0.015604453584466134,0.014016428488881445,-8.501513795292973e-05,-0.008886264622004274,0.014874885350818321
2.929292929292929,1.4177215189873418,0.01554041863335369,0.01377286321668996,2.915966664209074e-05,-0.008793984555013094,0.014736446762253566
3.0303030303030303,1.4177215189873418,0.015379309124179858,0.013826015762477125,2.521467696710117e-05,-0.008761597465997095,0.014664555839650666
3.131313131313131,1.4177215189873418,0.015237113911768697,0.013844647190592432,1.467978042667771e-06,-0.00872452833070834,0.01459079971577183
3.2323232323232323,1.4177215189873418,0.015282733064547572,0.013891757468727136,-1.7905759507263626e-05,-0.008752347159982412,0.014636932607238117
3.3333333333333335,1.4177215189873418,0.015300315370996449,0.013808041108470606,6.436168447603452e-05,-0.008732506943840116,0.014611868236785003
3.4343434343434343,1.4177215189873418,0.015324554815499188,0.013829764767986358,5.368760532573364e-05,-0.008746295875045664,0.014634822603486064
3.5353535353535355,1.4177215189873418,0.015098799344370932,0.013709809632174148,0.0001130636401404389,-0.008642582692963524,0.014455770725439555
3.6363636363636362,1.4177215189873418,0.0150846025229986,0.013871661206750005,4.625769070865722e-05,-0.008686879118924582,0.014516409390618427
3.7373737373737375,1.4177215189873418,0.01499684241676908,0.01372801527372097,-1.7170058693341985e-05,-0.008617457307147015,0.01440443294637712
3.8383838383838382,1.4177215189873418,0.0150318112756347,0.013648454426791896,8.328040700052584e-05,-0.008604079710727979,0.014390812145165664
3.9393939393939394,1.4177215189873418,0.015107955956365098,0.01358572000775023,-3.573850718703565e-05,-0.008608102789234597,0.014407411062315873
4.040404040404041,1.4177215189873418,0.01521614854847974,0.013638967084629907,-3.2548622641492185e-05,-0.008656534689932894,0.0144921781943217
4.141414141414141,1.4177215189873418,0.01508300091354705,0.013682928910557512,-2.5092934725679907e-05,-0.008629778947231367,0.014434047243847196
4.242424242424242,1.4177215189873418,0.01511552932511684,0.01346937456542035,5.1232139196732584e-05,-0.008575471167161158,0.014363649463967215
4.343434343434343,1.4177215189873418,0.015203025995255597,0.01369341691512198,3.312349213344455e-05,-0.008668932873113273,0.01450736310969321
4.444444444444445,1.4177215189873418,0.015059873712897904,0.013610754800362944,-6.208700139239323e-05,-0.008601188553978253,0.014390544063397221
4.545454545454545,1.4177215189873418,0.015138886150390335,0.01377753102043532,6.853938312604597e-06,-0.008674925151247695,0.01450620220013176
4.646464646464646,1.4177215189873418,0.015008633534679803,0.013676703498846511,-6.023229017081632e-05,-0.008605601110057893,0.014389355516608549
4.747474747474747,1.4177215189873418,0.01508126289218643,0.013528367735428419,-5.9526901434361616e-05,-0.008582889188284454,0.01436826308375631
4.848484848484849,1.4177215189873418,0.015015129431846927,0.013568638436614747,-1.3983231466666153e-05,-0.008575130360538502,0.014346699450789304
4.94949494949495,1.4177215189873418,0.015075494387930717,0.013576750871390753,-1.4506627225931271e-05,-0.00859567357779644,0.01438482168895589
5.05050505050505,1.4177215189873418,0.014988495072445606,0.01376275686021756,4.383544973095121e-05,-0.00862537557979895,0.014414964869451232
5.151515151515151,1.4177215189873418,0.014930069851949123,0.013545293317538787,-6.0263582560830124e-05,-0.008542608950846372,0.014288480554082593
5.252525252525253,1.4177215189873418,0.015135501730261156,0.013490214319053971,-4.33364422750444e-05,-0.008587714814794537,0.014383802243315195
5.353535353535354,1.4177215189873418,0.014952801170367179,0.013620589794406134,5.291541241586131e-05,-0.008572017289431993,0.0143334977689237
5.454545454545454,1.4177215189873418,0.014969527393619883,0.013627441904834706,7.822920938038498e-05,-0.008579090789536377,0.014346285853355747
5.555555555555555,1.4177215189873418,0.015009910862728782,0.013617874776619758,-5.56447702444584e-05,-0.008588335691804562,0.014364892621362042
5.656565656565657,1.4177215189873418,0.01506208846394784,0.01367634190924671,-9.135277452067488e-05,-0.008621529111958365,0.01442011099826819
5.757575757575758,1.4177215189873418,0.015096463180209872,0.0136161379157552,-6.0786379306158826e-05,-0.008613780328789521,0.014413811867169914
5.858585858585858,1.4177215189873418,0.015078588949971966,0.013516564124016656,2.8887380347828458e-05,-0.008578545922196586,0.014361515917239234
5.959595959595959,1.4177215189873418,0.015209245971313316,0.013441080166728191,-5.1664799040863876e-05,-0.008595097841412451,0.014407050789207137
6.0606060606060606,1.4177215189873418,0.014972837860196202,0.013505230039985949,3.65137916264709e-05,-0.008543420370054644,0.014295785817444237
6.161616161616162,1.4177215189873418,0.015132305888663967,0.013482465275635357,9.344000614916814e-05,-0.008584431349289797,0.0143794629884725
6.262626262626262,1.4177215189873418,0.015214491825648619,0.013758540394140838,-9.096859785428467e-05,-0.008691909665936836,0.014542139484539694
6.363636363636363,1.4177215189873418,0.015133815976676906,0.0137620149594965,4.5863660055553784e-05,-0.008668749280852022,0.014496894506133822
6.4646464646464645,1.4177215189873418,0.015222130305394948,0.013850302888925733,-1.676280952171956e-05,-0.008721729958296204,0.014584713530965954
6.565656565656566,1.4177215189873418,0.01511482597772988,0.013575238224359923,1.8728439776482318e-05,-0.00860701926062694,0.014406899252827555
6.666666666666667,1.4177215189873418,0.015185434542475213,0.013720781852654948,-4.567152758749337e-05,-0.008671864918539048,0.01450887658856356
6.767676767676767,1.4177215189873418,0.015375104502070793,0.013964800437042613,-3.1867346944806155e-05,-0.008801971481734021,0.01472081078641163
6.8686868686868685,1.4177215189873418,0.015383497911305513,0.01391700114799636,2.1822713240181558e-05,-0.008790149717790562,0.014705243947009998
6.96969696969697,1.4177215189873418,0.015557969381015536,0.013744933375263847,-1.532322926942341e-05,-0.008790870826883816,0.014735367540671365
7.070707070707071,1.4177215189873418,0.01533893424493442,0.013841882050363833,-7.901030553946312e-05,-0.008754244888589476,0.014648536164241183
7.171717171717171,1.4177215189873418,0.015523898202051429,0.013922801476410129,1.810039152557144e-05,-0.008834009903538467,0.014788530907583133
7.2727272727272725,1.4177215189873418,0.01566455211417116,0.014047832742443395,-3.016211948000486e-05,-0.008913715456984366,0.014922115093794142
7.373737373737374,1.4177215189873418,0.015640211104232332,0.01387464564670553,-6.895559097983836e-05,-0.008854457025281358,0.01483690914295449
7.474747474747475,1.4177215189873418,0.015830461797685335,0.014041223193947886,2.2818499876940768e-05,-0.008961505497489966,0.01501605754509084
7.575757575757575,1.4177215189873418,0.015623355400152947,0.014202669854609629,-2.8370335696179013e-05,-0.008947807576428773,0.014963760249909216
7.6767676767676765,1.4177215189873418,0.015874994238155374,0.014208121925505881,-1.7337333093105226e-05,-0.009024934849098377,0.015110698817673811
7.777777777777778,1.4177215189873418,0.015883142957669058,0.014070462812636667,0.00011553873088398202,-0.008986081731091717,0.015060180252469487
7.878787878787879,1.4177215189873418,0.01601326487722578,0.014082370854756032,-5.570551213965919e-05,-0.009028690719594543,0.01514075280938139
7.979797979797979,1.4177215189873418,0.016132298941906608,0.014262620287023358,1.2693147731005867e-05,-0.00911847576867899,0.015283488992559473
8.080808080808081,1.4177215189873418,0.016089552451664463,0.014440763855745989,-9.80632035874409e-05,-0.009159094892223135,0.015332735584651872
8.181818181818182,1.4177215189873418,0.016117987011457044,0.014584333759460704,4.978278773934357e-05,-0.009210696231275324,0.015408751713911362
8.282828282828282,1.4177215189873418,0.016338322806634428,0.01458988687777226,-3.7841199540030846e-05,-0.009278462905322006,0.015538198273538887
8.383838383838384,1.4177215189873418,0.016207965532265844,0.014415546724377493,-7.05081341184043e-05,-0.009187053676993,0.015390723303707356
8.484848484848484,1.4177215189873418,0.016363124351140935,0.014829274000445127,-4.161541595699363e-05,-0.009357719505475818,0.015652831914171002
8.585858585858587,1.4177215189873418,0.01653845366515959,0.015006775105993797,-7.947470149425493e-05,-0.009463568631346016,0.015828892653849475
8.686868686868687,1.4177215189873418,0.016706438475352487,0.014970108856809976,-4.246950829858809e-05,-0.00950296419964874,0.015909665430399806
8.787878787878787,1.4177215189873418,0.01667262079187542,0.015231000630526311,6.214949085330373e-05,-0.00957108642672052,0.016000954789037708
8.88888888888889,1.4177215189873418,0.016904808092795896,0.015124784789772023,3.3674356431397184e-05,-0.009608877864770375,0.016088923803725518
8.98989898989899,1.4177215189873418,0.01684227914724703,0.0153470582290975,-2.5449316854452025e-05,-0.00965680121290336,0.016146735502285646
9.09090909090909,1.4177215189873418,0.01695945853093681,0.01548775893581456,-3.45759803530711e-05,-0.00973416524002541,0.01627370552771028
9.191919191919192,1.4177215189873418,0.017255327678359376,0.015698313222485754,-2.9518132309666383e-07,-0.009886092270253537,0.016531903487762956
9.292929292929292,1.4177215189873418,0.017276581015911563,0.015645558477780864,2.1731274713729926e-05,-0.009876641848107727,0.016521604336303283
9.393939393939394,1.4177215189873418,0.01756386890023078,0.01579102465260698,-1.7319993717041519e-06,-0.010006468065851327,0.016747969205981348
9.494949494949495,1.4177215189873418,0.017620420575577063,0.016030820533442625,4.585242638084064e-05,-0.010095372332705906,0.01688202996087332
9.595959595959595,1.4177215189873418,0.017825383286098055,0.0161246579814921,-3.3771470362708864e-05,-0.010185012380277048,0.017038899523610537
9.696969696969697,1.4177215189873418,0.018225619168395577,0.016152148215408058,4.575316822168869e-05,-0.01031333021514109,0.0172826058213337
9.797979797979798,1.4177215189873418,0.01837270917687698,0.016366290213882653,-2.8555378272320887e-05,-0.010421699817227889,0.017456266888655824
9.8989898989899,1.4177215189873418,0.018536564851042978,0.01635361078665042,-0.00010346223408755085,-0.010467052691308017,0.017548138609104858
10.0,1.4177215189873418,0.018849978236865256,0.016858483811067054,0.0001104614989776102,-0.010712538614379692,0.01793835857099009
0.0,1.5189873417721518,0.018674137948829335,0.016833953327290596,1.8746452390901666e-05,-0.010652427382835979,0.017825456526769756
0.10101010101010101,1.5189873417721518,0.01857162828078059,0.016765857832176215,-4.5650749637117834e-06,-0.010601245833887041,0.017737816914726902
0.20202020202020202,1.5189873417721518,0.01832329761875579,0.016625758998766404,-3.0375519453892443e-05,-0.010484716985256657,0.017536337578154846
0.30303030303030304,1.5189873417721518,0.01812572888741081,0.016343577801486722,2.972598021335299e-06,-0.010340792006669259,0.017303622432373263
0.40404040404040403,1.5189873417721518,0.017878912837539455,0.01618650932252756,-9.772967594030972e-05,-0.010219626648020104,0.017096492980953514
0.5050505050505051,1.5189873417721518,0.017872157649367885,0.016018414729915935,-2.356036042324855e-05,-0.010167171713785146,0.01702121210223239
0.6060606060606061,1.5189873417721518,0.01765801994746259,0.015711242181539537,-4.286780421060766e-05,-0.010010778638700637,0.016769761013706985
0.7070707070707071,1.5189873417721518,0.017276728826767063,0.01580646661777021,3.174794492037039e-05,-0.009924958633361182,0.01659062181546509
0.8080808080808081,1.5189873417721518,0.01715755229066792,0.015552076997604582,8.163696739843913e-06,-0.00981288878648175,0.016413815070524116
0.9090909090909091,1.5189873417721518,0.017016966635744053,0.015454798410289164,-3.086404734700262e-05,-0.009741529513809966,0.016292237913893774
1.0101010101010102,1.5189873417721518,0.017022825537641523,0.015273638668134568,1.2624366804953583e-05,-0.009688939261732825,0.016219143602576473
1.1111111111111112,1.5189873417721518,0.016817408135291673,0.015171659161928808,7.884511090083331e-05,-0.009596720189166144,0.016058490699737565
1.2121212121212122,1.5189873417721518,0.016721264292537917,0.015113633651180782,-1.4605020746186864e-05,-0.00955046938311561,0.01597824079493459
1.3131313131313131,1.5189873417721518,0.016698960628518486,0.015037420086774262,-1.7826980236062193e-05,-0.009520914214587825,0.015933328477096966
1.4141414141414141,1.5189873417721518,0.016501409772764205,0.015005132615517211,-4.085206129143022e-05,-0.009451962716484425,0.015806634492748703
1.5151515151515151,1.5189873417721518,0.016388521740016287,0.014696035089947887,-8.970761138511627e-05,-0.009325367048989251,0.015612012810362863
1.6161616161616161,1.5189873417721518,0.01617278144428339,0.01478193214504462,2.6947599882001063e-05,-0.009286414076798402,0.015524226170687057
1.7171717171717171,1.5189873417721518,0.016381215316381884,0.014570966698026641,1.124182252952526e-05,-0.009285654604322556,0.01555530527004156
1.8181818181818181,1.5189873417721518,0.016267292786443864,0.014642266416105833,-8.702039077588251e-05,-0.009272867760764908,0.01551945434599535
1.9191919191919191,1.5189873417721518,0.01601857058791321,0.014526600537477544,3.1692831605458914e-05,-0.009163551337617227,0.015327242545550212
2.0202020202020203,1.5189873417721518,0.015973684853380934,0.01431940487089365,3.7868886840296604e-05,-0.009087926917282375,0.015214289504076514
2.121212121212121,1.5189873417721518,0.015933596740257773,0.014188087135719616,5.533937206478853e-06,-0.009036505162793217,0.015136517254279905
2.2222222222222223,1.5189873417721518,0.015917295467471664,0.014387111651711923,-7.986403413322223e-05,-0.009091322135755074,0.015210670740820739
2.323232323232323,1.5189873417721518,0.01575275973650225,0.014319002526846848,8.699199893807287e-05,-0.009021528679004728,0.01508781525044841
2.4242424242424243,1.5189873417721518,0.015663217311412448,0.014209764032870859,5.352639989972552e-06,-0.008961894403284992,0.014989437426932229
2.525252525252525,1.5189873417721518,0.01549290492106025,0.014148091715399023,-3.7904940482451264e-05,-0.008892298990937781,0.014866333531600084
2.6262626262626263,1.5189873417721518,0.015590695646107327,0.014013911791864378,-6.494345628698268e-05,-0.008881382231391512,0.014865582189705753
2.727272727272727,1.5189873417721518,0.015377275943188693,0.014038374992637418,-3.7960901162928556e-05,-0.008824695280747833,0.014753607860492414
2.8282828282828283,1.5189873417721518,0.015627794908742464,0.01409962862900757,-3.912526028603096e-06,-0.00891822706132501,0.014922514620722022
2.929292929292929,1.5189873417721518,0.01568251329675901,0.013985956798373273,0.00013377497478974631,-0.008900541028539684,0.014908619810104516
3.0303030303030303,1.5189873417721518,0.015213621124935439,0.013783094549211655,6.622070661897952e-05,-0.008699014702244127,0.01455164390131494
3.131313131313131,1.5189873417721518,0.015296638799023947,0.01379446413474671,6.649341534539162e-06,-0.008727330880131197,0.01460361587616354
3.2323232323232323,1.5189873417721518,0.015228536236325826,0.013575242276841716,1.0219512425231426e-05,-0.008641133553950263,0.014472897538556531
3.3333333333333335,1.5189873417721518,0.015288847273235744,0.0137628231142488,-3.310070142749161e-05,-0.008715501116245363,0.014585943142129184
3.4343434343434343,1.5189873417721518,0.015387123193193705,0.013635414414398589,1.7070062368563934e-05,-0.008706761282277688,0.014590378994097307
3.5353535353535355,1.5189873417721518,0.015146449576330406,0.013861894041222863,-0.00012348402421101943,-0.00870250308526598,0.014548343787637771
3.6363636363636362,1.5189873417721518,0.01514291319617888,0.01371214359357088,-5.7285449899689414e-05,-0.008656517036924927,0.014480978789261514
3.7373737373737375,1.5189873417721518,0.015157074956697198,0.013757775344043432,-3.6384136307304264e-06,-0.00867445509022219,0.014508125697249838
3.8383838383838382,1.5189873417721518,0.015043691243269645,0.013807175491929034,-2.21169653170825e-05,-0.008655260020559604,0.01446517624247966
3.9393939393939394,1.5189873417721518,0.015083389548527249,0.013809578007715154,-6.958510623247951e-05,-0.008667890266872721,0.014489042987501859
4.040404040404041,1.5189873417721518,0.015201016861746937,0.013694432492053434,6.421444817969808e-05,-0.008668634806140111,0.014506945445986527
4.141414141414141,1.5189873417721518,0.01507845485238243,0.01349968819521866,4.801970681859807e-05,-0.008573442914280327,0.014354576301909628
4.242424242424242,1.5189873417721518,0.015067067136886426,0.01359132792718575,3.9410919184108965e-06,-0.008597518519221652,0.014386080187806951
4.343434343434343,1.5189873417721518,0.015036227693630912,0.013568538471904607,5.1629771274340325e-06,-0.008581429849660656,0.014358754317625138
4.444444444444445,1.5189873417721518,0.015109630602404039,0.013563676603963709,-0.00011863277346929587,-0.008601992161910325,0.014400497840924752
4.545454545454545,1.5189873417721518,0.015046326025578753,0.013427092460410277,8.420332285910777e-05,-0.008542025545796708,0.014306348194848089
4.646464646464646,1.5189873417721518,0.015034455258603252,0.01362686916602409,-2.727908066231602e-05,-0.008598397327388202,0.014382492337706181
4.747474747474747,1.5189873417721518,0.015051157972867562,0.01361241559598594,5.051617353383844e-05,-0.008599072070656051,0.01438611319314258
4.848484848484849,1.5189873417721518,0.015203340283685843,0.013593546713717085,3.365549369859932e-05,-0.008639066099220879,0.014465896092724478
4.94949494949495,1.5189873417721518,0.015181348388095865,0.013556979821838556,-1.407364096244698e-05,-0.008621498462980326,0.01443788077270593
5.05050505050505,1.5189873417721518,0.01509868630778852,0.013418038331060757,8.717540440594412e-05,-0.008555017391654783,0.01433325252347309
5.151515151515151,1.5189873417721518,0.01494012484510195,0.013450202805204464,1.6649046865698262e-06,-0.008517098295091924,0.01425368671966626
5.252525252525253,1.5189873417721518,0.015191151628308572,0.013652403011711545,4.59802951458955e-05,-0.008653066392006034,0.01448343240082927
5.353535353535354,1.5189873417721518,0.014985940645013377,0.013529335775864924,-8.826446831939088e-05,-0.008554582926263491,0.014314150079466747
5.454545454545454,1.5189873417721518,0.015127204719828884,0.013598795785381326,-5.687762729644099e-05,-0.008617800151563063,0.014424198655487564
5.555555555555555,1.5189873417721518,0.01496216451507499,0.013384752622413157,5.6227120869576354e-05,-0.008504075141246443,0.014239472724669333
5.656565656565657,1.5189873417721518,0.015263926822318672,0.013510956800962759,9.72708884036879e-05,-0.008632465086984429,0.01446829446349394
5.757575757575758,1.5189873417721518,0.015010817393686118,0.013271873623997864,4.89296711473352e-05,-0.008484807305305195,0.014221560364960115
5.858585858585858,1.5189873417721518,0.015008805559098053,0.013745433076163075,-9.543158594815322e-06,-0.00862627159057834,0.014418700205358034
5.959595959595959,1.5189873417721518,0.015154997369098958,0.013675083587619109,2.5784376327831848e-06,-0.00864902428701542,0.01447190452353151
6.0606060606060606,1.5189873417721518,0.01530309701601233,0.013621991765036109,-4.2195180385861486e-05,-0.008677526634314531,0.014535821878940034
6.161616161616162,1.5189873417721518,0.015273806401591782,0.013605954905228736,6.184919435632202e-05,-0.008663928392046156,0.014512337017644669
6.262626262626262,1.5189873417721518,0.015257496994424111,0.013551212061394067,2.3721568506332232e-05,-0.008642612716745454,0.014480009451262325
6.363636363636363,1.5189873417721518,0.01534845340289502,0.013683744563703953,6.935473520535488e-05,-0.00870965938997969,0.014588008828153868
6.4646464646464645,1.5189873417721518,0.015331989573422935,0.01369109116401684,-5.18556863865186e-05,-0.008706924221231932,0.014581230455695857
6.565656565656566,1.5189873417721518,0.015302764813731029,0.013644940513046816,3.0359369558576505e-05,-0.008684311598033354,0.014544980648127549
6.666666666666667,1.5189873417721518,0.015312095680833396,0.013745679125987715,-6.183607362144079e-06,-0.008717332442046333,0.014592084481301941
6.767676767676767,1.5189873417721518,0.015208914419000793,0.013775294503981881,3.120044446076142e-05,-0.008695262676894801,0.014545290016755762
6.8686868686868685,1.5189873417721518,0.01542139797199785,0.013742989100292714,2.8821663626864726e-06,-0.008749316121687169,0.01465445957726555
6.96969696969697,1.5189873417721518,0.015329618287870725,0.014017439876245312,4.243815842875825e-05,-0.008804117449234811,0.014717649875296899
7.070707070707071,1.5189873417721518,0.015421991687058819,0.013841069627501068,-8.650256087557024e-06,-0.008778918394367966,0.014695455072045616
7.171717171717171,1.5189873417721518,0.015552207048558652,0.013961311370623076,-4.419763165902536e-05,-0.008854055525754518,0.014821134047546198
7.2727272727272725,1.5189873417721518,0.015495018588006882,0.014074747897837057,-1.5165676597877837e-05,-0.008870929945753182,0.014835981232297764
7.373737373737374,1.5189873417721518,0.015705130681232055,0.014018318828733762,0.00010284929082626065,-0.008917034852989746,0.014934409840768355
7.474747474747475,1.5189873417721518,0.015756237456753527,0.014102719960563786,-7.1547399799449116e-06,-0.008957687225195193,0.014998002472524762
7.575757575757575,1.5189873417721518,0.01567518149063868,0.014169919240923656,-1.1629671268732436e-05,-0.0089535302194687,0.01497939504777646
7.6767676767676765,1.5189873417721518,0.01591286877021307,0.014258292976028748,-7.126863461474454e-05,-0.009051348523872545,0.015153983097797636
7.777777777777778,1.5189873417721518,0.01584018766767281,0.01424008051385754,3.8785046381068866e-06,-0.009024080454459106,0.015103838445056262
7.878787878787879,1.5189873417721518,0.015848475136372584,0.01426110787795002,3.974556239890825e-06,-0.009032874904296781,0.015117426891677761
7.979797979797979,1.5189873417721518,0.01576583308179606,0.014564223176700877,-2.4663197724102703e-05,-0.00909901687754908,0.015200750072081323
8.080808080808081,1.5189873417721518,0.015904639391573643,0.014162471091750135,-9.565513376002787e-05,-0.009020133144997134,0.015109983312585956
8.181818181818182,1.5189873417721518,0.016217545513649873,0.014521742219528073,0.00011354785347361878,-0.009221786319953384,0.015440901642719157
8.282828282828282,1.5189873417721518,0.016045241781461175,0.014648521110291452,-0.00012563079332777077,-0.009208128867525789,0.015396013798299668
8.383838383838384,1.5189873417721518,0.01618728026420979,0.01467052979328884,6.666908799844625e-05,-0.009257343017249588,0.015485149133325413
8.484848484848484,1.5189873417721518,0.01644745660632707,0.0148121172143159,-2.8946171372311582e-05,-0.00937787214619289,0.015693900206763957
8.585858585858587,1.5189873417721518,0.016529238451132935,0.014626881846112928,3.889340354154392e-06,-0.009346836089173758,0.01566493612704873
8.686868686868687,1.5189873417721518,0.01650948384501889,0.015019032398622845,-4.737831787290182e-05,-0.009458554873092521,0.015817226444037418
8.787878787878787,1.5189873417721518,0.01671836428893004,0.015057138638449354,1.9067402716489726e-05,-0.009532650878213818,0.015952789419592873
8.88888888888889,1.5189873417721518,0.016825931032216208,0.015092606166834815,2.2012220229650694e-05,-0.009575561159715307,0.016029754182832354
8.98989898989899,1.5189873417721518,0.017044154254606824,0.015172028038760136,1.6846716723692563e-06,-0.009664854688010087,0.016189479649768364
9.09090909090909,1.5189873417721518,0.017089622626478982,0.015469802490052057,5.5749872676948857e-05,-0.009767827534959311,0.01634032521342336
9.191919191919192,1.5189873417721518,0.017257497575110626,0.01549827392372179,-7.209023827188603e-06,-0.009826731449649724,0.01644860019645163
9.292929292929292,1.5189873417721518,0.017521623743822212,0.01545009057227936,2.1842165670975516e-05,-0.009891514294830471,0.01658322510059065
9.393939393939394,1.5189873417721518,0.01749416401339793,0.01584737010542702,-6.694879381613828e-05,-0.010002460235647487,0.016732061092515474
9.494949494949495,1.5189873417721518,0.017713402241615547,0.016033689420339666,-2.2226779294325163e-05,-0.010124127498586563,0.01693617747222566
9.595959595959595,1.5189873417721518,0.017795258286755208,0.016142066877118364,1.4597976433938019e-05,-0.010181197549162071,0.01702897326617322
9.696969696969697,1.5189873417721518,0.017914124739098893,0.01622473810575009,-1.8264909115724826e-05,-0.010241658853454697,0.017132046296437296
9.797979797979798,1.5189873417721518,0.018268273851690397,0.016362855485924987,7.271197317016438e-05,-0.010389338801284615,0.017394470536760676
9.8989898989899,1.5189873417721518,0.01841965968062736,0.01642027472382648,-4.01833999554895e-05,-0.010451980321336152,0.017505949177284527
10.0,1.5189873417721518,0.01850248825610905,0.016938889474348667,-6.633830692201137e-05,-0.010632413319137316,0.01777272199281483
0.0,1.620253164556962,0.018635715007195273,0.01676202088452605,4.373184626033376e-05,-0.010619320767516396,0.017773258317965782
0.10101010101010101,1.620253164556962,0.018452069768501663,0.016510174984129992,-1.3139968923476545e-05,-0.010488673425789496,0.017561844266114457
0.20202020202020202,1.620253164556962,0.018359901788322194,0.016452966157405814,-4.888480948354744e-05,-0.010443860383718402,0.017484805273459948
0.30303030303030304,1.620253164556962,0.018079859143635295,0.016447752094804407,4.390860577129721e-06,-0.010358283371531909,0.017321572456370966
0.40404040404040403,1.620253164556962,0.017875544058092115,0.016157753794065064,-0.00011720963401771539,-0.010209989355647155,0.01708275907199188
0.5050505050505051,1.620253164556962,0.017788564468215435,0.01584649859580874,-7.016515477911488e-05,-0.010090518919207252,0.016901859399682372
0.6060606060606061,1.620253164556962,0.01750351109929459,0.01565199324338286,4.784794445175951e-05,-0.009946651302803233,0.01665532419707766
0.7070707070707071,1.620253164556962,0.017325231400151908,0.01586133806094873,4.426569851229589e-05,-0.009955970838330193,0.01664182124308308
0.8080808080808081,1.620253164556962,0.01715351709932488,0.01546805533793885,-8.52163907518336e-06,-0.00978647173117912,0.016375974808747404
0.9090909090909091,1.620253164556962,0.017068464158556337,0.015450372920607258,4.977916031977556e-05,-0.009755651123749078,0.016319920023714834
1.0101010101010102,1.620253164556962,0.01685851341781953,0.015305663086290687,6.104641076073745e-05,-0.009649252951233063,0.016138564082773477
1.1111111111111112,1.620253164556962,0.016830747005009677,0.015193395773210806,-3.9704645338979044e-05,-0.009607242833466144,0.01607488254509974
1.2121212121212122,1.620253164556962,0.016700154845958947,0.0151430887935237,4.3753122841906575e-05,-0.009552973091844793,0.015978802376801368
1.3131313131313131,1.620253164556962,0.016671426307939226,0.014873865963171334,2.4307356493370627e-06,-0.009463587681333168,0.01584928393454057
1.4141414141414141,1.620253164556962,0.016591390163916187,0.014881936977667404,2.6489115751988954e-05,-0.009441998142475075,0.015806212639561307
1.5151515151515151,1.620253164556962,0.016183723555057122,0.014677190430658122,-2.5200307961481656e-05,-0.009258274195714572,0.015485578443060376
1.6161616161616161,1.620253164556962,0.01642022432858243,0.014794057073438973,-6.235383832260718e-05,-0.00936428442060642,0.015670922749502693
1.7171717171717171,1.620253164556962,0.016127706509709242,0.014615839119200726,2.5653966972986566e-05,-0.00922306368867299,0.015427497564159391
1.8181818181818181,1.620253164556962,0.016219250753058214,0.014393601398052692,3.6248306120436308e-06,-0.00918385564533327,0.015387867470842373
1.9191919191919191,1.620253164556962,0.01598480156806125,0.014385736834007743,-3.270907915417216e-05,-0.009111161520620697,0.015248388976453692
2.0202020202020203,1.620253164556962,0.015997708686262182,0.014269300413364256,3.325143845642114e-05,-0.009080102729887931,0.01520745946245007
2.121212121212121,1.620253164556962,0.016014223332962957,0.014375294858659949,3.294058835072365e-05,-0.009116855457486871,0.015261013207999607
2.2222222222222223,1.620253164556962,0.015951008616067536,0.014225104920510724,-1.6544990990070335e-05,-0.009052834060973477,0.015161937077037634
2.323232323232323,1.620253164556962,0.015845861871864993,0.01444566091935692,3.229544555368613e-05,-0.009087456837366573,0.015194329181334168
2.4242424242424243,1.620253164556962,0.01573131574104164,0.014133338671376682,-4.915239253891667e-07,-0.008959396323725496,0.014996317699837612
2.525252525252525,1.620253164556962,0.015609441058787178,0.01418839326096522,1.0156545552553417e-05,-0.00893935029592572,0.014949668044337209
2.6262626262626263,1.620253164556962,0.015610511574732111,0.014040485015963508,-1.4459300262386879e-05,-0.008895298977208685,0.014887738729097919
2.727272727272727,1.620253164556962,0.015366991895650708,0.013904341462904337,-2.5613542653886263e-05,-0.008781400007566513,0.014690446454207105
2.8282828282828283,1.620253164556962,0.015446070010555221,0.013751878914039001,-1.625865292242364e-05,-0.008759384677378267,0.014672544461879265
2.929292929292929,1.620253164556962,0.01527200282627576,0.013835808876405254,-1.4137335036405278e-05,-0.008732343510804303,0.01460697658376444
3.0303030303030303,1.620253164556962,0.0155620733890832,0.013902223629660945,-7.535103291470253e-05,-0.008839289105623243,0.01480268755849992
3.131313131313131,1.620253164556962,0.01536262749293546,0.013924378554870564,-7.642677010977548e-06,-0.008786101814341807,0.014696386496294792
3.2323232323232323,1.620253164556962,0.015257359694352945,0.013668913927541314,-1.5041520913601546e-05,-0.008677882086568278,0.014528433333288363
3.3333333333333335,1.620253164556962,0.015261532647244258,0.0139048045598563,-3.2852496674433694e-05,-0.008749901162130168,0.01463053579697334
3.4343434343434343,1.620253164556962,0.015245735227941256,0.013761001223411848,9.136520591811144e-06,-0.008702020935405931,0.014560263274259303
3.5353535353535355,1.620253164556962,0.015193463935840978,0.013736856713068379,-7.298510651876002e-05,-0.008679096194672808,0.014520610253724649
3.6363636363636362,1.620253164556962,0.015123229266729798,0.013731145218696781,9.003148842954462e-05,-0.008656312345627973,0.014478310406971753
3.7373737373737375,1.620253164556962,0.015150294787976736,0.013727385611159802,-3.233647705970887e-05,-0.008663304119740962,0.014491436993825593
3.8383838383838382,1.620253164556962,0.015042920696153933,0.013613405859247002,5.635190386122058e-06,-0.008596897966620281,0.014381550426857981
3.9393939393939394,1.620253164556962,0.015134081525670404,0.013681174795642232,-2.8320245345629677e-05,-0.00864457689639379,0.014462550217691455
4.040404040404041,1.620253164556962,0.015157628569423529,0.013619523916238645,3.347932831889062e-05,-0.008633145745698652,0.014450218452852158
4.141414141414141,1.620253164556962,0.01507546586389787,0.013695135480668568,-8.23490839611884e-05,-0.008631180403369932,0.014435588090619282
4.242424242424242,1.620253164556962,0.015134406027244413,0.013608209543516972,-0.00012288645391384678,-0.008622784671228415,0.014433528587425071
4.343434343434343,1.620253164556962,0.01505895253245254,0.013420101999624073,2.4700635974454978e-05,-0.008543716359622984,0.01431014816227334
4.444444444444445,1.620253164556962,0.01523126189725337,0.013529176353909145,2.2993429392219597e-05,-0.008628131475348754,0.014455625534398874
4.545454545454545,1.620253164556962,0.015158933593866601,0.013253440799512873,1.6431957161215703e-05,-0.008523712318013842,0.014301739117570293
4.646464646464646,1.620253164556962,0.014996015095413746,0.01357033318960305,-2.965366442411011e-05,-0.008569904485505039,0.01433653124982047
4.747474747474747,1.620253164556962,0.015035284512336307,0.01377393262974273,-3.667756856940872e-05,-0.00864276514262371,0.01444610813491874
4.848484848484849,1.620253164556962,0.015076892784327955,0.013507523662690164,4.6152245018290496e-05,-0.008575324934105436,0.01435690759088681
4.94949494949495,1.620253164556962,0.015023003905724794,0.013496559550412197,9.05790229718468e-05,-0.008555869036841097,0.014321784556673203
5.05050505050505,1.620253164556962,0.015086853594523818,0.013623345216169015,-2.0931594183022236e-05,-0.008613059643207849,0.014410988373890883
5.151515151515151,1.620253164556962,0.014950050856863146,0.013469018922069694,8.895697804507846e-05,-0.008525720933679851,0.014268136300887397
5.252525252525253,1.620253164556962,0.014756652240045045,0.013552549307359867,6.871385202596334e-05,-0.008492760464221474,0.014193459259379116
5.353535353535354,1.620253164556962,0.015068720448797639,0.01349618944095358,-1.3069470472473391e-05,-0.008569472966925364,0.014347253117358398
5.454545454545454,1.620253164556962,0.014934937666359324,0.013536054827688543,-1.7530432452068976e-06,-0.00854129774821436,0.014286952702230106
5.555555555555555,1.620253164556962,0.015037323400710628,0.013632989969898621,8.656779302866316e-05,-0.008601094011182774,0.014387435957434374
5.656565656565657,1.620253164556962,0.01512931662619688,0.013555354628393003,9.286682703872776e-05,-0.008605401376376965,0.01440786178676644
5.757575757575758,1.620253164556962,0.015087598363281503,0.013648052529312296,-2.717132372274938e-05,-0.00862069526777814,0.014421887603702534
5.858585858585858,1.620253164556962,0.015041508037975443,0.013528624344652705,6.405972969366967e-05,-0.008571039714788444,0.014345453629609315
5.959595959595959,1.620253164556962,0.015180309480288538,0.013477275320132405,3.3824362361946106e-05,-0.008597275440126282,0.014404616201891355
6.0606060606060606,1.620253164556962,0.015087763219077125,0.01355260086903062,4.485603604644262e-05,-0.008592109226432323,0.014381974570534554
6.161616161616162,1.620253164556962,0.015255422614477116,0.013534080971181651,-1.563354870915584e-05,-0.00863685107569763,0.014471761302288255
6.262626262626262,1.620253164556962,0.015299786066796496,0.01365236120037027,2.474696770557279e-06,-0.00868564418015003,0.014546210253368054
6.363636363636363,1.620253164556962,0.015193357189276353,0.01354533219082376,-2.242439598912699e-05,-0.008621606814030033,0.014440102672028329
6.4646464646464645,1.620253164556962,0.01522535245102911,0.01374248538286163,-1.6291308328258365e-05,-0.00869035135016722,0.014540765951944238
6.565656565656566,1.620253164556962,0.015339092566120717,0.013806728727999767,-5.560094367374039e-05,-0.008743746388236145,0.014633526687757109
6.666666666666667,1.620253164556962,0.015323917056157462,0.013733281278115891,4.791009468428456e-05,-0.008717159500282005,0.01459399436496506
6.767676767676767,1.620253164556962,0.015219704846683956,0.013669299307241376,4.912930579772243e-06,-0.0086667012461776,0.014506775336531205
6.8686868686868685,1.620253164556962,0.015536117687423728,0.014007001533602934,-2.89700353704073e-05,-0.008862935766307999,0.014830884608636925
6.96969696969697,1.620253164556962,0.015375153030878757,0.013994280590994435,-2.455802204113597e-05,-0.008810830086561958,0.014733391450313387
7.070707070707071,1.620253164556962,0.015425120541269117,0.013863939003987778,-3.523117871360341e-05,-0.008786717863577069,0.014706935160444636
7.171717171717171,1.620253164556962,0.015627772785572407,0.013857895152475113,2.4365808123563088e-05,-0.008845700381414256,0.014822357593956536
7.2727272727272725,1.620253164556962,0.015608655168638236,0.01409930149595571,6.636817364509927e-05,-0.008912386999378184,0.01491182409639066
7.373737373737374,1.620253164556962,0.015621739292590841,0.014180856564692309,-7.034041750884052e-05,-0.008940778757184945,0.01495395033286559
7.474747474747475,1.620253164556962,0.0156236271748353,0.014005984531497538,4.51237542236128e-05,-0.00888888351189985,0.014881100655454163
7.575757575757575,1.620253164556962,0.01578228288626442,0.014155749947270809,5.735456826837503e-05,-0.008981409850060568,0.015035475655135942
7.6767676767676765,1.620253164556962,0.015715128149666233,0.014065342207575538,4.67279729788872e-06,-0.008934141107172531,0.014958626755848373
7.777777777777778,1.620253164556962,0.015722799781872167,0.014234568586250539,5.212353635148363e-05,-0.008987210510436812,0.015034302595853628
7.878787878787879,1.620253164556962,0.01583592261109103,0.014358138982732069,0.00010256637406710308,-0.00905821847814693,0.01515222035892258
7.979797979797979,1.620253164556962,0.016087836537981744,0.01433772527844473,6.511472298275675e-05,-0.009127668544927942,0.015288511693697108
8.080808080808081,1.620253164556962,0.016117023416207937,0.014531245692589763,6.854570674479339e-05,-0.00919448073263931,0.015386007072161477
8.181818181818182,1.620253164556962,0.01617112344213228,0.014552610475791717,-3.466508089683373e-05,-0.0092171201753772,0.015425798184697236
8.282828282828282,1.620253164556962,0.016187779447514615,0.014641910350052762,-9.819231903151201e-05,-0.009248906939270213,0.015473805346390184
8.383838383838384,1.620253164556962,0.01628384970589398,0.014781976428084815,1.7462808223486994e-05,-0.009319747840193638,0.015587303188897401
8.484848484848484,1.620253164556962,0.01641088040143097,0.01484809512886589,6.745621725225378e-05,-0.00937769265908906,0.015688411716320176
8.585858585858587,1.620253164556962,0.01661477812439441,0.015008808901883624,1.1057903891930755e-05,-0.009487076107883411,0.01587285525013063
8.686868686868687,1.620253164556962,0.016645402768430833,0.014911067923984406,2.139973548408115e-05,-0.009466941207724571,0.01584960638315184
8.787878787878787,1.620253164556962,0.0165844514927899,0.01512791395832802,6.69201617774838e-05,-0.009513709635335375,0.01590669958672897
8.88888888888889,1.620253164556962,0.016874247102714096,0.015235072599539996,2.5360153668729093e-05,-0.009632795910676227,0.016117357169724355
8.98989898989899,1.620253164556962,0.016876809390465042,0.015327477404263727,1.5968649977866614e-05,-0.00966128603841863,0.016157973548227872
9.09090909090909,1.620253164556962,0.017116640047319904,0.015442488309481705,4.8061247239350906e-05,-0.009767738507040482,0.016344210825858473
9.191919191919192,1.620253164556962,0.017169430294451758,0.015465587505644448,-9.572256861260957e-05,-0.009790505340028862,0.016384928908002694
9.292929292929292,1.620253164556962,0.017621395774250762,0.015477232459155938,-8.858313350391691e-05,-0.00992958847002201,0.0166538708980612
9.393939393939394,1.620253164556962,0.01753527635524637,0.015793525663274126,-5.868891034722031e-06,-0.009998640605556148,0.016732532263044324
9.494949494949495,1.620253164556962,0.01756004763524954,0.015998879593905186,-2.5350293859652323e-05,-0.010067678168746418,0.01683390214255471
9.595959595959595,1.620253164556962,0.01785548265093804,0.016057925471183263,5.679466395915676e-05,-0.010174022436636392,0.01702829698991709
9.696969696969697,1.620253164556962,0.017938747714504738,0.01621585863729887,5.7734467834312454e-05,-0.01024638190554108,0.017142652759921977
9.797979797979798,1.620253164556962,0.018231257127779062,0.016454116195777507,-2.6946898082057654e-05,-0.010405611997066971,0.017410905532846865
9.8989898989899,1.620253164556962,0.018463673002056532,0.01672294833793311,0.00010052726666574948,-0.010555986401996892,0.017658637809644297
10.0,1.620253164556962,0.018693400255967014,0.016765524073541226,-2.7572066621541427e-05,-0.010637677298852472,0.017807965612025835
0.0,1.7215189873417722,0.018571000028453785,0.016720803893645397,3.612022238920701e-05,-0.010587541176629755,0.017718611382761207
0.10101010101010101,1.7215189873417722,0.01839943332039721,0.016718425775723765,-1.2951094774020703e-05,-0.010535357728836292,0.017619189817930224
0.20202020202020202,1.7215189873417722,0.01833208821603917,0.01642279712719185,3.288471311790765e-05,-0.010426465602969306,0.01745602481565657
0.30303030303030304,1.7215189873417722,0.018197176669149547,0.01623920459627243,-6.638323995977107e-06,-0.010330914379626592,0.017301487272631734
0.40404040404040403,1.7215189873417722,0.017828797906889567,0.016130384672105844,-3.8983355674555986e-05,-0.010187754773698623,0.017043313501238885
0.5050505050505051,1.7215189873417722,0.017730977109740583,0.015859143514312113,-3.064812990567398e-05,-0.01007703618721581,0.01687319440903037
0.6060606060606061,1.7215189873417722,0.01744592291051817,0.015576637421507424,-6.100852224544562e-05,-0.009906768099607678,0.016590786901756555
0.7070707070707071,1.7215189873417722,0.017422492143654985,0.015812905511254572,8.323676913298403e-05,-0.009970619296472867,0.01667668361049644
0.8080808080808081,1.7215189873417722,0.017309291498923858,0.015537852880529146,2.356269553608427e-05,-0.009854143313835901,0.016495117009499377
0.9090909090909091,1.7215189873417722,0.01695269233392776,0.015371347255271629,-7.83792936601397e-05,-0.009697211876759817,0.01622050563254422
1.0101010101010102,1.7215189873417722,0.016890842297194952,0.015181184102330445,-7.981705966574023e-05,-0.009621607919857618,0.016104813876274854
1.1111111111111112,1.7215189873417722,0.016834627288385987,0.015125635711534005,3.0101324693530125e-05,-0.009588078899975996,0.01604860773346311
1.2121212121212122,1.7215189873417722,0.016496531271623517,0.015087233721771695,3.089230075198436e-05,-0.009475129498018564,0.015839065802005343
1.3131313131313131,1.7215189873417722,0.016643553093858066,0.014879580290009676,-8.435135742563226e-05,-0.009456940015160321,0.01583609895391903
1.4141414141414141,1.7215189873417722,0.016574952363182564,0.01506784578178921,-3.872909232620703e-05,-0.009492839443491531,0.01587528570213443
1.5151515151515151,1.7215189873417722,0.016561604061181002,0.014865675779271764,-1.0075570663083488e-05,-0.00942818395213583,0.015782139070700762
1.6161616161616161,1.7215189873417722,0.016332605687438648,0.014859575995460596,-2.0264551398038026e-05,-0.009357654504869773,0.015648215356581896
1.7171717171717171,1.7215189873417722,0.016344303962388715,0.014612639766939816,-4.897078636307232e-05,-0.009287083118798558,0.01555118263487713
1.8181818181818181,1.7215189873417722,0.016134413908409133,0.014435534058197605,2.9657075348255857e-05,-0.00917098438998202,0.01535570619853436
1.9191919191919191,1.7215189873417722,0.016039654749196795,0.014533503916426629,6.896028794643275e-05,-0.009171947599687027,0.015342592414927074
2.0202020202020203,1.7215189873417722,0.016050025827269387,0.014336707801681536,-9.528080656411055e-05,-0.009116020088685277,0.015266539373679482
2.121212121212121,1.7215189873417722,0.015935292143313923,0.014461047958316832,1.8438109203881095e-05,-0.009118902030489226,0.015251735629850882
2.2222222222222223,1.7215189873417722,0.015909512083922488,0.01432121230630571,-4.179897246488007e-05,-0.00906921731706846,0.015177991892522048
2.323232323232323,1.7215189873417722,0.015910155471635375,0.014158723759480076,5.351844058144265e-05,-0.009020663769334636,0.015111042386482006
2.4242424242424243,1.7215189873417722,0.0155741464722311,0.014039347926409212,-1.5657646652989835e-05,-0.008884048319592093,0.014866311009879491
2.525252525252525,1.7215189873417722,0.015703580070338476,0.014047724117020212,-4.9085716407907114e-05,-0.008925391256207607,0.014944853550251243
2.6262626262626263,1.7215189873417722,0.015566221254670177,0.014063311441575625,-3.7836004730425354e-06,-0.008888859808873741,0.014871832379572273
2.727272727272727,1.7215189873417722,0.015589044238039055,0.014008568620263753,-3.14132808145654e-05,-0.008879283857490842,0.014862067806799774
2.8282828282828283,1.7215189873417722,0.015424156815980857,0.013982275455750683,2.0798005794724386e-07,-0.008821929681519462,0.014756145542128712
2.929292929292929,1.7215189873417722,0.015403232170987763,0.013840124282162972,-1.047925346701478e-05,-0.00877300693594522,0.014684218852558948
3.0303030303030303,1.7215189873417722,0.015528301406792235,0.014019814611133453,9.075919440189486e-06,-0.008864434805377706,0.014831712189718618
3.131313131313131,1.7215189873417722,0.01531653655950003,0.013807880008513792,-5.673474151723982e-05,-0.008737324970404147,0.014621032796663505
3.2323232323232323,1.7215189873417722,0.015265474073059221,0.013910179189677881,-4.0950299227654976e-05,-0.00875269597882113,0.01463514040839977
3.3333333333333335,1.7215189873417722,0.015251546816065551,0.013676486005373157,-3.954973303065474e-05,-0.008678409846431612,0.014528354197628216
3.4343434343434343,1.7215189873417722,0.015225437285958068,0.013870984402972887,-6.772506732397623e-05,-0.008728926506679287,0.014595893456326172
3.5353535353535355,1.7215189873417722,0.01524594436482872,0.013798733753891438,1.685604013330904e-05,-0.008713403435616046,0.014576350642310625
3.6363636363636362,1.7215189873417722,0.015114523860570212,0.013812888832491071,-2.9958410330692205e-05,-0.008678223807918384,0.01450765949791562
3.7373737373737375,1.7215189873417722,0.015337351350212788,0.0135495643419555,4.104162621805775e-05,-0.008666074707650486,0.014526378233648869
3.8383838383838382,1.7215189873417722,0.01523862714959155,0.013569513660803428,4.1895713948813275e-05,-0.008642442243118493,0.014476600597836111
3.9393939393939394,1.7215189873417722,0.015306619944011063,0.013593599215071714,1.3305257084539182e-05,-0.008670065747724833,0.014526080956806072
4.040404040404041,1.7215189873417722,0.015156905438453282,0.013574990773478927,-1.5224794782814811e-05,-0.008619568863579662,0.014431146900779762
4.141414141414141,1.7215189873417722,0.015136058397258482,0.013428475880809712,4.9716409353845014e-05,-0.008569360283420459,0.014358880469335743
4.242424242424242,1.7215189873417722,0.0151038764860542,0.013806154760968144,8.535020065756718e-05,-0.008673009374106703,0.014499392811529357
4.343434343434343,1.7215189873417722,0.015236744146358885,0.013458718202500636,0.00013046689355215383,-0.008608638704657856,0.01443189131324851
4.444444444444445,1.7215189873417722,0.015089641287300322,0.013560377561933526,9.901299649195038e-06,-0.008595005654770154,0.01438611048125448
4.545454545454545,1.7215189873417722,0.014994018862852709,0.013580242943118616,-2.764743141011075e-05,-0.008572278541791397,0.0143395772024092
4.646464646464646,1.7215189873417722,0.015170856375209395,0.01362589537290888,3.8893373385289716e-05,-0.008639025524435483,0.01446056514345619
4.747474747474747,1.7215189873417722,0.015248009501017094,0.013475106256691361,-4.6214646832208924e-05,-0.008616934727312536,0.014443619405250574
4.848484848484849,1.7215189873417722,0.0148427899513622,0.013598931459079243,4.92988915014943e-05,-0.008532516423132432,0.014261856762042556
4.94949494949495,1.7215189873417722,0.014981925483966279,0.013630498369907117,-2.534233782124127e-05,-0.008583727156162018,0.01435407234321136
5.05050505050505,1.7215189873417722,0.015104329477114974,0.013475235519529671,3.038876014904673e-05,-0.008573869498993393,0.014359356344264527
5.151515151515151,1.7215189873417722,0.014788155458173679,0.013512367800465643,3.696213597835209e-05,-0.008490156977591796,0.014193474852457895
5.252525252525253,1.7215189873417722,0.014859632085606558,0.01369841852504014,3.569055253107886e-06,-0.008567415183194009,0.014314395362168228
5.353535353535354,1.7215189873417722,0.015124680764552657,0.013502693715721818,1.4973561936435466e-05,-0.008588212344082342,0.014382470111947737
5.454545454545454,1.7215189873417722,0.015107697903388964,0.01344138219241594,7.849592599604563e-05,-0.00856472402874147,0.014347941819189313
5.555555555555555,1.7215189873417722,0.014878960055992044,0.013561718073378975,9.204142953522535e-06,-0.008532203438811305,0.014266031056111298
5.656565656565657,1.7215189873417722,0.01509009175750934,0.013585071828875432,-7.09590188966129e-05,-0.008602549075915431,0.014397227891603267
5.757575757575758,1.7215189873417722,0.015189500094409423,0.013525681567856817,-1.2678275400284539e-05,-0.008614554498679872,0.014429730273196861
5.858585858585858,1.7215189873417722,0.014923250370110785,0.013738560191050683,2.8575822694957514e-05,-0.00859854316834844,0.014367669052743939
5.959595959595959,1.7215189873417722,0.015300964705003988,0.013779890482610349,2.606390305988056e-05,-0.008724256556284301,0.014600045297340688
6.0606060606060606,1.7215189873417722,0.015061454144433148,0.013822291626065275,-1.3818838668869194e-05,-0.008665123731149527,0.01448170943379264
6.161616161616162,1.7215189873417722,0.015200827662210195,0.01364033208004314,-3.1570105048630355e-05,-0.008652347922676,0.014483869430529058
6.262626262626262,1.7215189873417722,0.015086435761789758,0.013625059811448232,2.030404238012288e-06,-0.008613448671971396,0.014411426772940205
6.363636363636363,1.7215189873417722,0.015229967499513332,0.013931392372386388,-3.207492467752259e-05,-0.008748407961569915,0.014624090974060049
6.4646464646464645,1.7215189873417722,0.01537717704670617,0.013804163491702673,5.524889920262806e-06,-0.008754402161522653,0.014654130107619498
6.565656565656566,1.7215189873417722,0.015344711973432103,0.013711619900612333,7.89024518841771e-06,-0.00871689956221333,0.014596850158520164
6.666666666666667,1.7215189873417722,0.015254664054310273,0.013675216920654801,9.907526795798427e-05,-0.008678964292489521,0.01453048316363168
6.767676767676767,1.7215189873417722,0.015389255364495797,0.013634910428700466,-7.035442399603508e-05,-0.008707249737958878,0.014591905079460205
6.8686868686868685,1.7215189873417722,0.015395743827146324,0.013861396697800062,4.730716387729816e-05,-0.008777142157483915,0.014689024734895683
6.96969696969697,1.7215189873417722,0.015403797627681164,0.013925140122921037,5.56148443594946e-05,-0.00879868132518066,0.01472058923547905
7.070707070707071,1.7215189873417722,0.015578827484939198,0.01390343486161047,-2.7618200720394016e-05,-0.0088446787039649,0.014812442131345404
7.171717171717171,1.7215189873417722,0.01536067202054196,0.014021243345402579,2.426239947360873e-05,-0.008814574609783361,0.014736741685895354
7.2727272727272725,1.7215189873417722,0.01560624264806219,0.013850202571252036,3.139322316899348e-05,-0.008836933565794267,0.014806628765742737
7.373737373737374,1.7215189873417722,0.015626993575273206,0.0139691152025367,-7.119314304198553e-05,-0.008878832633342972,0.014868054331751963
7.474747474747475,1.7215189873417722,0.015562768909483242,0.01407200843079935,-2.1212145345782488e-06,-0.008890433202084777,0.014873526670036575
7.575757575757575,1.7215189873417722,0.015453954677826133,0.013875787005678942,-3.0460257694041507e-05,-0.008798922505051522,0.014728515885459675
7.6767676767676765,1.7215189873417722,0.015586365518451996,0.014113616742792903,-1.0681504943547483e-05,-0.00890999467837347,0.014904674454021563
7.777777777777778,1.7215189873417722,0.01586411339684899,0.014421023913340608,-5.470709342396996e-05,-0.00908554119305688,0.015194349098119722
7.878787878787879,1.7215189873417722,0.01598124166597729,0.014263222026427892,2.3097207497168654e-05,-0.009073339107721554,0.015195301578602988
7.979797979797979,1.7215189873417722,0.01614063347839601,0.014511247939244456,5.322318874033618e-05,-0.009195564425292138,0.01539104056456643
8.080808080808081,1.7215189873417722,0.015943736043760016,0.014626974060280908,8.058981888260582e-05,-0.009171213031212277,0.015328468932476655
8.181818181818182,1.7215189873417722,0.01604886018870431,0.014508471786201156,-6.967887782236642e-05,-0.00916719959247164,0.01533726824167568
8.282828282828282,1.7215189873417722,0.016295536913165588,0.014598484245156562,-6.146433846563362e-06,-0.009268206347496644,0.015516772859946062
8.383838383838384,1.7215189873417722,0.0164085695513153,0.01461303729163981,-5.3652547122405914e-05,-0.009306482052886532,0.015588829675084962
8.484848484848484,1.7215189873417722,0.016307625756585318,0.014807460091588362,1.3229249094143004e-05,-0.009334525754452103,0.015611711617908077
8.585858585858587,1.7215189873417722,0.016444334681973587,0.014859839950714706,5.66392697222645e-06,-0.009391252389806488,0.01571212593074877
8.686868686868687,1.7215189873417722,0.016518262353359056,0.014941458551371379,3.2782688218833714e-06,-0.00943791627141913,0.015789023869907055
8.787878787878787,1.7215189873417722,0.016665974298926117,0.015181480768042745,-4.033676548305246e-05,-0.009554236520090657,0.015975693115074067
8.88888888888889,1.7215189873417722,0.01668206805247308,0.015141889750467598,-7.606829296084699e-05,-0.009547187340882203,0.01596832939345552
8.98989898989899,1.7215189873417722,0.01708742650606177,0.015341179000707217,7.569417292730927e-05,-0.009728581652030695,0.01628520303417569
9.09090909090909,1.7215189873417722,0.01703507865237047,0.015496766519820489,2.263630108539937e-05,-0.009759553551657288,0.016320434367567988
9.191919191919192,1.7215189873417722,0.017216697358633414,0.015572186014471428,-6.470186372427194e-05,-0.009836665011931452,0.016456566785878642
9.292929292929292,1.7215189873417722,0.017499650893566983,0.015615508903191369,-8.755288615135577e-06,-0.009934547939027505,0.01663779358377693
9.393939393939394,1.7215189873417722,0.017352141986419444,0.015528296404404503,6.593960514628018e-05,-0.009864131517247184,0.016516314989066097
9.494949494949495,1.7215189873417722,0.017757503252940007,0.0160619749494941,-5.9965782999209875e-05,-0.010145843460730233,0.016973690710256877
9.595959595959595,1.7215189873417722,0.01783955452955689,0.016198933501351737,3.482071358695084e-05,-0.010211546409272588,0.01707855474923166
9.696969696969697,1.7215189873417722,0.01783585940042635,0.016301812589019766,-8.20784869905948e-05,-0.010241301596833835,0.017121049838240743
9.797979797979798,1.7215189873417722,0.01832884897460073,0.016542653290851403,1.782939772983566e-05,-0.010461450679635638,0.017504263551778237
9.8989898989899,1.7215189873417722,0.0185759527514067,0.0167241920542228,-9.877538289709936e-06,-0.010590043441688849,0.01772278510228054
10.0,1.7215189873417722,0.018887685450354214,0.01668522406599355,0.00013016617913600667,-0.010671872854904329,0.017889855496323576
0.0,1.8227848101265822,0.018724754946997435,0.01689606577973156,-9.486096736452408e-05,-0.010686246218018699,0.017881437055608424
0.10101010101010101,1.8227848101265822,0.01844804088776898,0.01690141087307156,-2.938128032165344e-05,-0.010604835528252162,0.017725478076166815
0.20202020202020202,1.8227848101265822,0.018428643053523104,0.01634854667289711,-6.664529139742183e-05,-0.010433156917926064,0.017482038119623622
0.30303030303030304,1.8227848101265822,0.018104813069611786,0.015998021155556565,9.903956709767918e-05,-0.010230850267550506,0.017149611691864266
0.40404040404040403,1.8227848101265822,0.017860298022707888,0.016122190153083183,-1.7217999904875015e-05,-0.01019474645273732,0.017057814316548466
0.5050505050505051,1.8227848101265822,0.01757161952260896,0.015813294541734333,2.934990583556379e-05,-0.010015474219302989,0.016761846141627422
0.6060606060606061,1.8227848101265822,0.017438989804848648,0.015833311540073423,1.0081868216404294e-05,-0.00998169040347662,0.01669417461710835
0.7070707070707071,1.8227848101265822,0.017554923234395177,0.015622374366824891,6.982606350626428e-07,-0.00995318928036602,0.016672862061951
0.8080808080808081,1.8227848101265822,0.0172672978426424,0.015650918918224177,-2.5371971807366602e-05,-0.009875465028259972,0.016518586214025313
0.9090909090909091,1.8227848101265822,0.0170646316717945,0.015505316968578578,7.457931579167359e-05,-0.009770984592111922,0.016341379121417997
1.0101010101010102,1.8227848101265822,0.016856957168553514,0.01509397050002244,-1.905395552532639e-05,-0.009585278300572786,0.016048290419087334
1.1111111111111112,1.8227848101265822,0.016943850357694887,0.015230957013511261,-7.186237566295815e-05,-0.009652442211361844,0.016156130497525532
1.2121212121212122,1.8227848101265822,0.016758548808430054,0.015156546960984603,8.147931793801909e-05,-0.009574528730824396,0.016018366289041342
1.3131313131313131,1.8227848101265822,0.016538589544820945,0.015059492538485137,1.1896420832637028e-05,-0.009479424624991824,0.01585089645338511
1.4141414141414141,1.8227848101265822,0.016495443113608423,0.014853261652453272,-2.2224264531224344e-05,-0.009404611429818507,0.015738785669318578
1.5151515151515151,1.8227848101265822,0.016576650650406293,0.014570872091451208,5.999615485360749e-05,-0.00934425682255725,0.01567067971005397
1.6161616161616161,1.8227848101265822,0.016498385757002805,0.014588627112457411,0.00012210963520961784,-0.009326103860838065,0.015632680772530386
1.7171717171717171,1.8227848101265822,0.016091895582991678,0.014661933469487543,3.1353500821260415e-06,-0.009226148715743765,0.015426701642706457
1.8181818181818181,1.8227848101265822,0.016135122260618293,0.014496042506810084,-2.76209621250998e-05,-0.009189349430228512,0.01538129673774258
1.9191919191919191,1.8227848101265822,0.0160490411515285,0.014341086538746311,2.6702761129648717e-05,-0.009117038307082444,0.015266955691612221
2.0202020202020203,1.8227848101265822,0.01609289229438797,0.014269916674775883,-9.290516078087373e-05,-0.009108842690749155,0.015264120227299652
2.121212121212121,1.8227848101265822,0.01590367313695568,0.014507993634472978,-3.249613749576833e-05,-0.009123500031428597,0.015253900416162376
2.2222222222222223,1.8227848101265822,0.015721176704774954,0.01427611126788679,2.398420444691868e-05,-0.008999186391798523,0.0150508208328501
2.323232323232323,1.8227848101265822,0.015760267096904458,0.014119110530150017,3.8941286452910646e-05,-0.008963813288116343,0.015007294801990584
2.4242424242424243,1.8227848101265822,0.015621806112147205,0.014114161188427812,5.771322157399169e-06,-0.008920790190172506,0.014925206285398793
2.525252525252525,1.8227848101265822,0.01567271348269095,0.014031733815954458,1.1351894714677362e-06,-0.008911334189593622,0.014920059044636788
2.6262626262626263,1.8227848101265822,0.015746481294293686,0.01401999009644249,2.6146950644259655e-05,-0.008929941417220852,0.014958219634874868
2.727272727272727,1.8227848101265822,0.015600983575727045,0.013891403479280563,2.532172132749548e-05,-0.008847716116502282,0.014820396256474808
2.8282828282828283,1.8227848101265822,0.015524816471894234,0.013884037451733338,-5.376246284314147e-05,-0.008822656177088271,0.01477321767007104
2.929292929292929,1.8227848101265822,0.015471484589252429,0.013744976835774327,4.530013176479456e-05,-0.008764938427508027,0.014684760216733123
3.0303030303030303,1.8227848101265822,0.015413076078229426,0.013820252945780051,0.0001023878682258867,-0.008769998707202842,0.014682681820145378
3.131313131313131,1.8227848101265822,0.015481620283728272,0.013885846134351107,2.7025568807878975e-05,-0.008810239925423813,0.01474869768658333
3.2323232323232323,1.8227848101265822,0.015285624192034192,0.013723874948623885,-4.43338549889601e-05,-0.008702849742197422,0.014567873973045087
3.3333333333333335,1.8227848101265822,0.01527545059468883,0.013818094588348071,-7.637158201019734e-07,-0.008728063554911071,0.014601421488199397
3.4343434343434343,1.8227848101265822,0.015129917087200047,0.013672213709552352,2.852536302462745e-05,-0.00864063923902572,0.014456375757783118
3.5353535353535355,1.8227848101265822,0.015274680747051161,0.01372683290410953,3.1644528703013433e-06,-0.008700454095348207,0.01456258401742545
3.6363636363636362,1.8227848101265822,0.015318843117999205,0.013574866308112332,4.344784060812645e-05,-0.008668112827833462,0.014525782787160544
3.7373737373737375,1.8227848101265822,0.015134627942026411,0.013805575688180374,-2.3251194982606966e-05,-0.008682061089062035,0.014515862127815653
3.8383838383838382,1.8227848101265822,0.015098874378522763,0.013748249161687442,4.32256498212184e-05,-0.00865413706206306,0.014471105032571232
3.9393939393939394,1.8227848101265822,0.015089261061084842,0.013905250591354145,2.0574229914434293e-05,-0.008698353495731696,0.014533516676358434
4.040404040404041,1.8227848101265822,0.01516428855729141,0.013606652772661283,1.650880861825644e-06,-0.008631282398985807,0.014448579388898
4.141414141414141,1.8227848101265822,0.01522297398665787,0.01368208852675398,5.3470585850400433e-05,-0.008671518754023555,0.01451430270585269
4.242424242424242,1.8227848101265822,0.014989564051135962,0.013329426671156578,5.4772009037814466e-05,-0.008495697216687761,0.014232615743128474
4.343434343434343,1.8227848101265822,0.015106775904742131,0.01364698274757257,-0.00010109035324710133,-0.00862612759569441,0.014433418305576083
4.444444444444445,1.8227848101265822,0.015015952558637637,0.01346951187294063,3.1272122809684475e-05,-0.00854563932947348,0.014305661952648572
4.545454545454545,1.8227848101265822,0.015003798423568387,0.013488967118158663,-9.425742974288817e-05,-0.008547829662518115,0.014307589274788025
4.646464646464646,1.8227848101265822,0.01502857175607499,0.013625127516261647,-3.375191607623378e-05,-0.008596109781700991,0.014378431064396131
4.747474747474747,1.8227848101265822,0.01518356091470152,0.013459900514586598,9.050652006151969e-05,-0.008593038428786434,0.014400166625233654
4.848484848484849,1.8227848101265822,0.01499468218686376,0.013759561717182869,-2.2308022360474588e-06,-0.008626273171213988,0.01441685792687696
4.94949494949495,1.8227848101265822,0.015077067919027621,0.013803672812273815,-2.5037477617351435e-05,-0.00866422221939043,0.01448248349719233
5.05050505050505,1.8227848101265822,0.015028720926112099,0.013459839237514783,-3.032102046066566e-05,-0.008546568049088064,0.01430902915842317
5.151515151515151,1.8227848101265822,0.014946839094265182,0.013705064687273208,2.5039032522331113e-06,-0.008595571134461516,0.014366259747882299
5.252525252525253,1.8227848101265822,0.01530421665159176,0.013561313357711878,-3.369922437962355e-05,-0.00865965900279109,0.01451159524351257
5.353535353535354,1.8227848101265822,0.015077712084093331,0.013596838800406217,6.3118433600250646e-06,-0.008602365265349864,0.014394524163264028
5.454545454545454,1.8227848101265822,0.01520145404662992,0.013613526534394647,3.48228618163037e-05,-0.00864449417430737,0.014473097446794387
5.555555555555555,1.8227848101265822,0.015085280101651555,0.013484235713587856,-5.735881295000945e-06,-0.008570854744571824,0.014351895851409982
5.656565656565657,1.8227848101265822,0.015043730491134345,0.013487804235906753,-3.0265388088441065e-05,-0.008559460418112329,0.014329359592634153
5.757575757575758,1.8227848101265822,0.014908573493579725,0.013691246160488762,-8.466804963629763e-06,-0.008579945896220546,0.014338725553499767
5.858585858585858,1.8227848101265822,0.015125988981763731,0.013467036655478808,1.117994549672145e-05,-0.00857790769117276,0.014368533184087052
5.959595959595959,1.8227848101265822,0.014986150419006588,0.013538640941655366,1.4685624045080961e-05,-0.008557437408198585,0.014317403406702303
6.0606060606060606,1.8227848101265822,0.014900247545881007,0.013594065265449602,3.0076125921955505e-05,-0.008548293843399182,0.01429208744305135
6.161616161616162,1.8227848101265822,0.01532731755441597,0.013623548207183245,-5.5942354401723606e-05,-0.008685259728479763,0.014550761774526095
6.262626262626262,1.8227848101265822,0.015221487575727851,0.013484920193639262,-1.778880378554238e-05,-0.008611922330810134,0.01443181072437953
6.363636363636363,1.8227848101265822,0.015372747406472827,0.013762072891526898,-1.356972849678172e-06,-0.008740446089399917,0.014634040736178522
6.4646464646464645,1.8227848101265822,0.015205718013887863,0.013892794298568966,-3.531354673008878e-05,-0.00872955369373705,0.014593746001317945
6.565656565656566,1.8227848101265822,0.01501842519674802,0.01371757478616526,-4.7176091084615414e-06,-0.008620799994873984,0.0144121007963808
6.666666666666667,1.8227848101265822,0.015172589431500402,0.013888519842615923,-1.2236724353145139e-05,-0.008718332782234897,0.014573060533210745
6.767676767676767,1.8227848101265822,0.01544471123588472,0.013896132601212021,-2.119081830036896e-05,-0.008802253151129022,0.014731639360960093
6.8686868686868685,1.8227848101265822,0.015324544817075136,0.013840061684775804,2.815949766132659e-05,-0.00874938195055528,0.014638945132810563
6.96969696969697,1.8227848101265822,0.01540034676575911,0.013827191624579242,-6.279365096586366e-05,-0.008768261517101505,0.014677540394805455
7.070707070707071,1.8227848101265822,0.015348690329169292,0.014001447327935889,-2.877385808805716e-05,-0.008805041297131553,0.014721461432404154
7.171717171717171,1.8227848101265822,0.015652328438213913,0.013830686579980168,3.560568686442832e-05,-0.008844904505458223,0.01482580963152865
7.2727272727272725,1.8227848101265822,0.01560183400278055,0.013964922002878202,-1.6831498826890193e-05,-0.008870026801697625,0.014851219671938263
7.373737373737374,1.8227848101265822,0.01572237338300988,0.014041572123845401,-1.8899245600939735e-05,-0.008929183652056584,0.014953026591055811
7.474747474747475,1.8227848101265822,0.015668682744536033,0.014000105251527607,0.00011560709598368806,-0.008900636398819092,0.01490595362358271
7.575757575757575,1.8227848101265822,0.015736471524703248,0.013990834185078339,6.463266485602967e-05,-0.008918191712934476,0.014940754519967256
7.6767676767676765,1.8227848101265822,0.015800737975761356,0.014275573394352314,5.119976255220451e-05,-0.009022893411034101,0.01509631034078698
7.777777777777778,1.8227848101265822,0.015891422558368583,0.014136713806420743,2.2978091273065904e-05,-0.009008440909436798,0.01509082766009715
7.878787878787879,1.8227848101265822,0.015861217537087163,0.014272941325121224,3.3091796160587995e-06,-0.009040247658662516,0.015129735008562937
7.979797979797979,1.8227848101265822,0.016177515462793727,0.014435782334535033,-6.621769253971035e-05,-0.009183989339198628,0.015381218435902752
8.080808080808081,1.8227848101265822,0.016146558574959204,0.014440319229120958,1.0842381969083327e-06,-0.009176063341224049,0.015364658034141705
8.181818181818182,1.8227848101265822,0.016195906931029885,0.014641237359172672,4.836683838136038e-05,-0.009251143287060767,0.015477471794679584
8.282828282828282,1.8227848101265822,0.016125729355748925,0.014517809873037172,-0.00014461328281190202,-0.00919306176863583,0.015386956064095266
8.383838383838384,1.8227848101265822,0.016241137769382682,0.014630158827055165,-2.564383320753957e-06,-0.009261388978931353,0.015498570836659786
8.484848484848484,1.8227848101265822,0.016358996833673402,0.014740396238538619,5.511747441789274e-05,-0.009329817921663605,0.01561304189092804
8.585858585858587,1.8227848101265822,0.016485986864380586,0.014815883762379507,-1.2980922645102147e-05,-0.009390561188028028,0.015717640248305402
8.686868686868687,1.8227848101265822,0.016561305984814024,0.014998253671161222,2.5248985201100405e-05,-0.009467867896792574,0.01583779382852731
8.787878787878787,1.8227848101265822,0.016768875627305682,0.01501111349372957,-3.155772487543314e-05,-0.009533996736310576,0.0159628384252912
8.88888888888889,1.8227848101265822,0.017019062797218126,0.015004951514888445,4.4839196269599804e-05,-0.009607204293631972,0.016106920500805665
8.98989898989899,1.8227848101265822,0.01700662844722486,0.015230634826263011,-3.447058956895704e-05,-0.009671178982046362,0.016191956815405327
9.09090909090909,1.8227848101265822,0.016963352963232,0.015295803346879319,-2.9973156269228998e-05,-0.009677746893033395,0.016194181915817406
9.191919191919192,1.8227848101265822,0.017203814363808755,0.015435877382416549,-3.4916750366420585e-05,-0.00979190752386759,0.016391620656242358
9.292929292929292,1.8227848101265822,0.017293942263325857,0.015653164456719548,-1.8448655190320225e-05,-0.00988413201601362,0.016534754162736715
9.393939393939394,1.8227848101265822,0.01741190765398591,0.015831840909318776,-1.077914792727917e-05,-0.009973124568991404,0.01667811474337996
9.494949494949495,1.8227848101265822,0.017677198189192948,0.01598111380031315,-7.341028223163395e-05,-0.01009749359685183,0.016893613745880297
9.595959595959595,1.8227848101265822,0.017789555506181543,0.016056933420256683,7.724420787407792e-06,-0.010153946677931467,0.01698963997945165
9.696969696969697,1.8227848101265822,0.0180488356592108,0.016429569917042124,1.6451440628180233e-05,-0.010343521672875876,0.017296168387179404
9.797979797979798,1.8227848101265822,0.018417209768024273,0.016421412133721683,1.074447159596349e-05,-0.010451586570523787,0.01750486065303088
9.8989898989899,1.8227848101265822,0.018464968265863135,0.016672902727186897,-5.3087102478975e-05,-0.01054136129791501,0.01763758978357272
10.0,1.8227848101265822,0.018764294051282687,0.016879584587124186,2.8158644386502823e-05,-0.01069316359152206,0.017896591774646562
0.0,1.9240506329113924,0.01871226102864375,0.016741610554225073,-1.3032970013287143e-05,-0.010636161474860645,0.017808912364257547
0.10101010101010101,1.9240506329113924,0.018556832741060066,0.01657222325747603,6.0516947483503684e-05,-0.010538716799560827,0.017648729043237592
0.20202020202020202,1.9240506329113924,0.018123164563731493,0.016451446643680655,-4.1611382005743226e-06,-0.010372383362223644,0.017347823136759987
0.30303030303030304,1.9240506329113924,0.018188171367756075,0.016235518800380586,2.199972606652906e-05,-0.010327107050440999,0.01729475938538801
0.40404040404040403,1.9240506329113924,0.017711463299004398,0.015947928953205067,-4.744333134731353e-06,-0.010097817675662838,0.01689885437728622
0.5050505050505051,1.9240506329113924,0.017629639929864768,0.016043631975378888,-1.4171229864378437e-05,-0.010101981571573096,0.01689258649811079
0.6060606060606061,1.9240506329113924,0.017602887949689654,0.015734973042599833,2.191472880623255e-05,-0.010001358297686844,0.0167472837865254
0.7070707070707071,1.9240506329113924,0.017369119882433372,0.015720462824753662,3.056526347464228e-05,-0.00992687481215611,0.016606368543733888
0.8080808080808081,1.9240506329113924,0.01710849840441748,0.01551177165249129,2.552031539801373e-05,-0.00978608101707263,0.016368708279706934
0.9090909090909091,1.9240506329113924,0.017082344270902237,0.015390394440391166,0.00010811516773802355,-0.00974182161338802,0.01630342838771015
1.0101010101010102,1.9240506329113924,0.017084019128198923,0.015455105839229145,-8.452913664889847e-05,-0.009761737490228422,0.016331261978596134
1.1111111111111112,1.9240506329113924,0.016831809705013644,0.0150739504675039,4.331018932517708e-06,-0.009571728051755263,0.016025354633951175
1.2121212121212122,1.9240506329113924,0.016660051902944676,0.014970856652092726,6.986112535694154e-05,-0.009489272566511222,0.015883427564018372
1.3131313131313131,1.9240506329113924,0.01645889106408896,0.01496573426883282,1.699870348633141e-05,-0.009427387599876533,0.01576546143022153
1.4141414141414141,1.9240506329113924,0.016482722608119504,0.014796006191166862,-0.00010110988770164178,-0.00938361863978591,0.015708410093208443
1.5151515151515151,1.9240506329113924,0.016442262976153338,0.0147564082665681,-6.906551388090166e-05,-0.009359601372816431,0.015667966094546203
1.6161616161616161,1.9240506329113924,0.016324047711779713,0.014645815149581366,-5.7478076865461215e-05,-0.009290958858408324,0.015553307076003343
1.7171717171717171,1.9240506329113924,0.01626785519344454,0.014669684783891114,1.3375154989478621e-05,-0.009281261993200696,0.015530582511293727
1.8181818181818181,1.9240506329113924,0.016065673668345232,0.01441819317686134,-5.7416529107208805e-05,-0.009145160053561972,0.01530888854260427
1.9191919191919191,1.9240506329113924,0.016224205880786914,0.014443299608522368,-8.077535691302952e-05,-0.009200251646792784,0.015411757445924212
2.0202020202020203,1.9240506329113924,0.01573275658330733,0.01439931953402239,1.351588061512937e-05,-0.009039622835198916,0.015110247899870097
2.121212121212121,1.9240506329113924,0.01597571991287249,0.014406515435921747,-5.704457288314061e-06,-0.00911467060463827,0.015251785332797635
2.2222222222222223,1.9240506329113924,0.015894808417356417,0.014216760824230516,-9.70194614772867e-05,-0.00903347077247608,0.015126690704481064
2.323232323232323,1.9240506329113924,0.015814119185310952,0.014147542284967745,-1.680087736015558e-05,-0.00898849844108361,0.015050224092913171
2.4242424242424243,1.9240506329113924,0.015767574144794565,0.01425127168647759,-1.5614089527281242e-05,-0.009005653749381646,0.015066780927544553
2.525252525252525,1.9240506329113924,0.015752942793281748,0.014049807311295088,2.540840486807542e-05,-0.008940825031373051,0.014974258514616975
2.6262626262626263,1.9240506329113924,0.015607103482015258,0.013893450605499874,-4.8103472489088345e-05,-0.008850166226254539,0.014824981259201985
2.727272727272727,1.9240506329113924,0.015443889000654928,0.01401783293081596,6.684780452458265e-05,-0.008838516579441267,0.014782993526836197
2.8282828282828283,1.9240506329113924,0.0155334309461071,0.013882607283495123,-2.927091352672442e-05,-0.008824811468880667,0.014777425713373444
2.929292929292929,1.9240506329113924,0.01534879195151063,0.01393201747977919,-5.8204681902176185e-05,-0.008784242829386946,0.014692074428775403
3.0303030303030303,1.9240506329113924,0.015579485267848608,0.013914876363381496,3.687069161476616e-06,-0.008848308489369032,0.014817475321238267
3.131313131313131,1.9240506329113924,0.015248271942213485,0.013927837214260615,4.699657517830053e-05,-0.008752832746942229,0.014633031924893297
3.2323232323232323,1.9240506329113924,0.015292743287769302,0.013786007861298626,2.6808661286302506e-05,-0.008723625344720378,0.01459788638619821
3.3333333333333335,1.9240506329113924,0.015296235994195575,0.013846911766921547,2.517529285117008e-05,-0.008742944328335136,0.014625596476024816
3.4343434343434343,1.9240506329113924,0.015283810120803348,0.013778480195412756,8.369027301775048e-05,-0.008718687094864832,0.014590226366633515
3.5353535353535355,1.9240506329113924,0.015309131411113584,0.013954096059466245,1.8625893176081427e-05,-0.008778968241173949,0.01467863249330723
3.6363636363636362,1.9240506329113924,0.015038053049687467,0.013741271123164138,2.9139773963975216e-06,-0.008633797251855481,0.014433420695006126
3.7373737373737375,1.9240506329113924,0.015222107388921336,0.013772673828662317,-2.561566722757084e-05,-0.008698434365275096,0.014551699082420301
3.8383838383838382,1.9240506329113924,0.01518423881460214,0.013700203536175192,-2.2279172842592826e-05,-0.0086653327052332,0.014499345229843457
3.9393939393939394,1.9240506329113924,0.015204196318709878,0.013559817778715719,9.679489348448352e-06,-0.008629204229227678,0.014452349062137328
4.040404040404041,1.9240506329113924,0.015059457148381762,0.013690464589857104,2.0352668440710217e-05,-0.008624976521471659,0.014423811845383482
4.141414141414141,1.9240506329113924,0.014976299507229908,0.01359867547547128,-2.1575247949959026e-05,-0.008572492494810355,0.014337261986485812
4.242424242424242,1.9240506329113924,0.015286732563936771,0.013553941658160913,-1.1638551613378976e-06,-0.008652202266629305,0.014498208499753465
4.343434343434343,1.9240506329113924,0.015137950850387343,0.013494442126834405,-7.317430494319482e-07,-0.008589717893166524,0.01438677601827991
4.444444444444445,1.9240506329113924,0.015093032804960221,0.013575891850621266,-5.752379183260623e-05,-0.008600677396674446,0.014394895786119185
4.545454545454545,1.9240506329113924,0.015058736310451404,0.013661032052050324,3.700841427890988e-06,-0.008615930508750518,0.014410811832894253
4.646464646464646,1.9240506329113924,0.015102189877160563,0.013521103410713955,-5.1057056350968e-05,-0.008586987986362355,0.014377271157654215
4.747474747474747,1.9240506329113924,0.015240978946217117,0.01381018002917102,-2.6582378608390194e-05,-0.008715347692616442,0.014578407611177612
4.848484848484849,1.9240506329113924,0.014991871411567782,0.013688275039289927,-6.0279296134311094e-05,-0.008604043935257313,0.014384822679395491
4.94949494949495,1.9240506329113924,0.01503189595324781,0.013661504964600574,-2.5776342337098603e-06,-0.008608020275354514,0.014395704657536377
5.05050505050505,1.9240506329113924,0.014973442089483887,0.013331926439507646,1.1141010895365816e-05,-0.00849161055869746,0.014223915581819062
5.151515151515151,1.9240506329113924,0.015139483569477998,0.013526413313158455,-2.600894022635602e-05,-0.008599769064790935,0.014400935287517569
5.252525252525253,1.9240506329113924,0.014901255711752787,0.013655984080729574,-4.113745575758311e-05,-0.008567171937744708,0.014319465391152234
5.353535353535354,1.9240506329113924,0.015060405446921171,0.013469054834622931,-3.324415346888062e-05,-0.008558838084463229,0.014331264392534132
5.454545454545454,1.9240506329113924,0.015102645786619545,0.013563930742099215,-4.251099361609531e-06,-0.008599972958615629,0.014395101238821997
5.555555555555555,1.9240506329113924,0.015032518308214391,0.013465549075136703,-7.229402018281231e-05,-0.008549420215005328,0.014314055499949218
5.656565656565657,1.9240506329113924,0.015089287056523711,0.013559518052366748,6.472161517843252e-05,-0.008594641532667138,0.014385973033089227
5.757575757575758,1.9240506329113924,0.015039292136409064,0.013620876672645119,7.02012306995928e-06,-0.008598050642716255,0.014382642097616761
5.858585858585858,1.9240506329113924,0.015086718928644504,0.013506377972552296,-3.656529950538826e-05,-0.00857792907035904,0.014362047793292502
5.959595959595959,1.9240506329113924,0.01523272665601525,0.01358932772326572,1.587369520250401e-05,-0.00864661631378429,0.014481161231830726
6.0606060606060606,1.9240506329113924,0.015154414320341411,0.013764382863343633,6.602009829658838e-06,-0.008675639155105512,0.014509427245276135
6.161616161616162,1.9240506329113924,0.015003029624497514,0.013556857905884593,1.5530878833183024e-05,-0.00856796625911463,0.014334785559658635
6.262626262626262,1.9240506329113924,0.015275876693635405,0.013655062104360089,-1.6443012935348405e-05,-0.008679281639398647,0.014533440611258202
6.363636363636363,1.9240506329113924,0.015077250345392593,0.01368333930627379,-2.0533946811187776e-05,-0.008628176895499915,0.014430917683762621
6.4646464646464645,1.9240506329113924,0.015289094350659366,0.013910366976194003,5.235253207528272e-05,-0.008759838398056009,0.014648755055883438
6.565656565656566,1.9240506329113924,0.015247291307953895,0.01367342343791927,5.4163543851958933e-05,-0.008676214423761949,0.014524755814668097
6.666666666666667,1.9240506329113924,0.015325956313176271,0.013674560791745385,1.7562802098119866e-05,-0.008700155131476497,0.014570646993885258
6.767676767676767,1.9240506329113924,0.015237227248947377,0.013714052796456619,4.528069923452692e-06,-0.008685384013621199,0.0145356204162961
6.8686868686868685,1.9240506329113924,0.015328200653179537,0.013651785321666419,-9.060272478007444e-05,-0.008693995792453786,0.014563389015252563
6.96969696969697,1.9240506329113924,0.015530173041322329,0.013925430548854329,-3.575909615864186e-05,-0.008836681077052997,0.014793355964913118
7.070707070707071,1.9240506329113924,0.015316067070182085,0.013721126218023308,2.1663711917532933e-05,-0.008711157986461618,0.01458420151070349
7.171717171717171,1.9240506329113924,0.01554179145335603,0.01401247048753848,1.130265285170364e-05,-0.008866278582268353,0.014836377587875106
7.2727272727272725,1.9240506329113924,0.015556889593729823,0.01388939022906326,-2.0486211583286617e-05,-0.008833883946837925,0.014793833969040122
7.373737373737374,1.9240506329113924,0.015784887006231263,0.01400616081648656,-2.090647400300976e-05,-0.008937314346815347,0.014975007311497167
7.474747474747475,1.9240506329113924,0.015685130661583717,0.01422691530963635,-7.236871008620354e-05,-0.00897361379136602,0.015009767794545839
7.575757575757575,1.9240506329113924,0.015801664316004698,0.01406034549389495,6.254541277046358e-05,-0.008958602942969894,0.015007357751709222
7.6767676767676765,1.9240506329113924,0.01579932154002086,0.014251797165726386,-1.652244860348589e-05,-0.009015335611724174,0.01508523704180442
7.777777777777778,1.9240506329113924,0.01581555629000899,0.014356395314501478,2.3186937410681398e-05,-0.00905158548135314,0.015138861974163148
7.878787878787879,1.9240506329113924,0.01594445355996303,0.014376834563953113,-7.681369291415032e-05,-0.009096386437174843,0.015221888890381844
7.979797979797979,1.9240506329113924,0.015931380942763505,0.014284098129608144,-8.611475415484274e-05,-0.009064643721711493,0.01517567779856206
8.080808080808081,1.9240506329113924,0.016286983083618423,0.01453046183413688,1.3687999378754529e-05,-0.00924523347532659,0.015483646698165512
8.181818181818182,1.9240506329113924,0.016155598971372306,0.014586423910964931,8.312933999982975e-05,-0.009222606864701171,0.015431638181466555
8.282828282828282,1.9240506329113924,0.016383822018598032,0.014854589822342147,3.0420817318128463e-05,-0.009371523552282053,0.015675339970698438
8.383838383838384,1.9240506329113924,0.016371733244950795,0.014740301123261502,-7.233441718795408e-05,-0.009333610310463689,0.015620548822358813
8.484848484848484,1.9240506329113924,0.0162780390561272,0.014631692646732539,0.0001093427153979947,-0.009272919510857921,0.015521649021567262
8.585858585858587,1.9240506329113924,0.016445272935792968,0.014851218548236123,9.37687184424627e-06,-0.009388947445208727,0.01570902974796725
8.686868686868687,1.9240506329113924,0.016673764090750595,0.014925877644145717,4.4507106205079066e-05,-0.009479892520468892,0.0158723537121508
8.787878787878787,1.9240506329113924,0.016625203793442848,0.014984701961106196,5.6757370016239754e-05,-0.009482971726364713,0.015868983406206166
8.88888888888889,1.9240506329113924,0.016906614443093798,0.01525667973266699,2.7491556502890107e-05,-0.009648988252728237,0.016145072122095715
8.98989898989899,1.9240506329113924,0.017168938781045535,0.015334820348568307,-6.183014505578841e-05,-0.009751127738884152,0.016329667819884344
9.09090909090909,1.9240506329113924,0.0168947166511978,0.01569652634278016,2.4164971000321077e-05,-0.009777372898193389,0.016328679579867725
9.191919191919192,1.9240506329113924,0.017306494796376096,0.015492208953541862,-8.927754920846642e-05,-0.009839611124975388,0.016475174603042302
9.292929292929292,1.9240506329113924,0.017338924277698512,0.015546256926569392,3.013911925576483e-05,-0.009865554361280372,0.016515803128602784
9.393939393939394,1.9240506329113924,0.017753046074393215,0.016063987902962863,3.912012268299109e-05,-0.010145110193206824,0.01697180679946206
9.494949494949495,1.9240506329113924,0.017585528225014333,0.016000712813842015,-6.461144297571326e-05,-0.010075872311656905,0.016849485173480724
9.595959595959595,1.9240506329113924,0.01798164626001177,0.01618913271630286,0.00011354336833386277,-0.010251233692894388,0.01715689479057324
9.696969696969697,1.9240506329113924,0.0181630370318914,0.016428254010691003,-1.4056834360254958e-05,-0.010377387312774721,0.017360790617939062
9.797979797979798,1.9240506329113924,0.018451010411728433,0.016476357201805097,2.041343354970227e-05,-0.010478210284060058,0.017547248892693434
9.8989898989899,1.9240506329113924,0.01850761222051718,0.016349485252874933,-1.8868422011399943e-05,-0.010457129242017634,0.017528505729975555
10.0,1.9240506329113924,0.018590341267083147,0.016969002004395172,6.118189485375056e-05,-0.010667802981443495,0.01783534437293072
0.0,2.0253164556962027,0.018727284603273806,0.016747851556926662,4.911302430796457e-06,-0.01064254084806014,0.017820213526992146
0.10101010101010101,2.0253164556962027,0.01850314879650505,0.01646868596217399,5.436345033346262e-05,-0.010491550427603713,0.017574710581386255
0.20202020202020202,2.0253164556962027,0.017903113497470025,0.016185892817213093,8.649228937104976e-06,-0.010226701894404935,0.017109264959566103
0.30303030303030304,2.0253164556962027,0.018245730750754377,0.016467233368401352,-9.553246263816674e-05,-0.010413889235746718,0.017425473839840878
0.40404040404040403,2.0253164556962027,0.01783136196491683,0.01628059098119277,4.238553369935869e-05,-0.01023358588383288,0.017108927232084722
0.5050505050505051,2.0253164556962027,0.017705530964157952,0.01583720408360648,-3.280779195266766e-05,-0.010062820514329331,0.01684933178717224
0.6060606060606061,2.0253164556962027,0.01766509822824145,0.015714279080807646,3.409193236092414e-05,-0.010013813192714728,0.016775084669652714
0.7070707070707071,2.0253164556962027,0.01722341533775917,0.015607658221215133,-2.6881224568027974e-06,-0.00984932206769229,0.01647506821629123
0.8080808080808081,2.0253164556962027,0.017197569323361576,0.01554238789002834,-1.223857690553426e-05,-0.009821987164016974,0.016432631198772855
0.9090909090909091,2.0253164556962027,0.01704835571810579,0.01535856025947795,-8.414809262459709e-05,-0.009722074793275123,0.01627005992668803
1.0101010101010102,2.0253164556962027,0.017132636819031304,0.015105430221711638,7.579205336914634e-05,-0.009671420112222884,0.01621488975843139
1.1111111111111112,2.0253164556962027,0.016965805137201646,0.015265786075968882,-1.7413950596019635e-05,-0.009669477363951158,0.01618293318211118
1.2121212121212122,2.0253164556962027,0.016581808297830045,0.01516905077476259,-2.342560989837259e-05,-0.009525257721777789,0.015922557021525927
1.3131313131313131,2.0253164556962027,0.01670461225203813,0.014914466524477414,1.70183609934062e-05,-0.009485723632954662,0.01588539803836009
1.4141414141414141,2.0253164556962027,0.01647938791013394,0.01488094246768006,8.563497467439561e-05,-0.0094080991133442,0.0157418503128587
1.5151515151515151,2.0253164556962027,0.01641695933813068,0.014811174058578626,2.0329535692671765e-05,-0.009368440019012792,0.01567591236591197
1.6161616161616161,2.0253164556962027,0.01630212577613906,0.014709451205394465,1.0234165869264444e-05,-0.009303473094460057,0.01556702444756449
1.7171717171717171,2.0253164556962027,0.016229853578358017,0.014529714166487545,-4.765649548303915e-05,-0.009227870323453667,0.015450321061452655
1.8181818181818181,2.0253164556962027,0.016242512257073263,0.014601209998475823,-8.34209660755552e-05,-0.009253116676664725,0.015487901169789412
1.9191919191919191,2.0253164556962027,0.015945111465821126,0.014545449501016265,-3.552102581647746e-05,-0.009147168290051216,0.015293516680597802
2.0202020202020203,2.0253164556962027,0.015845344959204383,0.01436415146945363,6.769185047252112e-05,-0.009062848928597404,0.015159571754957213
2.121212121212121,2.0253164556962027,0.0157919092560691,0.014363267518957078,3.0587149128450925e-05,-0.009046553032507853,0.015128358840737113
2.2222222222222223,2.0253164556962027,0.01598362207681999,0.01445129200397702,-7.463601284100568e-05,-0.009130474224239103,0.015275756510520737
2.323232323232323,2.0253164556962027,0.015663713268103893,0.014051586117552783,-0.00010888525308683599,-0.008914589815697002,0.014924293546160884
2.4242424242424243,2.0253164556962027,0.01577678718307655,0.01397401460609033,-3.2030871016728656e-05,-0.008925240536750064,0.01495720968054932
2.525252525252525,2.0253164556962027,0.01546462976335977,0.014147820018092677,4.306392061530779e-05,-0.008883734934435734,0.014850264305643178
2.6262626262626263,2.0253164556962027,0.015713800198146152,0.014085572841231103,6.673122989144167e-05,-0.008939811911813176,0.014966708415696299
2.727272727272727,2.0253164556962027,0.015625707780998886,0.013800338055859394,-4.3966775590155114e-05,-0.008827813751057484,0.014797899297041468
2.8282828282828283,2.0253164556962027,0.015570110908818645,0.01389728352195139,4.85788161580669e-05,-0.008840218329231011,0.014804988245131167
2.929292929292929,2.0253164556962027,0.015356211403505154,0.013854693347608407,5.52490314966082e-06,-0.008763271425334068,0.014663227749116483
3.0303030303030303,2.0253164556962027,0.01527323355461065,0.013883661933308138,-1.3604335472810986e-05,-0.008747068646375636,0.014628050992023259
3.131313131313131,2.0253164556962027,0.015460621129034237,0.01379090108230087,-4.5479333720753495e-05,-0.008775456663400532,0.014697280932379712
3.2323232323232323,2.0253164556962027,0.015253165377508687,0.013868772861583313,3.1773692595119614e-06,-0.0087365814717276,0.01461024500020486
3.3333333333333335,2.0253164556962027,0.015363118283082755,0.01379896569991596,2.6627935865896952e-05,-0.008748625194899615,0.014643901210959582
3.4343434343434343,2.0253164556962027,0.015345852145450404,0.013723566910882253,-6.230183977475501e-05,-0.008720825716899796,0.014602851867447343
3.5353535353535355,2.0253164556962027,0.0152212772426207,0.013605657928683491,-1.7458619988548244e-05,-0.008648080551391256,0.014481251036376467
3.6363636363636362,2.0253164556962027,0.015141432123651844,0.01384877075630676,3.67191035968584e-05,-0.00869706086398758,0.014538405713521918
3.7373737373737375,2.0253164556962027,0.015264848298437059,0.013609787672590913,3.673593005837513e-05,-0.008662390791308391,0.014508432667140067
3.8383838383838382,2.0253164556962027,0.01511886950231219,0.013779331002367478,-1.5110487707135276e-05,-0.0086694601514039,0.014495618497577429
3.9393939393939394,2.0253164556962027,0.01508202398223455,0.01374528589384971,6.047329155255473e-05,-0.008648192962825279,0.014460448515437686
4.040404040404041,2.0253164556962027,0.015119168911649545,0.013557880948108572,-4.3147089174369615e-05,-0.008603114957927434,0.014402329577450287
4.141414141414141,2.0253164556962027,0.015045112065667275,0.013469326041380476,5.679830556419098e-06,-0.008554331432114324,0.014322385210478836
4.242424242424242,2.0253164556962027,0.014975762900788493,0.013569110685688555,3.415619463007688e-05,-0.008563462075943114,0.014324453036488608
4.343434343434343,2.0253164556962027,0.015088428859665756,0.013515189644275338,6.271213469804274e-05,-0.008581085551182328,0.014366971063411284
4.444444444444445,2.0253164556962027,0.015119690980441736,0.013703392841717489,9.710007722070527e-05,-0.008646925146647767,0.014464620660186991
4.545454545454545,2.0253164556962027,0.014963745817039777,0.013611699177440194,1.5048676129713755e-05,-0.00857263349834399,0.014335644950013124
4.646464646464646,2.0253164556962027,0.015090394174068676,0.01370987652180234,2.47351023010699e-05,-0.008640081208761304,0.014449744124235678
4.747474747474747,2.0253164556962027,0.015053520744940494,0.013601814844375532,-1.0235048777934917e-05,-0.008596600676794807,0.014382731528435486
4.848484848484849,2.0253164556962027,0.015191436171837816,0.013541446161063177,-1.0944365397487167e-06,-0.008619864699870297,0.014437329588923279
4.94949494949495,2.0253164556962027,0.015020542625761066,0.0133971426589346,5.069648248925062e-05,-0.0085253055854087,0.014278497477824186
5.05050505050505,2.0253164556962027,0.015075503442802885,0.013559074505271681,4.66820524713615e-05,-0.008590373384422369,0.014377620413340132
5.151515151515151,2.0253164556962027,0.015050103532741908,0.01341054535246685,2.6915214616489737e-05,-0.008538194665562627,0.014301063607228565
5.252525252525253,2.0253164556962027,0.015055061483821512,0.013447853790836371,-1.0104924255998884e-05,-0.008550874582397365,0.014319276816353439
5.353535353535354,2.0253164556962027,0.014989858775103103,0.013582740702396694,-4.750261277759993e-06,-0.008571779843249938,0.014338180284584749
5.454545454545454,2.0253164556962027,0.015082114202222838,0.013825915838955528,2.7008494851107746e-05,-0.00867240901235351,0.014494973761194144
5.555555555555555,2.0253164556962027,0.015058510908314237,0.013420125566008695,6.442498582801341e-05,-0.008543590942296878,0.014310271328418871
5.656565656565657,2.0253164556962027,0.015207958554166968,0.01354763136736656,-9.166700881260602e-06,-0.008626676976460058,0.014449524379524977
5.757575757575758,2.0253164556962027,0.015061800237295904,0.013412977654948014,2.9979203712822217e-05,-0.008542433367673175,0.014308909888323664
5.858585858585858,2.0253164556962027,0.015035746528349613,0.01346118538640943,-1.1020578672831667e-06,-0.008549079574427713,0.014313567615185208
5.959595959595959,2.0253164556962027,0.015140162180231957,0.013720349763444438,-1.4950261956247202e-05,-0.008658153583102917,0.014482570849746173
6.0606060606060606,2.0253164556962027,0.015206893714981996,0.01361108977652522,-1.6614619871784376e-06,-0.008645395047452164,0.0144751163749401
6.161616161616162,2.0253164556962027,0.015029581794813405,0.013829416202001225,2.137401877174241e-06,-0.008657699399044387,0.014466884707431857
6.262626262626262,2.0253164556962027,0.015110296469049463,0.013789534931261935,-4.790258228919907e-05,-0.008669949420093418,0.014495352910279565
6.363636363636363,2.0253164556962027,0.015333861964708307,0.013669822053294554,5.116596726112544e-05,-0.008701105205400858,0.014573539279898325
6.4646464646464645,2.0253164556962027,0.015216156124335816,0.01373376142775732,3.071522533284011e-05,-0.008684975265627939,0.014531874702555838
6.565656565656566,2.0253164556962027,0.01532257157562508,0.013678764261739168,6.119242940616117e-05,-0.008700400751209274,0.014570764581587183
6.666666666666667,2.0253164556962027,0.015471850281303535,0.013862288280557977,-8.184136235891217e-05,-0.008800241568558452,0.01473383971315977
6.767676767676767,2.0253164556962027,0.015410845319934915,0.013757850406052624,5.707764901063638e-05,-0.008750608717796262,0.014654769541069255
6.8686868686868685,2.0253164556962027,0.015247184250695265,0.013703776870680862,3.4843671161128496e-05,-0.008685288336412838,0.014537185403737208
6.96969696969697,2.0253164556962027,0.015468630423261279,0.013860470968529848,1.3246968600129148e-05,-0.008798730417537337,0.01473055349207571
7.070707070707071,2.0253164556962027,0.015454589999471108,0.013964033444277033,-1.4303960030826927e-05,-0.008825587033124442,0.014765865510502718
7.171717171717171,2.0253164556962027,0.015463930967305944,0.013929590343258752,8.138819122510962e-06,-0.00881805639316941,0.01475671451722017
7.2727272727272725,2.0253164556962027,0.015500444422361455,0.014037692453649187,9.374612996382499e-05,-0.008861441062803193,0.014824185644702823
7.373737373737374,2.0253164556962027,0.015744559987677462,0.014079045533477984,9.284184636007983e-05,-0.008947081656346634,0.0149822619852124
7.474747474747475,2.0253164556962027,0.015657853230348868,0.014173140875150333,-6.860431863246888e-05,-0.00894929823164976,0.014971287522168775
7.575757575757575,2.0253164556962027,0.0158970172911612,0.014188631146632465,-8.930537786956856e-06,-0.009025694531338098,0.015115413893051618
7.6767676767676765,2.0253164556962027,0.015743142355295527,0.014127946144274805,-7.433412922948041e-06,-0.0089613265498711,0.015000909702556227
7.777777777777778,2.0253164556962027,0.015734954096944174,0.014355231726315885,-4.7497226254425966e-06,-0.009027055746978017,0.015092468776319676
7.878787878787879,2.0253164556962027,0.01590381926714514,0.014392464606198318,-7.060640248009585e-05,-0.009088885162003037,0.015205074962299281
7.979797979797979,2.0253164556962027,0.016050965602690682,0.01461387691513828,-6.1029981283837046e-05,-0.009199452755348688,0.015383212719018663
8.080808080808081,2.0253164556962027,0.016071523685849222,0.014550601372927812,4.1467041872186546e-05,-0.00918663751763311,0.01536778116180038
8.181818181818182,2.0253164556962027,0.016113717218837965,0.014485611892494641,-7.553516177006889e-05,-0.009179798733399781,0.015365054422720192
8.282828282828282,2.0253164556962027,0.016151425154059033,0.014668507271134196,6.76622349167883e-05,-0.009245979727557968,0.015463831261789388
8.383838383838384,2.0253164556962027,0.016223276254013902,0.014612095872553304,-7.714128528256013e-05,-0.009250611637970162,0.015481273285678322
8.484848484848484,2.0253164556962027,0.01636042238369162,0.01470067719412741,-5.4984140163093745e-05,-0.009318329873345708,0.015597214882263979
8.585858585858587,2.0253164556962027,0.016501970746589423,0.014753851992403349,-2.3827665200840738e-05,-0.009376746821697831,0.015701122776087508
8.686868686868687,2.0253164556962027,0.016432149553964055,0.014980341159852457,-7.989742082982958e-06,-0.009423747214144953,0.015756495340945822
8.787878787878787,2.0253164556962027,0.016660690324136973,0.015214537249007062,-5.951515896769909e-05,-0.009562568271943211,0.015987078482634098
8.88888888888889,2.0253164556962027,0.01674125700587159,0.015132002635441441,3.464400935228462e-05,-0.00956197789239391,0.01599756373277981
8.98989898989899,2.0253164556962027,0.01703703332383181,0.015261857393119214,-3.459189846980907e-05,-0.009689667215085306,0.016222564913522197
9.09090909090909,2.0253164556962027,0.01717438132979572,0.01532444690305242,1.2838355562547019e-05,-0.009749648469854441,0.016328216272287678
9.191919191919192,2.0253164556962027,0.017320242600243795,0.015338411010696459,-2.2746186462840068e-07,-0.009797596083282076,0.01641927697592247
9.292929292929292,2.0253164556962027,0.01751858606777403,0.01556915594876726,-2.606368948649928e-05,-0.009926322604962385,0.016629850096368727
9.393939393939394,2.0253164556962027,0.01750077927856909,0.015703056107946953,2.300886353372733e-05,-0.009961150615954812,0.01667480481942025
9.494949494949495,2.0253164556962027,0.017761947324243823,0.016168119804263272,-2.5763216170314908e-05,-0.010179020138552129,0.017021150657013682
9.595959595959595,2.0253164556962027,0.017921871937574857,0.0160767590965787,-2.4521705453605896e-05,-0.010199589310246067,0.017074304174350678
9.696969696969697,2.0253164556962027,0.01797988831725959,0.0162601775346318,6.14084174007453e-05,-0.010272019755567416,0.01718501947187033
9.797979797979798,2.0253164556962027,0.018154378519425043,0.016489922156171247,1.1139300474903362e-05,-0.010393290202678887,0.017382033132410248
9.8989898989899,2.0253164556962027,0.01858919352925254,0.01668592721103306,-4.2544105985311386e-05,-0.010582536222085681,0.01771456414428099
10.0,2.0253164556962027,0.01856269734069616,0.01685254702591629,-2.889091737427725e-06,-0.010624573309983733,0.017769450441744904
0.0,2.1265822784810124,0.01860095127013711,0.016810834265419208,-5.333524835900093e-05,-0.010623535660666896,0.017773873011196706
0.10101010101010101,2.1265822784810124,0.018443202855837917,0.016552350092480475,5.11142745053117e-06,-0.010498665884495518,0.017574235489751268
0.20202020202020202,2.1265822784810124,0.018067694734602274,0.01635199657866442,3.57361925911734e-05,-0.010325907393980007,0.017273978518952744
0.30303030303030304,2.1265822784810124,0.01807520875430902,0.016317725459876677,-3.719653514394847e-05,-0.010317880264255709,0.017263811640528953
0.40404040404040403,2.1265822784810124,0.01793515060189789,0.016083759058348097,1.6709018042773007e-05,-0.010205672898073795,0.017084880133541824
0.5050505050505051,2.1265822784810124,0.017760393669848717,0.01607444416555106,6.602692212990072e-06,-0.010150451350619932,0.016980312509546593
0.6060606060606061,2.1265822784810124,0.017238254530392103,0.015713533886775505,-1.0220682524950161e-05,-0.009885536525150283,0.016528732048778038
0.7070707070707071,2.1265822784810124,0.017407153592832757,0.01560832042598615,4.783818202407714e-05,-0.009904642205645672,0.016581287562141105
0.8080808080808081,2.1265822784810124,0.01727183937059728,0.015610736092182805,3.466104944410484e-06,-0.009864772638834025,0.016504103319604387
0.9090909090909091,2.1265822784810124,0.01698189514654428,0.015395060296470992,-2.4649998296583875e-06,-0.009713086632904582,0.016246703136312823
1.0101010101010102,2.1265822784810124,0.016997363213496253,0.015390737947631293,8.819002405225953e-05,-0.009716430348338263,0.01625443140209991
1.1111111111111112,2.1265822784810124,0.01675278908792301,0.015271705530555764,3.3927835842947694e-05,-0.009607348385543632,0.016063646023375473
1.2121212121212122,2.1265822784810124,0.0167009154004131,0.015047541977038897,-4.423227756393339e-05,-0.009524537213235597,0.015938859391529465
1.3131313131313131,2.1265822784810124,0.01662263803833321,0.014844525967046975,-2.0196069519010754e-05,-0.009440149201614055,0.01580879780952954
1.4141414141414141,2.1265822784810124,0.016718835692746077,0.014819376467410831,0.00012673483926331353,-0.009461463648047072,0.015856192819676162
1.5151515151515151,2.1265822784810124,0.016144645330714264,0.014687613466159027,-5.013848558056918e-05,-0.009249677639061987,0.0154679279033521
1.6161616161616161,2.1265822784810124,0.016290347048589022,0.014701676960160429,2.0188483184498435e-05,-0.009297607202624835,0.015557008557292955
1.7171717171717171,2.1265822784810124,0.01618993422955901,0.014478049197833033,2.8321421241999583e-05,-0.009200395028217612,0.015405571101253835
1.8181818181818181,2.1265822784810124,0.01617225569218345,0.01456621169682837,6.0035810741256184e-05,-0.009221540216703546,0.015432390943671428
1.9191919191919191,2.1265822784810124,0.016254619858442756,0.014523525311081979,-4.3155429867123935e-05,-0.00923344355085742,0.015462103946144987
2.0202020202020203,2.1265822784810124,0.016061005251866607,0.014464080452786866,2.8482783857084367e-05,-0.009157525711396042,0.015325151703538716
2.121212121212121,2.1265822784810124,0.015806239443456008,0.01436193065700044,5.985051268139522e-05,-0.009050451030136934,0.015136211182363237
2.2222222222222223,2.1265822784810124,0.01586096755085192,0.014192924134394165,-6.346161484666568e-05,-0.009016167505573824,0.0150966208177921
2.323232323232323,2.1265822784810124,0.015855161222531697,0.014303540711655384,7.254071061143593e-05,-0.009047610580256124,0.015139625382095885
2.4242424242424243,2.1265822784810124,0.015800457009553116,0.01408958247010783,5.084681179949237e-07,-0.008967011843898283,0.01501828667214851
2.525252525252525,2.1265822784810124,0.01559383603649183,0.014162742625755138,-3.913232263618824e-05,-0.00892697359867409,0.014929973499619418
2.6262626262626263,2.1265822784810124,0.015702331514913768,0.013984713376590447,5.03401195441459e-05,-0.008906113467451264,0.014918123877762802
2.727272727272727,2.1265822784810124,0.015466719569577708,0.01396569440318149,4.7705815069955395e-05,-0.00882972419182776,0.014773739642113579
2.8282828282828283,2.1265822784810124,0.015475874574762193,0.014016265398404783,-2.104459040570147e-05,-0.008847641991950093,0.014800194352925048
2.929292929292929,2.1265822784810124,0.01547179818511814,0.013856169179976074,-5.449407934295473e-05,-0.008798390209528264,0.014730886567608563
3.0303030303030303,2.1265822784810124,0.015537651584925899,0.013875283182132664,0.0001548642606849952,-0.00882388043011757,0.014779199344026628
3.131313131313131,2.1265822784810124,0.015350007672219055,0.013919685122715846,9.466973161517969e-06,-0.00878090783848047,0.014687183695144605
3.2323232323232323,2.1265822784810124,0.015312700851487657,0.013624048876401677,-1.2115050023876012e-05,-0.0086810249183668,0.014542110254246402
3.3333333333333335,2.1265822784810124,0.015329285625333791,0.013764591205241511,6.97604443886296e-05,-0.00872816304917259,0.014610414719924155
3.4343434343434343,2.1265822784810124,0.015179152759455666,0.013726917287400525,-5.46703874853819e-06,-0.008671821014056858,0.014507654943294543
3.5353535353535355,2.1265822784810124,0.015242472242977501,0.013413787677508596,4.895002752955546e-05,-0.008596877976145828,0.014415636021459061
3.6363636363636362,2.1265822784810124,0.01527073712739408,0.013705135938055777,-9.663757411372793e-05,-0.008692761919634957,0.014552204360559968
3.7373737373737375,2.1265822784810124,0.015247317573632412,0.01353251720762312,4.526431760830373e-05,-0.00863395043437666,0.014466557099250887
3.8383838383838382,2.1265822784810124,0.015316686564178015,0.013660295997098166,-9.186866119524005e-05,-0.008693094768382854,0.014560199910196588
3.9393939393939394,2.1265822784810124,0.014935547129599184,0.013744650390837027,2.055104400384401e-05,-0.008604059256130864,0.014377182469831617
4.040404040404041,2.1265822784810124,0.01510115610425249,0.01349782167733258,-3.2109081154654096e-05,-0.008579693334475521,0.014366853743272633
4.141414141414141,2.1265822784810124,0.015118388154387862,0.013626907393192507,1.755888370323805e-05,-0.00862358866427411,0.0144306034218389
4.242424242424242,2.1265822784810124,0.015050702052108398,0.013764156074929448,1.7973566104102078e-06,-0.008644457438111352,0.014450447132367518
4.343434343434343,2.1265822784810124,0.014975666455649399,0.013576151094991233,6.187340484696432e-05,-0.008565545265192188,0.01432766689832955
4.444444444444445,2.1265822784810124,0.015139152191759929,0.013556204012173657,-7.747525715034704e-05,-0.008608606861180075,0.01441364519712174
4.545454545454545,2.1265822784810124,0.014934039098498535,0.013530352235664327,-2.7214513722593278e-05,-0.008539317400248858,0.014284094931147472
4.646464646464646,2.1265822784810124,0.01520023049193518,0.01339696768520754,-5.2497384661230686e-05,-0.008579159453142816,0.01438391537045731
4.747474747474747,2.1265822784810124,0.014961335612449394,0.013549730774165146,-8.178873371142472e-06,-0.008553319915984361,0.01430786142202932
4.848484848484849,2.1265822784810124,0.01492953229078137,0.013797132889227482,-2.3603353432657787e-06,-0.008617999554002656,0.014396773461720918
4.94949494949495,2.1265822784810124,0.014907147918913835,0.013488699553378634,1.4368355361933058e-05,-0.008518754241687741,0.014250987846131902
5.05050505050505,2.1265822784810124,0.015154812061885459,0.013533673280240681,0.00012744723638384773,-0.00860654560263784,0.014414475169514386
5.151515151515151,2.1265822784810124,0.015038215666038746,0.013536784119865666,7.077284753729132e-05,-0.008572499935771322,0.014347069460166341
5.252525252525253,2.1265822784810124,0.014856937574976529,0.013529120636383627,9.151535549986776e-05,-0.008515817463408046,0.014240418664574763
5.353535353535354,2.1265822784810124,0.015049986342542157,0.013499532708537897,-6.263237132555508e-05,-0.008564855715324015,0.014338181816646317
5.454545454545454,2.1265822784810124,0.015082364381144074,0.013536519160496963,-6.08774708953997e-05,-0.008585665062492311,0.01437231609993807
5.555555555555555,2.1265822784810124,0.015084517482803272,0.013488275744764532,1.8910838604763885e-05,-0.008571837968270341,0.01435315964624093
5.656565656565657,2.1265822784810124,0.015049651818690541,0.013506351034842578,-6.571327565165836e-05,-0.008566800856059936,0.014340872094423262
5.757575757575758,2.1265822784810124,0.015015567000760463,0.01369723535857524,3.422571388279231e-05,-0.00861384070780071,0.014401849456550047
5.858585858585858,2.1265822784810124,0.015005250457199144,0.01346649313207779,1.5736194759804007e-05,-0.00854152307678308,0.014298133417200671
5.959595959595959,2.1265822784810124,0.01521280866207822,0.013610982478671886,6.462995070253714e-07,-0.008647137342225032,0.014478505465892872
6.0606060606060606,2.1265822784810124,0.015005878357067952,0.01357840782220077,-5.038089111228684e-05,-0.008575285853780616,0.014345773694474847
6.161616161616162,2.1265822784810124,0.015211768784193634,0.013597251455862656,0.00010067157779648341,-0.008642706072016887,0.014473262097755712
6.262626262626262,2.1265822784810124,0.01524362006971803,0.013643786817727191,1.9836629077946366e-05,-0.008666222066233565,0.014510043055463192
6.363636363636363,2.1265822784810124,0.0152281837573901,0.013905192698616389,4.022883468324407e-05,-0.008740012936801947,0.014611844168874255
6.4646464646464645,2.1265822784810124,0.015102836448430154,0.013643349986455383,8.883106187445615e-05,-0.00862385593046566,0.014429381728247273
6.565656565656566,2.1265822784810124,0.015237462981399615,0.013630247718591561,1.2941841383556565e-05,-0.008660313209997352,0.014500828887140342
6.666666666666667,2.1265822784810124,0.015315274759412117,0.013794405384977039,-1.3317734928001475e-05,-0.008732904043316746,0.01461433147133056
6.767676767676767,2.1265822784810124,0.01547718551324828,0.013794520005284612,7.049567626617535e-05,-0.008781511655559867,0.014708725890464201
6.8686868686868685,2.1265822784810124,0.015384525638625288,0.013873737467751217,-2.548446217668582e-05,-0.008777478931912951,0.014687589967277313
6.96969696969697,2.1265822784810124,0.015216537326742602,0.01375431439054739,1.7192680987849553e-05,-0.008691255515186997,0.014540702218513769
7.070707070707071,2.1265822784810124,0.015457596202275553,0.01376475943425019,9.186280265710903e-05,-0.008766706690957722,0.014685404516145169
7.171717171717171,2.1265822784810124,0.01563473385413695,0.01401720713031938,3.325477195054301e-05,-0.008895582295336898,0.014892112449303179
7.2727272727272725,2.1265822784810124,0.015599799421907793,0.014181741394823102,-7.203698203354178e-05,-0.008934462245019268,0.01494184653117305
7.373737373737374,2.1265822784810124,0.015614919883608299,0.014176556944844041,-2.551371931161489e-05,-0.008937443048535701,0.014947797219402611
7.474747474747475,2.1265822784810124,0.015370262051530276,0.01403243085562811,9.162265179512224e-05,-0.008820807872147516,0.014747783423642963
7.575757575757575,2.1265822784810124,0.015644282717688685,0.014253331631659765,3.3348908797022793e-06,-0.008969284304804535,0.014997264017242508
7.6767676767676765,2.1265822784810124,0.015813114964993723,0.014240932161670697,1.5632204288072995e-05,-0.009016214137999327,0.015088604618906041
7.777777777777778,2.1265822784810124,0.01605297065877875,0.014280598079624002,-5.067732228682071e-05,-0.009100070621520826,0.015244508227369566
7.878787878787879,2.1265822784810124,0.01582248355692524,0.014324333144491384,-4.2918147945411637e-05,-0.009044045010424988,0.015129326032681661
7.979797979797979,2.1265822784810124,0.016016217581857586,0.014410723110831806,-2.6912099881131004e-05,-0.009128082207806818,0.015276945445174574
8.080808080808081,2.1265822784810124,0.015988149554512804,0.014530770791257318,1.2963451778072305e-05,-0.009155676103731036,0.015311583640035488
8.181818181818182,2.1265822784810124,0.016332336132696836,0.014636762601282785,8.85640418679684e-06,-0.009290729620193885,0.015554026218531131
8.282828282828282,2.1265822784810124,0.01617462956726319,0.014824833373536338,2.3066304821184555e-05,-0.009299838882239857,0.015543800505063257
8.383838383838384,2.1265822784810124,0.01620682756139559,0.01476381326445092,-4.045581451771536e-05,-0.009291192247753953,0.01553582234725837
8.484848484848484,2.1265822784810124,0.016330184003175423,0.014733140351629133,-6.678176460702051e-06,-0.009318997306441366,0.015593125892706028
8.585858585858587,2.1265822784810124,0.016582918025582993,0.015185966315523786,-1.9656703423657843e-05,-0.009530665302332033,0.01593048234636357
8.686868686868687,2.1265822784810124,0.016534297185332995,0.014928678339225827,1.6866036265814486e-05,-0.009438892657367647,0.0157928486826638
8.787878787878787,2.1265822784810124,0.01675779367133888,0.015135195279964509,-1.4223765055123881e-05,-0.009567896685391016,0.016008307598345147
8.88888888888889,2.1265822784810124,0.016734831685801723,0.0152045266854648,2.2985485160454147e-05,-0.009581807511379957,0.016024625216683686
8.98989898989899,2.1265822784810124,0.01686100683118377,0.01543710158800236,4.8012833063741424e-05,-0.009689432525755838,0.016196280349727265
9.09090909090909,2.1265822784810124,0.01711873075957336,0.01542393045669864,-7.699620681598249e-05,-0.0097627983648816,0.016337938855829515
9.191919191919192,2.1265822784810124,0.017402498186045105,0.015511252561279736,-5.576100457876538e-05,-0.009874125224197451,0.01653846070355543
9.292929292929292,2.1265822784810124,0.01754632859611149,0.01564237812304654,-5.19179540016908e-06,-0.009956612015747409,0.01667607312408119
9.393939393939394,2.1265822784810124,0.017583766899238452,0.015864502284511264,5.0458135586924e-05,-0.010034480755124914,0.01679050979062505
9.494949494949495,2.1265822784810124,0.017537110053109484,0.015880316171782517,-3.672094819739069e-05,-0.0100252278674676,0.016770326879105138
9.595959595959595,2.1265822784810124,0.017928606317450333,0.016173264858779228,9.368076329694258e-06,-0.010230561352868869,0.017118574281756022
9.696969696969697,2.1265822784810124,0.017954377840969683,0.01624333983174669,-4.0065385221782536e-05,-0.010259315301814911,0.017163086188466736
9.797979797979798,2.1265822784810124,0.018219793542840326,0.016444862286430856,-9.049065055979597e-05,-0.010399396748781355,0.017401061529047784
9.8989898989899,2.1265822784810124,0.018559410817177893,0.016531517898409488,3.252013290841417e-05,-0.010527278614676214,0.017633228702516032
10.0,2.1265822784810124,0.01847293170389085,0.016680343806989958,2.976968099000066e-05,-0.010545982653264242,0.017645137630910634
0.0,2.2278481012658227,0.018620911885258325,0.016947795445446535,-4.830468734464904e-05,-0.010670612199211458,0.01784347848062897
0.10101010101010101,2.2278481012658227,0.01862276429846219,0.01644314901376472,-7.246766897194511e-06,-0.010519773993668073,0.01763427823144485
0.20202020202020202,2.2278481012658227,0.018351927067555056,0.016416838893602393,1.1251313792425204e-06,-0.010430629788347235,0.01746497065826123
0.30303030303030304,2.2278481012658227,0.01786483278257154,0.016080080490991074,-1.6701812038944308e-05,-0.010183473982068782,0.017042714768948176
0.40404040404040403,2.2278481012658227,0.017953572946268863,0.015975316551321693,4.73695958772194e-06,-0.010178666849277167,0.017050735371953847
0.5050505050505051,2.2278481012658227,0.017752545650634357,0.01593858155811108,-1.8144633326350803e-05,-0.010107338162623632,0.016918683463226246
0.6060606060606061,2.2278481012658227,0.017476068191146023,0.015868722638461896,-1.815913842437697e-05,-0.010003437248882377,0.01673043418219626
0.7070707070707071,2.2278481012658227,0.017387931856195433,0.015624726921923494,-1.4622849140949902e-05,-0.00990379763343568,0.016576827806111152
0.8080808080808081,2.2278481012658227,0.01721274921008223,0.01553568178299614,-1.5204283388308715e-05,-0.009824529297923509,0.016438523139383564
0.9090909090909091,2.2278481012658227,0.017137634237627715,0.015448895972450754,4.8491481812898986e-05,-0.00977595906302354,0.01635898590227154
1.0101010101010102,2.2278481012658227,0.017045713632455432,0.015225419281705567,1.8233192155871716e-05,-0.0096813398742483,0.016212421345415336
1.1111111111111112,2.2278481012658227,0.016895307300461366,0.015260768926061808,2.154890040946844e-05,-0.009646822867956952,0.01614027538209486
1.2121212121212122,2.2278481012658227,0.01683454124715489,0.015290679225549678,-2.2360340681907784e-05,-0.00963756614181137,0.01611820647639779
1.3131313131313131,2.2278481012658227,0.01662803947897207,0.015065595289979599,1.9219119955054296e-05,-0.009508090430685501,0.015904516755419776
1.4141414141414141,2.2278481012658227,0.016524600202822707,0.014889465283032545,3.0291723629703093e-05,-0.009424219645756574,0.015770823694639412
1.5151515151515151,2.2278481012658227,0.016369970905421537,0.014807047104379944,1.5411605828070197e-05,-0.009353105402940444,0.01564718420849422
1.6161616161616161,2.2278481012658227,0.016266662178138228,0.014750970104981326,-6.344817171399134e-05,-0.009305289684935865,0.015564653769668622
1.7171717171717171,2.2278481012658227,0.016272085139316897,0.014386556152626316,-1.7448982076277322e-05,-0.009197592387582963,0.015416076009726849
1.8181818181818181,2.2278481012658227,0.01612817754504978,0.014523920260395921,6.348492675540783e-05,-0.00919562934163371,0.015389285137814276
1.9191919191919191,2.2278481012658227,0.016101453537594575,0.014417386304878385,-3.466332099291742e-05,-0.009155651952741888,0.015329075732193602
2.0202020202020203,2.2278481012658227,0.015914585996177833,0.014511617314121088,-2.9425413983243973e-06,-0.009127860993089676,0.015261544115445362
2.121212121212121,2.2278481012658227,0.015836844244450036,0.014125210323426998,6.697818573842442e-05,-0.00898861637036311,0.015054630673779486
2.2222222222222223,2.2278481012658227,0.01579299521916596,0.014404102694740793,-7.731178771033387e-05,-0.009059129374172026,0.015146975895418132
2.323232323232323,2.2278481012658227,0.015693537372891007,0.014006945458255798,5.042634318545243e-05,-0.008910144849344041,0.014922156103055528
2.4242424242424243,2.2278481012658227,0.01581268103721413,0.014266121274278142,1.7753937487793427e-05,-0.00902364069344768,0.015098954204036667
2.525252525252525,2.2278481012658227,0.015636758565064537,0.014086890446651745,6.099508803763291e-06,-0.008917094703514884,0.014922315760072323
2.6262626262626263,2.2278481012658227,0.015656517127564825,0.013936040491229136,1.0633938594097988e-05,-0.008877767285638187,0.014871120863589703
2.727272727272727,2.2278481012658227,0.015491534072459503,0.013992237809599604,1.0753149471381115e-06,-0.008845131564617732,0.014798956771681603
2.8282828282828283,2.2278481012658227,0.015406385332772653,0.014046883371473367,-6.631701315828307e-05,-0.008835980611273806,0.014774069763166637
2.929292929292929,2.2278481012658227,0.01539849938438728,0.013994711608952026,1.2002793242080079e-05,-0.008817963298001791,0.01474681695874481
3.0303030303030303,2.2278481012658227,0.015506918382443183,0.013924214684826818,0.000123243513421545,-0.008829339920181,0.014780804394297228
3.131313131313131,2.2278481012658227,0.015345362353793855,0.013839035492401118,3.607237248050044e-05,-0.008755319353858492,0.014650526902450693
3.2323232323232323,2.2278481012658227,0.015345804585901592,0.013803277205240527,-2.178998094947033e-05,-0.008744724537342635,0.014635682757102569
3.3333333333333335,2.2278481012658227,0.015293382208684836,0.013795426870654647,0.0001477638478490041,-0.008726642723801845,0.014604386619225373
3.4343434343434343,2.2278481012658227,0.015271588120325273,0.013762261977660513,1.6777769261352577e-05,-0.008710155029395735,0.014575682022203967
3.5353535353535355,2.2278481012658227,0.01537524913630905,0.013722580912659047,4.605235197436941e-05,-0.008729349014690429,0.014619363017591485
3.6363636363636362,2.2278481012658227,0.015173170169537894,0.013723584225685575,-3.5568502934695256e-05,-0.00866902631856704,0.014502943616939644
3.7373737373737375,2.2278481012658227,0.015124470170176688,0.01381421319389078,-1.1407916135414693e-05,-0.008681605009220241,0.014513780318752929
3.8383838383838382,2.2278481012658227,0.015184351338734046,0.013501182678005558,2.564849123295025e-05,-0.00860566020502188,0.014416717086321446
3.9393939393939394,2.2278481012658227,0.015044088265217628,0.013570971381533448,0.0001205045183157548,-0.008584517894025322,0.014365811104087736
4.040404040404041,2.2278481012658227,0.015197498091213063,0.01364033251887325,5.476684983972889e-05,-0.008651349183025894,0.01448215074711944
4.141414141414141,2.2278481012658227,0.015169328317441947,0.013499261251232096,-5.7129693485277424e-05,-0.008600576870602212,0.014407416193548857
4.242424242424242,2.2278481012658227,0.015113152433688498,0.013604294903148711,-7.57126872986155e-05,-0.008615234201051163,0.014418655655249506
4.343434343434343,2.2278481012658227,0.015175111136337077,0.013658161849693564,5.0337594716862836e-05,-0.008649981895809192,0.014476631540028671
4.444444444444445,2.2278481012658227,0.015143203283176004,0.013646765084209887,-1.842401091933373e-05,-0.008636990510215768,0.014453237818696504
4.545454545454545,2.2278481012658227,0.015153717648236064,0.013534436067189223,0.00010938355348925654,-0.008606446114627587,0.014413708399101438
4.646464646464646,2.2278481012658227,0.015049246870413415,0.013560647564376261,2.671996744434645e-05,-0.008582968330436903,0.014362994210222454
4.747474747474747,2.2278481012658227,0.015140764527261494,0.01349890518860434,-1.5561821759538982e-05,-0.00859190091475975,0.014390280519687998
4.848484848484849,2.2278481012658227,0.014919251021109912,0.013627736030278444,-2.7790256873987047e-05,-0.008564096115416506,0.014317330147475882
4.94949494949495,2.2278481012658227,0.014984148904609213,0.013526701453668664,5.424663537483551e-05,-0.008553255107483363,0.014311502015322037
5.05050505050505,2.2278481012658227,0.014966973703308318,0.013579516789422848,-1.573844368068529e-05,-0.00856394714781935,0.014323758252450459
5.151515151515151,2.2278481012658227,0.014981001940378021,0.013429961292443827,-4.415452883399736e-05,-0.008523288969846554,0.014269052250941421
5.252525252525253,2.2278481012658227,0.01507702872453268,0.01354335673623494,6.266059567172158e-06,-0.008586115638230286,0.014371702964402096
5.353535353535354,2.2278481012658227,0.015081946925458911,0.013565672148223023,-3.8328337906403883e-05,-0.00859428572210458,0.014384027382211756
5.454545454545454,2.2278481012658227,0.014941845720717474,0.013394211199547187,5.9802955463052375e-06,-0.008500817076079399,0.014231286561560858
5.555555555555555,2.2278481012658227,0.015016653108346593,0.013542912087048574,2.020148552662574e-05,-0.00856786955861855,0.01433674822914707
5.656565656565657,2.2278481012658227,0.0149825547451472,0.0134586037780407,1.648189753255602e-05,-0.008532347556956369,0.014281719413527329
5.757575757575758,2.2278481012658227,0.015087905577169184,0.013437579832042837,-1.6847208530654783e-05,-0.008557645622763605,0.01433420253246995
5.858585858585858,2.2278481012658227,0.01490935284933595,0.01362638327291176,-7.254320205090225e-05,-0.008560720836674312,0.014311616077810783
5.959595959595959,2.2278481012658227,0.01521096657319955,0.013717928998090717,8.413180305105889e-06,-0.00867866867138708,0.014522132522084286
6.0606060606060606,2.2278481012658227,0.015102302661868168,0.013740471084103636,0.00013287592168546226,-0.00865283212379154,0.014471361591317827
6.161616161616162,2.2278481012658227,0.015020525599522022,0.013756519772950055,-5.37202323705877e-05,-0.008633113611741622,0.014430402826311984
6.262626262626262,2.2278481012658227,0.015281755091161598,0.013580030824591038,-4.548356584375399e-05,-0.00865853577472579,0.01450616341199651
6.363636363636363,2.2278481012658227,0.015130283500253174,0.013709026930000267,-2.7339307253846325e-05,-0.008651793129076032,0.014472169032842309
6.4646464646464645,2.2278481012658227,0.015052459543675198,0.013628656456400687,-2.955743841768443e-05,-0.008604334800022765,0.014393562314536628
6.565656565656566,2.2278481012658227,0.015347052429350489,0.013676616923442821,-1.5166643115531034e-05,-0.008707100805837992,0.014583785579910531
6.666666666666667,2.2278481012658227,0.015463674666381579,0.0137270549075727,-3.6043442200796705e-05,-0.008757218872186284,0.014672779450196998
6.767676767676767,2.2278481012658227,0.01529019267110607,0.01388109275690271,4.9095648644842025e-05,-0.008751385628402634,0.014636849949866018
6.8686868686868685,2.2278481012658227,0.015101273188748246,0.013721705713307752,1.9320231341473215e-05,-0.0086468936706168,0.014460966524599193
6.96969696969697,2.2278481012658227,0.015347293691893776,0.01382188603427151,1.3755981662044074e-05,-0.008750753917849585,0.014644315639417123
7.070707070707071,2.2278481012658227,0.015396207669172145,0.013772884776095045,2.147042534647611e-06,-0.008750727733580157,0.014652146097445995
7.171717171717171,2.2278481012658227,0.015562929161844237,0.014034700375529962,3.151165368512349e-05,-0.00887928886121226,0.014857977989227035
7.2727272727272725,2.2278481012658227,0.015477873598474712,0.014014580283564343,4.320646566770941e-05,-0.008847736164611717,0.014800767881639542
7.373737373737374,2.2278481012658227,0.015628325787857514,0.01405973547124492,-6.871714247756651e-05,-0.00890641837773073,0.014906534411260507
7.474747474747475,2.2278481012658227,0.01563918175364548,0.014246726484710226,-5.0015898589104115e-05,-0.00896577247150671,0.014991783794304752
7.575757575757575,2.2278481012658227,0.015444876290330003,0.01433838335004301,6.804708447508457e-05,-0.008934977892111904,0.014922894320096334
7.6767676767676765,2.2278481012658227,0.015858141354170435,0.014101904019659961,-3.276906044398592e-05,-0.008988013612149117,0.015057143763536547
7.777777777777778,2.2278481012658227,0.01593749725743208,0.014441893404531288,9.27701995383701e-05,-0.00911381719858901,0.015245664509670371
7.878787878787879,2.2278481012658227,0.015874743110170064,0.01445976687757285,8.198165126290102e-06,-0.009100352996322874,0.015216683080847948
7.979797979797979,2.2278481012658227,0.01598478268947748,0.014487887181105722,-3.338926257657401e-05,-0.009141800961174961,0.015291493351245692
8.080808080808081,2.2278481012658227,0.01608832368067856,0.014446053121120654,-1.3221733728184834e-05,-0.009160313040539764,0.015333308695594204
8.181818181818182,2.2278481012658227,0.016082020641015753,0.014526304054144477,-2.8103622964249442e-05,-0.009182497408548068,0.015363428822237561
8.282828282828282,2.2278481012658227,0.016270777852405452,0.014628562301124295,2.437394970256176e-05,-0.009269802046058925,0.01551504887800256
8.383838383838384,2.2278481012658227,0.016226204650870973,0.014657007937899003,1.206104379396151e-06,-0.009264963776630993,0.015501290044956094
8.484848484848484,2.2278481012658227,0.016560206246428493,0.014581836414694054,-9.649828614722229e-05,-0.009342612798336763,0.0156658897426166
8.585858585858587,2.2278481012658227,0.01671277714280905,0.014861759282359168,-4.5670569921253475e-05,-0.009472360927550466,0.015868641887657485
8.686868686868687,2.2278481012658227,0.016664048753366783,0.014862318532568487,-6.443809690827109e-05,-0.00945791018578058,0.01584061517771091
8.787878787878787,2.2278481012658227,0.01660902285550967,0.015176768267407128,-5.7366142296211245e-05,-0.009535737336875039,0.01594153433186798
8.88888888888889,2.2278481012658227,0.01688685862448813,0.015262331029342059,-4.399135223553628e-06,-0.009644756896149055,0.016136045808598863
8.98989898989899,2.2278481012658227,0.017017108127428463,0.015256010924746818,2.745093823463181e-05,-0.009681935715652583,0.016208544398525412
9.09090909090909,2.2278481012658227,0.01716774420408081,0.015244853177236973,3.6967071272690136e-05,-0.009723779214395335,0.016291757098906335
9.191919191919192,2.2278481012658227,0.017428076387279584,0.015437074749118809,2.373051359718687e-06,-0.009859545340919517,0.016522790997318355
9.292929292929292,2.2278481012658227,0.017386774334344386,0.015689955487014143,2.8548675295844403e-06,-0.009923018946407559,0.01660352173546577
9.393939393939394,2.2278481012658227,0.017491826068325743,0.015806571713463485,8.297544308207377e-05,-0.009989519334536767,0.01671366327773379
9.494949494949495,2.2278481012658227,0.01782988816053973,0.015853028619160124,4.8373771973608043e-05,-0.010104875033909956,0.01692845890792334
9.595959595959595,2.2278481012658227,0.017748524897894517,0.01606246804234527,-5.4961753349665735e-05,-0.010143297882071935,0.016968705433071152
9.696969696969697,2.2278481012658227,0.018015411703384235,0.016414460814560116,-2.2170574719703143e-05,-0.010328961755383306,0.01727072053548853
9.797979797979798,2.2278481012658227,0.018247928597508446,0.01652822103007005,7.961352732860003e-05,-0.010432844888273549,0.017452283697535452
9.8989898989899,2.2278481012658227,0.018504369501881168,0.016509898606308776,-7.388112618313136e-05,-0.010504280432456983,0.017592599400470477
10.0,2.2278481012658227,0.01867068548911513,0.01671594104951249,6.791638538967474e-05,-0.010615987961588285,0.017774502573079436
0.0,2.329113924050633,0.018684352002472007,0.016892935710782653,-2.284692172031573e-05,-0.010673186313976398,0.017856211676921255
0.10101010101010101,2.329113924050633,0.018517718381740364,0.016719193816440794,3.6267221641533467e-06,-0.010571073659454347,0.017687171982369382
0.20202020202020202,2.329113924050633,0.018377708890005895,0.01649853407842638,-3.4278103055916603e-05,-0.010462872890529681,0.01751399666959783
0.30303030303030304,2.329113924050633,0.01807978831177972,0.01630723347734942,1.129890251168556e-06,-0.010316106536738742,0.01726190266721091
0.40404040404040403,2.329113924050633,0.017931459669053792,0.016107338689024645,-4.3311573248642686e-05,-0.01021163950742353,0.017092721816754333
0.5050505050505051,2.329113924050633,0.01768501980650944,0.015901756409193144,8.805220139406159e-05,-0.010076032864710774,0.016864938925759212
0.6060606060606061,2.329113924050633,0.017549140302069468,0.015640972975318,8.6103842616477e-05,-0.00995703398321624,0.016677798816593106
0.7070707070707071,2.329113924050633,0.017341526757365062,0.01560527333911131,2.8111811702202633e-06,-0.009884040028942912,0.016541882142211358
0.8080808080808081,2.329113924050633,0.017071206974976678,0.01563860630594667,2.843552115053083e-06,-0.009812943984277003,0.016401897877479366
0.9090909090909091,2.329113924050633,0.017249774125093913,0.015460000955450704,-3.650781070317702e-05,-0.009812932524163384,0.01642829300063651
1.0101010101010102,2.329113924050633,0.017076595023895202,0.01520299289920126,1.2844901118324484e-05,-0.009683876376928937,0.016221166196883817
1.1111111111111112,2.329113924050633,0.016800623566418593,0.015201593195670906,2.3181502998483794e-05,-0.00960066502862685,0.016060969932202553
1.2121212121212122,2.329113924050633,0.016849656980409074,0.015030549033186933,1.2733469749731592e-05,-0.009564061804078802,0.01601777873438828
1.3131313131313131,2.329113924050633,0.016616963655853106,0.014897836616654074,3.43711394497835e-05,-0.009454440081752153,0.015827689392718218
1.4141414141414141,2.329113924050633,0.016487013284760023,0.014704777355219028,-1.2408481875243535e-05,-0.009357537191993715,0.015672098979547973
1.5151515151515151,2.329113924050633,0.016321225177305883,0.014907662714080432,2.542281598497559e-05,-0.009368666367415894,0.015662420560692128
1.6161616161616161,2.329113924050633,0.016208950933213104,0.014621106947929747,-4.604932116278359e-06,-0.009249017364342854,0.015476243641337985
1.7171717171717171,2.329113924050633,0.016117596259640987,0.014594510044716997,6.317124658047424e-06,-0.009213631891307396,0.015412603019746757
1.8181818181818181,2.329113924050633,0.01623971425055961,0.01434418220528267,1.8971584204784716e-05,-0.009175168936752683,0.015379842056063063
1.9191919191919191,2.329113924050633,0.01611663440506852,0.014377523170517298,3.681086438002872e-05,-0.009148247272675745,0.015321418263169387
2.0202020202020203,2.329113924050633,0.0160667578430299,0.01454250534640527,-5.3152944146316855e-05,-0.009182778956830551,0.015361729499361125
2.121212121212121,2.329113924050633,0.015744876224858567,0.01437597173020956,-3.5030365060414176e-07,-0.009036254386520438,0.015107011464476473
2.2222222222222223,2.329113924050633,0.015690680492486675,0.014127030787829542,4.163531526366061e-05,-0.008945313384094865,0.014970401707925586
2.323232323232323,2.329113924050633,0.015835911481707758,0.014203944162654828,-2.4007023194169105e-05,-0.009011956693308776,0.015086333179168033
2.4242424242424243,2.329113924050633,0.015712976117419005,0.014186007905005044,-3.332002730701573e-05,-0.008969695206727215,0.015007976745958908
2.525252525252525,2.329113924050633,0.015463703169513609,0.014071527047983454,-4.514514999369863e-05,-0.008860569065249119,0.01481695603080676
2.6262626262626263,2.329113924050633,0.015599330174568968,0.014048017853145465,-1.9361758751521732e-05,-0.00889420440831433,0.014884467183650272
2.727272727272727,2.329113924050633,0.015596866339996171,0.013835426628496359,-1.8475776235665987e-05,-0.008829687890547758,0.014795032740810433
2.8282828282828283,2.329113924050633,0.015470378614380394,0.013822972829937264,-6.604482230102592e-05,-0.008788005433295297,0.01471644164972286
2.929292929292929,2.329113924050633,0.015452441703632818,0.013883325271233366,-4.5751346659600497e-05,-0.008800730092459855,0.014730909012749191
3.0303030303030303,2.329113924050633,0.01549651324346381,0.013759705909149687,-6.583924852391207e-05,-0.008776865745784049,0.01470567812050064
3.131313131313131,2.329113924050633,0.015296357185791688,0.013725951580832629,1.123777870937477e-05,-0.008706692629987295,0.014574759370994629
3.2323232323232323,2.329113924050633,0.015051194418575348,0.013705091879677259,-0.00010397995033385195,-0.008626885889475782,0.014426448971971685
3.3333333333333335,2.329113924050633,0.015425208590291197,0.013834200803108578,1.6741775826546433e-05,-0.008777822818019932,0.014694474461782327
3.4343434343434343,2.329113924050633,0.01518876677464367,0.013846869233155035,-4.635024055908888e-05,-0.00871069080233961,0.014564477381205056
3.5353535353535355,2.329113924050633,0.01512503026251957,0.0136452810218907,-7.64878902031503e-06,-0.00863109338532308,0.0144421300964831
3.6363636363636362,2.329113924050633,0.015185781868129496,0.013729274614868215,-1.233112236448225e-05,-0.008674516944899313,0.014512464954568377
3.7373737373737375,2.329113924050633,0.015247041081760887,0.013697638236923876,-5.131637870512446e-05,-0.008683403795605428,0.014534682735073249
3.8383838383838382,2.329113924050633,0.015045035241714938,0.013698915330379133,8.355114515063402e-06,-0.00862318517162822,0.014419185558079676
3.9393939393939394,2.329113924050633,0.0151197915241673,0.013779347691120759,-0.00011348166683325382,-0.008669741764586417,0.014497457996643278
4.040404040404041,2.329113924050633,0.015281332892627994,0.013659015670711766,6.645490747128857e-05,-0.008682104569001928,0.01453867694745557
4.141414141414141,2.329113924050633,0.015134192661171794,0.013522494530825031,1.7818718324638467e-05,-0.008597006157599047,0.014396199528788121
4.242424242424242,2.329113924050633,0.014997163865245371,0.013722205248722556,-6.15718482905134e-05,-0.008615810734190378,0.014402466922682855
4.343434343434343,2.329113924050633,0.015141227396219743,0.013586389721831972,-1.502625814567889e-05,-0.008618285135415514,0.014426808858195831
4.444444444444445,2.329113924050633,0.015057789732952456,0.01374704138965391,5.796922592062027e-05,-0.008641449336781909,0.014447428878818698
4.545454545454545,2.329113924050633,0.015121882775334602,0.013666023440961541,0.00010092459063611059,-0.008636371864888843,0.014450124158624436
4.646464646464646,2.329113924050633,0.015148163484500564,0.01359872622681247,2.373682666340894e-05,-0.00862406691339391,0.014436002708196371
4.747474747474747,2.329113924050633,0.014888808751607746,0.013469667915161883,8.75895347865702e-05,-0.008507543000030888,0.014233210671875583
4.848484848484849,2.329113924050633,0.015086499198568673,0.013612323501645604,1.5374573141452723e-05,-0.008609646810064283,0.014406117128363576
4.94949494949495,2.329113924050633,0.01517808479087243,0.013571406383927035,-4.0459020854021465e-05,-0.00862484735243984,0.014442101063456173
5.05050505050505,2.329113924050633,0.015212463449961218,0.013540509216799381,8.430579411000254e-05,-0.00862589180002818,0.01444995691733968
5.151515151515151,2.329113924050633,0.015053988289092568,0.013491771132830998,2.533673288764098e-05,-0.008563727826577069,0.01433692480716047
5.252525252525253,2.329113924050633,0.014908815849549905,0.013559041849055316,-2.3623012649515265e-06,-0.008540357309581565,0.01428184738112403
5.353535353535354,2.329113924050633,0.01519575049310229,0.01357220235638915,5.019206088882046e-06,-0.008630385854847432,0.014452535583042117
5.454545454545454,2.329113924050633,0.01508090203169866,0.013432230479250639,-4.415352515638716e-05,-0.00855393975328479,0.014328088442425883
5.555555555555555,2.329113924050633,0.015040640859829242,0.01365231731688731,-6.6130173170758815e-06,-0.008607887453014966,0.014396776553229218
5.656565656565657,2.329113924050633,0.014849690721563199,0.013557351772821935,-6.208792478751458e-05,-0.00852211274831554,0.01424795373095692
5.757575757575758,2.329113924050633,0.015107864953480817,0.013685416028741655,3.526561092809213e-05,-0.008637984294666742,0.0144493774650628
5.858585858585858,2.329113924050633,0.015137053853708532,0.013586949147112632,3.445517677979611e-05,-0.008617200900246348,0.014424727623996048
5.959595959595959,2.329113924050633,0.015150570989043446,0.013319037109163621,3.370041706913317e-05,-0.00854088242946212,0.014323021354992352
6.0606060606060606,2.329113924050633,0.01529335967305721,0.013523072077303962,-6.420380009627939e-05,-0.008644929525108352,0.014489978941268503
6.161616161616162,2.329113924050633,0.015144316488010715,0.013655740133513311,3.563216312214074e-05,-0.008640016986457206,0.014457749443681417
6.262626262626262,2.329113924050633,0.015225641692000334,0.013410150249544039,7.140653512157182e-05,-0.008590737582463311,0.014404494041543169
6.363636363636363,2.329113924050633,0.015300266589641374,0.013909515608224196,-0.00013412107747469047,-0.00876293465935967,0.014656310948570572
6.4646464646464645,2.329113924050633,0.015178632782942415,0.013678004706126397,-5.879459713125157e-05,-0.008656991246720643,0.014487086169293492
6.565656565656566,2.329113924050633,0.015246571846511042,0.013765756761403665,3.033222296803217e-05,-0.008703698582374412,0.014562835332855626
6.666666666666667,2.329113924050633,0.015479337081271166,0.013845746123195233,2.866898007510121e-05,-0.008797524961339918,0.014730718126832973
6.767676767676767,2.329113924050633,0.015351134973198278,0.013865882926201795,1.9712497658249786e-06,-0.008765105369820022,0.014665027297051766
6.8686868686868685,2.329113924050633,0.015331412869145957,0.01389566553838392,-2.454965868961688e-06,-0.008768123522258963,0.014666341532191653
6.96969696969697,2.329113924050633,0.015423681943427421,0.013880810119063428,2.039685210406148e-05,-0.008791347618747255,0.01471308607854541
7.070707070707071,2.329113924050633,0.01534321108474217,0.013932971951617829,8.73701187736514e-05,-0.008782854910908,0.014689731267692518
7.171717171717171,2.329113924050633,0.015301919392395804,0.014012084638408792,2.180695331047381e-05,-0.00879420120924138,0.014699554074140806
7.2727272727272725,2.329113924050633,0.015518798345432952,0.013811468394204185,-2.9345329024188718e-05,-0.00879908002189114,0.014739570952756556
7.373737373737374,2.329113924050633,0.015619984598147974,0.013992635598033426,-1.9746213721518566e-06,-0.008883786058854419,0.01487323196196246
7.474747474747475,2.329113924050633,0.015778883661551488,0.014193029297193436,6.725497611593346e-05,-0.008991573887623477,0.015049208013905503
7.575757575757575,2.329113924050633,0.01564861599360431,0.013949567984318999,-1.4682837247069838e-05,-0.008879455193376993,0.01487208269067484
7.6767676767676765,2.329113924050633,0.015866081727941784,0.014180805667248525,4.5912032947734835e-05,-0.009014066218557092,0.015094379776250466
7.777777777777778,2.329113924050633,0.015812082585653895,0.014227337271992616,-6.56792953991013e-05,-0.009011825957293954,0.015082711657304954
7.878787878787879,2.329113924050633,0.01572178232507198,0.014439282339289186,9.970501827571153e-05,-0.00904831939930835,0.015122363682774649
7.979797979797979,2.329113924050633,0.015985437835331483,0.014341268797818914,4.283051002534917e-05,-0.009098011989945119,0.015230241496082568
8.080808080808081,2.329113924050633,0.016067312056211865,0.014420769482004726,-1.8959714372072245e-05,-0.009146424461464976,0.01531062324724407
8.181818181818182,2.329113924050633,0.01608553180247218,0.014456544880426915,6.620372199299743e-05,-0.009162623004869728,0.015336491111678225
8.282828282828282,2.329113924050633,0.01623964075184876,0.014644811950975046,5.660885917139843e-05,-0.00926533581084714,0.01550417935768038
8.383838383838384,2.329113924050633,0.016361575988761038,0.014902723192090623,6.488164148638455e-05,-0.009379289754255499,0.01568352378489672
8.484848484848484,2.329113924050633,0.01630792636214284,0.014733085852617005,7.551297247827874e-05,-0.009312303664427953,0.01558086353284335
8.585858585858587,2.329113924050633,0.0165013852276624,0.014943045641366004,9.749266410434872e-05,-0.00943332926070852,0.015780934361678427
8.686868686868687,2.329113924050633,0.01672314091191231,0.015023573129113477,-3.6663076353357316e-05,-0.009524014212307736,0.015941577513860255
8.787878787878787,2.329113924050633,0.01675084852721644,0.015001460829277814,4.0248171606364296e-05,-0.009525692806948276,0.015948429863213973
8.88888888888889,2.329113924050633,0.016858040508026997,0.015134938827877604,-0.00011394268709569211,-0.00959789380077138,0.016067154074534566
8.98989898989899,2.329113924050633,0.01695092253058209,0.015451756921117967,-5.805644868076923e-05,-0.009720803835510017,0.01625358864096039
9.09090909090909,2.329113924050633,0.017148913040281048,0.01536679808239261,-0.0001413532480134216,-0.009754713336802097,0.01633278175840876
9.191919191919192,2.329113924050633,0.017261102711812068,0.015753868791266522,-3.7436059311598376e-05,-0.009904491450923576,0.01655913964496089
9.292929292929292,2.329113924050633,0.01739956224247061,0.015676120679991995,-9.81825865510549e-05,-0.00992270487673878,0.016605926886873425
9.393939393939394,2.329113924050633,0.0176886751487856,0.015768729146406778,-2.98181172025363e-05,-0.010037221288557713,0.016811210170370475
9.494949494949495,2.329113924050633,0.01756877982504162,0.016030288674475243,8.240123009851787e-06,-0.01007972054985506,0.016852292751224286
9.595959595959595,2.329113924050633,0.017808083563374197,0.016184593583607777,4.091571754485101e-05,-0.010197803144094592,0.017054540069388145
9.696969696969697,2.329113924050633,0.018132054554428945,0.016157541002536562,3.1548572313309405e-05,-0.010286878667089652,0.01722994789972585
9.797979797979798,2.329113924050633,0.01831629625791705,0.016446601241185684,2.4154215382375383e-05,-0.01042886924973082,0.017456756013169674
9.8989898989899,2.329113924050633,0.018458270557644665,0.01648922801026279,-4.6212418355838434e-05,-0.010484249570372235,0.017556940713471535
10.0,2.329113924050633,0.01890877030633293,0.01685358026876986,8.556784770190351e-05,-0.010728705172530837,0.01797014885307558
0.0,2.430379746835443,0.01878306560221557,0.016839993478304796,3.2259503378170233e-06,-0.010686917724156109,0.017890842985808893
0.10101010101010101,2.430379746835443,0.018474486829595578,0.01687936609255029,3.489206161183159e-05,-0.010606155876643758,0.01773092465446698
0.20202020202020202,2.430379746835443,0.018390769746016743,0.0164322021156026,4.0570112093166366e-05,-0.0104468915584858,0.017494049573867923
0.30303030303030304,2.430379746835443,0.018062016806298806,0.01634058196274309,-1.0250473274454578e-05,-0.010320779630712568,0.017265790430008802
0.40404040404040403,2.430379746835443,0.017897312918206593,0.016076324766528226,-4.773509657656499e-06,-0.010192091305420444,0.017059867558952693
0.5050505050505051,2.430379746835443,0.017642419996761388,0.01595091063894579,-1.0610138619684299e-05,-0.010077999190712153,0.016860433163350032
0.6060606060606061,2.430379746835443,0.017579918723452267,0.016005036500358134,-1.699569521552581e-05,-0.01007548656714312,0.016847799898496194
0.7070707070707071,2.430379746835443,0.01733951109145915,0.015813946232211495,1.165481425026033e-05,-0.009946037197101193,0.016629307013132776
0.8080808080808081,2.430379746835443,0.017282150252733792,0.01561470436246766,-3.0447184136566924e-06,-0.009869056384560435,0.016511694963027873
0.9090909090909091,2.430379746835443,0.017186971495432943,0.015573717278731136,3.7903919169740205e-05,-0.009828206632249223,0.016439949338013633
1.0101010101010102,2.430379746835443,0.016822054186263063,0.015295457533174583,-4.906207242310218e-05,-0.009635253515831294,0.01611330922029428
1.1111111111111112,2.430379746835443,0.016917359817718264,0.015199521563789791,5.7481097426092226e-05,-0.009635064414452416,0.016127512388714623
1.2121212121212122,2.430379746835443,0.01658819987732801,0.015249396331788281,4.2115451577564065e-05,-0.009551278862734887,0.01596113249201419
1.3131313131313131,2.430379746835443,0.01671439089203662,0.014974370526524968,5.407920426420203e-05,-0.009506628425568478,0.015916153018111112
1.4141414141414141,2.430379746835443,0.016625046081442194,0.014855511325624349,-7.340624252883646e-05,-0.009444167222119961,0.015815213531067646
1.5151515151515151,2.430379746835443,0.01644465940061242,0.014804917081943236,-4.272299334217011e-05,-0.009374872944766697,0.01568936102908529
1.6161616161616161,2.430379746835443,0.01639041035320468,0.014675421921429182,-5.7577718539936455e-05,-0.009319749682390157,0.015604080181182752
1.7171717171717171,2.430379746835443,0.015973876172784885,0.014520469313119013,-0.00012920794923994557,-0.00914830364577117,0.015300674964218084
1.8181818181818181,2.430379746835443,0.016158380702637334,0.014442166498572476,0.00011018294435745608,-0.009180164160362943,0.01537347834722919
1.9191919191919191,2.430379746835443,0.015984784568737784,0.014459113764827457,1.7039257148194103e-05,-0.009133169500069573,0.015279213363141276
2.0202020202020203,2.430379746835443,0.0158439476487799,0.014412285673454223,-4.7407787492768954e-05,-0.009076869996670235,0.01517906117702961
2.121212121212121,2.430379746835443,0.015861479224310516,0.014281034773439052,5.984642233377035e-05,-0.00904275419932487,0.015133634256372408
2.2222222222222223,2.430379746835443,0.015915065587542708,0.014182041210931957,-3.000947106500825e-05,-0.0090291320395424,0.015123299614574976
2.323232323232323,2.430379746835443,0.015746174258795955,0.01425028697290113,6.353291298224762e-05,-0.008998938369509126,0.015054477406351538
2.4242424242424243,2.430379746835443,0.015807988827505948,0.014301343384115825,-7.217223153501719e-05,-0.00903279966348653,0.015111620807164647
2.525252525252525,2.430379746835443,0.015565319510385645,0.014007468143948596,3.6837710407406433e-06,-0.008871836296300272,0.014847816633516373
2.6262626262626263,2.430379746835443,0.015472046475174544,0.013946263622099159,-3.7271311876750624e-05,-0.00882549302918211,0.014768528013412854
2.727272727272727,2.430379746835443,0.015478676324367101,0.013979558261954671,4.934180838628223e-05,-0.008837470375896531,0.014786470718249298
2.8282828282828283,2.430379746835443,0.015471161428293991,0.013938945099653429,-0.00010446173195040856,-0.008823031958384226,0.01476590984040417
2.929292929292929,2.430379746835443,0.015546079561436957,0.013954802745048055,6.736066258709919e-05,-0.008850264691945503,0.014815135774661167
3.0303030303030303,2.430379746835443,0.015569256436436626,0.01395956389175381,-1.1053474891290597e-05,-0.008858646098457131,0.014830087882337896
3.131313131313131,2.430379746835443,0.015462395585324352,0.013778941715271944,2.108766812774112e-05,-0.008772401190178889,0.014693222878269359
3.2323232323232323,2.430379746835443,0.015314862406388543,0.013778521278993944,-5.034913130395464e-05,-0.008728015105614747,0.014607672871339987
3.3333333333333335,2.430379746835443,0.015338443874459198,0.013736761062230346,3.968162868635393e-05,-0.008722561481006863,0.014603788902056603
3.4343434343434343,2.430379746835443,0.015287723557623143,0.013639772319782044,1.8300154480068753e-05,-0.008678248763221557,0.014534022725419553
3.5353535353535355,2.430379746835443,0.015304231346696827,0.013794495177288183,9.862796114378251e-05,-0.008729617957195502,0.01460899145148257
3.6363636363636362,2.430379746835443,0.015130467305295126,0.013600252320464235,1.7764479141948602e-05,-0.00861921588772781,0.014426388241985826
3.7373737373737375,2.430379746835443,0.015149795377063941,0.013712497994441594,3.090983515043306e-05,-0.00865868801145166,0.014484827535873874
3.8383838383838382,2.430379746835443,0.015116412495897487,0.013605225103509744,-1.3493529321003916e-05,-0.00861649127982217,0.014420347718592125
3.9393939393939394,2.430379746835443,0.015286903017292476,0.013635607899092364,4.202616286822813e-05,-0.008676753274915452,0.014531974734967716
4.040404040404041,2.430379746835443,0.015182536915798557,0.013621942742585144,-1.9786983142620493e-05,-0.00864134389751511,0.014465554856339474
4.141414141414141,2.430379746835443,0.015123716625923125,0.01375357935644572,-1.3325443270497827e-05,-0.008663188794710652,0.01448734087465872
4.242424242424242,2.430379746835443,0.014920052625566537,0.013575640603092833,-6.626375986007274e-05,-0.00854870796859781,0.014295799682693764
4.343434343434343,2.430379746835443,0.014995324330268844,0.01363058973333657,2.4625072962522724e-05,-0.008587774219081624,0.014361735047233455
4.444444444444445,2.430379746835443,0.014988644888297653,0.013657939516827306,-1.8605601303048913e-05,-0.008593975321537486,0.014369614490807738
4.545454545454545,2.430379746835443,0.014961594675139703,0.013593876317824364,-2.1458665011711866e-05,-0.008566641297889218,0.01432683155687671
4.646464646464646,2.430379746835443,0.01510396076013346,0.013558471776875919,1.751586363463329e-05,-0.008598729761102812,0.014393612552070376
4.747474747474747,2.430379746835443,0.014990313042857617,0.013628374374552521,-9.379286432824397e-05,-0.00858560622522304,0.014358790561193603
4.848484848484849,2.430379746835443,0.015117290535220346,0.013481199300414167,-2.670394103658036e-05,-0.008579546950690353,0.01436934725092203
4.94949494949495,2.430379746835443,0.015078168551642367,0.013535140323013905,4.520891554944199e-05,-0.00858399266239688,0.01436914036444124
5.05050505050505,2.430379746835443,0.014937225376628052,0.013406742663262783,2.8172988859027015e-05,-0.00850319041196725,0.014233913559363232
5.151515151515151,2.430379746835443,0.014845849917891497,0.013416754906094603,5.309067332914083e-05,-0.008478781447195828,0.014185693431501377
5.252525252525253,2.430379746835443,0.014845164503257055,0.013443790690844792,4.0799904066103e-06,-0.008486686558230554,0.014196449656658061
5.353535353535354,2.430379746835443,0.015132407242377126,0.013529087937296281,-7.849706920567155e-05,-0.008598448553902021,0.014398499451288866
5.454545454545454,2.430379746835443,0.015009627124300672,0.013697249058083756,-3.267451206701864e-05,-0.008612062854715328,0.01439847700454529
5.555555555555555,2.430379746835443,0.015049268203277785,0.01342205508727327,1.6175311108826238e-05,-0.008541396987165316,0.014305268759953796
5.656565656565657,2.430379746835443,0.015092088758414071,0.013574724005640849,-7.37563493532397e-06,-0.008600043829216475,0.014393522798711806
5.757575757575758,2.430379746835443,0.01497595380585271,0.013607663869967366,-1.5381849089366045e-05,-0.008575085302746022,0.014340874194925898
5.858585858585858,2.430379746835443,0.014958306581187918,0.01356795758139928,-4.9537278544438014e-05,-0.008557879248776159,0.014314122444293727
5.959595959595959,2.430379746835443,0.015068531181030444,0.013716291542235654,-1.592370101245861e-05,-0.008635446816979829,0.014440002753662194
6.0606060606060606,2.430379746835443,0.015244277973084709,0.013583120245623057,1.8753142419464556e-05,-0.008648219465612329,0.014485349868148506
6.161616161616162,2.430379746835443,0.015154416798217238,0.013761068912480922,-3.681202241943996e-05,-0.008674645713209446,0.014508151418922935
6.262626262626262,2.430379746835443,0.01508876159285594,0.013661379803465903,-4.841694210790087e-05,-0.008625042418896552,0.014428366305908845
6.363636363636363,2.430379746835443,0.015432484411194136,0.013509369743866117,1.2915694136784273e-05,-0.008682556246518076,0.014566468633352038
6.4646464646464645,2.430379746835443,0.015221372381568331,0.013546302665081784,-5.921900079005e-06,-0.008630302513995033,0.014456807428351301
6.565656565656566,2.430379746835443,0.01538309911813195,0.013501415427170949,2.7042279367011623e-05,-0.00866535436359087,0.014533978777977323
6.666666666666667,2.430379746835443,0.015343884241127002,0.01387744053426425,-1.3022072884140238e-05,-0.008766397432617375,0.014665769907830214
6.767676767676767,2.430379746835443,0.015362331196654162,0.013813586152046064,-4.030056173992961e-05,-0.008752775204610068,0.014649654231423859
6.8686868686868685,2.430379746835443,0.015349331585038336,0.013897728662980105,5.4280785503478704e-05,-0.008774118074405531,0.014677766716409064
6.96969696969697,2.430379746835443,0.015255916427805565,0.013956061321882601,-2.5825524070708957e-06,-0.008763593324906449,0.014649305392853801
7.070707070707071,2.430379746835443,0.015481943090306536,0.013977480841816927,9.946275876936954e-06,-0.008837827179637039,0.014787233222655329
7.171717171717171,2.430379746835443,0.015260845209276435,0.014033139103944822,-2.002679816026502e-05,-0.008788195293966376,0.014685572142907756
7.2727272727272725,2.430379746835443,0.015606567427115227,0.013978381944371964,8.14140714504514e-06,-0.008875484811446156,0.01485953388066254
7.373737373737374,2.430379746835443,0.015552017825353716,0.01414589173572392,-8.556938550131817e-05,-0.00890937286832329,0.014899540844222181
7.474747474747475,2.430379746835443,0.01575965658908092,0.01402856381465016,-6.425629174235333e-05,-0.008936466121119323,0.01496978346415423
7.575757575757575,2.430379746835443,0.01568890479905862,0.014013070884970058,-7.559381005262053e-05,-0.008910592705208603,0.014922308723408707
7.6767676767676765,2.430379746835443,0.015678318829862304,0.014199026974777906,-1.2453091970323643e-05,-0.008963203741392062,0.014993519987494637
7.777777777777778,2.430379746835443,0.01592822769834348,0.014441053013609541,-5.546887638850783e-05,-0.009110784213585906,0.01523946519849955
7.878787878787879,2.430379746835443,0.016026331775815417,0.014410337518289228,-6.323925529721153e-06,-0.009131000788231392,0.015282552387806287
7.979797979797979,2.430379746835443,0.015951035412648515,0.014315768356587785,-4.031133449833928e-06,-0.00908004113077089,0.015199522200054612
8.080808080808081,2.430379746835443,0.015915155047171167,0.01439505614776513,7.73128009855626e-05,-0.00909306335848089,0.015212763817793948
8.181818181818182,2.430379746835443,0.01605289646667018,0.014567512351496599,-1.0574577546316421e-05,-0.009186122645450033,0.015364161838193282
8.282828282828282,2.430379746835443,0.016102360229851672,0.014597507309049023,4.028733435852733e-05,-0.009209960261670208,0.015405316376802442
8.383838383838384,2.430379746835443,0.016350096293354936,0.014819500004145912,1.1072907426826137e-05,-0.009350878889250253,0.015641078764443858
8.484848484848484,2.430379746835443,0.016456938458404645,0.01468352103027184,-4.447677432761396e-05,-0.009342137846602944,0.01564598178040109
8.585858585858587,2.430379746835443,0.01659578118356204,0.014983629276436476,2.5413854228373918e-05,-0.009473823137999554,0.01585137231191554
8.686868686868687,2.430379746835443,0.016780567583170012,0.014914259469712761,-0.00012136354196914871,-0.009508448115864833,0.015931008514427532
8.787878787878787,2.430379746835443,0.016701922396340548,0.015054974860950253,3.8991964347980796e-05,-0.00952706917718724,0.01594252235722529
8.88888888888889,2.430379746835443,0.016890365366043603,0.01519011601713636,5.989747824046402e-05,-0.009624144414953987,0.01610801727259387
8.98989898989899,2.430379746835443,0.016764609347448275,0.015140632147536592,2.6939810538715136e-05,-0.00957157244849546,0.016014564072520873
9.09090909090909,2.430379746835443,0.017102174827883742,0.015304876867750089,9.777431140899316e-05,-0.00972211550869015,0.016278993805420246
9.191919191919192,2.430379746835443,0.01727582512842856,0.01563437229855106,9.828807569776972e-06,-0.009873059228093886,0.016516396066684865
9.292929292929292,2.430379746835443,0.01752761579248954,0.01572048894702648,-1.1116637825818366e-05,-0.009974431421854805,0.016697567742280952
9.393939393939394,2.430379746835443,0.017616738725444905,0.015833962524117912,1.5970358756584737e-05,-0.010035210374868844,0.016796482873416257
9.494949494949495,2.430379746835443,0.01758375266372568,0.015806854692473133,1.8944688161824058e-05,-0.010017182206859642,0.016766104687964026
9.595959595959595,2.430379746835443,0.01798945602951511,0.01605590555860565,6.786888553042978e-05,-0.010213608476436226,0.017105246067829812
9.696969696969697,2.430379746835443,0.018069209266230974,0.016256567648256913,5.804178054229498e-05,-0.010297733074346367,0.01723482227837211
9.797979797979798,2.430379746835443,0.018266704230110505,0.01671183596770195,4.88340911049912e-05,-0.010493562059343736,0.01754123525818355
9.8989898989899,2.430379746835443,0.018594388739885736,0.016489842360303385,-7.860370896331266e-05,-0.010525269330056736,0.017637068639655445
10.0,2.430379746835443,0.018801659382585698,0.016732100405249094,4.318932814979036e-05,-0.010660127936350438,0.01785720926935646
0.0,2.5316455696202533,0.02917233132881613,0.02601581954648889,3.687313014152185e-06,-0.016556445262591507,0.027729149193973974
0.10101010101010101,2.5316455696202533,0.028948062901524324,0.025852304592330764,2.6603436229541912e-05,-0.016440110248156524,0.027531073030769352
0.20202020202020202,2.5316455696202533,0.028320887226986235,0.025716442431068066,6.609754680315645e-05,-0.01621119889741629,0.02711288817742639
0.30303030303030304,2.5316455696202533,0.02821845884376592,0.025442968758758094,2.8815761469061265e-05,-0.016098428280757204,0.026938210835884057
0.40404040404040403,2.5316455696202533,0.027859436636249974,0.024957560149779113,-2.152983894557402e-05,-0.015845099035808725,0.026527831485683037
0.5050505050505051,2.5316455696202533,0.027509034087237916,0.024821436571238146,-9.773815356387322e-06,-0.01569914119754282,0.02626855937661622
0.6060606060606061,2.5316455696202533,0.027248796488039236,0.02451790802780497,-2.3379613017193313e-05,-0.015530011354753263,0.025991207701129945
0.7070707070707071,2.5316455696202533,0.027061574788557884,0.024273831914182514,-6.989817320646721e-06,-0.015400622010822117,0.025780996386036023
0.8080808080808081,2.5316455696202533,0.026830980764669974,0.024121459676925645,5.446651995654449e-06,-0.015285732132478686,0.025584057812050445
0.9090909090909091,2.5316455696202533,0.026669135578100047,0.024091310577479475,-1.4153393443686474e-05,-0.015228133846673856,0.02547823013347627
1.0101010101010102,2.5316455696202533,0.026263548506531516,0.023752409007781118,5.2671458388000894e-05,-0.01500478725429379,0.025102523589324764
1.1111111111111112,2.5316455696202533,0.026211201532009346,0.023644560947696118,6.632418856758292e-05,-0.01495672874391164,0.025027049221171722
1.2121212121212122,2.5316455696202533,0.02610359479651854,0.023491881879338875,0.00010842837875228367,-0.014878643002757222,0.024901383095877586
1.3131313131313131,2.5316455696202533,0.026039162898851085,0.02319750309853139,-6.179375192507235e-05,-0.014770999799214741,0.024741262050537064
1.4141414141414141,2.5316455696202533,0.025634576514731517,0.02299592559265876,6.675480277383197e-05,-0.014589150632217083,0.02442266695984939
1.5151515151515151,2.5316455696202533,0.025563486278165796,0.023067706055944312,-1.2087097333150318e-05,-0.01458935770023303,0.024411479767545683
1.6161616161616161,2.5316455696202533,0.025355030938771794,0.022831761779174734,1.3497251666812716e-05,-0.014456037815383958,0.02419230166968046
1.7171717171717171,2.5316455696202533,0.025227449071620976,0.022800129780367957,6.469324448357905e-05,-0.014408273655596679,0.024105882009375138
1.8181818181818181,2.5316455696202533,0.02511205717760083,0.022630806289700975,2.1632786110057744e-05,-0.01432285904019054,0.023967980962592315
1.9191919191919191,2.5316455696202533,0.02509088928391494,0.022594357228374086,-3.3678479765572754e-05,-0.014305573953686706,0.023940521938393456
2.0202020202020203,2.5316455696202533,0.024864503357647047,0.02238367505658187,8.129089117697252e-06,-0.014174453524268674,0.02372158660179576
2.121212121212121,2.5316455696202533,0.024675379305933647,0.022290788545376666,6.568664642896531e-05,-0.014089850355393094,0.02357398735232165
2.2222222222222223,2.5316455696202533,0.02465520175201629,0.022055857435295166,2.2719926502926104e-05,-0.014013317756193437,0.02346379667366222
2.323232323232323,2.5316455696202533,0.024642420787665507,0.02230698210643759,3.884306528951339e-05,-0.01408482086823093,0.023561766482050942
2.4242424242424243,2.5316455696202533,0.024660164962580607,0.022098466607359077,-7.418402535985329e-05,-0.014027589470981906,0.023484689485482966
2.525252525252525,2.5316455696202533,0.02439344799070057,0.021847950830802345,6.455196107505122e-05,-0.013872419646450872,0.02322582418241915
2.6262626262626263,2.5316455696202533,0.02428696645511081,0.0220604567526133,2.8529891654519514e-05,-0.013904226962317233,0.023253846143264364
2.727272727272727,2.5316455696202533,0.024238336305235475,0.02183950102609577,-1.6400365729995527e-06,-0.013823351199399373,0.023132392642669926
2.8282828282828283,2.5316455696202533,0.024163937962483097,0.02171870378046941,6.008390841901919e-05,-0.013764792522885752,0.023039084426466492
2.929292929292929,2.5316455696202533,0.024145636379865422,0.02171489606123616,3.795813124627348e-05,-0.013758159732330475,0.023026784518837475
3.0303030303030303,2.5316455696202533,0.02406522657891591,0.021650922909919657,-4.0839406438420835e-05,-0.01371484484665067,0.022953610418566868
3.131313131313131,2.5316455696202533,0.024011187362201578,0.021429848485203275,-8.154084277189411e-05,-0.013632310754221456,0.022830667187947663
3.2323232323232323,2.5316455696202533,0.02391327127908728,0.021516645717927118,-4.046907342907391e-05,-0.01362897509910432,0.022809693408437602
3.3333333333333335,2.5316455696202533,0.02390129215553139,0.021406165558237097,-6.900806393815276e-05,-0.013592237314130545,0.022756866216864954
3.4343434343434343,2.5316455696202533,0.023718613236170784,0.021318497486145026,-3.177050418019869e-05,-0.013511133216694742,0.022614348992586148
3.5353535353535355,2.5316455696202533,0.02385566543526294,0.021390235498242694,2.1721169070324314e-05,-0.013573770280051689,0.022723513412971057
3.6363636363636362,2.5316455696202533,0.023597032617226846,0.02113497667414711,-4.937929342202991e-05,-0.013419602787412187,0.02246757148324867
3.7373737373737375,2.5316455696202533,0.023446569635209625,0.021280706898441408,5.7877758727207935e-05,-0.013418182960095311,0.0224423837209905
3.8383838383838382,2.5316455696202533,0.023519784246616632,0.02107987498516187,6.560952311210318e-05,-0.01337989776953355,0.02240000407654784
3.9393939393939394,2.5316455696202533,0.02361213788694011,0.021430045133500844,2.8562616063422687e-05,-0.013512654906132286,0.022600291079304554
4.040404040404041,2.5316455696202533,0.02336477324960006,0.021254566629795198,2.287172048164627e-05,-0.013385801963818578,0.022384429212038055
4.141414141414141,2.5316455696202533,0.023530770850892897,0.021123013625786547,1.546459570337932e-05,-0.013396135343003834,0.022424067553075296
4.242424242424242,2.5316455696202533,0.02351972061484927,0.02129953739490914,-2.657200316645677e-05,-0.013445777402927522,0.022492009703402628
4.343434343434343,2.5316455696202533,0.023609722444723407,0.021293301423650768,9.773888925851427e-05,-0.013470907160512254,0.022541592702436004
4.444444444444445,2.5316455696202533,0.023386367003607075,0.021060313873896522,-5.6933773834074646e-06,-0.013334004263251079,0.02231445383315434
4.545454545454545,2.5316455696202533,0.023591746659786476,0.02103071720848571,7.58860287565064e-05,-0.013386739160481656,0.022421585590111995
4.646464646464646,2.5316455696202533,0.023363050516975886,0.021022080988665686,5.959540590401694e-06,-0.013315539451692471,0.022284976665704715
4.747474747474747,2.5316455696202533,0.02348945469296018,0.02123732104191842,5.971507691180025e-05,-0.01341803272046358,0.022448516522643073
4.848484848484849,2.5316455696202533,0.023418992506435858,0.021209185493320848,-6.505992515748158e-05,-0.013388453399927011,0.022396287673462443
4.94949494949495,2.5316455696202533,0.023290623647980277,0.020920590929483677,2.6899197281976628e-05,-0.013263364373239184,0.022200739528654034
5.05050505050505,2.5316455696202533,0.023380478628184667,0.02105731995609231,6.86861964503668e-06,-0.013331339575283091,0.022309805623308063
5.151515151515151,2.5316455696202533,0.02356709145884355,0.02111632760791993,-5.222851552879496e-05,-0.013405025720029043,0.022442478715980752
5.252525252525253,2.5316455696202533,0.02339748287711847,0.02098643320376812,-6.193337600005266e-05,-0.013315174824265976,0.02229023057963973
5.353535353535354,2.5316455696202533,0.023393788842229108,0.021018518180411484,-4.6147078412682215e-05,-0.013323692106792179,0.02230136936299046
5.454545454545454,2.5316455696202533,0.023588802131776495,0.021223100135863954,3.955086937326494e-05,-0.013443570680292135,0.022499527738933604
5.555555555555555,2.5316455696202533,0.023578168657555697,0.021228815535588235,6.661757318596893e-05,-0.01344209525794318,0.02249598557283294
5.656565656565657,2.5316455696202533,0.02366239682878278,0.0210765622601572,2.0791443945335027e-05,-0.013421687726681994,0.022481321519321536
5.757575757575758,2.5316455696202533,0.023525820400888676,0.021148672274919754,-3.454404975053947e-05,-0.013402347802742529,0.022431992304383776
5.858585858585858,2.5316455696202533,0.023682735995938644,0.021132056123581905,9.141549861498267e-05,-0.013444437635856165,0.022516570440845464
5.959595959595959,2.5316455696202533,0.023672005411794077,0.021248917490503436,2.946766817342278e-05,-0.013476276870689254,0.022558334378554427
6.0606060606060606,2.5316455696202533,0.02370181582772604,0.021361529655905504,2.571274290838619e-05,-0.013519003645089463,0.02262268694262992
6.161616161616162,2.5316455696202533,0.023619687790896068,0.02138154431763041,1.149046055733417e-05,-0.013500369632557943,0.02258395633117925
6.262626262626262,2.5316455696202533,0.02366000068562199,0.02133800123492545,6.257390564755261e-05,-0.01349940057616423,0.0225889475580023
6.363636363636363,2.5316455696202533,0.023646887347122267,0.021369206140700845,-9.317140676109687e-05,-0.013504828046346931,0.022594890677270055
6.4646464646464645,2.5316455696202533,0.023761843060658806,0.021471288816792423,-2.907253129894147e-05,-0.01356993956323537,0.022703448406685332
6.565656565656566,2.5316455696202533,0.023717253112481056,0.02150401034001662,1.5098671662271005e-05,-0.013566379035749303,0.02269174263134297
6.666666666666667,2.5316455696202533,0.02380539634475536,0.021402584231000974,6.865959348608602e-05,-0.013562394172726899,0.02269988213393028
6.767676767676767,2.5316455696202533,0.023995337602989147,0.02149401548455376,0.00010439463239598241,-0.013646805926262872,0.02284831427159862
6.8686868686868685,2.5316455696202533,0.024112317421314557,0.021539736182274637,-8.204597166971754e-05,-0.013695616081076757,0.022934936774585673
6.96969696969697,2.5316455696202533,0.02397831772262675,0.021656090180130247,1.3725808144267965e-05,-0.013690322370827098,0.02290567433894006
7.070707070707071,2.5316455696202533,0.024172343742206653,0.021888381457348838,-7.905182871634076e-05,-0.013818217559866649,0.023115551298662586
7.171717171717171,2.5316455696202533,0.024032268195205243,0.021796081238626305,7.069365773306744e-05,-0.013748504830149463,0.02299619087622238
7.2727272727272725,2.5316455696202533,0.024336971864648095,0.02196669263417754,3.699855328982159e-05,-0.01389109934964769,0.023242743188070295
7.373737373737374,2.5316455696202533,0.02431634744876028,0.02198547979669051,-0.00013502622094486072,-0.013890548173635235,0.023239926975283706
7.474747474747475,2.5316455696202533,0.024484966548150973,0.022043714902003693,4.149976190801782e-05,-0.0139586044350464,0.02336031888187894
7.575757575757575,2.5316455696202533,0.024389013441043748,0.02200357115192708,4.7460353867283034e-05,-0.013917775377891248,0.02328824778607411
7.6767676767676765,2.5316455696202533,0.024720711221796886,0.022323972431614724,2.0021626325738794e-05,-0.014113405096023482,0.023613767916836743
7.777777777777778,2.5316455696202533,0.02481975462388431,0.022186536647761275,6.949563609960234e-05,-0.014101887381493676,0.023613824793780012
7.878787878787879,2.5316455696202533,0.02474933321895018,0.022370507156672055,3.837960468776682e-05,-0.014135952112686671,0.023649912649186
7.979797979797979,2.5316455696202533,0.024833280629510113,0.022360689640561395,5.72259417159196e-06,-0.014158191081021452,0.02369394617526433
8.080808080808081,2.5316455696202533,0.025026913031788667,0.02258651708860126,1.0597177962325986e-05,-0.014284029036116978,0.023900348703052434
8.181818181818182,2.5316455696202533,0.024948614331811694,0.022646007316275932,-3.1784174825938054e-05,-0.014278386494426289,0.023880777467629836
8.282828282828282,2.5316455696202533,0.02519354792220584,0.022682404839486914,6.631643855207991e-05,-0.014362785828507824,0.02403683187332392
8.383838383838384,2.5316455696202533,0.02541138846721171,0.02300538963167884,5.75026890318843e-05,-0.014525033429667164,0.02429809957269248
8.484848484848484,2.5316455696202533,0.025562994073000143,0.0231870350143796,-0.00012196145951305275,-0.014625008726213922,0.024462621361663047
8.585858585858587,2.5316455696202533,0.025771904480178257,0.02314282014654481,-7.880845617882882e-05,-0.01467441738801692,0.0245634946001246
8.686868686868687,2.5316455696202533,0.0259918389272097,0.023363538459264102,9.107502993812875e-07,-0.01480661321594214,0.024782439231057603
8.787878787878787,2.5316455696202533,0.02611668885881992,0.02328586954984184,0.00012711267960549436,-0.014820767522598526,0.02482361417481993
8.88888888888889,2.5316455696202533,0.02633027509943196,0.02361991791659612,2.9983916660779858e-05,-0.014985057904808422,0.025085208185986866
8.98989898989899,2.5316455696202533,0.026571306828241957,0.02371569356707782,3.942721392880616e-05,-0.015086100118595932,0.02526491957296361
9.09090909090909,2.5316455696202533,0.02661382965328425,0.02380956008546176,4.1207183143386545e-05,-0.015127016921623802,0.025328493799256176
9.191919191919192,2.5316455696202533,0.026678066474315785,0.024252976407489836,-2.1237441508354433e-05,-0.015279312864541686,0.025552004455971937
9.292929292929292,2.5316455696202533,0.027189256827207266,0.024365983432183245,-2.8717201719726534e-06,-0.015466572077817153,0.025893317261187068
9.393939393939394,2.5316455696202533,0.02725897089705902,0.024476338226270513,-2.3075549112631316e-05,-0.01552059273699886,0.025979692711807063
9.494949494949495,2.5316455696202533,0.027757008811963375,0.024802015944203795,7.5697518717416345e-06,-0.015767707426850148,0.026403824152377266
9.595959595959595,2.5316455696202533,0.027750353147307266,0.02523439782769578,-1.3904160979033708e-05,-0.015895425292500914,0.02658183707582228
9.696969696969697,2.5316455696202533,0.028267078722412877,0.025216307959476162,8.60396561561603e-05,-0.01604501600456671,0.026872304941973308
9.797979797979798,2.5316455696202533,0.028593875058034065,0.02541973451448637,4.84421018496108e-06,-0.01620408287175613,0.027146343240019084
9.8989898989899,2.5316455696202533,0.02886078794685815,0.025884405464190012,2.367923233219403e-05,-0.01642355802331445,0.027493724229972004
10.0,2.5316455696202533,0.029145373337788015,0.026245104091180513,-4.980037680012845e-05,-0.016617143228690557,0.027809033765342682
0.0,2.632911392405063,0.029002402102509227,0.026025058630458016,1.928994942246086e-05,-0.016508238219890174,0.02763430667845556
0.10101010101010101,2.632911392405063,0.028628275567900804,0.02581105088463061,-5.223255660478971e-05,-0.016331797935759423,0.027328937356916213
0.20202020202020202,2.632911392405063,0.02844120252072784,0.025580876310406238,-6.549154634697545e-05,-0.016206623649340224,0.02712462381784003
0.30303030303030304,2.632911392405063,0.028261365971189837,0.02531010518296692,3.0546826868010994e-05,-0.016071441346247026,0.026907450360655394
0.40404040404040403,2.632911392405063,0.027836860419912228,0.024897829739649723,-5.5123710894175795e-05,-0.015820407047868582,0.026490081699220965
0.5050505050505051,2.632911392405063,0.0276509636826302,0.024935160030823533,1.9546733640393846e-05,-0.015775837114036118,0.026398066977194146
0.6060606060606061,2.632911392405063,0.02748863422256936,0.024565426666816895,9.906166816595864e-06,-0.015616218266815876,0.02614986548676517
0.7070707070707071,2.632911392405063,0.027170012329290335,0.02442009466592064,1.1893290051571248e-05,-0.015477032098563293,0.02590476297250871
0.8080808080808081,2.632911392405063,0.026915027639336973,0.024222060462537054,-1.1153967858770386e-05,-0.015341126430562207,0.025674693226583934
0.9090909090909091,2.632911392405063,0.02660722800048134,0.024202499017253628,-1.591269235736012e-05,-0.01524291810532049,0.025490093971141076
1.0101010101010102,2.632911392405063,0.026500101613289976,0.023882909497890074,-1.0515652450561064e-05,-0.015114903333354014,0.025293270939537378
1.1111111111111112,2.632911392405063,0.02618364844496736,0.02349739084565127,1.8671407917721775e-05,-0.014904311787185587,0.024949237403793154
1.2121212121212122,2.632911392405063,0.025894417281527655,0.02362443481728941,2.1489295102380466e-05,-0.01485565562964512,0.02483737463896906
1.3131313131313131,2.632911392405063,0.025952655970710507,0.023194681729453256,4.339392857580049e-06,-0.014744201310049127,0.024689472932427185
1.4141414141414141,2.632911392405063,0.02578365712008255,0.0230347863980126,2.3589652499923166e-05,-0.014645533055428546,0.024525068684561654
1.5151515151515151,2.632911392405063,0.025496551609025014,0.02306119491205143,-2.1607554999636585e-06,-0.014567323956322932,0.02437030821489526
1.6161616161616161,2.632911392405063,0.025378909228596355,0.022845711611579087,2.197464266453798e-05,-0.014467386252052631,0.02421193466195087
1.7171717171717171,2.632911392405063,0.02513526839772922,0.022973500145261328,-3.62531882313435e-05,-0.014432630562897165,0.024127210303820115
1.8181818181818181,2.632911392405063,0.02504289782339039,0.02267237502852362,4.033025680202781e-05,-0.014314581855574202,0.02394590213716595
1.9191919191919191,2.632911392405063,0.025005325779765435,0.022513144234524236,4.4548178234367624e-06,-0.0142555410042869,0.02385706466231277
2.0202020202020203,2.632911392405063,0.024925029915194456,0.022343467755163143,2.4332482499172076e-05,-0.014180549301107279,0.023739794472611663
2.121212121212121,2.632911392405063,0.02461058875719535,0.0222637403694655,-1.8470189157943416e-05,-0.014062298737998255,0.023525145679220278
2.2222222222222223,2.632911392405063,0.024755968093910435,0.022223613669696985,-4.186549726272294e-06,-0.014093874529082225,0.02359194655915106
2.323232323232323,2.632911392405063,0.02453407206875703,0.022115890097613142,1.4590752573331236e-05,-0.01399498864991105,0.023418819018799775
2.4242424242424243,2.632911392405063,0.02447581754843505,0.02199947462088286,9.27289771504156e-06,-0.013942587650795372,0.023336402019953507
2.525252525252525,2.632911392405063,0.024302394887024476,0.0220425609935778,0.00011098540299840058,-0.013903486764180684,0.02325576969468559
2.6262626262626263,2.632911392405063,0.02420282680478583,0.021763236125528686,-5.297177850994283e-05,-0.013789818879094353,0.02308011818358179
2.727272727272727,2.632911392405063,0.024280805408153076,0.02179217429366219,-8.735480804461408e-05,-0.013821893910544579,0.023137582433271738
2.8282828282828283,2.632911392405063,0.024160473981737027,0.021669572989799754,-9.815168089961928e-05,-0.013749014091461034,0.02301696425301201
2.929292929292929,2.632911392405063,0.024309172162112033,0.02166838537388994,2.911287588868914e-05,-0.013793267260800593,0.02310231174727665
3.0303030303030303,2.632911392405063,0.02403384040250992,0.02155368520362393,-1.5517979643271517e-05,-0.013676257681840154,0.022894753165375575
3.131313131313131,2.632911392405063,0.02389126557639772,0.021461748772523836,1.0810646115323051e-06,-0.013605904304676467,0.022773908207962518
3.2323232323232323,2.632911392405063,0.023937924883834887,0.021308149588861677,1.528091751890968e-05,-0.013573822341808968,0.022737398771474716
3.3333333333333335,2.632911392405063,0.023725327473866784,0.02128814324139736,-1.3081996725501333e-05,-0.013504041214579241,0.02260549822745893
3.4343434343434343,2.632911392405063,0.023891815170929028,0.021321640440077037,-0.0001494423016700015,-0.01356403668330182,0.0227175150420776
3.5353535353535355,2.632911392405063,0.023922926743464967,0.02130820789864426,4.5333620828558844e-05,-0.013569340392632767,0.022728783879538764
3.6363636363636362,2.632911392405063,0.02379704376617853,0.02134669095889835,-4.541442310486688e-05,-0.013543120417523064,0.022671536236029865
3.7373737373737375,2.632911392405063,0.023735508506796874,0.021347353471028462,-1.3426695772800112e-05,-0.013524858593347601,0.022636124120806105
3.8383838383838382,2.632911392405063,0.023741242582596613,0.02125729884543722,4.353244655248183e-05,-0.013499562428410149,0.022601998810975944
3.9393939393939394,2.632911392405063,0.023593911896315062,0.021259864203248116,-3.928172911682283e-05,-0.013456132829868952,0.02251789889699518
4.040404040404041,2.632911392405063,0.023752110423804488,0.021106000254317834,-5.628089371009981e-05,-0.013457433203436696,0.0225460295904058
4.141414141414141,2.632911392405063,0.02336648230993182,0.021143159730378874,3.8610671480455065e-05,-0.013352892612093208,0.02233805952764401
4.242424242424242,2.632911392405063,0.023399421388717555,0.021156831706978404,5.617042460554007e-05,-0.013366875928708786,0.02236283287493363
4.343434343434343,2.632911392405063,0.02342315895553927,0.020903456936513253,3.914683599044156e-05,-0.013297984767615756,0.02227057453756431
4.444444444444445,2.632911392405063,0.023567451035733836,0.021039178554849616,-3.575981658703768e-05,-0.013381988877175035,0.02241061820777203
4.545454545454545,2.632911392405063,0.023386900601029444,0.021225392326366065,-6.0053345035151074e-05,-0.01338368787821865,0.02238479568342683
4.646464646464646,2.632911392405063,0.023460771201412736,0.021161778329648107,6.259838049613666e-05,-0.013386764859318253,0.022400195613052922
4.747474747474747,2.632911392405063,0.023342341635609238,0.021224955183941394,-4.2050798272486144e-05,-0.013370189045865188,0.022359087309160627
4.848484848484849,2.632911392405063,0.023265333788660015,0.0211294981876682,-3.316334860998915e-05,-0.013318449592898464,0.022274423028678537
4.94949494949495,2.632911392405063,0.023388429925980808,0.02105582895727223,5.691506789628728e-05,-0.013333277664975912,0.02231397600954792
5.05050505050505,2.632911392405063,0.023473247180759643,0.02094968693611876,2.4059940185803114e-05,-0.013326880235063522,0.022318765036657917
5.151515151515151,2.632911392405063,0.02347639211106819,0.02111346542480099,4.3327864491230656e-05,-0.013376957260760753,0.022388770568575373
5.252525252525253,2.632911392405063,0.023384497366117547,0.020996573269159814,-5.704061464830698e-05,-0.013314321190583208,0.022286907697079722
5.353535353535354,2.632911392405063,0.02347795760021769,0.02116184404309,1.5841883668671586e-06,-0.013391940492992306,0.022409847539074317
5.454545454545454,2.632911392405063,0.02348428203233669,0.021001459345555067,-5.820151296858813e-05,-0.013345722413367527,0.022346784222880958
5.555555555555555,2.632911392405063,0.02351321325817947,0.021100192867914012,5.5709946282027005e-05,-0.013384021837828042,0.022404582408296764
5.656565656565657,2.632911392405063,0.02349693093653829,0.021043389626502717,-3.431566919466138e-05,-0.013362096168912303,0.022371376139614402
5.757575757575758,2.632911392405063,0.02348642877304085,0.02128463422426198,2.985133618709115e-05,-0.01343131889919085,0.02246665569705926
5.858585858585858,2.632911392405063,0.023556903704577508,0.021193599249029835,3.8077982078058065e-05,-0.013425150886082203,0.022468759075894042
5.959595959595959,2.632911392405063,0.023537948238956507,0.021154298945249124,7.772668394366054e-05,-0.013407674155261689,0.022441673330486488
6.0606060606060606,2.632911392405063,0.023593258485037946,0.02127650570452761,4.3263785625732115e-06,-0.013460929256869666,0.022524420044564102
6.161616161616162,2.632911392405063,0.023511523900910235,0.021204806033104463,0.00010413262127594803,-0.013414898980204409,0.02244795718972212
6.262626262626262,2.632911392405063,0.02395001886826998,0.021265593729694266,2.2553471264727335e-05,-0.013564683779389275,0.02272705514079985
6.363636363636363,2.632911392405063,0.023586400808084485,0.02147370673757903,9.178308167873796e-05,-0.013518032263699055,0.022604782736969618
6.4646464646464645,2.632911392405063,0.023697739801071024,0.021322583139571822,1.0841491551442001e-05,-0.013506096882192852,0.02260395427593938
6.565656565656566,2.632911392405063,0.023922627586093294,0.021196313807110668,-2.9231102967384455e-05,-0.013535682417961188,0.02268274391688731
6.666666666666667,2.632911392405063,0.023943324495773858,0.021255625145483993,-2.920099430431456e-05,-0.013559684892377357,0.022719080441571737
6.767676767676767,2.632911392405063,0.023761970331904008,0.02151501543633375,-8.756451900530671e-05,-0.013583095730471327,0.022722477141067
6.8686868686868685,2.632911392405063,0.023925927822323424,0.021552545797118187,-1.4768688394590555e-05,-0.013643542085832483,0.022831956808587562
6.96969696969697,2.632911392405063,0.02412130834844947,0.021576208753924447,-4.995892032539461e-05,-0.013709255130712176,0.02295498647290253
7.070707070707071,2.632911392405063,0.024231765860712517,0.021557079995370553,-1.7884322619946475e-05,-0.013736653756824922,0.02301132371493904
7.171717171717171,2.632911392405063,0.02404858158337032,0.021605158361933975,5.397495058513964e-05,-0.013696121983591287,0.02292493119757464
7.2727272727272725,2.632911392405063,0.024207491967124753,0.021873833380571365,5.384728163968914e-05,-0.013824397604308834,0.02312931704219173
7.373737373737374,2.632911392405063,0.024283083995316198,0.021728565747012027,-0.00010298074272087992,-0.013803494922698467,0.023112636494209752
7.474747474747475,2.632911392405063,0.024444562822240477,0.021809245668260493,8.322008417380049e-05,-0.01387614254715029,0.02323968909199864
7.575757575757575,2.632911392405063,0.024542963337044903,0.022111489779945325,2.969161913264198e-05,-0.013996335935097068,0.023422130377748644
7.6767676767676765,2.632911392405063,0.024420849590744986,0.022178451937225403,-2.2237763585497167e-05,-0.013979790458391116,0.023380471973539072
7.777777777777778,2.632911392405063,0.024590069483538125,0.0223192766130646,-1.3675927546720471e-05,-0.014072803828980818,0.02353698417578476
7.878787878787879,2.632911392405063,0.024762662414329475,0.022307478726266268,-2.7363362257913973e-06,-0.014121042342178721,0.02363092284313305
7.979797979797979,2.632911392405063,0.0249439158544925,0.02222731533397668,-8.474897632972897e-05,-0.014151369356540752,0.023703116860805857
8.080808080808081,2.632911392405063,0.024998441439640313,0.02249708769992382,-6.54269149663672e-05,-0.014248658741869239,0.02384662957324992
8.181818181818182,2.632911392405063,0.025252925320799775,0.02235026727645825,-7.916596646250706e-06,-0.014280957779177407,0.023933976731253897
8.282828282828282,2.632911392405063,0.02534677583773931,0.022864317095623133,-5.81497719752206e-05,-0.01446332788000873,0.024201435199177786
8.383838383838384,2.632911392405063,0.025440954245494956,0.022915376877224104,6.400609427748835e-05,-0.014506899336815718,0.024277147403168425
8.484848484848484,2.632911392405063,0.025598422567614312,0.02296198705754608,-8.55603764081191e-05,-0.014568122887548118,0.02438777155920437
8.585858585858587,2.632911392405063,0.025741910999764854,0.023142921852724947,4.9809097119714374e-05,-0.01466544985574694,0.0245459817899439
8.686868686868687,2.632911392405063,0.02582835320228578,0.023394986140307265,-9.862533636378324e-07,-0.014767001802777912,0.024701725514037386
8.787878787878787,2.632911392405063,0.026011114827789058,0.02350115384135078,1.3082015983488458e-05,-0.01485368060074195,0.02485139088107102
8.88888888888889,2.632911392405063,0.026362222532223055,0.023677551105447184,1.6729525113253605e-05,-0.015011932091301071,0.025127697299208714
8.98989898989899,2.632911392405063,0.026577856416318282,0.023833365932835575,-1.2977289493579209e-05,-0.015123366704746156,0.02531743491992288
9.09090909090909,2.632911392405063,0.02658214401418984,0.024011769690989816,-2.0452295087129695e-05,-0.015178174111553895,0.025394731717660237
9.191919191919192,2.632911392405063,0.02676396125422365,0.02402987957369069,-6.583779078175776e-05,-0.015238152248374302,0.02550731213463757
9.292929292929292,2.632911392405063,0.026979670938211516,0.024529098123672596,-3.015884604606885e-05,-0.015452630718565234,0.025841730429193972
9.393939393939394,2.632911392405063,0.027304081629212565,0.02469443841159939,-2.9460723732478684e-05,-0.015599556012243587,0.026097352427091818
9.494949494949495,2.632911392405063,0.027496035197630893,0.024725373253317313,-5.149592619671329e-05,-0.015666422535284462,0.02622087443905497
9.595959595959595,2.632911392405063,0.027865357043558112,0.02506449397938896,4.4909824835872774e-05,-0.015878955306884122,0.026575965804333686
9.696969696969697,2.632911392405063,0.028114336242026767,0.025307076735741466,8.002011740720348e-05,-0.016026423893330467,0.026821476101150876
9.797979797979798,2.632911392405063,0.028546940612415566,0.02562461354566856,1.248416404827392e-06,-0.016251466247425236,0.027203755646325243
9.8989898989899,2.632911392405063,0.028715004863360403,0.025956545134139804,-6.430418332442316e-05,-0.016401464999250062,0.027440186313590676
10.0,2.632911392405063,0.028996083609377443,0.026178845240659488,2.1957927460349694e-05,-0.01655247865501108,0.02769516679626658
0.0,2.7341772151898733,0.029181922589126403,0.026138731067107693,-4.9619794390977516e-06,-0.016596196096870228,0.027785599059256153
0.10101010101010101,2.7341772151898733,0.02894650847798372,0.025969056096691027,-3.3550195830535946e-05,-0.016474669372402426,0.02757865301275405
0.20202020202020202,2.7341772151898733,0.028433555256775246,0.02549099342532114,6.426902660070367e-05,-0.016177364604628913,0.027082662937093802
0.30303030303030304,2.7341772151898733,0.028098709127596013,0.025235427923954792,3.21178833575082e-05,-0.016000241115465243,0.02678216613480021
0.40404040404040403,2.7341772151898733,0.02791184898541428,0.025078589760058338,-7.274803557076752e-05,-0.015897131623641782,0.02660889033420988
0.5050505050505051,2.7341772151898733,0.02779502682428521,0.024750918681506504,-1.3336956602011705e-05,-0.01576378365173751,0.026404915767454004
0.6060606060606061,2.7341772151898733,0.02730419549835253,0.0248085793808052,7.00407612831327e-05,-0.01563383246374732,0.02614614920749876
0.7070707070707071,2.7341772151898733,0.02700015996655218,0.02454306400888549,-2.1641589970843522e-05,-0.015462967192631301,0.025859338350577906
0.8080808080808081,2.7341772151898733,0.02690533200485848,0.02411351584973191,2.4201180817959026e-05,-0.015305654356377117,0.025623780834938055
0.9090909090909091,2.7341772151898733,0.026727705184341227,0.024124381599503246,4.698385895253529e-05,-0.015255626035153342,0.025525933387095738
1.0101010101010102,2.7341772151898733,0.02645435657195848,0.02364949755212998,6.825189627513215e-05,-0.015031156237226537,0.025169693086663864
1.1111111111111112,2.7341772151898733,0.02618981716891287,0.023666362416756376,-5.644041134704433e-05,-0.014956853875700775,0.02502389028896907
1.2121212121212122,2.7341772151898733,0.026077824304886296,0.023439209606683893,1.8878802652900614e-05,-0.014855110173471056,0.02486376774991361
1.3131313131313131,2.7341772151898733,0.025899556970550963,0.02318450248409775,7.321644293880506e-05,-0.014725217836394614,0.024654734752735216
1.4141414141414141,2.7341772151898733,0.025728056978539988,0.023075994551301906,-6.333438161154501e-07,-0.014641215458952568,0.02450987431574701
1.5151515151515151,2.7341772151898733,0.025577462316105342,0.022987429859273323,-1.757542396377337e-05,-0.0145694676526136,0.02438584252765739
1.6161616161616161,2.7341772151898733,0.025439936341244418,0.022834236413780743,-2.454495286036947e-06,-0.014482251826507546,0.024242343346985516
1.7171717171717171,2.7341772151898733,0.025356849435581957,0.02266161809748576,7.319173583313131e-05,-0.014405540259920314,0.02412276064469082
1.8181818181818181,2.7341772151898733,0.025086048355821983,0.02259868466218267,3.185653075688612e-05,-0.014305419905401396,0.02393954299633929
1.9191919191919191,2.7341772151898733,0.025090608503747155,0.02254336588884259,4.828492927560824e-05,-0.014290192317776923,0.023919076217865286
2.0202020202020203,2.7341772151898733,0.024668494468915322,0.02223015145540455,4.121859778143611e-05,-0.014069593777295962,0.023544319522779654
2.121212121212121,2.7341772151898733,0.024650366314306293,0.022400044886344592,4.0689082018087224e-05,-0.014115123360195264,0.023605893866545862
2.2222222222222223,2.7341772151898733,0.024717207753651448,0.022165382961314962,-6.524918531207264e-05,-0.014064777214489921,0.023545508228394702
2.323232323232323,2.7341772151898733,0.02463424157683103,0.022177221344174578,2.8872017204247332e-05,-0.01404343887630168,0.023502307914310575
2.4242424242424243,2.7341772151898733,0.024520355615986773,0.021942934363291196,-3.100928331603831e-05,-0.013938986993783391,0.023338691884657085
2.525252525252525,2.7341772151898733,0.02439206077508504,0.0220728102739883,-1.5849489608737207e-05,-0.013939461314722002,0.023319112465654525
2.6262626262626263,2.7341772151898733,0.02437051548817407,0.02202797490913866,-2.079956109365141e-06,-0.013919547119193817,0.023287778190272963
2.727272727272727,2.7341772151898733,0.02425081350918857,0.021691235745462938,-8.003890190950307e-06,-0.013782614776395452,0.02307773263044704
2.8282828282828283,2.7341772151898733,0.02398158683467276,0.021749432321003577,6.080715963106957e-05,-0.0137193057467029,0.022947320238229704
2.929292929292929,2.7341772151898733,0.024159330836754644,0.021460265405386966,-2.4815641818144887e-06,-0.013685878872642483,0.02292925259249831
3.0303030303030303,2.7341772151898733,0.024022378458149037,0.021756265533260218,5.298907529921625e-05,-0.013733593197422777,0.022973483318613486
3.131313131313131,2.7341772151898733,0.023927933750592538,0.021721442433203522,2.9648939953706965e-05,-0.013694812855138818,0.022904595098399743
3.2323232323232323,2.7341772151898733,0.023815593949155243,0.021647421890667456,5.930811710959301e-05,-0.013638904751946809,0.022809158954851076
3.3333333333333335,2.7341772151898733,0.023630213091870907,0.021384721369899152,6.485879854653575e-06,-0.013504480338531017,0.022591323160770345
3.4343434343434343,2.7341772151898733,0.023611287252775746,0.021484213861672274,1.2571788291401263e-05,-0.013528650334334405,0.02262288355291459
3.5353535353535355,2.7341772151898733,0.023657285854761276,0.02138956227181351,-3.37128971046454e-05,-0.013514054437972435,0.022608957713690835
3.6363636363636362,2.7341772151898733,0.02362198640541822,0.021187752157698417,-5.724165168762825e-05,-0.013442921568934991,0.022504046738828075
3.7373737373737375,2.7341772151898733,0.02357210908837684,0.021256938921215978,6.050678037797707e-05,-0.013448714402877846,0.02250426357937965
3.8383838383838382,2.7341772151898733,0.023716364211667892,0.021238627257176502,3.0097675985624834e-05,-0.013486497440653318,0.02257974573402027
3.9393939393939394,2.7341772151898733,0.023583054352401493,0.021246784832972807,2.9360529523774326e-05,-0.013448951755612289,0.022506106347373166
4.040404040404041,2.7341772151898733,0.023644046297747013,0.021234082936240805,-3.932954778162371e-05,-0.013463438770196345,0.022536020142839463
4.141414141414141,2.7341772151898733,0.023462893891441964,0.021157574416660142,-3.306504110428982e-05,-0.013386140492430632,0.022399457611960657
4.242424242424242,2.7341772151898733,0.023493083375977858,0.02094047994682925,0.00010116651380307154,-0.013330068996842132,0.022327179167572833
4.343434343434343,2.7341772151898733,0.023662704993775433,0.02131968326762363,-7.817449739108023e-05,-0.013494716478419719,0.022582946226917665
4.444444444444445,2.7341772151898733,0.02350665718493423,0.02112744145698827,-3.8885844754313495e-05,-0.01339022959257675,0.0224120665564571
4.545454545454545,2.7341772151898733,0.023516436086360244,0.021226729024005013,1.3530506850497046e-05,-0.013422949533109577,0.022459303730764855
4.646464646464646,2.7341772151898733,0.023591217516171242,0.021160344650095125,1.8842605494070305e-05,-0.013425468649879911,0.022474619048604923
4.747474747474747,2.7341772151898733,0.02331536000842601,0.021229466713222178,-3.090394981992137e-05,-0.013363448016494457,0.02234561422756133
4.848484848484849,2.7341772151898733,0.02333167916622226,0.02107309161858958,-1.0409369068842558e-05,-0.01332143123544355,0.022288386111617726
4.94949494949495,2.7341772151898733,0.023539375871111302,0.020973746748723696,-7.633374962175862e-05,-0.0133539367859505,0.02236758461393056
5.05050505050505,2.7341772151898733,0.023623495484003547,0.021147287637438283,-2.3514507638837605e-05,-0.013431234936432548,0.02248791048758304
5.151515151515151,2.7341772151898733,0.023453086367257268,0.021077942732951955,4.7280400952512173e-05,-0.013359308730062766,0.02236047461375873
5.252525252525253,2.7341772151898733,0.023430008709062502,0.021056529919220836,-3.4222932092414176e-05,-0.013345961588485,0.02233811976382638
5.353535353535354,2.7341772151898733,0.023340498851774538,0.021055359946235926,1.8107093203733995e-06,-0.013318757639403137,0.02228597034688932
5.454545454545454,2.7341772151898733,0.023389829993946194,0.021129659348064562,2.2717295642359677e-05,-0.013355846802603226,0.022345672054254598
5.555555555555555,2.7341772151898733,0.023378937071782672,0.021024298418646475,-1.707835267581219e-05,-0.013320970647128744,0.022295087977066814
5.656565656565657,2.7341772151898733,0.02363965203359916,0.021179389937239758,-2.392003010313159e-05,-0.013445712591251673,0.022510620037807988
5.757575757575758,2.7341772151898733,0.023415987186503007,0.021149900254417056,-8.674580158102112e-05,-0.013369766232276018,0.022369700888462792
5.858585858585858,2.7341772151898733,0.023418821755490354,0.02127582794428954,-9.624287917585692e-05,-0.013408394909933967,0.022424875314659358
5.959595959595959,2.7341772151898733,0.023598682892856708,0.021079234188125035,-7.926360851410563e-05,-0.013403375124294523,0.02244568183781693
6.0606060606060606,2.7341772151898733,0.023593467776532904,0.021178234391229508,-3.74409911099567e-05,-0.013431510650328724,0.022483450546174275
6.161616161616162,2.7341772151898733,0.023634298418401763,0.021197721162273607,3.7623398557514935e-05,-0.013449605874202611,0.022515204263445686
6.262626262626262,2.7341772151898733,0.02362863736578144,0.021346219435754953,5.5465834489435633e-05,-0.013492457040460917,0.022574338066963177
6.363636363636363,2.7341772151898733,0.023720357048401055,0.021195331078165704,-6.540454486560206e-05,-0.013474706437970028,0.02256433935099789
6.4646464646464645,2.7341772151898733,0.02384063309050575,0.021593154306835158,6.352619750804693e-06,-0.013630136219202272,0.022800126119087882
6.565656565656566,2.7341772151898733,0.02390058853169926,0.021437457097045573,-1.3875847525445873e-05,-0.01360141368862345,0.02276917730890282
6.666666666666667,2.7341772151898733,0.023793742888798444,0.021381631184103425,-0.00013991591399866942,-0.01355261222187056,0.022685370775073724
6.767676767676767,2.7341772151898733,0.023907062390929008,0.02146820008477194,-2.7671518602962142e-05,-0.013612578742710284,0.022785783842887857
6.8686868686868685,2.7341772151898733,0.02396801041408177,0.021664129290311186,-0.00012327470465139454,-0.013689641911317886,0.022904137936911737
6.96969696969697,2.7341772151898733,0.023960678592357513,0.021578358298681353,1.8191360377963927e-05,-0.01366171106731166,0.02286282026574746
7.070707070707071,2.7341772151898733,0.024157812434157107,0.021635655272609373,-8.580754848534354e-06,-0.013738040312029945,0.023000686937597912
7.171717171717171,2.7341772151898733,0.02402185434572697,0.02177386114679857,-3.177660763802177e-05,-0.01373871464775766,0.02298053575731615
7.2727272727272725,2.7341772151898733,0.024153551833560646,0.021635335866760076,1.41143218256422e-05,-0.013736666310096216,0.022998091564127108
7.373737373737374,2.7341772151898733,0.024317340245859166,0.02183818296162802,2.7924998510761225e-05,-0.013846656962246155,0.023177469354651616
7.474747474747475,2.7341772151898733,0.024333898163784288,0.022106089847866727,1.7065660431353692e-05,-0.013931996403495303,0.023300028814579266
7.575757575757575,2.7341772151898733,0.024395871456148462,0.022110611968019767,3.2640596420128704e-06,-0.013951945027250468,0.02333731111929835
7.6767676767676765,2.7341772151898733,0.024427746959423867,0.02217105035711194,2.4436933882301614e-05,-0.013979639194960742,0.023381259140479872
7.777777777777778,2.7341772151898733,0.024723153440560038,0.02221974393178423,4.4517439821870046e-05,-0.014082869211703278,0.023571490050725008
7.878787878787879,2.7341772151898733,0.025042300640168484,0.02217704170916767,-3.827316894571486e-05,-0.014165802704800846,0.023739803053913402
7.979797979797979,2.7341772151898733,0.024991507493609507,0.0224291112563136,-5.4830737156021495e-05,-0.014226185624976932,0.023814117572215056
8.080808080808081,2.7341772151898733,0.024880565203167223,0.02264442606872004,-1.1120552225662012e-05,-0.014257497381566179,0.023841283701171383
8.181818181818182,2.7341772151898733,0.025218312299158444,0.02281265956344888,-3.27346770325322e-05,-0.014409291558782197,0.024105749376601128
8.282828282828282,2.7341772151898733,0.02533970735851095,0.02301233078432073,5.073453511899615e-05,-0.014505611442849502,0.0242600521724334
8.383838383838384,2.7341772151898733,0.025393459752565607,0.02269271789046097,-7.12618844422432e-05,-0.014425853292907973,0.024156900873290706
8.484848484848484,2.7341772151898733,0.025467793325298433,0.022744168056548112,-4.997471870889951e-05,-0.014463588414553964,0.024221259224947972
8.585858585858587,2.7341772151898733,0.025691096769519188,0.023204562562198012,1.4893122695155295e-05,-0.01466869779951516,0.024542497429138714
8.686868686868687,2.7341772151898733,0.02569130029207889,0.02328720080769085,-8.591613776812445e-05,-0.014693550329930923,0.02457804524349627
8.787878787878787,2.7341772151898733,0.026099972711047196,0.023617786838666777,1.837069948683643e-05,-0.01491532786491419,0.024951670307564105
8.88888888888889,2.7341772151898733,0.02614762225152257,0.023568687926610453,2.3796719834580845e-05,-0.014914893053439906,0.02495832025543517
8.98989898989899,2.7341772151898733,0.0263921158989526,0.02392985087868051,-5.4590968664054056e-05,-0.015096590033289932,0.025251358129542722
9.09090909090909,2.7341772151898733,0.02686535779954389,0.024158072286565073,1.7335692545628168e-05,-0.015307029025832688,0.02561924183408457
9.191919191919192,2.7341772151898733,0.026849617037304346,0.02415470613075499,5.270958882265327e-05,-0.015301296950417799,0.02560889472343348
9.292929292929292,2.7341772151898733,0.027140575091623695,0.024452291666128407,2.8839493026718277e-05,-0.01547786002732563,0.025901324696851108
9.393939393939394,2.7341772151898733,0.027473176554844065,0.0246130318707386,3.892153649311791e-05,-0.015625862527674797,0.026160717543806614
9.494949494949495,2.7341772151898733,0.027656602592409173,0.02503688568763075,-5.371270945643647e-05,-0.015808046484011976,0.026444409039360926
9.595959595959595,2.7341772151898733,0.02786378609758734,0.025095059535489905,-1.1605058298194341e-05,-0.015887653689923172,0.026587772035484816
9.696969696969697,2.7341772151898733,0.028250427044335814,0.02520113650474614,-2.1483337253377113e-06,-0.016035469064724587,0.026855931465926172
9.797979797979798,2.7341772151898733,0.02840096735981152,0.02547827342684831,-5.063617417304592e-06,-0.016163772235997947,0.027058267289808417
9.8989898989899,2.7341772151898733,0.028663247150449912,0.02590576911891997,-9.14717307467108e-05,-0.016370704880810966,0.027389272520551615
10.0,2.7341772151898733,0.029060485599248658,0.026098903977407755,2.7487064241303574e-05,-0.016547816872996925,0.027698737435315698
0.0,2.8354430379746836,0.02911804219904569,0.02615018445749938,5.569670553151298e-05,-0.01658046799696352,0.02775355221389459
0.10101010101010101,2.8354430379746836,0.0288188234300024,0.025944608792068495,-1.612464519215696e-05,-0.016429029666621266,0.027494635650187674
0.20202020202020202,2.8354430379746836,0.028532277670550617,0.02569365998286568,-1.0758127487824999e-05,-0.016267781296024887,0.027224193993442624
0.30303030303030304,2.8354430379746836,0.02803510105476812,0.02529431986624507,6.950503908023721e-05,-0.015998826276303956,0.02677041628246643
0.40404040404040403,2.8354430379746836,0.027796818686013216,0.025295210970830807,-1.9031184882819125e-05,-0.015927608897053205,0.026634292194449065
0.5050505050505051,2.8354430379746836,0.027680767124575567,0.024721564057696755,2.069199399068768e-05,-0.015720699354681695,0.026326223141636785
0.6060606060606061,2.8354430379746836,0.027473697273184536,0.02446995620094042,3.7763655194803737e-05,-0.015583096042237485,0.026101856402615677
0.7070707070707071,2.8354430379746836,0.027073093869541452,0.024289385909883044,4.7478771283899414e-05,-0.01540874393382735,0.02579427489730259
0.8080808080808081,2.8354430379746836,0.02688896586501581,0.024479347393799516,-0.00011107078692180825,-0.015410493977644598,0.025769509265907414
0.9090909090909091,2.8354430379746836,0.026634193307884163,0.024026246531038378,5.0337921495230625e-06,-0.015198131951676762,0.02543071286807761
1.0101010101010102,2.8354430379746836,0.026580181328331485,0.02387855891451905,-9.66371775887832e-05,-0.01513762207285516,0.025338176842587816
1.1111111111111112,2.8354430379746836,0.02626152340111044,0.023691550397446068,7.148685310630317e-05,-0.01498592213956695,0.025075811004256317
1.2121212121212122,2.8354430379746836,0.026085953744403867,0.023356843167464787,2.037808375248848e-06,-0.014832839073560596,0.02483412143565646
1.3131313131313131,2.8354430379746836,0.025801321191115723,0.023191278741233973,6.071697108550127e-05,-0.014697779979704909,0.024600589685558144
1.4141414141414141,2.8354430379746836,0.02582972496138654,0.023232335707637376,6.077581429586224e-07,-0.014718618200707174,0.02463394555450821
1.5151515151515151,2.8354430379746836,0.02557532612529147,0.023091702509983596,7.614518026179792e-06,-0.014600108590582521,0.024428392961597194
1.6161616161616161,2.8354430379746836,0.025476782852285267,0.023002755421214337,5.9485161078874974e-05,-0.014543861482049879,0.024334494694843417
1.7171717171717171,2.8354430379746836,0.025421996943315612,0.022774446285338364,-2.2267552051961096e-05,-0.014458932968596192,0.024207084001790804
1.8181818181818181,2.8354430379746836,0.025245285363448125,0.022807427404536593,6.193655662467918e-05,-0.014415813830395413,0.02411917645925377
1.9191919191919191,2.8354430379746836,0.025095401162923688,0.022568217851512768,2.4918254840425154e-05,-0.014299085704330937,0.023932133184564122
2.0202020202020203,2.8354430379746836,0.024945100329153577,0.02256168439934088,9.228206505191171e-05,-0.014252035418548336,0.02384344145397918
2.121212121212121,2.8354430379746836,0.02494489868581369,0.02233496760213371,1.673311324325663e-05,-0.01418395988638422,0.02374775956251351
2.2222222222222223,2.8354430379746836,0.02470057934407143,0.022067650119055243,-1.8998765267111643e-05,-0.014030468838938001,0.02349504504924646
2.323232323232323,2.8354430379746836,0.024552869113877322,0.02189764277820178,-5.1177672012194963e-05,-0.013935153567623731,0.023338981155818093
2.4242424242424243,2.8354430379746836,0.02438916992737044,0.021966293319080312,-2.1828214194219177e-05,-0.013906638973935225,0.023272546506674253
2.525252525252525,2.8354430379746836,0.024332362703081714,0.021951017309452918,-3.340342489259588e-05,-0.013885014003760389,0.02323347301040837
2.6262626262626263,2.8354430379746836,0.024276220788621,0.02179130471051168,-1.896696210325408e-05,-0.013820257649739803,0.023134096299114403
2.727272727272727,2.8354430379746836,0.0241487979420415,0.02186979497513102,6.476278488242345e-05,-0.013805577875151754,0.023094061943850795
2.8282828282828283,2.8354430379746836,0.024162042330710242,0.02176177606185151,6.281446817910752e-06,-0.013777145517768525,0.0230558094832742
2.929292929292929,2.8354430379746836,0.024258561509267574,0.021533632859152805,1.250221788267626e-05,-0.013737658310526113,0.023017399121019647
3.0303030303030303,2.8354430379746836,0.023926310360440378,0.021556330241577618,-2.1152507750136756e-05,-0.013644792180605398,0.022833781895290364
3.131313131313131,2.8354430379746836,0.02399176706852353,0.02175916069974858,8.964273085360271e-05,-0.013725278330481632,0.022957555483335296
3.2323232323232323,2.8354430379746836,0.023941808293320776,0.021454775340580816,6.378101153951448e-05,-0.013618975090170475,0.022800518747185673
3.3333333333333335,2.8354430379746836,0.02378791767839042,0.021522425655616687,-4.407360079735384e-05,-0.01359310300020213,0.022740096114291182
3.4343434343434343,2.8354430379746836,0.023755164049170913,0.021356129392846163,-1.1738685274624397e-06,-0.013533388032605122,0.022651130845909893
3.5353535353535355,2.8354430379746836,0.023667311854181767,0.021345546252046994,-3.349702763241184e-05,-0.013503857431868629,0.022596142624547535
3.6363636363636362,2.8354430379746836,0.023690217388056135,0.02146374684982368,-8.825162017521689e-05,-0.013546189271363945,0.022659685896709508
3.7373737373737375,2.8354430379746836,0.02372328315439436,0.021539404872957683,-1.1913697146211428e-05,-0.013578806408205614,0.02271024330417855
3.8383838383838382,2.8354430379746836,0.023597768485173105,0.021051391378521057,-2.169844968533581e-05,-0.01339474795910825,0.022433263446911753
3.9393939393939394,2.8354430379746836,0.023447950638310573,0.021352822202282698,7.713430642870714e-05,-0.013440231852177981,0.022474148109658885
4.040404040404041,2.8354430379746836,0.023608663784623295,0.021313934072619854,1.1752417102255302e-05,-0.013476779357172943,0.022549051027863313
4.141414141414141,2.8354430379746836,0.02360215653498396,0.02120638395264914,4.1129057394382804e-05,-0.013442562146289928,0.02250024876875255
4.242424242424242,2.8354430379746836,0.023426991607006915,0.021283347106318077,8.977146432689809e-05,-0.013413101613997497,0.022432658837540507
4.343434343434343,2.8354430379746836,0.023476629276335804,0.021289740858095253,7.912506450876674e-06,-0.013429911040329317,0.022463170352643263
4.444444444444445,2.8354430379746836,0.023483487850631344,0.021038199116434852,-9.737686849773683e-06,-0.013356506090119858,0.02236135091650736
4.545454545454545,2.8354430379746836,0.02347771794229179,0.021247644107478435,-8.117972860288083e-05,-0.013417608614931065,0.02244636262398218
4.646464646464646,2.8354430379746836,0.023481500473966507,0.021117564597864562,-3.603900663243399e-05,-0.013379719521549321,0.022393396177670194
4.747474747474747,2.8354430379746836,0.02346167723888902,0.02107770409792365,-3.751005026317195e-05,-0.0133618144010438,0.02236528201098188
4.848484848484849,2.8354430379746836,0.023747688931068624,0.020965415863533433,9.172396552890688e-06,-0.013413931438380615,0.022486028330022865
4.94949494949495,2.8354430379746836,0.023418577503605084,0.021116087978005856,-4.7031989983837296e-05,-0.013360399644483281,0.022356583748990216
5.05050505050505,2.8354430379746836,0.02331512349805297,0.021232246820430286,5.909957591772606e-05,-0.013364211095544977,0.022346841170359632
5.151515151515151,2.8354430379746836,0.023387066538805876,0.021228508809751568,-3.806869045677655e-05,-0.013384672604567233,0.02238607306336969
5.252525252525253,2.8354430379746836,0.023350069847388112,0.02102237900098456,4.313904381551736e-05,-0.013311734654511801,0.022277741035369576
5.353535353535354,2.8354430379746836,0.023501694314614772,0.021159615591077104,-1.0622175906291717e-05,-0.013398392971707564,0.02242258880404673
5.454545454545454,2.8354430379746836,0.02334053169207975,0.021093224274503976,-4.0541776182021546e-05,-0.013330126789975116,0.022302071455430884
5.555555555555555,2.8354430379746836,0.023513442277574015,0.021032426637536763,4.731895358347559e-05,-0.013363760674533234,0.022376481080707146
5.656565656565657,2.8354430379746836,0.023343046725333216,0.021155387188283827,2.479751663447122e-05,-0.013349530174085114,0.02232977587503202
5.757575757575758,2.8354430379746836,0.023716378306451066,0.021195769959221417,3.620221250118929e-05,-0.013473644479701745,0.02256201004099811
5.858585858585858,2.8354430379746836,0.0235340425555117,0.021133880492069587,6.244757478600808e-05,-0.013400376914274386,0.022430740511473108
5.959595959595959,2.8354430379746836,0.023627352243088994,0.021342162074960237,-6.659952951801336e-05,-0.013490854295414767,0.022571977794838646
6.0606060606060606,2.8354430379746836,0.023510984472172015,0.02122903332072122,-6.58307365116671e-05,-0.01342200533786797,0.022457421376416205
6.161616161616162,2.8354430379746836,0.023915695285954983,0.021359700228549803,3.10132198777239e-05,-0.013582618654351434,0.022745726593323884
6.262626262626262,2.8354430379746836,0.023865262033086868,0.021127568323365868,7.616441929737411e-05,-0.013497849106935822,0.022621390851661153
6.363636363636363,2.8354430379746836,0.02361915450168745,0.02126590937289773,6.815642764311711e-06,-0.013465519162375553,0.02253487743681971
6.4646464646464645,2.8354430379746836,0.02372177167569356,0.021360659562241726,5.0123390095315806e-05,-0.013524729371380587,0.02263393638881031
6.565656565656566,2.8354430379746836,0.023713592659088553,0.021363690316782136,5.289507074679075e-05,-0.013523184892761206,0.022630516665577728
6.666666666666667,2.8354430379746836,0.02374259036305741,0.021395246799597156,3.103446817070381e-05,-0.013541351148796371,0.02266035065260272
6.767676767676767,2.8354430379746836,0.023912403034208166,0.021482499931312432,-0.00014089494191529673,-0.013618470889656177,0.022796100100309403
6.8686868686868685,2.8354430379746836,0.023788392247550697,0.021575420531270845,8.691594140937185e-05,-0.013609143833646462,0.022763226341259216
6.96969696969697,2.8354430379746836,0.02396770326721234,0.021546578281857406,6.171832450323957e-05,-0.013654284464720922,0.02285378017599645
7.070707070707071,2.8354430379746836,0.024375687630316223,0.021563818270425365,-3.83287436965832e-05,-0.013781851770222476,0.023098569541243622
7.171717171717171,2.8354430379746836,0.024250008749747295,0.02177106184594117,-3.1552299551030436e-05,-0.01380632117870654,0.02311053016808731
7.2727272727272725,2.8354430379746836,0.024271890672807044,0.02193231385772832,-7.171409716101296e-05,-0.013861261359160609,0.023191114086333186
7.373737373737374,2.8354430379746836,0.02428113230557378,0.02189729347029491,-9.98762456422158e-06,-0.013853527732760605,0.02318133013303431
7.474747474747475,2.8354430379746836,0.024498068985074808,0.02172462757198802,1.7304747414124493e-05,-0.013866808967118848,0.023235840862088353
7.575757575757575,2.8354430379746836,0.02439374066000508,0.021929298283579923,1.8788388400141063e-06,-0.013896911683075499,0.023259645354183057
7.6767676767676765,2.8354430379746836,0.024632523790554618,0.02211176989864692,-1.2354025276807327e-05,-0.01402328810676046,0.0234738866856147
7.777777777777778,2.8354430379746836,0.02471438068661593,0.0222691467457229,1.7062044869006575e-05,-0.014095058229701647,0.023587034841321845
7.878787878787879,2.8354430379746836,0.024931084426141063,0.022197437337168596,-5.678624198089974e-06,-0.014138556528992896,0.023682886383299902
7.979797979797979,2.8354430379746836,0.02487156418184115,0.022356007166544647,-1.6305834612634325e-05,-0.014168271404515738,0.023714082141848763
8.080808080808081,2.8354430379746836,0.02488543737677996,0.022544879334231743,-3.7138078549145875e-05,-0.014229095013303512,0.023801712806020007
8.181818181818182,2.8354430379746836,0.02504946829375609,0.022762871930949922,4.4591818452825967e-05,-0.014343702067411803,0.023988170562307953
8.282828282828282,2.8354430379746836,0.025485891789333005,0.022640479292813993,-3.0666382208458446e-05,-0.0144379113246441,0.024189088425809514
8.383838383838384,2.8354430379746836,0.025229697461621806,0.022791410633264744,0.00010598480409814779,-0.014406332428465965,0.024103927812584785
8.484848484848484,2.8354430379746836,0.02556630170531778,0.023056784264549882,-1.7729669035784224e-06,-0.014586925790960298,0.024408490122858048
8.585858585858587,2.8354430379746836,0.02563808778540976,0.023356797694358753,2.4540938562551865e-05,-0.014698465643930552,0.02457701611112606
8.686868686868687,2.8354430379746836,0.02585815406963004,0.023300924274805533,-0.0001344148026409426,-0.014747723503330671,0.02468020494452486
8.787878787878787,2.8354430379746836,0.02615248305270526,0.023532819850786722,-5.760072413028982e-05,-0.014905590871047595,0.02494622739317135
8.88888888888889,2.8354430379746836,0.026160220815209065,0.02340295170963819,8.52290267354065e-05,-0.014868951757454174,0.02489680118676574
8.98989898989899,2.8354430379746836,0.02649603207924114,0.023829510475564197,1.8137064573023055e-05,-0.015097662766441602,0.02526853375871603
9.09090909090909,2.8354430379746836,0.02675936721927136,0.023966914461728647,-5.8081080949117996e-05,-0.0152178845043,0.025478370784515696
9.191919191919192,2.8354430379746836,0.027082180182619667,0.024106403781813182,7.495158352647029e-05,-0.015356575189329855,0.025724036797930155
9.292929292929292,2.8354430379746836,0.0270717173147423,0.024398244767093576,2.3979783746629413e-05,-0.015440988624550763,0.02583895442667456
9.393939393939394,2.8354430379746836,0.02725263396773848,0.024592862187547443,-2.7361065035958272e-05,-0.015553648846585777,0.026024928496013337
9.494949494949495,2.8354430379746836,0.02757280615340833,0.024682889785030925,1.8861622704446625e-05,-0.015676708781531774,0.026247461196223325
9.595959595959595,2.8354430379746836,0.027884479026985765,0.02515887989189355,2.6003191135396764e-05,-0.015913007675663796,0.026626550242775025
9.696969696969697,2.8354430379746836,0.028141912613368125,0.02532447556518455,-8.568326330904029e-05,-0.0160399164535658,0.026844723033030368
9.797979797979798,2.8354430379746836,0.028394020103340332,0.02565994632597906,0.00010597273894058637,-0.016216189928795817,0.027131123860148765
9.8989898989899,2.8354430379746836,0.02858002331806242,0.02579986736349166,8.974152276427172e-05,-0.016313967204466224,0.027296780737038732
10.0,2.8354430379746836,0.02905270142001669,0.026141355015024688,-4.381704611801137e-05,-0.01655821693051241,0.027712067401343764
0.0,2.9367088607594938,0.029099948523660924,0.026084040370248997,2.0660851472000925e-06,-0.016555196668172976,0.02771533775473933
0.10101010101010101,2.9367088607594938,0.02871147063617651,0.02586666619640822,-2.1009650080852188e-05,-0.01637344104977542,0.027400077800449205
0.20202020202020202,2.9367088607594938,0.028492266387237317,0.025498610242992062,3.1116268606941104e-05,-0.016197262989068813,0.027119699064041276
0.30303030303030304,2.9367088607594938,0.028236851689676556,0.025134632760019638,2.3780812717985124e-05,-0.016011445334908857,0.026820670319509958
0.40404040404040403,2.9367088607594938,0.027863883494193515,0.024980596295481793,8.028144715126895e-05,-0.015853343936902593,0.026540329786860446
0.5050505050505051,2.9367088607594938,0.02751846680956514,0.024762751801052283,7.58461496747362e-05,-0.015684365583185225,0.026249651172428203
0.6060606060606061,2.9367088607594938,0.027469628371376186,0.02463759651386692,-2.5689028426304368e-05,-0.015632167465572933,0.026168836512545406
0.7070707070707071,2.9367088607594938,0.02723582953016366,0.024371964338546288,2.1531802653641785e-05,-0.015482338160612985,0.025922842836602792
0.8080808080808081,2.9367088607594938,0.026786251130452597,0.024218871273350113,-8.751049770696424e-06,-0.015301536721140813,0.02559930540263412
0.9090909090909091,2.9367088607594938,0.026604381290097966,0.023899206104513362,8.719375420839629e-05,-0.0151510762183834,0.025360685573779976
1.0101010101010102,2.9367088607594938,0.026497196262312183,0.023853532041875763,4.4815199825395185e-06,-0.015105218491256385,0.025279255147757303
1.1111111111111112,2.9367088607594938,0.026203626588040367,0.02373253676409703,8.948277786615238e-06,-0.014980849005641218,0.02505963001495355
1.2121212121212122,2.9367088607594938,0.026073075398415135,0.023354602207663912,2.7168579318591347e-05,-0.014828303281823715,0.024825765147208523
1.3131313131313131,2.9367088607594938,0.025662872815237842,0.023424685951801076,2.0254366839215662e-06,-0.014726267630111676,0.02462019961456044
1.4141414141414141,2.9367088607594938,0.025765471116036862,0.023150365021563386,0.00012074048652208865,-0.014674750841280074,0.024563439823636478
1.5151515151515151,2.9367088607594938,0.025708976276816408,0.023022237546394535,4.23861825283139e-06,-0.014619364146963281,0.024476453538507005
1.6161616161616161,2.9367088607594938,0.02530300364189802,0.02290214622144663,4.327657060874494e-05,-0.014461544959003394,0.02419220585615484
1.7171717171717171,2.9367088607594938,0.02530503658594836,0.022921477615573876,1.1289098455396527e-05,-0.01446795426045667,0.02420145791812092
1.8181818181818181,2.9367088607594938,0.025215519077256127,0.022615380694051477,-3.0310133939671314e-05,-0.01434926993139228,0.02402128304347495
1.9191919191919191,2.9367088607594938,0.02503951025596495,0.022586263862275045,3.8790112731862114e-05,-0.014287732235471999,0.023907570297084905
2.0202020202020203,2.9367088607594938,0.024883807295609715,0.022440418623288758,-9.352061532084207e-06,-0.01419726777566954,0.02375654569254377
2.121212121212121,2.9367088607594938,0.024834940397618733,0.02234028453500341,-5.8320751647889774e-05,-0.014152567479786644,0.023686560465710355
2.2222222222222223,2.9367088607594938,0.02462443115337951,0.02201528714096816,-6.077838707081462e-05,-0.0139919154883043,0.023429311493066932
2.323232323232323,2.9367088607594938,0.024487956522667297,0.022171345848456713,-3.525359085423054e-05,-0.013997790711337202,0.023415835809317137
2.4242424242424243,2.9367088607594938,0.024566668514182075,0.022042867663473346,3.237170314843673e-05,-0.013982860853296628,0.02340710442378692
2.525252525252525,2.9367088607594938,0.024436321680927593,0.021859075086627957,4.3661112866135086e-05,-0.013888619030266664,0.023255178119088876
2.6262626262626263,2.9367088607594938,0.024623607378573605,0.021939514172285658,-3.0182450755735624e-05,-0.013968936465257778,0.02339737319307566
2.727272727272727,2.9367088607594938,0.02396493922828311,0.02169418386056637,8.54761383701322e-05,-0.013697736926654843,0.022914581520865264
2.8282828282828283,2.9367088607594938,0.024060718489616464,0.021807740263203153,1.6500694840844514e-05,-0.013760537625845884,0.023017094236134336
2.929292929292929,2.9367088607594938,0.02415729509330155,0.02168984816304814,-7.810780928507971e-05,-0.013754142976904905,0.02302335030891224
3.0303030303030303,2.9367088607594938,0.023803264059865197,0.021646331940507673,-1.542228868976226e-05,-0.01363487880011186,0.022801456638028187
3.131313131313131,2.9367088607594938,0.023875825142102496,0.021681667443880868,6.4702799110475425e-06,-0.013667247775795009,0.022857868541873005
3.2323232323232323,2.9367088607594938,0.023854393345331775,0.021451807762208563,-4.5788642061932487e-05,-0.013591860332262102,0.02274859484916863
3.3333333333333335,2.9367088607594938,0.02387386740402639,0.021295122404883213,-7.258694084174174e-05,-0.01355069694267288,0.022694991980814656
3.4343434343434343,2.9367088607594938,0.023938914949255534,0.02136203227567642,-0.00010012427566367587,-0.013590284167479587,0.022760805625368214
3.5353535353535355,2.9367088607594938,0.024007255742273515,0.021354747680359658,-1.5033911548154655e-05,-0.013608601026789952,0.022797047307669554
3.6363636363636362,2.9367088607594938,0.023824180153955158,0.021370481021265847,7.205375876161271e-05,-0.0135583983525663,0.02269736558487642
3.7373737373737375,2.9367088607594938,0.023713916481361078,0.02147549287899453,-1.6482253355703122e-05,-0.013556822808106682,0.02267772915761628
3.8383838383838382,2.9367088607594938,0.02355880098407338,0.021284725345382317,-3.905978680183533e-05,-0.013453057898836707,0.022508189741155277
3.9393939393939394,2.9367088607594938,0.02374457473617542,0.021218461877733373,2.9709349352431167e-06,-0.013488910984172639,0.02258770963368085
4.040404040404041,2.9367088607594938,0.023401586888422424,0.021205644792497372,-2.6527225588277593e-05,-0.013382169504275938,0.022384593181614846
4.141414141414141,2.9367088607594938,0.0235380800786804,0.021185984011626812,2.0114632849690103e-05,-0.013417219227092164,0.022454642235300196
4.242424242424242,2.9367088607594938,0.023554279299005942,0.021104790061297753,7.430115331872794e-05,-0.01339772080809111,0.02243044090428215
4.343434343434343,2.9367088607594938,0.023467969034623667,0.02115584041064,4.0694016281963727e-05,-0.0133871428335791,0.022401685526787212
4.444444444444445,2.9367088607594938,0.023575725338996923,0.02119522930029991,-1.2952151286499181e-05,-0.01343128639178905,0.0224802172842224
4.545454545454545,2.9367088607594938,0.02371616729550191,0.021283110571250406,-4.230924834320819e-05,-0.013499783360025693,0.022598206701359102
4.646464646464646,2.9367088607594938,0.02349231062839215,0.02117864330883518,6.946767921379892e-05,-0.013401286181168199,0.022425494443602062
4.747474747474747,2.9367088607594938,0.023559508229914768,0.021259470330771614,7.655980162989593e-06,-0.013445693568205914,0.02249784470568313
4.848484848484849,2.9367088607594938,0.023489706534659534,0.021089180092711043,4.903379183182222e-05,-0.013373665988211172,0.022386343863415585
4.94949494949495,2.9367088607594938,0.023423299892342438,0.021222666114043616,1.794864829120933e-05,-0.013393789801915816,0.022404210059549377
5.05050505050505,2.9367088607594938,0.023304080830849155,0.02093488875262937,3.158976734355767e-05,-0.013271690875043558,0.02221450887415275
5.151515151515151,2.9367088607594938,0.023666082723247505,0.020934860483581494,-4.8360354978867127e-05,-0.0133802829620487,0.022425715843609816
5.252525252525253,2.9367088607594938,0.023478200863287536,0.02120745060105181,-8.21151758378876e-05,-0.013405695439301805,0.02242965270505753
5.353535353535354,2.9367088607594938,0.023596227591205395,0.021191116097925677,-4.285245065703966e-05,-0.013436203106739321,0.022490452833391298
5.454545454545454,2.9367088607594938,0.02346974177940372,0.021148125183206783,-2.637287212230705e-05,-0.013385360088783152,0.02239939792434737
5.555555555555555,2.9367088607594938,0.023422066976499768,0.02120741168007566,-1.8954825274214437e-05,-0.01338884359697263,0.022397035355312508
5.656565656565657,2.9367088607594938,0.023371425116444317,0.021321745783476242,-5.263270610077326e-05,-0.013407951269976168,0.022417160411248083
5.757575757575758,2.9367088607594938,0.023635860408833097,0.02127333367479311,5.088065251794652e-05,-0.013472758225087861,0.02254779023007341
5.858585858585858,2.9367088607594938,0.023380257014542858,0.02116132065507377,-3.859845763450777e-06,-0.013362473300884987,0.022353541977623615
5.959595959595959,2.9367088607594938,0.023783018073954172,0.021159065321398274,-2.0686012415239828e-05,-0.013482625018605733,0.022585677867794154
6.0606060606060606,2.9367088607594938,0.023546226687506545,0.02101186238778607,-1.765988242195867e-05,-0.013367426722587785,0.02238691611025383
6.161616161616162,2.9367088607594938,0.023626404431117482,0.02133204132914378,4.6408412905636325e-05,-0.013487533728078378,0.022567011300784326
6.262626262626262,2.9367088607594938,0.023887957146840985,0.021354144458902033,0.00011652836998732677,-0.013572630481722905,0.022728128630890396
6.363636363636363,2.9367088607594938,0.02362755491613156,0.021401894466270346,3.764833162960089e-05,-0.013508834814720571,0.022597173571926085
6.4646464646464645,2.9367088607594938,0.023971536511621188,0.021100988547669224,-8.585703639627381e-05,-0.013521757517787123,0.022673448729895462
6.565656565656566,2.9367088607594938,0.023759675344536293,0.021326852510019763,3.642445865047324e-05,-0.013525958356366816,0.022641592234791872
6.666666666666667,2.9367088607594938,0.02375521299547594,0.0212559059951669,-7.216167842873e-05,-0.01350333569719285,0.022609748599493502
6.767676767676767,2.9367088607594938,0.023882033734082254,0.021440597346735805,-1.552036162266316e-05,-0.013596789324245418,0.02275975402749232
6.8686868686868685,2.9367088607594938,0.023949276196694947,0.021367835557080876,5.3592699089086504e-05,-0.013595133526132747,0.022768764740102327
6.96969696969697,2.9367088607594938,0.024127059111005413,0.02135196520058877,-4.466021242372554e-05,-0.013643707293478254,0.022866290830523616
7.070707070707071,2.9367088607594938,0.024096510343792465,0.02182111578107353,5.0977094443725305e-05,-0.013775287837459798,0.023043392947659766
7.171717171717171,2.9367088607594938,0.02424155234227296,0.02189087857212192,-1.7414163561494758e-05,-0.013839729274318464,0.023155894620104596
7.2727272727272725,2.9367088607594938,0.024252165728757873,0.021758512750057236,1.9036025053089573e-06,-0.013803203543644534,0.023106479032404946
7.373737373737374,2.9367088607594938,0.024423381142524243,0.021843555754380507,7.544190240905053e-05,-0.013880081069071426,0.023241472870118237
7.474747474747475,2.9367088607594938,0.024351041879833574,0.021905702997873363,6.077856427575478e-07,-0.01387702346331208,0.023225123777156645
7.575757575757575,2.9367088607594938,0.02441814925168127,0.021915940664454927,7.883406489404828e-05,-0.013900226974840859,0.023268571128864008
7.6767676767676765,2.9367088607594938,0.024588514933351343,0.022026333936779198,5.8660622722750804e-05,-0.013984454661039161,0.02341302918455125
7.777777777777778,2.9367088607594938,0.02469073233300676,0.022161578482017174,8.096147290177031e-05,-0.01405569324450718,0.023528745947429222
7.878787878787879,2.9367088607594938,0.024810538743390984,0.02226860258016108,3.056225399127431e-05,-0.014123742397065618,0.02364234059242667
7.979797979797979,2.9367088607594938,0.02494644892697595,0.022511112047646997,-1.48646419682165e-05,-0.014237268292386883,0.02382233900301607
8.080808080808081,2.9367088607594938,0.024955567037841003,0.02232241635840581,-6.320826641122765e-06,-0.014183395018874043,0.023748729655245836
8.181818181818182,2.9367088607594938,0.025270062560738524,0.02248592477867223,1.5431238484578502e-05,-0.014326796201823224,0.023999434648591212
8.282828282828282,2.9367088607594938,0.02522536735586415,0.022927837661267565,-2.4960220279671133e-06,-0.014445961505139514,0.024158679373447182
8.383838383838384,2.9367088607594938,0.025351576394648363,0.02286368095384155,-3.66693721399462e-05,-0.014464577204546974,0.02420380160258152
8.484848484848484,2.9367088607594938,0.025472928978475723,0.022877405576997353,1.6375532578089094e-05,-0.014505100366641923,0.02427945785384141
8.585858585858587,2.9367088607594938,0.025716713015028557,0.023157565189998952,-3.172061374566861e-05,-0.014662283461508252,0.024537496088647293
8.686868686868687,2.9367088607594938,0.02584244765331798,0.023256746442058603,9.217030627839708e-06,-0.014729758228612973,0.024651518373728174
8.787878787878787,2.9367088607594938,0.026106120582346935,0.023613928086230508,-4.88835068692645e-05,-0.014916014600573234,0.024953682018320128
8.88888888888889,2.9367088607594938,0.026180765883241263,0.023554974100619595,5.0713749267097274e-05,-0.014920721995158256,0.024971779280878462
8.98989898989899,2.9367088607594938,0.026563163827814523,0.023975639813324175,-2.7983186164195048e-05,-0.015161641092341608,0.02536861206175242
9.09090909090909,2.9367088607594938,0.02671657041120259,0.023960405983609004,3.3791462354884764e-06,-0.015203092918443479,0.025450665023726
9.191919191919192,2.9367088607594938,0.026749153384313315,0.024105962878061542,6.242503674044903e-05,-0.015256534878712456,0.025530613882353215
9.292929292929292,2.9367088607594938,0.02706918489552243,0.024337549075003222,-3.817603040395219e-05,-0.015422020191157695,0.025812086748245464
9.393939393939394,2.9367088607594938,0.027393828894410173,0.02456966785154303,-5.389475918257326e-05,-0.01558904902378596,0.02609677904740182
9.494949494949495,2.9367088607594938,0.02763541861434587,0.024797866695670894,-2.279364220455798e-05,-0.01572998559300503,0.026331591034708897
9.595959595959595,2.9367088607594938,0.027892242740156406,0.02506747953262596,-4.66632921057511e-05,-0.01588791668183471,0.026592744190380463
9.696969696969697,2.9367088607594938,0.027955968566356456,0.025381768767368328,2.5046283350886774e-05,-0.016001321200117432,0.026761919145926672
9.797979797979798,2.9367088607594938,0.02840653472361398,0.02567695118957837,0.00014300423675775228,-0.016225045773957704,0.02714599754048043
9.8989898989899,2.9367088607594938,0.028867229314759497,0.025795743064725707,-8.190910514301253e-05,-0.01639889171384556,0.02746098660796288
10.0,2.9367088607594938,0.029086521865401886,0.026200026327528856,-6.513061328384678e-05,-0.016585964457879222,0.027756300566363204
0.0,3.0379746835443036,0.02295288024117959,0.020478008080280767,7.856907096469785e-05,-0.013029266496438107,0.021821383516040432
0.10101010101010101,3.0379746835443036,0.022703717519718763,0.02026187936104787,-4.746035659303775e-05,-0.01288967906422999,0.021586785691281963
0.20202020202020202,3.0379746835443036,0.022332397818142103,0.020208212744492724,-7.800295772569122e-05,-0.012762183168790448,0.02135013493669343
0.30303030303030304,3.0379746835443036,0.022168789465715252,0.02008600354527283,-1.5036628055480025e-05,-0.012676437903296424,0.021204269836372733
0.40404040404040403,3.0379746835443036,0.02197686452650139,0.019698619252506468,-4.2748936393359714e-05,-0.012502645133702356,0.020931071893590048
0.5050505050505051,3.0379746835443036,0.021802486690431475,0.01950897152837379,-3.019839877975183e-05,-0.012393437465641578,0.020751073218506826
0.6060606060606061,3.0379746835443036,0.02162288519395056,0.01945400621414383,-1.6895760654720624e-05,-0.012323067422428316,0.020624175992268505
0.7070707070707071,3.0379746835443036,0.0213922023289185,0.019008408591844213,-8.48321199987112e-06,-0.012120183276228814,0.02030552661279821
0.8080808080808081,3.0379746835443036,0.02108221229496732,0.019032319258707013,-1.7891582018915097e-05,-0.0120343594661023,0.0201357000589472
0.9090909090909091,3.0379746835443036,0.020763286341499473,0.018890033868594804,8.288440375954177e-05,-0.011895996063028285,0.0198934377751725
1.0101010101010102,3.0379746835443036,0.020814337790997336,0.01876029796871307,4.149597629573643e-05,-0.01187239072791312,0.01986724501082701
1.1111111111111112,3.0379746835443036,0.020919166398485334,0.018548529652454588,-3.7151494912096145e-05,-0.011840308815281976,0.01984045960982988
1.2121212121212122,3.0379746835443036,0.020421504298545202,0.018593202932970718,-2.0138169971246444e-05,-0.011704412169454776,0.01957153739848803
1.3131313131313131,3.0379746835443036,0.020449240363866493,0.018040839889243782,-2.9140168610526436e-05,-0.011547024075933084,0.019357799760190194
1.4141414141414141,3.0379746835443036,0.02019824138816941,0.018103451122284495,4.80835776373745e-05,-0.01149050775313617,0.019236760592058897
1.5151515151515151,3.0379746835443036,0.02006544017627487,0.018291708480218664,-2.5152152393659712e-05,-0.011507144596948059,0.01924004169053674
1.6161616161616161,3.0379746835443036,0.02005817571435445,0.018116581962383253,-7.23162691237059e-05,-0.01145242730302131,0.019161708159008715
1.7171717171717171,3.0379746835443036,0.019971991743464715,0.017797663258136864,1.3963964424376367e-07,-0.011330896500480473,0.01897847433449487
1.8181818181818181,3.0379746835443036,0.0198036337985435,0.01764579094340338,2.0523804200331938e-05,-0.011234827422584064,0.01881776637637719
1.9191919191919191,3.0379746835443036,0.019667455938799434,0.017581340973712,-1.6966873956098042e-05,-0.01117463907375343,0.01871184085592562
2.0202020202020203,3.0379746835443036,0.019687949732756994,0.017673456698999866,5.5746890555859957e-05,-0.011208421929527057,0.01876223953648505
2.121212121212121,3.0379746835443036,0.019512736705975836,0.01761792676467269,-0.0001019434531788868,-0.011139199041194559,0.018638547378506252
2.2222222222222223,3.0379746835443036,0.01949037588424254,0.017388039675679753,8.197248468217572e-05,-0.011063524667976688,0.018529419990050693
2.323232323232323,3.0379746835443036,0.019401106582059614,0.017434226837161254,1.5103333221996468e-05,-0.01105060002576626,0.01849628593276186
2.4242424242424243,3.0379746835443036,0.019394491154019557,0.01727838455071449,9.341747544430897e-05,-0.011001862711420212,0.0184284986896732
2.525252525252525,3.0379746835443036,0.01919800699398347,0.01728795915499222,-4.6675710934372966e-05,-0.010945789844692706,0.018318001511694722
2.6262626262626263,3.0379746835443036,0.01895734205513157,0.01709271226428818,2.46382630185569e-05,-0.010815016295825925,0.018097266601146373
2.727272727272727,3.0379746835443036,0.019102238817209648,0.017151591054268153,-6.776475191904002e-05,-0.01087614896144334,0.01820583948335323
2.8282828282828283,3.0379746835443036,0.01899561167163486,0.016998621355809623,8.590679750716639e-05,-0.010798269908233345,0.0180806338518093
2.929292929292929,3.0379746835443036,0.01892805452217576,0.017061125255479377,-7.965111632208836e-05,-0.010796753933296542,0.018067605453773474
3.0303030303030303,3.0379746835443036,0.01884610684647762,0.01710923318995878,3.9406357200773715e-05,-0.010786602010930919,0.018040615993943687
3.131313131313131,3.0379746835443036,0.018765387056584027,0.016999760605906977,-6.926310772866748e-05,-0.0107295442987473,0.01794822878550196
3.2323232323232323,3.0379746835443036,0.018859212038753275,0.0168739543674362,4.3542945091130956e-05,-0.010719949921856842,0.0179492735043358
3.3333333333333335,3.0379746835443036,0.01883398442154589,0.01685201505757538,-1.7602004974589935e-06,-0.01070579984373638,0.017925367525400044
3.4343434343434343,3.0379746835443036,0.018539539390517928,0.01694589839494694,-3.6973260525540275e-05,-0.01064563133563946,0.017796430639023645
3.5353535353535355,3.0379746835443036,0.018596810541830495,0.016725377077369992,7.77116208032655e-05,-0.010596656285760146,0.01773581261877929
3.6363636363636362,3.0379746835443036,0.018523491928656655,0.016839316720073008,6.889277738738037e-05,-0.010608842594618898,0.017741861010781863
3.7373737373737375,3.0379746835443036,0.018587466559549064,0.016577120908786373,-1.6308306059769532e-05,-0.01054937624050063,0.017668304051712165
3.8383838383838382,3.0379746835443036,0.01847182525704041,0.016767727356111987,-9.861302332806467e-06,-0.010571865783945719,0.017681481020310395
3.9393939393939394,3.0379746835443036,0.018489963169522023,0.016591865919838817,6.881040815995532e-05,-0.010524548726808252,0.017618171515725905
4.040404040404041,3.0379746835443036,0.018418084865248225,0.016570387567933338,3.148628343919332e-05,-0.01049654172995447,0.017567349371401753
4.141414141414141,3.0379746835443036,0.018465947012701597,0.016702705339787356,-2.4544202974209645e-05,-0.010550595705746684,0.017650555238407705
4.242424242424242,3.0379746835443036,0.018583474078330796,0.01677870651546908,0.00010113587526991983,-0.010608654178139963,0.01775090220101213
4.343434343434343,3.0379746835443036,0.018371186033529326,0.01673360984951824,2.68529566864625e-05,-0.01053143876491427,0.017609658672452656
4.444444444444445,3.0379746835443036,0.01850999150477188,0.01657764532585912,-2.5985837042415933e-05,-0.0105262910491893,0.01762350877938649
4.545454545454545,3.0379746835443036,0.018489753740750705,0.016659043249737715,-2.3676494815115685e-05,-0.010544639097146527,0.017645815081069247
4.646464646464646,3.0379746835443036,0.018460249129315588,0.016550259994127285,-2.6600903957338934e-05,-0.010503152737032862,0.017583290476112436
4.747474747474747,3.0379746835443036,0.01842088399092809,0.016423056688333548,1.8938039653551717e-05,-0.01045318220377849,0.017507701502803213
4.848484848484849,3.0379746835443036,0.018367185014921916,0.01654076323258925,1.4356452505488791e-05,-0.01047238447425335,0.017525515496873395
4.94949494949495,3.0379746835443036,0.01837869667235374,0.01662412570612538,2.4326420128910106e-05,-0.010500846713543736,0.01756730082840381
5.05050505050505,3.0379746835443036,0.01833691299729869,0.01657617190798478,-8.529591183870472e-05,-0.01047392547158504,0.017523637107242064
5.151515151515151,3.0379746835443036,0.018479753290068377,0.016519015329345254,5.900798218864144e-06,-0.010499630585824088,0.01758157915802894
5.252525252525253,3.0379746835443036,0.018309416097286875,0.016581633688789316,2.6299009824596543e-05,-0.010467314935822857,0.017509635568614793
5.353535353535354,3.0379746835443036,0.018344059419268192,0.016524943978211904,-2.49333821358984e-05,-0.01046070101924403,0.01750558768636234
5.454545454545454,3.0379746835443036,0.018525586542409222,0.016678550884554468,8.243938770114493e-06,-0.010561241228089107,0.01767460558040139
5.555555555555555,3.0379746835443036,0.018369342294580048,0.016519362445626996,7.893671901870053e-05,-0.010466611422062112,0.01751830304882051
5.656565656565657,3.0379746835443036,0.018512606041579283,0.016572670679409804,-8.223624119360775e-05,-0.010525583016296726,0.017623477549911608
5.757575757575758,3.0379746835443036,0.0183641869827631,0.016794635101349785,7.541132632004966e-05,-0.010547646625233867,0.017632367198459887
5.858585858585858,3.0379746835443036,0.018423090095499316,0.016814286108167945,-5.9023090340528766e-05,-0.010571212861100179,0.017673986797197568
5.959595959595959,3.0379746835443036,0.018504975137609066,0.016684650249180196,-8.509531284093213e-06,-0.010556887616036778,0.01766530039304693
6.0606060606060606,3.0379746835443036,0.01850508423266178,0.01673393674403513,3.0214324378279736e-05,-0.010571706293009074,0.01768622659402128
6.161616161616162,3.0379746835443036,0.018699025316606912,0.01653850814229107,2.9519553469791556e-05,-0.010571260037669394,0.017717912719173078
6.262626262626262,3.0379746835443036,0.01856090887515819,0.016782483860888604,5.91475331326936e-05,-0.010603017820814038,0.017738980930825005
6.363636363636363,3.0379746835443036,0.018479492953570785,0.01659280760561458,-1.4441773384781319e-05,-0.01052169016775561,0.017612123055570514
6.4646464646464645,3.0379746835443036,0.01880775780976746,0.01682029653663373,-4.40832497142629e-05,-0.010688416303920357,0.017897147701809914
6.565656565656566,3.0379746835443036,0.018680678649882397,0.016708095619493702,-7.046101934831279e-05,-0.01061663228081283,0.017777079152571432
6.666666666666667,3.0379746835443036,0.018869743059255862,0.01682217772279807,3.3831922185316806e-05,-0.010707576234616179,0.01793393790917871
6.767676767676767,3.0379746835443036,0.018744552899443215,0.01686036244478281,3.4472215102106006e-05,-0.010681474603267807,0.017877183626631255
6.8686868686868685,3.0379746835443036,0.01879127257907922,0.01717379086310242,7.955403551322965e-05,-0.010789519032654493,0.018037533616320066
6.96969696969697,3.0379746835443036,0.018835445541261465,0.017148621447181593,7.411152251660888e-06,-0.010795220096532917,0.01805124554361828
7.070707070707071,3.0379746835443036,0.018748380017503466,0.017085485557053855,-1.2181293551716381e-05,-0.010750159672367197,0.01797472779058265
7.171717171717171,3.0379746835443036,0.018927198385878766,0.017114956882430133,-4.226747761570326e-06,-0.010812646580492668,0.018089291228307647
7.2727272727272725,3.0379746835443036,0.01921611377240649,0.017148761963191168,-5.753940795464058e-05,-0.010909462720679297,0.01827064412641403
7.373737373737374,3.0379746835443036,0.019115028846042742,0.017318971249289248,1.7319909241479035e-05,-0.010930200028599596,0.01828330817556203
7.474747474747475,3.0379746835443036,0.019164489695761636,0.017209663413144397,-8.527347410291231e-07,-0.010912245932671809,0.01826569914143482
7.575757575757575,3.0379746835443036,0.019072461170448106,0.017149771324385273,3.4524523295099395e-05,-0.010866669748450013,0.01818759631558502
7.6767676767676765,3.0379746835443036,0.0193694535076696,0.01739566287627275,9.289041811284427e-06,-0.011029534915182704,0.018461868584532345
7.777777777777778,3.0379746835443036,0.01929495829405816,0.017446689773767447,9.294276421319821e-05,-0.011022494420347683,0.018441126949011826
7.878787878787879,3.0379746835443036,0.019373181806021083,0.017535805959646277,-1.382871966552875e-05,-0.011072696329700208,0.01852298249938815
7.979797979797979,3.0379746835443036,0.0197032969023552,0.01763938980407264,-6.0624495850616705e-05,-0.011202806011928352,0.01875699530801383
8.080808080808081,3.0379746835443036,0.019612734262206298,0.017551703716063745,-2.0727090218999026e-05,-0.011149331393481012,0.018667780708511564
8.181818181818182,3.0379746835443036,0.019701577334467504,0.01775450985733011,0.00010448030849123156,-0.011236826157539286,0.018804671471601628
8.282828282828282,3.0379746835443036,0.01981849689785975,0.017710125913281614,9.657843267232756e-06,-0.011258586843342407,0.01885294628177511
8.383838383838384,3.0379746835443036,0.02004900073516424,0.01795558679127107,-2.4032240994879722e-05,-0.011401376257930591,0.019088627173393248
8.484848484848484,3.0379746835443036,0.020102259113302656,0.01798103148719753,-2.0123413865902107e-05,-0.011424987180150054,0.01913008561343119
8.585858585858587,3.0379746835443036,0.020339621320205024,0.01814699922993226,-7.145753918187549e-05,-0.011545986165041185,0.0193371663540795
8.686868686868687,3.0379746835443036,0.020449094433982417,0.01849769446572451,-0.00010566814529179068,-0.011684036669912079,0.019547443823872714
8.787878787878787,3.0379746835443036,0.02031404581852752,0.0184534171547884,-3.59820674696262e-05,-0.011630238891994774,0.01945069111221087
8.88888888888889,3.0379746835443036,0.020716863370599754,0.018609000430288205,-1.454249583784055e-05,-0.011797759140266387,0.01974750212065838
8.98989898989899,3.0379746835443036,0.020680542074950493,0.018773364978874014,5.579982517476613e-05,-0.011836172116147353,0.019796212508236856
9.09090909090909,3.0379746835443036,0.020978891433263088,0.018884751294453685,-1.2989252904304416e-05,-0.011959092818315031,0.020014171884781145
9.191919191919192,3.0379746835443036,0.021123861290232165,0.0189679453785338,-4.3434322460847146e-05,-0.01202754200062979,0.02013280606811344
9.292929292929292,3.0379746835443036,0.02137956104384422,0.019163459808294793,-9.662556551995013e-05,-0.012162906255641703,0.020362845404526198
9.393939393939394,3.0379746835443036,0.021446120174065657,0.019450976406074065,3.819866712290079e-05,-0.012269128974041916,0.020521524153362627
9.494949494949495,3.0379746835443036,0.021783879917965952,0.01954163516135054,-4.5790450611129634e-05,-0.012397654523794948,0.02075395349325598
9.595959595959595,3.0379746835443036,0.02189582951564916,0.01966497824771843,-8.205827186452801e-05,-0.012468242329010277,0.02087050332887456
9.696969696969697,3.0379746835443036,0.02214653832144287,0.020020510948874925,2.3280172054858646e-05,-0.012650114781095338,0.021163804743766324
9.797979797979798,3.0379746835443036,0.022444787590383326,0.019979434354873635,-5.034452089964924e-05,-0.012727266583577089,0.021319468346076034
9.8989898989899,3.0379746835443036,0.022872925743478916,0.020384319354954227,9.971544351802954e-05,-0.012977173529529942,0.021736421375269252
10.0,3.0379746835443036,0.022754578638534376,0.020355039410268026,-1.3070571617924684e-05,-0.012932885414640721,0.021654760353763475
0.0,3.1392405063291138,0.022959227208817996,0.02031042596386331,-2.410576442581132e-06,-0.012980895951804391,0.021756099142082524
0.10101010101010101,3.1392405063291138,0.022503820143815554,0.020333990605977778,2.7910229633801647e-05,-0.012851343224937998,0.021501231698881507
0.20202020202020202,3.1392405063291138,0.022309257056182485,0.020273814965893356,-2.478215061662971e-05,-0.012774921606622752,0.021364424086585683
0.30303030303030304,3.1392405063291138,0.022134608964916116,0.01988876393292483,5.28214713593957e-05,-0.012607011869352282,0.02110171089466558
0.40404040404040403,3.1392405063291138,0.022217230984055866,0.019570174780813587,-2.0426652423805916e-05,-0.012536221729460836,0.0210191163418254
0.5050505050505051,3.1392405063291138,0.02155936620896953,0.019433238366506303,-8.413894104491798e-06,-0.01229778137264275,0.020578846774128173
0.6060606060606061,3.1392405063291138,0.021580708225362025,0.019382754868281622,4.57717269587145e-06,-0.012289038928093094,0.020569993661339124
0.7070707070707071,3.1392405063291138,0.021326342425894033,0.019108738667620508,0.00011587851277747404,-0.012130524328054362,0.020309543423486322
0.8080808080808081,3.1392405063291138,0.021015364025352114,0.019086064218299847,4.1207238629962884e-05,-0.012030428473095588,0.02012033496773494
0.9090909090909091,3.1392405063291138,0.02082291151768952,0.01867494542813888,-1.5094124779699995e-05,-0.01184935708374852,0.0198363600004508
1.0101010101010102,3.1392405063291138,0.020794606720618416,0.018689178312573235,4.029201981002546e-05,-0.011845135509957494,0.019826038738574487
1.1111111111111112,3.1392405063291138,0.020645739634495314,0.018690083634714298,9.177614143252008e-05,-0.011800746980762883,0.019741338846165968
1.2121212121212122,3.1392405063291138,0.020473743342496423,0.018403843019607218,4.778305057669558e-05,-0.011663275908631093,0.01952144706484375
1.3131313131313131,3.1392405063291138,0.0203659355307701,0.01837450506598436,-7.095608709854566e-05,-0.011622132179026337,0.019447233355380192
1.4141414141414141,3.1392405063291138,0.020310267786902245,0.018138204207101,-6.590645333439645e-07,-0.011534541598200974,0.01931604633763171
1.5151515151515151,3.1392405063291138,0.02013908666551453,0.017867036795375223,4.701305632366876e-05,-0.011401837038266926,0.01910483299515579
1.6161616161616161,3.1392405063291138,0.019799080246163336,0.01807837901388947,-4.78974497102825e-06,-0.011363237778015843,0.018997267129044437
1.7171717171717171,3.1392405063291138,0.01986802349158085,0.01762744681631047,4.854361236210389e-05,-0.011248641092367395,0.018848071008135493
1.8181818181818181,3.1392405063291138,0.019664224492044524,0.017786828704026536,3.03109748483987e-05,-0.011235315958821318,0.01879605181542059
1.9191919191919191,3.1392405063291138,0.019629371956337533,0.017550498840190977,4.874349331631488e-05,-0.011153961238958553,0.01867710124646858
2.0202020202020203,3.1392405063291138,0.019643559101956098,0.017482159260273408,2.0844390875714444e-05,-0.011137715508668851,0.018657030347847662
2.121212121212121,3.1392405063291138,0.01971683611119103,0.01752764109118102,-5.429788711394143e-05,-0.011173343160711615,0.018718735171690034
2.2222222222222223,3.1392405063291138,0.019226935649200933,0.017361678128004637,3.926201581240886e-07,-0.01097658413316167,0.018365485406384323
2.323232323232323,3.1392405063291138,0.019513058966760866,0.017454765172356876,-3.0373192332086074e-05,-0.011090347241735321,0.018569738904887244
2.4242424242424243,3.1392405063291138,0.019357455467758154,0.017323011171831746,-6.267360750717472e-05,-0.01100413999187697,0.018424987513229726
2.525252525252525,3.1392405063291138,0.019113292201229044,0.017295312975368102,-7.89626801766895e-06,-0.010922581552979144,0.018272263300662193
2.6262626262626263,3.1392405063291138,0.01914269930690951,0.017222839585197856,-4.631806932280756e-05,-0.01090966166763221,0.01825880436480628
2.727272727272727,3.1392405063291138,0.018981126510144577,0.017249939493068845,-3.5678734553431404e-06,-0.010869319800964027,0.018177467658822378
2.8282828282828283,3.1392405063291138,0.01915243010177641,0.01715402245190042,9.896566141532043e-06,-0.01089193576610305,0.018235546137570793
2.929292929292929,3.1392405063291138,0.019004800772563463,0.01697776065540901,5.6897751689586885e-05,-0.010794768428391742,0.018076989863340363
3.0303030303030303,3.1392405063291138,0.018932295382263715,0.016958525422313075,-1.90414880631612e-05,-0.010767246241373037,0.018026665474581434
3.131313131313131,3.1392405063291138,0.01880396497397441,0.01684343768749737,6.964528655882794e-05,-0.010694220798441534,0.017904793518939605
3.2323232323232323,3.1392405063291138,0.018743348812449385,0.01674198262910516,8.055364024323804e-05,-0.010645599432466363,0.017827668201309713
3.3333333333333335,3.1392405063291138,0.018753016991733845,0.01686679092007114,8.13169192628203e-05,-0.010685942373541495,0.017885214643319537
3.4343434343434343,3.1392405063291138,0.018870157231280334,0.016639779791644334,6.323885751935413e-05,-0.0106529811068774,0.01786006276430035
3.5353535353535355,3.1392405063291138,0.018745408419052055,0.016682200616989242,-1.3791100806339239e-05,-0.010628282710812387,0.017803709189713888
3.6363636363636362,3.1392405063291138,0.018484341661078475,0.016657388228576184,-6.033631079295051e-05,-0.010542518966896397,0.017642265598668473
3.7373737373737375,3.1392405063291138,0.018446851415113614,0.01681253865151132,-5.171920031700489e-05,-0.010577817019987478,0.01768664482742845
3.8383838383838382,3.1392405063291138,0.0185578876371516,0.016614193244809467,2.7106991402950228e-05,-0.01055162426458832,0.01766647909677727
3.9393939393939394,3.1392405063291138,0.01846294480488297,0.016808159467043293,5.2701342196071266e-05,-0.010581331281577878,0.01769391893618902
4.040404040404041,3.1392405063291138,0.018481843269342896,0.016625684362391188,5.4300397091048586e-05,-0.010532258289520225,0.01762746334894808
4.141414141414141,3.1392405063291138,0.018377260690636745,0.016768887188086994,-1.6091690441393148e-06,-0.010543844363617121,0.017628190050011726
4.242424242424242,3.1392405063291138,0.018342483372633122,0.016669472157582063,5.927863186605451e-05,-0.010503586659064557,0.01756613287765108
4.343434343434343,3.1392405063291138,0.018256579561613074,0.01676466527856504,-4.5391597414101275e-05,-0.010506373452053434,0.017558400693150983
4.444444444444445,3.1392405063291138,0.018505261817243036,0.016659929970730562,-2.832412927192343e-05,-0.01054955753639208,0.01765514152755376
4.545454545454545,3.1392405063291138,0.018513526303489937,0.016522583933603355,7.213129277484758e-05,-0.010510833071127988,0.01760314609797884
4.646464646464646,3.1392405063291138,0.01836745315661451,0.01656128540600488,-6.262625485603542e-05,-0.010478621568785816,0.017534612684483572
4.747474747474747,3.1392405063291138,0.018472095599548495,0.016639070589722627,-1.8878833892149155e-06,-0.010533349856781338,0.01762720891122444
4.848484848484849,3.1392405063291138,0.01855013040936432,0.016746896742725906,5.7302516380248675e-05,-0.010589108145627068,0.017717748754324653
4.94949494949495,3.1392405063291138,0.018462482281724105,0.016653494738216926,-7.55753932771742e-05,-0.010534793105982309,0.017628227999032877
5.05050505050505,3.1392405063291138,0.018302752350290687,0.016747168820523423,7.913098395981567e-05,-0.010514976351244232,0.017577198546597252
5.151515151515151,3.1392405063291138,0.01842862705400992,0.01668671228300743,-6.247000360961931e-05,-0.010534601801105206,0.017622689124949117
5.252525252525253,3.1392405063291138,0.01830814516868837,0.016550587810996505,9.618960678732816e-06,-0.010457619893905463,0.017495709465741555
5.353535353535354,3.1392405063291138,0.01838894665914955,0.01664323564942184,-6.932521004895794e-05,-0.010509654692571415,0.017581623857784126
5.454545454545454,3.1392405063291138,0.0185392941140089,0.01641999619130148,9.551581017863747e-05,-0.010487787091593113,0.017576516498914636
5.555555555555555,3.1392405063291138,0.018403288963973606,0.016689036791441816,-2.903304600267746e-05,-0.010527697726624626,0.01760892829980295
5.656565656565657,3.1392405063291138,0.01858574286950011,0.016445473730818568,-2.8668991205091378e-05,-0.010509364980095602,0.01761347676772747
5.757575757575758,3.1392405063291138,0.018518729336816937,0.016653046706200485,-5.659066847354196e-05,-0.010551532812905226,0.017660227738479372
5.858585858585858,3.1392405063291138,0.01862978842243169,0.016556671670558694,3.7833854733739334e-05,-0.010555938027897114,0.017684722148531642
5.959595959595959,3.1392405063291138,0.01850484734448998,0.01674026197858876,-2.2304045377981956e-05,-0.010573532796923623,0.017688732185926394
6.0606060606060606,3.1392405063291138,0.01859897939513021,0.01671098562420204,8.421591642469892e-05,-0.010592989505799675,0.01773113292312852
6.161616161616162,3.1392405063291138,0.01849911234626999,0.016911812183315254,0.00010123706570321409,-0.010623277358875574,0.01775961098098433
6.262626262626262,3.1392405063291138,0.018549114618257503,0.016759000164108744,2.126417873285713e-05,-0.010592434434709872,0.01772203377680714
6.363636363636363,3.1392405063291138,0.018640648857874396,0.016699840168748044,-2.1138720044043874e-06,-0.010602146707986733,0.01775000305187047
6.4646464646464645,3.1392405063291138,0.018705104590742407,0.016748377044116348,7.44666875359092e-06,-0.010636044490457627,0.017807557198721482
6.565656565656566,3.1392405063291138,0.018769731762553442,0.016876297942833643,-5.216858907508747e-05,-0.010693808911616125,0.017898515073788576
6.666666666666667,3.1392405063291138,0.018697552123458073,0.016761735387202756,-6.024578312152955e-06,-0.010637786253198247,0.017808731465346794
6.767676767676767,3.1392405063291138,0.018884861235589172,0.016945020615458484,1.5182027318880276e-06,-0.010748964555314296,0.017993536381252544
6.8686868686868685,3.1392405063291138,0.01871945275671393,0.01698521617328554,1.4977593816312502e-05,-0.01071140067899984,0.01791541797532625
6.96969696969697,3.1392405063291138,0.018957820567753563,0.017023849583120573,3.066168368539087e-05,-0.010794501045262242,0.018068706371933984
7.070707070707071,3.1392405063291138,0.018790361909301424,0.016912684412986836,7.620297185357698e-05,-0.010710913896686478,0.017925918510267414
7.171717171717171,3.1392405063291138,0.018752101504878403,0.017107648279497515,-7.577012459618524e-05,-0.010757924935312775,0.017986823143421
7.2727272727272725,3.1392405063291138,0.019054892649051598,0.017128032057306248,1.3229605829311525e-05,-0.010854877411907353,0.01816827259122114
7.373737373737374,3.1392405063291138,0.019041365777351556,0.017150792549344353,-1.5222124672468505e-05,-0.010857647498008773,0.018170015866070064
7.474747474747475,3.1392405063291138,0.019191827359126504,0.017150624087763845,8.22036544154504e-05,-0.010902735434067104,0.01825756280862973
7.575757575757575,3.1392405063291138,0.019320659328916214,0.017310545014334103,1.4328565048630385e-05,-0.010989361302975094,0.018398160736900718
7.6767676767676765,3.1392405063291138,0.019361362009429253,0.017521110100577504,-2.440858942063011e-05,-0.011064741633002025,0.018510020796587274
7.777777777777778,3.1392405063291138,0.01930882807414921,0.017467119963261345,-6.940329409944643e-05,-0.011032784411223167,0.018457409231486376
7.878787878787879,3.1392405063291138,0.019401199578193255,0.017554663436756823,6.00575652487134e-05,-0.011086758904485022,0.018547292129030394
7.979797979797979,3.1392405063291138,0.019509417073241882,0.017515954759596986,2.0242065573252354e-05,-0.01110761154985166,0.018593041388126695
8.080808080808081,3.1392405063291138,0.019475579070430852,0.0178001340799965,1.3035593414574904e-05,-0.011182713945128205,0.018694265014578704
8.181818181818182,3.1392405063291138,0.01974280339046354,0.017781337663070954,1.051838412289915e-06,-0.011257242316060347,0.018838811125447434
8.282828282828282,3.1392405063291138,0.01988643843434982,0.01778280689482849,4.309846068442604e-06,-0.011300773598753493,0.018922526678071473
8.383838383838384,3.1392405063291138,0.019988473402035117,0.01793229513415617,4.7919579032820335e-05,-0.011376230560857386,0.019044000689298086
8.484848484848484,3.1392405063291138,0.02021325839769873,0.01810815800472721,1.8955518845554086e-05,-0.01149642492072778,0.01924727000006704
8.585858585858587,3.1392405063291138,0.02037145222199796,0.01817718899410689,-7.1334557284009895e-06,-0.011564592364831455,0.0193677742886353
8.686868686868687,3.1392405063291138,0.02033341616354631,0.018144209866739383,-4.254926429949851e-05,-0.011543287809085707,0.019332144881228034
8.787878787878787,3.1392405063291138,0.02042552460860125,0.018452537629759527,6.364015921371049e-05,-0.011663418671508234,0.019514291923512547
8.88888888888889,3.1392405063291138,0.020646581514482374,0.01845451057432668,-5.6027572965265786e-05,-0.011730327626642716,0.01964273782231451
8.98989898989899,3.1392405063291138,0.020910460164256413,0.018758412373019197,3.929588240202498e-06,-0.011900661761182681,0.019921806913316693
9.09090909090909,3.1392405063291138,0.02088265718605461,0.018887500386842056,4.0065917479766134e-05,-0.011931047271869,0.019960126807377025
9.191919191919192,3.1392405063291138,0.020991656042061647,0.01922543897132557,2.514206442447541e-05,-0.012065128504016165,0.020166685926420434
9.292929292929292,3.1392405063291138,0.021398961028621998,0.018934317875203138,-2.8891928741211727e-06,-0.012099983671147542,0.020279280589582404
9.393939393939394,3.1392405063291138,0.021581463876016834,0.019419067663497762,6.994462582933693e-05,-0.012300159461854377,0.020585979243593625
9.494949494949495,3.1392405063291138,0.021577073081525452,0.01953605933911464,4.830588047974316e-05,-0.012333939726192027,0.020632588726480033
9.595959595959595,3.1392405063291138,0.021799625720619862,0.019818995197899158,6.577962094657664e-05,-0.012485586275555705,0.020880195296406893
9.696969696969697,3.1392405063291138,0.02198424468489799,0.01993023153641474,2.8187629993425164e-05,-0.012574342866393817,0.021032651767307137
9.797979797979798,3.1392405063291138,0.022251210730240906,0.020175257286193283,8.75898048269192e-05,-0.012727940404930256,0.021289821512532628
9.8989898989899,3.1392405063291138,0.022410308829862738,0.02020240107346514,-3.3933642708663635e-05,-0.012783812970998362,0.021392062974341382
10.0,3.1392405063291138,0.0229646693456633,0.02069880325878972,-3.139643196974404e-05,-0.013099041781335906,0.02191981475789677
0.0,3.240506329113924,0.02297876415911293,0.020632584727531406,3.882574175653933e-05,-0.0130834046659933,0.021900236955035544
0.10101010101010101,3.240506329113924,0.022766218205209087,0.020404064656117805,4.569664168011622e-05,-0.012951084858398066,0.02168200687604908
0.20202020202020202,3.240506329113924,0.02247490405810123,0.020189215798659968,-6.030800454632385e-05,-0.012799235957028358,0.02142395785257171
0.30303030303030304,3.240506329113924,0.022249463714937787,0.019988545477092362,-1.768920821806509e-05,-0.012671402757609045,0.021209599414167033
0.40404040404040403,3.240506329113924,0.02192911902831498,0.0197734846460811,3.863692669612909e-05,-0.012510781102318824,0.020934811593005885
0.5050505050505051,3.240506329113924,0.021779868973523627,0.01960781714500546,6.35567201604943e-05,-0.012416305835558724,0.020779451768293378
0.6060606060606061,3.240506329113924,0.021495563260301782,0.0194060357593253,-6.3321411429035e-05,-0.012270479705888125,0.020530996645974804
0.7070707070707071,3.240506329113924,0.021245618785666075,0.019170277146881253,6.493341856928615e-05,-0.012124768779764197,0.0202880282985415
0.8080808080808081,3.240506329113924,0.021058689332932267,0.019114978126005856,2.957413837526578e-05,-0.012052100237681435,0.02015730694081594
0.9090909090909091,3.240506329113924,0.020888420789819083,0.01886056205451388,-3.405060077028999e-05,-0.01192469485329989,0.019952018592307212
1.0101010101010102,3.240506329113924,0.020780185093911184,0.01864544270988795,-1.9272560936653332e-05,-0.011827688341139739,0.01979934317118497
1.1111111111111112,3.240506329113924,0.02066741059425425,0.01861664751196705,-3.227632892702253e-05,-0.011785217431866389,0.019722237513077057
1.2121212121212122,3.240506329113924,0.020461905478160923,0.018649113734562885,8.384069620599883e-05,-0.011733305763817143,0.019618962872200368
1.3131313131313131,3.240506329113924,0.020369778471335816,0.018293172914395174,-6.527290252800281e-05,-0.011598885415719297,0.01941527625604643
1.4141414141414141,3.240506329113924,0.020155503864830344,0.01822097860518784,-4.0301601189203875e-08,-0.011512944741005454,0.019261240683894745
1.5151515151515151,3.240506329113924,0.019949007094268237,0.01822266073542776,-2.6183198784268265e-05,-0.0114515003489088,0.01914435469578092
1.6161616161616161,3.240506329113924,0.019841409770326463,0.017980220103704023,-2.2545681873629167e-05,-0.011346488962209144,0.018979422191855812
1.7171717171717171,3.240506329113924,0.01972374347694912,0.01794333899640329,-0.00011323367791684387,-0.011300124742005722,0.018897569187511593
1.8181818181818181,3.240506329113924,0.019611042948875123,0.01776692079709256,3.086470871139008e-06,-0.011213389123790305,0.01875709630808157
1.9191919191919191,3.240506329113924,0.019496286132517162,0.01780924766875564,9.506487781796657e-07,-0.011191660140381839,0.018709898178352932
2.0202020202020203,3.240506329113924,0.01947329327399658,0.017637503948509433,-2.944193077416519e-05,-0.011133239166751805,0.01862345322275202
2.121212121212121,3.240506329113924,0.0195946404251293,0.017302989649769836,-1.1659864275329098e-05,-0.01106928902246974,0.018555266950396703
2.2222222222222223,3.240506329113924,0.01952828291690455,0.01747135585828195,-2.6293587250667362e-05,-0.01109989163255595,0.018585440622302527
2.323232323232323,3.240506329113924,0.019008444226858944,0.017346553925535087,-1.8656470937834125e-05,-0.010906499445718207,0.018234415987003604
2.4242424242424243,3.240506329113924,0.019317792520936353,0.017397262030741153,-9.255369362852207e-07,-0.011014516365503251,0.018432719231731565
2.525252525252525,3.240506329113924,0.0190770726701188,0.017136526027873834,4.452964629462374e-05,-0.01086407960939779,0.018184785461645044
2.6262626262626263,3.240506329113924,0.019058464971645796,0.017181776199429382,3.175412504834415e-05,-0.010872072351322553,0.0181929454890795
2.727272727272727,3.240506329113924,0.01899479524520361,0.01709544121231974,6.0844628911232624e-05,-0.010827070937257004,0.018120238889243794
2.8282828282828283,3.240506329113924,0.018917036586196877,0.016972528175399213,-6.548152218263587e-05,-0.010766869428478827,0.018023981605161197
2.929292929292929,3.240506329113924,0.019024365075280665,0.017043606547548586,8.363306329879234e-07,-0.010820391486848775,0.018115385715008616
3.0303030303030303,3.240506329113924,0.018967646420601416,0.01704567691724483,-3.513748162376582e-05,-0.010803997001353875,0.01808352961857238
3.131313131313131,3.240506329113924,0.018858441632367624,0.016915821267674765,-7.577137465038075e-05,-0.010732278870012716,0.017966552975598186
3.2323232323232323,3.240506329113924,0.018836106911816138,0.016800492099079214,-2.3980916588694973e-05,-0.010690979703268605,0.017905343288200135
3.3333333333333335,3.240506329113924,0.018664097552763905,0.016846022362086405,4.4745661725930926e-05,-0.010653035974455093,0.01782490416983244
3.4343434343434343,3.240506329113924,0.018664047175101627,0.016887847890102718,2.2755435952049327e-05,-0.010665568519561302,0.017842422117987356
3.5353535353535355,3.240506329113924,0.018519329438415364,0.01692196400433731,1.564204141958826e-05,-0.010632388032825802,0.017774581190331765
3.6363636363636362,3.240506329113924,0.018564606453552623,0.016779242002378323,2.6305544705025608e-05,-0.010603154536779283,0.017739493412486092
3.7373737373737375,3.240506329113924,0.018589003605405264,0.016742956034121837,-6.784468720586792e-06,-0.01059958789185813,0.01773817633822377
3.8383838383838382,3.240506329113924,0.018364888584069667,0.01658675901222419,3.243153149449929e-05,-0.010485494278888157,0.017543627943423994
3.9393939393939394,3.240506329113924,0.018573155471020758,0.016748732665979364,-1.969201045773589e-05,-0.010596566441100037,0.017731511431493412
4.040404040404041,3.240506329113924,0.018399553206495695,0.016733282821848498,-5.09199419908868e-05,-0.010539850808503256,0.017625809573354956
4.141414141414141,3.240506329113924,0.018546422747235024,0.016569811101537296,-0.00010075765700502335,-0.010534870154631696,0.01764222694121074
4.242424242424242,3.240506329113924,0.018529660743792208,0.01658829807610572,3.1982865526466063e-05,-0.010535387645969379,0.017639373384156495
4.343434343434343,3.240506329113924,0.0185375070691217,0.01660872884883048,-6.6267000640272955e-06,-0.010543870775385655,0.0176523297501166
4.444444444444445,3.240506329113924,0.018494324856638083,0.01666090284380177,9.501320595860714e-05,-0.010546568310131956,0.01764994811332961
4.545454545454545,3.240506329113924,0.0184802880895639,0.016596722268165862,1.0641440995963857e-05,-0.010523103107318929,0.017614209286326867
4.646464646464646,3.240506329113924,0.018278068595840035,0.01663859248679602,9.812561223961114e-05,-0.010474998324790815,0.017516794873245065
4.747474747474747,3.240506329113924,0.01843846431995124,0.016572538747264713,4.0766793752773716e-05,-0.010503300920164787,0.01758006906754561
4.848484848484849,3.240506329113924,0.018427673581015828,0.01650221870878703,-5.260888164389852e-05,-0.010478967686940857,0.01754460541808601
4.94949494949495,3.240506329113924,0.0185813997104324,0.016561528016536573,4.229069470854792e-05,-0.010542878318090693,0.017658471594653065
5.05050505050505,3.240506329113924,0.018356859662515365,0.01675576057193458,-1.2028890326830113e-05,-0.010533786070334982,0.017610993661295135
5.151515151515151,3.240506329113924,0.018288585641429517,0.016678016654972743,-8.82088942392275e-05,-0.010489980688920679,0.017539515694877723
5.252525252525253,3.240506329113924,0.018537929786739314,0.016530652693629373,-1.7837318985452116e-05,-0.010520574744110606,0.017620277943376606
5.353535353535354,3.240506329113924,0.01829901236908363,0.016486778971722585,-5.080012745827531e-05,-0.010435737402241864,0.017463782642235894
5.454545454545454,3.240506329113924,0.018358669577732918,0.0166279033920661,2.348780680466744e-05,-0.010495971890939705,0.01755743121205545
5.555555555555555,3.240506329113924,0.018409887243310816,0.01665322399331854,-7.606716242679176e-06,-0.010518933370988807,0.01759744343121642
5.656565656565657,3.240506329113924,0.018582439832122537,0.01675340186905746,-4.106580298796855e-05,-0.010600752510353998,0.01773892672305706
5.757575757575758,3.240506329113924,0.01838014951676143,0.016582644407357884,9.899302596316926e-05,-0.010488838177235794,0.017551407552285528
5.858585858585858,3.240506329113924,0.01839674442099182,0.01672221222321064,-7.621245736655539e-05,-0.010535686993260738,0.01761975446824873
5.959595959595959,3.240506329113924,0.018501252929591677,0.01679695243834298,-3.0074279654967248e-05,-0.010589461610380395,0.017710788211128998
6.0606060606060606,3.240506329113924,0.018438641170415083,0.01668557174085755,-2.374497388070372e-05,-0.010537263873381789,0.017627654805704968
6.161616161616162,3.240506329113924,0.018415109227306756,0.016829978030428523,-8.006411253361057e-05,-0.010573526177320583,0.01767647463215384
6.262626262626262,3.240506329113924,0.01849310352042727,0.01665817156244447,-1.1933543087298623e-05,-0.010545382524861521,0.017647342397202524
6.363636363636363,3.240506329113924,0.018681093300114623,0.016700417019124607,8.3931082684597e-05,-0.010614453095771768,0.017774314622372563
6.4646464646464645,3.240506329113924,0.018612956099124642,0.0167739938478517,2.6739588044564027e-05,-0.010616084984092904,0.01776506510754643
6.565656565656566,3.240506329113924,0.018830512090145565,0.016808135089101783,8.175710099603472e-05,-0.010691594153774204,0.017905749144148414
6.666666666666667,3.240506329113924,0.018620607617596013,0.01687548097651412,-1.0331039373407964e-05,-0.01064882657823304,0.017812284996777162
6.767676767676767,3.240506329113924,0.018738569739240447,0.016846842087045656,5.9535802684414025e-05,-0.01067562354788583,0.01786826774982842
6.8686868686868685,3.240506329113924,0.018882670333289473,0.016917526200650176,3.7387166563211865e-05,-0.010740058960181894,0.017980935875654025
6.96969696969697,3.240506329113924,0.01909256033726528,0.016896128659505027,-9.117471649623901e-05,-0.010796606699031092,0.01809529238502794
7.070707070707071,3.240506329113924,0.018951930603299038,0.016929067817938043,5.920371277668065e-05,-0.010764299526371125,0.018026120146923546
7.171717171717171,3.240506329113924,0.019020308449330885,0.017133300947017715,3.523618731199457e-05,-0.010846082818904578,0.018150625081466615
7.2727272727272725,3.240506329113924,0.018988267902895796,0.01702116532053112,-6.728769133755602e-05,-0.010802829967028074,0.01808550587059943
7.373737373737374,3.240506329113924,0.019164241049706862,0.0172350936637724,-4.5946505340100965e-05,-0.01091980041404378,0.018276362667870385
7.474747474747475,3.240506329113924,0.019234883996357963,0.01701123481418341,-1.4486256519951683e-05,-0.01087383564316241,0.0182251028399264
7.575757575757575,3.240506329113924,0.01935501973603889,0.017261426300147226,3.603261544008725e-05,-0.010984933810855836,0.01839788779274581
7.6767676767676765,3.240506329113924,0.019277173050556904,0.017438147944849592,-9.189101237924968e-05,-0.011014596298621948,0.018427304220313096
7.777777777777778,3.240506329113924,0.01936447206900854,0.017313898377908987,-4.12947701254467e-06,-0.011003511134075257,0.01842496689725769
7.878787878787879,3.240506329113924,0.019430358990262957,0.01742750210422829,-3.4639619447316376e-05,-0.011057358328347373,0.018510474267407675
7.979797979797979,3.240506329113924,0.019411381755467513,0.017540339678811544,1.9571037560927843e-07,-0.011085516430283717,0.01854677945610801
8.080808080808081,3.240506329113924,0.019452661898770193,0.017712950336669933,-2.2305996198758854e-07,-0.011149683670632038,0.018643782625784942
8.181818181818182,3.240506329113924,0.01955374450753379,0.017812687925184343,-8.986664776819735e-06,-0.01120992972981544,0.01874396620208382
8.282828282828282,3.240506329113924,0.019821697711892513,0.017949044404606953,-1.176974343757603e-05,-0.01133122263494984,0.018954887981608437
8.383838383838384,3.240506329113924,0.020139017380219677,0.01807216278219805,1.5469785313312986e-05,-0.01146335404872532,0.01918927320773202
8.484848484848484,3.240506329113924,0.02022964711213405,0.018124496972725914,-0.00010152682728106473,-0.011506243225457987,0.01926433902428553
8.585858585858587,3.240506329113924,0.020278259325500873,0.018358498448077815,7.210563508655163e-06,-0.011591027332073607,0.019389791906054322
8.686868686868687,3.240506329113924,0.020290348879270656,0.01829686172462761,-5.879751447519305e-05,-0.011576163181169477,0.01937095945655042
8.787878787878787,3.240506329113924,0.020668796354116527,0.018535680656565454,8.943550841327462e-05,-0.011761343103204595,0.019689702574826325
8.88888888888889,3.240506329113924,0.02067830165088112,0.01880872190485099,-2.4036422122288036e-05,-0.011846107066719633,0.019809833085909015
8.98989898989899,3.240506329113924,0.020867095873619453,0.01873831595514343,-9.173593900591275e-06,-0.011881623548628865,0.019888343117312034
9.09090909090909,3.240506329113924,0.02106653939439955,0.018997276786491553,8.492324463730029e-05,-0.012019144854267331,0.02011244299984121
9.191919191919192,3.240506329113924,0.02108752533230804,0.019112457599048324,1.3962232084762347e-05,-0.012059994879406908,0.020172652556501657
9.292929292929292,3.240506329113924,0.021172066543110376,0.01921674337416584,2.237627911643257e-05,-0.012116642975182864,0.02026531421538603
9.393939393939394,3.240506329113924,0.02155783023970737,0.019377799332136916,4.207553725937294e-05,-0.012280688871553284,0.02055483286800921
9.494949494949495,3.240506329113924,0.02165507480774857,0.019488974430132682,-4.4400596886843176e-05,-0.012343214771364375,0.020657519316116875
9.595959595959595,3.240506329113924,0.021972857208859893,0.019531281305674653,4.304025373684335e-05,-0.012451241554360365,0.020859647780271932
9.696969696969697,3.240506329113924,0.02232779669908975,0.019998111800376608,-1.9553845811487214e-06,-0.012697772549839906,0.021258909140460504
9.797979797979798,3.240506329113924,0.022443648727004353,0.020119437662123874,-0.00010065802741229207,-0.012768925916738469,0.021377229583440654
9.8989898989899,3.240506329113924,0.02258772844414757,0.020348634078324126,6.656259863057663e-05,-0.012880908756741508,0.021555886808205877
10.0,3.240506329113924,0.022930009199006462,0.020457104306703514,-3.722391775094812e-05,-0.013016134051712994,0.02179910561019145
0.0,3.3417721518987342,0.02299940305980997,0.0207416556821752,-9.964154574448598e-05,-0.01312231762259555,0.021958435911883088
0.10101010101010101,3.3417721518987342,0.022718708190821217,0.020347367185778082,-4.641780450155525e-05,-0.012919822612979791,0.021630895024134036
0.20202020202020202,3.3417721518987342,0.02233267163504088,0.020265133938359114,4.949743163626009e-05,-0.012779341672019998,0.02137420510802478
0.30303030303030304,3.3417721518987342,0.022328708708793832,0.020032718250618066,7.744459943012918e-06,-0.012708428087823569,0.02127384503509891
0.40404040404040403,3.3417721518987342,0.022005604819761583,0.01962819792481601,-4.826020412620503e-05,-0.012490140823373278,0.020918638042272425
0.5050505050505051,3.3417721518987342,0.02174412184773583,0.019515045393904692,-2.0704131555467282e-05,-0.012377750172492158,0.020719739205148656
0.6060606060606061,3.3417721518987342,0.021583019496025025,0.01943585110103511,2.2950991854420155e-05,-0.01230566117911804,0.020593597684620456
0.7070707070707071,3.3417721518987342,0.02143359068848427,0.019052698871692118,-4.438086646998084e-05,-0.012145886868052916,0.020348029485775486
0.8080808080808081,3.3417721518987342,0.021156159592109067,0.019207970946946262,5.910246871629993e-05,-0.012109239161716598,0.020252723695758944
0.9090909090909091,3.3417721518987342,0.020843221685416982,0.01897515300801131,2.5846296499475843e-05,-0.011945512408028486,0.019974859332103415
1.0101010101010102,3.3417721518987342,0.020886154249938237,0.018734413277404143,7.83716239679107e-05,-0.011886170258202714,0.01989819743195765
1.1111111111111112,3.3417721518987342,0.020551150470360376,0.018501592423701484,-9.185410998379439e-05,-0.011715822868218559,0.019607524309814224
1.2121212121212122,3.3417721518987342,0.020371804854763077,0.01864635912573365,2.178866311515967e-05,-0.011705449194149018,0.019566261179965464
1.3131313131313131,3.3417721518987342,0.020368468318869577,0.018168984243725327,4.1902884215813334e-05,-0.01156123576877847,0.019362783315068362
1.4141414141414141,3.3417721518987342,0.02037748308121869,0.01827241574095524,-0.00010537579501437687,-0.011594969646652178,0.019411606406886526
1.5151515151515151,3.3417721518987342,0.020321354793508096,0.01809279884281961,4.397240078029833e-05,-0.011524246090898312,0.019303948995838913
1.6161616161616161,3.3417721518987342,0.020229372262077834,0.01799917889908609,-3.637475371165369e-05,-0.011468565348349178,0.019211710547627037
1.7171717171717171,3.3417721518987342,0.020003356549165782,0.017890268365964596,-2.9085325938700048e-05,-0.011368087474539112,0.019035049157362077
1.8181818181818181,3.3417721518987342,0.01982850202765837,0.017947006004189147,8.20084730499883e-05,-0.011332652409554255,0.018958440030755374
1.9191919191919191,3.3417721518987342,0.019666355810614416,0.01760139822048092,-7.464972159784048e-05,-0.0111803262093286,0.018719939309734607
2.0202020202020203,3.3417721518987342,0.019622110119875632,0.017540682493398293,-2.7315288334457573e-05,-0.011148837783982178,0.01866868454933099
2.121212121212121,3.3417721518987342,0.019466032596037925,0.017647856192702475,3.1982340835811127e-06,-0.01113416663662212,0.018623628540568718
2.2222222222222223,3.3417721518987342,0.01937197614559536,0.017507812633334143,-3.4206391334862705e-06,-0.01106393663367885,0.018510431367130927
2.323232323232323,3.3417721518987342,0.019192432356543766,0.017451816202403422,7.342880125660486e-05,-0.010993274567684156,0.01838446958511663
2.4242424242424243,3.3417721518987342,0.019220494171146178,0.017319362339355465,1.9674709969153473e-05,-0.010961956953150493,0.018343995377671552
2.525252525252525,3.3417721518987342,0.01921548654742517,0.017243210663720195,-1.7304781201170903e-05,-0.010937609163343609,0.018309217707781378
2.6262626262626263,3.3417721518987342,0.018981160375186795,0.017031469502464317,1.853041558042518e-05,-0.010803788963295332,0.018085336012346027
2.727272727272727,3.3417721518987342,0.01904482168910742,0.016986289139590487,-1.4019762765793306e-05,-0.010809333248609372,0.01810356301234062
2.8282828282828283,3.3417721518987342,0.01903605475527251,0.016988975897680753,3.3920208662629344e-05,-0.010807509195885977,0.018099642510699544
2.929292929292929,3.3417721518987342,0.01894111675442316,0.01725074791243717,-5.079396849173157e-05,-0.0108575594000581,0.01815526141960662
3.0303030303030303,3.3417721518987342,0.018766583142917414,0.01702898292840518,4.781846346531281e-05,-0.010738669821396778,0.017961122968429746
3.131313131313131,3.3417721518987342,0.018761919371162616,0.016971987835185966,7.333484305417595e-05,-0.010720172161904575,0.0179345213550073
3.2323232323232323,3.3417721518987342,0.01855055912163007,0.016846251254084905,-1.964040718916707e-05,-0.010619043112714492,0.01775987619356894
3.3333333333333335,3.3417721518987342,0.01865067471437235,0.016925585792958598,3.559587708750963e-05,-0.010672878152199283,0.017850863507428826
3.4343434343434343,3.3417721518987342,0.018616560022034073,0.016941843626964697,0.00010907249323262243,-0.010667521094699631,0.017839260472215707
3.5353535353535355,3.3417721518987342,0.018752789152032403,0.016822873349748482,-3.8736599049242486e-05,-0.010672698750534266,0.017866305534032526
3.6363636363636362,3.3417721518987342,0.01864107429564702,0.016814675174474658,5.2204504340278284e-05,-0.010636724841036503,0.017798525749769083
3.7373737373737375,3.3417721518987342,0.018475406515503612,0.016614060415875053,-1.6820240813423464e-05,-0.0105268400794136,0.017618654265310223
3.8383838383838382,3.3417721518987342,0.018435838408076763,0.016601185154479385,6.346298240930246e-05,-0.010511107068766843,0.017590758997322688
3.9393939393939394,3.3417721518987342,0.018477943687710916,0.016807545278701996,9.872019643066586e-05,-0.010585646689923874,0.017702777834703694
4.040404040404041,3.3417721518987342,0.01838945187898061,0.01651734324811909,5.765324034549834e-05,-0.01047203853812991,0.01752882344152067
4.141414141414141,3.3417721518987342,0.018540387925344584,0.016677162230736457,-2.151214924280457e-05,-0.01056526504682431,0.017682591878978096
4.242424242424242,3.3417721518987342,0.018573851045450986,0.016608845332808226,1.5141541311573878e-05,-0.010554808913477765,0.017673487332670153
4.343434343434343,3.3417721518987342,0.018487031849851673,0.01661716289242712,-1.8801062785336075e-05,-0.010531258422683638,0.01762666985009645
4.444444444444445,3.3417721518987342,0.01839639239135633,0.01670085951296515,1.916854588520276e-05,-0.010529175571296444,0.017609982933398393
4.545454545454545,3.3417721518987342,0.018447339655146715,0.016447543833012196,5.182630404542305e-05,-0.010468465046447674,0.01753341577696968
4.646464646464646,3.3417721518987342,0.01859813954770208,0.016723942591418003,-1.9395951493572808e-05,-0.010596624641736024,0.01773550001952857
4.747474747474747,3.3417721518987342,0.018460491451654803,0.016623006499655278,4.912809356009126e-05,-0.010525049385393023,0.017613984814494523
4.848484848484849,3.3417721518987342,0.018472719220624018,0.016530327210574996,-8.84071855203286e-06,-0.010500913929359704,0.017582184573641833
4.94949494949495,3.3417721518987342,0.01838013426949011,0.016403103221753874,-4.442129601661396e-05,-0.010434971247373194,0.017475863674521912
5.05050505050505,3.3417721518987342,0.01846555664252765,0.016393663406502654,6.223188000062333e-06,-0.01045776601470909,0.017521728738255263
5.151515151515151,3.3417721518987342,0.018567389381012565,0.016601160942801767,-4.5832487927043927e-05,-0.0105505650971443,0.01766670811226403
5.252525252525253,3.3417721518987342,0.0183643375650294,0.016321063455210016,2.4064577310331683e-05,-0.010405620306071823,0.017432791661442047
5.353535353535354,3.3417721518987342,0.018318549932625463,0.016601732905026735,-1.379903428381924e-05,-0.010476084851295657,0.01752334742950495
5.454545454545454,3.3417721518987342,0.018642426856057787,0.016542136264357934,-6.610174932848717e-05,-0.010555368936124717,0.017686432490601648
5.555555555555555,3.3417721518987342,0.01837561055068078,0.016597839484923965,0.0001203922152293641,-0.010492035010681423,0.017555608425126722
5.656565656565657,3.3417721518987342,0.018396706168769726,0.016661960713660242,2.6750254447484797e-05,-0.01051760006472899,0.017593654650673186
5.757575757575758,3.3417721518987342,0.018454332847561195,0.01673838582952164,-3.3770851377036e-05,-0.010557815603124849,0.017659095078990345
5.858585858585858,3.3417721518987342,0.01847047090609723,0.016487406923278946,9.213319380163144e-06,-0.010487363348812853,0.017563113827255207
5.959595959595959,3.3417721518987342,0.01857017004961222,0.016715277073046448,1.3589093005449455e-05,-0.010585634136797601,0.017715719562516115
6.0606060606060606,3.3417721518987342,0.018635146765298777,0.016675056228120533,-6.241877696570165e-05,-0.010593060898025792,0.01773684761607104
6.161616161616162,3.3417721518987342,0.018618297967897292,0.016550839924971496,5.93742043021608e-05,-0.010550741367860637,0.017675786488576917
6.262626262626262,3.3417721518987342,0.018417510669813255,0.01688163646692001,-3.953849196878525e-06,-0.01058974414101998,0.017699623618012084
6.363636363636363,3.3417721518987342,0.018606969043944602,0.016781467500032808,5.9804788633065e-05,-0.010616530963193224,0.017765005826346568
6.4646464646464645,3.3417721518987342,0.018738011815402487,0.01665593668287385,3.234827290390993e-05,-0.010618184549482901,0.017788685011828717
6.565656565656566,3.3417721518987342,0.018681787879768035,0.016977095309338018,3.70913307693368e-05,-0.010697664956731816,0.017890572865165384
6.666666666666667,3.3417721518987342,0.01874359465089729,0.0166821482486294,2.3644797848337164e-05,-0.010627722869858006,0.017802658879428786
6.767676767676767,3.3417721518987342,0.01904483490766207,0.01673619106390436,-6.317285146776523e-05,-0.01073430779146993,0.01800221665851058
6.8686868686868685,3.3417721518987342,0.018654354138189853,0.016916646749782865,5.547306875113395e-05,-0.010671300266391815,0.017849313097508885
6.96969696969697,3.3417721518987342,0.019002095641449963,0.017015628384812475,4.1555080441876716e-05,-0.010805317207878732,0.018090987551911086
7.070707070707071,3.3417721518987342,0.0190527332051215,0.017004070871051602,2.6151125502673518e-05,-0.010817041222851929,0.018115548424219897
7.171717171717171,3.3417721518987342,0.018977692189452843,0.017200736213650807,1.671559954752194e-05,-0.010853528520931093,0.018154577606443584
7.2727272727272725,3.3417721518987342,0.018989512325256003,0.01716061542218772,7.658648330483197e-05,-0.010845038324233116,0.018144811335997397
7.373737373737374,3.3417721518987342,0.01919221948832527,0.017304031041766203,-1.9609776926699615e-06,-0.01094887515902744,0.018321245288800386
7.474747474747475,3.3417721518987342,0.01910377812811733,0.017162906113341276,-3.562378327477895e-05,-0.010880005272437583,0.01821118177830658
7.575757575757575,3.3417721518987342,0.019232802293150046,0.01729174803274916,-4.292054854476635e-06,-0.010957365097769761,0.018339479766990553
7.6767676767676765,3.3417721518987342,0.01937557135113784,0.01739818338450152,-9.154596011097944e-05,-0.011032126420691808,0.018467131577633435
7.777777777777778,3.3417721518987342,0.01935853995966084,0.017504483532691212,3.943112755160826e-06,-0.011058907047705617,0.018501319299434566
7.878787878787879,3.3417721518987342,0.019591661814779514,0.01751686532982186,-7.170308517229875e-05,-0.011132558143380412,0.01864147810792289
7.979797979797979,3.3417721518987342,0.019505075929580007,0.01769055182396739,-0.00012991831956844825,-0.011158688326064219,0.018665441077075615
8.080808080808081,3.3417721518987342,0.019692639382653365,0.017709524495537005,-3.7899055581113216e-05,-0.01122064916345711,0.018779891724917397
8.181818181818182,3.3417721518987342,0.019583628304228527,0.017918760518859364,3.3628989361770234e-05,-0.011250716646926366,0.018806635082953126
8.282828282828282,3.3417721518987342,0.020017302202409718,0.017840895693011696,-5.748323101292532e-05,-0.011357459368626423,0.01902296661691804
8.383838383838384,3.3417721518987342,0.020222078686041915,0.01809534305230692,-0.00011293970943848713,-0.01149522652150465,0.019248031630386905
8.484848484848484,3.3417721518987342,0.019918783575177502,0.01804356024367111,-5.4788010636702644e-05,-0.011388703145654582,0.019050754293221995
8.585858585858587,3.3417721518987342,0.020293820882276062,0.01819063362449414,-6.763593060860065e-05,-0.01154533635203106,0.019328594905197234
8.686868686868687,3.3417721518987342,0.020484877781658337,0.01840157481375789,-7.3498728370694035e-06,-0.01166593577862487,0.019526759187531034
8.787878787878787,3.3417721518987342,0.02028001612811919,0.01847938827082966,-1.527574232144123e-05,-0.011627821319684655,0.019442357184651236
8.88888888888889,3.3417721518987342,0.020699122511865994,0.018568700278877356,-4.127202287014986e-05,-0.011780346837223005,0.019720537796648202
8.98989898989899,3.3417721518987342,0.020657753315095773,0.01882627916667172,1.986058562648375e-06,-0.011845209744530247,0.019805629004297304
9.09090909090909,3.3417721518987342,0.02102914000463775,0.018793469229890253,-5.808456067095273e-05,-0.0119467827703584,0.020005470273648625
9.191919191919192,3.3417721518987342,0.020958924363989738,0.018970986359411367,-7.671707520909465e-05,-0.011978973217020331,0.020039486576659514
9.292929292929292,3.3417721518987342,0.02131038056489937,0.019214288912615025,-3.354249447763825e-05,-0.012157400843254318,0.020343568628029256
9.393939393939394,3.3417721518987342,0.021465836774023007,0.019369652786870407,5.369533275712809e-05,-0.012250646868268026,0.02049849852956881
9.494949494949495,3.3417721518987342,0.02177346168351785,0.019458705342775735,-2.0768104953953685e-05,-0.012369650107888075,0.020713347533688208
9.595959595959595,3.3417721518987342,0.021920288256458142,0.01977833864154158,4.0882065701999863e-05,-0.012509588069399915,0.02093179033047975
9.696969696969697,3.3417721518987342,0.02212596599253142,0.019929530928989157,1.4655862104823393e-05,-0.012616649076456174,0.021113623444429363
9.797979797979798,3.3417721518987342,0.02238032019460344,0.02023116845034565,-1.8896184489619264e-05,-0.012783446593484727,0.02138691076913414
9.8989898989899,3.3417721518987342,0.02252040259562135,0.02023098988621317,-9.562580119055722e-05,-0.012825417744550354,0.021468089821430877
10.0,3.3417721518987342,0.022886972876887606,0.020597250599164032,-8.252422669798746e-05,-0.013045267042815492,0.02183281875192949
0.0,3.4430379746835444,0.022863752200422614,0.02067483221422058,3.0592842588097965e-06,-0.013061575324392958,0.02185167360443839
0.10101010101010101,3.4430379746835444,0.022618163048151098,0.020378270815666514,-1.76241242808986e-05,-0.012898930159145285,0.02158557622558497
0.20202020202020202,3.4430379746835444,0.02231605557105502,0.020070103154527355,4.060875168387906e-05,-0.012715847617674714,0.02128226460653766
0.30303030303030304,3.4430379746835444,0.022129418779493214,0.019728424128990826,1.5528770461918204e-05,-0.012557352872545212,0.02103197703854238
0.40404040404040403,3.4430379746835444,0.021992759933757593,0.01977933457895145,9.163180911754813e-05,-0.012531628353812711,0.02097442723916376
0.5050505050505051,3.4430379746835444,0.02185293251247726,0.019514634692379684,8.733734510974442e-06,-0.012410270161457083,0.02078268174389555
0.6060606060606061,3.4430379746835444,0.02164181014012144,0.019440768699194037,-2.5009954427510292e-05,-0.012324773651794642,0.0206295876130405
0.7070707070707071,3.4430379746835444,0.02122968676798807,0.019219381332155405,-2.5714897969808776e-05,-0.012134720430043043,0.020299378248346614
0.8080808080808081,3.4430379746835444,0.021232937561617742,0.01906203661896378,7.229696023850828e-05,-0.012088492254174455,0.020235402758085243
0.9090909090909091,3.4430379746835444,0.02093935572926134,0.01865036780887317,7.644752401045294e-05,-0.011876917061440352,0.019894312865817325
1.0101010101010102,3.4430379746835444,0.020511846491448694,0.018652944224149832,-9.191340658116798e-06,-0.011749437214679559,0.01964846303457128
1.1111111111111112,3.4430379746835444,0.02076676642964496,0.01864962385434323,9.748002590482574e-05,-0.011824917085196457,0.019794018852531875
1.2121212121212122,3.4430379746835444,0.020586234628511283,0.018484272905727604,3.7285997757118496e-05,-0.011721152260271666,0.019619989622720914
1.3131313131313131,3.4430379746835444,0.020391411099878354,0.01828290944682066,-2.214689203293137e-05,-0.011602296164009705,0.01942322252633164
1.4141414141414141,3.4430379746835444,0.02008009176287263,0.018274341008030937,0.00016731306913005448,-0.01150632983127107,0.01924305488027314
1.5151515151515151,3.4430379746835444,0.020022322881320182,0.017829590430833226,-5.830964842207205e-06,-0.011355573993646022,0.019020988251079674
1.6161616161616161,3.4430379746835444,0.019949161847262566,0.01787623356808084,7.561537154545096e-07,-0.011347618624603022,0.01899770802057578
1.7171717171717171,3.4430379746835444,0.01994016148953368,0.0179185145580738,-3.1389955857303255e-05,-0.011357602814282244,0.019010210052601183
1.8181818181818181,3.4430379746835444,0.019684917057132642,0.017843963372053392,-1.1224836227119947e-05,-0.01125866412875581,0.01883205850168366
1.9191919191919191,3.4430379746835444,0.01971085377216494,0.017792201469228264,-3.37441392667796e-05,-0.011250916572417962,0.018825092937492374
2.0202020202020203,3.4430379746835444,0.019549106832023808,0.017494190296619933,6.342141524520815e-05,-0.011112989138593122,0.018607271262696973
2.121212121212121,3.4430379746835444,0.019280274169230525,0.017619728671390653,2.0366778673244917e-05,-0.011070000852186353,0.018505995118860284
2.2222222222222223,3.4430379746835444,0.01929524104596662,0.017415559586444255,-5.73332184272375e-05,-0.011013240189723262,0.018427709674669678
2.323232323232323,3.4430379746835444,0.01931225999135602,0.017335417474476793,-3.805441090037586e-05,-0.010994303239749844,0.018403758857279687
2.4242424242424243,3.4430379746835444,0.019351487127702047,0.017337382509678808,3.163354704119993e-05,-0.011006660891214257,0.018427255734925204
2.525252525252525,3.4430379746835444,0.01894313458085933,0.01714666970472211,-4.31612972145508e-05,-0.01082694128567443,0.01811200007105844
2.6262626262626263,3.4430379746835444,0.019156792548605656,0.017188974770357596,-9.433329673069025e-06,-0.010903730195688976,0.018252621662941254
2.727272727272727,3.4430379746835444,0.01904703938279579,0.017177532710802794,-2.253857757612721e-05,-0.010867371628079575,0.01818454621927607
2.8282828282828283,3.4430379746835444,0.019114588370102856,0.017255281549657754,8.744407152009439e-06,-0.010910960975928185,0.01825609090902161
2.929292929292929,3.4430379746835444,0.018915919697430953,0.017089700081745356,-1.9418806150872147e-05,-0.010801685933752893,0.018072177615170954
3.0303030303030303,3.4430379746835444,0.018873839927265844,0.017224244140648538,-3.5246611172136765e-05,-0.010829425220374314,0.018105593611057607
3.131313131313131,3.4430379746835444,0.018951384845694197,0.016956652208039952,4.73672499782361e-05,-0.010772411116120243,0.018037120916432035
3.2323232323232323,3.4430379746835444,0.01889065986192917,0.01697656230080719,-4.228007863241982e-05,-0.010760166648820907,0.018010208114789757
3.3333333333333335,3.4430379746835444,0.01864436005812323,0.01689112688025371,-2.3163846788969312e-05,-0.01066064608151308,0.017832545741151784
3.4343434343434343,3.4430379746835444,0.01872287601930351,0.016881538970473738,7.826084411426556e-06,-0.010681324496933174,0.017873490622410754
3.5353535353535355,3.4430379746835444,0.018483348676051843,0.01672426747626226,7.305731251265877e-05,-0.01056228484569423,0.01767005506203919
3.6363636363636362,3.4430379746835444,0.018345824504123556,0.016811151659252076,1.4412961578576858e-05,-0.01054709284901269,0.01762867782886778
3.7373737373737375,3.4430379746835444,0.018537241594211575,0.016950553865051177,3.1787622421090374e-07,-0.010646338637778826,0.017797024762728025
3.8383838383838382,3.4430379746835444,0.018464438203147016,0.01669653997412353,-2.1787640339154168e-05,-0.010548293453181165,0.017647071111393436
3.9393939393939394,3.4430379746835444,0.018638470539486172,0.016760956354129018,-7.121451336629059e-06,-0.010619828068084558,0.017774245494013862
4.040404040404041,3.4430379746835444,0.018741370024854657,0.016522777686334554,-4.9869140165779624e-06,-0.010579244313356764,0.01773645164711595
4.141414141414141,3.4430379746835444,0.01848494821823374,0.016439740847881343,4.2778842131519686e-05,-0.010477406719834523,0.017552097355302436
4.242424242424242,3.4430379746835444,0.018609927894148226,0.016594863995299636,2.2244144642697528e-05,-0.010561437566834359,0.01768873057311005
4.343434343434343,3.4430379746835444,0.018568823299617933,0.016715656798926684,-1.9666541414297677e-06,-0.010585344029563385,0.01771508721736352
4.444444444444445,3.4430379746835444,0.018485102368954107,0.016504577925827685,1.8196799281289378e-05,-0.010496904088434537,0.017578745204241356
4.545454545454545,3.4430379746835444,0.01850033533074641,0.016419940548685796,6.083652356042478e-05,-0.010476082763829662,0.017553163588328723
4.646464646464646,3.4430379746835444,0.018627664951566147,0.016653105778927643,1.658445848025179e-05,-0.010584231219148138,0.017723097469457594
4.747474747474747,3.4430379746835444,0.01855439239426042,0.016783156553992505,2.0306305818952642e-05,-0.010601264684475876,0.01773526954283746
4.848484848484849,3.4430379746835444,0.01839084724857541,0.0166635262553716,-1.9114933979334666e-06,-0.010516312051184102,0.017590907161375974
4.94949494949495,3.4430379746835444,0.018243949650559574,0.01640679530041304,8.03735992753391e-06,-0.010395223485291784,0.017398277997879533
5.05050505050505,3.4430379746835444,0.01862507665867641,0.016635073486587177,-1.990430019953239e-05,-0.010578045043579074,0.017714141810396183
5.151515151515151,3.4430379746835444,0.0184123719807729,0.016455802189915693,4.71833498897492e-05,-0.010460452251206577,0.017516426442478517
5.252525252525253,3.4430379746835444,0.018263488812311487,0.016500497869215005,-5.659856789338909e-05,-0.010429196004457948,0.017449194981175514
5.353535353535354,3.4430379746835444,0.018535224702812873,0.016691713324728262,-3.1581807547229705e-06,-0.01056808140826234,0.01768567842273003
5.454545454545454,3.4430379746835444,0.01840508987889366,0.016717851106348238,-1.19179410784015e-05,-0.010536882295572567,0.01762216652349649
5.555555555555555,3.4430379746835444,0.018421790038179998,0.016616174213252535,3.8136573019240316e-05,-0.01051138927542976,0.017588754483936386
5.656565656565657,3.4430379746835444,0.018364411148674337,0.016486957537727463,1.0120020672935274e-05,-0.010455410605920541,0.01750138297733283
5.757575757575758,3.4430379746835444,0.018613379581069896,0.01657278892611916,2.4487058285392864e-05,-0.010555850552156716,0.017681669040787704
5.858585858585858,3.4430379746835444,0.018487720385219515,0.016660679070351268,-6.299882016032213e-05,-0.010544519836671236,0.01764562162693039
5.959595959595959,3.4430379746835444,0.018566691674990945,0.016754432606307077,-4.700099164670614e-05,-0.010596337284389407,0.017730349534129122
6.0606060606060606,3.4430379746835444,0.018379076148089035,0.01652319779347611,0.00010098011861721993,-0.010470682182469543,0.017525866194754047
6.161616161616162,3.4430379746835444,0.01840769250610676,0.016415341547800593,2.2784826658567646e-05,-0.010446910216172205,0.017496844840732655
6.262626262626262,3.4430379746835444,0.01859533633869475,0.016747223020112865,-5.70534888204622e-05,-0.010602767807642285,0.017743887199207775
6.363636363636363,3.4430379746835444,0.018639816334490553,0.01686296106896948,3.131538313026544e-05,-0.010650833221038008,0.01781804292776082
6.4646464646464645,3.4430379746835444,0.018609306094222546,0.01678767897245709,8.99876841806605e-06,-0.010619095520003891,0.017768669756463146
6.565656565656566,3.4430379746835444,0.018559606943197398,0.0168846976663732,-2.8467630391051236e-05,-0.010633291382871179,0.017781482062700537
6.666666666666667,3.4430379746835444,0.01861542766077013,0.01679455586336205,4.0915143390924274e-05,-0.010622995057239654,0.017775219717872725
6.767676767676767,3.4430379746835444,0.018659718493096063,0.01687796824896612,-9.03001784908441e-06,-0.010661306022618654,0.017835722996762577
6.8686868686868685,3.4430379746835444,0.01878110783447572,0.017032591478831374,-2.2781367182641874e-05,-0.010744109793992127,0.0179708042024427
6.96969696969697,3.4430379746835444,0.0189464256194374,0.016950010796310082,-5.29040293993684e-06,-0.010768930924724245,0.018031302640465055
7.070707070707071,3.4430379746835444,0.018964087557701865,0.017149643841312283,-3.203005935555249e-05,-0.010834119419704245,0.018125193272461988
7.171717171717171,3.4430379746835444,0.018974884790563303,0.01699147329466631,7.577468329058748e-06,-0.010789907425568884,0.018065030905159322
7.2727272727272725,3.4430379746835444,0.01900177792893488,0.017210346251679057,-4.342464239531506e-05,-0.010863637254184181,0.01817256344348423
7.373737373737374,3.4430379746835444,0.01914791911800787,0.01731118580161179,-5.165577101193976e-05,-0.0109377314758859,0.018299037674087255
7.474747474747475,3.4430379746835444,0.01898881280718362,0.017111586543186626,-5.191423478844345e-06,-0.010830119805111072,0.018123266068823425
7.575757575757575,3.4430379746835444,0.019297276030805034,0.01728264619305145,2.3549614690311094e-05,-0.010973976667156944,0.018373034351088523
7.6767676767676765,3.4430379746835444,0.01940377764637835,0.017351695986076894,-9.87649074049117e-06,-0.011026642089736574,0.01846347157165048
7.777777777777778,3.4430379746835444,0.01950027461620086,0.017568524432738868,-6.974092048468367e-06,-0.011120639714681918,0.01860975162985867
7.878787878787879,3.4430379746835444,0.019610602227679658,0.0174255235976328,-3.6080809641389285e-05,-0.011110837747593737,0.01861460410473945
7.979797979797979,3.4430379746835444,0.01962693250553546,0.01763750470101803,-7.652331644337607e-05,-0.011179331161966047,0.018712175308504643
8.080808080808081,3.4430379746835444,0.01967219080167077,0.01766508683315633,6.619611626064263e-05,-0.011201183290448129,0.018749735220204677
8.181818181818182,3.4430379746835444,0.0198268715624947,0.017772462757683367,2.857581403832551e-05,-0.01127980029605342,0.01888373325681494
8.282828282828282,3.4430379746835444,0.019792434063970053,0.01784495954329693,-1.0095945501448955e-05,-0.011291218082180093,0.018894129986001876
8.383838383838384,3.4430379746835444,0.020016544343506335,0.018084467384511988,5.6162270370237655e-05,-0.011430303518405497,0.019124092849285547
8.484848484848484,3.4430379746835444,0.019989408344387817,0.018151248862707477,5.472734044711132e-05,-0.011442197162128588,0.01913688953311727
8.585858585858587,3.4430379746835444,0.02001625025892213,0.01823331338859831,3.6943496007403216e-05,-0.011474869094256131,0.019187118652491602
8.686868686868687,3.4430379746835444,0.020127077426854614,0.018402247137834397,-6.064768309790376e-05,-0.011558797369406702,0.019322772236964957
8.787878787878787,3.4430379746835444,0.02056127353462294,0.01853423932066094,-4.605508828946897e-06,-0.011728653856585164,0.019626423407360316
8.88888888888889,3.4430379746835444,0.020690973333912926,0.01848305959679625,4.0038227883870376e-05,-0.011752209879212753,0.019680248613675067
8.98989898989899,3.4430379746835444,0.020881765822999627,0.01895252888136044,4.512103970404626e-05,-0.011950288411308019,0.01998725425754781
9.09090909090909,3.4430379746835444,0.020853326746199923,0.01880660968813739,-3.581646624519843e-05,-0.011897980930301193,0.01990912544509439
9.191919191919192,3.4430379746835444,0.0211466153169497,0.01900276337506987,1.0794506806259044e-05,-0.01204481360760587,0.020160371468910407
9.292929292929292,3.4430379746835444,0.02120005476234833,0.01919813998385163,5.376519206014443e-05,-0.012119458423859988,0.020273577727201456
9.393939393939394,3.4430379746835444,0.021481088657844233,0.01930316292761911,1.801679839386193e-05,-0.012235275475639,0.020479191598460324
9.494949494949495,3.4430379746835444,0.02190024891868399,0.019478724272291772,4.0617759609393616e-05,-0.012413691957292729,0.020795615913020548
9.595959595959595,3.4430379746835444,0.02182284080337779,0.019729207019034783,-7.901764364555903e-05,-0.012465614346723773,0.020855440003515725
9.696969696969697,3.4430379746835444,0.02214407926986957,0.019997783654591254,-4.602562184259875e-05,-0.012642558877338249,0.021152906334845144
9.797979797979798,3.4430379746835444,0.02239379543775198,0.020107266689344514,-1.809808853996201e-05,-0.012750318638128947,0.021342614961462097
9.8989898989899,3.4430379746835444,0.022544517223243986,0.02025861128033245,3.5567258453288746e-05,-0.012840938551072932,0.021493016819374607
10.0,3.4430379746835444,0.02294076986386107,0.02066329501844226,4.6435255927740506e-05,-0.013081219464690997,0.021891214128449923
0.0,3.5443037974683542,0.0123146242182977,0.011086539668579686,-4.7924163081005606e-05,-0.007020349166063216,0.011749112806390393
0.10101010101010101,3.5443037974683542,0.01235110725980373,0.011093417614261357,3.189662687015696e-05,-0.007033357462219525,0.011772885213933736
0.20202020202020202,3.5443037974683542,0.012188066072564238,0.010990018571580802,0.00014929698647313174,-0.0069534253932435125,0.01163826701335974
0.30303030303030304,3.5443037974683542,0.012146462223101551,0.010876390012087704,-2.34213970109401e-05,-0.006906855670556776,0.011563926215271601
0.40404040404040403,3.5443037974683542,0.011945939610768386,0.01074383625366786,3.948667088346947e-05,-0.006806932759330874,0.011392758627610132
0.5050505050505051,3.5443037974683542,0.011782877789163773,0.01071911657767484,-3.7421244068632214e-05,-0.006750598310051583,0.011288836503649676
0.6060606060606061,3.5443037974683542,0.01185172110053822,0.010669064858747059,9.767073260200943e-06,-0.0067562357877855835,0.011306889186811336
0.7070707070707071,3.5443037974683542,0.01151509168484623,0.010416641316450639,-4.1791758761212674e-05,-0.00657951990038906,0.011007289070076061
0.8080808080808081,3.5443037974683542,0.011485024113917096,0.010429356348346925,1.2553686464488775e-05,-0.0065743141386792065,0.010995286097678143
0.9090909090909091,3.5443037974683542,0.011398079468582789,0.010161239065817838,5.0244136200895724e-06,-0.006467795560320189,0.01083274943343416
1.0101010101010102,3.5443037974683542,0.011278981997928095,0.010146892234367643,-5.787417007347747e-05,-0.00642776226968872,0.010758173187757876
1.1111111111111112,3.5443037974683542,0.011195319297360173,0.010032950114335352,7.208595549791394e-05,-0.006368480823508657,0.010662493671606866
1.2121212121212122,3.5443037974683542,0.011249925704987698,0.010067109906540425,-4.5333980228395314e-05,-0.006395110683458437,0.010707915634467427
1.3131313131313131,3.5443037974683542,0.011266461436827033,0.009961377524305655,-7.321343011736451e-05,-0.006368351688339806,0.010674680340555213
1.4141414141414141,3.5443037974683542,0.01119310288191374,0.010005787727194102,-6.227738468868856e-06,-0.006359667182732352,0.010649208659608453
1.5151515151515151,3.5443037974683542,0.010820732867248965,0.009681334784779711,9.91001687918145e-05,-0.006150620295608603,0.01029984601949004
1.6161616161616161,3.5443037974683542,0.010757524055150227,0.009761962513235809,-8.864303392853055e-06,-0.006155845970515811,0.010295917883946622
1.7171717171717171,3.5443037974683542,0.010721265455743836,0.00970452882643605,-4.243910631418534e-05,-0.006127738284653966,0.010251048057528044
1.8181818181818181,3.5443037974683542,0.01071246069500671,0.009761725575952953,-7.4654759487704065e-06,-0.006142255881287899,0.010270159006287747
1.9191919191919191,3.5443037974683542,0.010511490407940888,0.009652834422295054,-8.277513954699128e-05,-0.006049297449070782,0.010110564856241344
2.0202020202020203,3.5443037974683542,0.010775092394510624,0.009510617930224874,-1.780943760042669e-07,-0.006085713097420649,0.01020179801275471
2.121212121212121,3.5443037974683542,0.010618923376576916,0.009544070917702062,6.484614503813236e-05,-0.006048898288283693,0.010125002748227903
2.2222222222222223,3.5443037974683542,0.010570352039380003,0.009575298167318802,3.180924765392643e-05,-0.006043695062009641,0.010109769542556489
2.323232323232323,3.5443037974683542,0.010350933797242765,0.009639427790896283,-4.3479076100952324e-05,-0.005997108476441714,0.010014439125288665
2.4242424242424243,3.5443037974683542,0.010421600274718144,0.009244679635835345,2.1113667013608415e-05,-0.005899883973166047,0.009885890722819844
2.525252525252525,3.5443037974683542,0.01046924987016049,0.009337680098442594,9.234521959857094e-07,-0.005942078990580925,0.009951831935115157
2.6262626262626263,3.5443037974683542,0.010259807074591768,0.009152072883273049,-2.7275971650764888e-05,-0.0058235639873594446,0.009753348609041377
2.727272727272727,3.5443037974683542,0.010316410808660251,0.0095161436034947,2.4881964159406788e-05,-0.005949766323646485,0.009940559927083615
2.8282828282828283,3.5443037974683542,0.010558126109014838,0.009172720506755168,4.842443593399181e-06,-0.005919253984731002,0.009938116466595663
2.929292929292929,3.5443037974683542,0.010389120606011661,0.00934161932233425,4.503806338308456e-06,-0.005919221978503773,0.009906993973315006
3.0303030303030303,3.5443037974683542,0.010226929929544108,0.00920868608062163,-7.998219263846817e-06,-0.005830684803049721,0.00975774562796593
3.131313131313131,3.5443037974683542,0.01031642060156636,0.009329974259329271,-4.225505407552759e-05,-0.005893918458268689,0.009860546207788189
3.2323232323232323,3.5443037974683542,0.010030473917259733,0.00927788851923573,-3.233769582761923e-05,-0.005792508730948639,0.00967631855410263
3.3333333333333335,3.5443037974683542,0.010225925718105105,0.009108202515513041,-3.732510016419409e-05,-0.005800238470085443,0.009715620772550454
3.4343434343434343,3.5443037974683542,0.010234926501022987,0.009234434009706045,2.6844222997218777e-05,-0.00584080815321871,0.009773274805815855
3.5353535353535355,3.5443037974683542,0.010018258869730122,0.009309818730607095,-8.09141618812189e-05,-0.005798423280101165,0.009684508392736497
3.6363636363636362,3.5443037974683542,0.010111435626130368,0.009100982982321128,4.563163283726715e-05,-0.005763725582535449,0.009646308353114955
3.7373737373737375,3.5443037974683542,0.010081846827710277,0.0090671389520735,-1.1337276618220288e-05,-0.005744695733935133,0.009614755522361094
3.8383838383838382,3.5443037974683542,0.0102950264119802,0.009054339509423552,6.391539122272595e-05,-0.0058048097764211255,0.00973479449780181
3.9393939393939394,3.5443037974683542,0.01005683542680636,0.00899157406805354,-3.906559356692456e-05,-0.005714522848457969,0.009569019842941508
4.040404040404041,3.5443037974683542,0.010059425318409627,0.009242636410262085,8.53011818696608e-05,-0.005790618518601513,0.0096780464820956
4.141414141414141,3.5443037974683542,0.009925903019201538,0.009103761954817243,0.00011269551937839358,-0.005708899492205634,0.009543430989084764
4.242424242424242,3.5443037974683542,0.009882947597799289,0.009096499568244532,2.3529366797445132e-07,-0.005693834149813146,0.009514133130540293
4.343434343434343,3.5443037974683542,0.010038172203058686,0.008961346633521623,1.5175002574206398e-05,-0.0056998556509740925,0.009545458858950076
4.444444444444445,3.5443037974683542,0.010087187292770472,0.009080634859646688,-2.326992138040236e-05,-0.005750346645725148,0.009623556350687993
4.545454545454545,3.5443037974683542,0.010097675820623993,0.00899023330825881,4.940101023937807e-05,-0.00572637273866484,0.009592403859106702
4.646464646464646,3.5443037974683542,0.01012153800319736,0.008966071982714447,-2.2276132176151438e-05,-0.005726282995773543,0.009596198659632479
4.747474747474747,3.5443037974683542,0.009917115307932269,0.008950837757353645,4.740810770897001e-06,-0.005660385919585774,0.00947102158549343
4.848484848484849,3.5443037974683542,0.010204075780735556,0.008742857931470529,-1.5237073188953126e-05,-0.005684080113661825,0.009557648192999103
4.94949494949495,3.5443037974683542,0.010041659239369442,0.00912522689762343,-2.6492400394835488e-05,-0.005750065841097862,0.00961635964212534
5.05050505050505,3.5443037974683542,0.0102977059188371,0.008973652028122225,-1.1387719985058861e-05,-0.005781407384087798,0.00970368679160634
5.151515151515151,3.5443037974683542,0.009883725260644962,0.009148997858518092,-2.5997534205097908e-05,-0.005709816935748916,0.009537716352178453
5.252525252525253,3.5443037974683542,0.010079900296401491,0.008995303570500438,-5.69790258245051e-05,-0.005722561160070579,0.009584250258235944
5.353535353535354,3.5443037974683542,0.009884456269986701,0.008928001406667514,-9.175036776719133e-05,-0.005643737302996265,0.009443966316019342
5.454545454545454,3.5443037974683542,0.00998673879442186,0.009065155048524592,-7.850414017728491e-06,-0.005715568152883935,0.009559332460389298
5.555555555555555,3.5443037974683542,0.010194983399073203,0.009270285302561588,-6.272452203440947e-05,-0.005839580610490437,0.009766128937863418
5.656565656565657,3.5443037974683542,0.010009198966654918,0.009051175316823952,-6.177622827616509e-05,-0.005718112285043661,0.009566831912861349
5.757575757575758,3.5443037974683542,0.009968992659436538,0.009299093999663366,5.712567806064695e-06,-0.005780425997729971,0.00965150050182422
5.858585858585858,3.5443037974683542,0.010129472796728864,0.009039721578814537,-4.395177555761225e-05,-0.00575075831266302,0.009631249493979196
5.959595959595959,3.5443037974683542,0.009963509510666498,0.009275052667675142,8.143604171120645e-05,-0.005771568653502492,0.009638772939417357
6.0606060606060606,3.5443037974683542,0.009959498835772356,0.009194570468348349,1.7620728746890978e-05,-0.005746220791236211,0.009599966705800439
6.161616161616162,3.5443037974683542,0.010119375053236705,0.009123388991888163,-0.0001420195273944279,-0.0057728292135374604,0.0096630994943844
6.262626262626262,3.5443037974683542,0.010068732799709254,0.0090062976348779,-0.00010847939121928448,-0.005722509130376146,0.009583635855700443
6.363636363636363,3.5443037974683542,0.010121888530502643,0.009220491556233824,2.2218987158124964e-05,-0.005802714026020939,0.009702720509425776
6.4646464646464645,3.5443037974683542,0.0103056111776433,0.00919637267159433,2.82642944182078e-05,-0.00585059515477129,0.00979831861456212
6.565656565656566,3.5443037974683542,0.01042783422265944,0.009114449035578004,-5.152188901892614e-05,-0.005862684977471233,0.009837525488590857
6.666666666666667,3.5443037974683542,0.010113209990823258,0.0090801443404981,5.560669390805348e-05,-0.005758006299396407,0.009638771053072407
6.767676767676767,3.5443037974683542,0.010261993433933494,0.009254456502164018,1.8905919280346286e-05,-0.005854934980829253,0.009797212605127094
6.8686868686868685,3.5443037974683542,0.010342446805795106,0.009215687332922199,-7.769009385763177e-05,-0.005867440241615192,0.009828552801981952
6.96969696969697,3.5443037974683542,0.010248556432610141,0.009119942735146824,3.164151600987238e-05,-0.0058105497503270894,0.009733602633045646
7.070707070707071,3.5443037974683542,0.010302883634535749,0.009247879268570802,-5.314103912245938e-05,-0.005865228870931965,0.009818417901711186
7.171717171717171,3.5443037974683542,0.010285327191484402,0.009329312733237208,-6.58878555118808e-05,-0.005884391977416482,0.009842866513669474
7.2727272727272725,3.5443037974683542,0.010349643119359354,0.009419050406318253,1.0398440248534405e-05,-0.005930608057703283,0.00991716377846482
7.373737373737374,3.5443037974683542,0.010353153773799894,0.00920797240732501,-0.00011513906474575234,-0.005868337854337471,0.00983273947853573
7.474747474747475,3.5443037974683542,0.010402467939443024,0.009386047892506175,2.514341061650671e-05,-0.005936554749584759,0.009933431862401818
7.575757575757575,3.5443037974683542,0.010248477554196219,0.009639864928967313,1.976176104550314e-05,-0.00596650274494906,0.009958188603314948
7.6767676767676765,3.5443037974683542,0.010348637092128883,0.00971463593912605,-3.4543706495496436e-06,-0.006018981909376481,0.01004665292902103
7.777777777777778,3.5443037974683542,0.01046065611003132,0.009437961817844542,-3.3198159105908986e-05,-0.005969585378362758,0.009988817894258224
7.878787878787879,3.5443037974683542,0.010626235992687624,0.009554329053258122,5.477902326055435e-05,-0.006054169513783723,0.010133338146073968
7.979797979797979,3.5443037974683542,0.010555959358771376,0.009719561309686348,1.4487216693709995e-05,-0.006082656200537317,0.010163635447269427
8.080808080808081,3.5443037974683542,0.01083951751755491,0.009760065602893107,-9.965729940545415e-06,-0.006179874936134405,0.010342142740188406
8.181818181818182,3.5443037974683542,0.010874961213469595,0.009784278132752343,-0.00011774523770360007,-0.00619777180386658,0.010374720555323355
8.282828282828282,3.5443037974683542,0.01075303536103697,0.00976306310011201,4.4021858240938086e-05,-0.006154829538344694,0.010294096443930837
8.383838383838384,3.5443037974683542,0.010825936844208305,0.009714112265228787,4.780068862626764e-05,-0.006162014732831128,0.010315395023596456
8.484848484848484,3.5443037974683542,0.010903508600552605,0.009779572943953404,-3.845460998575859e-05,-0.006204924463351803,0.010387460004033231
8.585858585858587,3.5443037974683542,0.011070998363283567,0.009948599340894555,3.680350052555138e-05,-0.006305879311253436,0.010554845810262704
8.686868686868687,3.5443037974683542,0.011206933483456,0.01007494248336226,2.8533364544355195e-05,-0.006384562790045478,0.010686115119333862
8.787878787878787,3.5443037974683542,0.01125364136357854,0.010177537658011772,6.32717822161566e-05,-0.006429353706477094,0.010756596483460208
8.88888888888889,3.5443037974683542,0.010898209529549757,0.010137372266061692,5.804102374229084e-05,-0.006310674538683434,0.01053888925159621
8.98989898989899,3.5443037974683542,0.011404599510208844,0.010195361164989652,-1.5042635389737277e-05,-0.006479988202559549,0.010850665747631806
9.09090909090909,3.5443037974683542,0.01146715411585833,0.010464816321476571,1.5700304962300457e-05,-0.00657959113120047,0.011000321909166808
9.191919191919192,3.5443037974683542,0.011658837527127128,0.010474878010249006,2.354773047750831e-06,-0.0066401146612128405,0.01111425560307322
9.292929292929292,3.5443037974683542,0.011609834178958398,0.01044037904240056,-1.34349421914665e-05,-0.006615063966407687,0.011071550761170702
9.393939393939394,3.5443037974683542,0.011840555697498048,0.010547814550826172,1.695858871767898e-05,-0.006716511074497266,0.011250067916658548
9.494949494949495,3.5443037974683542,0.011759288921888001,0.010600203454197946,2.5208997920829243e-05,-0.006707847712825785,0.011224804704352215
9.595959595959595,3.5443037974683542,0.0119915214969548,0.010706668071384609,8.251551057617901e-05,-0.006809456870501823,0.011404407704586174
9.696969696969697,3.5443037974683542,0.012314438524689856,0.010640660213444886,1.4036762132409853e-06,-0.006886529621440422,0.011568720577777608
9.797979797979798,3.5443037974683542,0.012180055016329449,0.010953396405315329,-3.3685152019432755e-05,-0.006940035426493433,0.011615552774137818
9.8989898989899,3.5443037974683542,0.012242989837217428,0.011055860719441549,-4.2618781624348535e-05,-0.0069896551669976935,0.01169493544461563
10.0,3.5443037974683542,0.01232467201964684,0.011332766815149352,-7.424086691402153e-05,-0.007097231650438858,0.011860566812995198
0.0,3.6455696202531644,0.012365387112195723,0.011324805809756807,2.153574251972188e-05,-0.007107057876585759,0.011879385868793436
0.10101010101010101,3.6455696202531644,0.012246164090693639,0.01112594391876692,-7.252741464208138e-05,-0.007011632402838168,0.011726926656387436
0.20202020202020202,3.6455696202531644,0.012146436511287358,0.011021820678551088,1.689872929725789e-05,-0.006950477156951534,0.01162503602502855
0.30303030303030304,3.6455696202531644,0.011980894712923709,0.01070185741234674,-0.00010913600762876144,-0.006804825637581134,0.011396907269553398
0.40404040404040403,3.6455696202531644,0.011874189434336857,0.010739494682051853,1.6321121555984125e-05,-0.0067841052349166125,0.011349498914120687
0.5050505050505051,3.6455696202531644,0.011795043558200552,0.010557993354596076,-4.8833665783329385e-05,-0.006705911073838989,0.011228064788360996
0.6060606060606061,3.6455696202531644,0.01178613962896852,0.010626540782407365,8.368372407560136e-05,-0.006723804123412765,0.011252180758250954
0.7070707070707071,3.6455696202531644,0.011564236919704768,0.010286008820540185,1.087819056432067e-06,-0.006555073722073486,0.010981061587225732
0.8080808080808081,3.6455696202531644,0.01152943533027877,0.010433527718292684,-1.103824043388649e-05,-0.006588888914571436,0.01102243449139033
0.9090909090909091,3.6455696202531644,0.011383687683427103,0.010270599207403006,-1.231583306109033e-05,-0.006496286067249032,0.0108699914762349
1.0101010101010102,3.6455696202531644,0.011453490008072019,0.010094868394401154,-7.473432848944129e-05,-0.006464507520741952,0.010839007456256019
1.1111111111111112,3.6455696202531644,0.01116431095715959,0.010072365170597092,-6.897668890943067e-05,-0.006371002838327005,0.010661033523549208
1.2121212121212122,3.6455696202531644,0.011173863825262366,0.009927218708833497,-5.020766373599886e-05,-0.006330324760228759,0.010605992480240207
1.3131313131313131,3.6455696202531644,0.010954637405499413,0.009799820948975933,3.6977134655246767e-05,-0.006226337506342604,0.010425506611602521
1.4141414141414141,3.6455696202531644,0.011061694791187248,0.00982696642996362,1.802958633983765e-05,-0.0062665983663452605,0.010498972935266632
1.5151515151515151,3.6455696202531644,0.010948960462762293,0.009776797316346135,4.7025458078862336e-05,-0.006217727333732528,0.010412798273857663
1.6161616161616161,3.6455696202531644,0.010751952733648743,0.009699683193328985,3.5094167542944626e-05,-0.006135490778093318,0.010266523326487486
1.7171717171717171,3.6455696202531644,0.010845804162420144,0.009699341649983236,-6.887833330695104e-05,-0.006163543743721014,0.01032113215722693
1.8181818181818181,3.6455696202531644,0.010752183558386134,0.009623272743220843,-5.152771676644996e-05,-0.006112636890482093,0.01023492061097238
1.9191919191919191,3.6455696202531644,0.010828032701660419,0.009447208337286357,-6.927979691390932e-05,-0.006082572311684032,0.01020861184547468
2.0202020202020203,3.6455696202531644,0.010570333282481909,0.009457962123295532,4.445406145627215e-05,-0.006008488621733232,0.010060671443937207
2.121212121212121,3.6455696202531644,0.01044559051815379,0.009495299746593,1.7475480217235326e-05,-0.005982267079424037,0.010004398119216367
2.2222222222222223,3.6455696202531644,0.010448665130254779,0.009567311588764144,-3.765079496198143e-05,-0.006004793015705677,0.010037264159121461
2.323232323232323,3.6455696202531644,0.01061881304952856,0.009320063186281525,-7.795901742142749e-05,-0.005981662870743025,0.010033593205696209
2.4242424242424243,3.6455696202531644,0.010346081925369502,0.009349273825500456,3.9125298566591056e-05,-0.005908606725260987,0.009885675075394132
2.525252525252525,3.6455696202531644,0.010588566942842654,0.009402613567354235,-1.8485658310312285e-05,-0.005997354153059066,0.010048269192409844
2.6262626262626263,3.6455696202531644,0.010491404929663859,0.009414473338964113,4.9159116959605475e-05,-0.005971763480588392,0.009996903695944305
2.727272727272727,3.6455696202531644,0.010378617771662824,0.00915707659952425,-5.4085499814096254e-05,-0.0058607083113561215,0.009825412789873016
2.8282828282828283,3.6455696202531644,0.010468429907707995,0.009095463720857755,-4.4065342888842305e-05,-0.005869168088569725,0.0098542420232845
2.929292929292929,3.6455696202531644,0.010297598386637343,0.009281576004046062,-1.1016747274333874e-05,-0.005873752317205022,0.009829069522228673
3.0303030303030303,3.6455696202531644,0.010232423813017333,0.009296925632131156,1.772542502795534e-05,-0.005858804833544546,0.009798274472813501
3.131313131313131,3.6455696202531644,0.010436399624977681,0.009453703329871867,5.136108250093976e-05,-0.005967030886454863,0.009981795017797486
3.2323232323232323,3.6455696202531644,0.010351857531518922,0.009338366017735737,-6.643080692581635e-05,-0.005907067064776397,0.009884828718678691
3.3333333333333335,3.6455696202531644,0.010151443326201846,0.009161693207425175,-9.262377965760464e-05,-0.005793940960088105,0.009695862630963668
3.4343434343434343,3.6455696202531644,0.010374996533057842,0.00902197774731928,-1.438076511325922e-05,-0.005819092284113136,0.009769046427545511
3.5353535353535355,3.6455696202531644,0.010184202243911745,0.009101495038689289,2.0882545407696058e-05,-0.00578570918478031,0.009688396633618993
3.6363636363636362,3.6455696202531644,0.010222918807425003,0.00898947727930976,8.599290262438389e-05,-0.005763718826020429,0.009666553609677032
3.7373737373737375,3.6455696202531644,0.010079422671565507,0.009113916918342766,6.68357030939675e-05,-0.005758001876972481,0.009633723226595153
3.8383838383838382,3.6455696202531644,0.010143447020001074,0.00894560934083183,-6.214664868978862e-05,-0.005726716908249872,0.009601339288548347
3.9393939393939394,3.6455696202531644,0.010014816767026027,0.008894941031544736,0.0001012969588163448,-0.005672927339571229,0.009506109060437824
4.040404040404041,3.6455696202531644,0.010176991270267352,0.0092176017094963,3.830186252540986e-05,-0.005818377893929096,0.009733050989164728
4.141414141414141,3.6455696202531644,0.010077784216047379,0.009068992555773881,3.643386876142618e-05,-0.005744033031546378,0.009613375730108823
4.242424242424242,3.6455696202531644,0.010028501297945778,0.009190626301801853,-4.788335906459459e-05,-0.005765738279924289,0.009637277663009591
4.343434343434343,3.6455696202531644,0.00998923090296453,0.009058965998857485,8.178155873477029e-06,-0.005714459070546605,0.009558122019685974
4.444444444444445,3.6455696202531644,0.010083264456955392,0.009079295011435447,-2.7648043305663936e-05,-0.005748767840517251,0.009620768190402104
4.545454545454545,3.6455696202531644,0.009926801849488503,0.009122045250054596,2.3173704646345017e-05,-0.005714654129862929,0.0095499727698802
4.646464646464646,3.6455696202531644,0.010017390469949775,0.009032698150668254,-2.78728167196281e-06,-0.005715026586185408,0.009563143136171627
4.747474747474747,3.6455696202531644,0.010070512648549048,0.008875289076935522,-9.331593665826577e-05,-0.005683740517645371,0.009530655480451079
4.848484848484849,3.6455696202531644,0.010107282177860378,0.009157831263640056,3.1201552000526887e-05,-0.00577953403245013,0.009667738224005512
4.94949494949495,3.6455696202531644,0.0101252338160922,0.008932103850856757,2.5169024457431932e-05,-0.005717201300084686,0.00958462829288968
5.05050505050505,3.6455696202531644,0.010062041505684032,0.009171502356741666,0.00010271213521607044,-0.0057700631587277095,0.009649287367830564
5.151515151515151,3.6455696202531644,0.010153740847982621,0.0090506973147706,1.9306836737785038e-05,-0.005761331448825967,0.009649676591767633
5.252525252525253,3.6455696202531644,0.010141306178556034,0.009198644119090172,6.741248153603068e-05,-0.005801985089293862,0.009705076585252907
5.353535353535354,3.6455696202531644,0.010092361787972853,0.00913370585745752,-7.795799190494154e-05,-0.005767820293629112,0.009649762562726913
5.454545454545454,3.6455696202531644,0.01005075363972973,0.008944930219830548,1.0812055501205934e-05,-0.005698705157868082,0.009546019385153183
5.555555555555555,3.6455696202531644,0.010036334286527006,0.009092484505996732,-5.278206620723678e-06,-0.005738645637757122,0.009599278617888587
5.656565656565657,3.6455696202531644,0.0101777435806698,0.008962221693091847,-5.301948166596962e-05,-0.005741989582128494,0.009628142134435625
5.757575757575758,3.6455696202531644,0.010066496583775916,0.009125714043457576,-5.274287933335845e-05,-0.005757663188170048,0.00963106362065533
5.858585858585858,3.6455696202531644,0.010028143994104056,0.009018631059752997,-2.0856574913064995e-05,-0.005714032516157115,0.009563501045729839
5.959595959595959,3.6455696202531644,0.01012490658611922,0.009187382840137084,1.2744094909121385e-05,-0.005793686827876891,0.009690244116504402
6.0606060606060606,3.6455696202531644,0.01016692257356111,0.009131311139799671,2.090301478494805e-05,-0.005789470114008234,0.009690775779227277
6.161616161616162,3.6455696202531644,0.010045458941391711,0.009052050375002247,4.250530040298995e-05,-0.0057292527949181875,0.009587715111482898
6.262626262626262,3.6455696202531644,0.010176217974695216,0.009150112973669126,3.312484762193578e-06,-0.005797899284509302,0.009703940874919855
6.363636363636363,3.6455696202531644,0.010275694241296327,0.00910455385389428,-6.428507569024597e-05,-0.005814074428557183,0.009743694326378853
6.4646464646464645,3.6455696202531644,0.010033570653348678,0.009154225770389093,1.5514764091940975e-05,-0.005756338927121331,0.009624112457302538
6.565656565656566,3.6455696202531644,0.010082790136339575,0.00923179389191967,-1.1741730803678892e-05,-0.005794375208477773,0.009685393570057498
6.666666666666667,3.6455696202531644,0.010196376875647822,0.009295664412701044,2.097799889405649e-05,-0.00584761238650466,0.009777254258311366
6.767676767676767,3.6455696202531644,0.010150274348505572,0.009134996391272293,8.933980493769697e-05,-0.005785581221933359,0.009683875963513
6.8686868686868685,3.6455696202531644,0.010235511800035199,0.009092464818962635,-9.727898586999314e-06,-0.005798392985699351,0.009714570049305775
6.96969696969697,3.6455696202531644,0.010320045951280383,0.009353828230643202,4.6869805538569986e-05,-0.005902162254577075,0.00987279616827515
7.070707070707071,3.6455696202531644,0.01050318228247451,0.009165391810190611,4.316279754181518e-05,-0.005900572227799536,0.009902578113892335
7.171717171717171,3.6455696202531644,0.010388636896517246,0.009342669151334339,-2.4517802590868108e-06,-0.005919391814355475,0.009907152164731686
7.2727272727272725,3.6455696202531644,0.010381505817775121,0.009324188094686128,-6.18288740521701e-05,-0.005911708173738374,0.009895883090839915
7.373737373737374,3.6455696202531644,0.010435623097391192,0.009374287808672457,-6.853745251365174e-05,-0.005942973271819094,0.009948218891844197
7.474747474747475,3.6455696202531644,0.01050030750303887,0.009349392829617718,5.359579159632692e-05,-0.005954910099796976,0.00997520535075942
7.575757575757575,3.6455696202531644,0.010468820731782538,0.009377469407984453,2.749406154792225e-05,-0.005953887041930097,0.009968167415938659
7.6767676767676765,3.6455696202531644,0.010729807993830432,0.009503212726618816,2.0820544788729974e-05,-0.006069906216134774,0.010172191716436902
7.777777777777778,3.6455696202531644,0.010644097290753406,0.009692964365867158,5.781794225993304e-05,-0.006101118496986169,0.01020233004417325
7.878787878787879,3.6455696202531644,0.010729887903399264,0.009398041652338911,6.826094331444034e-05,-0.006038378866721452,0.010130534366294986
7.979797979797979,3.6455696202531644,0.010572583534582894,0.009788826380083727,-6.228441812757076e-05,-0.006108422974399986,0.010203876612955342
8.080808080808081,3.6455696202531644,0.01086541709391541,0.009632387189587178,-1.5059725284023934e-05,-0.006149341285050777,0.010304413984108796
8.181818181818182,3.6455696202531644,0.010667801094935937,0.009659684230133763,-2.577587026435228e-05,-0.00609824559752091,0.010201268686125201
8.282828282828282,3.6455696202531644,0.010780127127882585,0.009741947925771164,1.3728251911674273e-05,-0.006156622516096125,0.010300379534921203
8.383838383838384,3.6455696202531644,0.010848662980119661,0.009798809448325398,1.8385255224778653e-05,-0.006194241728533517,0.010363743908566267
8.484848484848484,3.6455696202531644,0.01105185364048114,0.009722389477381273,-5.504683440765002e-05,-0.006232272935358723,0.010451171750702095
8.585858585858587,3.6455696202531644,0.010916968002525916,0.009938067757703822,5.5615352397570253e-05,-0.006256510728068921,0.010462365536023236
8.686868686868687,3.6455696202531644,0.011080200953087375,0.009877007638080335,-5.560083892534693e-05,-0.006287162577350313,0.010530725424122228
8.787878787878787,3.6455696202531644,0.011177642607770264,0.009918716401105603,-1.3528396818604492e-05,-0.00632890770266276,0.010604400563246196
8.88888888888889,3.6455696202531644,0.01124423602821197,0.010143193310053256,4.720909451321682e-05,-0.006416228801479568,0.010736453828943896
8.98989898989899,3.6455696202531644,0.011284964048255347,0.010052150063678017,8.288311957488793e-06,-0.006401134233580009,0.010721855645604862
9.09090909090909,3.6455696202531644,0.011487434014962362,0.010453613504193849,3.343401237926567e-05,-0.006582314255746863,0.011007149208372861
9.191919191919192,3.6455696202531644,0.011375123714193948,0.010203657715913627,-2.1928493074107718e-05,-0.006473634429032271,0.010837049599284831
9.292929292929292,3.6455696202531644,0.011642647598214104,0.010476212403810256,1.9314044062935675e-05,-0.006635658000607308,0.011105518418391842
9.393939393939394,3.6455696202531644,0.01172221375049341,0.010461725498754217,4.6888913517342543e-05,-0.006655181774774288,0.011145851642597314
9.494949494949495,3.6455696202531644,0.011744090714310915,0.01056442826031188,-3.457322844498207e-05,-0.006692555692386838,0.011201106787442164
9.595959595959595,3.6455696202531644,0.011921265382836372,0.010717821072600438,-3.313022287491451e-05,-0.006791725936631043,0.01136756615881642
9.696969696969697,3.6455696202531644,0.012183973477897427,0.010754759607336024,7.562390322830733e-06,-0.006881619925570035,0.011535966785406067
9.797979797979798,3.6455696202531644,0.01242060308021774,0.010971204688048353,-3.571765728436599e-05,-0.0070175423304798265,0.011763229220516851
9.8989898989899,3.6455696202531644,0.012439141589164723,0.010990717943831895,1.0660747398198037e-05,-0.007028957859898985,0.01178190853303754
10.0,3.6455696202531644,0.012341595583590392,0.01113122697995009,5.730796136810671e-05,-0.007041846769062145,0.011783545582704762
0.0,3.7468354430379747,0.012447419999884971,0.011219397207863368,-1.1943170873327776e-05,-0.007100045162324501,0.011881120194978593
0.10101010101010101,3.7468354430379747,0.012148987919173048,0.011099663588047948,-9.041577045215607e-06,-0.006974595452166298,0.011659802984627014
0.20202020202020202,3.7468354430379747,0.012185720005539396,0.010994145746468217,-3.751671791115982e-05,-0.006953959725602284,0.011635963797374206
0.30303030303030304,3.7468354430379747,0.012013686326227747,0.010756661270144944,6.376650864230168e-05,-0.006831104278911807,0.011437633711196434
0.40404040404040403,3.7468354430379747,0.011961512944734702,0.010707866157058493,8.900736977184851e-05,-0.006800813730537958,0.011387610673535244
0.5050505050505051,3.7468354430379747,0.012025564571778074,0.010720253411243332,4.9755677064262376e-05,-0.006823745394906422,0.011429276605750157
0.6060606060606061,3.7468354430379747,0.011719850959453394,0.010520903000724778,-2.3088092705473777e-05,-0.006672226188053451,0.01116881777607524
0.7070707070707071,3.7468354430379747,0.011640640186658096,0.010370903315824765,1.1893673716350689e-05,-0.006603463050744858,0.01106058814031661
0.8080808080808081,3.7468354430379747,0.011336658805696655,0.01034035592542291,-5.4712252081370007e-05,-0.006503104419335868,0.010873209589482234
0.9090909090909091,3.7468354430379747,0.011569977967778384,0.010307509909296244,-1.751858774073051e-05,-0.006563246363122389,0.010993289264576453
1.0101010101010102,3.7468354430379747,0.011244905912806151,0.010020523635182653,-9.82680628237731e-06,-0.00637962886439664,0.0106854689712152
1.1111111111111112,3.7468354430379747,0.011166202333508813,0.010153902131056611,-5.664368190607763e-05,-0.006396031339369627,0.010696490213617214
1.2121212121212122,3.7468354430379747,0.011349964040946393,0.009930271118837168,-5.154542453209723e-06,-0.006384070547935068,0.01071092096024712
1.3131313131313131,3.7468354430379747,0.011160631082281476,0.00994701085967639,-4.617257690450978e-05,-0.006332292582587359,0.010606327750054951
1.4141414141414141,3.7468354430379747,0.0107540205079441,0.009992752856229782,-6.678935584753525e-05,-0.006224032009252164,0.010394959357228015
1.5151515151515151,3.7468354430379747,0.010948097012835048,0.009896939157838213,-3.046840251871611e-05,-0.006253510851201978,0.010462330898844505
1.6161616161616161,3.7468354430379747,0.010900144143240703,0.00981958366198628,-0.00012237899959703722,-0.006215918341568095,0.010404201947027833
1.7171717171717171,3.7468354430379747,0.010789386072548963,0.009892818490156066,2.825814912789793e-05,-0.006204661368811509,0.010370326274265386
1.8181818181818181,3.7468354430379747,0.010640457389338992,0.009720943823047296,1.7347816109631522e-05,-0.006108420363715887,0.01021184099817749
1.9191919191919191,3.7468354430379747,0.010680745789167029,0.009703590689919285,-1.978088380009707e-05,-0.006115300943725894,0.01022729638463819
2.0202020202020203,3.7468354430379747,0.01069555530974692,0.009568361118564501,1.54671958197118e-05,-0.006079174928493426,0.01017891055144476
2.121212121212121,3.7468354430379747,0.01067971489306381,0.009486320162212876,-7.153053633815863e-05,-0.006049810516583006,0.010136603748458633
2.2222222222222223,3.7468354430379747,0.010642120381538217,0.009471876256026914,-3.8261003620492834e-05,-0.006034198991269539,0.010108150690515044
2.323232323232323,3.7468354430379747,0.010446929354946967,0.009721223074932077,3.652016046043427e-05,-0.006050445728963713,0.010103839937306456
2.4242424242424243,3.7468354430379747,0.010561022296564951,0.009524608039620285,1.630782898487339e-05,-0.00602568910085557,0.010082884022953372
2.525252525252525,3.7468354430379747,0.01048872314991189,0.00947488300364781,3.385285451213981e-05,-0.0059890818460679104,0.010020515684959538
2.6262626262626263,3.7468354430379747,0.010528106430176713,0.009284269327166585,9.94662509991369e-05,-0.00594371272720299,0.00996607179117846
2.727272727272727,3.7468354430379747,0.010385183773572105,0.009176636518537368,-6.297889096481154e-05,-0.005868546087632842,0.009837354428811486
2.8282828282828283,3.7468354430379747,0.010283278093049297,0.009187583945254992,-4.995823401793721e-05,-0.005841258611491287,0.009781948366927794
2.929292929292929,3.7468354430379747,0.010247167903990025,0.00906183341336323,1.4088034933642167e-05,-0.005792700395205976,0.009708951631230553
3.0303030303030303,3.7468354430379747,0.010248897057041592,0.00926441125701237,2.2423399218509862e-05,-0.0058539924942161885,0.00979391229204008
3.131313131313131,3.7468354430379747,0.010304879925794264,0.009362297854854559,2.39009579239851e-05,-0.005900153334194647,0.009867498667424458
3.2323232323232323,3.7468354430379747,0.01021074816509218,0.009099452051031947,5.578564899168667e-05,-0.005793060064837237,0.00970342869827178
3.3333333333333335,3.7468354430379747,0.010340125395973041,0.009117225789458174,-5.609119596709341e-05,-0.005837205355629365,0.009786632722280229
3.4343434343434343,3.7468354430379747,0.01020826848206953,0.009132982640447788,3.878475593818511e-05,-0.005802375336755196,0.009715590113258331
3.5353535353535355,3.7468354430379747,0.010052322922352436,0.00909177521607626,-4.359286797916048e-05,-0.005743229441528609,0.009608424080976419
3.6363636363636362,3.7468354430379747,0.010055777132896631,0.009200637770164445,6.039298939583188e-05,-0.005776924470918323,0.009657213271253939
3.7373737373737375,3.7468354430379747,0.010195382022142943,0.009040308073044621,-1.370441869967772e-05,-0.005770707028556269,0.009669754581359038
3.8383838383838382,3.7468354430379747,0.010078336663667743,0.009087149257262823,-4.8882484645542127e-05,-0.005749645776279169,0.009621484838330521
3.9393939393939394,3.7468354430379747,0.010166932665358248,0.008981230921322981,6.0657979979494694e-05,-0.005744449076004368,0.009629563688274667
4.040404040404041,3.7468354430379747,0.010096363104859276,0.009004185620032547,1.4174840293510017e-06,-0.005730164617467546,0.009596998758442474
4.141414141414141,3.7468354430379747,0.010021684911527079,0.009220076534993762,3.3509256774340784e-05,-0.005772528433956252,0.00964606896585697
4.242424242424242,3.7468354430379747,0.00987176842220382,0.009110607048889075,-2.9233662004852364e-05,-0.005694712641327869,0.009514185904718265
4.343434343434343,3.7468354430379747,0.01010594406165245,0.009123875119988955,3.7444124952797576e-05,-0.005768945754492422,0.009652669950939554
4.444444444444445,3.7468354430379747,0.010140901985917935,0.009040815256667892,-3.69919611558711e-08,-0.005754515172775748,0.009638060604013541
4.545454545454545,3.7468354430379747,0.009997583285159857,0.009094400359866032,-2.1968124238252363e-05,-0.005727595093507766,0.009578058896161496
4.646464646464646,3.7468354430379747,0.009985913887947652,0.008900826125034782,-2.0886475989501062e-05,-0.00566602200389473,0.009490079420323792
4.747474747474747,3.7468354430379747,0.009997429618755478,0.008965410926577235,6.843490589184881e-05,-0.005688852163599813,0.009524189064257168
4.848484848484849,3.7468354430379747,0.010171392775632934,0.009074884876368377,0.00011406560212343117,-0.005773883295600394,0.009671896449461544
4.94949494949495,3.7468354430379747,0.010199267523932628,0.008727145312999828,3.781806523417779e-05,-0.005677923851079737,0.009548922671674322
5.05050505050505,3.7468354430379747,0.010060213880465182,0.00917628932733115,-4.858773399596186e-05,-0.005770950962338899,0.009649033017940145
5.151515151515151,3.7468354430379747,0.010066895065710122,0.009153590081736402,2.4512462559698144e-05,-0.005766145544233957,0.009642829429352089
5.252525252525253,3.7468354430379747,0.009968248419545953,0.00901294873698133,6.923546946072722e-05,-0.005694359146958185,0.009527344338117796
5.353535353535354,3.7468354430379747,0.010115022740909882,0.009217403771832207,7.398050917801198e-05,-0.005799727953822626,0.009698267264057744
5.454545454545454,3.7468354430379747,0.010030844105394045,0.009140275218915351,-7.919803898921013e-05,-0.005751335797292818,0.009617515569576138
5.555555555555555,3.7468354430379747,0.010128638196247482,0.008962635458246663,-8.355450139270516e-07,-0.005727382096348243,0.009598898703542559
5.656565656565657,3.7468354430379747,0.009896249479812415,0.00883303528741572,-2.0117512048530683e-05,-0.00561878543016844,0.009409865005941336
5.757575757575758,3.7468354430379747,0.01011202430620156,0.009050997782643311,0.00011416110607633845,-0.005748906626653461,0.009627501499952175
5.858585858585858,3.7468354430379747,0.01023383623640843,0.009034263995718486,-1.42401921852095e-05,-0.005780430069638075,0.009689930864485987
5.959595959595959,3.7468354430379747,0.010092590260039065,0.009027459094378696,-3.1666001712086003e-05,-0.005736014806325328,0.00960458007077258
6.0606060606060606,3.7468354430379747,0.010109125305562013,0.009117677513542016,-1.2874657381291178e-05,-0.0057680408457312085,0.009651694694446707
6.161616161616162,3.7468354430379747,0.009933304998050991,0.009069479782211511,-2.62391465861112e-05,-0.005700835434078751,0.009530905955486333
6.262626262626262,3.7468354430379747,0.010121842065959143,0.009077035104021967,1.7005947596186198e-05,-0.005759663150994332,0.009642033237059014
6.363636363636363,3.7468354430379747,0.010036055431133518,0.009122483058936365,6.685026210378478e-06,-0.005747561547020965,0.009611893372121335
6.4646464646464645,3.7468354430379747,0.01012456247273916,0.00904902753508623,7.080835244962301e-05,-0.005752077002347617,0.009632718280265408
6.565656565656566,3.7468354430379747,0.010258790416155046,0.009218199310562489,-3.780615751148768e-06,-0.00584309691801526,0.009780104675800266
6.666666666666667,3.7468354430379747,0.010178914039216601,0.009087060141895706,-3.297150814259719e-05,-0.005779792254333692,0.009679452998371873
6.767676767676767,3.7468354430379747,0.010311312225673577,0.009324127692735586,3.7712459467615186e-06,-0.005890631975522749,0.009854875333600419
6.8686868686868685,3.7468354430379747,0.010425305840929919,0.009017900460530113,-1.9786895042215903e-05,-0.005832961890438009,0.009797771931031757
6.96969696969697,3.7468354430379747,0.01029635615658926,0.009169833918186899,3.100983130250614e-05,-0.005839857022432848,0.009782014777179188
7.070707070707071,3.7468354430379747,0.010545906652323475,0.009242485545501486,7.31077464492757e-05,-0.005936517659347488,0.009959183229953619
7.171717171717171,3.7468354430379747,0.010231972453648583,0.009298133787227086,2.4646713151380178e-06,-0.0058590318722627,0.009798485681979878
7.2727272727272725,3.7468354430379747,0.010345887987988515,0.009132249995517277,-6.449885270732953e-05,-0.0058434413950517365,0.009796256071311207
7.373737373737374,3.7468354430379747,0.01023849919311629,0.009318780854094495,-1.1658471655871805e-05,-0.005867184014163236,0.009811045807582956
7.474747474747475,3.7468354430379747,0.010508799438252506,0.009536048088611561,-4.441333790173131e-06,-0.00601345425805922,0.010057769194076579
7.575757575757575,3.7468354430379747,0.010411942146653181,0.009406424984123873,1.6897912235499614e-05,-0.005945510139233116,0.00994741544945146
7.6767676767676765,3.7468354430379747,0.010335451541137788,0.00954149357509895,-0.00012466495128939862,-0.005963083534871021,0.009964569121521976
7.777777777777778,3.7468354430379747,0.010331157989787976,0.009625948621968024,-1.1315458755496716e-05,-0.0059871319835268005,0.009997244639720241
7.878787878787879,3.7468354430379747,0.010646806428864694,0.00968537997587442,5.3609397964832164e-05,-0.006099655921421734,0.010200555304506568
7.979797979797979,3.7468354430379747,0.010827878753024189,0.009667977799575437,-2.229024177594032e-05,-0.0061487569657798875,0.010297113779461653
8.080808080808081,3.7468354430379747,0.01069856266906022,0.009484052488406561,-5.18532339111154e-05,-0.006054784547240035,0.010146370343940074
8.181818181818182,3.7468354430379747,0.0106526974858477,0.009779282777313445,1.5108780275451276e-05,-0.006129594078948343,0.010243987462608926
8.282828282828282,3.7468354430379747,0.010797918532586508,0.009647770915451912,5.512938486778333e-07,-0.006133706834411526,0.010271255269882179
8.383838383838384,3.7468354430379747,0.010841364116297138,0.00983135545052031,-5.979934474597692e-05,-0.006201815870045234,0.010373820394901466
8.484848484848484,3.7468354430379747,0.010959074619669397,0.009991405163366133,0.00010056951505231909,-0.006285143934910658,0.010510151359491232
8.585858585858587,3.7468354430379747,0.010994775569000439,0.009935920938506619,-2.7963532430713162e-05,-0.006279208952252116,0.010505557567124587
8.686868686868687,3.7468354430379747,0.011025824202059461,0.010088233251286743,-6.078094798232187e-05,-0.006334217236003862,0.010588732034570626
8.787878787878787,3.7468354430379747,0.011190656596881352,0.009889860870091239,-8.170790564166589e-05,-0.006324155240091778,0.01060123270457232
8.88888888888889,3.7468354430379747,0.01132795179367859,0.010285299491055517,2.707222528833327e-05,-0.006483975385420231,0.010844385614618063
8.98989898989899,3.7468354430379747,0.01132897251987926,0.010001386603379405,-1.2875131513050465e-05,-0.0063991077369776,0.010726994717212134
9.09090909090909,3.7468354430379747,0.011393869454744066,0.010450662797801411,3.1158890071764125e-05,-0.006553359675763643,0.010952900942704272
9.191919191919192,3.7468354430379747,0.011354657526423164,0.010292422738879913,-2.4991345209342247e-05,-0.006494124079590923,0.01086264938967584
9.292929292929292,3.7468354430379747,0.011538381401314446,0.010456380703450119,2.1699974675374654e-05,-0.00659842863142937,0.011037293454947809
9.393939393939394,3.7468354430379747,0.011761821114663564,0.010450702099463036,-4.950914726264539e-05,-0.00666375696423798,0.011164482753604465
9.494949494949495,3.7468354430379747,0.011820056681322971,0.010696462108895336,4.403842582052101e-05,-0.0067549556370654915,0.011300489871187062
9.595959595959595,3.7468354430379747,0.01192237836779139,0.010694399626282653,-4.617753220128832e-05,-0.006785033398222212,0.011358565386700322
9.696969696969697,3.7468354430379747,0.012308048619774086,0.010856265947384444,-2.9196095894158258e-06,-0.006949294370147559,0.011650199466524892
9.797979797979798,3.7468354430379747,0.012071148024921714,0.01096015179810759,8.95850090275452e-06,-0.00690938994690879,0.01155578504952299
9.8989898989899,3.7468354430379747,0.012257865605151253,0.011171894542936371,4.043290058815859e-05,-0.0070289280444262876,0.011752779223169077
10.0,3.7468354430379747,0.012435322561696709,0.011196648662681767,-1.1329859563524665e-05,-0.0070895913673135426,0.011864595899384519
0.0,3.848101265822785,0.012375456208063606,0.011136260713271198,3.7203411916554315e-05,-0.0070535150764004404,0.011804916964322764
0.10101010101010101,3.848101265822785,0.012295628532680639,0.011167223966103932,-8.029946654868617e-05,-0.00703885574963537,0.011772878938786287
0.20202020202020202,3.848101265822785,0.01213022844071805,0.011081181626067228,-6.222034623828237e-05,-0.006963423020035584,0.011641708545186572
0.30303030303030304,3.848101265822785,0.011976048376059527,0.010775248730315544,-0.00010775721921553146,-0.006825389131912521,0.01142460742005742
0.40404040404040403,3.848101265822785,0.012036548925524191,0.010581872190510261,-7.956381917485279e-06,-0.006785526334810336,0.011379169418729605
0.5050505050505051,3.848101265822785,0.011582253287862929,0.01064014961877286,2.081356420087178e-05,-0.006666720871990737,0.011141174392408667
0.6060606060606061,3.848101265822785,0.011662881537640503,0.010487694312771733,-5.279534127059842e-05,-0.006645172755123671,0.011122327248850266
0.7070707070707071,3.848101265822785,0.011627340439456724,0.010487634646386412,-2.3398504995103028e-05,-0.006634492525752941,0.011101525579984142
0.8080808080808081,3.848101265822785,0.011301032605102563,0.01041305462756508,4.9507237111826856e-05,-0.0065142261698002924,0.010884582107412208
0.9090909090909091,3.848101265822785,0.01121469642362701,0.010252413290017649,2.1181563411093678e-05,-0.006440132914093398,0.010765920186506198
1.0101010101010102,3.848101265822785,0.01134773217017756,0.010240529300032825,-4.133462581948969e-05,-0.006476478441063116,0.010836872594395489
1.1111111111111112,3.848101265822785,0.011228431697802858,0.009971510152236806,-5.230079755320185e-05,-0.0063599825550118986,0.010656100532573865
1.2121212121212122,3.848101265822785,0.011249260441819717,0.010052447499960829,-4.610659303084254e-05,-0.006390512382534163,0.010701464323929811
1.3131313131313131,3.848101265822785,0.011076549330849636,0.00997129437762324,8.60624554051946e-06,-0.006314353112541862,0.010567371706350914
1.4141414141414141,3.848101265822785,0.01095049092558284,0.01009046552117459,8.600746227991813e-06,-0.006312286934027228,0.010546820219348744
1.5151515151515151,3.848101265822785,0.01097775209173608,0.009704634301140078,2.558963128700892e-05,-0.006204715917862848,0.01039989725407393
1.6161616161616161,3.848101265822785,0.011047396251459597,0.009808042396075372,-4.9796014696200585e-05,-0.00625663159426049,0.010483165920114711
1.7171717171717171,3.848101265822785,0.010754873080560718,0.009742834581107097,-3.4127388724595326e-05,-0.006149312298500344,0.010286431126735092
1.8181818181818181,3.848101265822785,0.010839537795954896,0.009791865291341453,6.434106241531994e-05,-0.006189420926188905,0.010356125284692909
1.9191919191919191,3.848101265822785,0.010672166510611753,0.009868292237942151,3.862970472476077e-05,-0.006162137624566171,0.010294015181027157
2.0202020202020203,3.848101265822785,0.01080124628608829,0.009592488573733784,9.218719039638647e-05,-0.006118120457946622,0.010251703381525552
2.121212121212121,3.848101265822785,0.010623348507637473,0.009529525729457129,-2.4080604931675854e-05,-0.00604586227112838,0.010120951577455012
2.2222222222222223,3.848101265822785,0.01067009805547946,0.009479239187379971,6.78210897551676e-06,-0.0060448011728578286,0.010127324150802391
2.323232323232323,3.848101265822785,0.010558090625344265,0.009489238007254607,5.490724188522642e-05,-0.006014198589779662,0.010066763391521964
2.4242424242424243,3.848101265822785,0.010385723942103901,0.009463416046755732,-4.2227690420935735e-05,-0.00595474199665789,0.009956928642820419
2.525252525252525,3.848101265822785,0.010523267762621467,0.009508653024797331,1.9533374612277875e-05,-0.00600957623622564,0.010054486041871263
2.6262626262626263,3.848101265822785,0.010223061222153608,0.00931415816864609,5.351936526916921e-05,-0.00586116581723991,0.009800709510996784
2.727272727272727,3.848101265822785,0.010372281449999042,0.00924423428578525,4.2628309914731674e-05,-0.005884954720735288,0.009857065573739724
2.8282828282828283,3.848101265822785,0.010234354714697235,0.009336954128192586,7.83612002158652e-05,-0.005871392652866947,0.009817405448922659
2.929292929292929,3.848101265822785,0.010347941623561119,0.009233662308310768,-5.790315556873321e-05,-0.005874481179561566,0.009838753745101342
3.0303030303030303,3.848101265822785,0.01030833955661942,0.009266598066690133,-4.24022902409848e-06,-0.005872481286992866,0.009828963255431448
3.131313131313131,3.848101265822785,0.010027098096054515,0.009026636449721164,2.105898322935385e-06,-0.005716120363732703,0.009566185549579448
3.2323232323232323,3.848101265822785,0.00998954807389299,0.009316699333971506,4.293036845258333e-05,-0.0057918742223593495,0.009670980837698703
3.3333333333333335,3.848101265822785,0.010241926543764709,0.009201154068860492,3.231864078909443e-05,-0.0058329241837875604,0.009763395153289481
3.4343434343434343,3.848101265822785,0.010206019649301089,0.00924318828991677,-3.6493388567503996e-05,-0.0058347623817653575,0.009760491833812555
3.5353535353535355,3.848101265822785,0.010020031399823128,0.00899700740659004,4.1224421153222225e-05,-0.00570511164192395,0.009549972417127826
3.6363636363636362,3.848101265822785,0.010231076060601509,0.009171910951247628,5.8503198237584977e-05,-0.005820896103554741,0.009745286920597214
3.7373737373737375,3.848101265822785,0.010089196975606009,0.009189561444902525,1.3809749134463323e-05,-0.00578362752615256,0.00967084338373204
3.8383838383838382,3.848101265822785,0.009963630013802613,0.009069752062925408,-2.459037235921981e-05,-0.005710014623018406,0.00954821898168525
3.9393939393939394,3.848101265822785,0.010317047566877926,0.009185626919961184,-1.885910093769656e-05,-0.005850802346051732,0.009800496392640932
4.040404040404041,3.848101265822785,0.010309593050023507,0.009099478339771995,8.001261509866984e-05,-0.005822721416938651,0.009761941524012767
4.141414141414141,3.848101265822785,0.010044937585750644,0.009113815206866788,-7.245929279190917e-06,-0.005747625837785229,0.009613264342353938
4.242424242424242,3.848101265822785,0.010101025006097759,0.009230300660778096,1.744791443285727e-05,-0.0057993977000627564,0.009695079781157384
4.343434343434343,3.848101265822785,0.009883184898660444,0.009062111094239503,3.539353068653017e-05,-0.005683588797869984,0.009499496819038406
4.444444444444445,3.848101265822785,0.010023593536151065,0.009266762507578435,-2.8937839957878094e-05,-0.00578710681311885,0.009667552232781823
4.545454545454545,3.848101265822785,0.010076189432101253,0.008808889433270923,-4.595735186876715e-05,-0.005665523659611653,0.009506441192038195
4.646464646464646,3.848101265822785,0.010135195616268378,0.008855622125957623,4.704167741112746e-05,-0.0056972453226678006,0.009560199246128815
4.747474747474747,3.848101265822785,0.010117526458757324,0.008962501027372515,1.99721085357643e-06,-0.005724008245838951,0.009592311347885886
4.848484848484849,3.848101265822785,0.009974160399705901,0.008814247391093063,-8.580243274126062e-05,-0.005636522337239689,0.009448925951736192
4.94949494949495,3.848101265822785,0.010024548971200633,0.009118578202631544,2.0022654121236037e-05,-0.005742938152149653,0.009603729457535671
5.05050505050505,3.848101265822785,0.01009269659367976,0.008992816899735048,4.3994070069928815e-05,-0.005725654048024442,0.009590480398149906
5.151515151515151,3.848101265822785,0.009985047618422416,0.008859177440848591,1.967172571167004e-06,-0.005653267517781302,0.00947242861535418
5.252525252525253,3.848101265822785,0.009897684506219936,0.008876588409673732,-5.031068797270107e-06,-0.0056322818747681,0.009428700055885794
5.353535353535354,3.848101265822785,0.010015864536189068,0.008907686267571465,6.402531450310877e-05,-0.00567706524112816,0.009510969234762322
5.454545454545454,3.848101265822785,0.009961186635610667,0.008940861456492255,7.856464936649313e-05,-0.005670614427630876,0.009493217069823612
5.555555555555555,3.848101265822785,0.010088753251900165,0.008932565120018755,-1.3840672888609905e-05,-0.005706395511575676,0.009563252118990728
5.656565656565657,3.848101265822785,0.010001310098683406,0.008985796380500769,-3.225650044436323e-05,-0.005696131943755252,0.009534365508113008
5.757575757575758,3.848101265822785,0.010146445313371433,0.009017862909735615,-5.8716478194268476e-05,-0.005749292466932114,0.00963240852400603
5.858585858585858,3.848101265822785,0.010040912843644575,0.009048986000054259,-3.550221134134136e-05,-0.00572696965310965,0.009583724736967886
5.959595959595959,3.848101265822785,0.010058143029463723,0.00903236947911461,1.7239381871197202e-05,-0.0057271537525735,0.009586551365394921
6.0606060606060606,3.848101265822785,0.009933666301734232,0.009176611554601862,8.114619007602641e-05,-0.005733083356900828,0.009578636801064164
6.161616161616162,3.848101265822785,0.010185432199018235,0.008942519062303204,-0.00010182745101899463,-0.005738385378396432,0.00962597325740516
6.262626262626262,3.848101265822785,0.010130548640529705,0.00907690437120106,4.6576801765686255e-05,-0.005762235903519229,0.00964731546491387
6.363636363636363,3.848101265822785,0.010065356563128933,0.009119576272526065,-2.567828829991178e-05,-0.005755479850696499,0.00962747450628606
6.4646464646464645,3.848101265822785,0.010183303533686716,0.009210012993431237,2.498766253139838e-06,-0.005817994958135386,0.009733225111367663
6.565656565656566,3.848101265822785,0.010288863841810483,0.00906193288865981,-0.0001033088676366984,-0.005805239019141087,0.009735212959419095
6.666666666666667,3.848101265822785,0.010096562077254836,0.009137949386518969,5.332664355448381e-05,-0.005770353439132142,0.009653462732272794
6.767676767676767,3.848101265822785,0.010243003312772085,0.009186143888447592,-8.518516032353252e-05,-0.005828744160365903,0.009758710143168065
6.8686868686868685,3.848101265822785,0.010420978898310538,0.009252674315396378,-0.00011014131005627022,-0.0059020959641120745,0.009890563821981361
6.96969696969697,3.848101265822785,0.01027710330276924,0.00930090089144136,2.6195399745262668e-05,-0.00587340125826318,0.009825545736240159
7.070707070707071,3.848101265822785,0.010281300319187966,0.00915926416442191,-4.142911290190553e-05,-0.005832169345082962,0.009768994821576456
7.171717171717171,3.848101265822785,0.010198876080659886,0.009224636445958067,5.0442565686342694e-05,-0.005827053757985386,0.009748728133689447
7.2727272727272725,3.848101265822785,0.010419039654354464,0.009482997385764465,1.2537791900531945e-05,-0.005970611112035679,0.00998400583541917
7.373737373737374,3.848101265822785,0.010461376933732253,0.009522582435102536,1.0084349907143764e-05,-0.0059951878106504364,0.010025016929119977
7.474747474747475,3.848101265822785,0.010550332646099342,0.009320988701095302,-8.704316999837096e-06,-0.005961396404158393,0.009992549485372102
7.575757575757575,3.848101265822785,0.01045519927778159,0.009344475858718374,3.286238809748544e-05,-0.005939902540949989,0.009946622721940836
7.6767676767676765,3.848101265822785,0.01048551982310961,0.009509771843637663,-2.23884963838513e-05,-0.005998587500024182,0.010033368777906398
7.777777777777778,3.848101265822785,0.010745979594994232,0.009612252688644709,-1.901587783638306e-05,-0.006107469685091683,0.01022641152912961
7.878787878787879,3.848101265822785,0.010544675713668865,0.009595407768145367,-2.9743158186377527e-06,-0.006042025044544269,0.010103543904372079
7.979797979797979,3.848101265822785,0.010584426294776444,0.009615384685951734,5.083627417045617e-05,-0.006059943294218453,0.010135093740283138
8.080808080808081,3.848101265822785,0.010569065751349744,0.009591498856387038,-4.5482982326221115e-06,-0.006048169382321035,0.010115773878568457
8.181818181818182,3.848101265822785,0.010878543324945011,0.009527222920423625,-5.232507510101028e-05,-0.00612172987361059,0.010270179544796983
8.282828282828282,3.848101265822785,0.01103195445098167,0.009878826881234615,3.6473825146494834e-05,-0.006273234399664885,0.010503164399112622
8.383838383838384,3.848101265822785,0.010966121048533376,0.00980021747373751,3.3328591560599513e-05,-0.006229901556681266,0.01043230725437693
8.484848484848484,3.848101265822785,0.010845406398294026,0.009898745560857953,2.0732378090567427e-05,-0.006223245587745593,0.01040448819867909
8.585858585858587,3.848101265822785,0.011005025584179135,0.00992633863029162,-2.1248038080078076e-05,-0.0062794092643412265,0.010507356021637358
8.686868686868687,3.848101265822785,0.01126703048027178,0.009922271368645765,2.805582629179192e-06,-0.006356790554675263,0.010658467742890752
8.787878787878787,3.848101265822785,0.011143389272410617,0.009928389345388398,-3.2936757958130285e-05,-0.006321533585339704,0.010588455347049226
8.88888888888889,3.848101265822785,0.01123766244686476,0.010009066732815588,3.889678095667682e-05,-0.006374018753904104,0.010676727010596994
8.98989898989899,3.848101265822785,0.011316077466115144,0.009998881802673571,4.073308897941944e-05,-0.006394487780636614,0.010718586801579107
9.09090909090909,3.848101265822785,0.011534176929026488,0.010192652090056122,1.507079117174883e-05,-0.006518048705724783,0.010925393487766609
9.191919191919192,3.848101265822785,0.011401161394660958,0.010260736767145664,-7.465534006646615e-05,-0.006498569448541987,0.010876654104126146
9.292929292929292,3.848101265822785,0.011538552337527054,0.010575541992064149,1.1126712651687211e-05,-0.00663422829887736,0.011088471721108332
9.393939393939394,3.848101265822785,0.011597231480905114,0.010533995351868193,-1.1313178525762937e-05,-0.0066393680498319915,0.011103874888727288
9.494949494949495,3.848101265822785,0.011907966546865564,0.010704559203006826,2.1858823613955743e-05,-0.006783757724961716,0.01135425715527483
9.595959595959595,3.848101265822785,0.012006600849690519,0.010632315699964548,3.4376155894809185e-05,-0.00679167496489652,0.011382011050355372
9.696969696969697,3.848101265822785,0.011933712212496454,0.010838920530327607,3.818862601194269e-05,-0.006831789822847218,0.011425913628409117
9.797979797979798,3.848101265822785,0.012019545096447929,0.010881916106402817,-5.6283960059533645e-05,-0.006870438360855225,0.011493449645260672
9.8989898989899,3.848101265822785,0.012298052600197253,0.010908043598386524,1.8494142881970252e-05,-0.006961828859575133,0.011665369478215427
10.0,3.848101265822785,0.012431525372519526,0.011086115666388173,3.370844891957691e-05,-0.007055292311672309,0.011816550437641644
0.0,3.9493670886075947,0.012366436626904712,0.011223849863901078,-2.295083679524965e-05,-0.007077085947241737,0.011836642800454262
0.10101010101010101,3.9493670886075947,0.012163659879933683,0.011169784016887953,-1.3166458330278045e-05,-0.0070000331690464905,0.011698451308261462
0.20202020202020202,3.9493670886075947,0.01217038714055874,0.010991064405067554,-7.819419153373539e-06,-0.006948435463687888,0.011625682536560213
0.30303030303030304,3.9493670886075947,0.012095633675491014,0.010804237322839345,-3.927362244042455e-05,-0.006869961299499108,0.011504626399498301
0.40404040404040403,3.9493670886075947,0.012052037491611725,0.010596400720331765,4.749165366579002e-05,-0.006794531463583047,0.011394466356042568
0.5050505050505051,3.9493670886075947,0.011972352450222476,0.01085178902795055,4.515893338301825e-05,-0.006847242443451908,0.011453524493762074
0.6060606060606061,3.9493670886075947,0.011777474413528692,0.010495917901670258,-3.5887675750655984e-05,-0.006682017694559685,0.011192035355658877
0.7070707070707071,3.9493670886075947,0.011704828729419843,0.0102885396165844,4.952618516661718e-05,-0.006598010503801272,0.011065207972205445
0.8080808080808081,3.9493670886075947,0.011511302190137749,0.010417920602689855,-2.4485801240053547e-05,-0.006578766837848281,0.011005503814436761
0.9090909090909091,3.9493670886075947,0.011329391844487202,0.010547121580679853,7.598455794511986e-05,-0.006562954027550116,0.010960006429913481
1.0101010101010102,3.9493670886075947,0.011274876262782445,0.0101970373585462,-3.3201923011359384e-05,-0.0064415740863985925,0.010776612560129389
1.1111111111111112,3.9493670886075947,0.011295667215796508,0.010136356566099644,6.30245872080824e-05,-0.006429607134568846,0.010763495158618052
1.2121212121212122,3.9493670886075947,0.01112475777492259,0.010266313050274981,-5.638773766499505e-05,-0.006417321247559271,0.010721786791481544
1.3131313131313131,3.9493670886075947,0.011030407835416017,0.010096488347642617,-5.967561074704586e-05,-0.0063380688549175895,0.010594870141970626
1.4141414141414141,3.9493670886075947,0.010892043402606364,0.009917359105360924,-1.647251033046635e-05,-0.006242820752390186,0.010438923762769378
1.5151515151515151,3.9493670886075947,0.010959832672229467,0.010055446686771143,-1.0031043483632754e-05,-0.0063045838077001835,0.01053680354793281
1.6161616161616161,3.9493670886075947,0.011004821509542293,0.00984542385343068,0.00015010129586916126,-0.0062550736088918925,0.010476589440980143
1.7171717171717171,3.9493670886075947,0.010821254490365457,0.009807147028825484,4.421265283416306e-05,-0.006188520455757282,0.010351807187294157
1.8181818181818181,3.9493670886075947,0.010528421871719958,0.009810464798354642,-1.9459709494572686e-05,-0.00610166600102238,0.010188489120316706
1.9191919191919191,3.9493670886075947,0.010723759026894816,0.00955906317608549,-3.3201421224241694e-05,-0.006084846660894092,0.01019160995384002
2.0202020202020203,3.9493670886075947,0.010688655990985126,0.009715031658645751,-8.054464256066898e-06,-0.006121106294889263,0.010236638623322634
2.121212121212121,3.9493670886075947,0.010517899600311405,0.00953441193999913,-3.754559671473819e-05,-0.0060156934620931605,0.010062478050977585
2.2222222222222223,3.9493670886075947,0.010551675661160647,0.00952965336628997,6.0931810288703735e-06,-0.006024398708235185,0.010079605767893771
2.323232323232323,3.9493670886075947,0.010603643959663216,0.009498785734059902,-1.4807900611143124e-05,-0.006030728908116936,0.010096688144809874
2.4242424242424243,3.9493670886075947,0.010370436422203004,0.009344773722976353,-1.2220116450894398e-05,-0.0059145630435538075,0.009897566051324065
2.525252525252525,3.9493670886075947,0.010528173755010427,0.009425571474222634,1.251939983854549e-05,-0.005986123568769919,0.010022487526387902
2.6262626262626263,3.9493670886075947,0.010553178438282247,0.009519244535146304,2.9625053468968455e-05,-0.006021726892028565,0.010076206549315826
2.727272727272727,3.9493670886075947,0.010462763718094922,0.009480534747855554,-8.396978461137069e-05,-0.005982989539785143,0.010008922095418758
2.8282828282828283,3.9493670886075947,0.010240470218687597,0.009390375913207804,-2.885190642037536e-07,-0.00588925383956862,0.009842993724443026
2.929292929292929,3.9493670886075947,0.010425184360150328,0.009358973045150796,-4.808045240658825e-05,-0.005935247221590337,0.009935429591885722
3.0303030303030303,3.9493670886075947,0.010308593143277697,0.009274696439130661,2.780862475820416e-05,-0.0058749868747225075,0.009832615850936277
3.131313131313131,3.9493670886075947,0.010187505473494495,0.009259292380396363,1.1423914567563377e-05,-0.005834039356167256,0.009756590740091784
3.2323232323232323,3.9493670886075947,0.01034010680163244,0.00919249559850301,1.5993715273795333e-05,-0.005859780720040634,0.009816779774059831
3.3333333333333335,3.9493670886075947,0.010157724709945644,0.009233876918078369,-5.303312496101471e-05,-0.0058174804884072034,0.009729188661904383
3.4343434343434343,3.9493670886075947,0.010321210020120436,0.009076924611729043,-6.556010181412816e-05,-0.005819440389554844,0.009759404992766771
3.5353535353535355,3.9493670886075947,0.010236711129621583,0.009089824636224812,9.274348740776336e-05,-0.005797960729753918,0.009715506250940123
3.6363636363636362,3.9493670886075947,0.010151677511401034,0.00913680642299079,6.242897606576662e-05,-0.005786545180317547,0.009684811188017502
3.7373737373737375,3.9493670886075947,0.010194042721691093,0.009142458215472936,-7.661941912758102e-05,-0.005800950281149208,0.009711954036633783
3.8383838383838382,3.9493670886075947,0.010181747817690708,0.009185260315771271,-1.1640790243587007e-05,-0.005810102440038593,0.009721903005096242
3.9393939393939394,3.9493670886075947,0.010135124060187782,0.009122749374041183,-1.19595758083406e-05,-0.00577736203026869,0.009668791458885582
4.040404040404041,3.9493670886075947,0.010133300137280064,0.008924305560941002,-1.565566407965103e-05,-0.005717281709466319,0.009586191629155099
4.141414141414141,3.9493670886075947,0.010098072864171064,0.009063013904155797,-2.3237809282178077e-05,-0.005748326030498058,0.009622470670841729
4.242424242424242,3.9493670886075947,0.010173851359053056,0.009071053665499065,0.00010610778279903057,-0.005773471507365636,0.009671478222092031
4.343434343434343,3.9493670886075947,0.009998271400213683,0.009316777275538052,2.373957213415644e-05,-0.00579451460272552,0.009675628802305079
4.444444444444445,3.9493670886075947,0.009894166133951129,0.009003039660501184,1.3638570754029134e-05,-0.005669161738335694,0.009480096757685
4.545454545454545,3.9493670886075947,0.009964298339449427,0.009102509358088649,-3.1223699602275053e-05,-0.005720042309261422,0.00956272575619896
4.646464646464646,3.9493670886075947,0.009847504358308999,0.009074752542866245,3.421032925340737e-06,-0.005676677070352573,0.009484769142953344
4.747474747474747,3.9493670886075947,0.010218953269004055,0.00902535802169838,-1.1988106288793902e-05,-0.00577329338721073,0.009677541661921921
4.848484848484849,3.9493670886075947,0.009921497643078219,0.009055671708923475,-3.335225300926778e-05,-0.005693150805600508,0.009518341094075778
4.94949494949495,3.9493670886075947,0.009967743092787322,0.009047193909877892,2.8696595996311488e-05,-0.005704481100799564,0.009540963572213944
5.05050505050505,3.9493670886075947,0.009894760344808816,0.00877025141369223,-5.7437687252399804e-05,-0.005599503527550314,0.009383706810323788
5.151515151515151,3.9493670886075947,0.010107843063349475,0.009079161491223954,7.291273357973218e-05,-0.005756101366372029,0.009635604499826804
5.252525252525253,3.9493670886075947,0.010133512924138152,0.009106352757663255,1.039685267913937e-05,-0.005771959704540423,0.009660989889901102
5.353535353535354,3.9493670886075947,0.010062714561467172,0.008927363427228259,-3.251072923458217e-05,-0.0056970233966086295,0.009545978367629111
5.454545454545454,3.9493670886075947,0.010148648034572902,0.008937669500561619,9.363292447390636e-05,-0.005725895260540356,0.009601980649533177
5.555555555555555,3.9493670886075947,0.010011523760473503,0.009175587079497166,-3.6877748758467656e-05,-0.0057561332519912006,0.00962104350381713
5.656565656565657,3.9493670886075947,0.01004704148744327,0.009058838038055506,-8.258849678910382e-06,-0.005731763857649633,0.009591208071955733
5.757575757575758,3.9493670886075947,0.010049888195152,0.009076375021618947,-5.403844518156557e-05,-0.005737878965031283,0.009600679275147987
5.858585858585858,3.9493670886075947,0.010214633329035465,0.009343027867183756,0.000121251287566577,-0.005867298358865765,0.009810168477227172
5.959595959595959,3.9493670886075947,0.00989513017361707,0.00914462035045672,2.4487235640028253e-05,-0.005711925157222138,0.009542131450827173
6.0606060606060606,3.9493670886075947,0.010120969611687639,0.009040145174859337,2.910874559472622e-06,-0.005748334435964092,0.009626174810526416
6.161616161616162,3.9493670886075947,0.010156802210756372,0.009065021731146346,-5.275245462115913e-05,-0.005766547182570816,0.009657741239002262
6.262626262626262,3.9493670886075947,0.010086728784070501,0.009148862566203828,5.2610551752430046e-05,-0.005770677405082298,0.009652460413859042
6.363636363636363,3.9493670886075947,0.010222660039830503,0.008912042501575226,3.703754098168908e-05,-0.005740410762421718,0.009634656943764648
6.4646464646464645,3.9493670886075947,0.010251175401579377,0.0091481101479167,-3.585066552853393e-05,-0.005819785664848823,0.00974676820714214
6.565656565656566,3.9493670886075947,0.010382753457208042,0.009360877167987424,7.572806470817137e-05,-0.00592308918755864,0.009912270937996293
6.666666666666667,3.9493670886075947,0.010146977460330867,0.009268826184854737,3.444437760645309e-06,-0.00582474109355568,0.009737646308863368
6.767676767676767,3.9493670886075947,0.01014198630767783,0.00917093885800389,-9.417887050282728e-05,-0.005793877549704516,0.00969438386154024
6.8686868686868685,3.9493670886075947,0.010292248190887665,0.009336042272369746,-4.7777331190413385e-05,-0.005888487138977223,0.009849367592215453
6.96969696969697,3.9493670886075947,0.010341679354495646,0.009255287009128978,-8.766608727306114e-06,-0.005879089909087387,0.009843560812561577
7.070707070707071,3.9493670886075947,0.01033538145184613,0.009254348011983654,2.0742878420521342e-05,-0.005876918839148935,0.009839570157842332
7.171717171717171,3.9493670886075947,0.010527379561601366,0.00927071293510552,-3.197217513807199e-05,-0.005939427749012066,0.009958844890076403
7.2727272727272725,3.9493670886075947,0.010356265187420964,0.009236258935269914,-4.894370345312402e-05,-0.005877757236807263,0.00984452880215819
7.373737373737374,3.9493670886075947,0.010557573780068333,0.009407310380157553,-3.3678246803964905e-05,-0.005989465248067766,0.010032192281481339
7.474747474747475,3.9493670886075947,0.010456028481897972,0.009394620862086615,3.666061958337977e-05,-0.005955194803195376,0.00996800087525522
7.575757575757575,3.9493670886075947,0.010313745000173544,0.009424240439962064,-1.7012948114569703e-05,-0.005921395632040682,0.009899055480294053
7.6767676767676765,3.9493670886075947,0.010621225458269644,0.009491889775059579,-1.590326615392524e-05,-0.006033934569998767,0.010104041723634497
7.777777777777778,3.9493670886075947,0.01033598642440558,0.00931935331739826,5.054242544490575e-05,-0.005896601922541152,0.009867416878668928
7.878787878787879,3.9493670886075947,0.010489125915939672,0.009670554641829485,1.6694973726044253e-05,-0.006047904167330747,0.010104779087756737
7.979797979797979,3.9493670886075947,0.010631758641428535,0.009574749817428606,-8.295401691791278e-05,-0.0060619525376571426,0.01014565625633675
8.080808080808081,3.9493670886075947,0.010843282745122794,0.009617555238424039,3.533234088670736e-05,-0.00613825139506405,0.010285524965245298
8.181818181818182,3.9493670886075947,0.010750124616141592,0.009491988002138232,3.275520429366412e-05,-0.006072633785483947,0.010179694510525729
8.282828282828282,3.9493670886075947,0.011008478333179174,0.009723546587620263,-3.9669287703952895e-05,-0.006219607476239832,0.01042579601178643
8.383838383838384,3.9493670886075947,0.010644371339337827,0.009650308870790826,-6.411709505624556e-06,-0.0060884040630385956,0.010183798637121296
8.484848484848484,3.9493670886075947,0.010880971036305368,0.009615816427021211,-1.379671005524741e-05,-0.006149036238997974,0.010306823335337865
8.585858585858587,3.9493670886075947,0.010924149750923253,0.009949814595491272,-9.096440938681651e-05,-0.006262189303924357,0.01047222121622268
8.686868686868687,3.9493670886075947,0.011090274322481613,0.009981603498570605,9.374536423670332e-06,-0.006321563346315665,0.010579609426580039
8.787878787878787,3.9493670886075947,0.011177429280083959,0.010006931229419565,8.537244324389675e-05,-0.006355308152851056,0.010641602190286304
8.88888888888889,3.9493670886075947,0.01132275067310644,0.010138622929478567,1.9531981723347424e-05,-0.006438412080775503,0.010779629057035552
8.98989898989899,3.9493670886075947,0.011336972947545026,0.01016987676258088,-5.8356887348700216e-05,-0.006452054913037771,0.010801293803110215
9.09090909090909,3.9493670886075947,0.011396977620998904,0.010075123840914278,-6.095848999930699e-05,-0.006441630438573954,0.010797425904914816
9.191919191919192,3.9493670886075947,0.011390722793747416,0.010417647452496416,-5.1983427007240134e-05,-0.006542511073873149,0.01093707075702524
9.292929292929292,3.9493670886075947,0.011705821498239422,0.010122363655716258,6.017172989803145e-05,-0.006548455546186704,0.011000399208409013
9.393939393939394,3.9493670886075947,0.011576186839540242,0.010414541829731252,-2.4864652678739137e-05,-0.006597218600781448,0.011041374731021899
9.494949494949495,3.9493670886075947,0.011716488126660199,0.010589398962071207,6.135198632310333e-05,-0.0066917661266194224,0.011196079197254117
9.595959595959595,3.9493670886075947,0.011926564118947396,0.010743872039064496,8.197894625627964e-05,-0.006801130847403567,0.011382284522817658
9.696969696969697,3.9493670886075947,0.011978856191089349,0.011002322624314493,6.372615382779064e-05,-0.006894353644621151,0.011522197766039043
9.797979797979798,3.9493670886075947,0.0121246056202771,0.011049550873912737,2.2863912430942963e-05,-0.006952246948256951,0.011624489563440437
9.8989898989899,3.9493670886075947,0.012216956263379779,0.011084220036582586,-6.69473419287318e-05,-0.00699035288998871,0.011692389345205709
10.0,3.9493670886075947,0.012432572729049442,0.011256270241822111,-3.988980344224181e-05,-0.007106652891261465,0.011888349741238332
0.0,4.050632911392405,0.012452741526863364,0.01118723108715093,-6.570000519949669e-05,-0.007091991784204287,0.01187123259289666
0.10101010101010101,4.050632911392405,0.012323869199004463,0.011030802671057,-3.9727045423323225e-05,-0.007006401561018438,0.011731109284217235
0.20202020202020202,4.050632911392405,0.012327715463958009,0.01097161976126735,-3.5812003931725505e-05,-0.006989800567567607,0.011708879094489602
0.30303030303030304,4.050632911392405,0.012086640244899482,0.010650729246148688,1.102443201246371e-05,-0.00682121084731445,0.011436508984592534
0.40404040404040403,4.050632911392405,0.011931981187289643,0.010687256960206696,-4.275598141416086e-05,-0.006785771444248902,0.011361116653579606
0.5050505050505051,4.050632911392405,0.011869945351096606,0.010737487387167077,-4.565527052269964e-05,-0.006782229821479105,0.011346457717940397
0.6060606060606061,4.050632911392405,0.011586967454652696,0.010700130127737134,1.809758030353132e-05,-0.006686129274716949,0.011170027867569902
0.7070707070707071,4.050632911392405,0.011535040906374677,0.01043499718033321,-1.3455776240182096e-05,-0.006591011426012366,0.011026275831213087
0.8080808080808081,4.050632911392405,0.011557383636190887,0.010243783453659581,-2.2587270899604458e-05,-0.006540350126955141,0.010959854527044352
0.9090909090909091,4.050632911392405,0.011654800866840688,0.010171542234948254,-8.925708405359943e-06,-0.006547902930536683,0.010988521030187666
1.0101010101010102,4.050632911392405,0.011203997375184372,0.01019212939274712,5.928663058800465e-05,-0.006418838030379447,0.010734384588389746
1.1111111111111112,4.050632911392405,0.011299775230830924,0.010165980653664274,2.6683726547813542e-05,-0.006439726765348559,0.01077779766902227
1.2121212121212122,4.050632911392405,0.011217919429059723,0.010005022062000803,1.9092455588359935e-05,-0.006366882447318158,0.010663383373305567
1.3131313131313131,4.050632911392405,0.011242509910005432,0.010012424321757658,-1.7600075686112553e-05,-0.006376480269528927,0.010680768675659409
1.4141414141414141,4.050632911392405,0.010992353418406809,0.009914154877947908,3.940933049521487e-05,-0.006271952488906414,0.01049509721926687
1.5151515151515151,4.050632911392405,0.011032103382539146,0.009860746688199197,-2.783406885144259e-05,-0.006267855021221503,0.010495674232977389
1.6161616161616161,4.050632911392405,0.010929997252349782,0.009670335798666956,-4.4266194531010765e-05,-0.0061800999153050215,0.010358058175862822
1.7171717171717171,4.050632911392405,0.010755879638483117,0.009793477953251086,3.85608867127825e-06,-0.00616480727752026,0.01030843012874917
1.8181818181818181,4.050632911392405,0.010679137010493611,0.009728441098043343,3.968077148223955e-05,-0.006122273432561086,0.010237182317090369
1.9191919191919191,4.050632911392405,0.010720951221717128,0.00955869442888328,-1.6616341719986358e-05,-0.006083893695180123,0.010189699008129818
2.0202020202020203,4.050632911392405,0.010809207488066738,0.009696956492678939,-1.3892168554539465e-05,-0.006151849194223703,0.01029825693920603
2.121212121212121,4.050632911392405,0.010682028246031454,0.009363008814644,1.2785719909113797e-05,-0.006013511118202635,0.01008742917249718
2.2222222222222223,4.050632911392405,0.010589065438906276,0.009558276946783545,5.51663313776737e-06,-0.006044202715706945,0.010113151649604411
2.323232323232323,4.050632911392405,0.010613888377733936,0.009509433916471122,-1.5172249202766453e-05,-0.006036996688261517,0.010107055969633428
2.4242424242424243,4.050632911392405,0.010390442074515453,0.009395599445930589,2.4986885242355593e-05,-0.0059358124561338125,0.009930559736854878
2.525252525252525,4.050632911392405,0.010303065873240862,0.009439871244294814,-8.94275280625295e-05,-0.005922881135260703,0.009900945009475061
2.6262626262626263,4.050632911392405,0.010419122574533222,0.009428263016192965,3.540995306278985e-05,-0.005954215677217855,0.009960913225670364
2.727272727272727,4.050632911392405,0.010238269900600377,0.009489394215970878,-6.872754240887572e-05,-0.005918299234971377,0.009885846670497776
2.8282828282828283,4.050632911392405,0.010388409027137177,0.009377170007653876,7.120659173435411e-05,-0.005929673710437316,0.009922282653057024
2.929292929292929,4.050632911392405,0.010360641374542944,0.009141540195309808,7.65267673350044e-05,-0.005850654470955826,0.00980897529297215
3.0303030303030303,4.050632911392405,0.010327730012327733,0.009368707968667971,3.155099305295173e-05,-0.005908931394298712,0.009883329203282637
3.131313131313131,4.050632911392405,0.01029358933674212,0.009417749240815303,5.328698307273973e-05,-0.005913401573267227,0.0098852444351516
3.2323232323232323,4.050632911392405,0.010279648222804165,0.009068538604630975,1.1768228691549235e-05,-0.0058044560482305415,0.009730806170681696
3.3333333333333335,4.050632911392405,0.010340196104246904,0.00934797170486305,8.351511811883995e-05,-0.005906450342732986,0.009882575281212435
3.4343434343434343,4.050632911392405,0.010231655609088829,0.009123271376093015,5.748449207256356e-06,-0.005806478095554553,0.009724956837456927
3.5353535353535355,4.050632911392405,0.010158782569602263,0.00925936169052467,-8.586271140493847e-05,-0.005825443278038079,0.009741402223535126
3.6363636363636362,4.050632911392405,0.010224353880316357,0.009227761896622597,1.762509076036306e-05,-0.005835634733081686,0.009764324383581501
3.7373737373737375,4.050632911392405,0.010017541437141491,0.009236486720641488,1.9316130650233578e-05,-0.005776208447334894,0.00965080588689411
3.8383838383838382,4.050632911392405,0.01018986037126206,0.00903240179618303,-6.543314886729132e-05,-0.005766678650233527,0.009663926115413845
3.9393939393939394,4.050632911392405,0.01001517533031089,0.009201414080019786,1.8719143772714218e-05,-0.005764976823099202,0.009634159739681271
4.040404040404041,4.050632911392405,0.010165451237639348,0.008974376782243262,-3.598750379591049e-05,-0.005741948405964783,0.009625545866478537
4.141414141414141,4.050632911392405,0.010165318758527856,0.009008300284518286,4.075157666449143e-05,-0.005752085712913842,0.009639290310332338
4.242424242424242,4.050632911392405,0.010077501235657762,0.008954368925700389,1.3539348776953545e-05,-0.005709561048407444,0.009565544419469663
4.343434343434343,4.050632911392405,0.0102579744757724,0.009090563337094652,-0.00010908543132815237,-0.005804561343860115,0.009728787917464453
4.444444444444445,4.050632911392405,0.010071123867608832,0.009081699643570968,4.255343293602857e-05,-0.005745847053353939,0.009614952663320762
4.545454545454545,4.050632911392405,0.009857638514701762,0.008989567028008783,-8.972629054351451e-05,-0.005654161662813163,0.009454819019602961
4.646464646464646,4.050632911392405,0.009923501428152553,0.00919296738100689,-2.6006517834306798e-05,-0.005734940642747833,0.009579255396184524
4.747474747474747,4.050632911392405,0.009878364055220197,0.009168529337292017,-2.2783061403798328e-05,-0.005714068017753663,0.009543348111390168
4.848484848484849,4.050632911392405,0.009957575751322915,0.009074431540553771,3.869073539990666e-05,-0.005709602187563005,0.00954692484946281
4.94949494949495,4.050632911392405,0.009920044192104642,0.009102143055514687,5.690573967639785e-05,-0.005706656174285799,0.009537942042832068
5.05050505050505,4.050632911392405,0.010041540243231563,0.009116341327210632,3.332198545044649e-05,-0.0057473644711326585,0.00961256637982646
5.151515151515151,4.050632911392405,0.010055957227733038,0.009007262315182186,-6.58712298866377e-05,-0.005718965862874567,0.009575459396646935
5.252525252525253,4.050632911392405,0.00996120274993871,0.009089397799772083,2.4466277055617336e-05,-0.005715180164913237,0.009555269437627096
5.353535353535354,4.050632911392405,0.010018553091576737,0.00913160903447935,3.632691191952824e-05,-0.005745048637816826,0.009606046981847548
5.454545454545454,4.050632911392405,0.009951077424027312,0.008854357958439127,-2.8457209726420803e-05,-0.005641630614739932,0.0094506943982459
5.555555555555555,4.050632911392405,0.009897897878681797,0.009028025922180195,-5.9481337025945484e-05,-0.0056777771402585974,0.009493459323813565
5.656565656565657,4.050632911392405,0.010077269554833564,0.009079725062512086,2.3155946284995596e-06,-0.005747098385203695,0.009617377399208616
5.757575757575758,4.050632911392405,0.00997997233877356,0.00890317915172458,-7.3338949451036e-05,-0.005664945447149442,0.009488366615680045
5.858585858585858,4.050632911392405,0.01007805788572483,0.009089142957130427,3.285736919819785e-05,-0.005750160252856577,0.009621959281233597
5.959595959595959,4.050632911392405,0.009994034189313435,0.009141288765029839,1.7385316556131406e-05,-0.005740596886302982,0.009596167670399829
6.0606060606060606,4.050632911392405,0.010222153409669069,0.00905482408333393,-0.00012007578844394465,-0.0057830932479009,0.00969359134781526
6.161616161616162,4.050632911392405,0.010202528570862391,0.009195904990515702,-1.8301475501616827e-05,-0.0058195300684134275,0.009738366355051502
6.262626262626262,4.050632911392405,0.010145425326907308,0.009234503259349693,4.0594202888988357e-05,-0.0058139785758770995,0.009722277815918575
6.363636363636363,4.050632911392405,0.010208131907834758,0.009141370559617232,-4.325830895666032e-05,-0.005804850740235597,0.009719048827375145
6.4646464646464645,4.050632911392405,0.010055405793533687,0.009207175328425228,-0.00010741855439159114,-0.005778774336587675,0.009661055599619967
6.565656565656566,4.050632911392405,0.010236943330723496,0.009255612539733879,1.07127171723778e-05,-0.005847766761137212,0.009783278359970213
6.666666666666667,4.050632911392405,0.010106842647748611,0.00908720199283469,-3.417735537926669e-05,-0.00575821339217499,0.009637743096280543
6.767676767676767,4.050632911392405,0.010124495233925302,0.009290365393592195,-0.00011683175527048238,-0.0058244581882552484,0.00973637415655857
6.8686868686868685,4.050632911392405,0.010343552380673308,0.009269376292633646,9.81803736603198e-05,-0.005883878601992086,0.009851956741909695
6.96969696969697,4.050632911392405,0.010447057974364486,0.00924138400411879,-3.904169760787486e-05,-0.005906532593544982,0.009899671557146628
7.070707070707071,4.050632911392405,0.010494867625329111,0.00936917657343674,-2.326833759292681e-05,-0.005959213259629756,0.009979833289562845
7.171717171717171,4.050632911392405,0.010396962656987198,0.009208631729693547,-6.714309006268709e-05,-0.005881678316004224,0.00985735538529292
7.2727272727272725,4.050632911392405,0.010440866297321712,0.009277035933462739,-2.222472095193309e-05,-0.005915370669235334,0.009910412440823937
7.373737373737374,4.050632911392405,0.010385854592485724,0.009303561133483657,6.013799707141295e-05,-0.0059068247177908135,0.009889774617863485
7.474747474747475,4.050632911392405,0.010372786015361155,0.00926177559097689,2.495042259788229e-05,-0.005890368481901413,0.00986441220049894
7.575757575757575,4.050632911392405,0.010527760686194446,0.009590813162135167,-7.845068641849694e-05,-0.006035572154498884,0.010092874711914453
7.6767676767676765,4.050632911392405,0.010342568812373868,0.009446382646234838,-6.105646646554049e-05,-0.005936685437582611,0.009925431772339625
7.777777777777778,4.050632911392405,0.010555454330034197,0.009596372265933443,3.439160925130644e-05,-0.006045547978790292,0.01011026487986876
7.878787878787879,4.050632911392405,0.010748534708116871,0.009571419683868094,8.710656902282776e-06,-0.00609598631759549,0.010211002109732052
7.979797979797979,4.050632911392405,0.010707402149477333,0.009722477277202685,-4.7700864290446463e-05,-0.006128963828004004,0.010250823245844792
8.080808080808081,4.050632911392405,0.010528392540814436,0.009544642437000355,3.905380311063163e-05,-0.0060219104933444375,0.010072838830430173
8.181818181818182,4.050632911392405,0.010874482077372665,0.009791651034494434,-3.903042841380657e-05,-0.00619983993356013,0.0103757518702475
8.282828282828282,4.050632911392405,0.010703204333907111,0.009703797904426712,-2.5021062076520614e-05,-0.006122100671500147,0.01024023550305108
8.383838383838384,4.050632911392405,0.010897017418969117,0.009929315596922868,2.3987701657967713e-05,-0.006247899904767595,0.010446918113204216
8.484848484848484,4.050632911392405,0.010937804992606583,0.009906632190676971,-8.557719363043384e-05,-0.0062533311549850664,0.010461457773692536
8.585858585858587,4.050632911392405,0.010958240928598977,0.009879057235392471,-8.795814428705259e-05,-0.006251189449197434,0.010461593410277983
8.686868686868687,4.050632911392405,0.011115537551333083,0.009992437140012252,-2.8608620500889122e-05,-0.0063323924074036005,0.010598826357316711
8.787878787878787,4.050632911392405,0.01117841627202719,0.010014362701535412,-3.3867101832077966e-05,-0.00635783369206878,0.010644396489870143
8.88888888888889,4.050632911392405,0.011322108712817042,0.010300909525022647,-7.648202837823262e-05,-0.0064869054713519066,0.010848429092101099
8.98989898989899,4.050632911392405,0.011158535167979742,0.010136152944606746,7.124505392151557e-05,-0.006388406433775946,0.010684807536133243
9.09090909090909,4.050632911392405,0.011481231296171037,0.010148107345026067,-5.0514083766941643e-05,-0.006488801592359131,0.010876471952508739
9.191919191919192,4.050632911392405,0.0114488199401273,0.010326525259759174,-2.3180398842336983e-05,-0.006532603559965942,0.0109310422946951
9.292929292929292,4.050632911392405,0.011653092384005963,0.01038120888263452,-1.79503413044308e-05,-0.006610290379992145,0.011072119961973095
9.393939393939394,4.050632911392405,0.011639496748697154,0.010528177367903383,3.3933025691015235e-05,-0.006650302234980161,0.011125698690879772
9.494949494949495,4.050632911392405,0.011905596877270067,0.010711457017460612,1.6813947250906443e-05,-0.006785116168419203,0.011355752170126989
9.595959595959595,4.050632911392405,0.012017059714026177,0.0107472487063103,5.4197453376642824e-05,-0.006829292526100943,0.011435539408020742
9.696969696969697,4.050632911392405,0.012086866546288962,0.010702646381039438,1.4212096622945248e-05,-0.0068368538781985195,0.011457666861831027
9.797979797979798,4.050632911392405,0.012273047359094045,0.010991213098935637,-2.8932522473863405e-05,-0.006979278137408905,0.011685088328301924
9.8989898989899,4.050632911392405,0.012288150424900316,0.011031989907958194,3.4142029849072656e-05,-0.006996042099857552,0.011710857686519097
10.0,4.050632911392405,0.01237385866362944,0.011026721406621484,7.73639719965958e-05,-0.007020174021075277,0.011759074221657914
0.0,4.151898734177215,0.012583408895688368,0.011115157162941296,7.118255881451636e-05,-0.007109569817588899,0.011917949972284778
0.10101010101010101,4.151898734177215,0.012345479860514368,0.010942149593024465,-8.819486933578916e-05,-0.00698628883606165,0.01170806381414125
0.20202020202020202,4.151898734177215,0.012085897821133508,0.010981931710229688,-1.4300189887962064e-05,-0.006920348859408958,0.01157349813966454
0.30303030303030304,4.151898734177215,0.01189164048984389,0.01092634443174608,-4.46613656847333e-05,-0.006845395476476991,0.011439840044470274
0.40404040404040403,4.151898734177215,0.011931420612293558,0.010779184185954142,6.03928660528279e-05,-0.00681318143947431,0.01139954258104226
0.5050505050505051,4.151898734177215,0.011653263318897954,0.010626877475834328,-3.793048427360403e-05,-0.006684042238419685,0.011175669355672447
0.6060606060606061,4.151898734177215,0.011799199074967856,0.01050429161769093,0.0001390067462778759,-0.006691047207797636,0.011210574556555749
0.7070707070707071,4.151898734177215,0.01151496700247515,0.010506686538125861,5.148214099606077e-05,-0.006606496062180303,0.011045756176884504
0.8080808080808081,4.151898734177215,0.011588594870630657,0.010480120992726702,4.9057365152329206e-05,-0.006620614759007208,0.011076362696893048
0.9090909090909091,4.151898734177215,0.011435483553221323,0.010222941804064738,2.7715893287251994e-05,-0.006497527607185818,0.01088011235565106
1.0101010101010102,4.151898734177215,0.011353004343083745,0.010326364973407236,-2.850645067177833e-05,-0.006503810794947295,0.010876198446144668
1.1111111111111112,4.151898734177215,0.011258509289357226,0.010135916415637495,-1.1650634482737014e-05,-0.006418327711498416,0.010741318871236484
1.2121212121212122,4.151898734177215,0.011333987291093316,0.01009000999429865,5.110002321009334e-05,-0.00642719918561759,0.010766399500039102
1.3131313131313131,4.151898734177215,0.011074193324879784,0.010144412679681965,-2.791557630857394e-05,-0.006365581801368524,0.01063992561386339
1.4141414141414141,4.151898734177215,0.01107163644040259,0.009967250406639285,5.2588246049517795e-05,-0.006311666054112562,0.010563225733420837
1.5151515151515151,4.151898734177215,0.010951739847933097,0.009936798134152916,2.850215007837603e-05,-0.006266561394625805,0.010481305829271374
1.6161616161616161,4.151898734177215,0.010753021621955409,0.00995353185762437,3.219402155650447e-05,-0.006211966043873934,0.010376552246685739
1.7171717171717171,4.151898734177215,0.010939427828778176,0.009622488626218772,-7.842709989035995e-05,-0.0061685749364990845,0.010344916681780891
1.8181818181818181,4.151898734177215,0.01074434123603307,0.009727502856772699,9.43442506358321e-05,-0.006141553227841731,0.010275031526475886
1.9191919191919191,4.151898734177215,0.010508769915629686,0.009571292991399654,7.527167615114422e-05,-0.006024018872108802,0.010073647616472076
2.0202020202020203,4.151898734177215,0.010584167607716508,0.009402868100239012,2.750294347692028e-05,-0.005996110712386656,0.010045858337058454
2.121212121212121,4.151898734177215,0.010619145428589634,0.009500830747969553,5.429734058762429e-05,-0.006035992852967757,0.01010693701046859
2.2222222222222223,4.151898734177215,0.01056703842157163,0.009663544406363947,1.946853089799645e-05,-0.006069174848380673,0.010145564722439729
2.323232323232323,4.151898734177215,0.010373269174420779,0.009504148781234062,9.807348724852e-05,-0.005963225386696453,0.0099686167077504
2.4242424242424243,4.151898734177215,0.010381325620098546,0.00948097777918914,-1.5116638793687482e-05,-0.005958691019786305,0.009961748305172978
2.525252525252525,4.151898734177215,0.010548098350371961,0.009431060197018892,1.2655357293204525e-05,-0.005993747564217255,0.01003633425194103
2.6262626262626263,4.151898734177215,0.010439080290617212,0.009371834696061763,-6.458684688707072e-06,-0.005943274496003692,0.009948490999418086
2.727272727272727,4.151898734177215,0.010496940959476753,0.009222101703969678,-8.133187333490905e-05,-0.0059157127990339285,0.009922142755327702
2.8282828282828283,4.151898734177215,0.010352523440386384,0.009115545523351422,8.345676040895083e-05,-0.005840420689121341,0.009793870948823596
2.929292929292929,4.151898734177215,0.010296289654242764,0.00927611079363665,2.7826327286560288e-05,-0.005871720134363824,0.009826118837935403
3.0303030303030303,4.151898734177215,0.010058449198181553,0.00923901618878405,2.8868039897824223e-05,-0.005789239616089682,0.009674923540996807
3.131313131313131,4.151898734177215,0.010485728191944542,0.00912132168463485,5.049263519111205e-06,-0.005882114962973818,0.009874481330112789
3.2323232323232323,4.151898734177215,0.010073678849441025,0.009096296873798985,-8.872432709927335e-06,-0.0057509927169720025,0.009622301445720866
3.3333333333333335,4.151898734177215,0.01026782544697489,0.009162811325621793,-2.440163741974462e-05,-0.005829191031779005,0.009762427455462356
3.4343434343434343,4.151898734177215,0.010203233165195929,0.009252209412817824,-7.727996914005025e-05,-0.005836632773404125,0.009763442665918562
3.5353535353535355,4.151898734177215,0.010322022453842516,0.008993368228773486,8.865237259923726e-05,-0.0057946172047847995,0.009727211757352156
3.6363636363636362,4.151898734177215,0.010158889620340814,0.009152524276526682,-7.374947912954214e-06,-0.005793424169060249,0.00969496870791879
3.7373737373737375,4.151898734177215,0.010145058432014442,0.009241818073867845,6.568435842204052e-05,-0.005816062951764686,0.009725614161935748
3.8383838383838382,4.151898734177215,0.010413872215699142,0.008969286558493075,-6.527454643559493e-05,-0.005814947632257665,0.009772646218214257
3.9393939393939394,4.151898734177215,0.00999665845833108,0.009276555400570052,-5.5828665461928185e-05,-0.005781964157670339,0.00965724882887171
4.040404040404041,4.151898734177215,0.009961885182774256,0.009080325948389891,-3.298142092722684e-05,-0.005712663339349244,0.009551836186102301
4.141414141414141,4.151898734177215,0.010183104568305826,0.008820087468258962,1.5717898314810913e-05,-0.005700957610969436,0.009574676483458189
4.242424242424242,4.151898734177215,0.01004596445957248,0.009038383078146547,-3.8977607257418256e-05,-0.005725304261315708,0.009582225898864014
4.343434343434343,4.151898734177215,0.010016620111673296,0.008946429585326746,-3.074428544852889e-05,-0.005688914909100013,0.009526863592389575
4.444444444444445,4.151898734177215,0.010043919396822556,0.008976422271336075,1.0106792894104399e-05,-0.005706102500447588,0.009555015349011852
4.545454545454545,4.151898734177215,0.009939628561502902,0.008926225324787797,1.1901444514036004e-05,-0.0056597561658872095,0.009473688576156623
4.646464646464646,4.151898734177215,0.010007068221587577,0.008771929704318372,1.4023998454255958e-05,-0.005633699377771784,0.00945026222707732
4.747474747474747,4.151898734177215,0.009997046965245908,0.008934735267620198,-5.186872075653084e-05,-0.005679534669859832,0.009510917165443576
4.848484848484849,4.151898734177215,0.010003810122563366,0.009238409909099037,-4.667954559623744e-05,-0.0057726660094987205,0.009644255958431271
4.94949494949495,4.151898734177215,0.00993971354081963,0.009003620686718377,5.4248331089070703e-05,-0.005683000268261402,0.009506761221991202
5.05050505050505,4.151898734177215,0.010097698419049098,0.008901168117214567,-8.215002135471302e-05,-0.0056996599608790995,0.009556842672458396
5.151515151515151,4.151898734177215,0.010062054213711417,0.00906746301387566,-2.0194093161819015e-05,-0.005738855168276124,0.009603527450131365
5.252525252525253,4.151898734177215,0.01006617644660023,0.009087986157346876,-4.4624208038987464e-05,-0.005746248781184132,0.009614785614143091
5.353535353535354,4.151898734177215,0.010179437744503446,0.009376115115158606,-1.5908714497749605e-05,-0.005866665857898616,0.009802533683107812
5.454545454545454,4.151898734177215,0.009968105439312834,0.009033369277769925,-0.00011629484206117712,-0.005700442415124828,0.00953728905903695
5.555555555555555,4.151898734177215,0.010023898746278044,0.008989396354927431,9.596889206089844e-05,-0.005703988530361642,0.00955021592082576
5.656565656565657,4.151898734177215,0.010044419079053261,0.009054967895536638,1.1112593701349357e-05,-0.005729816092376969,0.009588079912261982
5.757575757575758,4.151898734177215,0.010128758560396942,0.009057096162427492,-5.277483072983703e-05,-0.00575575641684733,0.009638151074299628
5.858585858585858,4.151898734177215,0.010091499365621924,0.009199274739246593,-5.155210677538428e-05,-0.0057872322314605545,0.009676699480625526
5.959595959595959,4.151898734177215,0.010159404357485616,0.009054040570462914,3.4743101026941325e-05,-0.0057640334783845585,0.009654486499823828
6.0606060606060606,4.151898734177215,0.010101079212682789,0.008951272760684545,-3.074634994184726e-05,-0.0057157055920102,0.009578225623838966
6.161616161616162,4.151898734177215,0.010153558158877914,0.008925613409541507,-1.7795034819299836e-05,-0.005723751470525827,0.009598725600550096
6.262626262626262,4.151898734177215,0.00998543736293185,0.009063190007991672,-4.982374143817858e-05,-0.005714588211277055,0.009558132847605618
6.363636363636363,4.151898734177215,0.010099791765941458,0.008968718567693676,2.5261974564845414e-05,-0.00572055310009054,0.009584541252606202
6.4646464646464645,4.151898734177215,0.010099453700337008,0.00932020239940387,-1.3042683631708061e-05,-0.005825896829922263,0.009733277738529002
6.565656565656566,4.151898734177215,0.010363946842404005,0.009100919244558874,-3.0382492213037173e-05,-0.005839459826088863,0.009793847623280517
6.666666666666667,4.151898734177215,0.01034111694035862,0.00934742220303871,9.897691945173236e-06,-0.0059065617430191985,0.009881827220530761
6.767676767676767,4.151898734177215,0.010183634711607716,0.009125472438164289,-3.5998538223832375e-05,-0.0057927321449316015,0.009698147914025186
6.8686868686868685,4.151898734177215,0.01013207866984655,0.009258190784537452,1.2644752642032761e-05,-0.005817080836315201,0.009724653056782023
6.96969696969697,4.151898734177215,0.010288511280049014,0.009136531399797743,1.6571252320682175e-05,-0.0058275128039540275,0.009763666720605288
7.070707070707071,4.151898734177215,0.010217382173379067,0.00916971254009549,3.586088089679411e-05,-0.0058161284140423675,0.00973611457980147
7.171717171717171,4.151898734177215,0.010168096451528424,0.009333039669650678,-4.302215870614678e-05,-0.005850340836353731,0.009777633665377749
7.2727272727272725,4.151898734177215,0.010481573459775925,0.00928750916630969,-3.298235043323952e-05,-0.005930724787825684,0.009938649939919837
7.373737373737374,4.151898734177215,0.010470638958927766,0.009396374522371602,-1.2141282354635975e-05,-0.00596010404438981,0.009977000123207444
7.474747474747475,4.151898734177215,0.01026357559703442,0.009411939513755251,-1.3477779483770545e-06,-0.005902654533236902,0.009865365790582815
7.575757575757575,4.151898734177215,0.010519450691394603,0.009481606671645987,0.00012290973253762684,-0.006000317208912176,0.010043093869618238
7.6767676767676765,4.151898734177215,0.010583118803118675,0.009385825812937043,-4.464831751846945e-05,-0.005990683384816714,0.010038466046403722
7.777777777777778,4.151898734177215,0.010634767537079991,0.009607762741741093,5.572487820584795e-05,-0.006072759083646326,0.010160727235077079
7.878787878787879,4.151898734177215,0.010504016535255036,0.009556678270821283,9.211175114673956e-05,-0.006018208441822896,0.010065108548355432
7.979797979797979,4.151898734177215,0.010629838045167051,0.009668133353260456,-1.0208846488965992e-05,-0.006089391419528252,0.010183117416602421
8.080808080808081,4.151898734177215,0.010926814160596193,0.009774358769815934,-2.1279765336965905e-05,-0.006210351879123638,0.010398659227503765
8.181818181818182,4.151898734177215,0.010637346229554983,0.0097150133844429,3.8705497495173165e-06,-0.006105707884199364,0.01020748273648888
8.282828282828282,4.151898734177215,0.010913117207102604,0.009613309562571873,-1.802597496760152e-06,-0.006157928030902343,0.01032476070741404
8.383838383838384,4.151898734177215,0.010921722706360541,0.009848622938371292,4.5141685695511486e-05,-0.00623110369341955,0.010426964332911756
8.484848484848484,4.151898734177215,0.010921273619373976,0.009912742366940936,-3.6428405242891955e-05,-0.006250204795894473,0.01045374995305429
8.585858585858587,4.151898734177215,0.010849612890102759,0.009956804829928513,1.3403597731161383e-05,-0.006241925316009382,0.010431928068609288
8.686868686868687,4.151898734177215,0.011061942722479625,0.009821936110976644,-1.592246936694226e-05,-0.006265163650036881,0.01049705061696576
8.787878787878787,4.151898734177215,0.011166510932281819,0.010056145603514153,4.888791176442787e-05,-0.006366796960738791,0.010655146224493492
8.88888888888889,4.151898734177215,0.011358797275127596,0.010049838604601843,3.3655541363809936e-05,-0.006422590763918831,0.010764332317657308
8.98989898989899,4.151898734177215,0.01121468915339257,0.010207296751837682,-2.211522548808305e-05,-0.0064265957715690745,0.010746532783581828
9.09090909090909,4.151898734177215,0.011162499150358923,0.010304312381881875,-4.0249817745682584e-05,-0.006440043459672238,0.010759331897514088
9.191919191919192,4.151898734177215,0.011559802903610045,0.010503275452179063,-3.0247024177600863e-05,-0.006618923506736732,0.01106954330460646
9.292929292929292,4.151898734177215,0.01151937945306708,0.010420050915687137,6.913675496680138e-05,-0.006581829110626265,0.011011602214202944
9.393939393939394,4.151898734177215,0.01174500800625536,0.010570851947866201,3.518980768460725e-05,-0.0066947579862364675,0.011204333901565732
9.494949494949495,4.151898734177215,0.011942911602336494,0.01068070900882205,-6.062634859396833e-05,-0.006787086183347563,0.01136498770752291
9.595959595959595,4.151898734177215,0.011827580716563741,0.010697950971161184,-7.752421545567112e-06,-0.006757659506317478,0.011305181213720903
9.696969696969697,4.151898734177215,0.012075669702332864,0.010889445347632093,1.296031126971581e-07,-0.006889534514989487,0.011528420252995924
9.797979797979798,4.151898734177215,0.01218775149968992,0.011082019956896632,-1.2887379739314574e-05,-0.006980931436975965,0.011674247121234764
9.8989898989899,4.151898734177215,0.01225455095049027,0.011160000711437867,-2.489444134141585e-05,-0.007024365498578441,0.011745667147985327
10.0,4.151898734177215,0.012375724285395193,0.01125393960124709,4.965572601845926e-05,-0.007088899165992684,0.011855017991571874
0.0,4.253164556962025,0.01251596806848213,0.011105122506214312,2.4525355785856986e-05,-0.007086327172408932,0.011873653538998039
0.10101010101010101,4.253164556962025,0.012224778917279466,0.01093349611433643,-7.225154156613225e-06,-0.006947482509484769,0.011633019413567192
0.20202020202020202,4.253164556962025,0.012080466340372277,0.010866997414756597,-5.21894471126985e-05,-0.006884239126538662,0.011522112416500904
0.30303030303030304,4.253164556962025,0.012074094227219032,0.01075783693823247,4.800475255989416e-05,-0.0068495793496354505,0.011473037239235808
0.40404040404040403,4.253164556962025,0.011858505922542588,0.010716202109352004,6.95798898335336e-05,-0.006772412409568377,0.011331263312876972
0.5050505050505051,4.253164556962025,0.011863986707598114,0.010565610762923587,-3.741548286440463e-05,-0.00672887924115651,0.011271213133366098
0.6060606060606061,4.253164556962025,0.011653324857524749,0.010645952934129694,0.00012393962169062118,-0.0066897833374963325,0.01118577798996794
0.7070707070707071,4.253164556962025,0.011737490093615816,0.0104396069148469,-2.0088045258149328e-05,-0.006653129102538815,0.011145424804765264
0.8080808080808081,4.253164556962025,0.011510729342344183,0.010347565611561036,2.9843449951273582e-05,-0.006557488486171566,0.010975593326374277
0.9090909090909091,4.253164556962025,0.0114870290801358,0.01018817741591124,3.472433993631616e-05,-0.006502561948814112,0.010895986565482088
1.0101010101010102,4.253164556962025,0.011110213971583658,0.010230180431645605,3.1073333691853086e-05,-0.0064021183209687785,0.010697516031822845
1.1111111111111112,4.253164556962025,0.011177587600868689,0.010256708451220205,7.350841740253604e-05,-0.006430288815626668,0.010747533953453157
1.2121212121212122,4.253164556962025,0.011142679664925667,0.010090312523126683,1.2157261255938453e-05,-0.006369897656415705,0.010655563812503325
1.3131313131313131,4.253164556962025,0.011121356393753518,0.009970874570754565,-1.8751220500165677e-05,-0.006327669289352424,0.010593125738356803
1.4141414141414141,4.253164556962025,0.010913598261635031,0.010071771103801362,-3.646425712607764e-05,-0.006295610809630918,0.010518171205102247
1.5151515151515151,4.253164556962025,0.010959543824199261,0.00986762375891337,0.00010709202692105443,-0.006248150274933789,0.010458075853721136
1.6161616161616161,4.253164556962025,0.011001915616128562,0.0098195017702455,1.7670119849527253e-05,-0.0062464252159122186,0.010460992738311622
1.7171717171717171,4.253164556962025,0.01083354528898905,0.009579551162073712,-2.0071048066594055e-05,-0.006123928935318828,0.010264219949599819
1.8181818181818181,4.253164556962025,0.010727798588215993,0.009790378319634602,-5.959851894062505e-05,-0.006155453072355178,0.010291677192071443
1.9191919191919191,4.253164556962025,0.01063832886171539,0.009664843877577411,-1.4124439029686326e-05,-0.006090951821787841,0.010186562672485792
2.0202020202020203,4.253164556962025,0.010686276032206463,0.009704019021171866,-3.922054494845337e-05,-0.006117088516013498,0.010230800040621912
2.121212121212121,4.253164556962025,0.010648130833554221,0.009462774130147332,7.652497673550737e-06,-0.006033271489110466,0.01010772492614706
2.2222222222222223,4.253164556962025,0.010598245888105434,0.009631605166670016,3.033538194074512e-05,-0.0060689553164326344,0.010149644074746916
2.323232323232323,4.253164556962025,0.010567724161624163,0.009540311669995779,1.9072826360280903e-05,-0.006032410749485983,0.01009336662816275
2.4242424242424243,4.253164556962025,0.010530848932427922,0.00946956020259447,-1.0090967439383003e-05,-0.006000122740506718,0.010042367609333818
2.525252525252525,4.253164556962025,0.01031655881591644,0.009424203020907407,0.0001296346713802268,-0.005922228551047155,0.00990313380033242
2.6262626262626263,4.253164556962025,0.010508498004897504,0.009270945648042523,2.8196317828210387e-06,-0.005933833095882008,0.00994762652761429
2.727272727272727,4.253164556962025,0.010410559808412432,0.009281922611783181,6.744284124783884e-06,-0.005907744726058683,0.009894643443032435
2.8282828282828283,4.253164556962025,0.010419600413211159,0.009224081688593677,-1.036453366887276e-05,-0.005893104630541451,0.00987627625502394
2.929292929292929,4.253164556962025,0.010370211328432022,0.009255980449969241,6.666897282493756e-05,-0.005887857533520378,0.009861101258193674
3.0303030303030303,4.253164556962025,0.010404845321539149,0.009249479402381485,-4.3222323336490144e-05,-0.005896297417176189,0.009878252750430947
3.131313131313131,4.253164556962025,0.010242150806647475,0.009252397287926406,-9.134673181028148e-06,-0.005848364428372164,0.00978490218144982
3.2323232323232323,4.253164556962025,0.010233918930659235,0.00931550875281715,-2.298535062876367e-06,-0.005864828305042916,0.009807020672902218
3.3333333333333335,4.253164556962025,0.010124951670892578,0.009139936025544911,9.846351208176586e-06,-0.0057794663089312465,0.009670158075603947
3.4343434343434343,4.253164556962025,0.010170794701212515,0.009165472830930036,-2.5930130204956355e-05,-0.005800880259642764,0.009707359665777099
3.5353535353535355,4.253164556962025,0.010167700959067145,0.009288176158518199,-6.19594374226566e-05,-0.005836763135275603,0.009758303050499505
3.6363636363636362,4.253164556962025,0.01024239464266349,0.009138502487405381,3.729000035770255e-05,-0.005814269139020662,0.009737704988434815
3.7373737373737375,4.253164556962025,0.00997947816984977,0.009167686478139432,-7.913736870497677e-05,-0.0057441493943967605,0.009600339629238433
3.8383838383838382,4.253164556962025,0.010145977514853544,0.009168818922223017,-8.735923939732492e-06,-0.0057944389311229685,0.009694415840415107
3.9393939393939394,4.253164556962025,0.01006391750269618,0.009002739811000733,4.4591147895208965e-05,-0.0057199971941090735,0.009577833469053108
4.040404040404041,4.253164556962025,0.009986455400153695,0.009125855721940438,-0.00011136358941261629,-0.00573369333662824,0.009587115755464568
4.141414141414141,4.253164556962025,0.010027912891438973,0.009173219152885043,5.8313893675731625e-05,-0.005760339613297204,0.009629586985770522
4.242424242424242,4.253164556962025,0.009894067937787155,0.009157833481965584,6.183353536747048e-05,-0.005715570425925821,0.009547865623569301
4.343434343434343,4.253164556962025,0.010003032766492032,0.00916615493155417,0.00011998713780767865,-0.00575075630941386,0.009614203210532166
4.444444444444445,4.253164556962025,0.01012160860568987,0.008990520414880425,-8.32961142859964e-05,-0.005733638706171088,0.009607221451816243
4.545454545454545,4.253164556962025,0.010153984996652748,0.00901138740337779,-2.3525315829810766e-05,-0.005749611720009161,0.009633726281898196
4.646464646464646,4.253164556962025,0.010099608722389087,0.009053192573599399,7.85951376424899e-05,-0.0057458403887965465,0.00962014662181526
4.747474747474747,4.253164556962025,0.010081536578068604,0.008936243299660652,-2.5660764401756538e-05,-0.005705333963318776,0.009560582399315683
4.848484848484849,4.253164556962025,0.009985543879982609,0.008941939682042882,-3.218230669273402e-05,-0.005678245068607647,0.009506963126663874
4.94949494949495,4.253164556962025,0.01008378005015386,0.00915995671088742,3.53417842662645e-05,-0.0057731210283123845,0.009655267237567187
5.05050505050505,4.253164556962025,0.010000623323022283,0.009006636872334663,-3.9564598151818816e-05,-0.005702178058607083,0.00954278197927071
5.151515151515151,4.253164556962025,0.009944759832458384,0.008971123550955348,-7.808905326383368e-05,-0.00567476501502412,0.009496416716369398
5.252525252525253,4.253164556962025,0.010050303601198874,0.00903633410611725,-6.6667389241152916e-06,-0.005725991312194837,0.0095836406799048
5.353535353535354,4.253164556962025,0.00997833306030567,0.008865696335768246,-5.516632798748868e-05,-0.005653208818822174,0.009471639842279021
5.454545454545454,4.253164556962025,0.01011629376934066,0.009027552969340706,0.00012649412161904236,-0.0057431540216044095,0.009620745120526332
5.555555555555555,4.253164556962025,0.010109260898336232,0.009071404172257977,-4.250503443029773e-05,-0.005754199521178263,0.009632640246024624
5.656565656565657,4.253164556962025,0.009966081624374344,0.00892394920778417,7.083957679596489e-05,-0.005667009249647554,0.009488830324501422
5.757575757575758,4.253164556962025,0.010063575280099216,0.008878134939235085,-1.1297058715968118e-05,-0.00568251306580029,0.009526354548316282
5.858585858585858,4.253164556962025,0.010072453790533236,0.00895085454080923,6.500345273680173e-05,-0.00570699249940274,0.009561784873739324
5.959595959595959,4.253164556962025,0.01002225654165247,0.00882332158791898,5.4505283874688805e-05,-0.0056536734388714345,0.009480292717253997
6.0606060606060606,4.253164556962025,0.01004133367418173,0.00895861275596223,-6.476352227841072e-05,-0.0056999839290431875,0.00954679461749342
6.161616161616162,4.253164556962025,0.010056186871619993,0.009091146822015686,-9.233119752966159e-06,-0.005744200108090704,0.0096100899771212
6.262626262626262,4.253164556962025,0.00999348602714362,0.009017911511266746,3.451634051318961e-05,-0.005703419261523109,0.009543358551955254
6.363636363636363,4.253164556962025,0.010080054536671091,0.009059682267675052,-0.0001674411108478374,-0.005741921041303843,0.009614955043432006
6.4646464646464645,4.253164556962025,0.010290912137174642,0.009105175220052483,-8.682954840180655e-07,-0.005818826207168138,0.009752257814556452
6.565656565656566,4.253164556962025,0.01018033301067679,0.009145343195591035,-5.00778812345671e-07,-0.0057977028618803475,0.00970432088802268
6.666666666666667,4.253164556962025,0.010157618362486324,0.0093026427311954,4.6527110554049676e-05,-0.005838078328104517,0.009758594789834813
6.767676767676767,4.253164556962025,0.010309148713734256,0.009210714581980592,-5.8546639696035724e-05,-0.005855958988714454,0.009806705208899629
6.8686868686868685,4.253164556962025,0.010286245201634294,0.009141859333726157,-1.2966492230638105e-05,-0.005828431360608136,0.009764503577242753
6.96969696969697,4.253164556962025,0.010326020759411764,0.0092337533662579,4.067593856035834e-06,-0.005867932237700899,0.00982552933135787
7.070707070707071,4.253164556962025,0.010386048551759485,0.009409712874318205,8.349794356370916e-05,-0.005938728427823306,0.009934982730008543
7.171717171717171,4.253164556962025,0.010056382678279187,0.009252500586279537,3.28327621922405e-05,-0.005792664979367617,0.009679677009863852
7.2727272727272725,4.253164556962025,0.010345996879582764,0.00924380194103802,5.179423370640627e-05,-0.005876939646186235,0.009841708573614126
7.373737373737374,4.253164556962025,0.0102585369070642,0.009278698020253391,-2.6983391954570853e-05,-0.005861170478195277,0.009805515521618622
7.474747474747475,4.253164556962025,0.010541639758551997,0.009493610935631874,-7.717267128390298e-05,-0.006010575208255161,0.01005954560447596
7.575757575757575,4.253164556962025,0.01033074239076632,0.009518316219647724,2.9122368389726273e-05,-0.005954717583124213,0.009949565491998819
7.6767676767676765,4.253164556962025,0.010423401575129736,0.009612264070770865,-1.9450535162104442e-05,-0.006010699693770181,0.010042488111855936
7.777777777777778,4.253164556962025,0.010701064600574378,0.009425565976107879,6.941955680252044e-05,-0.006037989173004677,0.010124472547887233
7.878787878787879,4.253164556962025,0.010422356963032571,0.009572756678776717,4.591610801565815e-05,-0.005998534092542787,0.010024910609895661
7.979797979797979,4.253164556962025,0.010576932972431901,0.009746614082955019,-4.719099787460698e-05,-0.006097064116616076,0.010187511683067627
8.080808080808081,4.253164556962025,0.010535886649167273,0.009704041635352793,4.92455569916463e-06,-0.006071978485356019,0.01014557645427954
8.181818181818182,4.253164556962025,0.01075674817342123,0.009646372784690974,7.753980978475171e-05,-0.0061209362874336615,0.010247661860252178
8.282828282828282,4.253164556962025,0.010853266013552736,0.00979692012420178,0.0001266836844203362,-0.006195055841326355,0.010367863479383475
8.383838383838384,4.253164556962025,0.010796819959574155,0.009907200828668042,-9.060979998580078e-06,-0.006211206236472659,0.010380651817329318
8.484848484848484,4.253164556962025,0.010933676694429937,0.009896035337644448,-8.127858868963048e-06,-0.006248913609622315,0.010453561532321853
8.585858585858587,4.253164556962025,0.011079299472319747,0.00995874255063901,8.075726042107562e-06,-0.006311412606887627,0.010563698904883786
8.686868686868687,4.253164556962025,0.011056273547877696,0.010189834951577287,-9.434938922934029e-06,-0.006373832549836495,0.010649534521646475
8.787878787878787,4.253164556962025,0.011306716037602846,0.01006488314181756,-2.8030090231953004e-05,-0.006411479753826122,0.010739892068131635
8.88888888888889,4.253164556962025,0.011200104588782034,0.010189646347622582,-4.2378334497423974e-05,-0.006416925280921385,0.01073086755313405
8.98989898989899,4.253164556962025,0.011279373735111245,0.010254890316298046,-3.052694740514917e-05,-0.0064602792154227874,0.01080375409054999
9.09090909090909,4.253164556962025,0.011433975272212208,0.010205258357662915,4.7973162455208075e-05,-0.006491770088962537,0.010872135081809007
9.191919191919192,4.253164556962025,0.011263615584316747,0.010494661083715308,-1.549557553186059e-05,-0.006527483000409616,0.010899533911926539
9.292929292929292,4.253164556962025,0.011626036610282723,0.010551210250958875,5.7898411267902906e-05,-0.006653174058372479,0.011128075531789747
9.393939393939394,4.253164556962025,0.0116405260011187,0.010489625792006482,-9.25731235846656e-05,-0.006639045537937555,0.011111032463944204
9.494949494949495,4.253164556962025,0.011813107661924995,0.01052753071935316,0.00010927147766880362,-0.006702191514383447,0.011227260691936821
9.595959595959595,4.253164556962025,0.011890488621327484,0.010681344466724056,-2.886021748501213e-05,-0.006771549926415461,0.011334501893119658
9.696969696969697,4.253164556962025,0.012079888989992947,0.010816072263285823,-0.00010159826945528701,-0.006868788375983631,0.011501528228544593
9.797979797979798,4.253164556962025,0.01200446168084828,0.010698850855632372,4.5193810118158455e-05,-0.006810993760944195,0.011408097658851346
9.8989898989899,4.253164556962025,0.012248843815783854,0.011218981003920632,-1.7387847454135815e-05,-0.007040347445911346,0.011767798031587976
10.0,4.253164556962025,0.012454422682020969,0.011150234254884785,-5.024364129212801e-05,-0.007081397081071726,0.011856568269859159
0.0,4.3544303797468356,0.012274273476629755,0.010816575085761847,-2.999121393519094e-06,-0.006927254568717481,0.011614237481043134
0.10101010101010101,4.3544303797468356,0.012296767592711439,0.011109484188595118,-6.7003468877468e-05,-0.007021875534391967,0.011748781018398099
0.20202020202020202,4.3544303797468356,0.012218427973406481,0.010965468777104182,-0.00014286607586470892,-0.006955169025153199,0.011645253511288731
0.30303030303030304,4.3544303797468356,0.012066698645902605,0.010796063451743724,-1.4680589662963092e-05,-0.006858828629293899,0.011484250284193928
0.40404040404040403,4.3544303797468356,0.011715772588130668,0.010808794093868816,7.526490362308613e-06,-0.006757370004599845,0.011289648067540545
0.5050505050505051,4.3544303797468356,0.01189871507301348,0.010663030542575974,7.292074423510029e-05,-0.006768523684676836,0.011332220912271953
0.6060606060606061,4.3544303797468356,0.011816857542060718,0.01068256890468153,4.2901439641305926e-05,-0.006749827934022674,0.011292764375622414
0.7070707070707071,4.3544303797468356,0.011526219363791479,0.01036822401343282,-2.6889682901204747e-06,-0.00656833301316729,0.01099306141686022
0.8080808080808081,4.3544303797468356,0.011446202876275345,0.01028271747082782,7.72391164680216e-05,-0.006518676104130949,0.010911904793506209
0.9090909090909091,4.3544303797468356,0.011439628317353564,0.01027561943526447,3.1836772764006605e-05,-0.00651457432578541,0.010904458926874019
1.0101010101010102,4.3544303797468356,0.011461648160020736,0.010255417059073513,-5.092453856036282e-05,-0.006515119565728275,0.010909021746249766
1.1111111111111112,4.3544303797468356,0.011349705845796322,0.0101273323452044,4.631144276569205e-05,-0.006443111457300216,0.010790869953105311
1.2121212121212122,4.3544303797468356,0.011275021879592692,0.01010776450634778,-3.321028725611831e-05,-0.006414835915782141,0.010739230163646515
1.3131313131313131,4.3544303797468356,0.010950323322976747,0.010150978600520902,-2.6848785904373075e-05,-0.006330390577049295,0.010573438999566486
1.4141414141414141,4.3544303797468356,0.010953320925973963,0.009817554447089752,-6.313470843853716e-05,-0.006231262611919114,0.010432485228169882
1.5151515151515151,4.3544303797468356,0.01077286383013351,0.009967798292160815,2.047883637662651e-06,-0.006222198636688297,0.010393742193724033
1.6161616161616161,4.3544303797468356,0.010785627988163578,0.009946192210531129,9.376233495761893e-05,-0.006219546059608411,0.010392639493059432
1.7171717171717171,4.3544303797468356,0.010906664880803432,0.00976544872529524,1.7454675612198225e-05,-0.0062016340818296005,0.01038324443361319
1.8181818181818181,4.3544303797468356,0.010750521340938873,0.009623119642071465,8.776285179595856e-05,-0.0061120922949031015,0.0102346321196012
1.9191919191919191,4.3544303797468356,0.010748679248469712,0.00961873764449922,8.553641661745918e-05,-0.0061102250678906804,0.01023168818817256
2.0202020202020203,4.3544303797468356,0.010822204727094506,0.009661000632698919,5.485588120089948e-06,-0.006144961607938027,0.010290860602472925
2.121212121212121,4.3544303797468356,0.010550985074624044,0.009687380609368404,-1.4507177148615045e-05,-0.006071509705197734,0.010146814882938605
2.2222222222222223,4.3544303797468356,0.010497456003144008,0.009576190132064863,-2.695109388548127e-05,-0.006022093840562661,0.01006859198094216
2.323232323232323,4.3544303797468356,0.01054913266949773,0.009409127156893172,4.3371400785121896e-05,-0.0059874779479172704,0.010028129760141072
2.4242424242424243,4.3544303797468356,0.010602152388146106,0.009408475597801712,0.00010430015306126759,-0.006003188395784346,0.010060198401306035
2.525252525252525,4.3544303797468356,0.010459680732188639,0.009292025010011015,1.143938234056396e-06,-0.005925511722659896,0.00992748904665955
2.6262626262626263,4.3544303797468356,0.010461791758132803,0.009343914219720226,2.4938612243462695e-06,-0.0059417117933559084,0.00995006299585524
2.727272727272727,4.3544303797468356,0.010145646018932995,0.009348619656942593,5.048263620420585e-05,-0.005848279702762677,0.009771933397048939
2.8282828282828283,4.3544303797468356,0.010405309737503029,0.00923634253500253,2.008087489244317e-05,-0.0058924956817516675,0.009872927578155652
2.929292929292929,4.3544303797468356,0.010157426925902147,0.009459255690221251,-2.458583989998591e-05,-0.005885004784837019,0.009827052198485028
3.0303030303030303,4.3544303797468356,0.010307805278982658,0.009269219817989048,9.144731513638642e-05,-0.005873107529091512,0.009831025407659288
3.131313131313131,4.3544303797468356,0.010255682667021721,0.009171940197937054,-3.081389994562077e-05,-0.005828286859487633,0.009759193324221533
3.2323232323232323,4.3544303797468356,0.010235140595583917,0.009178902628242966,-0.00011234403170281795,-0.005824212967148064,0.00975196703754026
3.3333333333333335,4.3544303797468356,0.010187361816740957,0.0092278948365165,2.6943419159085292e-05,-0.005824576995977237,0.00974323653803387
3.4343434343434343,4.3544303797468356,0.010246267956245694,0.009033893946166245,-1.6397431144166188e-05,-0.005784048570723582,0.009697131298909263
3.5353535353535355,4.3544303797468356,0.010230999022285657,0.00914926615391102,-5.325592141236982e-05,-0.005814079552859002,0.009735747924700668
3.6363636363636362,4.3544303797468356,0.009910994051560996,0.00915916701949842,-4.470998281380875e-06,-0.005721048321317825,0.009557287988918164
3.7373737373737375,4.3544303797468356,0.010045801059997977,0.009111122131381941,2.3064734550383814e-05,-0.005747076957413976,0.009612686461689375
3.8383838383838382,4.3544303797468356,0.01015841757437141,0.009040373723009858,2.4147399609892114e-05,-0.005759637389214379,0.009648194787160962
3.9393939393939394,4.3544303797468356,0.009983551045285362,0.009269138035826848,-2.3506087532793153e-05,-0.005775806724333663,0.00964629235939956
4.040404040404041,4.3544303797468356,0.010064520046716157,0.009075383786770162,-6.009201031659843e-05,-0.005741971150045896,0.009608777536369685
4.141414141414141,4.3544303797468356,0.010175586142725917,0.009171887843591148,-2.8585215859048936e-05,-0.00580424219589512,0.009712836684679997
4.242424242424242,4.3544303797468356,0.010186707414182126,0.009179847549591466,-7.788212730631216e-05,-0.005809966489132077,0.009723393685265954
4.343434343434343,4.3544303797468356,0.010115512404961812,0.009045043417772106,-8.00850181588276e-05,-0.005748166746820175,0.009626026884381085
4.444444444444445,4.3544303797468356,0.009998150285718491,0.008988534563516008,-8.067183945195878e-05,-0.0056960054547703495,0.009534545985938095
4.545454545454545,4.3544303797468356,0.009974534765985962,0.009028516589896562,-6.0983958433629975e-05,-0.005700915406764757,0.009537366519655964
4.646464646464646,4.3544303797468356,0.010159888692251987,0.009032688829998458,6.57045604331342e-05,-0.005757773256675134,0.009646483499274836
4.747474747474747,4.3544303797468356,0.010000375836833126,0.00903977084681868,-9.757570449063692e-05,-0.0057120440050955415,0.009557846564378152
4.848484848484849,4.3544303797468356,0.010088659775826639,0.008860356119127307,-4.192438720981115e-06,-0.005684704768486183,0.009534039069629793
4.94949494949495,4.3544303797468356,0.009954349506381337,0.008882970037075196,-1.3356249832731621e-05,-0.00565119586303696,0.009464279029024832
5.05050505050505,4.3544303797468356,0.009960902376096415,0.009041255122875467,1.2639312596363723e-05,-0.005700647249691565,0.00953442656709724
5.151515151515151,4.3544303797468356,0.010030240587446483,0.009052352220403051,7.603494250083807e-05,-0.00572477784235486,0.009579711908444333
5.252525252525253,4.3544303797468356,0.009984911428824964,0.008989106668676772,-6.431700058140455e-05,-0.005692205429250521,0.009526776530444207
5.353535353535354,4.3544303797468356,0.009968777795244499,0.008802934919405595,2.0337796526093196e-05,-0.005631513814395027,0.009440070584831444
5.454545454545454,4.3544303797468356,0.010070687965797956,0.009138993276598532,7.202165985317963e-06,-0.005762904372718946,0.009638680418896371
5.555555555555555,4.3544303797468356,0.009976046086033457,0.009119611780878747,-9.06358933455936e-06,-0.005728697360073661,0.009576606579461262
5.656565656565657,4.3544303797468356,0.010019958879161826,0.009266272841115744,-3.6505721637944303e-05,-0.00578586951608327,0.009665387394106679
5.757575757575758,4.3544303797468356,0.00992990493933664,0.009120092796847378,3.5417386388586115e-05,-0.0057149993208552045,0.009550979708413275
5.858585858585858,4.3544303797468356,0.010096449175803313,0.009022338602395518,4.603493065888095e-06,-0.0057356363334596485,0.009604548935078956
5.959595959595959,4.3544303797468356,0.010099669136286285,0.008980702408651101,-3.0593010501137364e-05,-0.005724111463481216,0.009589422155336294
6.0606060606060606,4.3544303797468356,0.010137101613284228,0.009234743761107205,-1.4153659977374138e-06,-0.00581155361231743,0.009717396337607856
6.161616161616162,4.3544303797468356,0.010013146241768503,0.009051743967681424,5.3368986307613e-06,-0.005719467062834978,0.00956874160334162
6.262626262626262,4.3544303797468356,0.01014708448293017,0.008962017175396535,1.1024430811906855e-05,-0.005732730497498012,0.009609531442990812
6.363636363636363,4.3544303797468356,0.010294692111012325,0.00900495501869094,-2.8704000114683637e-06,-0.005789894138910979,0.009714251688927807
6.4646464646464645,4.3544303797468356,0.010186501968222033,0.009283132696909342,-1.3265070913297882e-06,-0.005840890399539412,0.009766203500211765
6.565656565656566,4.3544303797468356,0.010149391886299926,0.009172502899142673,-6.472266965391599e-05,-0.005796568435632779,0.009698567196588974
6.666666666666667,4.3544303797468356,0.010299546978957127,0.009022629849435847,-5.873072813266661e-05,-0.0057966530485178925,0.009724703864846026
6.767676767676767,4.3544303797468356,0.010270499095879746,0.009171303067605009,-5.850126659463779e-05,-0.0058325406490454266,0.009767925008262034
6.8686868686868685,4.3544303797468356,0.010171704483133518,0.009311055841686965,-1.1043248824975483e-05,-0.005844828097446146,0.009769871564746974
6.96969696969697,4.3544303797468356,0.010396863769670419,0.009277082050856629,2.3164241594007417e-05,-0.005902183746158114,0.009884739708604698
7.070707070707071,4.3544303797468356,0.010262995060765199,0.009492252033026729,-1.1049138508609235e-05,-0.005926574128137578,0.009900169028642115
7.171717171717171,4.3544303797468356,0.010315740339995319,0.009203365942025747,7.417037464668209e-05,-0.00585573188460632,0.009807824113766411
7.2727272727272725,4.3544303797468356,0.01049891078233675,0.009394832827807786,-2.6885022067176592e-05,-0.005968123083043361,0.009992830841009666
7.373737373737374,4.3544303797468356,0.010464973989997652,0.009246098786898789,4.288377779623282e-05,-0.005913321833068932,0.009912182258704095
7.474747474747475,4.3544303797468356,0.010491244693397636,0.009422653425994734,-4.967867864509016e-06,-0.005974169435817711,0.009999866203559696
7.575757575757575,4.3544303797468356,0.010363154838865575,0.009389905735491363,5.531393700838764e-05,-0.0059259181723070814,0.009912892603642478
7.6767676767676765,4.3544303797468356,0.010447783010643348,0.009490800402239532,0.00010872438775167206,-0.0059815750238648635,0.010005453607417733
7.777777777777778,4.3544303797468356,0.010565411791472613,0.009558328986796583,-5.258953459253444e-05,-0.006037122233480759,0.010100009630529826
7.878787878787879,4.3544303797468356,0.010577469151843242,0.009548140967756335,-3.455282999854823e-05,-0.006037683035879872,0.010102389061436491
7.979797979797979,4.3544303797468356,0.010669744558406044,0.009405526410917289,3.1704830054449837e-06,-0.006022581290796999,0.01009716999570456
8.080808080808081,4.3544303797468356,0.010645459147901761,0.00982314416897974,-7.13906870273703e-05,-0.006140580995064451,0.01025979394383559
8.181818181818182,4.3544303797468356,0.010833414159817171,0.009659207256735119,-1.1653684077503263e-05,-0.0061477864249656865,0.010296667516435903
8.282828282828282,4.3544303797468356,0.010747181394076733,0.00974234581814859,-2.4560892063602364e-05,-0.006146858163667596,0.010281744110722437
8.383838383838384,4.3544303797468356,0.010887456988222542,0.009800875876880808,4.7547649003393044e-05,-0.006206499859531005,0.010387206333020906
8.484848484848484,4.3544303797468356,0.01081403017257441,0.009822361795521532,2.3950316647669368e-05,-0.006190917590428782,0.010353957883136346
8.585858585858587,4.3544303797468356,0.011027000723872145,0.009898566116859126,1.9355741383168396e-06,-0.006277670052219381,0.010508323921422874
8.686868686868687,4.3544303797468356,0.011043040130144925,0.010090242015364698,-2.3555291042635193e-05,-0.006339984643652886,0.010598888446496823
8.787878787878787,4.3544303797468356,0.011203114237396805,0.009917440099198717,1.3602021492579292e-05,-0.006336166300978657,0.010618838326693771
8.88888888888889,4.3544303797468356,0.01122819973736364,0.010128581905080307,1.900040646313102e-05,-0.006407034492733184,0.010720820076370166
8.98989898989899,4.3544303797468356,0.011301083888462227,0.01026973899489133,-9.05761169214174e-06,-0.006471246865006067,0.01082234264401022
9.09090909090909,4.3544303797468356,0.011403653928467641,0.01022107742052274,1.856063339863828e-06,-0.006487419404697114,0.010860760894696678
9.191919191919192,4.3544303797468356,0.011444955869032148,0.010228423474942128,-9.723287569250579e-05,-0.006502013803192283,0.010889084857907105
9.292929292929292,4.3544303797468356,0.011685284999538763,0.01037212719425362,-4.865055724477417e-05,-0.006617223658137715,0.011087504063947932
9.393939393939394,4.3544303797468356,0.01166930242833682,0.010630457433446797,-1.3281688876232595e-05,-0.0066899279585350855,0.011186141018047206
9.494949494949495,4.3544303797468356,0.011714623823514281,0.010731849094828794,-9.617456616371308e-05,-0.006733941875502923,0.01125669444755052
9.595959595959595,4.3544303797468356,0.011941169081212814,0.010571617204894348,1.4995802009467556e-06,-0.006753835885832149,0.011318707858834928
9.696969696969697,4.3544303797468356,0.012069670577837869,0.010987328984769307,9.914212840895309e-05,-0.006917099868782153,0.011567817088174327
9.797979797979798,4.3544303797468356,0.01217749672555885,0.010890198682837806,-3.348556939834545e-05,-0.0069203086225189964,0.011587746066505337
9.8989898989899,4.3544303797468356,0.012308402868589379,0.011016171441435301,-5.640785554636359e-05,-0.006997372293007404,0.011716265777561609
10.0,4.3544303797468356,0.012584113170410279,0.011073431105812158,-4.132200410076683e-06,-0.00709726328286673,0.011900904240679393
0.0,4.455696202531645,0.01234404007236835,0.010982273935562599,-2.43325483500221e-05,-0.0069978942023792845,0.011722705011062491
0.10101010101010101,4.455696202531645,0.012228605772540773,0.01110286591983816,1.4482370199555526e-05,-0.00699944150771368,0.011706429417725196
0.20202020202020202,4.455696202531645,0.012261714151538981,0.010827471222779753,7.724724696883934e-05,-0.00692675561229562,0.01161198998052996
0.30303030303030304,4.455696202531645,0.012187617268631898,0.010754783322310705,-7.21602017346252e-05,-0.006882720177282781,0.011538796182499358
0.40404040404040403,4.455696202531645,0.01191808112753524,0.01082395998427166,-0.0001032682448896243,-0.00682261233354207,0.01141183277484773
0.5050505050505051,4.455696202531645,0.011604904693884322,0.01054227143260495,-2.397205720952794e-05,-0.006644152837946783,0.011111839121360496
0.6060606060606061,4.455696202531645,0.011675982529965368,0.010598571985285604,-2.125428167194724e-05,-0.006682366354575291,0.011176354954010292
0.7070707070707071,4.455696202531645,0.011657791552333464,0.010494671330342207,-7.048544877431055e-05,-0.006645738864802702,0.011122609587037178
0.8080808080808081,4.455696202531645,0.01143707828318258,0.01030127166755232,-3.467288220080052e-05,-0.0065215049852204695,0.010913758004121058
0.9090909090909091,4.455696202531645,0.011325886736621856,0.010083102602747921,2.8345453977998295e-05,-0.006422696801810933,0.010758578011528866
1.0101010101010102,4.455696202531645,0.011375645415143708,0.01029072098495525,0.00011556276884617283,-0.006499909920029688,0.010875693921349535
1.1111111111111112,4.455696202531645,0.011360062446010712,0.009941092894317913,5.0741191171004897e-05,-0.006390346602098587,0.010721596646727598
1.2121212121212122,4.455696202531645,0.011015282627261343,0.009988274342813332,-6.589593297572256e-05,-0.006301067091022402,0.010539992299949036
1.3131313131313131,4.455696202531645,0.010976029840283957,0.009913425264956175,-8.591758406944354e-05,-0.006266836531572039,0.010486244585400838
1.4141414141414141,4.455696202531645,0.011130551766571734,0.010027132387874817,4.468729815095049e-05,-0.006347305246333965,0.010622195691223198
1.5151515151515151,4.455696202531645,0.01096392511272419,0.009891146854524843,-5.4334400928102036e-05,-0.00625652159017471,0.010469264695507784
1.6161616161616161,4.455696202531645,0.010807157854092376,0.009814226305679173,-5.414293851684446e-05,-0.006186415247931465,0.010346912599150949
1.7171717171717171,4.455696202531645,0.01079939541858182,0.009615577962388292,1.7115464717571897e-05,-0.006124492014291033,0.010258885474602903
1.8181818181818181,4.455696202531645,0.01071591577711114,0.00954369590002254,-3.679507243028902e-05,-0.0060778835031401034,0.010180746659224436
1.9191919191919191,4.455696202531645,0.010611455748635827,0.009667383467532232,0.0001142596664008223,-0.006083651764850417,0.010174254280135624
2.0202020202020203,4.455696202531645,0.010483281035867204,0.009626491792871008,-5.0485069205135426e-05,-0.006032931848621463,0.01008260645307987
2.121212121212121,4.455696202531645,0.010627432653700057,0.009649736085317166,0.00013913613600401875,-0.006083150621705166,0.010176732655697577
2.2222222222222223,4.455696202531645,0.010453463324693105,0.009447892087907495,3.6617011851499142e-06,-0.0059704066237801804,0.009988713989949678
2.323232323232323,4.455696202531645,0.010396645249740473,0.00940376344846129,-5.840040616730966e-05,-0.005940122609460529,0.009937989669936323
2.4242424242424243,4.455696202531645,0.010496878857515863,0.00929577594525705,4.76750227922018e-08,-0.005937796440831874,0.009950843290728107
2.525252525252525,4.455696202531645,0.010540762907638035,0.009365121463238155,-7.376372004857562e-05,-0.005971765311262857,0.010005697427476128
2.6262626262626263,4.455696202531645,0.010559307972187168,0.00938283544143071,-5.763923508039689e-05,-0.005982643024085363,0.010023487593562736
2.727272727272727,4.455696202531645,0.010295169915236385,0.009467646571682921,2.048633300969324e-05,-0.0059288449460757914,0.009907425705324636
2.8282828282828283,4.455696202531645,0.010356468539713242,0.00950584628326656,5.597290473978823e-08,-0.00595869444689394,0.009958441454794093
2.929292929292929,4.455696202531645,0.010350265081523109,0.009294871649849016,4.785524001862149e-06,-0.005893541019411637,0.009865004281499936
3.0303030303030303,4.455696202531645,0.010323520990107034,0.009181044794924483,-3.6054738838878e-05,-0.005851369735509455,0.009802543564843405
3.131313131313131,4.455696202531645,0.010146551389447053,0.00920048527718436,9.520595970651025e-05,-0.005804110999989424,0.009709553557495055
3.2323232323232323,4.455696202531645,0.01017489149195699,0.00909766673329504,-2.1372840347433903e-05,-0.005781767467575608,0.009681402554219697
3.3333333333333335,4.455696202531645,0.010135132535067799,0.009104469713968853,-2.142410813375359e-05,-0.005771880674710996,0.009661192992617876
3.4343434343434343,4.455696202531645,0.010031327128173817,0.00922957498494704,1.4658836014149758e-05,-0.005778270633936257,0.00965548222884814
3.5353535353535355,4.455696202531645,0.010271555879720855,0.009265812782701301,8.933562925229583e-05,-0.005861210598726648,0.009808658191093847
3.6363636363636362,4.455696202531645,0.010155288696232008,0.009251979986624652,5.7989638990431426e-05,-0.0058221806048569975,0.009735634688887896
3.7373737373737375,4.455696202531645,0.010238313618480868,0.009133862922447748,-6.456547577055879e-05,-0.0058116529622785846,0.009733841512485537
3.8383838383838382,4.455696202531645,0.010080434515401608,0.009229661736114168,7.971450813820334e-06,-0.0057930288754547326,0.009683129952875128
3.9393939393939394,4.455696202531645,0.010060847905883817,0.008907050581952918,-3.720314520493274e-05,-0.00569036954635102,0.009536659880785923
4.040404040404041,4.455696202531645,0.010105456368826926,0.009100704961327338,7.741152703566116e-05,-0.0057618483990462795,0.009643354184965237
4.141414141414141,4.455696202531645,0.010054990364068983,0.009166918679407197,-5.5388295694855095e-05,-0.005766572713042854,0.009642155044212952
4.242424242424242,4.455696202531645,0.009994815821810669,0.009105939210869145,2.5434859945173533e-05,-0.0057302265098039444,0.009581452276300357
4.343434343434343,4.455696202531645,0.009885328356079758,0.009165894969952664,1.741413085718101e-05,-0.005715366997809727,0.009546013597741033
4.444444444444445,4.455696202531645,0.01010535830646733,0.009174970523335947,1.9376332978227665e-05,-0.005784098648940983,0.009673836485253665
4.545454545454545,4.455696202531645,0.010135530599017471,0.00921688495998804,3.959473124437501e-05,-0.0058057246677016535,0.009709100503028973
4.646464646464646,4.455696202531645,0.01004374509285464,0.009088043202656467,-1.6281354026518976e-05,-0.005739536488653331,0.0096016743680843
4.747474747474747,4.455696202531645,0.01014279604826471,0.008972953687994594,-3.7213573491939394e-05,-0.005734724920877792,0.009611634871648648
4.848484848484849,4.455696202531645,0.009870038408804214,0.008925808346823499,-3.00095306848106e-05,-0.005638754026688313,0.009433575321081453
4.94949494949495,4.455696202531645,0.010164297087894207,0.009049101581147818,-4.8553173407917414e-05,-0.005764019600712607,0.0096554901532512
5.05050505050505,4.455696202531645,0.010222865085605954,0.008970669069503924,1.5541964222412267e-05,-0.005758060246532963,0.009657880675689382
5.151515151515151,4.455696202531645,0.00997739809992959,0.009026152055563954,3.472294515322129e-05,-0.005701065046648063,0.00953760968243831
5.252525252525253,4.455696202531645,0.009989502273475004,0.009236778400476885,-3.445660140759237e-05,-0.005767884202185567,0.009635402110564541
5.353535353535354,4.455696202531645,0.010080034206224104,0.009018617890299339,-2.2078400340807744e-05,-0.005729595628957033,0.009593541775073381
5.454545454545454,4.455696202531645,0.009918201572396923,0.00912795839462998,6.259203766419522e-05,-0.00571384799010807,0.009548254755290982
5.555555555555555,4.455696202531645,0.010042416803537806,0.009032985381106693,-1.9857379845238003e-05,-0.005722620655393349,0.009577741848710032
5.656565656565657,4.455696202531645,0.01019476275940313,0.00907384317700158,1.3221932049898942e-05,-0.005780581780921413,0.009683112292761692
5.757575757575758,4.455696202531645,0.01007284434878923,0.00913833055897168,-7.457985170350897e-05,-0.005763352472328272,0.00964048670008446
5.858585858585858,4.455696202531645,0.009999132457666432,0.00899692351528269,4.5274678252619176e-05,-0.005698816791884736,0.009537924412285521
5.959595959595959,4.455696202531645,0.010288379412024125,0.009019845828789279,4.879893997915714e-07,-0.00579246757224402,0.009716417770492522
6.0606060606060606,4.455696202531645,0.0100721736231477,0.009040868392319105,-5.848370376517267e-05,-0.005733912604640041,0.00959870031105352
6.161616161616162,4.455696202531645,0.010276972935012486,0.009124142310063397,-2.9849441992574646e-05,-0.005820334573522765,0.009751935961290257
6.262626262626262,4.455696202531645,0.01013734486029366,0.009186490616690763,1.526714205932664e-05,-0.005797150643095326,0.009696981307948556
6.363636363636363,4.455696202531645,0.010236995706917973,0.00921197110474633,5.544399397440123e-05,-0.005834690043499291,0.00976538817436364
6.4646464646464645,4.455696202531645,0.010118662004395141,0.009080929350742353,7.939863601065183e-05,-0.005759877406541248,0.009642751488896288
6.565656565656566,4.455696202531645,0.010163608200570816,0.00936964989307337,1.658623984354643e-05,-0.005859977428093256,0.009790844988754476
6.666666666666667,4.455696202531645,0.010268344487576386,0.008988129289537171,-6.0790392331198954e-05,-0.005776942133134067,0.009692432368220726
6.767676767676767,4.455696202531645,0.01016623997537104,0.009270564982979623,1.2071867532053394e-05,-0.005831041487505199,0.009749331218406465
6.8686868686868685,4.455696202531645,0.010246102490692561,0.009317930882777223,6.007272133319452e-06,-0.005869210012040935,0.009814992899733574
6.96969696969697,4.455696202531645,0.010227277358231278,0.009414481938384,4.945021985620933e-05,-0.005892527788984582,0.009846445568588097
7.070707070707071,4.455696202531645,0.010299040453588234,0.009242583392268881,2.1653878999840955e-07,-0.005862487153757134,0.009813553990054706
7.171717171717171,4.455696202531645,0.010162721477478775,0.009107946158226432,5.765208216884812e-05,-0.005781200290711563,0.009679051725234613
7.2727272727272725,4.455696202531645,0.010255380093743447,0.009324323483193262,-5.913780699472696e-05,-0.005873911073081013,0.00982353498949652
7.373737373737374,4.455696202531645,0.010496401532706012,0.009384320004635729,-1.1801004643279408e-05,-0.005964216461202522,0.009986928156158382
7.474747474747475,4.455696202531645,0.010416926932237587,0.009428309349498322,-2.2446493360649367e-05,-0.005953570884520772,0.009959562532980568
7.575757575757575,4.455696202531645,0.010671561354012404,0.009538496421652588,1.2039386296937205e-05,-0.006063017332699498,0.01015258197554219
7.6767676767676765,4.455696202531645,0.01048522867391116,0.009451474709438537,3.9773535060670256e-05,-0.005981011015004909,0.010008709541968317
7.777777777777778,4.455696202531645,0.010677545270461828,0.0096218837412042,2.600798510685803e-05,-0.006089828703499809,0.010190905246544636
7.878787878787879,4.455696202531645,0.010494378101911004,0.009553674112594909,-1.727978347477249e-05,-0.006014415664351774,0.010057121266459707
7.979797979797979,4.455696202531645,0.010858266509917832,0.009632359822042469,2.184743548325648e-05,-0.00614718789958809,0.01030024316246228
8.080808080808081,4.455696202531645,0.01084367260311472,0.009588446277995544,1.6812533317306513e-05,-0.006129635664333079,0.010273773081114816
8.181818181818182,4.455696202531645,0.010841039359422893,0.009566193879788791,2.2420888992788088e-05,-0.006122169971763504,0.010263246243581698
8.282828282828282,4.455696202531645,0.010876982618920917,0.009832602167845697,-0.00010438829876958042,-0.0062128754360299835,0.010395790694111241
8.383838383838384,4.455696202531645,0.010805898205541736,0.009615000471235683,-5.8432475106649564e-05,-0.006126269603033225,0.010262903917236348
8.484848484848484,4.455696202531645,0.010952071282254035,0.009856977181722541,-8.530697527429841e-05,-0.006242714539192972,0.01044870229506454
8.585858585858587,4.455696202531645,0.010977280932600865,0.01005423976361345,-4.9192527691899874e-05,-0.006309456208864294,0.010546443910764383
8.686868686868687,4.455696202531645,0.011048942854925517,0.01003883856495025,-3.829227495757988e-05,-0.00632633442596273,0.010580324343116732
8.787878787878787,4.455696202531645,0.011109595859132619,0.010001731964702582,-2.1287354617958446e-05,-0.00633339834715056,0.010599241571084026
8.88888888888889,4.455696202531645,0.011127050866968675,0.010155121971452406,-2.519747375082792e-05,-0.006384651851526324,0.010674413766226784
8.98989898989899,4.455696202531645,0.011168580714591479,0.010087918695422336,-9.816550591848727e-05,-0.006376949823004144,0.010670729777826451
9.09090909090909,4.455696202531645,0.011467901619635007,0.010347759014352538,-2.8175313740329063e-05,-0.006544698190196263,0.01095099006306591
9.191919191919192,4.455696202531645,0.011284331165379904,0.01045850044709634,-7.521347299372771e-05,-0.006522849483742873,0.010895694108827073
9.292929292929292,4.455696202531645,0.011650670811787145,0.01052759314777126,1.0159289184710277e-05,-0.006653479187867521,0.01113171753495347
9.393939393939394,4.455696202531645,0.011676592385255587,0.010586333355772694,-2.086001667992872e-05,-0.0066788777223084845,0.01117149361643506
9.494949494949495,4.455696202531645,0.011878430430767618,0.010758076409780132,-7.982221553869964e-05,-0.006790952052164325,0.011360606061873588
9.595959595959595,4.455696202531645,0.011978525144029249,0.010719965119252413,-0.00011859198941185205,-0.006809547078984499,0.011403312555564975
9.696969696969697,4.455696202531645,0.012017512335862506,0.010931277757418874,4.6676725283261616e-05,-0.006884637027984413,0.011513175365900446
9.797979797979798,4.455696202531645,0.012232867122792077,0.011033838648584413,-6.733548720189209e-05,-0.006980011731412946,0.011680186365291082
9.8989898989899,4.455696202531645,0.01220316727393885,0.010931254498899248,1.1036166813230796e-05,-0.006940326531851429,0.011619554839248656
10.0,4.455696202531645,0.012438557224926467,0.011240891995481832,-3.430090577105836e-07,-0.00710383476612249,0.011885069654815027
0.0,4.556962025316456,0.023023841277029833,0.020703237505838266,-0.00011915062168969202,-0.013118123634860429,0.021956681141053327
0.10101010101010101,4.556962025316456,0.022703664431545947,0.020188508045207366,-2.2444420454250223e-05,-0.012867651743025992,0.021556452280830488
0.20202020202020202,4.556962025316456,0.022259523527238357,0.02015311108876619,3.348969171548194e-05,-0.012723790384801363,0.021284712553068297
0.30303030303030304,4.556962025316456,0.022218492095693498,0.019799007301689098,5.2174430718201255e-06,-0.01260524981921478,0.021112983578090334
0.40404040404040403,4.556962025316456,0.021967813213304974,0.019943538879473935,-2.4408112149929897e-05,-0.012573405627833672,0.02102891844016216
0.5050505050505051,4.556962025316456,0.02166213612479364,0.019539810343138474,-1.3439568954150462e-05,-0.012360583940379633,0.020682815091162893
0.6060606060606061,4.556962025316456,0.021418344586227718,0.019323138965445033,-5.92991970320589e-05,-0.012222445065501825,0.020451652369115086
0.7070707070707071,4.556962025316456,0.021274168760869874,0.01929916723959132,-8.694866708409651e-05,-0.012172000800138359,0.020359200672435365
0.8080808080808081,4.556962025316456,0.02105111668689497,0.01889464438982725,5.277182000459715e-05,-0.011983728323016666,0.02006021164321601
0.9090909090909091,4.556962025316456,0.020694670402973802,0.01879960177094192,4.185127713142879e-05,-0.011848281652174717,0.019815350162566126
1.0101010101010102,4.556962025316456,0.02079515989146004,0.018564998820689994,-5.348136194796933e-05,-0.01180804761364501,0.019774840531109752
1.1111111111111112,4.556962025316456,0.02065398992195981,0.01853027311756058,-1.8573396337983093e-05,-0.011755278911856118,0.019678294697450315
1.2121212121212122,4.556962025316456,0.020423054801410767,0.01855658972071009,-2.3591576044089285e-05,-0.011693893356636256,0.01955677914121376
1.3131313131313131,4.556962025316456,0.02043827037671023,0.018486844183136845,-3.6047598536789165e-05,-0.011677534367954122,0.01953589215531527
1.4141414141414141,4.556962025316456,0.020176692464234473,0.01822623746895537,-1.542465614271445e-05,-0.011520878979956954,0.01927563686729651
1.5151515151515151,4.556962025316456,0.02019904165594411,0.01786461142089817,-2.920131004015716e-05,-0.011419095923052684,0.019138969484530713
1.6161616161616161,4.556962025316456,0.020226956247047408,0.018054819136246958,-7.078324590332212e-05,-0.011484532614988309,0.019233492848389235
1.7171717171717171,4.556962025316456,0.019861127550620285,0.01786721580141285,0.00011296052986388901,-0.01131850300560994,0.01894404962815152
1.8181818181818181,4.556962025316456,0.019734382704667163,0.01780887826983636,2.6600549026700123e-05,-0.011262978292351056,0.0188456071649061
1.9191919191919191,4.556962025316456,0.019841471054976814,0.017627643129899718,5.442169778047999e-07,-0.011240734255462959,0.01883240308350832
2.0202020202020203,4.556962025316456,0.019531027381469557,0.017715401329332588,1.4948171924251958e-05,-0.011173928613240644,0.018689493217892428
2.121212121212121,4.556962025316456,0.019612216419123217,0.01749404807697334,7.344422222488573e-05,-0.011131879348828965,0.01864403057869108
2.2222222222222223,4.556962025316456,0.019452813409065014,0.017490935182975245,-8.215123312469647e-05,-0.011083124577612078,0.018550393826379664
2.323232323232323,4.556962025316456,0.01936494926796393,0.017300985491496685,6.280102106848014e-05,-0.010999780427838184,0.01842021945319664
2.4242424242424243,4.556962025316456,0.019396068462197942,0.017419710158973593,7.285811845752553e-05,-0.011044733586351461,0.018487720462352742
2.525252525252525,4.556962025316456,0.01932918440391889,0.017162232549773494,-1.4514135070970973e-05,-0.010947425086107717,0.018341981083188526
2.6262626262626263,4.556962025316456,0.018892103870402365,0.01730258997094631,-1.4366376417148708e-05,-0.010858408152404601,0.01814964188552981
2.727272727272727,4.556962025316456,0.018832117365119704,0.017299013841403987,3.395572759089596e-05,-0.010839339361957107,0.01811438445961906
2.8282828282828283,4.556962025316456,0.01899626495768477,0.017183616330337048,6.258141161989861e-06,-0.010853964386406545,0.018157927780490243
2.929292929292929,4.556962025316456,0.01888324905924013,0.017120410765340814,-8.493166623086382e-05,-0.010801097947374284,0.018067047890915955
3.0303030303030303,4.556962025316456,0.0188629332596192,0.0170833266429433,5.3125719413666616e-05,-0.010783877970768749,0.018039321413357554
3.131313131313131,4.556962025316456,0.01882985925756945,0.01696950677822849,1.2119799628831603e-05,-0.010739809810739381,0.017972055428370805
3.2323232323232323,4.556962025316456,0.01874747195822482,0.017041121003049258,-3.1023815013251004e-05,-0.010736577888382224,0.017955290561695304
3.3333333333333335,4.556962025316456,0.01865672275492817,0.016804236641793452,-5.710020912489613e-05,-0.010638287819016486,0.017803187080833276
3.4343434343434343,4.556962025316456,0.018742173184894562,0.016852758200085607,-9.678753681677368e-05,-0.01067847941549405,0.017873312655907587
3.5353535353535355,4.556962025316456,0.018826366144127655,0.016851130455440972,6.927580135777245e-05,-0.010703248979870588,0.01792097947469432
3.6363636363636362,4.556962025316456,0.018742488481313924,0.016746402699721365,5.046094608062905e-05,-0.010646667354310588,0.017828663917178036
3.7373737373737375,4.556962025316456,0.018605677122379836,0.016689261240558015,-6.539098988217399e-05,-0.010588481508881356,0.017725701222508602
3.8383838383838382,4.556962025316456,0.018563358225006175,0.016658058559554833,-2.7375976652113015e-05,-0.010566425035368301,0.01768790331050034
3.9393939393939394,4.556962025316456,0.018727496341394395,0.01683581501701966,3.570914481374469e-05,-0.010668993407524216,0.017857069966757892
4.040404040404041,4.556962025316456,0.018447140500001884,0.01668091883078124,-3.7561477431618164e-07,-0.010538417799234938,0.017630507444445057
4.141414141414141,4.556962025316456,0.018444939647902364,0.016814721301032412,4.807727435119553e-06,-0.010577898284680433,0.017686271534584158
4.242424242424242,4.556962025316456,0.018478685846496045,0.016643074227135023,-1.3473233718648082e-05,-0.01053652802208932,0.017632701289489273
4.343434343434343,4.556962025316456,0.018474649060274927,0.016631632525837617,-5.5610506184394616e-05,-0.010531884475833763,0.017625820881471237
4.444444444444445,4.556962025316456,0.018466597328822436,0.016762432546381212,7.75665709470503e-05,-0.010568708962561095,0.017676745158825703
4.545454545454545,4.556962025316456,0.018475045958910533,0.016780380445697754,1.5538599760912093e-05,-0.010576627921382484,0.01768872283372064
4.646464646464646,4.556962025316456,0.018273647957656475,0.016650472850611314,5.67297617555812e-05,-0.010477236242480337,0.01751882505838578
4.747474747474747,4.556962025316456,0.018344394480094003,0.016741059104668464,-1.3370283478190334e-05,-0.01052563607542874,0.01759760815708031
4.848484848484849,4.556962025316456,0.01828773305818075,0.01650948747062472,2.6698273634793946e-05,-0.01043916615864164,0.017466693893043193
4.94949494949495,4.556962025316456,0.018451652078282296,0.016713023426120806,6.057590243689062e-05,-0.01054940265132093,0.0176470034664514
5.05050505050505,4.556962025316456,0.018352485611022002,0.016590881220028997,3.222285796160001e-05,-0.010483010049315298,0.017538251732508822
5.151515151515151,4.556962025316456,0.018497114828663883,0.01665277523106532,4.7446062254440866e-05,-0.01054496701791876,0.017647567469843695
5.252525252525253,4.556962025316456,0.018568545372578574,0.016456686694299963,-3.871260067133011e-05,-0.010507569620063559,0.01760798616079624
5.353535353535354,4.556962025316456,0.018415459407387112,0.016693928202192444,7.424295842427813e-05,-0.010532816282873867,0.017618358689117316
5.454545454545454,4.556962025316456,0.01851192200656255,0.01664676424726626,1.0092376450576931e-05,-0.010547605876148643,0.017653405349741372
5.555555555555555,4.556962025316456,0.018454938030590996,0.0165513680624533,2.2788465129102212e-05,-0.010501891827913288,0.01758066006952251
5.656565656565657,4.556962025316456,0.01852699063187195,0.016504133918969294,1.4221145870625163e-06,-0.010509337365252372,0.017602951168825903
5.757575757575758,4.556962025316456,0.018443552859731937,0.016767770379498437,3.181831255874822e-05,-0.010563396971769112,0.017665461881032903
5.858585858585858,4.556962025316456,0.018476096251482565,0.0166926411246759,-1.3068461259038283e-06,-0.01055062121284754,0.01765206960738149
5.959595959595959,4.556962025316456,0.0186958623649436,0.01692629155600419,-6.557584063524527e-05,-0.010686646176284337,0.017877245277179505
6.0606060606060606,4.556962025316456,0.01861405126438943,0.016815027759730976,-9.373561688287525e-05,-0.01062872370723612,0.017783661979460096
6.161616161616162,4.556962025316456,0.01852438650885638,0.016628849558565466,-2.766790788542442e-05,-0.010545970820226555,0.01765317516170366
6.262626262626262,4.556962025316456,0.018816466513734465,0.01662456221770145,0.0001159501587294891,-0.010632308619430772,0.017823027128851334
6.363636363636363,4.556962025316456,0.018545196006668752,0.016791153430602505,5.226133526132959e-06,-0.010600904831181377,0.01773335779948738
6.4646464646464645,4.556962025316456,0.01880089568912846,0.016910358893403966,0.00011657827240576276,-0.010713376374759727,0.0179316701530391
6.565656565656566,4.556962025316456,0.01864882024111906,0.016944847601720544,3.425223342152919e-05,-0.010678100352851879,0.017858008269119645
6.666666666666667,4.556962025316456,0.018570225752212524,0.016783188754049654,-9.196824517320064e-05,-0.010606024351878653,0.017745040989297828
6.767676767676767,4.556962025316456,0.01879196311220374,0.016981072580248224,-7.919388972310795e-05,-0.01073191070773559,0.01795566286910382
6.8686868686868685,4.556962025316456,0.01896177578663023,0.016988796444373955,4.834442558684446e-05,-0.010785171669301256,0.018056505977025173
6.96969696969697,4.556962025316456,0.01890506332629706,0.016950021398137456,-8.66211809280669e-05,-0.010756525417330354,0.018007940652437104
7.070707070707071,4.556962025316456,0.019091722625322872,0.01700562410219448,3.187167191677849e-05,-0.010829204018255207,0.01813895015948313
7.171717171717171,4.556962025316456,0.019164156118985233,0.016904995554567908,5.703995254447718e-05,-0.01082074550206594,0.018140659886643262
7.2727272727272725,4.556962025316456,0.018937779381003588,0.017180925913315208,-6.888379798835925e-05,-0.010835611588295638,0.01812372350118859
7.373737373737374,4.556962025316456,0.019110446225530008,0.0171821059359214,-5.634934113172227e-05,-0.010887765648435422,0.01822321962626395
7.474747474747475,4.556962025316456,0.019182318558681133,0.0175405899172366,-5.291347065134169e-05,-0.01101687254277532,0.018416646164214893
7.575757575757575,4.556962025316456,0.019169296522527676,0.017411933656953104,-2.8438197111370006e-06,-0.010974369053844234,0.018353824337285836
7.6767676767676765,4.556962025316456,0.01928360944716799,0.01754458149607618,1.6775575372410057e-05,-0.011048457282973252,0.018475603371982445
7.777777777777778,4.556962025316456,0.01945928184672696,0.017228986091585248,-5.4891560827316404e-05,-0.011006480381493662,0.01844578419843541
7.878787878787879,4.556962025316456,0.01950319575022925,0.01746891951213954,8.035440106109494e-05,-0.011091634578710638,0.01857033675226227
7.979797979797979,4.556962025316456,0.01957642042741452,0.017644558240045752,7.321605692566738e-06,-0.01116629360023808,0.01868554368199791
8.080808080808081,4.556962025316456,0.019587782536339596,0.017711062326872876,3.664771019002384e-05,-0.011189653458963741,0.01872021755362234
8.181818181818182,4.556962025316456,0.019760837243617272,0.017736518270427166,-5.930502539065455e-05,-0.011249206654213332,0.018830742666546173
8.282828282828282,4.556962025316456,0.02000560033262151,0.018066579657699897,-4.484471409661338e-05,-0.011421653997096421,0.01911017023295017
8.383838383838384,4.556962025316456,0.01988409884439808,0.01792882432845273,1.499993181645289e-05,-0.011343876951855241,0.018982157109700994
8.484848484848484,4.556962025316456,0.020090306632785777,0.01816462249866735,-3.715975458949635e-05,-0.011476478739435938,0.019200136400388028
8.585858585858587,4.556962025316456,0.02016325387151085,0.018244582042071442,7.490890350175674e-05,-0.011522350774074689,0.0192761063266016
8.686868686868687,4.556962025316456,0.020349643702900926,0.018275712554795265,-4.2921400991099196e-05,-0.011587606877308856,0.019396158280798513
8.787878787878787,4.556962025316456,0.020493034682118442,0.018260930933410646,-2.074779439001732e-05,-0.011626189684658726,0.019473198748640792
8.88888888888889,4.556962025316456,0.020659646076165813,0.0187537040063139,-5.081469873549126e-06,-0.011824005024743916,0.019775681531245835
8.98989898989899,4.556962025316456,0.020826302756213454,0.018845727043716978,-1.7792047994441817e-05,-0.011901608939979129,0.019910058937563587
9.09090909090909,4.556962025316456,0.020946249430689866,0.0187751197342766,-4.7486106131545723e-05,-0.01191641074948994,0.01994965939545584
9.191919191919192,4.556962025316456,0.021231028161506453,0.018905627973551112,0.00012080135285991503,-0.01204099684051727,0.020170205374564952
9.292929292929292,4.556962025316456,0.02130824728218042,0.01917958768466083,4.947883502231146e-05,-0.012146350490052374,0.020327861011490436
9.393939393939394,4.556962025316456,0.021372446504502807,0.01938257656765657,-4.508223582127521e-05,-0.012226506921647813,0.020450397560956953
9.494949494949495,4.556962025316456,0.021748491614392275,0.019770439779517687,3.115478731126818e-05,-0.012455679418172988,0.02083009468728973
9.595959595959595,4.556962025316456,0.021819652254850847,0.019673112803776593,3.0437678868588738e-05,-0.012447829517588231,0.02082956771324748
9.696969696969697,4.556962025316456,0.02213531955044379,0.019923349549282824,0.00011368624394866796,-0.012617600729917982,0.021117322125705024
9.797979797979798,4.556962025316456,0.02228225416234931,0.0200794393129191,8.710210876249793e-05,-0.012708508042580524,0.021267118370876078
9.8989898989899,4.556962025316456,0.022703462207279854,0.02017117703717294,4.585907696540426e-06,-0.012862391773335839,0.021549201535421184
10.0,4.556962025316456,0.022929671577664592,0.020577709700035855,1.4351250746195189e-05,-0.013052214383310133,0.021848855068203412
0.0,4.658227848101266,0.02282626641782836,0.020475060306981915,2.4116484220374617e-06,-0.012990398017443082,0.02174620355630145
0.10101010101010101,4.658227848101266,0.02268981681972353,0.020196565608477893,-7.352619065132996e-05,-0.012865914728460425,0.021552004406746126
0.20202020202020202,4.658227848101266,0.02243296343619694,0.02013655393928081,-2.6558069370776117e-05,-0.012770855212643324,0.021377516011491293
0.30303030303030304,4.658227848101266,0.021994876094632406,0.01984146083456021,1.4023520715092197e-05,-0.012550901078757783,0.02100114901266988
0.40404040404040403,4.658227848101266,0.021873102401264038,0.019958904344914354,7.402609352868196e-05,-0.012549602023853516,0.020981986377363027
0.5050505050505051,4.658227848101266,0.02151565058725611,0.019584338902327515,-6.525161182077464e-05,-0.012329996846875088,0.020618257223823818
0.6060606060606061,4.658227848101266,0.021544721120734953,0.019335219734261833,2.2536135965260334e-05,-0.012263982256499035,0.020529377413645584
0.7070707070707071,4.658227848101266,0.021167448170904594,0.019256557349632733,2.7476892600760228e-05,-0.012127201656161197,0.020279693003546796
0.8080808080808081,4.658227848101266,0.02100199662106541,0.019026454971919595,7.813235534271806e-05,-0.0120085354778955,0.020087673380296496
0.9090909090909091,4.658227848101266,0.02114722665591521,0.01886665585891935,2.929411886546238e-07,-0.012004164754450366,0.020104189889305964
1.0101010101010102,4.658227848101266,0.02069421393010953,0.018825723855329605,6.013038806386666e-05,-0.011855981335631741,0.01982638794641158
1.1111111111111112,4.658227848101266,0.020644150330223814,0.018669682592595237,3.660328007755991e-05,-0.011794149876845714,0.019731251260535206
1.2121212121212122,4.658227848101266,0.02049408357489858,0.01849998333138623,-0.00012199231770698884,-0.01169822007188544,0.019574506039376185
1.3131313131313131,4.658227848101266,0.020382654975999885,0.018142069320121613,-7.214281190424653e-05,-0.01155741728883645,0.01936025251229868
1.4141414141414141,4.658227848101266,0.02016804334023573,0.018109294794268954,-3.385303544151067e-05,-0.011483201440351403,0.019221626516282838
1.5151515151515151,4.658227848101266,0.02008700328041082,0.018085955433807012,6.063288236163972e-05,-0.01145188761426535,0.019165277656530665
1.6161616161616161,4.658227848101266,0.01995776249002966,0.018075548605735233,4.807961346354777e-06,-0.01140999332872947,0.01908639055468472
1.7171717171717171,4.658227848101266,0.019679518149533275,0.017938850892341585,4.300402308382086e-05,-0.011285510712562459,0.018869642610708632
1.8181818181818181,4.658227848101266,0.01982881064773194,0.017927346195836857,3.2833328733969234e-05,-0.01132684705307064,0.018949848397225622
1.9191919191919191,4.658227848101266,0.019615315759084453,0.01760552565710134,-4.041952360100876e-06,-0.011166252424855737,0.018691635833571963
2.0202020202020203,4.658227848101266,0.019665222448763453,0.017624108329542826,1.718805170407521e-05,-0.011186799233491883,0.018728295274706944
2.121212121212121,4.658227848101266,0.01957985327060741,0.01765498469668108,-2.9730640805217298e-05,-0.011170451390186548,0.018691971020085928
2.2222222222222223,4.658227848101266,0.01933531459408878,0.017587654912683492,7.285858447615141e-05,-0.011076890852031682,0.01852385165647284
2.323232323232323,4.658227848101266,0.019331382074785002,0.01742406427459343,2.9003469247747128e-05,-0.011026633904813529,0.018451873308214264
2.4242424242424243,4.658227848101266,0.019186435948151236,0.01735176828224799,6.578573907696882e-05,-0.010961461269119767,0.018338418128868744
2.525252525252525,4.658227848101266,0.019123843500357993,0.017217456882043493,-0.00010364119585390382,-0.010902390114720445,0.018246382800908352
2.6262626262626263,4.658227848101266,0.01911745290383777,0.017303529100005013,-1.3196140137510136e-05,-0.010926294601152834,0.018278135698697143
2.727272727272727,4.658227848101266,0.019095447941329172,0.01703060948195676,1.836785464671895e-05,-0.01083781722698578,0.018151354956844647
2.8282828282828283,4.658227848101266,0.018954656190002382,0.017045216190118166,-2.0478314039148462e-05,-0.010799961714036164,0.018075769188755083
2.929292929292929,4.658227848101266,0.018963915857491576,0.017070038544339163,1.5393232758833813e-05,-0.010810186320549222,0.018091496808476173
3.0303030303030303,4.658227848101266,0.018747346381706713,0.016976203922553612,-5.595702734153957e-05,-0.010717065091278098,0.01792777494169152
3.131313131313131,4.658227848101266,0.01871476437560611,0.017144709220589364,-3.688110232468554e-05,-0.01075784207885864,0.017981333298410666
3.2323232323232323,4.658227848101266,0.018758812680552964,0.017129390121043496,7.845450495033337e-06,-0.010766460840478938,0.01799950619165671
3.3333333333333335,4.658227848101266,0.018821415553890667,0.016827747786861857,-2.346500738387053e-05,-0.010694749002225756,0.01790805396791051
3.4343434343434343,4.658227848101266,0.01863643669799661,0.01687398830401305,5.722750137788788e-05,-0.010653127500602898,0.017820972593342695
3.5353535353535355,4.658227848101266,0.018637582380578405,0.016723860357789774,-4.32732814829228e-05,-0.010608432821510453,0.017758386042959352
3.6363636363636362,4.658227848101266,0.01847456933235313,0.016703047444254642,-2.1674647299834155e-05,-0.010553285032982331,0.01765563103492721
3.7373737373737375,4.658227848101266,0.01866719280986619,0.01677830381956443,-9.726612412440968e-05,-0.010633648988829188,0.01779887963150247
3.8383838383838382,4.658227848101266,0.01864533911789969,0.01671142377233896,2.4827636268622216e-05,-0.010607028867071594,0.017757591085970914
3.9393939393939394,4.658227848101266,0.018350718403033824,0.016973342455682064,0.00016460633352454853,-0.010597218257614767,0.01770456093773388
4.040404040404041,4.658227848101266,0.01864846403993037,0.01676212306543543,3.684375332755065e-05,-0.010623176131609742,0.01778061314682923
4.141414141414141,4.658227848101266,0.0186035753816863,0.01656730650031599,5.108835438063724e-05,-0.010551264564600687,0.017673860822333843
4.242424242424242,4.658227848101266,0.01853772958485271,0.01689249229588862,-1.084135443936413e-05,-0.0106290665642224,0.01777232715592663
4.343434343434343,4.658227848101266,0.01845071763382497,0.01672439780781898,3.507841241632723e-05,-0.010552534632493185,0.017651090991056155
4.444444444444445,4.658227848101266,0.01846110645347179,0.016540115352368073,-3.06112799253459e-05,-0.01050036654175196,0.017579586122393943
4.545454545454545,4.658227848101266,0.018458560191254785,0.016582366736925494,-3.378039297186989e-05,-0.010512278078454085,0.017595742091481008
4.646464646464646,4.658227848101266,0.018326152493612982,0.016470639647024544,-3.9427392524984434e-05,-0.010439037642191257,0.01747257981296461
4.747474747474747,4.658227848101266,0.018308475169215768,0.016783701310743457,-1.3926912484010227e-06,-0.010527652943987768,0.017595707426344868
4.848484848484849,4.658227848101266,0.018341897411806158,0.016530881342498683,-3.980448018866635e-06,-0.010461833626291451,0.017506786011316885
4.94949494949495,4.658227848101266,0.01829437666775518,0.016621479409402184,3.046505686289628e-05,-0.010474756823147207,0.017518018571945126
5.05050505050505,4.658227848101266,0.018444059059351103,0.016772105031973336,6.907113022438831e-05,-0.010564849227397333,0.017667921170644616
5.151515151515151,4.658227848101266,0.018222321077322134,0.01661902404388964,-1.1039379996055684e-05,-0.01045240353636353,0.017475929706331477
5.252525252525253,4.658227848101266,0.01858694325616954,0.016651544200432,-3.43211994893117e-05,-0.010571546236980462,0.017698887267853354
5.353535353535354,4.658227848101266,0.018613907533255574,0.016659695428976568,5.689638060584452e-05,-0.010582080888669642,0.01771808925336079
5.454545454545454,4.658227848101266,0.018352617857321618,0.01650182313703334,4.632213749285813e-06,-0.010456332298306488,0.017500775967137592
5.555555555555555,4.658227848101266,0.01842572776236432,0.01674064024483767,1.5166352920689861e-05,-0.010549910402160597,0.01764365862613437
5.656565656565657,4.658227848101266,0.01855088105553546,0.016606831651865595,5.336441944595034e-05,-0.010547313812220316,0.017659536518571422
5.757575757575758,4.658227848101266,0.018669571835639297,0.0165675065181037,-4.0793715388498366e-05,-0.010571123506122899,0.01771247933119446
5.858585858585858,4.658227848101266,0.01838044212564618,0.01631466876767296,9.30051184870107e-05,-0.010408533267995743,0.017440303738926292
5.959595959595959,4.658227848101266,0.018454278813935802,0.016709532733507143,2.0474818134066432e-05,-0.010549143464232882,0.01764674962859823
6.0606060606060606,4.658227848101266,0.01868170675381063,0.01685873002435217,2.5191728865235663e-05,-0.01066213103344884,0.017840263411238264
6.161616161616162,4.658227848101266,0.018513733651798866,0.016575015611943508,-4.0996066635862774e-05,-0.010526624779122713,0.01762467287595516
6.262626262626262,4.658227848101266,0.018612029401434096,0.016996185206614143,4.737893835415445e-05,-0.01068246438241447,0.017859204504430026
6.363636363636363,4.658227848101266,0.018486943349980998,0.016827884385858784,3.744033633524339e-05,-0.010594448320751935,0.01771589194266521
6.4646464646464645,4.658227848101266,0.018594283436461297,0.016839869188562624,8.975395190283945e-05,-0.010630245787507176,0.01778278486047507
6.565656565656566,4.658227848101266,0.018557446632119584,0.016751394659514505,-6.4987540360066e-05,-0.010592652387490225,0.017723927507086863
6.666666666666667,4.658227848101266,0.018535479490873984,0.016730179509711434,-7.588775437894608e-05,-0.010579697700175625,0.017702493724237725
6.767676767676767,4.658227848101266,0.01867928593915267,0.016722366765222648,-4.7409422365126305e-05,-0.010620495811312594,0.0177819612529175
6.8686868686868685,4.658227848101266,0.018814485037538364,0.0167775802644355,9.92940060921054e-06,-0.01067761959059216,0.017883255008107425
6.96969696969697,4.658227848101266,0.018992577681656415,0.016986994813600928,4.042855900551237e-06,-0.010793871748577202,0.018073439911923228
7.070707070707071,4.658227848101266,0.01886226941684014,0.017039025712632307,-0.00011346347430502988,-0.010770388538841734,0.01802103030009868
7.171717171717171,4.658227848101266,0.01888592908149194,0.017037731666580354,-4.5834790158040176e-05,-0.010777098224421688,0.01803317853660243
7.2727272727272725,4.658227848101266,0.01888463460218665,0.017148103662396882,-4.071261157384508e-05,-0.01080982147937506,0.018079164362322014
7.373737373737374,4.658227848101266,0.019172441313893437,0.017270948184558967,3.3660173739411854e-05,-0.010933016849535722,0.01829604644852395
7.474747474747475,4.658227848101266,0.019230081686762324,0.01713711147895978,6.415473137975083e-05,-0.010910157949716632,0.018274050601740522
7.575757575757575,4.658227848101266,0.019233460222402486,0.01713936530264772,-1.432548184438339e-05,-0.010911847657515062,0.018276628517780114
7.6767676767676765,4.658227848101266,0.01931338138736475,0.017119336917909834,-4.022237341742519e-05,-0.010929815491582376,0.018315320571759088
7.777777777777778,4.658227848101266,0.01926884668999551,0.017372792880040122,-4.1034994340531754e-05,-0.010992491871010689,0.01839439464198446
7.878787878787879,4.658227848101266,0.019582588478722757,0.017385080476090744,-3.780238583729281e-05,-0.01109030068644405,0.018581663141805132
7.979797979797979,4.658227848101266,0.019591673321211662,0.01769251267527093,2.4850437407106586e-05,-0.011185255798944777,0.018714555628096343
8.080808080808081,4.658227848101266,0.01961093734844799,0.01786651346353849,0.00010243333508617681,-0.011243235243595944,0.018800360864177825
8.181818181818182,4.658227848101266,0.019844749564472245,0.01797710145052063,-5.827053739663124e-05,-0.01134655530449786,0.01898023635323926
8.282828282828282,4.658227848101266,0.0199883737909342,0.018055611549989883,-4.5937277324588936e-05,-0.011413195602277224,0.01909565953994443
8.383838383838384,4.658227848101266,0.020066660277831876,0.01802079863049793,6.107275612287221e-05,-0.01142623767249894,0.019126264234765586
8.484848484848484,4.658227848101266,0.020008153043514682,0.018173781066970898,7.943831496660817e-05,-0.011454580233145674,0.019157443588675046
8.585858585858587,4.658227848101266,0.020337104075319863,0.01821843731180342,-4.866479693717943e-05,-0.011566662416136984,0.01936507447292803
8.686868686868687,4.658227848101266,0.020422702862595232,0.018283877675184065,-0.00013003351768344165,-0.011611974161333789,0.019443032177769763
8.787878787878787,4.658227848101266,0.020349044914733484,0.018398755682469698,-4.4687963669347006e-05,-0.011624340179160954,0.019447537759046996
8.88888888888889,4.658227848101266,0.020778116694568895,0.01847963734153728,5.223401333395096e-05,-0.011777326210831853,0.019729755540009462
8.98989898989899,4.658227848101266,0.020996944214994893,0.0187495065854471,-7.969201912159725e-05,-0.011923935240132598,0.019968784945152637
9.09090909090909,4.658227848101266,0.02094558940331542,0.018922398758159348,-6.0836644701938894e-05,-0.01196039644844243,0.020011126869641155
9.191919191919192,4.658227848101266,0.021019443855193786,0.019124937547786016,1.3300821296612909e-05,-0.01204331442089394,0.020139146851446438
9.292929292929292,4.658227848101266,0.02143259762432942,0.019361481217490893,1.4925810051047409e-05,-0.012238223652546093,0.020475766844140094
9.393939393939394,4.658227848101266,0.021343565157741887,0.019169227262718226,-4.301526568811813e-06,-0.012153837726138034,0.02034373249668106
9.494949494949495,4.658227848101266,0.021589930771588214,0.019592687962532152,3.78710924766572e-05,-0.012354785620236109,0.02066393133548554
9.595959595959595,4.658227848101266,0.022183188381268013,0.01996615406532598,-6.22157624103777e-05,-0.012644802733978196,0.02116222602756827
9.696969696969697,4.658227848101266,0.02222493536680256,0.019929915875561508,4.1121942428415494e-05,-0.01264645537270922,0.021171048148539796
9.797979797979798,4.658227848101266,0.02243245663216989,0.020134084218687835,-7.547974670569856e-05,-0.012769962255257316,0.021376542713725123
9.8989898989899,4.658227848101266,0.022672802617271913,0.02061701427125991,4.687550827979579e-05,-0.012986945066559548,0.021718157214487194
10.0,4.658227848101266,0.02279366802184743,0.020783758834007807,4.688911285295782e-05,-0.013073228056756571,0.021858280577817354
0.0,4.7594936708860756,0.022834462043500443,0.020555990418268055,9.131406855620942e-05,-0.013017135738530548,0.021785348991853186
0.10101010101010101,4.7594936708860756,0.022461413974724512,0.020221693790496088,-3.393023081922345e-07,-0.01280493232956618,0.02142951661488115
0.20202020202020202,4.7594936708860756,0.02219341026541478,0.01994808151320234,0.00011215716220668885,-0.012642447533585136,0.021161171893896855
0.30303030303030304,4.7594936708860756,0.022083041283442326,0.019931964206877244,-1.4901540264781619e-05,-0.01260450164709587,0.021089954651387837
0.40404040404040403,4.7594936708860756,0.0218431826439471,0.01981679876925033,4.261751829915332e-06,-0.012497994423959229,0.020903785327789273
0.5050505050505051,4.7594936708860756,0.02173512342502405,0.01954277576993276,6.163034476069153e-05,-0.012383369758487042,0.02072637031817265
0.6060606060606061,4.7594936708860756,0.021512280837727382,0.01909280766436462,3.250513024162378e-05,-0.0121815265506276,0.020410459589230802
0.7070707070707071,4.7594936708860756,0.021448051282531595,0.01933186727990165,-9.265799752111381e-05,-0.012233975568729972,0.020472783690864464
0.8080808080808081,4.7594936708860756,0.021066853716079248,0.01901324278930455,-3.777270504074205e-05,-0.01202402895161514,0.020118916538444217
0.9090909090909091,4.7594936708860756,0.021042919037282833,0.01862467410565679,1.8932017996384593e-05,-0.011900277942881886,0.019944084163339395
1.0101010101010102,4.7594936708860756,0.020727282954037946,0.018525549558639966,-3.0315002379487866e-05,-0.011775849753803374,0.01971889181783555
1.1111111111111112,4.7594936708860756,0.0205473531161823,0.01859143492917001,-1.7576151502038165e-05,-0.011741636413605693,0.019642589471446276
1.2121212121212122,4.7594936708860756,0.020452713895806187,0.01841539961149156,1.9911827740652923e-05,-0.011660434052189325,0.01951401389941346
1.3131313131313131,4.7594936708860756,0.020495705133128404,0.018181609169574404,0.00010508612678527162,-0.011603194290810843,0.01944307254000884
1.4141414141414141,4.7594936708860756,0.020259169363473387,0.018272673644313623,3.947343474887925e-06,-0.011559552902336102,0.01934258002621232
1.5151515151515151,4.7594936708860756,0.020128309331144848,0.017931917049325778,4.440568490324059e-05,-0.011418067914141189,0.019125094193740564
1.6161616161616161,4.7594936708860756,0.01997029305475175,0.018174307544394266,-6.1730627198073725e-06,-0.011443380179743803,0.019135619300201998
1.7171717171717171,4.7594936708860756,0.02008337174576472,0.01782312447425357,-9.096575612569258e-05,-0.011371948866005488,0.019054710087592727
1.8181818181818181,4.7594936708860756,0.01966372154803259,0.0177435892570865,2.1884853382530358e-05,-0.011222193241535726,0.018777469032571135
1.9191919191919191,4.7594936708860756,0.01999915339996526,0.017696402329023888,5.479017810956537e-05,-0.011308666718696745,0.01895322487576256
2.0202020202020203,4.7594936708860756,0.019562046970633802,0.017544081881732478,0.00010533367511851791,-0.011131838655709882,0.01863608388252378
2.121212121212121,4.7594936708860756,0.019475856865906777,0.01751975660267613,2.456115525785444e-05,-0.011098684040574871,0.01857526338736814
2.2222222222222223,4.7594936708860756,0.019459488077827197,0.01755473048950576,-5.882655087406217e-05,-0.011104265570199888,0.018580757568773622
2.323232323232323,4.7594936708860756,0.019382922645252442,0.017428592053740977,6.872566074882523e-05,-0.011043454409698027,0.018483793693492047
2.4242424242424243,4.7594936708860756,0.0192012015437737,0.017223497846751135,0.00010795015762586498,-0.010927409817157452,0.018293663522297332
2.525252525252525,4.7594936708860756,0.019188006535981957,0.01744480826174169,6.290256793934997e-05,-0.010989844439317095,0.018378838520639054
2.6262626262626263,4.7594936708860756,0.019015534407370468,0.01709842384179084,-2.4203535124536915e-05,-0.01083418747474839,0.018133194347090972
2.727272727272727,4.7594936708860756,0.018801457884423216,0.017149704373718513,-7.707562814778535e-05,-0.010785348677442517,0.018032902044048973
2.8282828282828283,4.7594936708860756,0.018998593051333973,0.017173457297374923,-4.530624720444029e-05,-0.010851615104612668,0.018155131642755302
2.929292929292929,4.7594936708860756,0.01898026179679293,0.017081459645693242,-5.637709971834439e-05,-0.010818516432745852,0.018105953735933114
3.0303030303030303,4.7594936708860756,0.018888409218592063,0.016969041431691735,3.69464762028665e-05,-0.01075723519508514,0.01800572871162783
3.131313131313131,4.7594936708860756,0.018866440220976718,0.016983315087498545,9.947850178380866e-06,-0.010754926592542579,0.01799892096765275
3.2323232323232323,4.7594936708860756,0.01868683001347938,0.016898605269302626,6.230424732313146e-05,-0.010675630584834601,0.01786031235241239
3.3333333333333335,4.7594936708860756,0.018756213945122568,0.01676870278114709,5.107730127736041e-05,-0.010657475017880898,0.017845879195052598
3.4343434343434343,4.7594936708860756,0.018549538607753862,0.01676264588871669,-2.1208173099688707e-06,-0.010593655348941166,0.017723779116311598
3.5353535353535355,4.7594936708860756,0.018763537002558915,0.01674151290294979,6.266909178867941e-06,-0.010651514971652612,0.01783868538080001
3.6363636363636362,4.7594936708860756,0.018666589445467414,0.01697704508029052,-3.932908964031686e-06,-0.01069309035772738,0.01788178226788916
3.7373737373737375,4.7594936708860756,0.01851558166074299,0.016758571117320993,-4.5213395739844515e-05,-0.010582245833419195,0.017702765626965888
3.8383838383838382,4.7594936708860756,0.018415424785100075,0.016675846115361156,-4.292987879309375e-05,-0.010527381270138367,0.01761035072725773
3.9393939393939394,4.7594936708860756,0.01854519981604848,0.01661481071598309,0.00010803084777187113,-0.01054800315960947,0.01766030573641329
4.040404040404041,4.7594936708860756,0.01851727820869479,0.016751667066604112,6.229652052948593e-05,-0.010580683582589671,0.017700969035796415
4.141414141414141,4.7594936708860756,0.018480007176391765,0.016792059263903623,-2.580247733135494e-05,-0.010581619932088617,0.017696568626773868
4.242424242424242,4.7594936708860756,0.018407128276930335,0.016827756071079236,1.047915928853005e-05,-0.010570465304402872,0.0176704671872648
4.343434343434343,4.7594936708860756,0.018394160329798633,0.016474669636687464,-9.108104385396877e-06,-0.010460648989945828,0.017513492172360468
4.444444444444445,4.7594936708860756,0.018509811646855397,0.016681204424841407,6.466231039955217e-05,-0.010557304821509041,0.017666983329421737
4.545454545454545,4.7594936708860756,0.018378566481229475,0.016488842118294253,3.867060599950813e-05,-0.010460222579857117,0.017510477591566247
4.646464646464646,4.7594936708860756,0.018431658962185175,0.016540630587975183,-1.3330244908639297e-05,-0.010491686865048108,0.017562681555371953
4.747474747474747,4.7594936708860756,0.018461115671183394,0.016552267734607842,-0.00012910030669814506,-0.01050401502173737,0.01758598960483969
4.848484848484849,4.7594936708860756,0.01821997282977185,0.01664137185052508,1.639715417974371e-05,-0.01045840340408908,0.017484225193538646
4.94949494949495,4.7594936708860756,0.01829944161659413,0.016463064198528513,7.082238469987697e-05,-0.010428751744536792,0.01745428920303885
5.05050505050505,4.7594936708860756,0.018423360198758072,0.016617876086410206,5.388423279478408e-05,-0.010512370885550484,0.01759049744293309
5.151515151515151,4.7594936708860756,0.018370988065524025,0.016321415936178457,-3.526204704051825e-05,-0.010407721200510743,0.017436886577748407
5.252525252525253,4.7594936708860756,0.01842420619796817,0.016588315199107095,-2.7236334334403273e-05,-0.01050375641912258,0.017578374808800205
5.353535353535354,4.7594936708860756,0.018498067606474305,0.016551429645553003,-5.488486361507425e-05,-0.010514849175608193,0.01760590528666176
5.454545454545454,4.7594936708860756,0.018352236611808428,0.016677102633663517,6.334782130661503e-05,-0.010508801773641581,0.017574989223795696
5.555555555555555,4.7594936708860756,0.01851458771365289,0.016691922410203112,7.984277258666569e-05,-0.0105619530371568,0.01767442488418213
5.656565656565657,4.7594936708860756,0.018488335227638104,0.01658676703434977,-7.694276723925422e-05,-0.010522530678596362,0.017615204552766692
5.757575757575758,4.7594936708860756,0.018481730229817,0.016716543507914315,3.288258860551148e-05,-0.010559482121319394,0.017665496750596994
5.858585858585858,4.7594936708860756,0.018455024265607575,0.016614238963372906,-3.43917141832689e-05,-0.010520778968694142,0.017607050352702082
5.959595959595959,4.7594936708860756,0.018612179324094032,0.016456789251944166,4.161681497040008e-05,-0.010520690572811459,0.017633706782664703
6.0606060606060606,4.7594936708860756,0.01851170819393878,0.016661576470717428,6.586478957927976e-05,-0.010551985399396861,0.01765984834537676
6.161616161616162,4.7594936708860756,0.018615613792445425,0.016761623969492562,-1.0079150306830929e-05,-0.010613171328581398,0.017761348523738143
6.262626262626262,4.7594936708860756,0.018496598982160894,0.01680383208985826,9.47530305447575e-06,-0.010590129321605746,0.017710998634336086
6.363636363636363,4.7594936708860756,0.0185795910052853,0.016902076234948687,-6.432854204966324e-05,-0.010644500172070196,0.017800565549278575
6.4646464646464645,4.7594936708860756,0.01863815779282768,0.01678984611213123,-1.236446509154293e-05,-0.010628401171487674,0.017786188907806703
6.565656565656566,4.7594936708860756,0.01875197204443502,0.016823689432769823,-4.391673810405364e-05,-0.010672698443161452,0.017866208713592933
6.666666666666667,4.7594936708860756,0.018773313186827616,0.017046724218700272,0.0001107745583503278,-0.010746011221658367,0.017973352915923387
6.767676767676767,4.7594936708860756,0.018780176183895353,0.016778265106018212,6.417784269764271e-05,-0.010667532386974068,0.017863895966483148
6.8686868686868685,4.7594936708860756,0.018734007066184125,0.01695287976867652,4.400890612019848e-05,-0.010706066050458192,0.017910153382367674
6.96969696969697,4.7594936708860756,0.018760530203831772,0.017154532321210107,-8.17506353257046e-05,-0.010774518757512565,0.018011868321825594
7.070707070707071,4.7594936708860756,0.018874433492027835,0.01697518476169871,-7.796095860427782e-05,-0.010754885476117962,0.018000621524614725
7.171717171717171,4.7594936708860756,0.019072909686918854,0.017218604347632734,-4.9987296131231374e-05,-0.010887454210365476,0.018216883107101938
7.2727272727272725,4.7594936708860756,0.01904251049551637,0.017043230392986164,4.5038794759365725e-05,-0.01082572226655076,0.018125923425950357
7.373737373737374,4.7594936708860756,0.019063821259383256,0.017116434758425798,-8.688928622066052e-05,-0.010854076805342715,0.01816919415551541
7.474747474747475,4.7594936708860756,0.018974622325655385,0.017241629965348216,6.334303128109115e-05,-0.01086487568730108,0.018170545297566162
7.575757575757575,4.7594936708860756,0.01926806855194242,0.017309887648071308,5.616258305719473e-05,-0.010973386860004118,0.018367690028660427
7.6767676767676765,4.7594936708860756,0.019444298513094222,0.017378059328120147,-4.7907466614509707e-05,-0.01104670735236431,0.018498118901656577
7.777777777777778,4.7594936708860756,0.019454315645966287,0.017352346573530762,0.00010775801579050044,-0.011041998665849114,0.018494083832162268
7.878787878787879,4.7594936708860756,0.019462109942237217,0.017488624322531593,-6.786844488731849e-06,-0.011085220279430643,0.018554253231497973
7.979797979797979,4.7594936708860756,0.019464071662201085,0.01757788012455249,1.2451563956602644e-05,-0.011112585536026072,0.01859288310227604
8.080808080808081,4.7594936708860756,0.019872728262445852,0.0175889295634863,-6.3098845851107816e-06,-0.011238497347779645,0.018834964124833455
8.181818181818182,4.7594936708860756,0.019618864485954127,0.017790775658933833,-6.665513598505995e-05,-0.011222892043466387,0.018772055141448155
8.282828282828282,4.7594936708860756,0.019904500543967245,0.017929461966913227,-7.07004993750615e-05,-0.011350188753264143,0.01899454549432946
8.383838383838384,4.7594936708860756,0.0201239805200942,0.018115255756129142,-1.874711257127418e-05,-0.011471770882867003,0.019198621916505437
8.484848484848484,4.7594936708860756,0.020136500716014492,0.018068912564318744,-6.743342923386891e-05,-0.01146162398409997,0.019186798413392867
8.585858585858587,4.7594936708860756,0.020258667771545027,0.018069068646244097,5.105400306636099e-05,-0.011498320925336737,0.01925765880133683
8.686868686868687,4.7594936708860756,0.020481640411551868,0.01842342495804656,-8.82675965885374e-05,-0.011671519610879528,0.019534625399499995
8.787878787878787,4.7594936708860756,0.020516699673003718,0.0184348494688443,-1.5994208667712825e-05,-0.011685464742554406,0.01955906791710694
8.88888888888889,4.7594936708860756,0.02065093779280547,0.01847822793303402,4.505524465580341e-05,-0.011738749717751847,0.019655011921296997
8.98989898989899,4.7594936708860756,0.020854013174543086,0.01865334886331595,4.373812825507411e-05,-0.011852208611357712,0.019845549763794344
9.09090909090909,4.7594936708860756,0.020858893696260445,0.01890734033345581,2.69600917969305e-05,-0.011929870208914875,0.019954872667148127
9.191919191919192,4.7594936708860756,0.02113150950292154,0.018907953701193348,-1.796032350132683e-05,-0.012011838961234466,0.02011215481843325
9.292929292929292,4.7594936708860756,0.021368477961527504,0.019139776231210152,1.0183083998218666e-05,-0.012152476257821296,0.020345891700132013
9.393939393939394,4.7594936708860756,0.021610891901748863,0.019380020460617438,1.348556859329003e-05,-0.01229727370870989,0.020586327020540144
9.494949494949495,4.7594936708860756,0.02163203883004654,0.019627300496516092,8.297556043240438e-08,-0.012377801797968789,0.02070259651049136
9.595959595959595,4.7594936708860756,0.021921215464215812,0.019847137137480996,-3.7758015393107836e-05,-0.012530505780509044,0.020961379903221323
9.696969696969697,4.7594936708860756,0.02192377412224916,0.020009869872113152,-1.2740797909029659e-05,-0.012580093198308691,0.021032246284082217
9.797979797979798,4.7594936708860756,0.022487609867253518,0.020034014997848865,2.748028492631887e-05,-0.012756487459530716,0.02136678512616437
9.8989898989899,4.7594936708860756,0.022802388978434573,0.020428694112930863,0.00010241959148246451,-0.012969324927409629,0.02171379575562925
10.0,4.7594936708860756,0.022870609162349873,0.020683527591029024,-2.4137200103598313e-06,-0.013066241026013668,0.021859282213989757
0.0,4.860759493670886,0.02278490629902512,0.02054316032998023,-4.533066993028263e-05,-0.012998419988701604,0.021750990156843147
0.10101010101010101,4.860759493670886,0.02257138058456765,0.020390637783086106,3.374798061195073e-05,-0.012888605510296127,0.021563949121366915
0.20202020202020202,4.860759493670886,0.022346435785461447,0.020033372670852517,1.053454218067126e-05,-0.01271394253689419,0.021284385587968597
0.30303030303030304,4.860759493670886,0.02200214955487285,0.019915187783669706,6.65876627774124e-05,-0.012575201201562766,0.02103676902983544
0.40404040404040403,4.860759493670886,0.02198278607592036,0.01967084122486175,-3.550728525917265e-05,-0.01249608819023463,0.020922924410220166
0.5050505050505051,4.860759493670886,0.02167516936106605,0.019588621779194116,-3.3112543264655623e-05,-0.01237913734207805,0.020710955186733406
0.6060606060606061,4.860759493670886,0.02138412274421617,0.01946363423642463,6.230159375642747e-05,-0.012254327094192241,0.020491770644201192
0.7070707070707071,4.860759493670886,0.021242509697690384,0.019338442336270682,-2.873788831843203e-06,-0.01217428561018832,0.020357370806645608
0.8080808080808081,4.860759493670886,0.02119851517245247,0.01902415481180544,-1.3566178931784427e-05,-0.012066800995277373,0.020199312600252706
0.9090909090909091,4.860759493670886,0.020953182691343067,0.018859267419798383,-6.365352525247244e-05,-0.011943735033342435,0.019988954753817643
1.0101010101010102,4.860759493670886,0.02071301390872481,0.018687983863323893,8.729899194112789e-06,-0.01182029933161461,0.019778408555929085
1.1111111111111112,4.860759493670886,0.0206961825627696,0.018563346517724198,-2.5510300327614143e-06,-0.011777858724148138,0.019716475791202667
1.2121212121212122,4.860759493670886,0.020446896348434905,0.018387508010496302,2.7730168046110837e-05,-0.011650321307679361,0.019498996323137546
1.3131313131313131,4.860759493670886,0.02034926644949922,0.018260583106895763,6.07476277156445e-06,-0.011582954866918497,0.019389486325824715
1.4141414141414141,4.860759493670886,0.020104309470165505,0.018030098576476705,-9.37665969707325e-05,-0.011440322413992664,0.01915232124090179
1.5151515151515151,4.860759493670886,0.020136961610332797,0.017989872121109817,7.122373290385674e-05,-0.011438050119432783,0.01915428348993255
1.6161616161616161,4.860759493670886,0.019971581754316504,0.017991185980841033,1.0273003256203548e-06,-0.011388830320547261,0.019058709616842296
1.7171717171717171,4.860759493670886,0.01984009954479368,0.01790003362803011,1.0008976637324814e-05,-0.011322039951847137,0.01894472500026061
1.8181818181818181,4.860759493670886,0.019911602491689512,0.017970295078952443,-2.740903450315045e-05,-0.011364569271192585,0.019015475290056
1.9191919191919191,4.860759493670886,0.019635107794666744,0.017794212487426898,8.388112235464156e-05,-0.011228796084628092,0.018783005190120997
2.0202020202020203,4.860759493670886,0.019615439213608497,0.017610952493729688,-3.0899943662306774e-05,-0.011167917512201456,0.018694047169198733
2.121212121212121,4.860759493670886,0.019480880835782935,0.017596041920985205,-3.589064311429242e-05,-0.011123076827030441,0.01861028957307433
2.2222222222222223,4.860759493670886,0.01929780750833813,0.017415548309334963,4.5952075687421144e-05,-0.011014006745301928,0.018429083900121615
2.323232323232323,4.860759493670886,0.019340124838238798,0.017420131177421336,-2.497012517468911e-05,-0.011028076804698039,0.018455236596935227
2.4242424242424243,4.860759493670886,0.019200399571723325,0.017455857070100826,-6.737228539056543e-05,-0.010996876992547243,0.018390662745733526
2.525252525252525,4.860759493670886,0.019366590566425382,0.016981777121127254,2.171504421401509e-05,-0.01090451030626579,0.018291196636455252
2.6262626262626263,4.860759493670886,0.01906371802346202,0.017282204169968916,-1.3993414154258188e-05,-0.010903776658029283,0.018238350971984663
2.727272727272727,4.860759493670886,0.01893771398215367,0.017258589287581862,4.7861735900726554e-05,-0.010858890980920658,0.01815666708514803
2.8282828282828283,4.860759493670886,0.019033997381006234,0.01708810966688866,1.8347907127743346e-05,-0.010836632114368468,0.01813952930974086
2.929292929292929,4.860759493670886,0.01892652135473831,0.01705128083656694,-7.326769441376832e-05,-0.010793340657391575,0.018062504320969727
3.0303030303030303,4.860759493670886,0.019006161449944114,0.017146551768097536,-9.439244304097028e-05,-0.010845813965412494,0.01814869166587536
3.131313131313131,4.860759493670886,0.01875090963882076,0.01698023261383176,1.976321511834063e-05,-0.010719342675795754,0.01793129321239703
3.2323232323232323,4.860759493670886,0.018626209768245104,0.01686448244002254,-2.1508104467637508e-05,-0.010647207662480293,0.017810852268642995
3.3333333333333335,4.860759493670886,0.018789282717465022,0.016814303228218107,3.018610615864529e-05,-0.010681075783704938,0.017883846751695673
3.4343434343434343,4.860759493670886,0.018772663787910558,0.016868309539413165,-5.0413759901473066e-05,-0.010692291998197117,0.017896851494023747
3.5353535353535355,4.860759493670886,0.01871257421554994,0.016790906492515394,-3.6772956618862e-05,-0.0106510442124196,0.017829692859842594
3.6363636363636362,4.860759493670886,0.018675140688605256,0.01676283310397682,3.273099169532936e-05,-0.010631392137774623,0.017796303009559488
3.7373737373737375,4.860759493670886,0.018498556497339502,0.016567025562790612,0.00012199601460288616,-0.010519674618039035,0.01761367421068092
3.8383838383838382,4.860759493670886,0.01855183612762215,0.016842385206586624,-4.120617929880278e-06,-0.010618266400262632,0.01775892574850146
3.9393939393939394,4.860759493670886,0.018554237142380234,0.016757542649771417,8.191352633536292e-05,-0.010593533937645495,0.017724888175234578
4.040404040404041,4.860759493670886,0.01852849503051718,0.01653522919578337,-3.105072529497168e-06,-0.010519117267890165,0.017616641268836636
4.141414141414141,4.860759493670886,0.01860037356643745,0.016855052569725512,0.00012312956540184842,-0.010636627840848888,0.017793310606237046
4.242424242424242,4.860759493670886,0.018524770461998078,0.01668987362442953,5.5211708660151953e-05,-0.010564393225928281,0.01767914221152009
4.343434343434343,4.860759493670886,0.018325072055291124,0.016607479619545545,0.00011027022119673142,-0.010479765502451,0.01753054086516813
4.444444444444445,4.860759493670886,0.018643071712183015,0.016577817595743626,4.685606300478132e-05,-0.010566266792377993,0.017701223214973832
4.545454545454545,4.860759493670886,0.01835422191460258,0.016627968060841082,-2.6213125634957852e-05,-0.0104946569926331,0.017554926075865264
4.646464646464646,4.860759493670886,0.018444413858393585,0.016638579008097724,-2.2512488871616268e-05,-0.010524897859947393,0.017611115727969733
4.747474747474747,4.860759493670886,0.018334617573915073,0.016604949098612178,2.3249682789769894e-05,-0.010481870001758174,0.017533931853269142
4.848484848484849,4.860759493670886,0.018420678431425985,0.01669645040130072,3.924391435912545e-05,-0.010535138649818011,0.017622074972684865
4.94949494949495,4.860759493670886,0.018362427516700527,0.016414208438553273,-3.784409401855572e-05,-0.010432990786576139,0.017470104945299034
5.05050505050505,4.860759493670886,0.01844645909364851,0.016472254771936343,0.00010394617938702905,-0.010475614159675456,0.01754379294677108
5.151515151515151,4.860759493670886,0.01844030155155783,0.0166533686554823,-0.0001190206927664608,-0.010528101062112038,0.017616150737529226
5.252525252525253,4.860759493670886,0.018541935532376205,0.01646935044688189,7.021756596163927e-05,-0.010503385793777428,0.01759784176262866
5.353535353535354,4.860759493670886,0.018098317202320312,0.016670281043072145,2.398639047820103e-05,-0.010430579473617736,0.01742828297573377
5.454545454545454,4.860759493670886,0.01853452268102092,0.016566184937911236,-3.7871416777333244e-05,-0.010530212285679647,0.017633065152527487
5.555555555555555,4.860759493670886,0.018413853354100958,0.016630174345515288,-9.687432486956579e-06,-0.010513208309884873,0.017589979647406197
5.656565656565657,4.860759493670886,0.018548449299666647,0.016566867167870904,6.036690970575271e-05,-0.010534594940261264,0.01764163529704602
5.757575757575758,4.860759493670886,0.018494635124717797,0.016591368819707127,-4.095315759106202e-05,-0.010525801183327478,0.017620407675511998
5.858585858585858,4.860759493670886,0.018553017162429332,0.016583120698700545,5.596517321711398e-06,-0.010540841358338961,0.01765070845519969
5.959595959595959,4.860759493670886,0.0185634823598372,0.016558130974401553,-4.341456551760595e-06,-0.010536484000271627,0.017646474519829192
6.0606060606060606,4.860759493670886,0.018519056807843954,0.01683591052054211,-4.6120532880118875e-05,-0.010606490198515818,0.01773765897960648
6.161616161616162,4.860759493670886,0.018707638694422685,0.016566498700834507,8.502705826313296e-05,-0.010582241218577157,0.017734887690675917
6.262626262626262,4.860759493670886,0.018788571329852236,0.016671567587016777,-7.122594107448196e-05,-0.010638041675060704,0.017825034671504637
6.363636363636363,4.860759493670886,0.01848580960417598,0.016734273021906325,-7.73573352301376e-05,-0.010566024787824691,0.017675757913544456
6.4646464646464645,4.860759493670886,0.018630845071917146,0.01689464964351169,-6.779866491224303e-05,-0.01065764841462865,0.0178266588174872
6.565656565656566,4.860759493670886,0.018665730370232683,0.01688250290257334,5.8536988877669064e-05,-0.010664469981841807,0.01784136841984717
6.666666666666667,4.860759493670886,0.018685042005112083,0.01690461857642934,2.960215052742402e-05,-0.010676898174462426,0.01786158012686252
6.767676767676767,4.860759493670886,0.018740452892778762,0.016650342753746956,7.388056555497224e-05,-0.010617238693957715,0.017788195508044054
6.8686868686868685,4.860759493670886,0.018952356874069886,0.016991829271748544,3.8138827412946324e-05,-0.010783255843745529,0.018052236550947877
6.96969696969697,4.860759493670886,0.018930468157655218,0.016985072187566903,-2.8661799170707183e-05,-0.010774662103566637,0.018036695877539255
7.070707070707071,4.860759493670886,0.019020255813850372,0.016981362139563656,-7.029708642651217e-05,-0.010800485386024208,0.01808761356338256
7.171717171717171,4.860759493670886,0.018886037739732048,0.017231328517024695,8.629138074271281e-05,-0.01083520987702702,0.01811606805841526
7.2727272727272725,4.860759493670886,0.01898518266983955,0.017018891211193075,-1.3988795738869681e-05,-0.010801222164309787,0.01808241266098615
7.373737373737374,4.860759493670886,0.018783765588817888,0.017252209897246372,2.1416605424676293e-05,-0.010810792645819276,0.01806677905572293
7.474747474747475,4.860759493670886,0.0190922025216464,0.01721155933097002,-8.850832035966024e-05,-0.010891128555784925,0.01822544639889977
7.575757575757575,4.860759493670886,0.01902651608480081,0.017284355504233465,-3.5408589738437193e-06,-0.010893261476710282,0.018218019352230445
7.6767676767676765,4.860759493670886,0.019468842174938748,0.01728924262570016,2.4898280470091692e-05,-0.011027425440191673,0.01847576926604498
7.777777777777778,4.860759493670886,0.019425900987506538,0.017416344032661207,4.5589100715547054e-05,-0.011052673506050324,0.01850331670257812
7.878787878787879,4.860759493670886,0.01956873858381446,0.01753904903228584,6.120126070441774e-05,-0.01113233628483009,0.01863727292229272
7.979797979797979,4.860759493670886,0.019482990039772767,0.01756250315707055,-4.6361660075303774e-05,-0.011113647959052996,0.018597440473352492
8.080808080808081,4.860759493670886,0.01972104590957981,0.017862162809586763,8.199178566903289e-05,-0.011274962615749971,0.01886096888154055
8.181818181818182,4.860759493670886,0.019729932409017784,0.01772112124364608,6.233774513191983e-06,-0.011235316095799159,0.018806168222875765
8.282828282828282,4.860759493670886,0.020002911927454244,0.018027019441186034,6.568468195207061e-05,-0.011408979410592083,0.01909214437265155
8.383838383838384,4.860759493670886,0.019970179546019533,0.01807407767630304,6.093638497585361e-05,-0.011413277166696772,0.019093164178675553
8.484848484848484,4.860759493670886,0.02004252776419191,0.018152288702411215,6.443816939683129e-05,-0.011458444939980937,0.01916776488914164
8.585858585858587,4.860759493670886,0.020101439781939956,0.01819526153397759,1.569148988073533e-05,-0.011489010394775264,0.019219396666479097
8.686868686868687,4.860759493670886,0.020251692543319825,0.01829775517764406,-5.6675346848893284e-05,-0.011564834316289166,0.019349109013192086
8.787878787878787,4.860759493670886,0.020432530904790087,0.01838456724582589,-2.4579950941515178e-05,-0.01164512944518479,0.01948946397651644
8.88888888888889,4.860759493670886,0.020810923301833623,0.018568528513433248,-1.0370011091258273e-05,-0.011813835544580062,0.019785269260725397
8.98989898989899,4.860759493670886,0.02104546580266656,0.018644185359027895,2.0933077849256732e-05,-0.011906895348508336,0.019953521687718297
9.09090909090909,4.860759493670886,0.021039294380538986,0.018716179482668713,-6.292930093575928e-06,-0.01192664215896231,0.019979294067771394
9.191919191919192,4.860759493670886,0.021148409680300368,0.018996237645779495,-1.3661796343225527e-05,-0.01204339419782396,0.020158685981916107
9.292929292929292,4.860759493670886,0.021274083263404752,0.01933217669441056,3.205017791530528e-05,-0.012181877987344594,0.020372737160827433
9.393939393939394,4.860759493670886,0.021475223462487848,0.019462360226341142,-3.4929959365383473e-07,-0.012281275106648698,0.020542885720890657
9.494949494949495,4.860759493670886,0.021670989318019133,0.01971406616825143,-3.9733414084947694e-05,-0.012415516645881168,0.020761926736061385
9.595959595959595,4.860759493670886,0.02185926066313311,0.019709088437353767,-2.316459593093145e-05,-0.012470504730146062,0.020867461560546495
9.696969696969697,4.860759493670886,0.022157288219172688,0.0200009458199566,-2.374514882197314e-05,-0.012647470211738785,0.021161716027481566
9.797979797979798,4.860759493670886,0.022341784637305746,0.02011404785182049,2.852082885007785e-05,-0.012736749746737872,0.021315463325676846
9.8989898989899,4.860759493670886,0.022583680794832438,0.02034220506483269,6.725222314666538e-05,-0.012877765757899538,0.02155086188253123
10.0,4.860759493670886,0.022841046099655368,0.020432687712827795,-5.904834384350906e-05,-0.012982120143744948,0.021737401229877874
0.0,4.962025316455696,0.022828973047552003,0.020420264756222356,-8.751916428505319e-05,-0.012974771341132308,0.021725527109572
0.10101010101010101,4.962025316455696,0.022608168538528428,0.020323087982477537,6.0546745270990735e-06,-0.012879376956301787,0.02155665793800344
0.20202020202020202,4.962025316455696,0.022414598462919044,0.020240612375933508,8.53135485749418e-06,-0.012796563251655766,0.021410549570447582
0.30303030303030304,4.962025316455696,0.02227147970215814,0.020038141072800622,6.085039617106737e-05,-0.012692886232487629,0.021243303931295233
0.40404040404040403,4.962025316455696,0.021847784603553574,0.01988172045033106,1.852956450332082e-05,-0.01251885151616539,0.020934134427670226
0.5050505050505051,4.962025316455696,0.021798360114499288,0.019490616646455704,-3.44208719423907e-05,-0.012386693028286497,0.02074108759965758
0.6060606060606061,4.962025316455696,0.02149350835058724,0.019333781246261363,-2.752237785193063e-05,-0.01224818687905458,0.020499206869387734
0.7070707070707071,4.962025316455696,0.021393168706430307,0.01957867751871986,2.46585258882712e-06,-0.01229155386754505,0.020546102981303636
0.8080808080808081,4.962025316455696,0.02116024447353504,0.018833808531331018,-5.7781832847103756e-05,-0.011998215901459816,0.02009851520148975
0.9090909090909091,4.962025316455696,0.020932523821077985,0.019019774468220403,5.672878117892743e-05,-0.011985689486789516,0.020044953147319994
1.0101010101010102,4.962025316455696,0.020843404016038684,0.018798147554608003,-2.5449997681521958e-05,-0.011892465471194005,0.019899809077827207
1.1111111111111112,4.962025316455696,0.020551373806542723,0.018500728774258176,-2.9258711774549995e-05,-0.011715630774240269,0.019606710738885248
1.2121212121212122,4.962025316455696,0.02046008860786906,0.018483618335747163,-0.00011779747182372436,-0.011683112083084866,0.01954800584236423
1.3131313131313131,4.962025316455696,0.020332004252579024,0.0184561943740849,-1.4702284134913371e-05,-0.011636459587999177,0.01946203313305297
1.4141414141414141,4.962025316455696,0.02019284839617454,0.018163754839155104,4.287356935985307e-05,-0.011506980970598895,0.01925878196730851
1.5151515151515151,4.962025316455696,0.019733327147385123,0.01817314345370324,3.6229159204800536e-06,-0.011371941180326509,0.019001336732000638
1.6161616161616161,4.962025316455696,0.01995928331026365,0.01813793884661399,4.5205180120922536e-05,-0.011429166647063291,0.019113965739322697
1.7171717171717171,4.962025316455696,0.020080310251803134,0.018087439756898423,-4.500919562204173e-05,-0.011450325002610466,0.019161915673331108
1.8181818181818181,4.962025316455696,0.019840099623564398,0.017794089248659318,1.2075816813218636e-05,-0.011290256661667114,0.01890034654005771
1.9191919191919191,4.962025316455696,0.01983600020088221,0.017808309550275646,-8.324104686554659e-06,-0.011293292925347358,0.01890389825044967
2.0202020202020203,4.962025316455696,0.019547715193339716,0.017579810058426796,0.00013487450460918383,-0.011138257575529954,0.01864329220366224
2.121212121212121,4.962025316455696,0.019393086691889116,0.017626652790818122,4.017674093464841e-06,-0.011105921844812171,0.0185729788351824
2.2222222222222223,4.962025316455696,0.019378300731378903,0.01739296984181791,-4.493378197089543e-06,-0.011031381171959046,0.0184658549631188
2.323232323232323,4.962025316455696,0.019309666656317163,0.017311557963662263,-3.383662472452597e-05,-0.010986367385993826,0.01839228878304743
2.4242424242424243,4.962025316455696,0.019208347025876663,0.017435052949312368,-1.6335507596013248e-05,-0.01099301999255671,0.018385970735681312
2.525252525252525,4.962025316455696,0.01927967086583377,0.01730015650985811,2.3415795923598434e-05,-0.010973948212707564,0.018370123718186707
2.6262626262626263,4.962025316455696,0.019161580124486287,0.01721217972561437,3.519546061558816e-05,-0.010912127955030198,0.018265170106130522
2.727272727272727,4.962025316455696,0.019092585270510925,0.017213706506650894,-8.95371931257204e-05,-0.010891887533148546,0.01822658485388647
2.8282828282828283,4.962025316455696,0.018869504962545726,0.016955207923461547,-8.571692676909622e-05,-0.010747413865802182,0.017989523489553662
2.929292929292929,4.962025316455696,0.01888855623094045,0.017005809814731,7.626243427271647e-05,-0.010768309813701435,0.0180215808652465
3.0303030303030303,4.962025316455696,0.0190069704245377,0.016983932356861416,-9.103733382144988e-05,-0.010797270834419734,0.018081223587216914
3.131313131313131,4.962025316455696,0.018724458004197315,0.016892298131806267,9.318645273117355e-06,-0.010685026840801075,0.017878931659157837
3.2323232323232323,4.962025316455696,0.01869482544507557,0.017046414509576707,3.150487196672541e-05,-0.010722371986395682,0.01792763174555092
3.3333333333333335,4.962025316455696,0.018699022015450473,0.016896421927171053,-6.31025024145842e-05,-0.010678633182786458,0.017866389631210036
3.4343434343434343,4.962025316455696,0.01867804143911421,0.016646316300673415,5.194182496383421e-05,-0.010597307321936285,0.017749833423733714
3.5353535353535355,4.962025316455696,0.01874461961288707,0.01692206057765339,-8.052243678963259e-05,-0.010700004057162139,0.017903596332014875
3.6363636363636362,4.962025316455696,0.018663739483020282,0.016697738814266522,-4.233245261694826e-05,-0.010608443489186043,0.017762679469161186
3.7373737373737375,4.962025316455696,0.018638206653791834,0.01680031327341972,2.765798025492786e-05,-0.010631555978163468,0.01779066771112511
3.8383838383838382,4.962025316455696,0.01864036389042619,0.016721464920082436,-1.610710715816311e-05,-0.010608548643152589,0.01775886095633451
3.9393939393939394,4.962025316455696,0.018613900071453818,0.016750537234604543,-4.622514413804875e-05,-0.010609331191817508,0.01775588233745927
4.040404040404041,4.962025316455696,0.01854970715294868,0.016589437795334908,2.9267726185415416e-05,-0.010541743484485076,0.017651471289649168
4.141414141414141,4.962025316455696,0.018556147625300452,0.0166203729430847,1.0382841641461111e-05,-0.010552956170515543,0.01766798349982075
4.242424242424242,4.962025316455696,0.018273883792082765,0.016635536851670425,-6.622430594866394e-05,-0.010472826193125956,0.017512658419542974
4.343434343434343,4.962025316455696,0.018524883428231772,0.016686435462353343,-3.9518401441315665e-05,-0.010563395667175533,0.017677636940728488
4.444444444444445,4.962025316455696,0.018398531354838692,0.01662401867305738,5.785720477682231e-06,-0.010506765008368823,0.017578581412649806
4.545454545454545,4.962025316455696,0.018546135865265895,0.01664065821613468,3.8041891128907086e-05,-0.010556038224420172,0.01767074120662932
4.646464646464646,4.962025316455696,0.018374624660068176,0.016481698405703744,-2.0887487890771652e-05,-0.010456896919731578,0.01750512783818398
4.747474747474747,4.962025316455696,0.018384056929933012,0.01664769567174901,-2.1735603882800686e-05,-0.010509525780504606,0.017580345636817953
4.848484848484849,4.962025316455696,0.018432585669464176,0.016715504443266548,3.863501961391496e-05,-0.010544427033819215,0.017636972914601923
4.94949494949495,4.962025316455696,0.018387833450000616,0.01658190147220081,7.179455480612307e-06,-0.010490920476660429,0.017554679931497792
5.05050505050505,4.962025316455696,0.018431836892795594,0.016555867788429202,1.856049321039463e-05,-0.010496311404367438,0.017569159008082244
5.151515151515151,4.962025316455696,0.018550956917192635,0.016462028226134115,5.677108848395264e-05,-0.010503895542998024,0.017599990577793316
5.252525252525253,4.962025316455696,0.01852895254205004,0.016567836566938256,-4.8893509112426514e-05,-0.010529036732696487,0.017630592873377197
5.353535353535354,4.962025316455696,0.018373514558011624,0.01658932496669589,-6.869353599536489e-05,-0.010488851857412253,0.01754997699960301
5.454545454545454,4.962025316455696,0.018350074712801933,0.016627288773184385,-2.5103581604638805e-05,-0.010493209045795895,0.017552261199698414
5.555555555555555,4.962025316455696,0.018487768845392404,0.01651623732883332,-3.6702771520610476e-05,-0.010501201852267716,0.017585202749249417
5.656565656565657,4.962025316455696,0.018343301855475516,0.016774517965145116,1.0110151591971926e-05,-0.01053534594618619,0.017611400740849933
5.757575757575758,4.962025316455696,0.018538739850917658,0.016593292525575135,-5.3105444168001276e-05,-0.010539609712947836,0.01764686825649518
5.858585858585858,4.962025316455696,0.018594223375273323,0.016523615700743375,-1.969621180093456e-05,-0.010535351722805009,0.01765027992046857
5.959595959595959,4.962025316455696,0.018547464845854993,0.016602239044131512,0.0001110313972363919,-0.01054491116699595,0.017656452995058716
6.0606060606060606,4.962025316455696,0.018410211577645618,0.01665272647882409,1.408324565930004e-05,-0.010518881416940911,0.017597430684785142
6.161616161616162,4.962025316455696,0.018447998703935965,0.016798757116960668,-2.461504147617694e-05,-0.01057402674626899,0.017681212204892372
6.262626262626262,4.962025316455696,0.01861473275260338,0.016773980088942802,4.71842970790597e-05,-0.010616613852463855,0.01776620966879561
6.363636363636363,4.962025316455696,0.018606641708858063,0.016806947236979546,-3.9170692475709545e-05,-0.010624076683751283,0.0177753860346187
6.4646464646464645,4.962025316455696,0.018712965276542298,0.016819600077310273,-4.672451426259079e-05,-0.010659769606155773,0.017841972243291867
6.565656565656566,4.962025316455696,0.018536524595701535,0.01671914891221313,8.452365741194247e-05,-0.0105767020523744,0.017698564974351936
6.666666666666667,4.962025316455696,0.018830748135275733,0.01690155502242852,1.7102792272162108e-05,-0.010719690947311275,0.017944124088542845
6.767676767676767,4.962025316455696,0.018861331286043847,0.016822025677707072,0.00010442072259588682,-0.010705007089125276,0.017929787439779802
6.8686868686868685,4.962025316455696,0.018833096573664904,0.016866231470074336,7.148356581952689e-05,-0.01070979841312177,0.017931181058311953
6.96969696969697,4.962025316455696,0.01890087078070253,0.01692431151495959,-2.0674740183084103e-06,-0.010747554688698634,0.017994194184540405
7.070707070707071,4.962025316455696,0.01910452438594989,0.017055863878590427,3.8409818366763676e-05,-0.010848116479362097,0.018167157268236214
7.171717171717171,4.962025316455696,0.018904073297917837,0.017069251130922523,-4.3846219438321624e-06,-0.010791997328652108,0.018056716328799998
7.2727272727272725,4.962025316455696,0.019116316959843515,0.01730244367358359,-6.010868093016141e-05,-0.01092562819002813,0.0182773075944801
7.373737373737374,4.962025316455696,0.01929031220180791,0.017256525438720822,-8.022827445487493e-05,-0.01096405129215862,0.01835863179970499
7.474747474747475,4.962025316455696,0.018983878274299034,0.017081302053976257,0.0001409506397375457,-0.010819554098482587,0.01810935549603807
7.575757575757575,4.962025316455696,0.019342776455869286,0.01729915548698117,-2.2089590298371617e-05,-0.010992579582855136,0.01840629098907434
7.6767676767676765,4.962025316455696,0.019303476457670554,0.017445749024846986,1.3084611537447894e-05,-0.011024767644755261,0.01844492532984087
7.777777777777778,4.962025316455696,0.019352998035715715,0.0175666905516863,8.015911368744873e-06,-0.011075906576220604,0.01852455707791189
7.878787878787879,4.962025316455696,0.0195453506894595,0.017851127903494492,3.178087264746383e-05,-0.011218943577886196,0.018755798463309353
7.979797979797979,4.962025316455696,0.019657700481806987,0.017735395690798184,-6.757872928555756e-05,-0.01121792885178155,0.018770883111338475
8.080808080808081,4.962025316455696,0.01974550365328081,0.017721458991720836,-3.088136352215766e-07,-0.011240088793500492,0.018815309998524522
8.181818181818182,4.962025316455696,0.019819962471495364,0.017773398935497335,-5.6199750063417614e-05,-0.011278008422097809,0.018880307132964527
8.282828282828282,4.962025316455696,0.019898035792136833,0.01791256441003489,-8.688330386795147e-05,-0.011343180060651516,0.01898392979586812
8.383838383838384,4.962025316455696,0.020052549212561915,0.01799719440332672,-4.108266652988834e-05,-0.01141492308476659,0.01910809182543005
8.484848484848484,4.962025316455696,0.02009018638196904,0.018075441413231582,6.30264374418079e-05,-0.011449688338560186,0.01916272687309108
8.585858585858587,4.962025316455696,0.02018872737376136,0.01836798668923998,-5.637812653909406e-08,-0.011567014218900402,0.019342734354887637
8.686868686868687,4.962025316455696,0.020194850675653617,0.01823836920156686,-4.2696801412702984e-05,-0.011529965963166144,0.019291304554178806
8.787878787878787,4.962025316455696,0.020405166736502597,0.018327519331542395,1.3397912433606984e-05,-0.011619805820413496,0.019449762082814993
8.88888888888889,4.962025316455696,0.0207067184146519,0.018681055162443703,-2.92402810252846e-05,-0.01181633207312868,0.019771930242916368
8.98989898989899,4.962025316455696,0.020780188055998967,0.018683447506371364,4.98340902278902e-05,-0.011839090668711099,0.019815380994542626
9.09090909090909,4.962025316455696,0.020857012697884238,0.018880935525781687,-1.1051308605561388e-05,-0.011921384467099777,0.019942546462112926
9.191919191919192,4.962025316455696,0.02111805045350098,0.01907147966325468,2.530133871606973e-05,-0.012056859035026698,0.02017282434921402
9.292929292929292,4.962025316455696,0.021610855863889118,0.019221250991120716,4.335569698178498e-06,-0.01224963205650295,0.020520671347014893
9.393939393939394,4.962025316455696,0.021217565334943095,0.01938712296148176,1.8028809908738553e-05,-0.012181406488927456,0.020364160736164347
9.494949494949495,4.962025316455696,0.021758876250705037,0.01953280077640618,2.8901056312461516e-05,-0.012387503108133364,0.020735711050116897
9.595959595959595,4.962025316455696,0.02160960932055236,0.019690090872897335,-2.2302591046376952e-05,-0.012389910058034909,0.020716689275486935
9.696969696969697,4.962025316455696,0.02214863586615448,0.019874740534454143,-6.548944813137914e-06,-0.012607012920182587,0.021103770271624175
9.797979797979798,4.962025316455696,0.022335067510497686,0.020068066230544076,2.6678640716607754e-05,-0.01272094012231253,0.02129232359601139
9.8989898989899,4.962025316455696,0.022516995762954194,0.020393483520906062,-1.87752315783816e-05,-0.012873143785158076,0.021533934703212246
10.0,4.962025316455696,0.022694125865054805,0.02062428304791403,-3.4164952282252484e-06,-0.01299552267389065,0.0217332546957621
0.0,5.063291139240507,0.02763014890521752,0.02487650520890119,-9.347757259198378e-06,-0.015751996234235614,0.02636141799887326
0.10101010101010101,5.063291139240507,0.027371310281299202,0.02441397110424387,-4.6944768920146206e-05,-0.01553558441566292,0.026019124595863422
0.20202020202020202,5.063291139240507,0.026975372642074974,0.024149118467353167,5.397943192364468e-05,-0.015337347332828441,0.025679328722375338
0.30303030303030304,5.063291139240507,0.026669756688253013,0.023868985607173692,4.017171192887596e-05,-0.015161622688628012,0.02538561006725392
0.40404040404040403,5.063291139240507,0.026294046966930548,0.023710336321480195,7.234194154923156e-05,-0.01500131498652322,0.025102429316854066
0.5050505050505051,5.063291139240507,0.0261552631571717,0.02333611561648269,-2.3642837339695887e-05,-0.014847413632096317,0.02486587048190218
0.6060606060606061,5.063291139240507,0.02595544156307573,0.023349321236779973,-4.031167271771112e-06,-0.01479142883995671,0.024755481308283755
0.7070707070707071,5.063291139240507,0.02564167625837894,0.023185787366221337,9.777443055528139e-05,-0.014648239087380083,0.024506785248348963
0.8080808080808081,5.063291139240507,0.025439352471836367,0.022755236638687552,1.8704769877965157e-05,-0.014458376733157176,0.02420917208089997
0.9090909090909091,5.063291139240507,0.025205497943847622,0.022819003585816223,7.267150214306668e-05,-0.014407350458899152,0.02410135985220604
1.0101010101010102,5.063291139240507,0.024977774204695415,0.02258974627825568,-9.474694066232527e-05,-0.014270256144885328,0.023874069410248843
1.1111111111111112,5.063291139240507,0.024897604462936467,0.022435792364891943,-1.9072081240694083e-05,-0.014200019048348523,0.023762556557588167
1.2121212121212122,5.063291139240507,0.024470740963175565,0.022162741873149264,2.4861833641551492e-05,-0.01399004485089745,0.02340229539048335
1.3131313131313131,5.063291139240507,0.024523194299867664,0.022060217334102423,3.569717726071713e-05,-0.013975023490191026,0.023389251257378584
1.4141414141414141,5.063291139240507,0.024359556160674867,0.02187434118579633,1.3279187502443025e-05,-0.013870169203941358,0.023216934876830568
1.5151515151515151,5.063291139240507,0.0241240322654809,0.0217862920656704,3.2809807871119285e-06,-0.01377309729934539,0.02304426770964393
1.6161616161616161,5.063291139240507,0.02423890163972669,0.02159247072837302,4.503718650367008e-05,-0.013749411710429914,0.02303014233036314
1.7171717171717171,5.063291139240507,0.023862657357499265,0.02137885539975639,-3.7221807642102334e-06,-0.013572453827176697,0.022722799449651578
1.8181818181818181,5.063291139240507,0.02379823706377357,0.0214148333565212,1.9784077813243315e-05,-0.01356392112608843,0.0227005962115678
1.9191919191919191,5.063291139240507,0.023669198734685374,0.021299556533987785,-3.185383053591396e-05,-0.013490626580601947,0.022577902575804287
2.0202020202020203,5.063291139240507,0.023516671400505288,0.021172047464947753,-4.405396512344924e-05,-0.013406615659635914,0.022436558710368128
2.121212121212121,5.063291139240507,0.023290000431434546,0.020944570714447174,2.438245632784709e-05,-0.013270371343764516,0.02221040038012695
2.2222222222222223,5.063291139240507,0.02345136195279864,0.020949239639860354,-4.106831604241887e-05,-0.013320180477797696,0.022305915747149532
2.323232323232323,5.063291139240507,0.023332968842795516,0.02084370656729702,-1.2745495433455207e-05,-0.01325300262302776,0.0221932978604419
2.4242424242424243,5.063291139240507,0.02313622948706813,0.02103266785491331,7.256015232216958e-05,-0.013250669202594432,0.022159814906355702
2.525252525252525,5.063291139240507,0.02317413066822477,0.02071335356665384,-2.9149630823181524e-05,-0.013166245270463582,0.02204703914763438
2.6262626262626263,5.063291139240507,0.023092187364547354,0.02065332738139588,-1.7356157365289668e-05,-0.01312365442378297,0.021974518136208196
2.727272727272727,5.063291139240507,0.022915627166526294,0.0206474867213225,-6.766789803048716e-05,-0.013068934166354637,0.021870260756197437
2.8282828282828283,5.063291139240507,0.02302316067878955,0.020561636765670726,4.5978548616641874e-05,-0.013075439233338083,0.02189655929890809
2.929292929292929,5.063291139240507,0.022717087087421713,0.02038064076165622,6.490575052930964e-05,-0.01292931835472338,0.02164394628487466
3.0303030303030303,5.063291139240507,0.022709785828842102,0.020585754195840703,-2.896617727925625e-05,-0.01298866200740484,0.02172583937179411
3.131313131313131,5.063291139240507,0.022674989071681306,0.02041868501454485,-8.478146740433561e-06,-0.012928102225867847,0.021635262494318717
3.2323232323232323,5.063291139240507,0.022623088093251056,0.020324525662335474,-7.267757277036791e-05,-0.012884284126675959,0.021566241440040615
3.3333333333333335,5.063291139240507,0.022470376663937194,0.020515925545040666,-1.2893357678645704e-05,-0.012895890662693357,0.021559706688601476
3.4343434343434343,5.063291139240507,0.022565694635243938,0.020186371940993795,-7.977641291748811e-05,-0.012825619972871318,0.0214755622586574
3.5353535353535355,5.063291139240507,0.02236827924681703,0.020167636161966724,4.274028661408267e-05,-0.012760774622635125,0.02135330484028821
3.6363636363636362,5.063291139240507,0.022563631372209278,0.02006120610241369,2.6308083635542834e-05,-0.012787451242386888,0.021422368402057766
3.7373737373737375,5.063291139240507,0.02223596930736622,0.02031120302694821,-4.069188084977645e-05,-0.012764151700294329,0.021338907653032282
3.8383838383838382,5.063291139240507,0.022232795285930817,0.020140556955948182,-6.443658708606584e-05,-0.0127120056725637,0.021264308058268445
3.9393939393939394,5.063291139240507,0.022361379998939026,0.020153174862610326,-6.274003208554813e-05,-0.012754366458464806,0.021343401325629476
4.040404040404041,5.063291139240507,0.02234974290036719,0.02002428512358727,2.822492839019144e-05,-0.012712208407186338,0.021282569583749914
4.141414141414141,5.063291139240507,0.02232485657234707,0.020020958816191946,-5.683018791594974e-05,-0.012703744616561704,0.0212669383761261
4.242424242424242,5.063291139240507,0.02217170717344181,0.02001257903330853,1.4270013166857232e-05,-0.012655285862025101,0.021174878685301143
4.343434343434343,5.063291139240507,0.022119808539289236,0.020196668466032575,3.8136900720951935e-05,-0.012694943101596542,0.021223790203709996
4.444444444444445,5.063291139240507,0.02229644281396543,0.019932726233607954,-7.473133465143405e-06,-0.012668750714272016,0.0212135856047368
4.545454545454545,5.063291139240507,0.02223919403531058,0.01990781262874148,-8.80817170793365e-06,-0.01264410199921562,0.02117000897221706
4.646464646464646,5.063291139240507,0.022198233792588107,0.01996878802869984,2.9286673718080348e-05,-0.012650106546386384,0.02117179318710641
4.747474747474747,5.063291139240507,0.022191514104034384,0.02005736098947564,-1.3213600818184282e-05,-0.012674662528053007,0.021205148964385474
4.848484848484849,5.063291139240507,0.02229644544268316,0.019949356748099712,-3.8508576619510005e-05,-0.012673740657234861,0.021220580067997423
4.94949494949495,5.063291139240507,0.022231145148307048,0.019923605595979808,-1.7376321892291916e-05,-0.012646425223286057,0.021171920377639146
5.05050505050505,5.063291139240507,0.022077638196613066,0.019852743992083817,5.4850442873202065e-05,-0.012579114656609063,0.02105376163543722
5.151515151515151,5.063291139240507,0.02214238865480157,0.01979819812791049,-6.114418374129503e-05,-0.01258217603481362,0.02106859849807151
5.252525252525253,5.063291139240507,0.022358427025193663,0.019966671715251513,3.518788747689033e-05,-0.012697529622133552,0.021263762143759066
5.353535353535354,5.063291139240507,0.022066393250746656,0.019984661335520414,-4.1136444308603026e-05,-0.01261531637588012,0.021102797928251312
5.454545454545454,5.063291139240507,0.022214452857201798,0.020016672517860504,0.00011431699831181185,-0.01266933761251869,0.02120209592361951
5.555555555555555,5.063291139240507,0.022246398717530636,0.020063936025184626,-5.656329287690037e-06,-0.012693100422814579,0.021239434080147928
5.656565656565657,5.063291139240507,0.022225225202986774,0.020203345246048433,-5.821470885273925e-07,-0.012728571134710563,0.02128642519363158
5.757575757575758,5.063291139240507,0.022290216253083098,0.02005676272485536,1.5170044827504056e-05,-0.012704093693381538,0.021261669349496887
5.858585858585858,5.063291139240507,0.02221084930531017,0.019826116982080366,-2.805354870627986e-05,-0.012611089886217161,0.021119758660000827
5.959595959595959,5.063291139240507,0.022251437941141157,0.020053040555776225,9.921932676423615e-05,-0.012691343549075215,0.02123844325619068
6.0606060606060606,5.063291139240507,0.02231841509281176,0.01996575755580728,8.665924969934009e-05,-0.012685251794585713,0.021240564769705372
6.161616161616162,5.063291139240507,0.022386132164643316,0.020233069853702497,-8.145117758795102e-05,-0.012785760605503743,0.021391487934204804
6.262626262626262,5.063291139240507,0.022547921929536478,0.02037577734049739,1.5544500536296498e-05,-0.012877109781010159,0.02154414940853633
6.363636363636363,5.063291139240507,0.022308993317450315,0.02013916678396839,-2.5533439468217647e-05,-0.01273444803042561,0.021307149979703142
6.4646464646464645,5.063291139240507,0.022359804171856974,0.020278246005574072,7.06909450213111e-05,-0.012791415053229314,0.02139545478979403
6.565656565656566,5.063291139240507,0.022560013443107076,0.020491145553036813,-4.956473026094688e-05,-0.012915347698843166,0.021600187579629847
6.666666666666667,5.063291139240507,0.022465281592614513,0.020179186375235435,-5.666231237880729e-05,-0.012793340390354983,0.021414176786077255
6.767676767676767,5.063291139240507,0.022562978014394133,0.0203483115990354,3.1034364974603635e-05,-0.01287338688402886,0.021541266071561878
6.8686868686868685,5.063291139240507,0.02258287053726994,0.020525858174944813,-4.348969814401149e-05,-0.012932618613664425,0.021627985845922754
6.96969696969697,5.063291139240507,0.022674059203093427,0.020508085132632123,-4.0668207832640784e-05,-0.012954643300717664,0.02167251581664382
7.070707070707071,5.063291139240507,0.022823986995270492,0.02047494273399557,4.286204841237687e-06,-0.012989678918779819,0.021744835955824257
7.171717171717171,5.063291139240507,0.022804068007344636,0.020601887468078953,-2.4242220216359128e-05,-0.013021786642627075,0.021786651993479338
7.2727272727272725,5.063291139240507,0.023043046546851558,0.020552017045378592,-4.165647869680177e-05,-0.013078519077669045,0.02190414388128891
7.373737373737374,5.063291139240507,0.02298666111931904,0.02081158489571699,0.00010761212996534078,-0.013139473804510807,0.021980776761611746
7.474747474747475,5.063291139240507,0.02307603193229241,0.020681400061680566,6.83935455625091e-05,-0.01312722959819189,0.021977100424187643
7.575757575757575,5.063291139240507,0.02313465536671035,0.021109747199675476,4.231869622830256e-05,-0.013273320769915749,0.022191718095811035
7.6767676767676765,5.063291139240507,0.023313205430792645,0.020914307578543522,-3.106647598117861e-05,-0.01326825390280085,0.022211194369161774
7.777777777777778,5.063291139240507,0.02343139247983609,0.02100098042678558,-6.154767282680356e-05,-0.013329711871986501,0.022315924402477105
7.878787878787879,5.063291139240507,0.02363630862468415,0.021239500290046082,-4.6977803725519435e-05,-0.013462742674419069,0.022533856634511473
7.979797979797979,5.063291139240507,0.02365723949940365,0.020990031707171848,5.291147034010081e-05,-0.013394181361972648,0.022443007897219647
8.080808080808081,5.063291139240507,0.023767681578733924,0.021234784890330132,2.301424698716207e-05,-0.013500739940719217,0.022607935780762846
8.181818181818182,5.063291139240507,0.02378050316343425,0.021396845636732834,2.4124593034634273e-05,-0.013553204640050125,0.022682842073788
8.282828282828282,5.063291139240507,0.024012317546039108,0.021515898463506995,2.3719884187493547e-05,-0.013658464802863831,0.022866577844715043
8.383838383838384,5.063291139240507,0.024167869861775375,0.021687628754854603,2.764633321164435e-05,-0.013756649584988992,0.023028193117687355
8.484848484848484,5.063291139240507,0.02442650954774178,0.021756469276158315,-5.028793559881611e-05,-0.01385489364717003,0.02320713912097977
8.585858585858587,5.063291139240507,0.024342703162385078,0.021828494161614313,2.6008992231372754e-05,-0.013851359197199818,0.02318809673432946
8.686868686868687,5.063291139240507,0.024491600939898897,0.022122211251363114,4.197020229609805e-05,-0.013984143657378602,0.02339717209122309
8.787878787878787,5.063291139240507,0.024769581246725417,0.02217616318131551,-5.803836253558798e-05,-0.014083723328412278,0.02358029258251066
8.88888888888889,5.063291139240507,0.024783176422236496,0.02236164723327045,8.704430348977587e-05,-0.014143447096652082,0.023665992103000518
8.98989898989899,5.063291139240507,0.025114343104248805,0.02261968665933763,-4.2649137048207145e-05,-0.01432020892907593,0.023964710290300076
9.09090909090909,5.063291139240507,0.025456274165712393,0.022738029053915712,3.562360683891631e-05,-0.01445829096588843,0.024211942615087943
9.191919191919192,5.063291139240507,0.02556944958114969,0.022819948694031193,5.513194859288912e-05,-0.014516819482554262,0.02431177495165636
9.292929292929292,5.063291139240507,0.025806239633079882,0.02295173556583082,2.326080580135391e-05,-0.01462739255967321,0.024504036497526558
9.393939393939394,5.063291139240507,0.02584053809394774,0.023308214652907475,-3.80074757778121e-06,-0.014744625824056565,0.02467203911287948
9.494949494949495,5.063291139240507,0.026088791149925104,0.023491180312399884,8.617012124545597e-05,-0.014873991438697495,0.024892295092418613
9.595959595959595,5.063291139240507,0.026644606736288892,0.023877684619920753,2.592315352403647e-05,-0.015156687406862893,0.02537458158273029
9.696969696969697,5.063291139240507,0.02671986473017049,0.023874538068789853,1.9702288263272345e-05,-0.0151783208396881,0.02541695253258782
9.797979797979798,5.063291139240507,0.026871581668847937,0.024160177805186114,-2.6667231896336857e-05,-0.015309527842210215,0.0256237396833795
9.8989898989899,5.063291139240507,0.02743936522324747,0.024474910720078704,3.64861371987473e-05,-0.015574282782997852,0.026083864711169524
10.0,5.063291139240507,0.027582820616550426,0.024848687132609744,-4.307231891949615e-05,-0.01572945232474805,0.026322574557165492
0.0,5.1645569620253164,0.027425465232676364,0.024825420832011086,-4.9311818231377546e-05,-0.015675265819406235,0.02622243775407928
0.10101010101010101,5.1645569620253164,0.027312761882028625,0.024530460030125763,-1.1632712045846557e-05,-0.015552966573646316,0.02603336749662856
0.20202020202020202,5.1645569620253164,0.026894429432994468,0.024302848479373643,-1.8446670338702813e-05,-0.015359183373710433,0.02569685887666781
0.30303030303030304,5.1645569620253164,0.026768493650925058,0.02393206785292684,2.091823339307961e-05,-0.015210168451155567,0.025469040625818524
0.40404040404040403,5.1645569620253164,0.026504230927456,0.02368224236250626,5.170524669981721e-05,-0.015055941986988676,0.02521212526174981
0.5050505050505051,5.1645569620253164,0.025961792406039033,0.023459228071399513,7.5435799057078344e-06,-0.014826306143231563,0.02480537458216265
0.6060606060606061,5.1645569620253164,0.025949474730569723,0.023117681957529352,6.573318117525224e-05,-0.014720147006429722,0.024656109114153058
0.7070707070707071,5.1645569620253164,0.0256896229927832,0.023153410325710763,-4.40909674417906e-05,-0.014652909995548188,0.024520207768238256
0.8080808080808081,5.1645569620253164,0.02536974923683981,0.022901060504963204,3.252279662659898e-05,-0.014481242922540903,0.024229976465535586
0.9090909090909091,5.1645569620253164,0.02529543844150488,0.022790360407521405,-7.194790515840815e-05,-0.014425739654707885,0.024140901064535356
1.0101010101010102,5.1645569620253164,0.024992156987847763,0.02256896655461067,8.235335447757738e-06,-0.01426833706273753,0.023872980763287543
1.1111111111111112,5.1645569620253164,0.02491936867461674,0.022393611930072412,6.307810324432781e-05,-0.014193894181406744,0.02375765256324177
1.2121212121212122,5.1645569620253164,0.024555185809339155,0.02235778846860221,8.155790199423983e-05,-0.014073892283382407,0.023533978845058024
1.3131313131313131,5.1645569620253164,0.024625973100031937,0.02207090651849136,1.3861388473167412e-05,-0.01400906388555699,0.023453069988128728
1.4141414141414141,5.1645569620253164,0.024217073636168596,0.021904084680900347,2.2478699837449128e-05,-0.013836347495120683,0.023147446196789573
1.5151515151515151,5.1645569620253164,0.0241642494269446,0.02178827182605831,-9.087226695563863e-05,-0.013785756375900871,0.023068751111700026
1.6161616161616161,5.1645569620253164,0.023949746860089917,0.02154092108852278,2.2309470587167086e-05,-0.01364720038458381,0.02284083058775431
1.7171717171717171,5.1645569620253164,0.02384222731810446,0.021584981365778574,7.630392250405789e-05,-0.013628162605164909,0.022797952946152906
1.8181818181818181,5.1645569620253164,0.023626276293992325,0.021547614349127848,-5.385701664814195e-05,-0.013552167192936053,0.022658760497976112
1.9191919191919191,5.1645569620253164,0.023699581471811046,0.021275117292740967,-2.1427592581553448e-05,-0.013492409629365603,0.0225851893855778
2.0202020202020203,5.1645569620253164,0.023447781222034666,0.021197025281233937,1.0168123276793179e-05,-0.01339344195098058,0.0224073520039641
2.121212121212121,5.1645569620253164,0.02349795147754545,0.02113377765339746,-4.078649810231291e-05,-0.013389518739282872,0.022409703039595077
2.2222222222222223,5.1645569620253164,0.023306138864851732,0.02093167088078987,4.56692348380157e-05,-0.013271342923692482,0.022214427371990232
2.323232323232323,5.1645569620253164,0.023156832417941482,0.021113251088474314,-1.116811268425764e-05,-0.013281025051924739,0.022205688822553783
2.4242424242424243,5.1645569620253164,0.023119852859471383,0.02097821068308843,1.5242805052927536e-05,-0.013229419062767943,0.022126917374297197
2.525252525252525,5.1645569620253164,0.023128185068588006,0.020874356805708944,-4.840187969113682e-06,-0.013200762562289083,0.022087684340169913
2.6262626262626263,5.1645569620253164,0.022640967661377163,0.020686083076344352,-1.7075917319020594e-05,-0.012998115221316454,0.02172959701590735
2.727272727272727,5.1645569620253164,0.022976016087657807,0.02070377473881561,-1.3824936703860622e-05,-0.013103937247942024,0.021928381509091897
2.8282828282828283,5.1645569620253164,0.022819059671347692,0.02066052505358887,-4.427231302546285e-05,-0.013043875417480966,0.021820149079426185
2.929292929292929,5.1645569620253164,0.02266537107512626,0.020549861057480946,1.4573409264871881e-05,-0.012964569639782162,0.021685161890048748
3.0303030303030303,5.1645569620253164,0.022834637869995705,0.02068769907846951,5.5539122831985514e-05,-0.013056701084539565,0.0218406665827156
3.131313131313131,5.1645569620253164,0.02270012450716094,0.02040187207537541,9.438800745444047e-05,-0.012930598974760904,0.021643329868997828
3.2323232323232323,5.1645569620253164,0.022550403589991545,0.02055397859985793,-4.556408629485165e-05,-0.012931314656954844,0.021621573805020656
3.3333333333333335,5.1645569620253164,0.022359501376426037,0.020156042444351253,3.861992405572339e-05,-0.012754663146233186,0.021343354107045028
3.4343434343434343,5.1645569620253164,0.02251191900983725,0.020327604525307682,5.179764717616996e-05,-0.01285185706054348,0.02150331754622557
3.5353535353535355,5.1645569620253164,0.022517293204250687,0.02033552551636858,-2.25770552286101e-05,-0.012855845616185779,0.021509593904319706
3.6363636363636362,5.1645569620253164,0.022240991351616494,0.020202387219677088,7.415730133000399e-05,-0.012733013571388075,0.021295387391583834
3.7373737373737375,5.1645569620253164,0.02232586448223921,0.019989156649375006,-1.4444567660786776e-05,-0.012694506339484263,0.021254082711351503
3.8383838383838382,5.1645569620253164,0.02241695792600212,0.020113262440437044,2.4017015330783474e-05,-0.012759066109931749,0.021358532281577896
3.9393939393939394,5.1645569620253164,0.022469283577305908,0.020075755984555493,5.977149132005388e-05,-0.01276351186855842,0.021373524428052456
4.040404040404041,5.1645569620253164,0.022260799240259803,0.020130646042115508,-2.8610317420965928e-05,-0.012717433584712593,0.021275908404075655
4.141414141414141,5.1645569620253164,0.022299341788931885,0.020149414605837277,3.0765062575708484e-05,-0.012734626918430749,0.02130595478973652
4.242424242424242,5.1645569620253164,0.022247706135113347,0.0199605259282132,-0.0001007374691151414,-0.012662469618997965,0.021197583649205983
4.343434343434343,5.1645569620253164,0.02216344198824454,0.019962542681378263,2.9686477638974874e-05,-0.012637795400886841,0.021149119562677097
4.444444444444445,5.1645569620253164,0.02217738398761093,0.020089619486531055,-0.00010071681853160373,-0.012680101042242596,0.021211421398915374
4.545454545454545,5.1645569620253164,0.02224701439031955,0.019928647709912938,3.8699014662534286e-05,-0.012652698630069747,0.02118330071750078
4.646464646464646,5.1645569620253164,0.022147866352057264,0.01983950800931143,3.833257815290741e-05,-0.012596212308410607,0.021088757627678475
4.747474747474747,5.1645569620253164,0.02222246602485586,0.01990699886050457,2.0283486926858147e-05,-0.012638839465608129,0.021159991216518067
4.848484848484849,5.1645569620253164,0.022168436303336782,0.01991187855637011,8.333590555889202e-05,-0.012624094457912068,0.021131211487785774
4.94949494949495,5.1645569620253164,0.02215027520260635,0.019784654794265322,-1.245911489956074e-05,-0.012580478999061501,0.021067324796626024
5.05050505050505,5.1645569620253164,0.022145063675604745,0.019901699079062456,4.0032073356368674e-05,-0.012614028826400161,0.02111307381155746
5.151515151515151,5.1645569620253164,0.021965627604261573,0.020076255252742398,1.8386183866197044e-05,-0.01261256485710119,0.021084550946316036
5.252525252525253,5.1645569620253164,0.022323038150103617,0.01997152060688138,-8.414128546203482e-05,-0.0126883676270955,0.021245608733261406
5.353535353535354,5.1645569620253164,0.022284032724381175,0.020028136733950964,-9.29749357177978e-05,-0.012693650837499642,0.021246709253985627
5.454545454545454,5.1645569620253164,0.0220137359280275,0.020087752841929516,-5.659787737748704e-06,-0.012630446630987106,0.02111672307431358
5.555555555555555,5.1645569620253164,0.022275077171301266,0.019956547211260584,-5.7533393383470614e-05,-0.012669487314768555,0.021211297476892252
5.656565656565657,5.1645569620253164,0.022272041771939897,0.019942087745120622,2.1357087157621956e-05,-0.012664238855118156,0.02120332675363996
5.757575757575758,5.1645569620253164,0.02225425135851602,0.02007180527134754,-2.6767324656914796e-05,-0.01269781698895907,0.021247310891502478
5.858585858585858,5.1645569620253164,0.022331265824542146,0.019866724462774512,-3.140824989563082e-05,-0.012659397086194998,0.021206744884576224
5.959595959595959,5.1645569620253164,0.02238078926082416,0.019961394814362564,5.594764209849545e-06,-0.012702655222556017,0.021274523122366
6.0606060606060606,5.1645569620253164,0.02217679010624855,0.020105743758585284,-1.8461591828443954e-05,-0.012684760159450149,0.02121723626510886
6.161616161616162,5.1645569620253164,0.022426927243333377,0.0202213999064771,2.766371062957776e-05,-0.012794498144943142,0.021409589233266198
6.262626262626262,5.1645569620253164,0.02248253504472609,0.02024060683980853,-2.5363080487486705e-05,-0.012816942565360385,0.021449669567060424
6.363636363636363,5.1645569620253164,0.02253030350386361,0.020156083417305248,-0.0001136783184600345,-0.012805916076350657,0.021442909460722918
6.4646464646464645,5.1645569620253164,0.022437922296500403,0.020112780184562903,7.17462423900791e-05,-0.012765210744318993,0.02137079145372047
6.565656565656566,5.1645569620253164,0.022494490511613244,0.02037471149879896,7.813770149295318e-05,-0.012860760603123663,0.021513496555672727
6.666666666666667,5.1645569620253164,0.02255738239597446,0.020161043229708915,3.517281253003177e-05,-0.012815527687705011,0.021459881509792125
6.767676767676767,5.1645569620253164,0.02259194760063051,0.02023081066169752,-7.627984376053561e-05,-0.01284682747869841,0.021509203562090202
6.8686868686868685,5.1645569620253164,0.02286817825844372,0.02052259108195952,-1.902015150562141e-05,-0.013017230802120973,0.021790299118836683
6.96969696969697,5.1645569620253164,0.022856410102661245,0.020527495054974743,4.8163203604555775e-05,-0.013015171547290797,0.021785675333547465
7.070707070707071,5.1645569620253164,0.022693702753709376,0.020493159831640143,4.4156677353413344e-05,-0.012956058775604856,0.021677497925079635
7.171717171717171,5.1645569620253164,0.022801874091570806,0.020462214094502273,-3.5615732984891286e-05,-0.012979226455821924,0.021726818537484895
7.2727272727272725,5.1645569620253164,0.022860317799037976,0.020624155995155685,1.0339034942281438e-05,-0.013045342138258099,0.021828318778281255
7.373737373737374,5.1645569620253164,0.022865796636760936,0.020868592957612862,-1.4946359157723084e-05,-0.01312031687831214,0.021935507639010223
7.474747474747475,5.1645569620253164,0.02301444630635843,0.020727721143342738,4.4589304525885875e-05,-0.01312265023491035,0.021960694476633368
7.575757575757575,5.1645569620253164,0.02310301681639198,0.021000801475085245,-2.7347689127924363e-05,-0.013231145487443165,0.022126984039089716
7.6767676767676765,5.1645569620253164,0.023313547299373138,0.020941278989762488,-4.7055846134455185e-06,-0.013276447886740688,0.022222583594117933
7.777777777777778,5.1645569620253164,0.02345299431696905,0.02088605184524931,-1.0730423439163135e-05,-0.013301713848665507,0.022280709017211128
7.878787878787879,5.1645569620253164,0.023394376836495933,0.02123365296939452,-3.094722499536535e-05,-0.013388408941767136,0.022392402282994623
7.979797979797979,5.1645569620253164,0.023629397302768314,0.021203461859651513,4.0817370277175606e-05,-0.013449857748725948,0.02251477704582303
8.080808080808081,5.1645569620253164,0.023703307928528754,0.021247293012333798,4.611425733660892e-05,-0.013485180282258764,0.02257586139578702
8.181818181818182,5.1645569620253164,0.02389214870966914,0.021460022991893687,-2.9811640299866018e-05,-0.01360565151046885,0.022773755999922363
8.282828282828282,5.1645569620253164,0.023999004586396307,0.021500205038057007,-8.246868779916895e-05,-0.013649762887335994,0.022852744293694216
8.383838383838384,5.1645569620253164,0.024256315551720118,0.021648958438360972,2.9866396057310542e-05,-0.013771582197024327,0.023063498311582803
8.484848484848484,5.1645569620253164,0.024263157743211354,0.02165612501516744,4.962179814963936e-05,-0.013775784827513638,0.02307054364256204
8.585858585858587,5.1645569620253164,0.024351372417829607,0.02186620598843548,-1.0885440272063307e-05,-0.013865273521879525,0.023208802921512034
8.686868686868687,5.1645569620253164,0.024733179120794726,0.022074252858526267,5.541575905169621e-06,-0.014042229593796298,0.023516726619642804
8.787878787878787,5.1645569620253164,0.024724871579437008,0.0222359831353559,-1.7222305617920208e-05,-0.014088256414437872,0.023579170531948627
8.88888888888889,5.1645569620253164,0.02477870906099087,0.022397266947541114,2.470671425347728e-05,-0.014152792802559596,0.023678016370873804
8.98989898989899,5.1645569620253164,0.02507961102503948,0.022821985036634664,9.536918008717337e-06,-0.014370478818502242,0.024030473476400853
9.09090909090909,5.1645569620253164,0.02519942518360474,0.02275896971989786,-1.1978118753829127e-05,-0.01438751847105078,0.0240721666662728
9.191919191919192,5.1645569620253164,0.025549196332231832,0.022702747309648177,-5.406287170591501e-06,-0.014475583092564004,0.024251583618750336
9.292929292929292,5.1645569620253164,0.02553831647568174,0.02324389493573251,1.1691006366229735e-05,-0.014634663423424274,0.02447191707321078
9.393939393939394,5.1645569620253164,0.026002333413620748,0.023206984485128875,-2.60052925101135e-07,-0.014762795369624885,0.02472346504723697
9.494949494949495,5.1645569620253164,0.026142239132820277,0.023476898298136574,-1.8707127637766617e-05,-0.014885741229287054,0.02491673696617784
9.595959595959595,5.1645569620253164,0.026334992555050955,0.023724185262060236,-3.6251941612059194e-05,-0.015017753345133358,0.02513158370620426
9.696969696969697,5.1645569620253164,0.02677818583269485,0.023805615667772263,0.00011392849495574108,-0.015175140450140132,0.025423341887025674
9.797979797979798,5.1645569620253164,0.0268541591450605,0.024211083561981032,-2.6430280751255055e-05,-0.015319572812112459,0.02563505871389589
9.8989898989899,5.1645569620253164,0.027230202517379034,0.024347172626393524,6.41889700762081e-05,-0.015473212543131767,0.02590950913016758
10.0,5.1645569620253164,0.027497660956382387,0.02486138485551177,1.2731816817210595e-05,-0.015707713743568247,0.026278895898429647
0.0,5.265822784810126,0.02749301442161993,0.024885167745634783,9.37868148174911e-06,-0.015713454650176414,0.026286296884110816
0.10101010101010101,5.265822784810126,0.027161993405402738,0.024604596666567728,-2.1765392273852774e-05,-0.015529977021591139,0.02597790583701106
0.20202020202020202,5.265822784810126,0.026974179310307825,0.024313119649061472,-5.683313063465254e-05,-0.015386189687810789,0.02574718193398412
0.30303030303030304,5.265822784810126,0.026706938555075294,0.02397345311761408,8.259109935644279e-05,-0.015204117501806811,0.02545093212184946
0.40404040404040403,5.265822784810126,0.02637473725337832,0.02390893292447703,-2.231351259516885e-06,-0.015085101053356604,0.025232360765828892
0.5050505050505051,5.265822784810126,0.026062282949554223,0.023469560719610937,0.00014887460764235092,-0.014859553100749547,0.024868836556708636
0.6060606060606061,5.265822784810126,0.025852910664338202,0.02331052306249999,-2.7800531433124484e-05,-0.014749030118051457,0.024680172681738517
0.7070707070707071,5.265822784810126,0.025725192550207217,0.023137784480985284,2.3363775854047498e-05,-0.01465889310935775,0.024534063647779266
0.8080808080808081,5.265822784810126,0.025342154803542752,0.02298361886094898,5.0443854594548134e-05,-0.014497732099347517,0.024249221691833737
0.9090909090909091,5.265822784810126,0.025210475668564384,0.02276360517151535,5.839163567500972e-05,-0.014392224252023918,0.02408067105136345
1.0101010101010102,5.265822784810126,0.02491671951027452,0.022711028101835357,-5.2449135903168445e-05,-0.014288324283632962,0.02389053461788219
1.1111111111111112,5.265822784810126,0.024869606367035557,0.022506215013871102,-9.102095664692192e-06,-0.014212746414271997,0.02377617663627794
1.2121212121212122,5.265822784810126,0.02459940032375662,0.022093174664978794,5.8199532430037596e-05,-0.014007772496620623,0.023447178436134537
1.3131313131313131,5.265822784810126,0.02446827094563606,0.02201812286560417,-4.989166253502787e-06,-0.013945918143372068,0.023339852104915557
1.4141414141414141,5.265822784810126,0.024376143763958205,0.021798892000939225,8.229907027063944e-05,-0.013852510729469228,0.023195591636575683
1.5151515151515151,5.265822784810126,0.02441887305015219,0.02187641565216635,-9.179866343909421e-05,-0.013888586610695561,0.023252672689542873
1.6161616161616161,5.265822784810126,0.024077306168252995,0.021553142681466315,-7.388288434893599e-06,-0.013689134654915794,0.02291971161027448
1.7171717171717171,5.265822784810126,0.023798453350667697,0.021484055552548984,-4.4247752748441594e-05,-0.013584752670965004,0.02272992750998773
1.8181818181818181,5.265822784810126,0.02377663350316771,0.02153768838408534,2.3645788966113088e-05,-0.013594296566175916,0.022740014859935775
1.9191919191919191,5.265822784810126,0.023702877726770804,0.021330400273639184,5.8081748571782105e-05,-0.013509983400122995,0.022610409976011436
2.0202020202020203,5.265822784810126,0.023648789133483335,0.02115513326769201,2.361006404662709e-05,-0.013441176720352603,0.022505849853332684
2.121212121212121,5.265822784810126,0.023463946495864762,0.02130568526490503,2.817723357284777e-05,-0.013430889528230938,0.022462767695099486
2.2222222222222223,5.265822784810126,0.02348277892387846,0.020979024979944173,3.466356500284227e-05,-0.01333854117114679,0.022336476762070942
2.323232323232323,5.265822784810126,0.02306877544352898,0.02103027783477797,-2.9094605387699104e-05,-0.013229715983492084,0.02212014396143455
2.4242424242424243,5.265822784810126,0.023279396754231678,0.02080756057320113,3.845107351685801e-05,-0.013226087198229843,0.02214727675431616
2.525252525252525,5.265822784810126,0.023232113880194652,0.0207908771636885,2.138916983665049e-05,-0.013206897313164946,0.022112825127778818
2.6262626262626263,5.265822784810126,0.022976977569693018,0.020776930015966307,-4.324430767625158e-06,-0.013126172275697796,0.021959765943304194
2.727272727272727,5.265822784810126,0.022795965281300377,0.020817149931028955,-7.012580766464696e-05,-0.013083934563698798,0.021874128329159366
2.8282828282828283,5.265822784810126,0.02283820237446061,0.020496917688088628,1.8953605020092544e-05,-0.01300053601876477,0.021762248181502276
2.929292929292929,5.265822784810126,0.022756362428841846,0.02047375590544449,6.513253475369792e-05,-0.0129690355002859,0.021705557558971904
3.0303030303030303,5.265822784810126,0.02262827451437715,0.02052484119512829,-6.288212798152512e-05,-0.012945934712851631,0.021653591737675865
3.131313131313131,5.265822784810126,0.022900259077492498,0.020588904231422206,-1.541628846716534e-05,-0.01304674899267441,0.021836536246198777
3.2323232323232323,5.265822784810126,0.022677654979276228,0.02024884262312839,5.410064977667655e-05,-0.012877949280721385,0.02156627406019091
3.3333333333333335,5.265822784810126,0.02274855765681193,0.020156260799290115,-6.346056781957599e-05,-0.012871445536830612,0.02156983879557079
3.4343434343434343,5.265822784810126,0.02282819041019509,0.020061012733591038,-7.436818395347495e-05,-0.012866760943135838,0.02157847266787003
3.5353535353535355,5.265822784810126,0.022437605065806707,0.020333656649726393,5.952978076828125e-05,-0.012831378514659928,0.02146335919124024
3.6363636363636362,5.265822784810126,0.02240502563316802,0.020402063017181744,-6.0492020540806614e-05,-0.01284212659510493,0.02147397452648559
3.7373737373737375,5.265822784810126,0.022283682517811057,0.02004797055719111,4.157999542633464e-06,-0.01269949592250065,0.021254201252002156
3.8383838383838382,5.265822784810126,0.022296211162497383,0.020117351899008852,-8.144062555744051e-06,-0.01272406891845187,0.021290569570538116
3.9393939393939394,5.265822784810126,0.022551947716851595,0.020070260272464627,2.942730408373812e-05,-0.012786662396794867,0.02141926307785893
4.040404040404041,5.265822784810126,0.02221866730268235,0.02000250923294223,4.811702336282645e-05,-0.012666352960687374,0.021197815929936307
4.141414141414141,5.265822784810126,0.02222047075132062,0.020236844196126858,-4.52327760655021e-06,-0.012737194484234243,0.02129805249898826
4.242424242424242,5.265822784810126,0.022283993495665372,0.02009051649580221,-3.73152051475969e-05,-0.012712352997440274,0.02127234019894259
4.343434343434343,5.265822784810126,0.02224844034864453,0.019947534135226368,-3.684753308474505e-05,-0.01265879234516127,0.02119197409245217
4.444444444444445,5.265822784810126,0.022317082029667774,0.02010068612532052,-5.48372524860287e-06,-0.012725330446496487,0.021295566724788474
4.545454545454545,5.265822784810126,0.022266873175754646,0.019955180534273757,3.6403726632644762e-06,-0.012666616113008521,0.021205740656284038
4.646464646464646,5.265822784810126,0.02224260124404129,0.01994685259603131,2.0613874386642427e-05,-0.012656836152021778,0.02118824261276724
4.747474747474747,5.265822784810126,0.0221656129153637,0.01982775216505075,0.0001271057874303235,-0.012598009524124335,0.021095220785849293
4.848484848484849,5.265822784810126,0.022281003442209752,0.019986641356657623,4.731348029556067e-05,-0.012680293439660211,0.021227181582625904
4.94949494949495,5.265822784810126,0.022042172705448494,0.019817908021194444,-6.310790659478589e-05,-0.01255802421799288,0.02101877856758344
5.05050505050505,5.265822784810126,0.02215223912254399,0.019822908329468977,-5.671499876669224e-07,-0.01259254423560389,0.0210842971978487
5.151515151515151,5.265822784810126,0.022218500747154608,0.02000078505664072,1.6891585182467954e-05,-0.012665785741138599,0.02119685298777986
5.252525252525253,5.265822784810126,0.022255934172726883,0.020062466824660723,-2.907339335288032e-05,-0.012695520299216282,0.021244358681442976
5.353535353535354,5.265822784810126,0.022217581577463025,0.020008270657185422,3.0484246259688875e-05,-0.012667755670394534,0.021199510092458382
5.454545454545454,5.265822784810126,0.02224341910991978,0.019912244782861317,9.782347652457276e-05,-0.012646699167834329,0.021174973156188708
5.555555555555555,5.265822784810126,0.02218789116058837,0.019871076043941654,-3.110777310640798e-06,-0.012617690161359005,0.021124983640757725
5.656565656565657,5.265822784810126,0.022203558158021556,0.019940936948859178,3.198815768422605e-05,-0.01264334853206422,0.02116322937862469
5.757575757575758,5.265822784810126,0.022355095703522614,0.01991266936625013,2.627634889967032e-05,-0.012680329520931823,0.02123951852438424
5.858585858585858,5.265822784810126,0.02239595752995144,0.019888067375371243,-1.5781856775313382e-05,-0.012685207471596804,0.021253295568454254
5.959595959595959,5.265822784810126,0.0223139299390046,0.020216928534073163,1.80976461038854e-06,-0.012759257541923329,0.021342833729596448
6.0606060606060606,5.265822784810126,0.022445281295761222,0.01993411391739525,-2.6517127981480777e-05,-0.012713818563946941,0.021301053150820586
6.161616161616162,5.265822784810126,0.02245787156307994,0.01998360781398435,-1.786126562800714e-05,-0.012732443813119285,0.021328671684564402
6.262626262626262,5.265822784810126,0.022319052427076103,0.020032956979326038,-4.6200243076367016e-05,-0.012705602821920643,0.021268503776113223
6.363636363636363,5.265822784810126,0.02251683074282192,0.020307879518992596,1.5799816885834915e-05,-0.012847413078544355,0.021497658018646452
6.4646464646464645,5.265822784810126,0.022494374515099204,0.020159907381705675,-3.139826268271151e-05,-0.012796284569041465,0.02142281963662565
6.565656565656566,5.265822784810126,0.022646140750448424,0.020126933555471533,-6.318983348680862e-05,-0.012831922291775986,0.021497808119167017
6.666666666666667,5.265822784810126,0.02258738977645481,0.020253974079624863,-2.5344089321078708e-05,-0.012852409156823901,0.02151583516486177
6.767676767676767,5.265822784810126,0.022562528864596698,0.020322083325814394,6.707574645161968e-06,-0.012865383657123327,0.021529916925393577
6.8686868686868685,5.265822784810126,0.022631830681375757,0.020302329599968652,-5.350754660761182e-05,-0.012880248084403322,0.021561865652231546
6.96969696969697,5.265822784810126,0.022664944731099597,0.020317629786844107,-0.00010438396758840428,-0.01289477235538311,0.02158797192121942
7.070707070707071,5.265822784810126,0.022569834393967567,0.020496171240451826,3.0348627823801005e-05,-0.012919801690325819,0.021607823411886717
7.171717171717171,5.265822784810126,0.022843215356222534,0.02043277009417394,6.951471254512528e-05,-0.012982795635118942,0.02173878816384464
7.2727272727272725,5.265822784810126,0.022963310861094946,0.020790608455538963,4.612983414148778e-05,-0.013126175794990173,0.021957873863007616
7.373737373737374,5.265822784810126,0.02303098454115027,0.020743936997014694,-9.178490754789624e-06,-0.013132476461449489,0.021976899952087302
7.474747474747475,5.265822784810126,0.022903380563411957,0.02084142636250695,4.008140163751451e-06,-0.013123442077775672,0.021945177665879487
7.575757575757575,5.265822784810126,0.023284670140170296,0.020670310762875923,1.714939562053897e-05,-0.013186494270913866,0.022093825496444366
7.6767676767676765,5.265822784810126,0.02331607202838488,0.020978047762557878,-3.944439389889532e-05,-0.013288235937282828,0.022239530069111713
7.777777777777778,5.265822784810126,0.023381589557246056,0.02127498960767535,-5.416030107595061e-06,-0.013396973749476421,0.022402699082677915
7.878787878787879,5.265822784810126,0.023349499373487577,0.02099483388983432,1.7254817513020795e-05,-0.013303299978996567,0.02226576303393289
7.979797979797979,5.265822784810126,0.023567391665021257,0.02119467884502785,9.981376918824253e-05,-0.013428621153014733,0.022475830397269678
8.080808080808081,5.265822784810126,0.02367921520123623,0.021073261667177046,-1.4021159000203263e-05,-0.01342574306052398,0.022489772822539184
8.181818181818182,5.265822784810126,0.023812311703481453,0.021399085790908927,-9.971031412511632e-06,-0.013563419248317112,0.022702106919671092
8.282828282828282,5.265822784810126,0.023764260685137026,0.021611726384112018,-5.477468510391526e-05,-0.013612796120774713,0.022764645930990576
8.383838383838384,5.265822784810126,0.02407401449920548,0.021610252959981615,1.1163872275397254e-05,-0.013705280237756128,0.022941578801564354
8.484848484848484,5.265822784810126,0.02420788220784912,0.021841588439618535,-5.9482495290575044e-05,-0.013814841194240297,0.02311598063846545
8.585858585858587,5.265822784810126,0.02426515391231136,0.021933218729471533,1.3387157348402282e-05,-0.013859511792534867,0.02318731091799842
8.686868686868687,5.265822784810126,0.02449666940506652,0.022032596994648584,-2.99921221188201e-05,-0.013958779919914533,0.023362354250779586
8.787878787878787,5.265822784810126,0.02452842745706918,0.022294371861003373,2.3465870349672524e-05,-0.014046839795421765,0.02349124388450029
8.88888888888889,5.265822784810126,0.024926826881874913,0.02237816011992357,1.488248964612441e-05,-0.014191496100539545,0.023755270782990074
8.98989898989899,5.265822784810126,0.02495398192278475,0.022456159414236506,3.7541483031967355e-05,-0.014223042401106377,0.023803653951674844
9.09090909090909,5.265822784810126,0.025314699630856884,0.02276549154926394,2.1706107883175113e-05,-0.014424057354036245,0.024141281155461578
9.191919191919192,5.265822784810126,0.02539855887007422,0.022830886900841074,-3.119120662845959e-05,-0.014468833731274586,0.024217090721693157
9.292929292929292,5.265822784810126,0.02565761432022185,0.022931180124877115,5.008661870262808e-07,-0.014576638333529688,0.024408867645300134
9.393939393939394,5.265822784810126,0.025711736504287454,0.02325896609363597,4.431163737291469e-06,-0.014691210779377026,0.02457731777787657
9.494949494949495,5.265822784810126,0.026023397206853715,0.023425209750073187,3.448640508607795e-05,-0.014834582087078071,0.024826551995333464
9.595959595959595,5.265822784810126,0.026220259534772437,0.02375103716891719,1.7935681721111606e-05,-0.014991389011106887,0.02507700905106332
9.696969696969697,5.265822784810126,0.026690519917066672,0.023970119928529824,-6.629746609062931e-05,-0.015198191953678948,0.025439904196489487
9.797979797979798,5.265822784810126,0.026697944977440453,0.024304014120647442,2.8482965111850856e-05,-0.01530058772942637,0.02558516309326543
9.8989898989899,5.265822784810126,0.027061593135704852,0.02446347529719318,-2.094404242162022e-05,-0.015457520529869408,0.025860629293185028
10.0,5.265822784810126,0.027444482227312137,0.024760853420607166,-8.495918099261136e-05,-0.01566160069437579,0.02620634120579246
0.0,5.367088607594937,0.027474377792422806,0.024844425634617542,5.288855996929613e-06,-0.015695641028112103,0.026258367584249674
0.10101010101010101,5.367088607594937,0.027327317466397577,0.02463295315668879,-3.6935775316099656e-05,-0.015588081186925909,0.02608478910851422
0.20202020202020202,5.367088607594937,0.02689325360505028,0.024172672446319984,-4.205985901533255e-05,-0.015319777815411079,0.025641542062581846
0.30303030303030304,5.367088607594937,0.026671235754436442,0.024137434555503358,2.2406110505812324e-05,-0.015242601092981938,0.025498958060167665
0.40404040404040403,5.367088607594937,0.026548361188832612,0.023818181770662906,2.4977328650552392e-05,-0.015109962887848655,0.025294059456027706
0.5050505050505051,5.367088607594937,0.026174353054805956,0.023536231091295157,5.178189006022906e-05,-0.014913175243830333,0.024960235450608895
0.6060606060606061,5.367088607594937,0.025865756304985412,0.023076625591450777,-2.8397090594515457e-05,-0.014682714568930857,0.02459016151250944
0.7070707070707071,5.367088607594937,0.02571091545919409,0.023033603590652443,4.686044459463397e-05,-0.014623355714953958,0.02448243495212621
0.8080808080808081,5.367088607594937,0.02538120343723442,0.022761968505636745,3.2639848773974767e-05,-0.01444295158286135,0.024178290695985406
0.9090909090909091,5.367088607594937,0.025305223233499877,0.022572316321656783,2.2955434861044326e-05,-0.014363261866546998,0.024055516300039506
1.0101010101010102,5.367088607594937,0.025011855333019698,0.022565590101555132,5.274727477264806e-05,-0.014273233630372448,0.02388304493844908
1.1111111111111112,5.367088607594937,0.02475051895296278,0.022369923490539928,1.3588494593234469e-05,-0.01413613273305081,0.02365026435425617
1.2121212121212122,5.367088607594937,0.02473673512508594,0.022376991101106317,1.0952876557837689e-05,-0.014134117867857676,0.02364534739689173
1.3131313131313131,5.367088607594937,0.024555541201381374,0.02210537731871424,4.2620961134001145e-05,-0.013998275556028684,0.023426870388779622
1.4141414141414141,5.367088607594937,0.024392612037300115,0.022018093916202,-7.811558821146896e-05,-0.013923211786050634,0.023296683565296187
1.5151515151515151,5.367088607594937,0.02418536000720607,0.021952965890072264,-4.382923278874927e-05,-0.013841497769183498,0.023150156150153
1.6161616161616161,5.367088607594937,0.024210335429062278,0.021665154761957253,-1.1378147775065647e-05,-0.013762647057305859,0.023043415478710545
1.7171717171717171,5.367088607594937,0.024055038530777426,0.021600559531841618,8.074980961335353e-06,-0.013696679418785713,0.02292655566361793
1.8181818181818181,5.367088607594937,0.023768093006806105,0.021507556709871537,-4.2672308218766726e-05,-0.013582694915003293,0.02272243594680835
1.9191919191919191,5.367088607594937,0.023751558498731815,0.021412454394491146,1.180851814339065e-05,-0.013549203867966887,0.02267269259452792
2.0202020202020203,5.367088607594937,0.023524297931043093,0.021123669058855453,6.692288911778777e-05,-0.013394390096969565,0.022420881769870622
2.121212121212121,5.367088607594937,0.023482771423918906,0.02131825494581474,1.2506528210777916e-05,-0.013440307910920093,0.02247881911651776
2.2222222222222223,5.367088607594937,0.023185944813099962,0.02112194403567965,3.573230394792273e-05,-0.013292366654633883,0.022226024348913197
2.323232323232323,5.367088607594937,0.02327909625445888,0.02092236127937371,2.6642832315219706e-05,-0.013260437260149777,0.022194819020605574
2.4242424242424243,5.367088607594937,0.023021730317773985,0.02080537406039414,-2.6032214679734934e-05,-0.013148131313450438,0.021997499377589134
2.525252525252525,5.367088607594937,0.02312742953645631,0.020971632255187625,-2.9855749324385833e-05,-0.013229718537493182,0.022128490306877125
2.6262626262626263,5.367088607594937,0.022901896835944822,0.020643249488066107,2.38645641631042e-05,-0.013063543897203279,0.021860301153659993
2.727272727272727,5.367088607594937,0.023103167596086324,0.02060744416786487,1.5500354624907096e-06,-0.013113183529185357,0.021961918836367122
2.8282828282828283,5.367088607594937,0.022788825840924794,0.02048382678594412,1.742051676453814e-05,-0.012981795788060673,0.021728237209843456
2.929292929292929,5.367088607594937,0.022855008987606194,0.020481215118550403,-5.83883896567262e-07,-0.013000867231846978,0.02176541416943618
3.0303030303030303,5.367088607594937,0.02269142131882315,0.02053813472940468,-6.553290896536211e-05,-0.012968866814468348,0.02169536805565458
3.131313131313131,5.367088607594937,0.022640329947543607,0.02040645208810379,-1.781999196402956e-05,-0.012914034610694217,0.0216101821204877
3.2323232323232323,5.367088607594937,0.022525189184923255,0.020425501681709295,-3.293568392142582e-05,-0.012885207259989765,0.021552267432139224
3.3333333333333335,5.367088607594937,0.022483058502504427,0.020332020774175095,1.5198622484785102e-05,-0.012844523783003855,0.02148845431488702
3.4343434343434343,5.367088607594937,0.022637731392895946,0.02026993115584504,-2.820742661527711e-05,-0.012872298764622295,0.02155166169458494
3.5353535353535355,5.367088607594937,0.022477746717028207,0.020174853767207252,-5.248739932774574e-05,-0.012795780145270637,0.02141954326665176
3.6363636363636362,5.367088607594937,0.022567010212333104,0.020125503336692628,-1.4253129628764644e-05,-0.012807754064707718,0.021450734360538775
3.7373737373737375,5.367088607594937,0.022502991206764154,0.02000945693768532,1.917679246114699e-06,-0.012753734443334842,0.021365634970775156
3.8383838383838382,5.367088607594937,0.02241162751734276,0.02004665912701782,3.0355942699636085e-05,-0.012737485993308173,0.021327777597744933
3.9393939393939394,5.367088607594937,0.022404191194241124,0.020256504414938353,3.775517981511234e-05,-0.012798208682753843,0.02141138558575948
4.040404040404041,5.367088607594937,0.022431026303558768,0.020131240325735156,1.8232727077868084e-05,-0.012768679988788176,0.021374152477013738
4.141414141414141,5.367088607594937,0.022348294204039974,0.020138964075410614,-0.00010174817584409837,-0.012746177483835176,0.021330346734476695
4.242424242424242,5.367088607594937,0.02232599850634514,0.01996947403350455,-3.4308763028073746e-05,-0.012688641761954908,0.02124606284254282
4.343434343434343,5.367088607594937,0.022391645184715536,0.02017628671975008,4.795650943509825e-06,-0.012770379571339684,0.021370262878514856
4.444444444444445,5.367088607594937,0.022183199019724254,0.020094967951582665,4.8039279520730806e-05,-0.012683450091392075,0.021216463081202324
4.545454545454545,5.367088607594937,0.02203820309520639,0.020036228615257338,-0.00010274699510028675,-0.012622329513139118,0.021109288195919843
4.646464646464646,5.367088607594937,0.022032473282622977,0.019745399814380685,-3.6622553805404655e-05,-0.012533361929101098,0.020982724383371443
4.747474747474747,5.367088607594937,0.02212124332104815,0.019776984924311066,1.773187554760948e-05,-0.012569468473607764,0.021047279785195275
4.848484848484849,5.367088607594937,0.022227191599434586,0.019826709758591042,5.9600770933320083e-05,-0.012616170407407689,0.021129719506289942
4.94949494949495,5.367088607594937,0.022079318457798352,0.01984277128119306,-5.675973775872493e-05,-0.012576626921697424,0.02105057420783075
5.05050505050505,5.367088607594937,0.022300645697308084,0.020124843337332003,2.476481667647844e-05,-0.012727646710392025,0.0212963132203155
5.151515151515151,5.367088607594937,0.022155134445152096,0.019837794481608054,-4.239901216593902e-05,-0.012597878678028045,0.021092284403797023
5.252525252525253,5.367088607594937,0.022146313284392656,0.019988257363036478,3.1152388441798142e-06,-0.01264037119422874,0.02115002231783016
5.353535353535354,5.367088607594937,0.022304112897103455,0.019965401003021337,5.272777138967262e-06,-0.012680854170037436,0.021231585309095215
5.454545454545454,5.367088607594937,0.021991137952433886,0.019903014439950656,-3.272022202876115e-05,-0.012568245717715363,0.02102506617969163
5.555555555555555,5.367088607594937,0.022287863575507952,0.020085183905157497,-2.566862230170506e-05,-0.012711914244199634,0.02127227334188394
5.656565656565657,5.367088607594937,0.022289691652771025,0.020043439882671737,3.1554649636915955e-07,-0.012699939460632829,0.02125576961577701
5.757575757575758,5.367088607594937,0.02221981690530287,0.01990597758137099,-1.5721415208082177e-05,-0.012637738346002158,0.021158019072795756
5.858585858585858,5.367088607594937,0.022159990771260518,0.01999000722840766,2.15198745955065e-05,-0.012644999399900452,0.02115865292475409
5.959595959595959,5.367088607594937,0.022269194559703578,0.0201052801767038,-5.933813189973062e-05,-0.012712342420922212,0.021270201795728545
6.0606060606060606,5.367088607594937,0.022289382503125024,0.020081520082200252,-4.012260387108443e-06,-0.012711270775597583,0.021271562874428857
6.161616161616162,5.367088607594937,0.02224509311469491,0.020107184991763692,2.1388647023362886e-05,-0.01270568343193758,0.021256957119515932
6.262626262626262,5.367088607594937,0.02244698162018506,0.020173381796111157,-4.3854336657081373e-05,-0.012786109024888864,0.021401087733170076
6.363636363636363,5.367088607594937,0.022421870462548642,0.020223079464591644,2.0910725772852947e-05,-0.012793484978142084,0.021407364661185063
6.4646464646464645,5.367088607594937,0.0225152713479466,0.020349293982487242,-6.057863746293572e-05,-0.012859369599130152,0.02151446822527738
6.565656565656566,5.367088607594937,0.02259791451688357,0.020460288177290002,-4.751399973635997e-06,-0.01291746080825207,0.021608548246384633
6.666666666666667,5.367088607594937,0.022764526281995903,0.02014527563873949,9.881556611460537e-06,-0.012872940576220616,0.021574485477151458
6.767676767676767,5.367088607594937,0.022675094604940882,0.02052222248251401,-5.749854129640854e-05,-0.012959195126236467,0.021679209231817622
6.8686868686868685,5.367088607594937,0.02287545419374188,0.020262134699955515,2.546667282159263e-05,-0.012941276668109219,0.021687252445322294
6.96969696969697,5.367088607594937,0.022780922938906146,0.02033723815157894,3.714892844587336e-05,-0.012935448327145526,0.021662797386066517
7.070707070707071,5.367088607594937,0.022814062848086458,0.0205942347842533,-1.1811672270996986e-05,-0.013022489289701929,0.02178913081919492
7.171717171717171,5.367088607594937,0.022792743871851758,0.020480256392088305,-3.3663233602815625e-05,-0.012981900079182018,0.021729064323128967
7.2727272727272725,5.367088607594937,0.022885918017935263,0.02052624492043645,1.155230665793111e-05,-0.013023648881511514,0.02180207366191564
7.373737373737374,5.367088607594937,0.02302560956163057,0.020933387352291236,1.3034282010689489e-05,-0.013187699074176542,0.022054067820404675
7.474747474747475,5.367088607594937,0.02311392837209903,0.02075930585747671,1.9594969176323115e-05,-0.013161970268872723,0.02203121666452014
7.575757575757575,5.367088607594937,0.0231494373765773,0.020997606660538258,1.0117446861336864e-05,-0.013244113211134667,0.02215205324489843
7.6767676767676765,5.367088607594937,0.023182087124961604,0.021141288170470954,-8.510104309383973e-05,-0.013297012588629767,0.022232538569336494
7.777777777777778,5.367088607594937,0.02348734334793351,0.021247017905501205,-1.4397065669173085e-05,-0.013420308376030416,0.02245118448057267
7.878787878787879,5.367088607594937,0.023511897213118877,0.02127946397568098,-4.7383587980450715e-05,-0.013437408356639955,0.022479125061250143
7.979797979797979,5.367088607594937,0.023596169743797222,0.02122512804063435,8.222488056034173e-05,-0.01344638933532947,0.02250497379762361
8.080808080808081,5.367088607594937,0.023501263053108488,0.021447393669834756,-4.16862877507152e-05,-0.013484597016882973,0.02254472073727392
8.181818181818182,5.367088607594937,0.023999327024061164,0.021531350592759672,-6.724297218939052e-05,-0.01365920328504625,0.022865747236045855
8.282828282828282,5.367088607594937,0.02392726375475499,0.021402630201019884,3.543311292191891e-05,-0.01359896818673246,0.022770241960998278
8.383838383838384,5.367088607594937,0.02402087806412207,0.021618114407048937,-7.294386547472903e-05,-0.013691697741351302,0.02291452215871511
8.484848484848484,5.367088607594937,0.024420350090280627,0.021931536290829324,-3.207091954052728e-07,-0.013905565914332984,0.02327595301328496
8.585858585858587,5.367088607594937,0.024554007770153194,0.02192478653606836,7.914213230336948e-05,-0.013943638291866465,0.02335108078215336
8.686868686868687,5.367088607594937,0.024543201946081995,0.02202765102663589,-3.89485907646742e-05,-0.013971255891815366,0.023387210927150737
8.787878787878787,5.367088607594937,0.02465405225502433,0.022277673490846812,-1.3508361226202926e-05,-0.014079517723761342,0.023555947228290578
8.88888888888889,5.367088607594937,0.024720882415976822,0.022284353981632594,-2.91085196076559e-05,-0.014101570919282824,0.02359720549609749
8.98989898989899,5.367088607594937,0.024894235154229755,0.02254016001362725,-8.820513338578389e-05,-0.0142303185503571,0.02380514763654015
9.09090909090909,5.367088607594937,0.02530620887907165,0.02284676952945411,3.817282548828765e-05,-0.014445893522557726,0.02417060891522263
9.191919191919192,5.367088607594937,0.02552124755835941,0.022989368344027775,4.4077521239597665e-05,-0.014553184770716154,0.02435433434848599
9.292929292929292,5.367088607594937,0.025516211255311404,0.02316331200347561,-3.328852910024137e-05,-0.014603856977636104,0.024424975367872383
9.393939393939394,5.367088607594937,0.025880729576660665,0.023135332224768025,3.464310550786166e-05,-0.014704818540428606,0.024623161536031096
9.494949494949495,5.367088607594937,0.02606996283601392,0.023557786605121298,7.106300752618797e-05,-0.014888324832340564,0.02490937174162441
9.595959595959595,5.367088607594937,0.0264548253047898,0.0238214833783924,2.4499424281355502e-05,-0.015082892604954658,0.025241423724564695
9.696969696969697,5.367088607594937,0.026724299274425625,0.023933667986587033,0.00015075624089494203,-0.015197390178303795,0.02544535932789045
9.797979797979798,5.367088607594937,0.026737628949413245,0.02424644956793709,-2.9102915854206042e-05,-0.015295223555205099,0.0255832188658501
9.8989898989899,5.367088607594937,0.027150359536658075,0.024448061510523048,-4.04569149277624e-05,-0.015479526314154337,0.025905230840372422
10.0,5.367088607594937,0.0276496258430572,0.024756019934997934,-0.00011197383833217258,-0.01572169373341654,0.02632309362781142
0.0,5.468354430379747,0.027681340262844613,0.024929973768824273,-7.87542117579884e-06,-0.015783394209500663,0.02641335439299237
0.10101010101010101,5.468354430379747,0.027230143307893626,0.024494481667205407,-2.92223693657298e-05,-0.015517387492529709,0.02597064982828738
0.20202020202020202,5.468354430379747,0.026992520633954947,0.024226638896249496,8.215479956878042e-05,-0.015365747859061332,0.025721749557886593
0.30303030303030304,5.468354430379747,0.02653771855182179,0.02408983376863359,5.354224173783466e-05,-0.015188265696136613,0.02540255831090416
0.40404040404040403,5.468354430379747,0.026497446141933854,0.023713232884842023,2.4355668417697746e-06,-0.015063203708032763,0.025220863832830145
0.5050505050505051,5.468354430379747,0.026246818078089627,0.02343788165105536,-6.814559554329436e-05,-0.014905409918743496,0.024961447697374062
0.6060606060606061,5.468354430379747,0.02588211389313205,0.023437300697915067,1.2512099573838371e-05,-0.014795824377314136,0.024750443778414063
0.7070707070707071,5.468354430379747,0.02556934277060095,0.023090251644861174,1.4288057433421406e-05,-0.014597878324638637,0.024424353916170743
0.8080808080808081,5.468354430379747,0.025521622326764533,0.02294169556798066,-6.000596350894e-05,-0.014538995368423558,0.024334668973488606
0.9090909090909091,5.468354430379747,0.025276890478454696,0.022691179567928023,-3.6629709856006025e-05,-0.014390421013914814,0.024088428485171356
1.0101010101010102,5.468354430379747,0.025183412787083248,0.022329159974309214,-2.9090105530053945e-05,-0.014253771828417739,0.02388459232735183
1.1111111111111112,5.468354430379747,0.024997807805061806,0.022350806248275058,-1.5589847294680943e-05,-0.014204584216001057,0.02378504793466269
1.2121212121212122,5.468354430379747,0.02465495918124029,0.022135267597870396,-9.589712569570423e-05,-0.014037068033733205,0.023497245658646474
1.3131313131313131,5.468354430379747,0.024634513037306262,0.022083235047982746,2.1060218031726132e-05,-0.014015324425586702,0.023463164570717798
1.4141414141414141,5.468354430379747,0.024750390432196883,0.02192820923846577,0.000127686274607493,-0.014003579901198795,0.023467964508566853
1.5151515151515151,5.468354430379747,0.024334203053354878,0.021879449598698142,7.487222138266155e-05,-0.013864095795615905,0.02320477539865702
1.6161616161616161,5.468354430379747,0.02404196246786744,0.02170753646953226,-5.837438021365429e-05,-0.01372484968121991,0.022964136049868224
1.7171717171717171,5.468354430379747,0.023985023184348194,0.02153567040158814,-4.0142756744776566e-05,-0.0136562080757809,0.02285908391099137
1.8181818181818181,5.468354430379747,0.023869624150770243,0.021302129136359736,4.122342088141615e-05,-0.013551525986138993,0.022695174483937968
1.9191919191919191,5.468354430379747,0.023706813395857056,0.021346415273916966,5.0602005852214005e-05,-0.013515968600932207,0.022619342266128554
2.0202020202020203,5.468354430379747,0.02370469370703703,0.021185894674858444,5.3113729011263457e-05,-0.01346717651456864,0.022551229588343925
2.121212121212121,5.468354430379747,0.02335445562188913,0.021144748194544302,-2.134577481128179e-05,-0.01334976114493003,0.022331776847941923
2.2222222222222223,5.468354430379747,0.023228893073577714,0.020898378153839638,1.909377224135473e-05,-0.013238181368225205,0.02215577994687324
2.323232323232323,5.468354430379747,0.023059182682650853,0.020940187619900477,-4.429228040507461e-05,-0.013199811090765397,0.022076223346182648
2.4242424242424243,5.468354430379747,0.023051308414794587,0.020825468172812712,6.279158769936835e-06,-0.01316303297628219,0.022022914720815794
2.525252525252525,5.468354430379747,0.02301976153507768,0.020722493882201997,4.749688756747753e-05,-0.013122676625183903,0.02196158177619114
2.6262626262626263,5.468354430379747,0.022993562237397572,0.021005108991718594,9.068047602654122e-05,-0.01319960136873485,0.022067190488615652
2.727272727272727,5.468354430379747,0.023008847021454802,0.02054200249933603,-1.4694713110774553e-05,-0.013065254856237248,0.021879985436961617
2.8282828282828283,5.468354430379747,0.022851527151034823,0.020484733876312295,-0.00011424357243544011,-0.013000878308204135,0.021765760210547977
2.929292929292929,5.468354430379747,0.022658712129564443,0.020496696484851626,-1.9855730070207724e-05,-0.012946622584324819,0.021658814364026054
3.0303030303030303,5.468354430379747,0.022698785720004982,0.02050591217412214,2.7112432937059328e-05,-0.012961409368238136,0.021685714331650046
3.131313131313131,5.468354430379747,0.02263130797409665,0.02045081312058588,4.94719137130565e-05,-0.012924636328404758,0.02162384217176961
3.2323232323232323,5.468354430379747,0.0228199625054324,0.02024388965756649,-6.1983591786083185e-06,-0.012919155648899667,0.021647195419413102
3.3333333333333335,5.468354430379747,0.022404516442496004,0.020378408322907056,2.79645727310477e-05,-0.012834877429620918,0.021463360512900043
3.4343434343434343,5.468354430379747,0.0225101489165173,0.020473182149942832,-6.150342292275705e-05,-0.012894999319938039,0.021564205540928687
3.5353535353535355,5.468354430379747,0.022507315973233962,0.0202225759642092,9.904984087844518e-05,-0.01281896758123295,0.02145705889773702
3.6363636363636362,5.468354430379747,0.02245567459611363,0.020067008750685,-3.841330157243187e-06,-0.01275680500403959,0.02136174120738561
3.7373737373737375,5.468354430379747,0.022528222639440862,0.02028141042625588,4.44905812021855e-05,-0.012842889919709022,0.021493213647133694
3.8383838383838382,5.468354430379747,0.022305727974253918,0.02030614725540518,5.783511917800344e-06,-0.01278356256889773,0.021376197516921307
3.9393939393939394,5.468354430379747,0.022330134791258616,0.02012344948524981,5.851382082868152e-05,-0.012736075282952529,0.021312885095926153
4.040404040404041,5.468354430379747,0.022291633079368368,0.019974179876565298,-9.592228416589876e-06,-0.0126797438867801,0.0212279992992608
4.141414141414141,5.468354430379747,0.02216618026422711,0.019896034724099683,-3.6700113270767546e-05,-0.012618664496498039,0.021122895012427118
4.242424242424242,5.468354430379747,0.022359309667634164,0.02015813402275402,7.976679597587004e-05,-0.012755233107116454,0.021344465872475314
4.343434343434343,5.468354430379747,0.022236747279479562,0.019954319682129875,-9.280172968418159e-06,-0.01265732008848283,0.02118794227874527
4.444444444444445,5.468354430379747,0.02228639308981496,0.019987408000673543,-1.0825348179628276e-05,-0.012682140327146551,0.021230471392649462
4.545454545454545,5.468354430379747,0.02228204822540049,0.019957062021874538,-4.365341748491746e-05,-0.012671733074182508,0.02121545418127732
4.646464646464646,5.468354430379747,0.02227840060428705,0.019943376141238707,-6.0766276226252586e-05,-0.012666533023657726,0.02120778017474978
4.747474747474747,5.468354430379747,0.02219464453388594,0.019890257549075058,1.0954980043646647e-05,-0.012625470624888297,0.021136881401940335
4.848484848484849,5.468354430379747,0.022066352971120508,0.02000403593695515,6.029914577296467e-05,-0.012621116672422697,0.021111138703115543
4.94949494949495,5.468354430379747,0.022156466451332957,0.020004461770809143,2.6892728862397797e-06,-0.012648278466642628,0.02116268725713887
5.05050505050505,5.468354430379747,0.022200952130576226,0.020026736581716605,4.3991525139677755e-05,-0.01266830661368785,0.021197774392565497
5.151515151515151,5.468354430379747,0.022418581569874935,0.01984873224862154,6.5842189980653e-06,-0.012680194145548943,0.021250521842159437
5.252525252525253,5.468354430379747,0.021856070113689802,0.019971408622088634,2.463723671600201e-05,-0.012548243620733531,0.02097737536089159
5.353535353535354,5.468354430379747,0.022179738425797933,0.019790608878391198,7.993535382258079e-05,-0.012591104191256738,0.021087380994012868
5.454545454545454,5.468354430379747,0.022202546219189368,0.020052997410302073,2.8911814349577214e-05,-0.01267666308884743,0.021209683392175663
5.555555555555555,5.468354430379747,0.02215128867101765,0.01997573260076339,-2.2471595068941607e-05,-0.012638106381534312,0.021147642383659293
5.656565656565657,5.468354430379747,0.02217109059131707,0.020005507200485644,-2.590308084408737e-06,-0.012652979337540815,0.021171530034906454
5.757575757575758,5.468354430379747,0.022290811472480375,0.020149127238358003,-1.0123505476434822e-05,-0.012731981613251514,0.021300880625458544
5.858585858585858,5.468354430379747,0.022371594377260443,0.020076984765069365,-4.081959684755504e-05,-0.012734573742698941,0.021317232265784167
5.959595959595959,5.468354430379747,0.022325865048446736,0.019950370631472873,4.8964367307717113e-05,-0.012682870703975882,0.02123816019898216
6.0606060606060606,5.468354430379747,0.022445339691272225,0.020116731471062185,2.6534069681992886e-05,-0.012768621348700323,0.021376421584537685
6.161616161616162,5.468354430379747,0.02228831178231524,0.020141439945966105,1.5697339293390857e-05,-0.012728925518484402,0.021296208375238136
6.262626262626262,5.468354430379747,0.02247968016016313,0.02020077878317386,-2.1708638524113774e-05,-0.012804137683001099,0.021431328734191006
6.363636363636363,5.468354430379747,0.02236881713298398,0.02013387251036789,4.7592955683458966e-05,-0.01275080689300556,0.021339463093004125
6.4646464646464645,5.468354430379747,0.022442670982774336,0.020186150719796563,2.2524524997678424e-05,-0.01278864651077127,0.021403844158771945
6.565656565656566,5.468354430379747,0.022549812580573692,0.020379997555618826,-1.3522838814449586e-05,-0.012878943040857753,0.021547013043941455
6.666666666666667,5.468354430379747,0.02253598120635719,0.02007296524856466,1.8016341136279715e-05,-0.012782683936476554,0.021411010928293384
6.767676767676767,5.468354430379747,0.022642849154090195,0.020422844112956584,-7.095270595964337e-05,-0.012919707980114032,0.02161885528397104
6.8686868686868685,5.468354430379747,0.022530956042270442,0.020386340382131753,-2.7440399672946582e-05,-0.012875188927320659,0.021538926952587217
6.96969696969697,5.468354430379747,0.022731746874505663,0.020493712002530466,-3.600738083544647e-05,-0.01296763766311084,0.021699552148446336
7.070707070707071,5.468354430379747,0.022767737532284858,0.020453020568890333,-2.4569277879402287e-05,-0.012966227430352558,0.021703196299711052
7.171717171717171,5.468354430379747,0.022805607296801044,0.020683375485513897,-6.554083012082629e-05,-0.013046694834694483,0.021822320993812493
7.2727272727272725,5.468354430379747,0.023087257078033666,0.020737514375421984,-3.22008483829241e-05,-0.013147431436036694,0.022006742762098453
7.373737373737374,5.468354430379747,0.02306703590255514,0.020723183060859084,4.317045458309739e-06,-0.013137065689024268,0.021988999743831693
7.474747474747475,5.468354430379747,0.023057426996343017,0.020967132749722457,7.919964358333963e-05,-0.013207367923819643,0.022087016106469532
7.575757575757575,5.468354430379747,0.02320240417376742,0.021013466421488793,-4.5049069787041565e-05,-0.013264761178576863,0.02218919732082911
7.6767676767676765,5.468354430379747,0.02331582230249349,0.02083157025468869,6.989383691271584e-05,-0.013244217767154655,0.022178623808130387
7.777777777777778,5.468354430379747,0.023356662272829325,0.021157964067190685,-6.819994920076499e-05,-0.013354387902006003,0.022338926755704328
7.878787878787879,5.468354430379747,0.02336074527586345,0.02107541293480786,6.36148042344595e-05,-0.013330847463201392,0.02230632729950657
7.979797979797979,5.468354430379747,0.023587638988997316,0.021230858437920417,4.881033960535241e-05,-0.01344554922807532,0.022502164033129476
8.080808080808081,5.468354430379747,0.023593944588453934,0.021440784283628903,3.470145324764606e-05,-0.01351041866162485,0.022594521198551234
8.181818181818182,5.468354430379747,0.02388242583713705,0.021318741983500745,-4.796613705714918e-05,-0.013560350346191338,0.022709527769513935
8.282828282828282,5.468354430379747,0.023775501489650436,0.02159120579695616,-0.00011393893106157554,-0.013610012185981978,0.022762948831424226
8.383838383838384,5.468354430379747,0.024026721078393324,0.021624473872233162,1.4167382874368701e-05,-0.013695358485187945,0.022920222424288712
8.484848484848484,5.468354430379747,0.02434580766712246,0.021974748683363826,2.4973181125054272e-05,-0.013896166905145885,0.02325116764083725
8.585858585858587,5.468354430379747,0.024189578050873253,0.022013706015407242,5.493554802906995e-05,-0.013860985219884147,0.02317856192059176
8.686868686868687,5.468354430379747,0.024667233438898213,0.02197381529551867,-1.3074772387275072e-05,-0.013992314620325063,0.023436899231380762
8.787878787878787,5.468354430379747,0.024613627942714933,0.02225216643242893,-9.735388094883175e-05,-0.014059738312543158,0.02352257382358796
8.88888888888889,5.468354430379747,0.024856762583828688,0.022394353863945022,4.2745840553342646e-05,-0.014175334934332113,0.023721721597277482
8.98989898989899,5.468354430379747,0.02492985439853513,0.022665237018941277,5.7325602137106185e-05,-0.014278527425242922,0.023878429792187635
9.09090909090909,5.468354430379747,0.02537227100412237,0.022788909332937476,3.389570285039311e-06,-0.014448354101117954,0.024184296050854374
9.191919191919192,5.468354430379747,0.025363648445011648,0.022989279575355435,3.488830400151711e-05,-0.014505878406110125,0.024263826661593643
9.292929292929292,5.468354430379747,0.025614256438269416,0.023093371390224722,-1.2353291320412563e-05,-0.01461228834854824,0.024451479629058952
9.393939393939394,5.468354430379747,0.026017732775314214,0.023385266963311738,-2.950785612346557e-05,-0.014820899921587785,0.02480653371841599
9.494949494949495,5.468354430379747,0.0260674214506346,0.023600790705964915,7.009068002064154e-05,-0.014900463646979854,0.02492610605853699
9.595959595959595,5.468354430379747,0.02658620943547536,0.023785827506115405,-1.9478287490007683e-05,-0.015111611082477229,0.025302534830230178
9.696969696969697,5.468354430379747,0.02662712328462576,0.023857634543489447,-8.635938871630539e-06,-0.015145427348434562,0.025356073589864834
9.797979797979798,5.468354430379747,0.026927331113991163,0.024323955110545633,3.780649187396255e-05,-0.015375385867361039,0.025724716672323514
9.8989898989899,5.468354430379747,0.02741578948707478,0.02468199729278034,2.485038896339042e-05,-0.015629336033956536,0.026156297793963414
10.0,5.468354430379747,0.027378668474998598,0.024849183937507967,-2.9221439370150282e-05,-0.015668355723751966,0.02620569446899379
0.0,5.5696202531645564,0.0172848272243087,0.01535619858489915,-6.847037452121145e-05,-0.009792307742762355,0.01640618518630908
0.10101010101010101,5.5696202531645564,0.017079986705548642,0.01506800823721901,6.98079387909832e-05,-0.009644398482830297,0.01616861333487739
0.20202020202020202,5.5696202531645564,0.016698361949488066,0.015167230438037605,3.7150738648306287e-06,-0.0095596777162577,0.01598788005760371
0.30303030303030304,5.5696202531645564,0.016512453599886887,0.01486142118403441,-9.622165729053985e-05,-0.00941216243517639,0.015752847729535606
0.40404040404040403,5.5696202531645564,0.01633769945349332,0.014751705869817455,-2.0090082698940678e-05,-0.009326821596993232,0.015605304335678314
0.5050505050505051,5.5696202531645564,0.01611099435048773,0.014683493156623378,-9.395311173156026e-05,-0.009238346252133331,0.015447650841208211
0.6060606060606061,5.5696202531645564,0.016092380219918836,0.014501118687277052,3.119229961179963e-05,-0.009178049672158767,0.015358793822229768
0.7070707070707071,5.5696202531645564,0.016124674226231723,0.014473609830661207,-4.3439022327430264e-05,-0.009179485217067879,0.015365998759641357
0.8080808080808081,5.5696202531645564,0.01564192584336564,0.014275473078673037,6.068547088321415e-05,-0.008975219676611603,0.015005803297818854
0.9090909090909091,5.5696202531645564,0.015728470706567296,0.014267800868439453,-3.62448779428563e-05,-0.008998881472502024,0.015051517712707015
1.0101010101010102,5.5696202531645564,0.015705797443776464,0.01404111734306955,7.289800908187541e-06,-0.008924074436053805,0.014943167807925753
1.1111111111111112,5.5696202531645564,0.015337366522420447,0.013755048454985193,3.18334814218833e-05,-0.008727724493221692,0.014610714912895648
1.2121212121212122,5.5696202531645564,0.01525435364371595,0.013744307659161487,4.3026856408359e-05,-0.00869959839086323,0.014558376366458908
1.3131313131313131,5.5696202531645564,0.015074016275264392,0.013630926817277936,4.994851366930805e-05,-0.008611482927762698,0.014407040099770334
1.4141414141414141,5.5696202531645564,0.015135813891421872,0.01353986418905811,-5.582941278333546e-06,-0.008602703424143994,0.014404305378631979
1.5151515151515151,5.5696202531645564,0.015027890608004036,0.013694048352073121,0.00011812166577803378,-0.008616581688023147,0.014408804737491523
1.6161616161616161,5.5696202531645564,0.015086953332076443,0.01354609629814919,-3.481653238118018e-05,-0.00858991488906769,0.01437870646663929
1.7171717171717171,5.5696202531645564,0.014996873894190129,0.01342331444948347,-3.3445249093058736e-05,-0.00852605650310208,0.014275405392529137
1.8181818181818181,5.5696202531645564,0.014644275589624224,0.013383259871343643,2.2095456893467963e-05,-0.00840826063829036,0.014056307164860615
1.9191919191919191,5.5696202531645564,0.01470334529426576,0.013207589066562638,-6.382740830064127e-05,-0.008373280308248519,0.014015892802718756
2.0202020202020203,5.5696202531645564,0.014708404556726708,0.013298610526560777,4.928985979801166e-05,-0.008402104524986244,0.014056889817642042
2.121212121212121,5.5696202531645564,0.014671909873891258,0.01308347687226827,-4.329791677948836e-05,-0.008326616023847858,0.013945907537213134
2.2222222222222223,5.5696202531645564,0.014495731557283863,0.013003995662166364,-6.720360953088102e-05,-0.008249918165835068,0.01381091073199126
2.323232323232323,5.5696202531645564,0.014467130369961272,0.012951280957645844,-6.95035135472294e-05,-0.008225523398282135,0.013772442111995336
2.4242424242424243,5.5696202531645564,0.014506247523147777,0.012870706383058499,-2.3090473164463537e-05,-0.008213086171861882,0.013761622248891374
2.525252525252525,5.5696202531645564,0.014186985057853268,0.01299095073762126,2.221242747965976e-05,-0.008153380738642357,0.01362844093331725
2.6262626262626263,5.5696202531645564,0.014099996110680883,0.012756487430131342,-7.380932248519459e-05,-0.008056945062243668,0.013479161033750233
2.727272727272727,5.5696202531645564,0.01413821127841375,0.012914776977506983,3.316338628282574e-05,-0.00811589647677622,0.013568048365214207
2.8282828282828283,5.5696202531645564,0.014135448694601491,0.012903559791661691,2.8461080275532455e-05,-0.008111702545878955,0.013561621871340248
2.929292929292929,5.5696202531645564,0.01425238965137652,0.012663258781166272,2.8470663076666755e-05,-0.008074694529762838,0.013528099166698192
3.0303030303030303,5.5696202531645564,0.014268372430482965,0.012617572066182971,4.9403103072420886e-05,-0.00806578334899978,0.013519048829385505
3.131313131313131,5.5696202531645564,0.013966845970720893,0.01260520741273092,8.750654598811866e-06,-0.007971616015035543,0.013338263741847165
3.2323232323232323,5.5696202531645564,0.014132987463607015,0.012668367295675872,-8.232183091028531e-06,-0.008040406427784865,0.013460579174648548
3.3333333333333335,5.5696202531645564,0.014053092934647576,0.01244422827091083,1.7937819043551278e-05,-0.007949196361667523,0.013321760664167313
3.4343434343434343,5.5696202531645564,0.013882947918379303,0.012672269416074463,4.316730789030308e-05,-0.00796656520033613,0.013319151211559514
3.5353535353535355,5.5696202531645564,0.013942096144709546,0.01267723140068433,3.514570461463995e-05,-0.007985798263618163,0.013354803162885193
3.6363636363636362,5.5696202531645564,0.013957665918498133,0.01244208258629844,-2.231886069104847e-05,-0.007919924551438971,0.01326502617039959
3.7373737373737375,5.5696202531645564,0.013936611411418134,0.012425863570493271,-4.46479163586235e-06,-0.00790874249457342,0.013246012640610514
3.8383838383838382,5.5696202531645564,0.01379148040754419,0.012424368941167033,5.322797802445052e-05,-0.007864754804613367,0.013161608345587529
3.9393939393939394,5.5696202531645564,0.013950630664214005,0.012742217003725112,-2.654642410345979e-05,-0.008007854300381735,0.013387469550852052
4.040404040404041,5.5696202531645564,0.01383667624720719,0.012494729784408623,4.5848157320100923e-07,-0.007899421809484743,0.013216896449728
4.141414141414141,5.5696202531645564,0.013735699434397732,0.012443667252114241,-3.1196367385961216e-05,-0.007853810005953593,0.0131375317330452
4.242424242424242,5.5696202531645564,0.01388091449501548,0.01233854841115782,7.435257919709848e-05,-0.00786583887185199,0.013178232565204827
4.343434343434343,5.5696202531645564,0.013899152698262177,0.012533073067502398,-0.00010120980991463452,-0.007929667729729372,0.013270116811020867
4.444444444444445,5.5696202531645564,0.01388369483242725,0.01248558495809913,9.591044170599003e-05,-0.007910783937157915,0.013241161543526718
4.545454545454545,5.5696202531645564,0.01382225329633606,0.012563568838738793,8.939769857540392e-05,-0.007915746640522454,0.013238772345060207
4.646464646464646,5.5696202531645564,0.013862040683462352,0.012321911044036066,-4.9918775269167364e-05,-0.007855185518249526,0.013160026867337487
4.747474747474747,5.5696202531645564,0.013861758112830405,0.012461195689089422,3.677401437896264e-05,-0.007896886140575947,0.013217401882593962
4.848484848484849,5.5696202531645564,0.013707620838642302,0.012462054544806107,-0.00011056464044181707,-0.007850902615034521,0.013130621751545894
4.94949494949495,5.5696202531645564,0.01383640522386123,0.012425035804367065,1.7005556285287823e-05,-0.007878432308468488,0.013187519156965205
5.05050505050505,5.5696202531645564,0.013714740715583028,0.012577468694830129,-7.229169771352904e-05,-0.007887662823123948,0.013183542313271499
5.151515151515151,5.5696202531645564,0.013749898200490348,0.012310841659861743,-9.97768631329118e-06,-0.007818221958105626,0.013089843466415214
5.252525252525253,5.5696202531645564,0.013756749149936968,0.012333947912913267,3.5358596375336802e-06,-0.00782720911885507,0.013103412850602042
5.353535353535354,5.5696202531645564,0.0137663491934549,0.012364680646818003,3.192846777800007e-05,-0.007839308952081871,0.013121899422166197
5.454545454545454,5.5696202531645564,0.013911791471652484,0.0125540011746416,-6.485804393613883e-05,-0.007939737793888225,0.013285513187857699
5.555555555555555,5.5696202531645564,0.013772330040763664,0.01236606815855894,0.0001031351756281032,-0.00784151945979678,0.013127035273090028
5.656565656565657,5.5696202531645564,0.013649765652320758,0.012374654406400017,-7.384004337280563e-05,-0.007807326017616232,0.01305960942835995
5.757575757575758,5.5696202531645564,0.013855845243864112,0.01239897643408953,3.822427021872511e-05,-0.007876446503386092,0.013188068420601171
5.858585858585858,5.5696202531645564,0.013933840412654363,0.012548130015216132,5.3568701440406856e-05,-0.007944591128361149,0.013295579838132303
5.959595959595959,5.5696202531645564,0.013813210615718854,0.012377038758308262,-1.5030129032037537e-05,-0.007857074812208134,0.013154083414886107
6.0606060606060606,5.5696202531645564,0.013739739512046222,0.012619274461834607,-4.0611388594681235e-05,-0.00790770419216425,0.013215367332012428
6.161616161616162,5.5696202531645564,0.01395904541485978,0.012691102827425195,2.491969107206774e-05,-0.007995044472685493,0.013370311219665882
6.262626262626262,5.5696202531645564,0.013887387247258683,0.012573463310827341,5.704281566253408e-05,-0.007938255167425806,0.013279635228267453
6.363636363636363,5.5696202531645564,0.013861485625966606,0.012500124983378502,-1.2868800158337518e-05,-0.007908483182803532,0.013233446353732942
6.4646464646464645,5.5696202531645564,0.013949901538755114,0.01243359981431607,-1.9173039720516714e-06,-0.007915050405921355,0.013256948183111128
6.565656565656566,5.5696202531645564,0.014095493266262164,0.01267036242482272,1.009951332087515e-05,-0.008029756707325465,0.013439728872113442
6.666666666666667,5.5696202531645564,0.013964200089849258,0.012647693646340313,6.725516694007504e-05,-0.007983568120856871,0.013355211856831486
6.767676767676767,5.5696202531645564,0.01409552416426481,0.012428455447796121,1.4898000139921612e-05,-0.007957193883618279,0.013340366488427215
6.8686868686868685,5.5696202531645564,0.014308741817458033,0.012578282497115907,1.751655701679113e-05,-0.00806610729437218,0.013526818055512943
6.96969696969697,5.5696202531645564,0.014093308860885131,0.012702956902487704,4.527626225788676e-05,-0.008038879729011851,0.01345235754287194
7.070707070707071,5.5696202531645564,0.014153200833243501,0.012683708781869668,-4.179107666408731e-06,-0.00805107288453395,0.013478669703796782
7.171717171717171,5.5696202531645564,0.013936433798883626,0.012708506124950936,7.579592179419809e-05,-0.00799348197715037,0.013365488982105274
7.2727272727272725,5.5696202531645564,0.014239141082461583,0.012799112853054675,-8.169564342972462e-05,-0.008111476180654878,0.013577263254461404
7.373737373737374,5.5696202531645564,0.014388849382118462,0.012974061797374576,-9.44467590030284e-05,-0.008208873353847911,0.013737183319644675
7.474747474747475,5.5696202531645564,0.014266362189064987,0.012925205047030638,3.658219259267961e-05,-0.008157470170828688,0.0136454524959396
7.575757575757575,5.5696202531645564,0.014284262756946754,0.012915517089976118,-3.135517224124436e-05,-0.008159933954076862,0.013651558661793343
7.6767676767676765,5.5696202531645564,0.014361907129965906,0.01293937702645828,-3.0846963554668036e-05,-0.008190385246927256,0.013706224048747901
7.777777777777778,5.5696202531645564,0.014637385306867987,0.01309640893581408,5.410601438966051e-05,-0.00832013827280462,0.013931280425299947
7.878787878787879,5.5696202531645564,0.014710605768241847,0.01309752298492811,2.16862875767106e-05,-0.008342438625950988,0.013974116935348486
7.979797979797979,5.5696202531645564,0.01456928416159201,0.013130759234234998,-2.1539982929123103e-05,-0.008310013018748104,0.013905988221634564
8.080808080808081,5.5696202531645564,0.014506845115044275,0.013366411349947226,-5.9127892580132674e-05,-0.00836197693949745,0.013971955363987914
8.181818181818182,5.5696202531645564,0.014772637970994042,0.013310968570221985,1.358627141485933e-05,-0.008425081962364809,0.014098764163168197
8.282828282828282,5.5696202531645564,0.014914670775693957,0.013543987189590321,-4.3806706895973696e-05,-0.008537597389585283,0.014278957962641293
8.383838383838384,5.5696202531645564,0.01505702870150149,0.01340882179877036,5.154094017135078e-05,-0.008539755150081556,0.014304599612612578
8.484848484848484,5.5696202531645564,0.015095518234279516,0.01371283710749544,-8.812574189306697e-05,-0.008642506602532487,0.01445467011513648
8.585858585858587,5.5696202531645564,0.015048472440431213,0.013483650656304552,4.816301897987985e-05,-0.008559636929020729,0.014330525864149941
8.686868686868687,5.5696202531645564,0.015264860450621054,0.013641255597423239,0.0001304801501569733,-0.008671834814413288,0.014523051710780402
8.787878787878787,5.5696202531645564,0.015303859308621631,0.013863655187087652,5.342352084853503e-07,-0.008750254348712785,0.01463699481636641
8.88888888888889,5.5696202531645564,0.015483288651521739,0.01399400293040915,-9.476514148021241e-05,-0.008843187474579265,0.014795881184201064
8.98989898989899,5.5696202531645564,0.015375670825223418,0.013985818256583179,8.840613096722947e-05,-0.00880844672454198,0.014730800210075374
9.09090909090909,5.5696202531645564,0.015624229594478038,0.01403553416914859,4.601347540151939e-05,-0.008897929129087987,0.014893781024781363
9.191919191919192,5.5696202531645564,0.015777113107101497,0.014393752870225951,-9.596937370061721e-06,-0.009051259793198234,0.015132938542061507
9.292929292929292,5.5696202531645564,0.015977735217374354,0.014513325463636165,-7.746181981200235e-06,-0.009147318204303156,0.015298194250250745
9.393939393939394,5.5696202531645564,0.016194270058584502,0.014482039153889478,-1.1063871642388761e-06,-0.009202892763742193,0.015409665518769421
9.494949494949495,5.5696202531645564,0.016267322478050513,0.014565831314921002,4.170891363599048e-06,-0.009249946137891455,0.015486839559055249
9.595959595959595,5.5696202531645564,0.016331172060888507,0.014742444717792865,-0.00010514665283464431,-0.009322085033604412,0.015598673767693166
9.696969696969697,5.5696202531645564,0.016470526823916868,0.01511479862632755,-3.919911985211612e-05,-0.009475597635073324,0.01583639178827551
9.797979797979798,5.5696202531645564,0.016794968946554772,0.015109791884915229,1.834436550107069e-05,-0.009571428249441,0.016019029832432724
9.8989898989899,5.5696202531645564,0.016972718426779054,0.015328402375936943,-4.513529034808813e-05,-0.009690336240814798,0.016213406314451943
10.0,5.5696202531645564,0.017387019213480244,0.015269349830879485,-7.756898866777697e-05,-0.009796910713307919,0.01643140448485358
0.0,5.670886075949367,0.017305524153498928,0.015383086433103094,4.014745727585052e-05,-0.009806583175980607,0.016429028457800088
0.10101010101010101,5.670886075949367,0.016817166136835468,0.015322486692141825,1.324890801126504e-05,-0.009641895848693188,0.016121891873296997
0.20202020202020202,5.670886075949367,0.016654621684957033,0.015096555364239062,5.661499514221419e-05,-0.00952535311475883,0.015933129158146896
0.30303030303030304,5.670886075949367,0.01668014346609907,0.014945348076865967,-5.269358023757364e-05,-0.009487647462889512,0.015884218424449197
0.40404040404040403,5.670886075949367,0.016641438034224368,0.01485528839286238,-9.315415565622166e-06,-0.009449017928126023,0.015824157233249134
0.5050505050505051,5.670886075949367,0.016248980366461264,0.014516274113197988,2.1475230796965026e-05,-0.009229576343897775,0.01545568851834932
0.6060606060606061,5.670886075949367,0.016297268017485333,0.01443298873437798,-0.00012362148043333968,-0.009219077025558993,0.015451202857842532
0.7070707070707071,5.670886075949367,0.01603587519528332,0.01425413457788013,1.9831734319055483e-05,-0.009087002931949034,0.015223445819801142
0.8080808080808081,5.670886075949367,0.01587402365023137,0.014379932165965368,-5.77700828327096e-05,-0.009076186744859022,0.015182546057958286
0.9090909090909091,5.670886075949367,0.01571556138757601,0.013900208354666065,6.690266222739204e-06,-0.008884730922672621,0.0148911120676373
1.0101010101010102,5.670886075949367,0.015472147036149608,0.014327837350142307,1.9486303709322122e-05,-0.008939995315887574,0.01493294980896356
1.1111111111111112,5.670886075949367,0.015508038628620395,0.013952944769571906,-1.402901704002109e-05,-0.00883829501945769,0.01479194760063514
1.2121212121212122,5.670886075949367,0.015157523440418279,0.013772699237075301,2.4293429352657136e-05,-0.008679066803248073,0.014514803481621565
1.3131313131313131,5.670886075949367,0.015305738109975568,0.013822149070285235,1.4018341609344548e-05,-0.00873836615407824,0.014620527342309573
1.4141414141414141,5.670886075949367,0.015213493477876117,0.013679038638238631,-1.0209775614965198e-05,-0.008667759634834423,0.014507268160473909
1.5151515151515151,5.670886075949367,0.015103937590577498,0.01353647393687968,-6.387629522235467e-05,-0.008592123458237153,0.014384826741676359
1.6161616161616161,5.670886075949367,0.014944296661737999,0.01337539211197756,7.198276348922267e-05,-0.008495906632114667,0.014225429122857442
1.7171717171717171,5.670886075949367,0.014817441624246789,0.013394860196359392,5.365940515513544e-05,-0.008463690546181854,0.014160153069044033
1.8181818181818181,5.670886075949367,0.014662755989169324,0.013149472993857835,2.056440647497154e-05,-0.008343668694908149,0.013967777489760106
1.9191919191919191,5.670886075949367,0.014717943156068638,0.013309062097184356,-4.258309558132738e-05,-0.008408101575975898,0.01406671266519359
2.0202020202020203,5.670886075949367,0.014607435137096992,0.013259598470596455,-5.420299865941269e-05,-0.008360110082308034,0.013982639313732673
2.121212121212121,5.670886075949367,0.01455932352510413,0.013066493123578878,-7.48137016986693e-05,-0.008287744994604902,0.013873883183966084
2.2222222222222223,5.670886075949367,0.01455274577534865,0.012998206601558525,-5.249582988051882e-05,-0.008265285713072152,0.01384140367474529
2.323232323232323,5.670886075949367,0.014359917022311224,0.012880194354415671,-1.443066654067187e-05,-0.008172033413018068,0.013680231213943165
2.4242424242424243,5.670886075949367,0.014522120256887254,0.012965346881296797,2.3597175507705207e-07,-0.008246240141455214,0.013809702027648732
2.525252525252525,5.670886075949367,0.014338071534917864,0.013026511977568102,-2.298022929496326e-05,-0.00820937505374579,0.013729414893946744
2.6262626262626263,5.670886075949367,0.014126253076740402,0.012969712424808436,6.983331656599007e-06,-0.00812878965046465,0.013584961266993835
2.727272727272727,5.670886075949367,0.014225007852253332,0.012895277985518424,-6.296746485185226e-06,-0.008136085751331526,0.013608957750927323
2.8282828282828283,5.670886075949367,0.014131641080298093,0.012691518723426123,1.8755708126890346e-05,-0.008046947941117264,0.013469483846675994
2.929292929292929,5.670886075949367,0.014124742362675871,0.012640230801705636,2.4408154811075286e-05,-0.008029491949314451,0.013444164731494856
3.0303030303030303,5.670886075949367,0.014028621185545037,0.012621732440317827,5.027387786044605e-05,-0.00799510608775886,0.013381047098054625
3.131313131313131,5.670886075949367,0.01413721888800113,0.012678343344777,-7.129666356561426e-05,-0.008044668669833438,0.013467742293928449
3.2323232323232323,5.670886075949367,0.013852082336308441,0.012600056394834533,7.912833896935888e-05,-0.007935641619342891,0.01327114808385414
3.3333333333333335,5.670886075949367,0.014075167150733772,0.012804139366459043,-4.3966036401667175e-05,-0.008063791955157844,0.013484869760945798
3.4343434343434343,5.670886075949367,0.014028072113544801,0.012514025138119958,-1.9644711677911535e-05,-0.007962629175499428,0.013335709319572885
3.5353535353535355,5.670886075949367,0.013815068076586669,0.012598813627048584,-5.500641048272703e-06,-0.007924164511090575,0.01324888046587639
3.6363636363636362,5.670886075949367,0.013988519714109322,0.012618880686536655,-1.290951330966972e-05,-0.007982220120193792,0.013356491765657
3.7373737373737375,5.670886075949367,0.013855123155280577,0.01256066712903253,-5.904464335527152e-05,-0.007924737085293933,0.013255778558758704
3.8383838383838382,5.670886075949367,0.014040956130009236,0.01243188906522415,9.164967910761186e-05,-0.007941853558570015,0.013310518576974057
3.9393939393939394,5.670886075949367,0.014077296893626898,0.01250147656292425,-2.5752161707319105e-05,-0.007973632036965344,0.01335934865257871
4.040404040404041,5.670886075949367,0.014049568744994745,0.012386971099382636,-2.7302189451452638e-05,-0.007930961953313215,0.013296543504342808
4.141414141414141,5.670886075949367,0.014067331317785965,0.012603317992561093,3.286119155854613e-05,-0.008001194793104117,0.013395582275322636
4.242424242424242,5.670886075949367,0.013825570385132109,0.012545804688577834,-1.7249156437488743e-05,-0.007911412522112983,0.01323221820400207
4.343434343434343,5.670886075949367,0.01387584869405115,0.012418651593887359,4.051513224376564e-05,-0.007888350086381552,0.01320786426026048
4.444444444444445,5.670886075949367,0.013929545442777079,0.012467861982262839,-1.2636189316915847e-05,-0.007919222227511975,0.013259285335748121
4.545454545454545,5.670886075949367,0.013892619938565219,0.012520132784959837,4.915682101608788e-05,-0.007923825817057516,0.013260030789096463
4.646464646464646,5.670886075949367,0.013878940333163323,0.012378472716979092,0.0001265391610193593,-0.007877223915042725,0.013194677858882153
4.747474747474747,5.670886075949367,0.013871437904483933,0.012448308840503445,-1.6288173894411475e-05,-0.007895924023496212,0.013217489751970846
4.848484848484849,5.670886075949367,0.013763326169531425,0.012432237405651336,-7.706353146228876e-05,-0.007858669072554827,0.013149089401627805
4.94949494949495,5.670886075949367,0.013944477567818907,0.012584575961233807,-2.3800357953633283e-05,-0.007958716058715815,0.013316770214381816
5.05050505050505,5.670886075949367,0.013694984657197455,0.012338124402583504,7.155078881483672e-06,-0.007809932717934287,0.013069493017251552
5.151515151515151,5.670886075949367,0.01368820057232599,0.01242587496102017,0.00011669395132770131,-0.007834222660003847,0.013104281252204392
5.252525252525253,5.670886075949367,0.01379007879462857,0.012396480059585222,-1.495695144738029e-05,-0.007855967656264137,0.013148810796540737
5.353535353535354,5.670886075949367,0.013903758885384901,0.012462501111264181,4.295912144729647e-05,-0.007909877998994725,0.013242294778083915
5.454545454545454,5.670886075949367,0.013889840226962054,0.012521356479355773,-1.227621397230529e-05,-0.007923359011895349,0.01325868925674174
5.555555555555555,5.670886075949367,0.013760543066320243,0.012514216794342309,9.756362951018249e-07,-0.007882427958198764,0.013181644479033574
5.656565656565657,5.670886075949367,0.013796844729306274,0.012387342001607082,-5.288215590947266e-05,-0.007855256019274006,0.013149194717229617
5.757575757575758,5.670886075949367,0.0137869721670736,0.01241131368717544,-3.2153978871610615e-05,-0.007859485756274712,0.013153325596604645
5.858585858585858,5.670886075949367,0.01387242474020093,0.012263939991052878,-9.598054370260601e-06,-0.007840909419376143,0.01314222523397033
5.959595959595959,5.670886075949367,0.013827600306189429,0.012601800521539828,5.3073397918676706e-05,-0.007928820248318777,0.013257590136179696
6.0606060606060606,5.670886075949367,0.013715963625061278,0.012461738216090135,-1.9029788073955378e-05,-0.007853310552345423,0.013133884263687553
6.161616161616162,5.670886075949367,0.013891605854650407,0.012562665097877571,-5.4931415053998095e-05,-0.007936281285758393,0.013277451861700719
6.262626262626262,5.670886075949367,0.013916756896242213,0.012588665386293978,3.6520535330588807e-06,-0.007951626684760857,0.013302528440130242
6.363636363636363,5.670886075949367,0.01399190578736855,0.012504598912699947,-9.936852106542665e-06,-0.007948951410020548,0.013310730553123474
6.4646464646464645,5.670886075949367,0.014089820197591552,0.012410825120431717,-6.534945356165677e-05,-0.00795019359540698,0.013330346228549533
6.565656565656566,5.670886075949367,0.014067607575606954,0.012588279080362707,-1.918951907576354e-05,-0.007996765996790898,0.01338941700241402
6.666666666666667,5.670886075949367,0.01390125994492819,0.012637921944958802,1.965479126310032e-05,-0.007961754566966097,0.013314661841564365
6.767676767676767,5.670886075949367,0.014071494921303286,0.012664961931434288,-1.2201481646614884e-05,-0.008020937055821272,0.013423625783547824
6.8686868686868685,5.670886075949367,0.014146490170929286,0.012628816931626496,-4.8040144031517826e-05,-0.008032592130766734,0.013452274537093386
6.96969696969697,5.670886075949367,0.014169560634225002,0.012778449417977455,8.508682403184137e-05,-0.008084403015660737,0.013528559552230606
7.070707070707071,5.670886075949367,0.014284699137797648,0.012918896774363805,-5.1555097878404156e-05,-0.008161078773648436,0.013653422409577927
7.171717171717171,5.670886075949367,0.014126406012089253,0.012844810080915394,0.00010951726636616718,-0.008091364827901393,0.013532533856484018
7.2727272727272725,5.670886075949367,0.014266269564609023,0.012915129170312158,-1.6308258121854315e-05,-0.008154419620476354,0.01364100775046947
7.373737373737374,5.670886075949367,0.014423317895307292,0.012955839680090727,2.914476781270391e-05,-0.008213747272619405,0.013748535735531718
7.474747474747475,5.670886075949367,0.01426728651671629,0.013082573180641807,5.606601858892902e-05,-0.008204957909207429,0.013713708317888307
7.575757575757575,5.670886075949367,0.014401013579750339,0.013081420130547486,1.0555467358536853e-05,-0.008244730113089347,0.013788668175980099
7.6767676767676765,5.670886075949367,0.014351140359925279,0.013127123846303919,1.9163499866523248e-05,-0.008243479261868759,0.013780004172177486
7.777777777777778,5.670886075949367,0.014611612291346861,0.013061413135777002,4.7141088770043814e-05,-0.008301907628137158,0.013901729712009198
7.878787878787879,5.670886075949367,0.014327244138437044,0.013147504401572852,7.514863327757107e-05,-0.008242424562002968,0.013775929484811423
7.979797979797979,5.670886075949367,0.014774860282761306,0.013270492283944696,4.2976816452786804e-05,-0.0084136057700118,0.014083264304658404
8.080808080808081,5.670886075949367,0.014816221600981734,0.013394997820522433,4.0248180785539565e-05,-0.00846336582645125,0.014159378264452165
8.181818181818182,5.670886075949367,0.014750799562398964,0.013274011413928326,4.295060162523215e-05,-0.008407443292898187,0.014070846429900943
8.282828282828282,5.670886075949367,0.014706062262184556,0.013383999839130285,-9.765918886797403e-05,-0.008427018630394452,0.014092636231496264
8.383838383838384,5.670886075949367,0.01489180365076593,0.013457655090390416,8.559412961157556e-06,-0.008504837622346903,0.014229046316942768
8.484848484848484,5.670886075949367,0.015066349278963368,0.013658571156912965,-1.2031214494563425e-05,-0.0086174761307629,0.014414127694484876
8.585858585858587,5.670886075949367,0.015049455121607698,0.013713647203062495,-2.0677854854419452e-05,-0.008628930697401057,0.014428048504643383
8.686868686868687,5.670886075949367,0.015103652448173011,0.01372583735187452,5.489945885130221e-05,-0.008648846940014259,0.01446435941250765
8.787878787878787,5.670886075949367,0.01531482292462978,0.013810027077176793,-7.254748061975228e-05,-0.00873745500054197,0.014621159982185055
8.88888888888889,5.670886075949367,0.01542880116473921,0.014114450031336209,-1.2161606572606063e-05,-0.008862975358822625,0.014815431336921465
8.98989898989899,5.670886075949367,0.01548614903706464,0.014060053022867194,-2.998969339459106e-05,-0.00886386061797955,0.014824726795728552
9.09090909090909,5.670886075949367,0.015760390215614026,0.01404785577985857,-5.4600185925867684e-05,-0.008942473798641779,0.01497803079572871
9.191919191919192,5.670886075949367,0.015718311738893518,0.014227081392703567,-2.4162915600276857e-05,-0.008983617939479126,0.015028347212850611
9.292929292929292,5.670886075949367,0.01582950407573359,0.014186224418139838,-2.1274334008502358e-08,-0.009004718548162028,0.015075187072823846
9.393939393939394,5.670886075949367,0.01599978862702382,0.01466435531658533,-2.7874605896619638e-05,-0.009199243183082744,0.015375704813911087
9.494949494949495,5.670886075949367,0.016302258361917208,0.01474502857556958,-3.526269685326254e-05,-0.009314186081246036,0.015582232201249078
9.595959595959595,5.670886075949367,0.016486549560675915,0.014810477672258373,1.9713756348852166e-05,-0.009389108169880285,0.015715726423957736
9.696969696969697,5.670886075949367,0.01646809662635368,0.014931739854214764,3.760142072487729e-05,-0.009419950944170533,0.015756331059310846
9.797979797979798,5.670886075949367,0.01674911896341958,0.015019265083007095,1.1681806174690352e-05,-0.009530515213928004,0.015954694025890444
9.8989898989899,5.670886075949367,0.016754554941579538,0.015305546666373489,-9.130463428290333e-06,-0.009618030482385909,0.016079101268739085
10.0,5.670886075949367,0.017041351798547787,0.015400416774527794,3.687900530971509e-05,-0.009732530571922674,0.016283140607239687
0.0,5.772151898734177,0.016962977002756657,0.01567094524458138,-4.2396476433663855e-05,-0.00979017667420141,0.016355446256310715
0.10101010101010101,5.772151898734177,0.016872042830696512,0.015225321468673648,5.255611356138563e-05,-0.009629209289811046,0.016112177184041433
0.20202020202020202,5.772151898734177,0.016921538962605072,0.015040490249806172,5.7236182711706176e-05,-0.009588608763723373,0.016064134398732274
0.30303030303030304,5.772151898734177,0.01644888344802015,0.01496073115012534,-8.40532300378146e-05,-0.009422884379443648,0.015758271322824247
0.40404040404040403,5.772151898734177,0.01651620670665009,0.014692647825507546,-8.89179269234306e-05,-0.009362656359647292,0.01568489383898643
0.5050505050505051,5.772151898734177,0.016337741398974048,0.014525983360638733,6.330544819232848e-05,-0.009259117427883833,0.015511810005305658
0.6060606060606061,5.772151898734177,0.015885865457692258,0.014383019696449562,-3.232217986971517e-05,-0.009080665546242546,0.0151904047123556
0.7070707070707071,5.772151898734177,0.01580114201145695,0.014337608723113678,7.71117532325037e-06,-0.009041625220371188,0.01512258905119711
0.8080808080808081,5.772151898734177,0.015770919570284345,0.014402463861207467,9.962921107544548e-06,-0.009052015029447543,0.015133177722346552
0.9090909090909091,5.772151898734177,0.015798127116785084,0.014105356095813497,4.0670922404903166e-05,-0.008971044963779573,0.01502360292108421
1.0101010101010102,5.772151898734177,0.015619301555661633,0.014035000067491076,4.1399721856237865e-05,-0.008896290486945813,0.014890669944774252
1.1111111111111112,5.772151898734177,0.015367420513107136,0.013891293511571295,-0.00010655306447523575,-0.00877761420740353,0.014686264346477738
1.2121212121212122,5.772151898734177,0.01535579467545932,0.013804628533257292,-0.00010049542149030005,-0.008748126962614983,0.014643000229379961
1.3131313131313131,5.772151898734177,0.015269019831173486,0.013606349923050903,-4.695296252991866e-06,-0.008662610926267316,0.014509313014948266
1.4141414141414141,5.772151898734177,0.015132921785248861,0.013536329039940898,0.00010986223949071792,-0.008600775247556926,0.014402413900113627
1.5151515151515151,5.772151898734177,0.014995728046788209,0.013645341960683139,5.5565267556290214e-05,-0.008592321002241403,0.0143685295777353
1.6161616161616161,5.772151898734177,0.01493853129039958,0.013496991019742615,1.8387927302233933e-05,-0.008530656693042657,0.014272500669966857
1.7171717171717171,5.772151898734177,0.014869869302289862,0.0134633345704128,9.16095002141647e-05,-0.008499961161810798,0.014219758868862866
1.8181818181818181,5.772151898734177,0.014731810119349866,0.013311432871379066,-5.361492142790342e-05,-0.008412972897218679,0.014075780499978706
1.9191919191919191,5.772151898734177,0.014622459397107712,0.0130859485476346,2.6453721144177833e-05,-0.008312522383422692,0.013918035648002317
2.0202020202020203,5.772151898734177,0.014702472585570454,0.01317755420166932,2.436013302990706e-05,-0.008364008036171933,0.014002492125358089
2.121212121212121,5.772151898734177,0.014610474669357212,0.013043542381916847,-2.213313173659367e-05,-0.008296205115382217,0.013893490993615242
2.2222222222222223,5.772151898734177,0.014532409265934645,0.013069691859527265,4.6408744402179804e-05,-0.008280630337638572,0.013859297045953763
2.323232323232323,5.772151898734177,0.014445047872913683,0.013006463851433026,6.927221072235958e-05,-0.008235453517304012,0.013782703395766227
2.4242424242424243,5.772151898734177,0.014369383496781976,0.012913443240253702,3.066937843585296e-05,-0.008184848021110703,0.013699664304136537
2.525252525252525,5.772151898734177,0.014234108987927284,0.013076293507332299,6.992843615177109e-06,-0.008193120748577873,0.013691971016920273
2.6262626262626263,5.772151898734177,0.014346707129336939,0.012888626120541346,-1.782133516397845e-05,-0.008170599974963486,0.013676121426745971
2.727272727272727,5.772151898734177,0.014166659974315831,0.012707580024376443,6.69663259160851e-05,-0.008062271999607682,0.013496900869032283
2.8282828282828283,5.772151898734177,0.014072430084362613,0.012823913762497785,-6.15589139368474e-05,-0.00806890315405812,0.013491989895351377
2.929292929292929,5.772151898734177,0.014173655587722342,0.01276654180766085,-1.5425172830731408e-05,-0.008082059218614957,0.0135251339965988
3.0303030303030303,5.772151898734177,0.014220588778860633,0.012645095530265658,-2.6419144775251804e-05,-0.008059705292737886,0.013502036012961783
3.131313131313131,5.772151898734177,0.014161899777812542,0.012770230663574269,6.808737635494135e-05,-0.008079639132416043,0.013520405962583698
3.2323232323232323,5.772151898734177,0.014024229792038864,0.012516175685071474,5.4763153744212935e-06,-0.007962121643133101,0.013334318170967847
3.3333333333333335,5.772151898734177,0.014160512645563363,0.012697091023991159,-1.8779855296679985e-05,-0.008057281100866356,0.013488512849772424
3.4343434343434343,5.772151898734177,0.014002092785196521,0.012549311118787492,-3.159038240597548e-05,-0.007965421171195204,0.013335298538187913
3.5353535353535355,5.772151898734177,0.014083750824674059,0.012496911174745053,1.212128547509602e-05,-0.007974198599825733,0.013361208175702735
3.6363636363636362,5.772151898734177,0.013940206121047261,0.012503912423859337,2.5335047827689655e-05,-0.00793323556347198,0.013280511348839315
3.7373737373737375,5.772151898734177,0.014055594381451904,0.012448727356715717,-0.00011903191306937555,-0.007951296521450286,0.013326619590708345
3.8383838383838382,5.772151898734177,0.01381237720662928,0.012485220585847806,-1.943166997808533e-05,-0.007889279337743126,0.013198979267548738
3.9393939393939394,5.772151898734177,0.013844314658598042,0.012632196720382986,-0.00011249067667449784,-0.007942953413694309,0.013281238593574437
4.040404040404041,5.772151898734177,0.013809541867579708,0.012466170390323111,-8.385079856344504e-06,-0.007882713677370845,0.013189274422353514
4.141414141414141,5.772151898734177,0.01400843553762097,0.012565012032424442,7.668520158502737e-05,-0.007972034271013624,0.013346058382961984
4.242424242424242,5.772151898734177,0.014031005079199394,0.012421574543168635,4.26269095187717e-05,-0.007935773886710408,0.013299732828797976
4.343434343434343,5.772151898734177,0.014152411874059422,0.012561772185332606,-7.916660362467387e-05,-0.008014255217817607,0.013428637701109964
4.444444444444445,5.772151898734177,0.013777025890784342,0.012500656867491229,-9.830331140902781e-05,-0.007883304827482672,0.01318635589622705
4.545454545454545,5.772151898734177,0.01387625070223212,0.01252843948706878,8.40514389024156e-06,-0.007921407056790269,0.013253851298447644
4.646464646464646,5.772151898734177,0.014016854633867783,0.01238767134317399,2.8120879002670386e-05,-0.007921357793112531,0.01327752985368826
4.747474747474747,5.772151898734177,0.013678087403112396,0.012314460083099854,3.2354116655975694e-05,-0.0077977642458636745,0.013049937975839459
4.848484848484849,5.772151898734177,0.013873258376628988,0.012255973856163074,-2.9589945275784247e-05,-0.007838769669837618,0.01313957867964126
4.94949494949495,5.772151898734177,0.014040520120841461,0.01245534041943501,-1.2433519764025898e-05,-0.007948758162082941,0.013318885697910295
5.05050505050505,5.772151898734177,0.01384151778165118,0.012436562248176816,-0.00010056978013298423,-0.0078834240089484,0.013196406343918766
5.151515151515151,5.772151898734177,0.013843162741944753,0.012481259664215302,-5.460499852126926e-05,-0.007897326721848017,0.013215287884375529
5.252525252525253,5.772151898734177,0.01374333845872098,0.01230953577720257,-3.6160501375536926e-05,-0.007815862270777064,0.013085634464210688
5.353535353535354,5.772151898734177,0.013576236943641073,0.01243404083178144,4.65138680924187e-05,-0.007803083332626753,0.013042951624417487
5.454545454545454,5.772151898734177,0.01376608959250303,0.012394002181119175,3.2834693714631506e-05,-0.007848027532086662,0.013134032231221933
5.555555555555555,5.772151898734177,0.013871138294575919,0.012408272921046586,5.711491326669409e-05,-0.007883823364686751,0.013201008716219462
5.656565656565657,5.772151898734177,0.013887851393228604,0.012342278890357926,-2.3644129791758507e-05,-0.007869039085075958,0.013183254779428487
5.757575757575758,5.772151898734177,0.01401683747730819,0.012527917783713566,4.287803348489047e-05,-0.007963426578306527,0.013335073488160184
5.858585858585858,5.772151898734177,0.01389991808726806,0.012344198775053857,-2.892670541557278e-05,-0.007873235058696575,0.013191138111150916
5.959595959595959,5.772151898734177,0.013787207995325191,0.012512951378352637,-7.942390288963554e-05,-0.007890047812103349,0.013197019272687597
6.0606060606060606,5.772151898734177,0.014031106390139813,0.012565944772052749,6.866526386320107e-07,-0.007979115348657768,0.013358922410542113
6.161616161616162,5.772151898734177,0.013881473601981942,0.01252820546611961,2.67532809464063e-05,-0.007922903720430466,0.013256825989648117
6.262626262626262,5.772151898734177,0.01402335787105594,0.012506853692358072,4.235894838282346e-05,-0.007959063469024204,0.013330163274859275
6.363636363636363,5.772151898734177,0.014040769758829655,0.012626100963282769,-1.1534144322205303e-05,-0.008000061216633728,0.013389617749873987
6.4646464646464645,5.772151898734177,0.013945207492729483,0.01249965160017654,-1.1218483095060637e-05,-0.007933457727871808,0.01328157537918124
6.565656565656566,5.772151898734177,0.014137725885281305,0.012441269304533023,6.382989235539009e-05,-0.007973698556944298,0.013370917799025267
6.666666666666667,5.772151898734177,0.013990933180761559,0.012563125419249628,3.728060001518398e-05,-0.007966217580003356,0.013334641083114867
6.767676767676767,5.772151898734177,0.014137721839474747,0.012440556547850156,-6.844115400300633e-05,-0.007973483516197472,0.01337069746137204
6.8686868686868685,5.772151898734177,0.013998572419524019,0.012720300423096135,-1.8772391105531342e-05,-0.008015661852786045,0.013405263263944818
6.96969696969697,5.772151898734177,0.014024855141460416,0.012824193744065933,-1.981862549118156e-05,-0.008054714665657903,0.01346477722398295
7.070707070707071,5.772151898734177,0.014287814670334131,0.012799388016388717,1.663577759151227e-05,-0.008126160806016854,0.01360483472973196
7.171717171717171,5.772151898734177,0.014301201550165118,0.012691790753928248,5.388476275482573e-05,-0.008097897691228009,0.01356859504217239
7.2727272727272725,5.772151898734177,0.01429707499470135,0.012735221071135939,3.223504745007384e-05,-0.008109688819751187,0.013583773985956199
7.373737373737374,5.772151898734177,0.014214867595122667,0.012789094571106498,3.0129399660152817e-05,-0.00810118864986875,0.01355842314017249
7.474747474747475,5.772151898734177,0.014403788102205202,0.012837598843473498,-4.3947227517789315e-05,-0.00817241608370361,0.013688272219425389
7.575757575757575,5.772151898734177,0.014493481236800273,0.013045595917773314,-2.7492670666287727e-05,-0.008261723146372075,0.013826595354424771
7.6767676767676765,5.772151898734177,0.014314271281919009,0.013022165616462382,-6.46787766825129e-05,-0.008200931069514417,0.013714404777287461
7.777777777777778,5.772151898734177,0.014473114855161347,0.013206930611569998,-0.00011084477436419494,-0.008304013640019403,0.013884722030207498
7.878787878787879,5.772151898734177,0.014544293440272672,0.013194513763253762,-4.931403506785636e-05,-0.00832164216105793,0.013918839059818763
7.979797979797979,5.772151898734177,0.0146493398761845,0.013169123608468105,6.508533813356378e-05,-0.008345539045395782,0.013968633294451777
8.080808080808081,5.772151898734177,0.014896640544030962,0.01319133297340398,-5.349512098931865e-05,-0.008426392055230483,0.014121728105857616
8.181818181818182,5.772151898734177,0.014825985009170022,0.013415068499078142,5.86725364612727e-05,-0.008472316052474449,0.014173659275655521
8.282828282828282,5.772151898734177,0.015068176271792636,0.013244653907496545,9.490945766000603e-06,-0.008493849053786754,0.014244236862123841
8.383838383838384,5.772151898734177,0.015012015640065896,0.013408050425016286,-2.6036496030439277e-05,-0.008526019819524654,0.014277835998203734
8.484848484848484,5.772151898734177,0.01507666383422559,0.01342554963797791,3.6325297635886e-05,-0.008550664041661049,0.014322801239712073
8.585858585858587,5.772151898734177,0.015297884743747084,0.013631675214019324,2.437867906888274e-05,-0.008678867987329923,0.014536637625159284
8.686868686868687,5.772151898734177,0.015231198309692258,0.013845196587598724,-9.74622671883758e-05,-0.008722918469187295,0.014588640523250047
8.787878787878787,5.772151898734177,0.01532562644621273,0.013716368652108143,-9.009529764689775e-05,-0.008712598529496261,0.014588557306896816
8.88888888888889,5.772151898734177,0.015475290911935953,0.013918986391752033,5.6184416003400506e-05,-0.008818283191106396,0.014759129968835907
8.98989898989899,5.772151898734177,0.01576278945714348,0.014059780670601955,0.00010305862810617113,-0.00894677103832363,0.014985108097502439
9.09090909090909,5.772151898734177,0.015777184065325665,0.014030423608599688,-3.8111193146190284e-06,-0.008942282302177605,0.01498038021728557
9.191919191919192,5.772151898734177,0.015743555335690187,0.014125491556161187,-7.810018374238908e-05,-0.008960714067555412,0.015000729557890629
9.292929292929292,5.772151898734177,0.015908379411865136,0.014505397482212343,-2.4273446113566416e-05,-0.009124133068223243,0.015255408633086108
9.393939393939394,5.772151898734177,0.0159659471036366,0.014490126450337861,-3.5276187972766644e-05,-0.009136822066192339,0.01528170056833063
9.494949494949495,5.772151898734177,0.01608644765899248,0.014620843025166705,-6.52121912033298e-05,-0.009212187205247755,0.015406433100722101
9.595959595959595,5.772151898734177,0.01628727797751112,0.014810011830978357,3.790144876413707e-05,-0.009329186942546842,0.01560132700665299
9.696969696969697,5.772151898734177,0.01646859048348258,0.014876179857464564,-6.300116005592422e-05,-0.009403431102284142,0.015733321107495913
9.797979797979798,5.772151898734177,0.016559966148512642,0.015185959697475465,4.1998820941762744e-05,-0.009523777753796432,0.015917668295112958
9.8989898989899,5.772151898734177,0.016938343494364037,0.015201080998696645,6.535034176727944e-05,-0.009641827347918205,0.016140384890761864
10.0,5.772151898734177,0.017177447081177716,0.015614590870904483,5.355956075146181e-05,-0.00983761138562466,0.016452049531679502
0.0,5.8734177215189876,0.016999693547075433,0.0154072355763291,2.3361792078450333e-05,-0.009722078737021361,0.016262098355186938
0.10101010101010101,5.8734177215189876,0.016848176655151807,0.015292770305931217,-6.638695344196425e-05,-0.009642284088324906,0.01612723802313796
0.20202020202020202,5.8734177215189876,0.01703912125483914,0.015146146060539649,8.836532302519645e-06,-0.009655580194613636,0.0161759268237768
0.30303030303030304,5.8734177215189876,0.01655292006292997,0.01482055885782987,1.8836336007529194e-05,-0.009412043676227952,0.01575835225615943
0.40404040404040403,5.8734177215189876,0.01635127318429807,0.014703914448900332,3.804473990705029e-05,-0.00931655628995952,0.015593134868983591
0.5050505050505051,5.8734177215189876,0.016181210719254623,0.014651226937319286,-4.9326808550451285e-05,-0.009249731296972173,0.015473291186541192
0.6060606060606061,5.8734177215189876,0.01619888540734328,0.014656759514877438,-1.5253096602970377e-05,-0.009256693476666215,0.015485542226979634
0.7070707070707071,5.8734177215189876,0.015973025055673027,0.014329859265378843,-2.1220708268366794e-05,-0.00909086529631556,0.015218164996474964
0.8080808080808081,5.8734177215189876,0.015968026158474147,0.013997958939079654,-5.719736358859676e-06,-0.00898979552926614,0.015079822197212926
0.9090909090909091,5.8734177215189876,0.015558109993583879,0.014147909643446888,6.81545525178144e-06,-0.00891180589110923,0.014903138555044375
1.0101010101010102,5.8734177215189876,0.01561079525747703,0.014043647048824706,3.738009144261247e-05,-0.00889633269189052,0.014889346663607002
1.1111111111111112,5.8734177215189876,0.015432743663477615,0.01388745787681496,-5.0763459161242455e-06,-0.008796060462087772,0.014721058488456378
1.2121212121212122,5.8734177215189876,0.01547813170592744,0.013823944039200441,-4.071457920836623e-05,-0.008790622723538364,0.014721077963306458
1.3131313131313131,5.8734177215189876,0.015134226583771013,0.013812986221019346,-0.00010998600690926561,-0.008684163841437107,0.014520014811587672
1.4141414141414141,5.8734177215189876,0.01511458472655076,0.013636516777703243,-3.569072489167093e-05,-0.0086253304512762,0.014432560221823668
1.5151515151515151,5.8734177215189876,0.01506418659644686,0.013680822377920884,-5.790220761114417e-05,-0.008623502692310322,0.01442269793249109
1.6161616161616161,5.8734177215189876,0.014955861355178799,0.013678008500678424,7.430430286273433e-06,-0.008590160956757168,0.014359647359971656
1.7171717171717171,5.8734177215189876,0.01483189202666119,0.013408951554217037,-8.029190674412368e-05,-0.008472253074263468,0.014174774128777618
1.8181818181818181,5.8734177215189876,0.014914541212741156,0.013349888555302726,-5.4289122122074966e-05,-0.008479328930413164,0.014197339289751988
1.9191919191919191,5.8734177215189876,0.014674204633410232,0.013115304283757297,1.8672616484907967e-05,-0.008336852675150257,0.013960224754253191
2.0202020202020203,5.8734177215189876,0.014551168082888569,0.013246566947288683,-7.965246660717091e-05,-0.008339320509053175,0.013945394933115092
2.121212121212121,5.8734177215189876,0.014450081070146795,0.013017412550076003,9.772578389854038e-06,-0.00824024808606684,0.013789687896047958
2.2222222222222223,5.8734177215189876,0.014666679776752106,0.013172730628544224,-4.588990074375823e-05,-0.008351823121588898,0.013979929313865448
2.323232323232323,5.8734177215189876,0.014471264122910539,0.013020915527827841,4.790050813261744e-05,-0.008247653895221514,0.013803604679524845
2.4242424242424243,5.8734177215189876,0.014332970358612437,0.012943974889685055,-1.2550858384826682e-05,-0.008183083574489247,0.013691434891979694
2.525252525252525,5.8734177215189876,0.01439710437192144,0.013149094424130911,-4.323846986437699e-05,-0.008263859638815705,0.013815644116221137
2.6262626262626263,5.8734177215189876,0.014211394127670404,0.0127131577604205,1.5370295472586702e-05,-0.008077365566427271,0.013524685448862988
2.727272727272727,5.8734177215189876,0.014279883852337886,0.012892139345994782,6.240742467974692e-05,-0.0081516069594998,0.013639493075030748
2.8282828282828283,5.8734177215189876,0.014293896887292153,0.012694179231791274,1.9403861603773358e-05,-0.008096422835725028,0.013565010693504322
2.929292929292929,5.8734177215189876,0.014018115997173071,0.013015778220780757,1.6549621779243395e-05,-0.008110168265386148,0.013544821578016808
3.0303030303030303,5.8734177215189876,0.014228998161536829,0.01268901665685182,-0.00011068509883547046,-0.008075404445516594,0.013526281502694646
3.131313131313131,5.8734177215189876,0.013984959000309766,0.012738574504785336,7.360401260338002e-05,-0.008017060051528531,0.013405900534261467
3.2323232323232323,5.8734177215189876,0.014000210964750492,0.01259884949594617,5.3011787010701276e-05,-0.007979718138208998,0.013355103727463983
3.3333333333333335,5.8734177215189876,0.014158261253640473,0.01279003722917096,-8.92420194264262e-06,-0.00808448954484343,0.013526158524860887
3.4343434343434343,5.8734177215189876,0.014079267042270893,0.012532353290879454,5.5839920915670583e-05,-0.007983486099945104,0.01337343056567468
3.5353535353535355,5.8734177215189876,0.013802741771389036,0.012563061871940945,-1.1758020321025392e-05,-0.007909741092998994,0.013226561151055307
3.6363636363636362,5.8734177215189876,0.013888338157389725,0.01253233879676187,-2.6547769612092878e-05,-0.007926203086245477,0.013262511365900531
3.7373737373737375,5.8734177215189876,0.013908011928764029,0.012435107698201834,-3.2423053979173025e-07,-0.007902935888089758,0.013233180773715776
3.8383838383838382,5.8734177215189876,0.013861987509120871,0.012412103035401616,-6.14639928075916e-05,-0.007882227163356747,0.013197345024398892
3.9393939393939394,5.8734177215189876,0.014018573016585083,0.012523017101922267,-6.0179077956120964e-05,-0.007962477035552204,0.013334255948098301
4.040404040404041,5.8734177215189876,0.013945164702843018,0.01242608411452673,-7.012504806023232e-05,-0.007911374645210923,0.013251646991576263
4.141414141414141,5.8734177215189876,0.013942722958436918,0.01246781248273392,7.165419910927193e-06,-0.007923160632351251,0.013266905075622068
4.242424242424242,5.8734177215189876,0.013816992588479621,0.012316624130566186,-1.0243294812711402e-05,-0.007840085015713741,0.01313126515656011
4.343434343434343,5.8734177215189876,0.013671444211385874,0.012444971033285972,-1.6573143447886018e-05,-0.007834924573401554,0.01310136586992868
4.444444444444445,5.8734177215189876,0.013859344191274513,0.012564311151783287,6.190830559172395e-05,-0.00792709660291734,0.013259778326469521
4.545454545454545,5.8734177215189876,0.013791101139357564,0.012462479810335648,-1.0556370687745998e-05,-0.007876074284907964,0.013177135062613528
4.646464646464646,5.8734177215189876,0.013909086205953242,0.012447373206400244,-5.746593177417936e-05,-0.007906937823706045,0.013239263531575306
4.747474747474747,5.8734177215189876,0.01369957319213471,0.012363268003362338,6.664588666007072e-05,-0.007818852358649115,0.013083215640132421
4.848484848484849,5.8734177215189876,0.013777642180578597,0.012335819108983742,3.652364168907559e-05,-0.0078340383868687,0.013116453689428093
4.94949494949495,5.8734177215189876,0.013646253889070167,0.01232214012542929,-1.0532931926653817e-05,-0.007790518204349836,0.013034748278940224
5.05050505050505,5.8734177215189876,0.0138718489299468,0.012387814239556745,6.738876378364027e-05,-0.007877898950851064,0.013193099347845029
5.151515151515151,5.8734177215189876,0.013699191045224978,0.012314530081912354,3.1693428347590724e-05,-0.007804116338141199,0.013062136105086733
5.252525252525253,5.8734177215189876,0.013673794255160106,0.012291351200627968,1.2079114875562234e-05,-0.007789543636736423,0.013037675941262487
5.353535353535354,5.8734177215189876,0.01384916829826874,0.012202406172150689,3.8755688053082646e-05,-0.007815472341125828,0.013103797473710984
5.454545454545454,5.8734177215189876,0.013813881121578027,0.012323271460121696,3.034540835207951e-06,-0.007841145774509917,0.013132180008178292
5.555555555555555,5.8734177215189876,0.01387951959830997,0.01245128111105022,3.410719198740594e-05,-0.007899240212808056,0.013223507676974899
5.656565656565657,5.8734177215189876,0.01384064529732204,0.012505678526057676,7.960314010108853e-05,-0.007903897147013915,0.013224515376437174
5.757575757575758,5.8734177215189876,0.01386063018970092,0.012537138411753919,-6.791244018527496e-05,-0.007919330580436451,0.013249079437730928
5.858585858585858,5.8734177215189876,0.014053979095645552,0.01245423657227185,2.1910157715568312e-05,-0.00795246470037522,0.013326372227468972
5.959595959595959,5.8734177215189876,0.013850577515213782,0.012426404742793194,9.721899453969968e-07,-0.007883094677402091,0.013196255266045794
6.0606060606060606,5.8734177215189876,0.013665596511167197,0.012640870107452004,1.1840153312453073e-05,-0.00789193998558576,0.013183152703684968
6.161616161616162,5.8734177215189876,0.013854605176469822,0.012479590289240687,-7.562015101671912e-05,-0.007900258639713153,0.013221483176382207
6.262626262626262,5.8734177215189876,0.013746119727983317,0.012480820748616494,8.710436068917904e-05,-0.007868082142979944,0.013160037968414858
6.363636363636363,5.8734177215189876,0.013988677438299164,0.012707367715080811,6.36956972101067e-06,-0.008008813546013993,0.013394071239813208
6.4646464646464645,5.8734177215189876,0.013869859503311875,0.012382541560039694,2.168909473935759e-05,-0.00787572031900547,0.013189300119662984
6.565656565656566,5.8734177215189876,0.013790313425425596,0.012524023922697091,-0.00010394431229262396,-0.007894301204436805,0.013204018994473439
6.666666666666667,5.8734177215189876,0.013931008731788574,0.012548144559974498,-0.00010602123838519271,-0.00794374598752892,0.013294899257211515
6.767676767676767,5.8734177215189876,0.013882521613110758,0.012559214659909381,4.889634430419359e-05,-0.007932520881906041,0.013270715233541092
6.8686868686868685,5.8734177215189876,0.013900037807027149,0.012732529459756515,-6.33612822492489e-05,-0.007989770180035098,0.013355064978011673
6.96969696969697,5.8734177215189876,0.014186385909792881,0.012692411897854512,5.14921661437436e-06,-0.008063639342294218,0.013501536623682996
7.070707070707071,5.8734177215189876,0.014280040027073473,0.012644516453267819,7.123114633453288e-05,-0.008077366944102387,0.013537147412389065
7.171717171717171,5.8734177215189876,0.01407769957913659,0.012674172560505837,-8.184756466677783e-05,-0.008025561641892727,0.013431797306559154
7.2727272727272725,5.8734177215189876,0.014307171353073609,0.012897908834699186,2.1124855879745738e-05,-0.008161524056331838,0.01365723073754947
7.373737373737374,5.8734177215189876,0.014271653288972105,0.013013467471570433,7.872563283648028e-05,-0.008185536228162761,0.013686684060373313
7.474747474747475,5.8734177215189876,0.014340594992596843,0.012985081164240913,7.941418257891692e-05,-0.008197702847051328,0.013713866249108055
7.575757575757575,5.8734177215189876,0.014400327352504244,0.013066948711962572,6.312204025122118e-05,-0.008240182819340044,0.013782532086869737
7.6767676767676765,5.8734177215189876,0.01446652608867973,0.013038800532096322,-2.06051530164864e-05,-0.008251597986232815,0.013808179534050696
7.777777777777778,5.8734177215189876,0.01457335730773299,0.013175830765171441,-3.5491478727894264e-05,-0.00832475642187133,0.013927417166848104
7.878787878787879,5.8734177215189876,0.014504436771091898,0.013033568282276753,2.9072873261356366e-05,-0.008261401516010595,0.013827890542640997
7.979797979797979,5.8734177215189876,0.014583453123189871,0.013093133229754682,-1.8488410413596168e-06,-0.008302975905883365,0.01389835092128614
8.080808080808081,5.8734177215189876,0.014690255527512417,0.013038538787144015,-1.5483858852162515e-05,-0.00831863829439693,0.013938018292734283
8.181818181818182,5.8734177215189876,0.014749043403657453,0.013237746161220988,4.550999136570231e-05,-0.008396036869463532,0.014054690517097363
8.282828282828282,5.8734177215189876,0.014751600820596655,0.013397236736910751,2.766421028677657e-05,-0.008444651267252221,0.014123288796831671
8.383838383838384,5.8734177215189876,0.014906995331888643,0.013487275389280656,-4.9125565639113776e-05,-0.008518281216350789,0.014250529672504817
8.484848484848484,5.8734177215189876,0.01505710231120783,0.01354437594229206,-3.3589806359546314e-05,-0.008580443476049965,0.014360737453105964
8.585858585858587,5.8734177215189876,0.015075358466887998,0.013664565674115727,5.3773977874386895e-05,-0.008621977242301116,0.01442210931375349
8.686868686868687,5.8734177215189876,0.015159399858717868,0.01369621867791429,-1.0172225416183691e-05,-0.008656685560989648,0.014483358211454635
8.787878787878787,5.8734177215189876,0.015307156497852836,0.01347038752510217,-3.0069654263851006e-05,-0.008633263206886501,0.014476524539579438
8.88888888888889,5.8734177215189876,0.015375816544395144,0.013890478525240321,-3.1186740370216214e-05,-0.00877988852089064,0.014689676524261081
8.98989898989899,5.8734177215189876,0.015564094457294616,0.014079320973757817,8.21215274266461e-05,-0.008893024629315729,0.014878059875647446
9.09090909090909,5.8734177215189876,0.015892543608775324,0.014069672532133393,6.234689424886489e-06,-0.008988664842272615,0.01506405854523384
9.191919191919192,5.8734177215189876,0.015878764039822586,0.014224374565848538,-2.430200400772104e-05,-0.009030941581701337,0.01511966479915991
9.292929292929292,5.8734177215189876,0.015781465856676544,0.01436839759900202,-8.556917322472949e-05,-0.009044959036703569,0.015125247246735177
9.393939393939394,5.8734177215189876,0.015946252240050238,0.01443515694433747,-7.866695663304899e-05,-0.009114422755316312,0.015247577782127923
9.494949494949495,5.8734177215189876,0.016249142484437384,0.014500789622003187,8.893458188245402e-06,-0.009224979631932171,0.01544934858552807
9.595959595959595,5.8734177215189876,0.01635463634153407,0.014779598340659991,-1.0179762647299278e-05,-0.009340270404658218,0.015626772274604073
9.696969696969697,5.8734177215189876,0.01653699463012074,0.015048661929795778,2.235276804155306e-05,-0.009475696967974956,0.015845386542748308
9.797979797979798,5.8734177215189876,0.01676620885405969,0.01503918561199117,-7.791041055703653e-05,-0.009541618339815258,0.015973445036700062
9.8989898989899,5.8734177215189876,0.016928416826306036,0.015175391419001325,1.2396470422987488e-05,-0.009631142473592208,0.016123551424524776
10.0,5.8734177215189876,0.016898991240371346,0.01537130611676501,6.416874266572739e-05,-0.009681089207140907,0.016189680112336142
0.0,5.974683544303797,0.017255709955867695,0.015401088891717232,-5.201281891361655e-05,-0.009797039654275478,0.016407451301515205
0.10101010101010101,5.974683544303797,0.016871050113368723,0.015368642388242261,-8.947791148020797e-05,-0.009671907750483294,0.016173014059504373
0.20202020202020202,5.974683544303797,0.01691222054736123,0.015200583317614898,-6.075498774704955e-05,-0.009633841159492838,0.01612502381480118
0.30303030303030304,5.974683544303797,0.016610965756820636,0.01493968116076952,-6.936175546765711e-06,-0.009465194075277046,0.01584158668542871
0.40404040404040403,5.974683544303797,0.01651118668539906,0.01455519558675689,-8.919972483927276e-06,-0.009319914681646784,0.015625290123742797
0.5050505050505051,5.974683544303797,0.01619793827636042,0.014591727215639137,-2.3990401257175377e-05,-0.009236899647599866,0.015457604516031972
0.6060606060606061,5.974683544303797,0.015944669212593465,0.014492913751438316,2.8458637936028592e-05,-0.009131274889209534,0.015270715087858336
0.7070707070707071,5.974683544303797,0.016049217769533802,0.014502595026868549,-5.962169515872857e-05,-0.009165543838920705,0.015334862632488802
0.8080808080808081,5.974683544303797,0.015964696389200617,0.014252680783623399,-4.165934908885057e-05,-0.009065213151847204,0.015181433574619393
0.9090909090909091,5.974683544303797,0.01543306233268484,0.014125594561216691,7.405019937995604e-05,-0.008867597068170458,0.014823194784492432
1.0101010101010102,5.974683544303797,0.015431106466231621,0.014017449396703284,-1.2082942951041531e-05,-0.008834566758880471,0.014775101296718784
1.1111111111111112,5.974683544303797,0.015375930239752178,0.013900751017732247,-6.343482001126724e-06,-0.008783004377245327,0.014693986946543343
1.2121212121212122,5.974683544303797,0.01532253602214003,0.013900787725574069,-7.326470824980964e-05,-0.00876699712431423,0.014663996455006515
1.3131313131313131,5.974683544303797,0.015388499720763558,0.013637873217262553,1.6766503454981496e-05,-0.008707911881407833,0.01459218779680854
1.4141414141414141,5.974683544303797,0.01513363999704806,0.013599510933706125,-8.807157668663091e-05,-0.008619945279226255,0.014428684084055553
1.5151515151515151,5.974683544303797,0.015084383374202618,0.013595710647447029,4.105881598192822e-05,-0.008604028206494894,0.01439805943928955
1.6161616161616161,5.974683544303797,0.01514360422427958,0.013483401663080622,-6.513639219563866e-05,-0.008588101766208061,0.014385975781144023
1.7171717171717171,5.974683544303797,0.014915853733615576,0.013381135816138284,-2.545493929813489e-05,-0.008489096864926158,0.01421085386495805
1.8181818181818181,5.974683544303797,0.014762262995907112,0.013448872575428402,-7.36452978218789e-05,-0.008463340671400654,0.014151927757135975
1.9191919191919191,5.974683544303797,0.014841010086900211,0.013259404406330472,-2.8539478853236843e-05,-0.008430124347969204,0.01411690031752756
2.0202020202020203,5.974683544303797,0.014433699135081232,0.013301942141143781,-4.983453959880241e-05,-0.008320692382867504,0.013902681579999774
2.121212121212121,5.974683544303797,0.014731341149590611,0.012980986876268747,3.101905889772582e-05,-0.008313698407757806,0.013938937289508634
2.2222222222222223,5.974683544303797,0.01453113484212556,0.013102852273495724,5.705951906190361e-05,-0.008290196134686385,0.013872601474295167
2.323232323232323,5.974683544303797,0.014470847231942491,0.012789338046825709,-2.906485049204509e-05,-0.00817805558363046,0.013707755633564491
2.4242424242424243,5.974683544303797,0.0143488325343485,0.012725772542186275,-2.0805278588748854e-06,-0.008122381522960432,0.013610081403209438
2.525252525252525,5.974683544303797,0.0143789390894776,0.012958367918922116,-2.3413832623705504e-05,-0.008201192102519914,0.013723966266298874
2.6262626262626263,5.974683544303797,0.014339990024229919,0.012772293290557294,-7.311279539351593e-05,-0.008133684994436162,0.013624546519589154
2.727272727272727,5.974683544303797,0.014244412651651838,0.012769066117726696,-6.15176158483925e-05,-0.00810404363081356,0.01356745545795043
2.8282828282828283,5.974683544303797,0.014273494713466584,0.012981687857378882,2.7114417313284957e-05,-0.008176554771253638,0.013673515405062618
2.929292929292929,5.974683544303797,0.01432444450632209,0.012757134289278518,3.0966290002556164e-05,-0.008124473638680182,0.013608754543905461
3.0303030303030303,5.974683544303797,0.01399270880065541,0.012751598602353828,2.6125543443461376e-05,-0.008023292220902771,0.013415357175340897
3.131313131313131,5.974683544303797,0.014070052118775586,0.012735984947324119,2.2576182888985666e-05,-0.008041811119829911,0.013452778012843211
3.2323232323232323,5.974683544303797,0.014094414944451473,0.0127237125697981,-5.649769480435723e-05,-0.00804543825427487,0.013461860404903268
3.3333333333333335,5.974683544303797,0.013930707360036166,0.01256493724462598,-9.38443865609941e-06,-0.007948693381398643,0.013300528409176756
3.4343434343434343,5.974683544303797,0.014281820146467426,0.012793000745798427,-3.1220347769706556e-05,-0.008122446267679755,0.013598780942542967
3.5353535353535355,5.974683544303797,0.01388874525483772,0.012584021891812073,-7.992799151110028e-05,-0.007941830143994936,0.013285245306059835
3.6363636363636362,5.974683544303797,0.013876363628733185,0.012492393612467704,-9.452170356167556e-06,-0.007910627172360267,0.013238755130160873
3.7373737373737375,5.974683544303797,0.013881387268438175,0.012447390247711262,-2.4092344909125606e-05,-0.007898633254844831,0.013222901848254184
3.8383838383838382,5.974683544303797,0.013963914140943542,0.012612204852086273,6.891299971269966e-05,-0.007972835697908943,0.013340056622394656
3.9393939393939394,5.974683544303797,0.01405618343559205,0.012596710027937332,3.353637940223955e-05,-0.007995868039058815,0.013386377535820905
4.040404040404041,5.974683544303797,0.013785799246226527,0.01236494338873961,6.106478372852558e-05,-0.007845222790489841,0.013133569405889266
4.141414141414141,5.974683544303797,0.014038633539455473,0.012290661103201801,6.255263464800272e-05,-0.007898788392797182,0.013251838865595085
4.242424242424242,5.974683544303797,0.01387229186233339,0.012290540404614397,-5.321322457840196e-05,-0.007848849680084336,0.013153265611794598
4.343434343434343,5.974683544303797,0.013932419980405796,0.012441259518557872,7.01983282404415e-06,-0.007912103849689099,0.013249926794322549
4.444444444444445,5.974683544303797,0.013750671726553964,0.012354250156812652,7.186906103453803e-05,-0.007831476565009984,0.013108955985138532
4.545454545454545,5.974683544303797,0.01348622996231905,0.01259715948139536,-3.3686586689623955e-05,-0.007825016833114323,0.013064533681556486
4.646464646464646,5.974683544303797,0.013697580950170887,0.01249630525991724,-9.73545901319381e-06,-0.007858165863026437,0.013138207659237372
4.747474747474747,5.974683544303797,0.013881256363301684,0.012208427184369122,-4.2608601622514606e-05,-0.007826905064301242,0.01312524710165923
4.848484848484849,5.974683544303797,0.013731934926541954,0.012422077351848807,-5.727441046688618e-06,-0.007846203683517227,0.013126118357107034
4.94949494949495,5.974683544303797,0.013673259233171472,0.012440581822098137,-0.00010856228980302261,-0.007834152316580882,0.01310183770228821
5.05050505050505,5.974683544303797,0.01393582301876515,0.012407099047618525,-3.897929664695704e-06,-0.007902876619915102,0.013237831358097397
5.151515151515151,5.974683544303797,0.013641955171613587,0.012461293794030218,-3.4451578517045974e-05,-0.00783097468969314,0.013091750583507573
5.252525252525253,5.974683544303797,0.013793841439179541,0.012413770707205105,-9.297252539871208e-05,-0.007862283643915393,0.013159183549681507
5.353535353535354,5.974683544303797,0.013816431022962894,0.012516833080783,-6.451110001261674e-05,-0.007899979231123769,0.01321512015624418
5.454545454545454,5.974683544303797,0.013777490062626506,0.012533679871383163,1.704921073404467e-07,-0.0078933509802029,0.013199610363763275
5.555555555555555,5.974683544303797,0.013739891307817201,0.012590596358874455,-8.402410935672155e-06,-0.007899146300007497,0.013202822279828198
5.656565656565657,5.974683544303797,0.013960924847650729,0.01226851409082966,-6.349007402128669e-05,-0.007868831681544116,0.013196823494792911
5.757575757575758,5.974683544303797,0.013708073959909977,0.012392669372484939,-2.6382821757438174e-06,-0.007830222999718474,0.013099997649959791
5.858585858585858,5.974683544303797,0.013678400837363464,0.012423798080126853,0.00010504281736353585,-0.007830659675247095,0.013097511982103566
5.959595959595959,5.974683544303797,0.013825178333489958,0.012491498436314334,2.4537916289555453e-05,-0.007895003030941287,0.013209000792289115
6.0606060606060606,5.974683544303797,0.013986105670085215,0.012612336686443197,-3.2404126504866326e-05,-0.007979532706958522,0.013352447900888714
6.161616161616162,5.974683544303797,0.01390183798398875,0.012457973616127558,-0.00012389180682471841,-0.007907943480034893,0.01324082786960037
6.262626262626262,5.974683544303797,0.013988504544281731,0.012530637479049565,1.766929723879857e-05,-0.007955742606999388,0.013319579284291049
6.363636363636363,5.974683544303797,0.013852524162403861,0.012674328507721962,-3.0430860876483335e-05,-0.007958055801037747,0.01330272021084616
6.4646464646464645,5.974683544303797,0.014024025011450147,0.01235728597973755,1.2496078454199166e-06,-0.00791439329735631,0.013269397549921971
6.565656565656566,5.974683544303797,0.013969250429230943,0.012654913994717527,8.325231432610232e-05,-0.007987249327184542,0.01336143464824043
6.666666666666667,5.974683544303797,0.013908164436887539,0.012617590936184614,1.7064558201263933e-06,-0.007957726611921645,0.013309887987302087
6.767676767676767,5.974683544303797,0.014080621655082998,0.012478237539391878,-0.0001246869222797381,-0.007967657758342463,0.013353487074708719
6.8686868686868685,5.974683544303797,0.014130010446656686,0.01271140204848913,4.817040152391683e-05,-0.008052423748543744,0.013477078863273935
6.96969696969697,5.974683544303797,0.01416454173664981,0.012691900737038216,-9.714009953791451e-05,-0.008056932742106409,0.013489697469467059
7.070707070707071,5.974683544303797,0.014317280186553373,0.012777326907995825,-2.8799974290468663e-05,-0.00812838212836476,0.013612880437022188
7.171717171717171,5.974683544303797,0.014271089210125877,0.0127982222355564,0.00010635739513744432,-0.008120793433704683,0.01359587599479786
7.2727272727272725,5.974683544303797,0.014202371901669454,0.012889827737868589,5.5902419786294004e-05,-0.008127659891861413,0.013594052916816455
7.373737373737374,5.974683544303797,0.014179995233872379,0.012917084565876407,3.5880565904727506e-05,-0.008129123939924635,0.013592755540361228
7.474747474747475,5.974683544303797,0.01422255575011925,0.013015802635430678,3.655432981062715e-05,-0.00817150751566498,0.013659364566181553
7.575757575757575,5.974683544303797,0.014270708141847959,0.013066093544952018,-7.51652664088409e-05,-0.008201040506039993,0.013708772859485692
7.6767676767676765,5.974683544303797,0.01431486613280172,0.01303395141276112,-2.4155223062619663e-05,-0.008204645263668852,0.013719393667343233
7.777777777777778,5.974683544303797,0.01462821264832164,0.013175013356890796,-5.375380255520368e-05,-0.00834096780156373,0.013958773356694312
7.878787878787879,5.974683544303797,0.014690671732331444,0.013117377293801165,-2.169812360791917e-05,-0.008342414707839783,0.013970674701974337
7.979797979797979,5.974683544303797,0.014752813144551933,0.01334393885222077,8.914634090750133e-05,-0.00842902559903181,0.014102106384544935
8.080808080808081,5.974683544303797,0.014747325803213559,0.013144274195243047,1.5104784464735356e-05,-0.008367479999536982,0.014014754829299723
8.181818181818182,5.974683544303797,0.014790755168789612,0.013275913342739153,-7.59928195310074e-05,-0.00842000055345863,0.01409513584107421
8.282828282828282,5.974683544303797,0.01496957639628977,0.013448170570126296,-7.0494321002872e-06,-0.00852532408992482,0.014269836772409287
8.383838383838384,5.974683544303797,0.014941080208933115,0.013435285245545641,-5.9437390298555e-05,-0.008512909636343626,0.014248357497110066
8.484848484848484,5.974683544303797,0.015073857024835003,0.01369666380240798,-2.768396196220574e-05,-0.008631156248172895,0.014434698204392067
8.585858585858587,5.974683544303797,0.015087597282553428,0.013558355371891335,0.00010591202321193929,-0.00859378579633343,0.014385243778127272
8.686868686868687,5.974683544303797,0.015363127203667594,0.01398596557640661,-9.341269701370218e-06,-0.008804727834022261,0.014722941422895423
8.787878787878787,5.974683544303797,0.015433753143282852,0.01392707209442965,-1.2282368251025602e-05,-0.00880824757131375,0.014738301566558254
8.88888888888889,5.974683544303797,0.01545771323719915,0.013955364788279688,2.6665306149727277e-05,-0.00882392340764365,0.014764051306987548
8.98989898989899,5.974683544303797,0.01568579042843223,0.013999801325667093,4.4079298069066075e-05,-0.008905677526229797,0.014914635022094882
9.09090909090909,5.974683544303797,0.015603181431346402,0.01419060822983422,3.663239886505956e-05,-0.008938136898354185,0.014947174437960875
9.191919191919192,5.974683544303797,0.01590340982279247,0.014209802256459613,-2.402209922811675e-05,-0.009033963623775626,0.015127932659746088
9.292929292929292,5.974683544303797,0.016072177519319036,0.014331954538769995,1.565048651951076e-05,-0.009121239617426708,0.015276610500406736
9.393939393939394,5.974683544303797,0.016180432061822292,0.01467208726967238,-3.2035972245863706e-05,-0.009255755799448403,0.015481566270717593
9.494949494949495,5.974683544303797,0.01618482438362061,0.014627869004079204,6.58264540708155e-05,-0.009243808016309944,0.015465658743088792
9.595959595959595,5.974683544303797,0.016400913853998004,0.014680211603666992,-1.8112882874392394e-05,-0.009324337637299498,0.015611876451409564
9.696969696969697,5.974683544303797,0.016248084871235708,0.01497510811810944,-5.023825474254471e-05,-0.009366957896803543,0.015650714652043582
9.797979797979798,5.974683544303797,0.01680714387811856,0.015020943896292063,4.9833438802484666e-05,-0.009548426332323187,0.015989281589242
9.8989898989899,5.974683544303797,0.016887456145304475,0.015207543819139767,-7.382807612378674e-05,-0.009628499989333274,0.016113819736536448
10.0,5.974683544303797,0.01716274733912029,0.015278432109731857,-3.860327233721061e-05,-0.009732353834655644,0.016302606679879175
0.0,6.075949367088607,0.017075041186721318,0.015210505224370773,-8.459702049912653e-05,-0.009685663923327627,0.016223993574317676
0.10101010101010101,6.075949367088607,0.01686668875186923,0.015289546646955421,-1.961636478201907e-05,-0.009646870619647396,0.01613606383464619
0.20202020202020202,6.075949367088607,0.016553964131364958,0.015189459752083875,-1.9660709750756534e-05,-0.00952302716503465,0.015915677922803323
0.30303030303030304,6.075949367088607,0.016736831602210078,0.014959264330976123,2.7944046326840685e-05,-0.00950882877995586,0.015922712583395855
0.40404040404040403,6.075949367088607,0.0162519272397821,0.01489352988754965,6.58438166044706e-05,-0.009343637138199525,0.015617516245135916
0.5050505050505051,6.075949367088607,0.01621025001498779,0.014506094389481616,2.920621629208888e-05,-0.009214903321340822,0.01542900263139725
0.6060606060606061,6.075949367088607,0.016198715927608215,0.014468514458354911,-9.521301543780605e-05,-0.009200169115788937,0.015407535470818037
0.7070707070707071,6.075949367088607,0.015912798885722165,0.014433286418728208,-2.8484099085325794e-05,-0.009103825591335112,0.015227126295297471
0.8080808080808081,6.075949367088607,0.01589871929610993,0.014117324838013881,1.4399325188028393e-05,-0.009004813240237143,0.015087126069885418
0.9090909090909091,6.075949367088607,0.01557116778668267,0.014204277622037239,-8.17080160503421e-05,-0.008932633622615973,0.014935381061868789
1.0101010101010102,6.075949367088607,0.015555280283067909,0.014110152882326386,-7.43536595290346e-05,-0.008899629949618288,0.014885978688885575
1.1111111111111112,6.075949367088607,0.015505847353493151,0.013956050716895901,3.781566320675708e-05,-0.008838569421116715,0.014792111132686773
1.2121212121212122,6.075949367088607,0.015225737334323527,0.013808639238840053,4.048076970463787e-05,-0.008710312971949073,0.014569138515553429
1.3131313131313131,6.075949367088607,0.015201628800070545,0.01340797668390171,4.141202544538337e-05,-0.008582881645191677,0.014389072843309468
1.4141414141414141,6.075949367088607,0.015241314830059262,0.013724430043693513,-3.800252856665543e-05,-0.008689723462125832,0.014542476790103433
1.5151515151515151,6.075949367088607,0.014997283511590805,0.013597520897351178,-0.00011357140383503098,-0.008578441322682595,0.014350049014546479
1.6161616161616161,6.075949367088607,0.014888237582079512,0.013663282245785556,-1.3109777100090004e-05,-0.008565455948359519,0.01431513965705351
1.7171717171717171,6.075949367088607,0.015053763627353584,0.013579618685216172,1.4998800455924663e-05,-0.008590014693770926,0.014373522464563549
1.8181818181818181,6.075949367088607,0.014764426897840117,0.013242473055398751,-9.853650997332852e-05,-0.00840206998597166,0.01406637825465274
1.9191919191919191,6.075949367088607,0.014608746170237987,0.01316813268067892,-3.7213952127731744e-05,-0.008333063655275072,0.013944512531065842
2.0202020202020203,6.075949367088607,0.014723494982701214,0.013167540358926979,2.081735722889645e-05,-0.008367310602488458,0.014010514240651821
2.121212121212121,6.075949367088607,0.01461541709778836,0.013081282166078395,-0.000117195829628523,-0.008309009779160026,0.01391341689187943
2.2222222222222223,6.075949367088607,0.014579147633874323,0.013105623217840544,5.3201502742933094e-05,-0.00830543125551446,0.013901387741199018
2.323232323232323,6.075949367088607,0.014495618179409904,0.012952303778356822,2.7738411685457593e-05,-0.008234376587330018,0.013788973047828293
2.4242424242424243,6.075949367088607,0.014336247657189594,0.012871297541812798,6.08360905717781e-05,-0.008162263559700718,0.013663209401860697
2.525252525252525,6.075949367088607,0.014452565260809623,0.012906706995655631,-4.329593986277786e-05,-0.008207781676939576,0.013745192852340478
2.6262626262626263,6.075949367088607,0.01417695646037432,0.012913481918411782,6.399353969604543e-05,-0.00812713151363583,0.013589794860361607
2.727272727272727,6.075949367088607,0.014246281335232988,0.01279493040989798,-8.436497517033518e-05,-0.00811236352353929,0.013579688882287099
2.8282828282828283,6.075949367088607,0.014402483989753915,0.012760735091771138,-1.1540454327443577e-05,-0.008148965724457516,0.013655842040936571
2.929292929292929,6.075949367088607,0.01429484450601417,0.012777714137967943,-3.7338037179182714e-05,-0.008121767593194634,0.013600047929520688
3.0303030303030303,6.075949367088607,0.01422850256907373,0.012811359001172374,4.4720844145788195e-05,-0.008111958471073832,0.013575741239993288
3.131313131313131,6.075949367088607,0.014013743152631588,0.012704850585482616,5.82772717435795e-05,-0.00801557812143426,0.013407680685750906
3.2323232323232323,6.075949367088607,0.0141009277010181,0.01274000954222061,4.312344332011819e-05,-0.008052281172971612,0.01347232832862121
3.3333333333333335,6.075949367088607,0.014063314910545018,0.012535472792224603,7.668453882472035e-07,-0.007979636310830885,0.013365051617270059
3.4343434343434343,6.075949367088607,0.01401536848765887,0.012493097228998143,-1.1701355331504956e-05,-0.007952539714997103,0.01331965021187318
3.5353535353535355,6.075949367088607,0.013931492120605212,0.012654875627366422,-1.907979199379872e-05,-0.00797591032439149,0.013339120730996145
3.6363636363636362,6.075949367088607,0.013849730866627228,0.012424078743469482,3.1604765543439585e-05,-0.007882142883029013,0.013194909147952322
3.7373737373737375,6.075949367088607,0.013906314922932005,0.012707195164621385,2.5633427701518726e-05,-0.007984053026266017,0.01334728875686002
3.8383838383838382,6.075949367088607,0.014106134109938632,0.012390870125014103,1.8727529728423665e-05,-0.00794910127048582,0.013331558739373629
3.9393939393939394,6.075949367088607,0.013874895942495706,0.0124735897225407,7.830797159043867e-05,-0.007904545699510922,0.013230714832047605
4.040404040404041,6.075949367088607,0.013731201145194175,0.012388717855208007,4.106036297519908e-05,-0.007835975700120654,0.013111799878164507
4.141414141414141,6.075949367088607,0.013871511303800724,0.01234300790559542,-9.144730171980834e-05,-0.007864355762818843,0.013174884597242939
4.242424242424242,6.075949367088607,0.01373173076950773,0.012450181668312231,-6.557511114502939e-05,-0.007854573731345989,0.013138409762414332
4.343434343434343,6.075949367088607,0.013982954626310022,0.012338288510563138,3.851192592591738e-06,-0.007896372941061948,0.013237473306370281
4.444444444444445,6.075949367088607,0.013748610908155282,0.012479116144787432,2.4312198971692353e-05,-0.007868318115882813,0.013159935507274954
4.545454545454545,6.075949367088607,0.013831423397320306,0.0124607881322961,-1.1659807782348655e-05,-0.007887663458884921,0.013199601713884098
4.646464646464646,6.075949367088607,0.013697878430838367,0.012319394039214815,1.2257882872319985e-05,-0.007805181741015954,0.013063316266392183
4.747474747474747,6.075949367088607,0.013837565789409355,0.012366149985920399,-5.820958576068564e-06,-0.007861114732598927,0.013163684138922145
4.848484848484849,6.075949367088607,0.013810058296105779,0.012459305690657115,-3.5618855187786746e-05,-0.007880809196028868,0.013186814498833228
4.94949494949495,6.075949367088607,0.013754417575292973,0.012560223004638254,-2.4908042006875256e-05,-0.007894392173979367,0.013197973857711893
5.05050505050505,6.075949367088607,0.013849200428139445,0.012223405367294656,4.476221885451542e-05,-0.00782178173863023,0.013112345762472739
5.151515151515151,6.075949367088607,0.013845583456302081,0.012317936399038566,1.862843997339052e-05,-0.007849055956602194,0.013148527028158061
5.252525252525253,6.075949367088607,0.01386631906924289,0.012541925212745606,-4.306687841382932e-06,-0.007922473284596549,0.013253845158003047
5.353535353535354,6.075949367088607,0.01369998764348318,0.012359562147429202,8.970227945677635e-06,-0.007817864937273714,0.013081392533063221
5.454545454545454,6.075949367088607,0.0139018435443675,0.012464721062906095,1.3049762000213985e-05,-0.007909969382182079,0.01324191957218776
5.555555555555555,6.075949367088607,0.01392231444670866,0.012499334780925693,-6.266909261680717e-05,-0.007926494768290306,0.013268621728328447
5.656565656565657,6.075949367088607,0.013650462318015819,0.012421568284120001,9.296533939768029e-06,-0.007821609180640746,0.01307939561356774
5.757575757575758,6.075949367088607,0.013954062031340518,0.012403470184837645,-9.691834117321794e-05,-0.007907259664853448,0.013248068045270438
5.858585858585858,6.075949367088607,0.013866709175438991,0.01262947608656256,4.505617597908135e-05,-0.007948855578600466,0.013291580335826008
5.959595959595959,6.075949367088607,0.01388374858655465,0.012493648408560595,3.409839970096357e-05,-0.007913219098534574,0.013243660371691411
6.0606060606060606,6.075949367088607,0.013959941030103425,0.012408882285518915,1.6167834364436563e-05,-0.007910646994686701,0.013252691514597903
6.161616161616162,6.075949367088607,0.014056276627513062,0.012592843858354612,2.452432111377872e-05,-0.007994736145760302,0.013384765093080132
6.262626262626262,6.075949367088607,0.013891929789696996,0.012558471770393757,7.048900772145775e-05,-0.007935120468027225,0.013276084682242523
6.363636363636363,6.075949367088607,0.013821934164448015,0.012245986102958299,-5.5360907462845324e-05,-0.007820376080221894,0.013105572115576393
6.4646464646464645,6.075949367088607,0.0139190245592736,0.012624593250792489,5.0813068891259155e-05,-0.007963085343019826,0.013319358911933673
6.565656565656566,6.075949367088607,0.013982914641947812,0.01272733937216194,8.323442539960452e-05,-0.008013076204232925,0.013400095269320093
6.666666666666667,6.075949367088607,0.014002065803909022,0.012716782657519757,4.515199709403777e-05,-0.008015654538428634,0.01340594258004702
6.767676767676767,6.075949367088607,0.01398898639195569,0.012716504419156581,-2.0022125846184682e-05,-0.008011647243333682,0.01339818720202456
6.8686868686868685,6.075949367088607,0.014043356802707116,0.012625534885019487,-8.507076860860275e-06,-0.008000667506317982,0.013390867310099822
6.96969696969697,6.075949367088607,0.013895097920988291,0.012516813715704324,-4.277433807091767e-06,-0.007923573491007785,0.01325979164535914
7.070707070707071,6.075949367088607,0.01408140294509579,0.012782778350210779,4.049386354757484e-05,-0.00805925438859197,0.013479272895989608
7.171717171717171,6.075949367088607,0.014216925149152479,0.012737792629424498,-4.947464980129666e-05,-0.008086415333573092,0.01353836846195988
7.2727272727272725,6.075949367088607,0.014377483861546126,0.012888875176639947,-7.970020949931393e-05,-0.008179907711455821,0.013694692659296305
7.373737373737374,6.075949367088607,0.014403679843254942,0.012902952140903872,-2.6953918117242766e-05,-0.008191989595247645,0.01371511410262889
7.474747474747475,6.075949367088607,0.014411756466201263,0.012944512261184093,4.281620853578961e-05,-0.008206880618215607,0.013737229106418732
7.575757575757575,6.075949367088607,0.014319375270468955,0.013040281840373175,-1.0522229962187032e-05,-0.008207897133252639,0.013724616623420467
7.6767676767676765,6.075949367088607,0.014591633374199893,0.013164287152745233,5.762251990429964e-05,-0.008326776158083537,0.0139332598506541
7.777777777777778,6.075949367088607,0.014305176498871149,0.013149414245100062,-2.4188670666011766e-05,-0.008236377223191363,0.01376380155682051
7.878787878787879,6.075949367088607,0.014697657119468766,0.013079215196568782,-3.147084597356452e-05,-0.008333061694811263,0.013959088288679611
7.979797979797979,6.075949367088607,0.014558738666391612,0.013206789357374153,1.7356395115355823e-05,-0.00832965840712973,0.013932080445633356
8.080808080808081,6.075949367088607,0.014695464339740599,0.013251988374926513,4.327231943910326e-05,-0.008384235814400133,0.014029731392164086
8.181818181818182,6.075949367088607,0.014865669659431487,0.01324100349188047,3.233543334366123e-05,-0.008432001945393586,0.014123705631540445
8.282828282828282,6.075949367088607,0.014803543898030678,0.01348028662279902,-4.197312981107609e-05,-0.008485149156248909,0.014188456921947958
8.383838383838384,6.075949367088607,0.014944509307417203,0.01344122984187239,0.0001100042554059358,-0.008515721744786878,0.014253727106800758
8.484848484848484,6.075949367088607,0.0150745910515968,0.013474649889440875,-2.8703402640846062e-05,-0.008564772282311303,0.014341796262152644
8.585858585858587,6.075949367088607,0.015147537825939302,0.013593263533587857,4.032111225403385e-06,-0.008622240407858148,0.01443330491961598
8.686868686868687,6.075949367088607,0.01522943733764512,0.013825419650340828,-8.747515996667715e-05,-0.008716457096395784,0.01457901175006763
8.787878787878787,6.075949367088607,0.015241413802772117,0.013838796934601319,1.6234002692106602e-05,-0.00872406322121203,0.01459078323189679
8.88888888888889,6.075949367088607,0.015461577866685635,0.013815398644066385,1.2931585915761882e-05,-0.008783092953225605,0.014707762222896513
8.98989898989899,6.075949367088607,0.015603051164377928,0.014063062194634757,-5.445171332613158e-05,-0.008899834007703805,0.014893191059840003
9.09090909090909,6.075949367088607,0.01578654405285783,0.014087232861188225,7.68358880508427e-06,-0.008962133074213815,0.015009215761816429
9.191919191919192,6.075949367088607,0.015741931201034332,0.014090676899279208,6.567170152552325e-05,-0.008949782430094061,0.014985127473954488
9.292929292929292,6.075949367088607,0.016024881185706316,0.014416370840755524,-0.00010145274422671826,-0.009132375607938552,0.015285248226964962
9.393939393939394,6.075949367088607,0.01606259186466234,0.014541554983137117,-5.489662840738722e-05,-0.009181244054339836,0.015358960149895235
9.494949494949495,6.075949367088607,0.016362534431209674,0.01452998503581322,4.55094870619777e-05,-0.009267755840106867,0.01552777611444282
9.595959595959595,6.075949367088607,0.01642604264891316,0.014918252121884043,-1.9770309849999732e-05,-0.009403288431239162,0.015726488815694366
9.696969696969697,6.075949367088607,0.016555594388748162,0.01488263207701258,4.759075560367921e-06,-0.009431467939728223,0.01578574328141951
9.797979797979798,6.075949367088607,0.016782273158432837,0.015085377289012963,9.090108560315835e-06,-0.00956029513423374,0.01600145699129019
9.8989898989899,6.075949367088607,0.016933664373296388,0.015339405589308594,1.637810194657469e-05,-0.009681920988781494,0.01619551826068591
10.0,6.075949367088607,0.016963638157640248,0.015361250947453175,1.6193911997320405e-05,-0.009697466731528026,0.016221933738646343
0.0,6.177215189873418,0.01698940851166215,0.015503797223774783,1.8545134734630628e-05,-0.009747961720631079,0.016297497267416514
0.10101010101010101,6.177215189873418,0.0169204379814604,0.015135904064241878,-8.534088759800026e-05,-0.009616902613710683,0.016103184048980205
0.20202020202020202,6.177215189873418,0.01676173788264896,0.015033816164195664,4.480755424122151e-05,-0.009538666214053386,0.015968237928338635
0.30303030303030304,6.177215189873418,0.016649150335290647,0.014835344159452233,-2.519915541883888e-06,-0.009445348348422864,0.015820423100534598
0.40404040404040403,6.177215189873418,0.01629804529155153,0.01475521797814908,5.195808169101782e-05,-0.009315978980910182,0.01558427495715886
0.5050505050505051,6.177215189873418,0.016154902469951233,0.014647398627332067,-3.2919851894523485e-05,-0.00924069032918499,0.015456491039317588
0.6060606060606061,6.177215189873418,0.016081641677593725,0.01447595584035606,1.2684917264727799e-05,-0.009167279255384936,0.015341963514966393
0.7070707070707071,6.177215189873418,0.015993237954807452,0.014413658929117945,4.196758498591337e-05,-0.009122069065177619,0.015265039495061429
0.8080808080808081,6.177215189873418,0.015770650162884748,0.014343857737577148,-4.583314310147282e-05,-0.00903435237013857,0.015108077343641432
0.9090909090909091,6.177215189873418,0.015876430865567108,0.014079485221611659,-9.873947695483942e-06,-0.00898677482615363,0.01505859488383797
1.0101010101010102,6.177215189873418,0.015514676495950166,0.013880758109912544,-5.6528882074460665e-05,-0.008818630381758813,0.014765999709792338
1.1111111111111112,6.177215189873418,0.015581435351908597,0.013877202463806866,3.9111617760433586e-05,-0.00883759134471464,0.014803233834131395
1.2121212121212122,6.177215189873418,0.015370876524376943,0.013733075478039383,3.419360368267066e-05,-0.008731185600724898,0.014621056984632643
1.3131313131313131,6.177215189873418,0.015344124165228746,0.01376262109940076,-1.977861715697527e-06,-0.008732023579388851,0.01461767870324274
1.4141414141414141,6.177215189873418,0.015040775092139778,0.013490198597714968,5.991004431714462e-06,-0.008559292106956422,0.014328553248601035
1.5151515151515151,6.177215189873418,0.015060045718254667,0.013603591531689073,7.888706879926035e-05,-0.008599091174983121,0.014387864285783874
1.6161616161616161,6.177215189873418,0.015128600266535397,0.01349128367310877,2.139033379271355e-05,-0.00858596518189325,0.014380070098547762
1.7171717171717171,6.177215189873418,0.014777242184689784,0.01343632563633712,-1.3470544861913212e-05,-0.008464070346308071,0.014154520110441483
1.8181818181818181,6.177215189873418,0.0149454236479814,0.013396602985682283,-1.9542307818363308e-05,-0.008502607990099104,0.014234391388962982
1.9191919191919191,6.177215189873418,0.014909865855601492,0.01324827931438107,-1.2817023022401447e-05,-0.008447443550994768,0.014152435481469758
2.0202020202020203,6.177215189873418,0.014545468331664025,0.013267945560977573,-4.289130037272755e-05,-0.00834402416779248,0.013950844612567619
2.121212121212121,6.177215189873418,0.014737645346218712,0.013189578111205481,-2.0427257286711497e-05,-0.008378167037227258,0.014027868278959493
2.2222222222222223,6.177215189873418,0.0145823264648552,0.01324315984150445,6.22851370176953e-05,-0.008347645891907894,0.013961414176044436
2.323232323232323,6.177215189873418,0.014509397061075706,0.013014521988552396,-3.9054425294752536e-05,-0.00825717571488843,0.013822882995918911
2.4242424242424243,6.177215189873418,0.014293217550951934,0.013020588678907699,5.443419058796341e-05,-0.00819414186895789,0.013701626915018708
2.525252525252525,6.177215189873418,0.01425632435270655,0.01285167485916727,6.437064570945207e-06,-0.008132399763562146,0.01360848300784896
2.6262626262626263,6.177215189873418,0.01427309490802125,0.01286893061280711,0.00014546961526411847,-0.008142607656248508,0.013627715494395435
2.727272727272727,6.177215189873418,0.014281798555397157,0.012792521291023335,4.0349218900069115e-05,-0.008122295953926148,0.013598641220452973
2.8282828282828283,6.177215189873418,0.014205059873018209,0.012573088035837333,-7.502284760104728e-05,-0.008033444372656661,0.013464088743696555
2.929292929292929,6.177215189873418,0.014162006046243346,0.012723131412416723,0.0001029630639493577,-0.00806554123759802,0.013501378758455654
3.0303030303030303,6.177215189873418,0.014082392264356735,0.012632164560241898,4.5180969792153955e-05,-0.00801436704737959,0.013416422058026801
3.131313131313131,6.177215189873418,0.014174414107662141,0.01268748489559028,-6.754780929168133e-05,-0.008058569700975725,0.01349304678329317
3.2323232323232323,6.177215189873418,0.014138642876256373,0.012619393595734423,1.3178284218829664e-05,-0.008027410941597238,0.013443576114371397
3.3333333333333335,6.177215189873418,0.014025521977828734,0.012610531683928937,4.564755973952437e-06,-0.0079908160985273,0.013374286871750315
3.4343434343434343,6.177215189873418,0.01404826262088162,0.012699180509751593,3.433968309854636e-05,-0.008024232939189963,0.013424789870051922
3.5353535353535355,6.177215189873418,0.014037753452310172,0.012425970871089778,-0.00010380393309998531,-0.007939117297019984,0.013306497824471047
3.6363636363636362,6.177215189873418,0.013929303880705467,0.012617865210229187,5.223446007912879e-05,-0.007964150727280395,0.013322392260474235
3.7373737373737375,6.177215189873418,0.013900753722706445,0.012355510377017234,-2.9782072729304726e-05,-0.007876879229917103,0.013196262530816266
3.8383838383838382,6.177215189873418,0.013867660456787662,0.012589051512178217,-7.668931525074484e-05,-0.007937013590689764,0.01327528441994193
3.9393939393939394,6.177215189873418,0.013866692935420054,0.012353214145753086,1.4893016690435075e-05,-0.00786597212435194,0.013175337216832655
4.040404040404041,6.177215189873418,0.013767485864418231,0.012426582202440774,3.8794686748209395e-05,-0.007858220420057701,0.013148586712228762
4.141414141414141,6.177215189873418,0.013871693542641306,0.012447289306051011,-7.014985682525267e-05,-0.007895694854607694,0.013217740848064399
4.242424242424242,6.177215189873418,0.013735396639391259,0.012445151596582457,2.7549774654521536e-05,-0.007854164470792116,0.013137964174755412
4.343434343434343,6.177215189873418,0.013693694329703495,0.012386609277317117,-7.828888231521211e-05,-0.007824091082106183,0.013089893047939869
4.444444444444445,6.177215189873418,0.013772397963472759,0.0125688882805834,-2.9795202883905136e-05,-0.007902385873216847,0.01321192000345811
4.545454545454545,6.177215189873418,0.01394002422193015,0.012472390033541867,-2.9883539683965396e-05,-0.007923724276641606,0.013267330114295492
4.646464646464646,6.177215189873418,0.013899485678477597,0.012561462071146166,-3.5558071259298505e-05,-0.00793828432488713,0.013281263586786725
4.747474747474747,6.177215189873418,0.01369865537095789,0.012653195239016691,3.89351279966257e-06,-0.007905555182992375,0.013206997890759999
4.848484848484849,6.177215189873418,0.01384460940627593,0.012412791761925125,-8.950092705425492e-05,-0.007877220350460316,0.013188039528292216
4.94949494949495,6.177215189873418,0.013789705213975434,0.01248705168917634,-8.939852266955815e-05,-0.007883027070945531,0.013187632246868796
5.05050505050505,6.177215189873418,0.013899506634593554,0.012190430530317143,2.387339096935768e-05,-0.007826981149473208,0.013128732649471264
5.151515151515151,6.177215189873418,0.013695665540512854,0.012166479684889778,4.981036957680877e-05,-0.007758643567620789,0.012998995698494728
5.252525252525253,6.177215189873418,0.013849657025579677,0.012164261243149958,5.3629210471180724e-05,-0.007804175480618889,0.013088927893729783
5.353535353535354,6.177215189873418,0.013720717434291459,0.012608394639113554,-7.80198604948741e-05,-0.007898733622021504,0.013200444819773295
5.454545454545454,6.177215189873418,0.013847190653354675,0.012496790607093923,0.00012941291428888478,-0.007903194378134578,0.013225704725404115
5.555555555555555,6.177215189873418,0.013951569732178043,0.01247346680691076,-2.237074117292476e-05,-0.00792751096172664,0.013274439030199703
5.656565656565657,6.177215189873418,0.013869327744199064,0.012446742679394785,-7.80063393606863e-05,-0.007894821127078155,0.013216276207834877
5.757575757575758,6.177215189873418,0.013930848536611466,0.012331550879737509,-8.937252090647766e-05,-0.007878719824904692,0.013204949180701272
5.858585858585858,6.177215189873418,0.01392245160071963,0.012322084769531961,-2.339756670788498e-05,-0.007873360911075477,0.013195319062323671
5.959595959595959,6.177215189873418,0.013795871933865087,0.012358518949648636,-8.616932524343155e-06,-0.007846317265054116,0.013136314212038772
6.0606060606060606,6.177215189873418,0.013828048006042768,0.01267400150323194,-7.31717625719145e-06,-0.00795061485278241,0.013288667546793566
6.161616161616162,6.177215189873418,0.013791506967542349,0.012476501609016836,-2.8116410477836176e-05,-0.007880402572967755,0.013183374741009009
6.262626262626262,6.177215189873418,0.013919551276471586,0.012347721810721171,-6.852372620226333e-05,-0.007880181926157828,0.013204525029871354
6.363636363636363,6.177215189873418,0.01395867230056414,0.012474635972838394,-1.987806665866238e-05,-0.007929992482020759,0.013279040057485038
6.4646464646464645,6.177215189873418,0.013787336145940148,0.012475144701740454,8.66587491439975e-05,-0.00787874425430418,0.013181175557391699
6.565656565656566,6.177215189873418,0.014065268894302227,0.012570451116649084,1.037201497248935e-05,-0.007990716003285393,0.013380641912958537
6.666666666666667,6.177215189873418,0.013957765990001194,0.012722912878519732,-1.9783942037983838e-05,-0.008004203660556278,0.013383178885809381
6.767676767676767,6.177215189873418,0.014102097830705406,0.01259558342999824,-8.904459144707576e-05,-0.008009304378211094,0.013413333747505992
6.8686868686868685,6.177215189873418,0.014105557914186238,0.012701207198584698,0.00011590663493968834,-0.00804202953383128,0.013459944936595962
6.96969696969697,6.177215189873418,0.014257903617595914,0.012685528208697758,7.725026092584393e-05,-0.008083029547888101,0.013541023069652224
7.070707070707071,6.177215189873418,0.014149220150427948,0.012660041024901928,3.35923054108604e-07,-0.008042778352598963,0.013466527480431702
7.171717171717171,6.177215189873418,0.014222049184284987,0.012731133569351355,1.9371869939861533e-05,-0.008085954826090902,0.013538344174008298
7.2727272727272725,6.177215189873418,0.014152563877294999,0.012661283833724689,-8.53803044952166e-06,-0.008044154313305907,0.013468992653038093
7.373737373737374,6.177215189873418,0.014437760517442853,0.012927695914614847,-2.6562774076009035e-05,-0.00820963692961731,0.013745158766094607
7.474747474747475,6.177215189873418,0.0143548898978291,0.012877852717717094,-1.3331621505557998e-05,-0.008169822784663858,0.013676341978435506
7.575757575757575,6.177215189873418,0.014366377345705988,0.013189603306258313,-2.203801588417664e-05,-0.00826679419558929,0.013815682114909439
7.6767676767676765,6.177215189873418,0.014626135133036443,0.01287675928802271,0.00010906068857520062,-0.008250868326317745,0.013835939432170744
7.777777777777778,6.177215189873418,0.014539179369053416,0.013120329145624554,3.507767423013864e-05,-0.008297852554403391,0.013884366968481748
7.878787878787879,6.177215189873418,0.014590708885788669,0.013131244957193299,-6.570406923131124e-05,-0.00831658615289459,0.01391894961954384
7.979797979797979,6.177215189873418,0.014783265425959122,0.01336953031314777,4.815330172696291e-06,-0.008445838721732069,0.014129544641320881
8.080808080808081,6.177215189873418,0.01456093839319437,0.013216869461872597,6.309328939364411e-05,-0.00833334235652009,0.013938023015006932
8.181818181818182,6.177215189873418,0.014821283738066035,0.013246742797148044,-9.215076206138538e-06,-0.008420407960564223,0.01410011232328413
8.282828282828282,6.177215189873418,0.01494648148853621,0.013493294531627651,-2.9321950132720943e-05,-0.008531932806049159,0.014275559834848772
8.383838383838384,6.177215189873418,0.014981739415296366,0.013357519247970467,-2.159840525538654e-06,-0.00850177759898005,0.014239275885893233
8.484848484848484,6.177215189873418,0.015133717715463329,0.013646236771438497,-6.533704277989238e-05,-0.008633986346070549,0.014447965307393307
8.585858585858587,6.177215189873418,0.015155483162956016,0.013791950630864615,3.06410031993192e-05,-0.008684230138146188,0.014521904597871865
8.686868686868687,6.177215189873418,0.015288076198955537,0.013619387330314653,-2.1389374508364117e-05,-0.008672239058781056,0.014525843395317588
8.787878787878787,6.177215189873418,0.015389743294452068,0.01382510904302589,-5.3930996717637746e-05,-0.008764455701243387,0.014670435753171519
8.88888888888889,6.177215189873418,0.01529881608148989,0.013957687597855447,2.6086813731465803e-05,-0.008776951103803601,0.014674357316681725
8.98989898989899,6.177215189873418,0.015683654033525028,0.01406761404930688,0.0001281691555230613,-0.008925380424849572,0.014942973568013813
9.09090909090909,6.177215189873418,0.015621677999225786,0.014400163896263593,4.425535103828489e-05,-0.009006552568646813,0.015048345285629532
9.191919191919192,6.177215189873418,0.015913454963507538,0.014142809070918652,-2.187950081092423e-05,-0.009016879210327856,0.015106209922484163
9.292929292929292,6.177215189873418,0.016045866016167847,0.014440850571226333,1.1633295534576498e-05,-0.009146014976218253,0.015306614060744931
9.393939393939394,6.177215189873418,0.0161897303248132,0.014428337881720758,-9.503612897928524e-05,-0.009185420461960187,0.015385723846357143
9.494949494949495,6.177215189873418,0.016192478584123576,0.01455975867080426,-4.0125344110825303e-05,-0.00922567117647835,0.015441152318142418
9.595959595959595,6.177215189873418,0.016355699873638645,0.014542823902061538,-1.2106842052676524e-05,-0.009269557132710054,0.015528844840247845
9.696969696969697,6.177215189873418,0.016731856725969864,0.014827412800690259,7.751707103863668e-06,-0.009467780857998036,0.015865599059896367
9.797979797979798,6.177215189873418,0.016662126379025383,0.015001897376778645,0.00010765365681512461,-0.009499207126741209,0.01589825897029085
9.8989898989899,6.177215189873418,0.017062153399743926,0.015200155929308085,-2.0480955321248005e-05,-0.009678692798715603,0.01621159107411681
10.0,6.177215189873418,0.017122733497894144,0.015354025248701556,-7.686603283271524e-05,-0.009743027623978709,0.016311006605517236
0.0,6.2784810126582276,0.017208837478798093,0.015474662547398757,-1.1048017685520836e-06,-0.009805050007859055,0.016410616050955663
0.10101010101010101,6.2784810126582276,0.017022465252938997,0.015268010777618272,-5.9367330817565205e-05,-0.00968714280916718,0.01621690065608664
0.20202020202020202,6.2784810126582276,0.016590174435448198,0.015043599668646063,-5.2868895408556216e-05,-0.00949013223122828,0.015873758896666635
0.30303030303030304,6.2784810126582276,0.016691181032963034,0.01480922635727711,7.131717371192613e-05,-0.009450122217072044,0.015834787333796906
0.40404040404040403,6.2784810126582276,0.016600184202595725,0.01479670467927269,1.337075811465428e-05,-0.009419066664560525,0.015775965833821393
0.5050505050505051,6.2784810126582276,0.016211105131433468,0.01475646572203653,5.89718433085362e-06,-0.009290271256040998,0.015534950831272308
0.6060606060606061,6.2784810126582276,0.016169229807021183,0.014566984428645199,-2.0753916411220166e-05,-0.009220864270699914,0.015430664316539642
0.7070707070707071,6.2784810126582276,0.01619690866131539,0.014372893818819987,-0.00012191023515947313,-0.009170940744040613,0.01536776056698455
0.8080808080808081,6.2784810126582276,0.015781872730423478,0.014141624353923684,6.299976635555684e-05,-0.008977049125304148,0.015029425717683743
0.9090909090909091,6.2784810126582276,0.015889886171396233,0.014270834226134597,2.0671404990836293e-05,-0.009048216119259248,0.015145446264357897
1.0101010101010102,6.2784810126582276,0.015595969017344575,0.014111653491333595,-4.366840045928209e-05,-0.008912286752603452,0.014909521253303018
1.1111111111111112,6.2784810126582276,0.01533884883026132,0.013888500578017157,1.7168392749493706e-06,-0.008768204822483543,0.014667553638579307
1.2121212121212122,6.2784810126582276,0.015357042273419073,0.013753987394007306,4.594053161436634e-05,-0.008733308900227913,0.014621787933819314
1.3131313131313131,6.2784810126582276,0.015047585876012643,0.013840190464115084,9.75679293868087e-06,-0.008666332902038318,0.014481696855508321
1.4141414141414141,6.2784810126582276,0.015010924707378743,0.013681095952278016,-5.9990872768580375e-05,-0.008607606197897027,0.014392537736146767
1.5151515151515151,6.2784810126582276,0.015026999072363888,0.013565542181500127,-2.7818455793842014e-05,-0.008577762376159204,0.014352266985421401
1.6161616161616161,6.2784810126582276,0.014993736913073355,0.01360222624714135,-2.471224826713166e-05,-0.00857878894806441,0.014348739868043615
1.7171717171717171,6.2784810126582276,0.014751246830739488,0.01344363916026209,1.2006394366959575e-05,-0.008458465797300474,0.014142867808080151
1.8181818181818181,6.2784810126582276,0.014759369529393518,0.013354598352285219,4.536573923385708e-05,-0.008434190364503621,0.014109748694038823
1.9191919191919191,6.2784810126582276,0.014809838388424392,0.013307496843356383,-3.4125126431105713e-05,-0.008435200569534233,0.014118866855926325
2.0202020202020203,6.2784810126582276,0.014606496124373692,0.012999522903815128,3.887960129348169e-05,-0.008281805708456646,0.01387315316411757
2.121212121212121,6.2784810126582276,0.014660325297344125,0.013027782131474729,-2.2358949737416758e-05,-0.008306432228645655,0.013916113714204613
2.2222222222222223,6.2784810126582276,0.01451823601105031,0.013123996644031515,4.190325790190789e-05,-0.008292669796524547,0.013873948671805553
2.323232323232323,6.2784810126582276,0.014390263079924701,0.013049729208706166,2.3898044745278484e-05,-0.008231997686589259,0.013769087872643252
2.4242424242424243,6.2784810126582276,0.014412807354553126,0.013118127669451187,-9.97951607964755e-06,-0.008259280507201294,0.013811065897007084
2.525252525252525,6.2784810126582276,0.014558581367032782,0.012948229672926118,-5.6113899113932886e-05,-0.008252043311987669,0.013824273367524842
2.6262626262626263,6.2784810126582276,0.014504469920325572,0.012838698319411456,-4.907232177611856e-05,-0.008202950471921109,0.013747746466048297
2.727272727272727,6.2784810126582276,0.014315893289199197,0.01290510596986708,-4.067099936559157e-05,-0.008166299777719883,0.01366540900234534
2.8282828282828283,6.2784810126582276,0.014041974670019204,0.012800666397172809,1.1199409204692416e-05,-0.008052792320157603,0.013464317874181486
2.929292929292929,6.2784810126582276,0.014134449091159771,0.012729292265369348,7.691072143795547e-05,-0.008059122406958736,0.013487540360408142
3.0303030303030303,6.2784810126582276,0.014100808989578252,0.012813762631549229,-8.759117777648496e-05,-0.008074371486338244,0.013504218758456922
3.131313131313131,6.2784810126582276,0.014108360318879453,0.01266767401441689,-1.0611247452111396e-05,-0.008032810299988903,0.013446041210002412
3.2323232323232323,6.2784810126582276,0.01406890066227615,0.012420291019542166,6.351326120639676e-05,-0.007946757504545494,0.01332178126631953
3.3333333333333335,6.2784810126582276,0.014080540220876032,0.012747303834310464,8.447268134704718e-05,-0.00804835321655595,0.013464317677137598
3.4343434343434343,6.2784810126582276,0.013966984663826846,0.01253062406311896,-8.093411987322491e-05,-0.007949282618083742,0.013307810371669225
3.5353535353535355,6.2784810126582276,0.014006538393305986,0.012525698974200571,4.009380847860239e-05,-0.007959671210251967,0.01332814283802305
3.6363636363636362,6.2784810126582276,0.013879262436924052,0.012518611071575229,-8.850825627101815e-05,-0.007919362052549783,0.013252319105744688
3.7373737373737375,6.2784810126582276,0.013857690966913961,0.012498213123470549,4.2905806384526613e-05,-0.007906771227115353,0.013230649184192037
3.8383838383838382,6.2784810126582276,0.01388297480759323,0.01262338880080633,2.7709127793474626e-05,-0.007951909082519868,0.013298084411065805
3.9393939393939394,6.2784810126582276,0.013805648982171523,0.012619266449388591,-5.827908462196231e-05,-0.007927474629468034,0.013252730129371776
4.040404040404041,6.2784810126582276,0.013877307908502563,0.01257555893473047,-0.00011688194812161779,-0.00793586005296991,0.013275934544086982
4.141414141414141,6.2784810126582276,0.013843543499209436,0.012541704316496788,-8.57123263801763e-05,-0.007915574344711867,0.013241542747201795
4.242424242424242,6.2784810126582276,0.013553503575798076,0.012414112699460864,7.689604807942078e-05,-0.007790284882577682,0.013021930403677263
4.343434343434343,6.2784810126582276,0.013951840721782682,0.012446942740249357,2.149666458266213e-05,-0.007919635038609612,0.013263629474608222
4.444444444444445,6.2784810126582276,0.013800592254216176,0.012509813886901942,-2.785132275394109e-07,-0.007893121842335435,0.013202611471049966
4.545454545454545,6.2784810126582276,0.01365103586592303,0.01227607418683142,-1.1884313632423755e-05,-0.007778133015826335,0.01301814396705112
4.646464646464646,6.2784810126582276,0.013834647125156486,0.012683890846548926,2.234387528490571e-05,-0.007955561391511623,0.013296724852197616
4.747474747474747,6.2784810126582276,0.013849084849132555,0.012168253835881255,-5.320874837087281e-05,-0.007805201605504143,0.013090182055522344
4.848484848484849,6.2784810126582276,0.01376656297505845,0.012595257158458247,2.9749283490279316e-05,-0.007908546040055009,0.013219985371950198
4.94949494949495,6.2784810126582276,0.013770718934647867,0.012431594923951218,-5.1112443019028886e-05,-0.007860694157579725,0.01315268376296814
5.05050505050505,6.2784810126582276,0.013710376849835183,0.012609288094469076,-5.32034160998319e-05,-0.007895899483291278,0.013194657246058308
5.151515151515151,6.2784810126582276,0.013681100522801165,0.012563162572914366,-9.429512657659752e-05,-0.007873278928714658,0.013158812637043668
5.252525252525253,6.2784810126582276,0.013674577509627344,0.012466374670401079,2.3356090443573954e-05,-0.007842285654008527,0.01311235285202665
5.353535353535354,6.2784810126582276,0.01389287069938247,0.012345574495032792,7.696766260501474e-05,-0.007871533558324578,0.013188152553573992
5.454545454545454,6.2784810126582276,0.013608988569092553,0.0122275379608263,8.20142300744119e-05,-0.007750957958975656,0.012974321143008357
5.555555555555555,6.2784810126582276,0.013812184274881456,0.01219880468966273,5.288231526612035e-06,-0.007803296689363255,0.013080336994477179
5.656565656565657,6.2784810126582276,0.013690759039123472,0.012612836173170895,1.84920951625733e-05,-0.00789107856368831,0.013184924892638443
5.757575757575758,6.2784810126582276,0.013660769871572956,0.01225088930883829,3.423197744058905e-05,-0.007773497754123373,0.013013372286082068
5.858585858585858,6.2784810126582276,0.013860417719715322,0.012435096550933795,-4.583764706002004e-05,-0.007888654281194734,0.01320581221601967
5.959595959595959,6.2784810126582276,0.013830833094315964,0.012509521716872784,-1.682100692784738e-05,-0.007902106443356625,0.013219826759484079
6.0606060606060606,6.2784810126582276,0.013790206656378649,0.01259706489270868,7.398374951881645e-05,-0.007916181464726198,0.013234656632797735
6.161616161616162,6.2784810126582276,0.0138006013779319,0.01241800721874615,5.6677548724996965e-05,-0.007865582579003416,0.013164238343968076
6.262626262626262,6.2784810126582276,0.013804803605721484,0.01274997360027089,-5.542220845697575e-05,-0.007966433161797713,0.013309123289452352
6.363636363636363,6.2784810126582276,0.013985323054382581,0.012530430220088727,4.016278494322042e-05,-0.007954725982341393,0.013317795123274042
6.4646464646464645,6.2784810126582276,0.01399149000202943,0.012707860227769232,-4.364489178904484e-05,-0.008009805068939599,0.013396093436189737
6.565656565656566,6.2784810126582276,0.013944584899885131,0.012646916989970319,5.582176828176218e-06,-0.007977450566956635,0.013343164661164829
6.666666666666667,6.2784810126582276,0.014002022062407369,0.012648415692404045,-2.8298359230321436e-05,-0.007995131326443423,0.013376772711527245
6.767676767676767,6.2784810126582276,0.014080988567962098,0.01279080496310033,3.725156829764036e-05,-0.008061538059318729,0.013482429871233322
6.8686868686868685,6.2784810126582276,0.013974856795571089,0.012495494658264156,4.0252113134110614e-05,-0.007941105436150573,0.01329722232160528
6.96969696969697,6.2784810126582276,0.014273382169850291,0.012853016057570596,5.113556822742269e-05,-0.008137919468226265,0.013619151759814338
7.070707070707071,6.2784810126582276,0.014183936882290438,0.012809711337058542,1.2905486924716987e-06,-0.008098094465804694,0.013549193257567562
7.171717171717171,6.2784810126582276,0.014290570744207977,0.012870574807497752,-0.00012664193333767942,-0.008148343665511718,0.01363790170089518
7.2727272727272725,6.2784810126582276,0.014172489432182167,0.01281455831678062,5.409499662825436e-05,-0.008096114324688836,0.013544997159202795
7.373737373737374,6.2784810126582276,0.014311069202019196,0.012812346862386248,2.8697179727084255e-05,-0.008137024819321633,0.013623766800102344
7.474747474747475,6.2784810126582276,0.014395009428333097,0.012981021727091561,-2.056456991584082e-05,-0.008212809346627397,0.013742727534035942
7.575757575757575,6.2784810126582276,0.014373107927776557,0.01292255433313407,3.2568026318867953e-05,-0.008188698678273187,0.013705639565253341
7.6767676767676765,6.2784810126582276,0.014332048936576225,0.01305646634115643,1.1504687831690526e-05,-0.008216554583319796,0.013738756223598938
7.777777777777778,6.2784810126582276,0.014671385320489273,0.013240039229415076,-2.1716504699872728e-05,-0.008373427364971304,0.014010706036645866
7.878787878787879,6.2784810126582276,0.014663905013662524,0.013160846761205745,0.00012032600098554507,-0.00834742553246048,0.013974692338492002
7.979797979797979,6.2784810126582276,0.014528170344685351,0.013228312683867115,2.3763459196595888e-05,-0.00832694490856574,0.013923882507704167
8.080808080808081,6.2784810126582276,0.014645573448658066,0.01322314862379915,-4.745691717533554e-05,-0.008360616621737165,0.013988947181675631
8.181818181818182,6.2784810126582276,0.014892994429321764,0.013356569311335774,1.6276142698784692e-05,-0.00847486912219726,0.014187343275970151
8.282828282828282,6.2784810126582276,0.014851125240259602,0.013635124518917078,2.605381985320911e-05,-0.008545874927753003,0.014282073940988555
8.383838383838384,6.2784810126582276,0.014787901471407055,0.013397178085533637,3.5077070075283144e-05,-0.008455523867082206,0.014144042995633025
8.484848484848484,6.2784810126582276,0.015004824134678081,0.01354429421707211,2.1052446861241364e-05,-0.008564735505525056,0.014330534882281367
8.585858585858587,6.2784810126582276,0.015127721294858974,0.01365395706520678,3.931346365595131e-05,-0.008634503508019725,0.01444748679543591
8.686868686868687,6.2784810126582276,0.015131897091658025,0.013714016066772987,-4.909211954300639e-05,-0.008653773947529303,0.014475382431738595
8.787878787878787,6.2784810126582276,0.015421770252679566,0.013616360346180138,8.828691333873182e-06,-0.008711439179657911,0.01460301748627128
8.88888888888889,6.2784810126582276,0.01542551791536304,0.013873400181106218,0.00012156796196393376,-0.008789675428940777,0.014712504505004494
8.98989898989899,6.2784810126582276,0.015499444295110153,0.01383051310573897,2.139825429758934e-05,-0.008798987220254736,0.014736077240090356
9.09090909090909,6.2784810126582276,0.01573037441029729,0.014046783942001493,-6.794296086802646e-05,-0.008933147505689635,0.01496026391047184
9.191919191919192,6.2784810126582276,0.015877981935277098,0.014053912330478069,-7.686722766014389e-05,-0.00897956827972655,0.015049675137308281
9.292929292929292,6.2784810126582276,0.015898430185357797,0.014326752076043493,-5.6011407706626004e-05,-0.009067554678420386,0.015174071687473504
9.393939393939394,6.2784810126582276,0.01597279617368591,0.01440326681145145,5.610200508263439e-05,-0.009112818895541209,0.015249042912208226
9.494949494949495,6.2784810126582276,0.016369374462774613,0.014616808214015056,-3.0278642131336805e-05,-0.0092958548030369,0.015567345501098489
9.595959595959595,6.2784810126582276,0.01640615287596065,0.014721520494478226,3.32179953074877e-06,-0.009338302011131663,0.015632067526811455
9.696969696969697,6.2784810126582276,0.01659564769201306,0.014973504059010535,1.765494836732495e-05,-0.009470745525307078,0.015846996028773482
9.797979797979798,6.2784810126582276,0.016631175924781184,0.015062001689028725,-6.885160930255652e-05,-0.009507953284142973,0.015905198184368783
9.8989898989899,6.2784810126582276,0.017071151670843557,0.015301512490730817,2.8064758702724074e-05,-0.009711799248472312,0.016258795350283677
10.0,6.2784810126582276,0.017129521339685323,0.015314088146906988,-4.023770590870856e-05,-0.009733082845977693,0.01629796473817013
0.0,6.379746835443038,0.01688491607314488,0.015367361548059762,1.1666662718263677e-05,-0.009675683286361392,0.016179616499606104
0.10101010101010101,6.379746835443038,0.0169316955845397,0.015084548892023522,3.3388175151452274e-05,-0.009604873342968967,0.016087954658198202
0.20202020202020202,6.379746835443038,0.016839277581590706,0.014995161844819664,2.4598822596313366e-05,-0.00955033182792311,0.015997195718082034
0.30303030303030304,6.379746835443038,0.01658078030124313,0.015003491979543456,-3.436929396137799e-05,-0.009475281684235975,0.01585121403738988
0.40404040404040403,6.379746835443038,0.016422279048686757,0.014735556354141265,1.902417931192485e-05,-0.009347350620848406,0.0156472853106169
0.5050505050505051,6.379746835443038,0.016132237102670637,0.014702034142754254,-1.5463806670521804e-05,-0.009250281373627467,0.015466832208858233
0.6060606060606061,6.379746835443038,0.01601986067610945,0.01452704599414823,-7.07232625474588e-05,-0.009164072001077304,0.015328560071838568
0.7070707070707071,6.379746835443038,0.015983028676352175,0.014485432051681365,-3.0574256296971604e-05,-0.009140538218410061,0.015289430201189447
0.8080808080808081,6.379746835443038,0.01589118449627563,0.01421178751460592,-3.324042922812142e-05,-0.009030891603264465,0.015121700513398496
0.9090909090909091,6.379746835443038,0.015651550853919494,0.01420630892752388,1.6514197145952505e-05,-0.008957357934433013,0.014981332017132667
1.0101010101010102,6.379746835443038,0.01569041718468346,0.013992020590264454,4.579197074277666e-05,-0.008904731332484374,0.014914136985545553
1.1111111111111112,6.379746835443038,0.015523254996832424,0.013840911641598634,-4.364067142133821e-05,-0.008809249991529317,0.014754388956872044
1.2121212121212122,6.379746835443038,0.015301510272717176,0.01368807967765697,2.216695230825944e-05,-0.008696876985112243,0.014562037089907429
1.3131313131313131,6.379746835443038,0.015250461685996157,0.013692260946506527,-2.737400405367301e-05,-0.008682816789750806,0.014534219570111053
1.4141414141414141,6.379746835443038,0.015062720275145765,0.013733402999219527,-6.002081490086855e-05,-0.008638836982309588,0.014444386443107637
1.5151515151515151,6.379746835443038,0.015075054964295159,0.013485441352400837,-7.374070182402267e-05,-0.008568148895008797,0.014347018997466255
1.6161616161616161,6.379746835443038,0.014917159222345044,0.01359699234025506,-6.396388025315614e-06,-0.008554245468780032,0.014302848073810237
1.7171717171717171,6.379746835443038,0.01497210996266545,0.01350949275025463,2.0669168661212195e-05,-0.008544480813876024,0.014297067592701794
1.8181818181818181,6.379746835443038,0.014862145794650745,0.013407208825322198,-9.997255965676437e-05,-0.008480806385991883,0.014191783446207123
1.9191919191919191,6.379746835443038,0.014658537600173887,0.013110586869450208,-2.079205069491923e-05,-0.008330737340887228,0.01394917484939687
2.0202020202020203,6.379746835443038,0.014796163779796666,0.013209382529316352,-1.4849172267626646e-05,-0.008401663892733906,0.01407006480313351
2.121212121212121,6.379746835443038,0.01476344013966332,0.013272732561940911,7.9877511567041e-06,-0.00841085181048127,0.014077414292502706
2.2222222222222223,6.379746835443038,0.014504050077478901,0.013160513804388003,-4.3950385023377836e-05,-0.00829936916456007,0.01388134128570932
2.323232323232323,6.379746835443038,0.014338974093265044,0.01309537412792822,5.821261737893029e-05,-0.008230304466357979,0.0137597578962069
2.4242424242424243,6.379746835443038,0.014437146240611433,0.013019230988547468,5.934708716880564e-05,-0.00823691316874767,0.01378338099358288
2.525252525252525,6.379746835443038,0.014383137167158186,0.012953295144828184,3.436785783785807e-05,-0.00820092969359591,0.013724321931976305
2.6262626262626263,6.379746835443038,0.014309222787886208,0.012889107396670473,-3.220069581509201e-05,-0.008159499055367005,0.013654777466321103
2.727272727272727,6.379746835443038,0.014284421458162487,0.01289313071350528,1.229598129373364e-06,-0.00815326565150033,0.013642089557644465
2.8282828282828283,6.379746835443038,0.014143910621778109,0.012773700757298336,-9.13431739806733e-05,-0.008075283413722933,0.01351194240735148
2.929292929292929,6.379746835443038,0.01421000431556646,0.012653009599628225,-9.838826160501771e-05,-0.008058904174558405,0.013500096085256041
3.0303030303030303,6.379746835443038,0.014152261377157797,0.012698935147934964,3.102274850215457e-05,-0.008055358957527828,0.013484572436175816
3.131313131313131,6.379746835443038,0.01395730653474836,0.012651489377394711,-5.62929355637017e-05,-0.00798263877364292,0.013352729327505782
3.2323232323232323,6.379746835443038,0.013881546610821935,0.012759893141637054,3.1403818586775056e-05,-0.007992431925737696,0.013356201424774256
3.3333333333333335,6.379746835443038,0.014003371694632873,0.01265733387505803,-1.0446839854917265e-06,-0.00799821167090727,0.013381224607685394
3.4343434343434343,6.379746835443038,0.014013115484320573,0.012532608589768953,-3.808994765802239e-05,-0.007963717222226857,0.013334809510651925
3.5353535353535355,6.379746835443038,0.014066971673397854,0.012650008895958312,3.201798196057315e-05,-0.00801509417080685,0.013414849077564461
3.6363636363636362,6.379746835443038,0.01401006768894961,0.012485795104017807,-1.0622488408488265e-05,-0.007948758837890224,0.01331354873738027
3.7373737373737375,6.379746835443038,0.01385953713291178,0.012558693350225523,2.888599604512688e-05,-0.00792546914494119,0.013257163142149189
3.8383838383838382,6.379746835443038,0.013856943110189094,0.012580040934981041,4.566427963267986e-06,-0.00793109521355104,0.01326466936194515
3.9393939393939394,6.379746835443038,0.01393205240407984,0.01255883693564392,-1.143591020122738e-06,-0.007947266801917128,0.013298725464037427
4.040404040404041,6.379746835443038,0.01391097291103668,0.01253058724255868,2.2937679402250724e-05,-0.007932468046078608,0.013274776935819455
4.141414141414141,6.379746835443038,0.01398371299061468,0.012446789960748052,-0.00010416911874395126,-0.00792915088540882,0.013283336346008822
4.242424242424242,6.379746835443038,0.013823497431979784,0.012542912363710131,3.889892003755551e-05,-0.007909922938706975,0.013229941585067937
4.343434343434343,6.379746835443038,0.013737738088576094,0.012328730404789542,3.778726030847545e-05,-0.00781994054800969,0.013090395545962615
4.444444444444445,6.379746835443038,0.01379177316526579,0.012502345653578668,-4.636462553433771e-05,-0.007888235645653337,0.013194642383607905
4.545454545454545,6.379746835443038,0.013602809748038656,0.012444613718385065,-3.9670449739990344e-05,-0.007814227039927115,0.013062459648775072
4.646464646464646,6.379746835443038,0.013868259668317012,0.012510005100773918,9.334115655804137e-05,-0.007913479430727278,0.013242469270278766
4.747474747474747,6.379746835443038,0.013654139219284132,0.012361608992030862,-9.870925464833609e-05,-0.007804724463394497,0.01305706686399235
4.848484848484849,6.379746835443038,0.013753427508826882,0.01241564025235728,4.959626934912366e-05,-0.007850720328355248,0.013136006329925448
4.94949494949495,6.379746835443038,0.013837490362836312,0.012587527476067686,9.146433530000348e-06,-0.007927505351671199,0.01325678876395267
5.05050505050505,6.379746835443038,0.013642410436335631,0.012339054647180462,5.9498129610563024e-05,-0.007794439525054827,0.013040084519995113
5.151515151515151,6.379746835443038,0.013804686036712073,0.012531685423915724,-3.4727802988042807e-05,-0.007900911438188338,0.013214391072201495
5.252525252525253,6.379746835443038,0.013805091837699254,0.012518717523627102,-4.7795041557769825e-05,-0.007897142808397905,0.013209226210410065
5.353535353535354,6.379746835443038,0.013874185588122104,0.012348650879589492,-6.2652960681863385e-06,-0.00786685094031348,0.013177816510146665
5.454545454545454,6.379746835443038,0.013968682320815533,0.012274468792275731,-3.315665190074981e-05,-0.00787294533392738,0.013203477299069632
5.555555555555555,6.379746835443038,0.013834736981672367,0.012396492446918244,5.071836649321057e-05,-0.007869368828577182,0.013174918477859789
5.656565656565657,6.379746835443038,0.013943854605127438,0.01245900653417416,-6.728913481664675e-05,-0.007920858341790479,0.01326442358015093
5.757575757575758,6.379746835443038,0.013965417497333618,0.012382629899213604,5.375475265934644e-05,-0.007904414218964166,0.013245470227913654
5.858585858585858,6.379746835443038,0.013659969045533465,0.012593634614232243,-2.2943533527052653e-05,-0.007876081097929711,0.013159304971682275
5.959595959595959,6.379746835443038,0.013927854321190564,0.012423256274348782,8.272992915763613e-05,-0.007905333178661803,0.013240606163995736
6.0606060606060606,6.379746835443038,0.013727869335068978,0.012695592670589551,5.975769206302597e-05,-0.007927038601697559,0.013242346671584446
6.161616161616162,6.379746835443038,0.013864965971245716,0.012494609845595988,7.437576074213163e-05,-0.00790787274505251,0.01323373762418024
6.262626262626262,6.379746835443038,0.01405665645114822,0.012506699942785467,5.752209164801382e-06,-0.007969006918180106,0.013349338892802043
6.363636363636363,6.379746835443038,0.01399246679013619,0.012500260108509763,-3.8874595692210024e-05,-0.007947818069593784,0.013309421058770674
6.4646464646464645,6.379746835443038,0.013981763823470229,0.012585102605967156,6.875999393511724e-05,-0.007970059928831215,0.013338919697544757
6.565656565656566,6.379746835443038,0.01402576624378462,0.012472540223620987,2.071981891781362e-05,-0.007949491940221681,0.01331730951225173
6.666666666666667,6.379746835443038,0.013932898933431031,0.012613440109789294,4.7484351179898905e-06,-0.007963901712966097,0.01332226803073612
6.767676767676767,6.379746835443038,0.014009299008187714,0.012481140547911886,7.049757860318838e-05,-0.00794713186682988,0.013311731964864406
6.8686868686868685,6.379746835443038,0.014074160050088717,0.012705180611794653,9.480023572453977e-06,-0.008033802198565011,0.013442065306741177
6.96969696969697,6.379746835443038,0.014171012183234613,0.012738665691599281,1.3092279825976871e-05,-0.008072903362450168,0.013511917606664104
7.070707070707071,6.379746835443038,0.014175809654598666,0.01269075535814418,0.00010061438518402879,-0.008059969503822853,0.01349583225877774
7.171717171717171,6.379746835443038,0.014289303964457333,0.012765021944422413,-8.770652528592015e-05,-0.008116297772663924,0.013592269555050582
7.2727272727272725,6.379746835443038,0.014286306552218282,0.012704966208394989,2.5421319596493614e-05,-0.00809738182818398,0.013565014485881629
7.373737373737374,6.379746835443038,0.014304207250901431,0.012798257171682504,3.346822605221105e-05,-0.00813073932677518,0.01361396962835039
7.474747474747475,6.379746835443038,0.014180499707685406,0.012786537996536321,4.891186561841439e-05,-0.008090111311266518,0.013537717853690708
7.575757575757575,6.379746835443038,0.014408213493380806,0.012802367406659236,6.187536600835134e-05,-0.008163174270012011,0.013676603019494324
7.6767676767676765,6.379746835443038,0.014374041088211274,0.013002649067544536,1.7040738524760612e-05,-0.008213007046726742,0.013739803462463864
7.777777777777778,6.379746835443038,0.014580513134926285,0.013011980986879482,4.652909231528232e-06,-0.00827774823654173,0.013862962083867815
7.878787878787879,6.379746835443038,0.014694605412383138,0.013036579971903349,9.463195646897368e-05,-0.008319355615285946,0.01394070703360953
7.979797979797979,6.379746835443038,0.014728574773240194,0.013128053376835251,1.4473720242186323e-05,-0.008356988445022634,0.01399713588538346
8.080808080808081,6.379746835443038,0.014626841560194538,0.013345270575010781,1.645436163057301e-05,-0.008391633640561596,0.014030053268135651
8.181818181818182,6.379746835443038,0.01485141768722398,0.013273400113256353,-1.7987840789220198e-05,-0.008437445340144099,0.014128691353505307
8.282828282828282,6.379746835443038,0.014837419619593827,0.013512661440126162,-5.079936673869174e-05,-0.008505024317915996,0.014221664949143844
8.383838383838384,6.379746835443038,0.01482283051172737,0.013406977645099539,1.3433162003961886e-05,-0.008468942447048072,0.014168081662571354
8.484848484848484,6.379746835443038,0.015100049089814712,0.01355715707717284,-4.591386489809935e-06,-0.008597161850096265,0.014390771917753495
8.585858585858587,6.379746835443038,0.015105003687147489,0.013624724084953977,7.538086203457689e-05,-0.00861891833163044,0.014422544229897527
8.686868686868687,6.379746835443038,0.015340181689699445,0.013806040810140923,2.487374328676773e-05,-0.00874386674995211,0.014633612636345645
8.787878787878787,6.379746835443038,0.015353933438556334,0.013888386156251778,-1.4948429221152944e-05,-0.008772695878442434,0.014676166250602909
8.88888888888889,6.379746835443038,0.015602456965679226,0.013910171312499314,3.321664122433401e-06,-0.008853788483453561,0.014828914765444318
8.98989898989899,6.379746835443038,0.015639000541225048,0.013990393788183703,5.319347838065689e-05,-0.008888818298822624,0.014883620825926622
9.09090909090909,6.379746835443038,0.015665245628813013,0.014162201429182883,1.7300288062487384e-05,-0.008948234117398769,0.014970451021890405
9.191919191919192,6.379746835443038,0.015829581371626357,0.014253679522076701,-0.00010343310508507051,-0.009024978268110917,0.01510448084844011
9.292929292929292,6.379746835443038,0.015973221288250256,0.0144733092886246,-8.295320499107749e-05,-0.009133959173062457,0.015279258874361823
9.393939393939394,6.379746835443038,0.016069976055991336,0.014381122866616095,0.00012588104412298047,-0.009135329676782229,0.015297191354358534
9.494949494949495,6.379746835443038,0.01629142308549912,0.014681425565283634,-2.2487710609726857e-05,-0.009291854595234825,0.015549113302332843
9.595959595959595,6.379746835443038,0.016390713367065587,0.014761517510181864,2.3357597520862555e-05,-0.009345669263174235,0.015639939841459862
9.696969696969697,6.379746835443038,0.016358784970642748,0.015003770965960728,2.340702893123374e-06,-0.009408766780981043,0.01572512455818646
9.797979797979798,6.379746835443038,0.0168779187707145,0.01502601508292531,-0.00010845339009414412,-0.009571180156091942,0.01603348669814087
9.8989898989899,6.379746835443038,0.01676029223533256,0.015174054743884887,-1.996888004371339e-05,-0.009580304093765233,0.016026195354800522
10.0,6.379746835443038,0.017045858526465656,0.015363005891361126,-7.822818470982405e-05,-0.009722659325348035,0.016270401866688093
0.0,6.481012658227848,0.017086524515489664,0.01544509239403805,6.693087129986289e-05,-0.009759485072858315,0.01632821755332364
0.10101010101010101,6.481012658227848,0.016908499968780237,0.01529519669440132,1.5926609383340785e-06,-0.009661108998954466,0.016162350939594172
0.20202020202020202,6.481012658227848,0.016773537924834915,0.015127517737077776,-3.3486001099101203e-06,-0.009570316698573807,0.01601410030471144
0.30303030303030304,6.481012658227848,0.01671512625977139,0.014995180878060977,-8.570472040096248e-06,-0.009513092141349709,0.015924973285375985
0.40404040404040403,6.481012658227848,0.01658878775645345,0.014968492784346173,-6.807434035226127e-05,-0.009467184162239886,0.015841351204288187
0.5050505050505051,6.481012658227848,0.01616075287659432,0.014841549586898905,-4.159724037501079e-06,-0.009300690739047967,0.015543196724260074
0.6060606060606061,6.481012658227848,0.016030131446144597,0.014493982128798847,-5.859182808297855e-05,-0.009157234072483034,0.01532026411113243
0.7070707070707071,6.481012658227848,0.015984176445902724,0.014385415455356274,1.4336147573878178e-05,-0.0091108775703777,0.015247808766058999
0.8080808080808081,6.481012658227848,0.01584874485195033,0.014324829123530116,2.897276834137179e-05,-0.009052072192644135,0.015144484119238221
0.9090909090909091,6.481012658227848,0.015862942467224205,0.014181097073044147,3.2923595311104486e-05,-0.009013211862080506,0.015092573763647145
1.0101010101010102,6.481012658227848,0.015567902340503375,0.013905319702893765,1.93570228764583e-05,-0.008841966613019142,0.014806821544747962
1.1111111111111112,6.481012658227848,0.01533680375553817,0.0139205254621352,1.6333906277057402e-05,-0.008777198765302011,0.014680020837198668
1.2121212121212122,6.481012658227848,0.01525031991901883,0.013764515496093284,5.277805955317603e-05,-0.008704450624533634,0.014564657091727579
1.3131313131313131,6.481012658227848,0.015109340818110748,0.01364419378853714,1.78682103220803e-05,-0.008626060381994366,0.014432684704393916
1.4141414141414141,6.481012658227848,0.015221524639473271,0.013695101782000299,3.7211905695299212e-06,-0.008674987926442071,0.014518620371660854
1.5151515151515151,6.481012658227848,0.01499063251949954,0.01358140631463423,-4.23247747611637e-05,-0.00857161165024013,0.014338241308363
1.6161616161616161,6.481012658227848,0.015024057326361596,0.013236894304982743,-1.4110132719065983e-05,-0.008478285489403301,0.01421500643030351
1.7171717171717171,6.481012658227848,0.014936435683791334,0.013254374707002494,-6.836659950619935e-05,-0.008457243117238148,0.014170972671113065
1.8181818181818181,6.481012658227848,0.014744155825162796,0.013311696923772934,-2.3299220715013366e-05,-0.00841675582468072,0.014082730587733234
1.9191919191919191,6.481012658227848,0.014793864173053638,0.013386358296452936,-2.268103088470856e-05,-0.008454066740851971,0.014142792598695135
2.0202020202020203,6.481012658227848,0.014613355301645908,0.013268918256569959,-5.079446261803269e-05,-0.00836468206746476,0.01398994882593297
2.121212121212121,6.481012658227848,0.014559981892637045,0.013160638316220885,-6.346378246001166e-05,-0.008316186062657379,0.013913622856022472
2.2222222222222223,6.481012658227848,0.014401097525495803,0.012906963155087135,-6.286718493959866e-05,-0.008192418204174882,0.013715638137544095
2.323232323232323,6.481012658227848,0.014411217044819938,0.012898660017631887,-6.098200915417021e-06,-0.008192963118735547,0.013717628418429086
2.4242424242424243,6.481012658227848,0.014351743979672548,0.013030037545083554,-2.68322991255186e-05,-0.00821453445742683,0.0137387346836826
2.525252525252525,6.481012658227848,0.014311741215440134,0.012876734855893787,2.7638323331153093e-05,-0.008156542821400176,0.01365100845505847
2.6262626262626263,6.481012658227848,0.014411086906030407,0.012999196133535534,-6.960172095057422e-07,-0.008223084911869781,0.013759577834937054
2.727272727272727,6.481012658227848,0.014293607541287633,0.012866717781405801,-1.4314606071877859e-05,-0.00814809759680803,0.01363629141015321
2.8282828282828283,6.481012658227848,0.014137351707812764,0.012742574667767148,3.735553854119112e-05,-0.008063977912673973,0.013494289497469182
2.929292929292929,6.481012658227848,0.014226118766588091,0.012733354105660045,-1.1491110133972917e-05,-0.00808784186167444,0.013541600727901181
3.0303030303030303,6.481012658227848,0.014150168242347185,0.012734686221513195,-6.0313273283001626e-05,-0.008065456339158113,0.013498609371784152
3.131313131313131,6.481012658227848,0.014144922021755744,0.012738453957028053,-2.674985281272604e-06,-0.008065012793635138,0.013496763011315908
3.2323232323232323,6.481012658227848,0.01404092486510116,0.012673051600172945,1.4763102547860314e-05,-0.008014192939582231,0.013409440571704482
3.3333333333333335,6.481012658227848,0.014065036034744674,0.012449676432356031,0.00010314666987059293,-0.007954413740130211,0.01333215856467153
3.4343434343434343,6.481012658227848,0.013996805639431115,0.012665536603171839,-3.116925232757934e-05,-0.007998702672780886,0.013381040541283458
3.5353535353535355,6.481012658227848,0.0140056274491372,0.012563274579468141,-7.864140756407484e-05,-0.007970670608581601,0.013343743047392666
3.6363636363636362,6.481012658227848,0.013934293153335536,0.012558960166225042,8.669165334270261e-06,-0.007947975995868172,0.013300075148132072
3.7373737373737375,6.481012658227848,0.013824134352377948,0.01254182519447098,-6.569285857003947e-05,-0.007909787864054678,0.013230160238782407
3.8383838383838382,6.481012658227848,0.013698691997620084,0.012597755209066776,-3.9826802584821554e-05,-0.007888934162006058,0.013182927929918386
3.9393939393939394,6.481012658227848,0.013870589348241463,0.012297439594867794,7.552231042361448e-05,-0.007850408682932776,0.013155403667689976
4.040404040404041,6.481012658227848,0.014064655241962435,0.01247660347013576,-1.28983488286829e-05,-0.007962377613629458,0.01334172155047245
4.141414141414141,6.481012658227848,0.013846139811935092,0.012472409064048827,2.490938212081106e-05,-0.007895564662795175,0.013213013179896083
4.242424242424242,6.481012658227848,0.013689099079475615,0.01247710702503655,2.2389231871302295e-05,-0.00784986183135365,0.013125196488589471
4.343434343434343,6.481012658227848,0.013748501252564055,0.01259988704732452,6.392994250600131e-05,-0.007904516489966571,0.01321215873948808
4.444444444444445,6.481012658227848,0.013848483663289014,0.012521566389501138,1.4711920649874706e-06,-0.007911015015837046,0.01323500750012973
4.545454545454545,6.481012658227848,0.013890319883413348,0.012497976988184955,1.5065111660915088e-05,-0.00791648906147949,0.013249158383538519
4.646464646464646,6.481012658227848,0.013788167403378354,0.012569796826266105,-4.7761650469420974e-05,-0.007907389268893337,0.013221411923692208
4.747474747474747,6.481012658227848,0.013806026886740845,0.012317828176572244,7.2045755762453e-05,-0.007837156518993926,0.01312595040999805
4.848484848484849,6.481012658227848,0.013792902628988505,0.012516602832318936,5.969311408511698e-05,-0.007892851638392233,0.013201511848515046
4.94949494949495,6.481012658227848,0.013916448117771565,0.012388042935110961,-2.9993056005574777e-05,-0.007891347315864756,0.013218785040229972
5.05050505050505,6.481012658227848,0.013932944426929536,0.012521211022437001,6.496775189405395e-05,-0.00793624663480996,0.013283937329165284
5.151515151515151,6.481012658227848,0.013612093784059054,0.01247618507662904,-5.855712426592438e-05,-0.007826483658206429,0.013081573939414734
5.252525252525253,6.481012658227848,0.013541266182837847,0.012420379197325828,-7.975521468199588e-05,-0.007788493614049103,0.013017800548474694
5.353535353535354,6.481012658227848,0.013855329456755732,0.012505262353012088,-3.07061130376207e-05,-0.007908177542930345,0.013232159295628633
5.454545454545454,6.481012658227848,0.013867237347239969,0.012428953681656264,3.3717487174905095e-05,-0.007888857308668869,0.013207093593629466
5.555555555555555,6.481012658227848,0.013956024090951355,0.012519526518183322,-2.5182366893623817e-05,-0.007942665182740402,0.013296173939387463
5.656565656565657,6.481012658227848,0.013846129561466794,0.01234837437679772,0.00010831240051347558,-0.007858351181479354,0.013162661464010843
5.757575757575758,6.481012658227848,0.013933072723040195,0.012368530120698237,-1.839003986511114e-05,-0.00789048085312153,0.013220455279000166
5.858585858585858,6.481012658227848,0.013741739554878828,0.012420631480010689,-1.7984730120996064e-05,-0.007848711310466855,0.013131160641865227
5.959595959595959,6.481012658227848,0.013772096810587858,0.012531337797042299,1.915558159479751e-05,-0.007891030382289046,0.013195581875978739
6.0606060606060606,6.481012658227848,0.013902580301634505,0.012328524267532634,2.8880782228714465e-05,-0.007869331370750141,0.013186297938665768
6.161616161616162,6.481012658227848,0.014168374257421968,0.012669853768035488,-3.1125407242568536e-05,-0.008051468407637236,0.013481828511087578
6.262626262626262,6.481012658227848,0.01392864349984165,0.01270869256328237,1.8548262999644351e-06,-0.007991200818937205,0.013360506677211104
6.363636363636363,6.481012658227848,0.013913627928947504,0.01266081065167482,4.637650874096354e-06,-0.007972331574186697,0.013331444945687944
6.4646464646464645,6.481012658227848,0.013749899340278763,0.012674480784681814,-6.033633588796951e-05,-0.007927314037488174,0.013245387177039398
6.565656565656566,6.481012658227848,0.01392723105066315,0.012609889300963727,4.115445087162712e-06,-0.007961136105488063,0.01331751785859411
6.666666666666667,6.481012658227848,0.0140971007845016,0.01256879779818691,-4.381123673083688e-05,-0.007999769574806552,0.013398696861726246
6.767676767676767,6.481012658227848,0.014292017007570214,0.01274636150236239,-4.134161463482983e-05,-0.00811151355297978,0.013585484669472878
6.8686868686868685,6.481012658227848,0.014187445894113408,0.012612468285305083,-9.646474421914635e-05,-0.008039974253825547,0.013470233190181473
6.96969696969697,6.481012658227848,0.014110158995363168,0.012808763527174425,2.3925499626297988e-05,-0.008075676756761277,0.013506629385441032
7.070707070707071,6.481012658227848,0.014094373245733262,0.01265805690409559,-2.6892488790888525e-05,-0.008025729044948655,0.013434007325558878
7.171717171717171,6.481012658227848,0.014262162197132807,0.013116379388684837,-4.9443376071549824e-05,-0.008213562475745293,0.013725453816431709
7.2727272727272725,6.481012658227848,0.014360784595507475,0.012765298955595332,-2.7583938221000807e-06,-0.008137825065330841,0.013633242675604963
7.373737373737374,6.481012658227848,0.014195990528304737,0.012904253169976626,-3.7306991595952767e-06,-0.00813007310948441,0.01359622311280172
7.474747474747475,6.481012658227848,0.01438671119831489,0.013025201147304698,3.227798170430282e-05,-0.008223573703685877,0.013756694458682397
7.575757575757575,6.481012658227848,0.014558546064891676,0.012853019630184107,5.671302100597949e-05,-0.008223469708522734,0.013785490483792497
7.6767676767676765,6.481012658227848,0.014610002093170694,0.012981088923117584,6.072464543315055e-05,-0.008277327304886483,0.01386788220679871
7.777777777777778,6.481012658227848,0.014573146451653213,0.013011432552255774,-8.534601891720798e-05,-0.008275373701172697,0.013859232094969675
7.878787878787879,6.481012658227848,0.014517293500052545,0.01302598381365094,6.263286468894197e-05,-0.008262983194111045,0.013832490858759932
7.979797979797979,6.481012658227848,0.014564069308700658,0.013277551058807742,2.7756420814115054e-06,-0.00835248611025252,0.013965325853347003
8.080808080808081,6.481012658227848,0.014748718023993381,0.013283263644466036,-1.962053789955808e-05,-0.008409594500537824,0.014073372778605367
8.181818181818182,6.481012658227848,0.014770715061668284,0.013264092484340708,-2.242666666255779e-05,-0.008410442263802697,0.014078052105829781
8.282828282828282,6.481012658227848,0.014884467138522308,0.013525649071836822,6.325335756330064e-05,-0.008523034863107739,0.014254138649424592
8.383838383838384,6.481012658227848,0.014987642318194086,0.013431162323545801,6.339877415154204e-05,-0.008525641392521967,0.01427361709624933
8.484848484848484,6.481012658227848,0.01517596077977306,0.013619395407584067,-4.179909319710815e-05,-0.008638606856207138,0.01446082804683713
8.585858585858587,6.481012658227848,0.015078501401545982,0.013459249044232218,8.347783259933958e-05,-0.00856132513373346,0.014338346816125091
8.686868686868687,6.481012658227848,0.015097204852519554,0.01361517400057825,2.51772500638971e-05,-0.00861371365592934,0.014413514079408126
8.787878787878787,6.481012658227848,0.015395840546858634,0.01381170839732164,-1.860370577539176e-06,-0.008762264683254082,0.014668072307396264
8.88888888888889,6.481012658227848,0.015476792763186207,0.013795289422004748,-2.9365431131947845e-05,-0.008781624655557286,0.014708394744654612
8.98989898989899,6.481012658227848,0.015580212736875638,0.014020291944609312,-6.229277447597782e-05,-0.008880151404445485,0.014862170944297386
9.09090909090909,6.481012658227848,0.015580202866653271,0.014131584105341303,4.070841153061171e-05,-0.008913536091598371,0.014908937421168666
9.191919191919192,6.481012658227848,0.015812902875205277,0.014417729896738151,5.499752578409488e-06,-0.009069189831583028,0.015163533919233467
9.292929292929292,6.481012658227848,0.015924552789641958,0.014389850322857882,4.216998211124648e-05,-0.009094320933749952,0.015215537377467928
9.393939393939394,6.481012658227848,0.016098233732226408,0.01453365819154776,-4.015993968425327e-05,-0.009189567577132251,0.015375921489022342
9.494949494949495,6.481012658227848,0.016278998264221387,0.014627064765119177,-6.553404863877744e-05,-0.009271818908802168,0.015519527387845221
9.595959595959595,6.481012658227848,0.016588972584730643,0.014713959894924421,-1.7978616364984962e-06,-0.009390879743896519,0.01573547455889339
9.696969696969697,6.481012658227848,0.0164608835977906,0.014815805091086603,-8.983726491830425e-07,-0.00938300660666316,0.015703105703215835
9.797979797979798,6.481012658227848,0.016780492930575736,0.014881691835475748,4.138975777490325e-05,-0.009498655429815444,0.01591642892030453
9.8989898989899,6.481012658227848,0.0166568198719404,0.015529284303309063,-2.9892508506739665e-06,-0.009655831252574838,0.01612265036046373
10.0,6.481012658227848,0.017194251364269355,0.01549113077863785,-1.4320617388166005e-05,-0.00980561464287216,0.01640913256373163
0.0,6.582278481012658,0.01720281113697804,0.015481628491067769,4.454833232429339e-05,-0.00980533188841374,0.016410239315348768
0.10101010101010101,6.582278481012658,0.01672870020599816,0.015268176479114057,-2.5594794957542535e-05,-0.009599063005533665,0.016048421786853364
0.20202020202020202,6.582278481012658,0.016678294862818747,0.014924165116939161,3.850369899382671e-05,-0.009480737993927372,0.01587422581329853
0.30303030303030304,6.582278481012658,0.016544115859545138,0.014837799372688193,-7.463898776972157e-05,-0.009414574569669999,0.01576091687723926
0.40404040404040403,6.582278481012658,0.016382771288199115,0.014812642250602966,-1.0387258472666753e-05,-0.009358624061640624,0.015656875775379383
0.5050505050505051,6.582278481012658,0.016372300367272868,0.01448478014345336,2.2191951839359553e-05,-0.009257124153217867,0.0155149405833872
0.6060606060606061,6.582278481012658,0.01600688071336664,0.014484658607712812,-3.6704702480529014e-05,-0.009147461796323836,0.015302790737378332
0.7070707070707071,6.582278481012658,0.016134603189164803,0.014358173128033187,-1.3645932337149415e-05,-0.009147832895159396,0.015323827470271412
0.8080808080808081,6.582278481012658,0.015786004738319082,0.0141697123399781,2.3063164308341393e-05,-0.008986715123489154,0.015043175960716915
0.9090909090909091,6.582278481012658,0.01578994780908607,0.013959722623287108,-6.527617100739167e-05,-0.008924901129711954,0.014959471876281548
1.0101010101010102,6.582278481012658,0.01555540867276232,0.01400133784685399,-5.934884411626583e-05,-0.008867023955884892,0.014839886628982751
1.1111111111111112,6.582278481012658,0.015431142080492942,0.014088467217133036,1.170500973504737e-05,-0.008855882789287794,0.01480555051777556
1.2121212121212122,6.582278481012658,0.015342623582276688,0.013788104881933536,-1.965970242144184e-05,-0.008739218539263066,0.014627487515560296
1.3131313131313131,6.582278481012658,0.015168213308125192,0.013611941520346381,-6.080384033704753e-05,-0.00863404644854147,0.01445343923489407
1.4141414141414141,6.582278481012658,0.014962932135106459,0.013657676817889257,8.181065256671002e-05,-0.008586182685898714,0.014355579463784721
1.5151515151515151,6.582278481012658,0.01502686756454405,0.013518741359346415,-2.575976185774041e-06,-0.00856368267716714,0.014332438752842677
1.6161616161616161,6.582278481012658,0.01479453779000523,0.013453421085647909,-2.7826307291459088e-05,-0.008474387662695941,0.014171734670861922
1.7171717171717171,6.582278481012658,0.014828795249967542,0.013238606381698102,3.202182256954412e-06,-0.008420220489499692,0.014101110411162536
1.8181818181818181,6.582278481012658,0.014737749174442124,0.013428359567061801,-2.2906599303136394e-06,-0.008449832622451177,0.01412863447077818
1.9191919191919191,6.582278481012658,0.014746374198807893,0.013180158402688978,-0.00010524490033841536,-0.00837795978044906,0.014030174952322153
2.0202020202020203,6.582278481012658,0.014723444879282276,0.013209253891500612,-1.2484589454639094e-05,-0.008379809631234867,0.01402779253875516
2.121212121212121,6.582278481012658,0.014625051171980773,0.013054881962039364,4.155884709096359e-05,-0.008303979940206041,0.013906794364631884
2.2222222222222223,6.582278481012658,0.014510514259111967,0.013213939364925174,9.07055538709658e-05,-0.008317336087211143,0.013908516977828092
2.323232323232323,6.582278481012658,0.014370115439010326,0.012968853871457684,-6.706721557340043e-05,-0.008201690793140403,0.01372373692765266
2.4242424242424243,6.582278481012658,0.014371961177240714,0.012925751339905863,-4.0740426244942784e-05,-0.008189313755143974,0.013706381677320611
2.525252525252525,6.582278481012658,0.014322942559270836,0.012976046822024545,5.813764652997255e-05,-0.008189696814388614,0.013699614642869002
2.6262626262626263,6.582278481012658,0.014418973429319436,0.013016040966496353,2.783743585161193e-05,-0.008230504318744737,0.01377129235455378
2.727272727272727,6.582278481012658,0.01443140103231646,0.01264939531303825,-1.0710537756828543e-05,-0.008124238903606413,0.013628073418834982
2.8282828282828283,6.582278481012658,0.014199102137941176,0.012793419043254001,6.998749891963533e-05,-0.008097756354358552,0.01355159412767921
2.929292929292929,6.582278481012658,0.014088201898270179,0.012754270987261996,-6.588244300620575e-05,-0.008052741865659652,0.013471345066400357
3.0303030303030303,6.582278481012658,0.014278712966498828,0.012672370619129627,2.4462649448164254e-05,-0.008085325075688536,0.013547223836500621
3.131313131313131,6.582278481012658,0.013933186174839603,0.012525545204914423,0.0001057638223497895,-0.007937619413926207,0.013286676196099917
3.2323232323232323,6.582278481012658,0.014256575446036073,0.012517621350242661,4.668308388987334e-05,-0.00803225903888362,0.013471782081925447
3.3333333333333335,6.582278481012658,0.013941815372974927,0.012771173610894417,-7.945824495889557e-05,-0.008013896695160803,0.013395621954672442
3.4343434343434343,6.582278481012658,0.014223927234807017,0.012714617078121875,-6.693983870137936e-05,-0.008081563293878668,0.013533042825348968
3.5353535353535355,6.582278481012658,0.014000648496114139,0.012612066539592194,1.555549990897185e-05,-0.007983814510711899,0.013360613616190816
3.6363636363636362,6.582278481012658,0.013994841074906037,0.012588589138620121,-1.5690788897635915e-05,-0.007975029064057847,0.013347418756566885
3.7373737373737375,6.582278481012658,0.014120731372245345,0.012443976315032993,6.880817584288051e-05,-0.0079694123061835,0.013362026716192422
3.8383838383838382,6.582278481012658,0.013859824536502382,0.012466797826320843,5.07463857685506e-05,-0.007897986708846966,0.013218769965739669
3.9393939393939394,6.582278481012658,0.013874768136654968,0.01226717085017439,-0.00018759616446023853,-0.007842581696048807,0.013148920002690813
4.040404040404041,6.582278481012658,0.013636066182574508,0.012341875722901805,-5.0878134655559465e-06,-0.007793382571642893,0.01303724053540641
4.141414141414141,6.582278481012658,0.013745847046901813,0.012611649087221817,-7.530565264728389e-06,-0.007907248840237089,0.013215308339275774
4.242424242424242,6.582278481012658,0.013748926972577534,0.012449033057530198,-1.1087194213282543e-05,-0.007859388009032318,0.013147278781374873
4.343434343434343,6.582278481012658,0.013934914699261598,0.01240209488433037,7.754111038461618e-05,-0.00790110287507759,0.013235924930345335
4.444444444444445,6.582278481012658,0.013775486001293859,0.01252212088675469,-2.5171723828333944e-05,-0.007889282066414564,0.013193601704590902
4.545454545454545,6.582278481012658,0.013697012134749597,0.012276479519764918,9.018761810552207e-05,-0.007792047496354353,0.013045819379549866
4.646464646464646,6.582278481012658,0.013960190005734946,0.012448023808189993,3.8107775893026395e-05,-0.007922464144177481,0.013269053499590419
4.747474747474747,6.582278481012658,0.01365346137404452,0.012518303774565505,1.2992736674025768e-05,-0.007851529544583008,0.01312277662173138
4.848484848484849,6.582278481012658,0.013931689086187308,0.012341800354189919,2.5110041685742323e-05,-0.007882046832113167,0.013208775984968594
4.94949494949495,6.582278481012658,0.013702472919988341,0.012669157335230441,3.8643568205025954e-05,-0.007911489076565635,0.013216315915521283
5.05050505050505,6.582278481012658,0.013834878281587588,0.012387866364697948,-6.636212057354677e-05,-0.00786682339388566,0.013171623992694701
5.151515151515151,6.582278481012658,0.013984881323657057,0.012426793135620515,-1.5811131779987006e-05,-0.00792350233778327,0.01327462300830621
5.252525252525253,6.582278481012658,0.013711402797202983,0.012543129735874814,-4.610669240363521e-05,-0.007876359759923339,0.013166440049353969
5.353535353535354,6.582278481012658,0.013672089800257145,0.012539725801022342,-1.7553835588314984e-05,-0.007863544680383847,0.013142580791472182
5.454545454545454,6.582278481012658,0.013634390730615321,0.012592177236610498,1.6215742253702424e-05,-0.007867970390167746,0.01314433955781285
5.555555555555555,6.582278481012658,0.01361400733208553,0.012350441090553188,-5.9478228337955364e-05,-0.007789334526791615,0.013028668703553726
5.656565656565657,6.582278481012658,0.013900802897016448,0.0124893951849269,1.8084064749604084e-05,-0.007917059424583005,0.01325162909224955
5.757575757575758,6.582278481012658,0.013841686311417632,0.012446839295003637,1.09115657891545e-05,-0.00788655768192638,0.01319966668049121
5.858585858585858,6.582278481012658,0.013783827660156909,0.012514654971681749,-4.2836116834770524e-05,-0.007889544789551596,0.013195307933802636
5.959595959595959,6.582278481012658,0.014007313369326521,0.012659057997883052,-2.8722663231224634e-05,-0.00799991141016287,0.013384306476526999
6.0606060606060606,6.582278481012658,0.013789259494421646,0.012458768675033118,1.7322360334822433e-05,-0.007874408450836428,0.013174532259400455
6.161616161616162,6.582278481012658,0.013897365227212265,0.012499203852814266,-6.742783423144555e-05,-0.007918970724007959,0.013254225581273487
6.262626262626262,6.582278481012658,0.013958329281296386,0.012455560732190849,8.086639692172968e-06,-0.00792416700404617,0.013270920374130437
6.363636363636363,6.582278481012658,0.013766761067565367,0.012413999118591375,4.778383590375499e-05,-0.007854228055847021,0.013142959123961675
6.4646464646464645,6.582278481012658,0.0137742907888724,0.012622753278959847,-7.141675352065495e-05,-0.007919113220349674,0.01323672217414007
6.565656565656566,6.582278481012658,0.01405365152362934,0.01249879080306679,-2.3359545221983014e-05,-0.00796573269800884,0.013344395051048633
6.666666666666667,6.582278481012658,0.014039568069135446,0.012653975500447804,6.42975758039485e-05,-0.008008063070874974,0.013401067856140213
6.767676767676767,6.582278481012658,0.013984092326293232,0.012747566651837001,0.00010276528369842464,-0.00801949769343907,0.013409840672023499
6.8686868686868685,6.582278481012658,0.014161465894345285,0.012593130203448679,-5.239340403536906e-05,-0.008026378829338189,0.01344637854312035
6.96969696969697,6.582278481012658,0.014160734666940317,0.012866624249428978,7.145947348152425e-05,-0.008108207674910788,0.013560637639769968
7.070707070707071,6.582278481012658,0.014086491997990114,0.012961147211891143,-7.893661813343052e-06,-0.008114291762964377,0.01355889686893322
7.171717171717171,6.582278481012658,0.014025261373395666,0.0129365354277881,3.896565342302208e-05,-0.00808853904035513,0.01351399903033888
7.2727272727272725,6.582278481012658,0.014247789354809389,0.012900998379879212,-2.1955201338999257e-05,-0.00814463632040658,0.013624463270382692
7.373737373737374,6.582278481012658,0.014304955376328728,0.012709455202712525,1.0859223968125569e-05,-0.008104323173712376,0.013577708352461271
7.474747474747475,6.582278481012658,0.01442394376809712,0.012929345951585921,-4.8355676827519344e-05,-0.008205986915904913,0.013738012826151889
7.575757575757575,6.582278481012658,0.014404300091797677,0.012988222897275456,-1.3109158879723293e-05,-0.00821775689672194,0.013751074519560248
7.6767676767676765,6.582278481012658,0.014329676885612106,0.01319105630600962,-1.2984531544344647e-05,-0.008256219957486518,0.013795670960975635
7.777777777777778,6.582278481012658,0.01452038850176577,0.013036600155538126,2.0695200672853207e-05,-0.008267096597191168,0.013838331248058318
7.878787878787879,6.582278481012658,0.014717451980434214,0.013194060728078105,-5.497310437601034e-05,-0.008373453812553696,0.014018300261686212
7.979797979797979,6.582278481012658,0.014731754435653287,0.013178915895366666,-6.5781232445399045e-06,-0.008373201099305986,0.014019985379663747
8.080808080808081,6.582278481012658,0.014842858932464578,0.013301946263433631,-6.20521283032705e-06,-0.008443441558769462,0.014135538167432769
8.181818181818182,6.582278481012658,0.014832029790113192,0.01337709294384472,-3.064012802548243e-05,-0.008462736820187373,0.014160829733005892
8.282828282828282,6.582278481012658,0.014864313649356265,0.013154254007170338,3.746353317797546e-05,-0.008405570296957982,0.014087493457484517
8.383838383838384,6.582278481012658,0.015049057563240986,0.013470783016597595,-6.506174423706886e-05,-0.008555952173951574,0.014325719481931027
8.484848484848484,6.582278481012658,0.015009675444066142,0.013427317881152409,-6.3096770574860224e-06,-0.008531097997565565,0.014284385124092235
8.585858585858587,6.582278481012658,0.015174583627097015,0.01362451289158545,1.4881051821497956e-05,-0.008639728955604739,0.014462008638983179
8.686868686868687,6.582278481012658,0.015094303400409308,0.013907749837962731,1.4994939544395755e-05,-0.00870061597151161,0.01453741309767296
8.787878787878787,6.582278481012658,0.015572198896064848,0.013941159165664152,5.4123085533944616e-05,-0.0088540074185187,0.014824425179302176
8.88888888888889,6.582278481012658,0.015438713848103126,0.013727102840535767,-2.285509863377388e-05,-0.008749745006591668,0.014658103288841354
8.98989898989899,6.582278481012658,0.015492492998988599,0.013904841198767268,6.446264036989952e-05,-0.008819200259326759,0.014763257074870249
9.09090909090909,6.582278481012658,0.015639619602779552,0.014000074740006153,4.597474431818792e-05,-0.00889190830283571,0.014887924359445514
9.191919191919192,6.582278481012658,0.01587416607423335,0.01424818403670545,-5.9843609095019874e-05,-0.009036705033281639,0.015127213921073331
9.292929292929292,6.582278481012658,0.015948396253460364,0.014125760452664792,-6.328855442468938e-05,-0.009022247011837547,0.01512009400322177
9.393939393939394,6.582278481012658,0.016021357752892793,0.014435942563411363,6.615284107965494e-05,-0.009137190094891246,0.0152908492317076
9.494949494949495,6.582278481012658,0.016162125144016753,0.01449081409511829,-1.6165739100287454e-05,-0.009195881771740513,0.01539468789743773
9.595959595959595,6.582278481012658,0.016432888024319893,0.014752641107137365,-7.78132632931791e-05,-0.009355658739437177,0.015661094910353533
9.696969696969697,6.582278481012658,0.016715380483065378,0.014742663093715632,4.5137474820518744e-05,-0.009437413073034303,0.01582172395847699
9.797979797979798,6.582278481012658,0.016724248506746073,0.015175027749771192,4.169163775064365e-05,-0.00956978287695518,0.016006131160144786
9.8989898989899,6.582278481012658,0.01706203659358729,0.015121042439859473,9.927834761944195e-07,-0.009654923710034029,0.016179098884169397
10.0,6.582278481012658,0.01713037551928782,0.015166501688873086,2.602440445591261e-05,-0.009689063162448271,0.016237817016920057
0.0,6.6835443037974684,0.017063052754876025,0.015324727669751011,-1.4306590208387292e-05,-0.009716334127388109,0.016263733421948815
0.10101010101010101,6.6835443037974684,0.016849739186797812,0.01528421419675075,2.288475089887006e-06,-0.009640186015064568,0.016124078488280163
0.20202020202020202,6.6835443037974684,0.016567950177295756,0.015165658608291175,1.4716948429760666e-05,-0.009520082635676079,0.015913231841403534
0.30303030303030304,6.6835443037974684,0.01648396265052961,0.014846178161874942,-4.760335553036818e-06,-0.009399042243721366,0.01572915294404363
0.40404040404040403,6.6835443037974684,0.016444862280385157,0.01482432217139471,3.1760013202094275e-06,-0.009380755335533961,0.015697455749720913
0.5050505050505051,6.6835443037974684,0.016413327912598162,0.014585336475888267,1.2484582041446682e-05,-0.009299599316545929,0.015579984935210432
0.6060606060606061,6.6835443037974684,0.01586703997258103,0.014636468743123042,6.088169016199362e-05,-0.009151052614711221,0.015289305409204397
0.7070707070707071,6.6835443037974684,0.015827003055755927,0.01435399877608172,-6.000681453766848e-06,-0.009054300549551293,0.01514432673062208
0.8080808080808081,6.6835443037974684,0.015859065102973136,0.01414284054168435,3.5384508553347077e-05,-0.009000571693397245,0.015074528577260635
0.9090909090909091,6.6835443037974684,0.015731166712308522,0.013967613596173318,-5.206973926609228e-05,-0.008909634092544551,0.014927997569037232
1.0101010101010102,6.6835443037974684,0.015517814884298372,0.013816422863519895,-3.269483143360937e-05,-0.00880027132434548,0.014741052676917799
1.1111111111111112,6.6835443037974684,0.015512321376465488,0.01405653374670251,-2.405452365935836e-05,-0.008870656536950398,0.014838144169716044
1.2121212121212122,6.6835443037974684,0.015401244622362939,0.013877149216269707,9.775321176961418e-05,-0.008783518151589793,0.014699554538111358
1.3131313131313131,6.6835443037974684,0.015184047486899735,0.01366990428620346,-8.445139251248773e-05,-0.008656185531930958,0.014487184045507058
1.4141414141414141,6.6835443037974684,0.015131920400636729,0.013693723348443767,-1.1639730376055737e-05,-0.008647693124724149,0.014466552765185556
1.5151515151515151,6.6835443037974684,0.015058077531929356,0.01356957996865379,-3.3036310412208206e-05,-0.008588297250174943,0.014371871361552
1.6161616161616161,6.6835443037974684,0.014934163958600422,0.013611491410270259,8.41653383488096e-05,-0.008563696610661203,0.014319460832192729
1.7171717171717171,6.6835443037974684,0.014772302890421458,0.013467254158447487,5.819579214403425e-06,-0.008471867114660683,0.014164943039991646
1.8181818181818181,6.6835443037974684,0.01481425519274565,0.013237557034344512,1.5131096980935458e-05,-0.008415543668127048,0.014092239423466307
1.9191919191919191,6.6835443037974684,0.014623851123584787,0.01324045988349798,1.0658419107853574e-05,-0.00835929330212483,0.01398358417119566
2.0202020202020203,6.6835443037974684,0.014629852641578,0.013069865338045227,4.324703586216706e-06,-0.008309915393886967,0.01391559630189222
2.121212121212121,6.6835443037974684,0.014475347570899244,0.012937884767267909,1.7075568920335787e-05,-0.008223969701450146,0.013771167177699847
2.2222222222222223,6.6835443037974684,0.014570397963029778,0.01301250330210038,-1.2030682881270736e-05,-0.008274870379539046,0.013857302103706396
2.323232323232323,6.6835443037974684,0.014551818114516873,0.013088934055682275,-5.578447180558636e-05,-0.008292225651059745,0.013878658191002126
2.4242424242424243,6.6835443037974684,0.014410585976364415,0.013048368499224854,-2.2796903216600948e-05,-0.00823768634267678,0.013780124515430842
2.525252525252525,6.6835443037974684,0.01420871007336101,0.013081998204329039,9.092873025575705e-05,-0.008187212483307013,0.013681103881022026
2.6262626262626263,6.6835443037974684,0.014289832277094513,0.012657315542169631,5.530270288448202e-06,-0.008084144345779243,0.013547550288422767
2.727272727272727,6.6835443037974684,0.014111846892364534,0.012729885169823207,1.2913419766226586e-05,-0.008052519618656322,0.013474142234135966
2.8282828282828283,6.6835443037974684,0.014155818800513234,0.012898476516950084,-9.557817349739001e-05,-0.008116288595238995,0.013571912597581948
2.929292929292929,6.6835443037974684,0.01424044965716464,0.012827919213635504,2.1576170471625366e-05,-0.008120510661240043,0.01358940677937211
3.0303030303030303,6.6835443037974684,0.014052739487765739,0.012688467084453625,8.521682161715233e-05,-0.008022361971665809,0.013423514716623805
3.131313131313131,6.6835443037974684,0.014135292466892936,0.012733181603316622,-5.695776804355506e-05,-0.008060542221062866,0.013489362232245134
3.2323232323232323,6.6835443037974684,0.014137085433547856,0.012636861430932256,2.1750113756313888e-05,-0.008032184059344033,0.013449924941105222
3.3333333333333335,6.6835443037974684,0.014122166164169498,0.012681667824457846,-4.6639921886351225e-05,-0.008041150196588203,0.013460095897483357
3.4343434343434343,6.6835443037974684,0.013987783613396209,0.012473015543004501,2.462935044647187e-05,-0.007938239746920213,0.01329534446879294
3.5353535353535355,6.6835443037974684,0.01402815208317947,0.01253691743692679,0.0001292025876405114,-0.007969520856031878,0.01334704630828922
3.6363636363636362,6.6835443037974684,0.013785381886181967,0.012419112409213263,2.556514709679549e-05,-0.007861348288618569,0.013155639865181807
3.7373737373737375,6.6835443037974684,0.013745143213126117,0.012500587012304757,7.717872676498343e-06,-0.007873719067629261,0.013167059564152964
3.8383838383838382,6.6835443037974684,0.013953926008462642,0.012664972480816158,2.376979708117845e-05,-0.00798566954678364,0.013356241428737217
3.9393939393939394,6.6835443037974684,0.0138583325731604,0.012500198581688082,-5.5062233487332085e-05,-0.007907559346454544,0.013231988991192663
4.040404040404041,6.6835443037974684,0.013967348096680019,0.012629988577685774,-1.965040425993206e-05,-0.007979201002309737,0.013349049996903787
4.141414141414141,6.6835443037974684,0.013757922882268096,0.012538444205936413,-7.931483873917354e-05,-0.007888910126461353,0.013191245173290303
4.242424242424242,6.6835443037974684,0.013984466391654822,0.012471855604211567,1.3200786180050593e-05,-0.007936896598759915,0.013292883799809035
4.343434343434343,6.6835443037974684,0.013758081134497033,0.012473814858793075,-0.0001348466024253984,-0.007869568797987033,0.01316509200763281
4.444444444444445,6.6835443037974684,0.013663270317087119,0.012473627398456177,-1.0377868191323879e-05,-0.00784106931466299,0.013109008976807677
4.545454545454545,6.6835443037974684,0.013751567257980742,0.01251724535443862,4.561390524998036e-06,-0.007880643783725808,0.013177835723540648
4.646464646464646,6.6835443037974684,0.013761057798172325,0.01234242139781955,-1.3448206800915975e-05,-0.007831043758797562,0.013109456358827322
4.747474747474747,6.6835443037974684,0.013767868004321485,0.012272640350379399,1.010635517317975e-05,-0.007812152506410265,0.013084498636206553
4.848484848484849,6.6835443037974684,0.013915588287353613,0.012544226391340502,8.32740916904807e-05,-0.007937944403608234,0.01328388975481682
4.94949494949495,6.6835443037974684,0.013723747500467542,0.012325029360362182,-3.372403552697943e-05,-0.007814633058248916,0.013080726862244164
5.05050505050505,6.6835443037974684,0.013631412756997634,0.0123974758231529,-2.0370495186411136e-05,-0.007808666574045159,0.013058290673676426
5.151515151515151,6.6835443037974684,0.013702264908067098,0.01223787958931752,-1.4633756804535814e-05,-0.007782043349215385,0.01303195053889248
5.252525252525253,6.6835443037974684,0.013649216837611439,0.01224356724482595,-4.565559304465377e-05,-0.007767835224731216,0.013003738242049208
5.353535353535354,6.6835443037974684,0.013863690978851732,0.012286947488859404,-2.7001704912735016e-05,-0.00784519154031334,0.013146510957982837
5.454545454545454,6.6835443037974684,0.013765296917419649,0.012560945650378628,-4.8370363571960304e-05,-0.007897872770339483,0.013204644163765726
5.555555555555555,6.6835443037974684,0.013778571004747558,0.012514953280774621,6.253629261584717e-05,-0.007888057285656653,0.013192673516625524
5.656565656565657,6.6835443037974684,0.013933800666884804,0.012490535705116346,7.925567220398655e-05,-0.007927300911600346,0.013271868477056898
5.757575757575758,6.6835443037974684,0.013705076087437307,0.012608462694554479,-2.6922803306460224e-05,-0.007894061634597537,0.013191083201160834
5.858585858585858,6.6835443037974684,0.013856581218964891,0.012641486893487937,2.9573400465798773e-05,-0.007949420433735848,0.013290856550499197
5.959595959595959,6.6835443037974684,0.013741244434020838,0.012470322320959773,-4.837487010109566e-05,-0.007863470026494183,0.013152186532473365
6.0606060606060606,6.6835443037974684,0.013817562352733492,0.012456622209483511,5.3852931573504174e-05,-0.0078822553686651,0.013190186222044391
6.161616161616162,6.6835443037974684,0.013903894062957264,0.012494534911067284,6.32981429569347e-06,-0.007919528692207365,0.01325553104134511
6.262626262626262,6.6835443037974684,0.01400369836675416,0.012682241480525918,3.307999455344698e-05,-0.008005781954184023,0.01339208032636833
6.363636363636363,6.6835443037974684,0.01397250788067182,0.012624814076112165,2.7345617823139348e-05,-0.007979196587035196,0.013349862774942095
6.4646464646464645,6.6835443037974684,0.013951557119920382,0.012542180855878673,5.2580839872882546e-05,-0.007948121392739716,0.013303292385983727
6.565656565656566,6.6835443037974684,0.014047640052203415,0.012488947135112172,-1.5833177454299613e-05,-0.007960976156194675,0.013336810325687629
6.666666666666667,6.6835443037974684,0.013984492150433223,0.012733182254331043,2.3846534155057366e-05,-0.00801530232142928,0.013402782163169891
6.767676767676767,6.6835443037974684,0.013968040845540512,0.0127384660922925,-0.00012700742897893066,-0.008011952081349904,0.01339744981037611
6.8686868686868685,6.6835443037974684,0.014325373678900861,0.012757861473669077,3.111552175292313e-05,-0.008124970545770981,0.013609597054821088
6.96969696969697,6.6835443037974684,0.014099004785305281,0.012652601727974477,6.369451741091876e-05,-0.008025481953983926,0.013434781170088872
7.070707070707071,6.6835443037974684,0.014109330744779701,0.012686518787645411,1.1432673468557385e-07,-0.008038754859727534,0.013454467045532752
7.171717171717171,6.6835443037974684,0.01420526884333249,0.012705115691594078,-5.5174848499868806e-05,-0.008073115360477971,0.013518105501701329
7.2727272727272725,6.6835443037974684,0.014462459367521153,0.012859501136102758,-6.338817222578367e-05,-0.008196588151087173,0.013731771260120984
7.373737373737374,6.6835443037974684,0.014381036950031553,0.012721986485139766,8.643558331151032e-05,-0.008130907030551396,0.013628287474801885
7.474747474747475,6.6835443037974684,0.014311181154400155,0.012996338642607807,-2.156980371655947e-05,-0.008192255939102389,0.013701210284438558
7.575757575757575,6.6835443037974684,0.014452790786465464,0.012944781258458613,2.743588489855174e-05,-0.008219271613477222,0.013760979842473478
7.6767676767676765,6.6835443037974684,0.014415611053429297,0.0130692533791473,-4.460167763642471e-05,-0.008245459329772978,0.013792023795967941
7.777777777777778,6.6835443037974684,0.014570162007100138,0.012978980681253837,-3.110670373524026e-05,-0.008264742806506192,0.013843432092716934
7.878787878787879,6.6835443037974684,0.014642455720318118,0.012900404590017948,-5.6471561979581775e-05,-0.008262858093100818,0.013854165880198048
7.979797979797979,6.6835443037974684,0.014654081750703723,0.01317385024397675,6.763515821180002e-05,-0.00834837959840414,0.013973384962282752
8.080808080808081,6.6835443037974684,0.014680863681136587,0.013233626758205856,-1.930813690887762e-05,-0.008374347131802733,0.01401344652709705
8.181818181818182,6.6835443037974684,0.014853907165134534,0.013247231362600198,-6.459078270062929e-05,-0.008430341558320419,0.01411974036224466
8.282828282828282,6.6835443037974684,0.014808686311400851,0.013267824439239559,-6.314088575596334e-05,-0.008422953225192122,0.014101959643215516
8.383838383838384,6.6835443037974684,0.015086833845841177,0.013392047619041026,-9.018650931029413e-05,-0.00854366443946466,0.014315736043179936
8.484848484848484,6.6835443037974684,0.015121040060440055,0.013613731045098802,-3.075392600527406e-05,-0.008620431331661656,0.014426662482522376
8.585858585858587,6.6835443037974684,0.01506659030888597,0.013483105586390008,-7.762855690345104e-05,-0.008564908768582792,0.014341196965613045
8.686868686868687,6.6835443037974684,0.015104045130122262,0.013805928017264386,-9.233563127161723e-05,-0.008672991944215995,0.01449951880170794
8.787878787878787,6.6835443037974684,0.015236564431539121,0.01390938613318334,-4.2506235166586416e-05,-0.008743785169416738,0.014618415803263889
8.88888888888889,6.6835443037974684,0.015554964647113279,0.013819956130736395,-2.3648248069902413e-05,-0.008812476233354901,0.014764174928151986
8.98989898989899,6.6835443037974684,0.01541964920927592,0.014077196331338514,1.2105744352718677e-05,-0.00884905366218433,0.01479418969244234
9.09090909090909,6.6835443037974684,0.01558716212456245,0.014170740033043729,4.4468579408718265e-06,-0.008927370647281854,0.014929431777032204
9.191919191919192,6.6835443037974684,0.01602680391997537,0.014301191146441412,-1.2019527976803628e-06,-0.009098398519925034,0.015237458124777881
9.292929292929292,6.6835443037974684,0.01607758908862178,0.014476699302019233,0.0001126141096614384,-0.009166286517192304,0.015341164123342655
9.393939393939394,6.6835443037974684,0.016301836543850954,0.014524949149560281,-5.687906935074114e-05,-0.009248035708023369,0.015490331866730885
9.494949494949495,6.6835443037974684,0.016296530685234775,0.014519964729341582,-8.76735667953929e-06,-0.009244948624372907,0.015484878687142172
9.595959595959595,6.6835443037974684,0.016317318169231425,0.014690126436002687,6.108223566970423e-05,-0.009302233381570234,0.015567993225131
9.696969696969697,6.6835443037974684,0.016531191196636263,0.015049828484642864,7.26326484681361e-05,-0.009474305904383737,0.01584303803396207
9.797979797979798,6.6835443037974684,0.016867247736561217,0.015304690441299779,-6.613593534994103e-05,-0.009651581453358298,0.016143193995972183
9.8989898989899,6.6835443037974684,0.016849043607370984,0.015309501913850847,-6.061957828631104e-05,-0.00964756365636655,0.01613479712235342
10.0,6.6835443037974684,0.017065497799008324,0.015297046468511905,3.0438991941194984e-05,-0.009708763280256069,0.016253673816855795
0.0,6.784810126582278,0.017041755845989274,0.015605382054506584,3.650863116958725e-05,-0.009794141370148756,0.016371019490721755
0.10101010101010101,6.784810126582278,0.016894959870772063,0.015203953711161955,-6.340106774273897e-05,-0.009629674074580206,0.016116505475603865
0.20202020202020202,6.784810126582278,0.016591248398044333,0.015068242433454386,2.780317957389082e-05,-0.009497847249449614,0.01588467246605839
0.30303030303030304,6.784810126582278,0.016382180968219848,0.014978082315337196,2.6875634504515036e-05,-0.009408078985067113,0.01572727932520321
0.40404040404040403,6.784810126582278,0.016274847853472597,0.014476084603684011,2.7068608444967626e-05,-0.009225279737146982,0.015454249311967044
0.5050505050505051,6.784810126582278,0.016206946464834657,0.014647475772038017,-4.858498658985369e-05,-0.009256326671061802,0.015486442006698643
0.6060606060606061,6.784810126582278,0.016011821296622993,0.01447718672788665,2.864648227935774e-05,-0.009146702407352892,0.015302408042107776
0.7070707070707071,6.784810126582278,0.016014748258917275,0.01429629005633402,2.3153023828235566e-06,-0.009093311494575389,0.01522841426296752
0.8080808080808081,6.784810126582278,0.015859264071195818,0.014294750152350424,-5.746466860597212e-05,-0.009046204267063873,0.015138091949270455
0.9090909090909091,6.784810126582278,0.015636770921644866,0.013961697771935214,-3.126863566215072e-05,-0.008879540608074023,0.014870261362080937
1.0101010101010102,6.784810126582278,0.015450841528086276,0.014128032373976836,-2.158643394918752e-05,-0.008873662170618933,0.014833786141595015
1.1111111111111112,6.784810126582278,0.015374432329903825,0.01393437687435721,1.8843702188515916e-05,-0.008792642761278311,0.014707411712621899
1.2121212121212122,6.784810126582278,0.01549653988693152,0.013869979696697987,-5.6023598672508827e-05,-0.008809955875088852,0.01475099344397142
1.3131313131313131,6.784810126582278,0.015231478089824502,0.01376007668882908,-8.990170078134228e-06,-0.008697466433596075,0.014551686196194942
1.4141414141414141,6.784810126582278,0.014879487142263153,0.01359703217366565,-1.7293689364111566e-05,-0.00854295579477864,0.014281542401384816
1.5151515151515151,6.784810126582278,0.014990055907455809,0.013507621290605712,6.606887946867046e-05,-0.008549303159418455,0.014307015971426685
1.6161616161616161,6.784810126582278,0.015067024694492866,0.013580859402672002,5.488510061231059e-05,-0.00859436522914946,0.014381963300951485
1.7171717171717171,6.784810126582278,0.01479712046478647,0.013551967462114102,2.5161399062778284e-05,-0.008504726378070171,0.014215568942530628
1.8181818181818181,6.784810126582278,0.014865479898519513,0.013262559937565326,-3.023017202603799e-06,-0.008438411950825451,0.014132363495605114
1.9191919191919191,6.784810126582278,0.014811618813212047,0.013314177825700622,-4.745074214585697e-05,-0.0084377389916738,0.01412280464339388
2.0202020202020203,6.784810126582278,0.01465097853127678,0.013132536724817451,-2.540408806406194e-05,-0.008335054576828269,0.013953928308515093
2.121212121212121,6.784810126582278,0.01454121166957799,0.013101100511716068,1.504304750457626e-05,-0.008292693654388218,0.013877336728353642
2.2222222222222223,6.784810126582278,0.014518970243195489,0.01300747737741369,6.011106096292087e-06,-0.008257934286182753,0.01382533529666484
2.323232323232323,6.784810126582278,0.014408437203034209,0.013052438569767587,-5.880957883588205e-05,-0.00823826273184054,0.013780941530681693
2.4242424242424243,6.784810126582278,0.014389739673073988,0.013069556684097223,-2.5748542663605775e-05,-0.008237788907151362,0.013777241756366715
2.525252525252525,6.784810126582278,0.014271939954969377,0.012751561057598504,-1.0992653487897026e-05,-0.008107050303770364,0.013575766212373962
2.6262626262626263,6.784810126582278,0.014327893355335549,0.012955037799249816,-1.1350786815633947e-05,-0.00818487934637561,0.01369319242912155
2.727272727272727,6.784810126582278,0.014201352508012258,0.012791219663194351,-2.0416059844857472e-05,-0.008097771651361984,0.01355147019813621
2.8282828282828283,6.784810126582278,0.014339952849335149,0.01270293894509778,1.323669047173395e-05,-0.008112867538329878,0.013595583314932677
2.929292929292929,6.784810126582278,0.014108196396954813,0.01272994751077763,2.7475599762503273e-05,-0.008051443172319733,0.013472135477457627
3.0303030303030303,6.784810126582278,0.014059741217714526,0.012830120529634356,1.8237754488801227e-05,-0.008066958524204665,0.013487073045044524
3.131313131313131,6.784810126582278,0.014023422298553443,0.012656099626629473,-2.1567531388182807e-05,-0.008003856577554874,0.013392266293692695
3.2323232323232323,6.784810126582278,0.014037070288267816,0.012688014735916894,0.00010844318383414087,-0.008017525507255414,0.013414834524597475
3.3333333333333335,6.784810126582278,0.014051679735179554,0.012671788531528097,6.763801824702233e-05,-0.008017040480012295,0.01341557820428944
3.4343434343434343,6.784810126582278,0.013874227007101133,0.012384016824426235,3.052713147598828e-05,-0.00787747314945821,0.013192504795817421
3.5353535353535355,6.784810126582278,0.013968148465669093,0.012621401260461478,2.415113678162962e-06,-0.007976864917839171,0.01334583651121074
3.6363636363636362,6.784810126582278,0.013905815640341499,0.012658714306074376,2.2507599916719857e-05,-0.007969358983924762,0.01332615957048829
3.7373737373737375,6.784810126582278,0.01388248774690547,0.012486431054867554,-4.9389597823320284e-05,-0.007910675640531908,0.013240053565083567
3.8383838383838382,6.784810126582278,0.013965716257221608,0.0126477863600059,4.331778418800717e-05,-0.007984050785168253,0.013355821355912784
3.9393939393939394,6.784810126582278,0.014029100027127657,0.012411363945906487,8.079420729801306e-06,-0.007932139191910242,0.013294266889520864
4.040404040404041,6.784810126582278,0.013786815790452822,0.012214972978519742,3.863026868411645e-05,-0.007800536630691769,0.013072136361689777
4.141414141414141,6.784810126582278,0.013810727706271076,0.012335746181122199,-1.3852253496143153e-05,-0.007843942166217982,0.013135515890724021
4.242424242424242,6.784810126582278,0.01389063371487899,0.012364908104576904,-3.7453738915781815e-05,-0.007876662545836768,0.01319425846284756
4.343434343434343,6.784810126582278,0.01403095877584055,0.01244527241324673,3.388832505289778e-05,-0.007942869356726183,0.013309280622205365
4.444444444444445,6.784810126582278,0.013836467550762777,0.012343311714975835,4.092128716063186e-05,-0.007853933779721583,0.013153796790979645
4.545454545454545,6.784810126582278,0.013806404521071179,0.01254786844252727,5.886961919004168e-05,-0.007906281889079535,0.013222528409948767
4.646464646464646,6.784810126582278,0.01396001790221348,0.01238844268395136,9.95016692914347e-06,-0.007904538175849452,0.013244358320908868
4.747474747474747,6.784810126582278,0.013901072678164357,0.012404977640803054,1.5834860061451116e-05,-0.007891815095690223,0.013216714733435221
4.848484848484849,6.784810126582278,0.013887856964996101,0.012395951548769176,2.765110825036542e-05,-0.007885142554129584,0.01320535033903523
4.94949494949495,6.784810126582278,0.013670669999165254,0.012333935395584776,-0.00011324719039605936,-0.007801381618425009,0.013055209487513807
5.05050505050505,6.784810126582278,0.013730969155757548,0.01222370215412743,3.0004026804790236e-05,-0.007786401392965493,0.013042922670420438
5.151515151515151,6.784810126582278,0.013896332023325584,0.012444148232544522,-6.133738156148004e-05,-0.007902144076761031,0.013230575957691962
5.252525252525253,6.784810126582278,0.013812301946659845,0.012235420763743671,5.2718466973849325e-05,-0.007814316813121055,0.013095580094389648
5.353535353535354,6.784810126582278,0.013951767882800137,0.012397803299992707,-1.4517979101021767e-05,-0.007904871354837853,0.013243364834432494
5.454545454545454,6.784810126582278,0.01382733432313981,0.012664249465394984,1.0915152258798914e-06,-0.007947475136560437,0.013284034826444592
5.555555555555555,6.784810126582278,0.013789247328087863,0.01238801461313308,5.100913613091308e-05,-0.007853178582366283,0.013145062050892902
5.656565656565657,6.784810126582278,0.013885363700698688,0.012353328769262702,-2.689698751506885e-06,-0.007871607740988417,0.01318626617394383
5.757575757575758,6.784810126582278,0.01395674330181256,0.012417258023388583,-1.1035143976614785e-05,-0.007912200397560343,0.013254239434629915
5.858585858585858,6.784810126582278,0.01381393134569546,0.01251964703659063,-3.864819734548815e-05,-0.007900073514685826,0.013214582761406874
5.959595959595959,6.784810126582278,0.013964693982941614,0.012467492886164343,0.00010731052727006234,-0.007929656060731786,0.013280846383486505
6.0606060606060606,6.784810126582278,0.013770630022116039,0.012492152983169526,-2.2427588545571718e-05,-0.007878834901585668,0.013178043460248492
6.161616161616162,6.784810126582278,0.013918990281864751,0.012568807435609512,-7.05560195051206e-05,-0.007946339315242279,0.013295978216169931
6.262626262626262,6.784810126582278,0.014089013841752858,0.012391882477182118,4.24031470135777e-05,-0.007944268895680492,0.01332197630592523
6.363636363636363,6.784810126582278,0.013753112638268757,0.012586919721584227,0.00010107455002989426,-0.007902009707955895,0.013209844011672153
6.4646464646464645,6.784810126582278,0.014020929991367436,0.012663192785101727,3.859642104939244e-05,-0.008005236832940748,0.013393941125730403
6.565656565656566,6.784810126582278,0.01393883112342516,0.012625343540104854,-7.839656835736005e-06,-0.007969252399059002,0.013330715115587118
6.666666666666667,6.784810126582278,0.014013399727496708,0.012742972597199103,8.332166782482933e-06,-0.008026911697408743,0.013423358822943461
6.767676767676767,6.784810126582278,0.0139973108102132,0.012680844224084989,-4.7814751530535876e-05,-0.008003446510289456,0.0133879670213292
6.8686868686868685,6.784810126582278,0.014067512056884932,0.012727674670180485,3.449582522191434e-05,-0.008038556018119624,0.013447879051640714
6.96969696969697,6.784810126582278,0.014251991918077928,0.012616718944692906,-1.5491170483457275e-05,-0.00806061325883125,0.01350881986181607
7.070707070707071,6.784810126582278,0.014178884553480637,0.012700750869826468,0.0001142039633344227,-0.00806389062699213,0.013502091954518203
7.171717171717171,6.784810126582278,0.014301201782076481,0.01291793895296658,-1.0449948172907676e-05,-0.008165742220512917,0.013662203161773303
7.2727272727272725,6.784810126582278,0.01406562173565468,0.012827897699729706,3.4838730884126596e-06,-0.008068055830615315,0.013489416366518393
7.373737373737374,6.784810126582278,0.014324862269546802,0.012921307812674664,-3.497265375003754e-06,-0.00817385102466644,0.013677205729423849
7.474747474747475,6.784810126582278,0.014267380865219993,0.012985445613612796,-8.822748356033179e-05,-0.008175847943649835,0.013672417801175235
7.575757575757575,6.784810126582278,0.014476680011476329,0.013034751365394361,7.833185317061631e-05,-0.008253429413061206,0.013812946477997499
7.6767676767676765,6.784810126582278,0.01444412087704931,0.013141472739053589,7.553451110458968e-05,-0.008275678084830868,0.01383947359200723
7.777777777777778,6.784810126582278,0.014506872515000314,0.013146660857375182,-3.707704246893567e-05,-0.00829606001171265,0.013877003744708747
7.878787878787879,6.784810126582278,0.014632309044555683,0.013150185894638506,6.338408606624127e-05,-0.008334748481758256,0.01395085394025496
7.979797979797979,6.784810126582278,0.0144570530154118,0.013271287387263943,4.806588958875933e-05,-0.008318502120802722,0.013902398226729212
8.080808080808081,6.784810126582278,0.014680840803075143,0.01320184780055233,-4.400532127766345e-05,-0.008364806581088242,0.01400026626792327
8.181818181818182,6.784810126582278,0.0148444210244958,0.013444567775365355,-1.9561873862158644e-05,-0.008486696639958345,0.014196392558312843
8.282828282828282,6.784810126582278,0.014798189575944915,0.013303915880492966,2.0045928684201352e-07,-0.008430631636931364,0.014110518179692427
8.383838383838384,6.784810126582278,0.014944536663564817,0.013493338747386691,-4.474262954565222e-07,-0.008531362623285453,0.014274371146103451
8.484848484848484,6.784810126582278,0.015092650719667564,0.013483618175120577,-5.177859792990684e-05,-0.008572880668436441,0.014356203131520476
8.585858585858587,6.784810126582278,0.015248745908730708,0.013658667216928214,-6.772323946668825e-05,-0.008672223937697676,0.014519630002188907
8.686868686868687,6.784810126582278,0.015001881036010242,0.013727881903311095,8.017855567812219e-05,-0.0086189288817964,0.01440785934073348
8.787878787878787,6.784810126582278,0.015387204259006273,0.013688673661894862,4.527425605353846e-05,-0.00872276337627034,0.014612377395022443
8.88888888888889,6.784810126582278,0.015527322379800932,0.013967486328650499,7.144683225483179e-05,-0.008848442612535428,0.014809661222202376
8.98989898989899,6.784810126582278,0.01559013673117041,0.013883636273345514,2.2357868559902474e-05,-0.008842131901354777,0.01481085518336838
9.09090909090909,6.784810126582278,0.01578044418859798,0.014079358113633809,-2.360018042967216e-05,-0.008957940690669535,0.015002462786605018
9.191919191919192,6.784810126582278,0.01571189208209843,0.01415750585777901,2.2251853177729936e-05,-0.008960819381963232,0.014995292800021067
9.292929292929292,6.784810126582278,0.015920664242292503,0.014487792550682206,5.987337916027015e-05,-0.009122537037892411,0.015255135416003762
9.393939393939394,6.784810126582278,0.016047961110061976,0.014560206193703877,9.760229499738915e-06,-0.009182450191129754,0.015358233076380587
9.494949494949495,6.784810126582278,0.01625697171075782,0.014591082756918502,-6.906997476351295e-05,-0.009254416340302897,0.01549181453540274
9.595959595959595,6.784810126582278,0.016486340543655612,0.014743122717452288,-4.219097502562242e-05,-0.009368838978332369,0.015687711446273407
9.696969696969697,6.784810126582278,0.01655845414042705,0.014890223758368962,-2.7799894383710873e-05,-0.009434603369638804,0.015790642746691938
9.797979797979798,6.784810126582278,0.016792585306067316,0.015009397709821065,2.73378346788702e-05,-0.009540594904766513,0.01597587529714359
9.8989898989899,6.784810126582278,0.017151316114478902,0.015220621926676793,4.4591657176034085e-05,-0.009711581412346708,0.016272284517482003
10.0,6.784810126582278,0.01716802639631301,0.015400206922655023,-1.647305684174449e-05,-0.00977046999569041,0.016355951783160568
0.0,6.886075949367089,0.016940131090497103,0.015437322164393471,-2.1586232118332343e-05,-0.009713235976467172,0.0162410003914688
0.10101010101010101,6.886075949367089,0.01702602244047628,0.01527215319534219,-8.276179699828271e-05,-0.00968945269074554,0.01622099346194437
0.20202020202020202,6.886075949367089,0.016579097737441952,0.01490360215555231,2.780037457524423e-05,-0.009444809967898279,0.015808158678488254
0.30303030303030304,6.886075949367089,0.016553261330967156,0.014907139872847091,1.4162931632930893e-05,-0.009438120361144274,0.015794685803563774
0.40404040404040403,6.886075949367089,0.016469809135345813,0.014656226791857463,1.1470013508025973e-05,-0.009337810778160982,0.015642082134628893
0.5050505050505051,6.886075949367089,0.016299241788702075,0.014537496867822118,-7.16635107517566e-05,-0.009251021596957258,0.015494170794001786
0.6060606060606061,6.886075949367089,0.016176882823249344,0.01442559471249425,4.993509203790015e-05,-0.009180743260723077,0.015376464024827927
0.7070707070707071,6.886075949367089,0.016030936211778632,0.014391575288705556,6.625241373861604e-05,-0.009126753450145256,0.015277797544912224
0.8080808080808081,6.886075949367089,0.015928943636312747,0.014260331405921353,-1.6981551194237e-05,-0.00905678251267023,0.015163678547592478
0.9090909090909091,6.886075949367089,0.015659596556572567,0.014004422480707348,-8.622433840122515e-05,-0.008899205711183975,0.014901862675071419
1.0101010101010102,6.886075949367089,0.01573343354904189,0.014001849556005086,5.683001840368047e-05,-0.008920584931514092,0.014943401273840045
1.1111111111111112,6.886075949367089,0.015487248809476955,0.014015473174784503,-2.1841205629462506e-05,-0.008850816595278437,0.014806372779114469
1.2121212121212122,6.886075949367089,0.015493285004444074,0.013629909936436717,-5.0910644101623104e-05,-0.008736958482264237,0.014651007526966815
1.3131313131313131,6.886075949367089,0.01525489060969273,0.013704197558947171,2.294825359439466e-05,-0.00868772645059197,0.014541742105401845
1.4141414141414141,6.886075949367089,0.015040594303969057,0.013462078961547079,-2.317651395004537e-05,-0.00855080197965484,0.014316807964322387
1.5151515151515151,6.886075949367089,0.015112553522551662,0.013571604693474886,7.599820996572964e-05,-0.008605247464807965,0.014404633032279568
1.6161616161616161,6.886075949367089,0.014893436505274265,0.01340178283628462,5.844157797604006e-05,-0.008488565802467665,0.014206825072900654
1.7171717171717171,6.886075949367089,0.015036434695431457,0.013345553923892377,-2.632346002750575e-05,-0.00851459658579715,0.014266418843149489
1.8181818181818181,6.886075949367089,0.014717107937780015,0.013224843468960346,2.920243764130476e-05,-0.008382585422022108,0.014030711328543851
1.9191919191919191,6.886075949367089,0.014619930299268995,0.013291323487794137,-1.3932414238766942e-05,-0.008373376136118939,0.014002999727650647
2.0202020202020203,6.886075949367089,0.014510516407981735,0.013283859410057242,-3.76021541037107e-05,-0.008338312745411693,0.013937883235538136
2.121212121212121,6.886075949367089,0.014512198515929295,0.013038851663257385,0.00015434813360022025,-0.008265315053756004,0.01383707428412025
2.2222222222222223,6.886075949367089,0.014500587894088868,0.013197923823075264,-5.600717822038861e-05,-0.00830955351514924,0.013895466833105632
2.323232323232323,6.886075949367089,0.014651025595039216,0.013035193299924142,3.372046284531118e-05,-0.008305865668489008,0.0139137800718659
2.4242424242424243,6.886075949367089,0.01446126463069507,0.013133747094672627,-4.06524363103534e-05,-0.00827850351761031,0.013845499377012892
2.525252525252525,6.886075949367089,0.014308670708939377,0.013060036813323447,5.469398897469321e-05,-0.008210612256678846,0.013727338675469549
2.6262626262626263,6.886075949367089,0.014166089057613773,0.012904943612703001,2.7928804650706973e-05,-0.008121309801095032,0.013579595295465973
2.727272727272727,6.886075949367089,0.014296817373895678,0.012805367345753538,-2.2460011217558995e-05,-0.008130655415894765,0.013612565330996302
2.8282828282828283,6.886075949367089,0.014173808550492507,0.012899259997742524,1.7850815287192314e-05,-0.00812192056447051,0.01358149739974077
2.929292929292929,6.886075949367089,0.014090697625751875,0.012686532469322444,-4.614611402043431e-05,-0.008033169028522295,0.013443963742979742
3.0303030303030303,6.886075949367089,0.014181398672161841,0.012718894875727683,-3.996692045274153e-05,-0.008070088064366857,0.013509827101809497
3.131313131313131,6.886075949367089,0.01408429468690868,0.012634574186476013,5.731778931368301e-05,-0.008015660662015407,0.013418666535920318
3.2323232323232323,6.886075949367089,0.01400858902210117,0.01249668515268371,3.943787676781935e-05,-0.007951582252435464,0.013317336287383866
3.3333333333333335,6.886075949367089,0.01415771728611096,0.012603261707776887,8.96955223413247e-05,-0.008028293698166353,0.013448936171562838
3.4343434343434343,6.886075949367089,0.014013176798942737,0.012668859785810713,4.7812627436232346e-05,-0.008004610975426034,0.01339197589578941
3.5353535353535355,6.886075949367089,0.014102224692592437,0.012646494280338483,-2.01552936266696e-05,-0.008024615691879277,0.013433691735917679
3.6363636363636362,6.886075949367089,0.013925916883078572,0.012476613444471618,-2.3055834584996058e-05,-0.007920759098265057,0.013260858078634866
3.7373737373737375,6.886075949367089,0.01386041717698326,0.012563866759184713,-2.1275717175757802e-05,-0.007927285180850391,0.013259820345413826
3.8383838383838382,6.886075949367089,0.013789728512206573,0.012560160730164483,7.273429930623317e-05,-0.007904966772711316,0.013218506508080596
3.9393939393939394,6.886075949367089,0.013815204494322149,0.012338813653971341,-5.666953235889974e-05,-0.007846205444488047,0.013139733561534398
4.040404040404041,6.886075949367089,0.013862125575472978,0.01255753945706938,-6.533175003349204e-05,-0.007925899509762708,0.013258542096545579
4.141414141414141,6.886075949367089,0.013857736756079006,0.012435952623805556,4.950891788335969e-05,-0.007888106813965368,0.013204657560474712
4.242424242424242,6.886075949367089,0.013722630424853315,0.012437813031013347,-3.581749818145468e-05,-0.007848133036759998,0.013127608919108706
4.343434343434343,6.886075949367089,0.013795368592085348,0.012447100846698825,-7.870704899688702e-05,-0.007872740831635252,0.013173790433850198
4.444444444444445,6.886075949367089,0.013909201283408624,0.01237524310037318,1.1550467285029543e-05,-0.00788533331513454,0.013209207968738671
4.545454545454545,6.886075949367089,0.013740223755211469,0.012350950087421575,-5.457920213973004e-06,-0.007827352152789912,0.01310095372411164
4.646464646464646,6.886075949367089,0.013858929790824724,0.012122385393316329,-0.00011360184697962562,-0.007794394555242316,0.013078898678662493
4.747474747474747,6.886075949367089,0.013792991233607447,0.012366422562298546,4.0747308791632124e-05,-0.007847824138771798,0.013138113913204987
4.848484848484849,6.886075949367089,0.013818806795754625,0.012400263349867732,-2.563739023260821e-05,-0.007865721043686708,0.01316704525637782
4.94949494949495,6.886075949367089,0.013810972396283162,0.012399467294858676,1.1300517291101127e-05,-0.007863131907342552,0.01316212104086304
5.05050505050505,6.886075949367089,0.013867547161066638,0.012534342544770226,2.7530847402938807e-05,-0.007920566911751059,0.013251426140765205
5.151515151515151,6.886075949367089,0.013819988965854004,0.012483239553998835,-4.674132398077383e-07,-0.00789096855595585,0.013202466911145686
5.252525252525253,6.886075949367089,0.013809560944905173,0.012394026934933505,2.7586685181123817e-05,-0.007861076363951603,0.013159106729552157
5.353535353535354,6.886075949367089,0.013768731327120417,0.012605847812343998,-1.4885617138422778e-05,-0.007912373741839325,0.013225713383120953
5.454545454545454,6.886075949367089,0.013708797981080099,0.012454249707706335,-1.7480024918743025e-05,-0.007848914306635929,0.013126598998709093
5.555555555555555,6.886075949367089,0.013755638559650531,0.012425266048607676,1.8286378351267817e-05,-0.00785427138247746,0.013141094435593349
5.656565656565657,6.886075949367089,0.013778413216671037,0.012250001340705382,-5.15817841085504e-05,-0.007808524367212926,0.013081651473761302
5.757575757575758,6.886075949367089,0.013945541244025736,0.01252473431584276,3.6298064195657034e-05,-0.007941082667960548,0.013292360360282725
5.858585858585858,6.886075949367089,0.01387382625206944,0.01254139756166752,4.0920020864285724e-05,-0.007924567144121089,0.01325811299876537
5.959595959595959,6.886075949367089,0.013937601869292094,0.012599994449509993,-9.061323938243733e-05,-0.007961278895640625,0.013320192644232693
6.0606060606060606,6.886075949367089,0.013757201538308674,0.01240930198452469,-3.787084338432121e-05,-0.007849951056850008,0.013135387476594169
6.161616161616162,6.886075949367089,0.01399485803161687,0.012626963035390513,-3.930063191615999e-05,-0.007986546320102214,0.013363694301744273
6.262626262626262,6.886075949367089,0.013812835857634742,0.012400036946714772,-7.0603789463934e-05,-0.007863861841304854,0.01316398991269494
6.363636363636363,6.886075949367089,0.014032188040817687,0.012655799539374775,5.224731827545791e-06,-0.008006396274057737,0.013397129772595807
6.4646464646464645,6.886075949367089,0.013971536580705646,0.012744988873818471,-2.5461712598350706e-06,-0.008014957636357236,0.013400429731821128
6.565656565656566,6.886075949367089,0.014069401188002427,0.012566606479547769,-3.6289379408825034e-05,-0.007990802300265058,0.013381590743459511
6.666666666666667,6.886075949367089,0.01398430294004805,0.012643238854591472,8.817792930102716e-05,-0.007988262538391857,0.013365203373272783
6.767676767676767,6.886075949367089,0.013921564944559152,0.012631198239295854,-9.489941477482738e-06,-0.007965828955156502,0.013323339034452972
6.8686868686868685,6.886075949367089,0.014070396844877276,0.012653542317879948,6.237728409995447e-05,-0.008017181748827167,0.013418625541887927
6.96969696969697,6.886075949367089,0.014040980228349136,0.012580875711044655,1.0411178423654468e-05,-0.007986556781818137,0.013370865996391456
7.070707070707071,6.886075949367089,0.014163485231835866,0.012688993231154355,6.251963191683491e-05,-0.008055743538897066,0.013487261434758311
7.171717171717171,6.886075949367089,0.014292722175009268,0.01268215664139089,-1.0307320672839702e-06,-0.008092463644920047,0.013559368199907171
7.2727272727272725,6.886075949367089,0.014424423568184313,0.0130090748002346,-9.420843984287831e-05,-0.008230049510525674,0.013772372452635975
7.373737373737374,6.886075949367089,0.01422935769527918,0.012892598135625911,-9.675326827555433e-06,-0.008136586749271526,0.01361031217310913
7.474747474747475,6.886075949367089,0.014200922030265618,0.012838099685702568,-5.6799626999180314e-05,-0.008111706514790455,0.013571286452991911
7.575757575757575,6.886075949367089,0.014588816268712399,0.012973257197830906,-1.0254517499606202e-06,-0.008268622039962991,0.0138518771266593
7.6767676767676765,6.886075949367089,0.014429933147831283,0.013007927880632007,-7.428050802352261e-05,-0.008231358308538985,0.013774693516404993
7.777777777777778,6.886075949367089,0.01459065958162208,0.013247922487924998,-6.069413802202666e-05,-0.008351574620864123,0.013968175307569356
7.878787878787879,6.886075949367089,0.014586967912544387,0.013193835611522455,9.576739016033108e-05,-0.008334241057220053,0.013943686330948087
7.979797979797979,6.886075949367089,0.014753529487814646,0.013198014440331687,3.902217464980481e-05,-0.0083854631784439,0.0140407083325353
8.080808080808081,6.886075949367089,0.014703292564981738,0.013362672985882139,0.00010108147644352656,-0.008419789665259162,0.014082017029250759
8.181818181818182,6.886075949367089,0.015052022044397368,0.013403266710708324,1.4907799119103524e-05,-0.008536586626531707,0.01429913727727344
8.282828282828282,6.886075949367089,0.01491152954428149,0.01332575323838279,6.5024920826772374e-06,-0.008471184834799283,0.014185280274055544
8.383838383838384,6.886075949367089,0.014911172209204984,0.013397973882498752,9.729177659239224e-05,-0.008492743827511121,0.014216105727719306
8.484848484848484,6.886075949367089,0.014953380568306885,0.013517546936490734,2.1273203141786237e-05,-0.008541278251439285,0.014289716566715622
8.585858585858587,6.886075949367089,0.01509466384681387,0.01361174890718913,-1.220170829990844e-05,-0.0086119238262009,0.014410560623531429
8.686868686868687,6.886075949367089,0.015145063490424993,0.013707683606236766,-0.00010396575265789552,-0.008655824128998528,0.014481098925418602
8.787878787878787,6.886075949367089,0.015370819196199668,0.013982545411472523,7.437286498438735e-05,-0.008806009382301657,0.01472640741976447
8.88888888888889,6.886075949367089,0.015534388111988012,0.0138604915067613,2.212300624354429e-05,-0.008818463885624794,0.014768806743137674
8.98989898989899,6.886075949367089,0.01559248510715558,0.014164378829644693,1.3806873621691393e-05,-0.008927059181040082,0.014929766420895147
9.09090909090909,6.886075949367089,0.01575325049403983,0.01398012323008656,2.7331361302228685e-05,-0.008920012117237917,0.014945855762893107
9.191919191919192,6.886075949367089,0.015705113560502193,0.014449244389292423,-3.6595407854837236e-05,-0.009046307384938385,0.015116489309496103
9.292929292929292,6.886075949367089,0.01601490216847353,0.014295581043008501,-4.028501952817277e-05,-0.00909314496344461,0.01522837041925798
9.393939393939394,6.886075949367089,0.016047812326413998,0.014423743955416833,-1.6665319555576736e-05,-0.009141466884549249,0.015300587155827673
9.494949494949495,6.886075949367089,0.01641247930355513,0.014533421179555441,-4.404871687755831e-05,-0.009283770144933172,0.015558475330862223
9.595959595959595,6.886075949367089,0.016486061599055975,0.014779127808682993,5.8802000449477936e-05,-0.009379556822321689,0.015702662431089726
9.696969696969697,6.886075949367089,0.01648237601264288,0.014825559538372984,4.025882276128254e-05,-0.00939238066530476,0.015719743956474932
9.797979797979798,6.886075949367089,0.016907773729369982,0.014810615976176337,-3.117014756007664e-05,-0.009515516911663894,0.015962942369558895
9.8989898989899,6.886075949367089,0.017155855431650366,0.015088921319116785,-2.5651741286132818e-05,-0.009673433025230145,0.016221514831585942
10.0,6.886075949367089,0.01700540420056092,0.015395554870592102,1.6354753151921484e-05,-0.009720287721345906,0.016260382860356828
0.0,6.987341772151899,0.017167222803663475,0.015168728174203814,-2.0639020300072902e-05,-0.009700785293360187,0.016260387292626834
0.10101010101010101,6.987341772151899,0.016828652146188987,0.015133837280508726,-6.228249021482072e-05,-0.009588746828009314,0.016048866563885468
0.20202020202020202,6.987341772151899,0.016725423561192006,0.015131829700833951,-3.7013275057236576e-05,-0.009557175978607788,0.015988430577815807
0.30303030303030304,6.987341772151899,0.016584923471681362,0.014841977962316847,1.2786808574552422e-05,-0.009428070430199461,0.015785797991531524
0.40404040404040403,6.987341772151899,0.016443895157487672,0.014788746868122343,3.264112062901746e-06,-0.009369792607683005,0.015681968971819185
0.5050505050505051,6.987341772151899,0.016221961123982588,0.01445016083551992,5.3152796361074905e-05,-0.009201636587850752,0.015412906903974321
0.6060606060606061,6.987341772151899,0.01611149985166745,0.014432580789125335,1.9479324654515112e-05,-0.009163224192237834,0.015341135251147667
0.7070707070707071,6.987341772151899,0.015896215260022984,0.014493927028726027,9.847869055740125e-05,-0.009117042686624704,0.015244477375522255
0.8080808080808081,6.987341772151899,0.01585288471136697,0.014248360390523867,9.18613442090687e-05,-0.00903037353056725,0.015115469837647761
0.9090909090909091,6.987341772151899,0.015736987979694275,0.014083570121697612,-1.0891774903665994e-06,-0.008946167430417566,0.014978877390792737
1.0101010101010102,6.987341772151899,0.015490292132933684,0.014076849986837827,4.3102284688189745e-05,-0.008870142635931453,0.014834349016010029
1.1111111111111112,6.987341772151899,0.015476589162796758,0.013836922800412467,3.8427052555305075e-05,-0.008794053588962767,0.014725532423459524
1.2121212121212122,6.987341772151899,0.015136696719460508,0.013859177880355253,-1.369478717616999e-05,-0.008698762379944727,0.014540109675715972
1.3131313131313131,6.987341772151899,0.01531219762714412,0.013679233897120582,3.19282123087717e-05,-0.00869742945727941,0.014564640798743898
1.4141414141414141,6.987341772151899,0.015063147609200016,0.013722472008212512,-0.00019177853105064726,-0.008635685885223758,0.014443384973918665
1.5151515151515151,6.987341772151899,0.01504290318454052,0.013515843055408696,-5.098180137629266e-05,-0.008567623871984764,0.01434075411581121
1.6161616161616161,6.987341772151899,0.014951096460187526,0.013483112919986905,2.9903588253998133e-05,-0.008530262814052328,0.01427392658655621
1.7171717171717171,6.987341772151899,0.015052927840170338,0.01319091899758812,7.779176411837845e-05,-0.008473154051327536,0.014214330213618028
1.8181818181818181,6.987341772151899,0.01469986513620257,0.01327446277149582,4.8489411531356785e-05,-0.008392298372309516,0.014041781869368783
1.9191919191919191,6.987341772151899,0.014615369510689155,0.013194713075208449,3.0162790372996808e-05,-0.008343024775769281,0.013959462785907454
2.0202020202020203,6.987341772151899,0.014795001878343251,0.013072563513592829,-2.3158658340037393e-05,-0.008360269617580823,0.014013457982564469
2.121212121212121,6.987341772151899,0.014592448217711803,0.01299427234229569,-9.572144577506757e-06,-0.008276016168002248,0.013862636375827363
2.2222222222222223,6.987341772151899,0.01442436442238597,0.01311184525282748,-5.543662711368236e-05,-0.008260862902564035,0.01381527996118974
2.323232323232323,6.987341772151899,0.01461028954140578,0.012936901263271182,1.8557824116440226e-05,-0.008264157241403088,0.013849661899587161
2.4242424242424243,6.987341772151899,0.01451003532945347,0.01296819756128386,-1.7380181628847096e-06,-0.0082434698672212,0.013803850098397795
2.525252525252525,6.987341772151899,0.014309012688537162,0.012979390789586577,-2.714139825165873e-07,-0.00818652104343712,0.013692704704069327
2.6262626262626263,6.987341772151899,0.014440919118973723,0.012849742038848559,5.2623074784671356e-05,-0.008187198347346684,0.013715036913803899
2.727272727272727,6.987341772151899,0.01420482894548209,0.012775526916373825,-1.2739495869289716e-05,-0.008094106758556773,0.013546865530821897
2.8282828282828283,6.987341772151899,0.01422797090582039,0.012683182807056832,-1.9255240211796578e-05,-0.008073346113863166,0.013521961342013753
2.929292929292929,6.987341772151899,0.014106033045170094,0.012856714165092115,3.387871280005235e-05,-0.008088824163078663,0.013524846610248786
3.0303030303030303,6.987341772151899,0.013999820337670249,0.012904396138140784,2.2271949427199305e-05,-0.008071264942743309,0.01348557265362526
3.131313131313131,6.987341772151899,0.014115255757197912,0.0128272953297718,-1.7671076497694285e-05,-0.008082765326090913,0.013517408520729435
3.2323232323232323,6.987341772151899,0.013912173650739107,0.012658608194481887,-4.766437845024301e-05,-0.007971234553566298,0.013329928634855534
3.3333333333333335,6.987341772151899,0.013980980011743343,0.012600604505131579,1.7283723386809926e-05,-0.007974475355062476,0.013344479474399281
3.4343434343434343,6.987341772151899,0.014084654496691197,0.0126389125924367,9.414617873773086e-06,-0.00801707012673837,0.013420326100253939
3.5353535353535355,6.987341772151899,0.013944471148019662,0.012421500191205574,6.677573122830993e-05,-0.00790979140176757,0.013249304455764057
3.6363636363636362,6.987341772151899,0.013861727549948803,0.01250015810849817,-8.447816952666766e-06,-0.00790856569753409,0.013233588760121382
3.7373737373737375,6.987341772151899,0.014012202046261173,0.012554504828105413,0.00013246357641764287,-0.007970012062309977,0.013345178126170724
3.8383838383838382,6.987341772151899,0.013935357550410418,0.012520177460784203,-8.388469704317983e-05,-0.007936660503358386,0.013285217127464872
3.9393939393939394,6.987341772151899,0.013930561240637702,0.012521899427399393,4.128690972534759e-06,-0.007935738200411128,0.013282374263091546
4.040404040404041,6.987341772151899,0.013934691065934295,0.012375306659718397,-4.537306307021511e-05,-0.007892999317695807,0.013224368832586363
4.141414141414141,6.987341772151899,0.013825438663668218,0.012379924826621027,-3.5437211164213766e-05,-0.007861609047086774,0.013162490987353899
4.242424242424242,6.987341772151899,0.013858578647599828,0.01239079418936305,-8.768190222317755e-07,-0.007874811851088863,0.013186098335056773
4.343434343434343,6.987341772151899,0.013853721650106123,0.01233362586932877,-3.6443987421376946e-05,-0.007856204255830466,0.013159836450565163
4.444444444444445,6.987341772151899,0.01359068236939654,0.012464576309801358,3.2398481788200607e-05,-0.007816577603759369,0.013064201519340499
4.545454545454545,6.987341772151899,0.013849281173194734,0.012434853071593015,-3.814014349072639e-05,-0.007885240273436324,0.013199194952802728
4.646464646464646,6.987341772151899,0.013954484778769257,0.012408672706790361,-1.5393713181730316e-05,-0.007908947245667885,0.013249410563218572
4.747474747474747,6.987341772151899,0.01372793845192001,0.012380712391494856,-1.2725670845122814e-05,-0.00783259525302446,0.013106378660306927
4.848484848484849,6.987341772151899,0.013760271893376365,0.01228700011013973,0.00015382673919600364,-0.007814181601054827,0.013088696650691553
4.94949494949495,6.987341772151899,0.013830292490748892,0.012431385155020928,-4.8486760790858503e-05,-0.007878503293730946,0.013186875573499684
5.05050505050505,6.987341772151899,0.013974754462677479,0.01245951783615228,-8.80422417352883e-05,-0.007930281689648927,0.013282992841484613
5.151515151515151,6.987341772151899,0.013890842526464157,0.012437636511136553,4.422999000995784e-05,-0.007898543711280213,0.013224482098616645
5.252525252525253,6.987341772151899,0.013656609922607862,0.012534069887314772,2.38035009913798e-06,-0.00785720394297679,0.013131375263954605
5.353535353535354,6.987341772151899,0.013905352174262515,0.01217455168152048,3.2796976601787424e-05,-0.007823971156734898,0.013125940955451571
5.454545454545454,6.987341772151899,0.013573607937721319,0.012319658555331854,-7.171997996167841e-05,-0.007767979947915952,0.012992691617861206
5.555555555555555,6.987341772151899,0.01372529175397503,0.012419604736292111,1.987221546474976e-06,-0.007843468947080141,0.013121262473937235
5.656565656565657,6.987341772151899,0.013833445868174343,0.012493794860479347,3.572368577655208e-05,-0.007898172218596107,0.013214792024777027
5.757575757575758,6.987341772151899,0.013787180223016133,0.01237447186584825,-4.661875985023567e-05,-0.007848495626659313,0.013138163441204956
5.858585858585858,6.987341772151899,0.01388652569249679,0.012453609518365527,-6.774721672872266e-05,-0.007902040563258694,0.01322892234308282
5.959595959595959,6.987341772151899,0.013822123992607934,0.012424042892169017,4.5632566829431136e-05,-0.007873850065433084,0.013179056836583955
6.0606060606060606,6.987341772151899,0.01381507574091401,0.01252938312334083,-5.3823000442915496e-05,-0.007903337659276453,0.013219533769724843
6.161616161616162,6.987341772151899,0.014033461181248878,0.012496851750175335,5.0930347461258965e-05,-0.007959093879427264,0.013332030384320664
6.262626262626262,6.987341772151899,0.013886090973378253,0.01262667902793573,-4.3641120222061437e-05,-0.007953831000394195,0.013301392624985134
6.363636363636363,6.987341772151899,0.014093924828104492,0.01266495365489888,-7.330282023150381e-06,-0.008027663544901012,0.013436555532446859
6.4646464646464645,6.987341772151899,0.014034275663927002,0.012520043149043836,3.052687306865831e-06,-0.007966295643891251,0.0133417639367428
6.565656565656566,6.987341772151899,0.014014677121367149,0.012510118672136424,7.312945433586969e-06,-0.00795743873805107,0.013326257182894327
6.666666666666667,6.987341772151899,0.014151361342812453,0.012743467221625063,6.124163705122406e-05,-0.008068448569331255,0.013502993256471052
6.767676767676767,6.987341772151899,0.01405544081198501,0.012764041608960384,6.0898160220210775e-05,-0.008045844726283618,0.013456710928595584
6.8686868686868685,6.987341772151899,0.01407565672167232,0.012571344096191088,-5.6921658144296555e-05,-0.007994100245359022,0.01338740455535305
6.96969696969697,6.987341772151899,0.013974533489395213,0.012632057341910528,1.99273190893863e-05,-0.007981977249391722,0.013354045898722714
7.070707070707071,6.987341772151899,0.014074808298792454,0.012766804863865576,5.270430424011327e-06,-0.008052483948797408,0.013468529517549054
7.171717171717171,6.987341772151899,0.014142377706814912,0.012804925387252857,-5.732654497340468e-05,-0.00808419092822033,0.013523709884476624
7.2727272727272725,6.987341772151899,0.014250815480104744,0.012819019127603318,2.1627241881583635e-05,-0.008120950382312418,0.013591648915095577
7.373737373737374,6.987341772151899,0.014321757553270904,0.01294360325175494,-7.760839116309015e-05,-0.008179608241507753,0.013685485965185411
7.474747474747475,6.987341772151899,0.014361277913132763,0.01285734381560668,-6.763347674892386e-05,-0.008165586518621832,0.013671994309238844
7.575757575757575,6.987341772151899,0.014255695697309948,0.012834917689466076,5.7672780885678636e-05,-0.008127184016032806,0.01360144365417094
7.6767676767676765,6.987341772151899,0.014382243846825897,0.012854473528120351,0.00010172840892686692,-0.008171015212483874,0.013683614323644953
7.777777777777778,6.987341772151899,0.014647319915579087,0.013160190628071554,-8.298731178435565e-05,-0.008342253163095191,0.013964015771936237
7.878787878787879,6.987341772151899,0.01464451282333475,0.013115387008078582,2.3207364197030193e-05,-0.008327969949423999,0.013943037500019377
7.979797979797979,6.987341772151899,0.0147340428302331,0.013426559691293211,-6.90990153792702e-05,-0.008448180756457892,0.014126264252610692
8.080808080808081,6.987341772151899,0.014778109320154366,0.013218925298014895,-9.90273611962007e-06,-0.008399110385450778,0.014063501418795435
8.181818181818182,6.987341772151899,0.014656967367129613,0.013229379864404872,2.6639490801900457e-05,-0.008365904169460345,0.013997954280011425
8.282828282828282,6.987341772151899,0.014811086229532535,0.013261529107146149,2.667455369804394e-05,-0.008421784601003604,0.014100386980944195
8.383838383838384,6.987341772151899,0.01503624561135782,0.013398149428452561,2.0970679512913833e-05,-0.008530318511943115,0.014287846022285255
8.484848484848484,6.987341772151899,0.015045628075613224,0.01340020081264376,-1.8126326454284716e-05,-0.008533748666477095,0.014294154544233228
8.585858585858587,6.987341772151899,0.01511812381628428,0.013654353441717662,7.295957605295777e-06,-0.008631743177400583,0.014441987029686949
8.686868686868687,6.987341772151899,0.015151012588500292,0.013456355789694941,-0.00015835473231755288,-0.008582210513458569,0.01438139444888729
8.787878787878787,6.987341772151899,0.015234537659420035,0.013812642558462665,-1.7300757199004696e-06,-0.008714154065364809,0.01457569956779502
8.88888888888889,6.987341772151899,0.015549088354217297,0.01393283935549723,-9.094308578033712e-05,-0.008844578312914358,0.014808106662371113
8.98989898989899,6.987341772151899,0.015717405579689446,0.013836290848302396,3.3190262128028273e-05,-0.008866108928397553,0.014866488906075163
9.09090909090909,6.987341772151899,0.015482559776702313,0.014131751884455304,-8.741437038503234e-05,-0.008884293498347285,0.01485406675219992
9.191919191919192,6.987341772151899,0.015892593372608937,0.014181492633156911,2.1529573690481374e-05,-0.009022225801729754,0.015109928925828709
9.292929292929292,6.987341772151899,0.01587727357138624,0.014283379409632237,-6.715737520163076e-05,-0.009048195894305543,0.015143815613927745
9.393939393939394,6.987341772151899,0.016062455196587305,0.014502783121568366,1.7093830986216704e-05,-0.0091695714954467,0.015342221406784014
9.494949494949495,6.987341772151899,0.016101154393152593,0.014491065023869404,-6.922608835089507e-05,-0.0091776658251066,0.015360001295622944
9.595959595959595,6.987341772151899,0.01650601889327993,0.014820176915631976,-8.823556252255959e-06,-0.00939785874267357,0.01573100177707088
9.696969696969697,6.987341772151899,0.016539480984834203,0.014822816321546627,-1.8049878900155247e-05,-0.009408689191914248,0.015751495283066803
9.797979797979798,6.987341772151899,0.016631772458503943,0.015013873333338137,2.4729514164619524e-05,-0.009493693737552622,0.015884796417540415
9.8989898989899,6.987341772151899,0.01682959716406844,0.015192652589928895,-1.7533384474829628e-05,-0.009606674926199201,0.016073790241870854
10.0,6.987341772151899,0.01712511320099387,0.015376486905456638,3.102323996651409e-05,-0.009750480031935151,0.016321294683181328
0.0,7.0886075949367084,0.016813147179081125,0.015616220183176911,-7.1547352424367175e-06,-0.009728810208677411,0.016247787422443837
0.10101010101010101,7.0886075949367084,0.01714418004969966,0.01532189247297775,-1.7515615917363607e-05,-0.009739821756803223,0.016309596428530856
0.20202020202020202,7.0886075949367084,0.016638905012130025,0.014986243442377027,5.8172287619218045e-05,-0.009487544536352114,0.01587753518137015
0.30303030303030304,7.0886075949367084,0.016477582726829358,0.015024291836665586,-5.147929214521936e-05,-0.009450562369048484,0.015801392863120534
0.40404040404040403,7.0886075949367084,0.016446824606948424,0.014879073342831478,2.375780426853683e-06,-0.009397769384933969,0.01572168472341973
0.5050505050505051,7.0886075949367084,0.01618628812205049,0.014494196109817718,6.0196540728309856e-05,-0.009204145269560463,0.015410427657252798
0.6060606060606061,7.0886075949367084,0.016249612969572978,0.014641947124688146,8.457763873449605e-05,-0.009267468028278337,0.015509094863881169
0.7070707070707071,7.0886075949367084,0.016077124406074866,0.014506076862635903,5.564475571160618e-05,-0.009174960380613231,0.0153523119355015
0.8080808080808081,7.0886075949367084,0.01574456483377733,0.014039237124533397,-6.699780889871065e-05,-0.008935140587493218,0.014965403029624577
0.9090909090909091,7.0886075949367084,0.015763243849409355,0.014166037685096422,8.986249694271539e-06,-0.008978784460351732,0.015028440245064263
1.0101010101010102,7.0886075949367084,0.01564484203119523,0.013996052957375271,-5.9571413480114056e-05,-0.00889226849657115,0.014889432133168783
1.1111111111111112,7.0886075949367084,0.015540042340837288,0.013859073199846594,3.985728738095037e-05,-0.008819734662205165,0.014771628461121492
1.2121212121212122,7.0886075949367084,0.015370991752939418,0.013779151885516797,-3.9448156419669026e-05,-0.008745043091536864,0.014640281849384906
1.3131313131313131,7.0886075949367084,0.01527240098659648,0.0139719002250279,-4.502636790879106e-05,-0.008773290363487313,0.01466566899713768
1.4141414141414141,7.0886075949367084,0.01512852149620796,0.013619387590591172,-1.5893184214620925e-05,-0.008624372726039739,0.014433275472131824
1.5151515151515151,7.0886075949367084,0.015146178926937133,0.013393456032524249,-2.0193542895772227e-05,-0.008561890487838413,0.014350363842105222
1.6161616161616161,7.0886075949367084,0.014889162426903657,0.013624611175468032,1.6970278023271162e-05,-0.008554132080711506,0.014298916134919676
1.7171717171717171,7.0886075949367084,0.014847013348144228,0.013244937219125256,1.7562568267150583e-05,-0.008427585170180845,0.014114366189888577
1.8181818181818181,7.0886075949367084,0.014954804420742854,0.013184559487043722,-2.310359340804139e-05,-0.008441809172335972,0.014153016532024582
1.9191919191919191,7.0886075949367084,0.014918332778708411,0.013283843950307758,3.0274055881685866e-06,-0.00846065301870485,0.014171957728445424
2.0202020202020203,7.0886075949367084,0.014579491935603001,0.013033877706180348,-7.962134421521364e-05,-0.008284010892535004,0.013872103550956137
2.121212121212121,7.0886075949367084,0.014576712454143674,0.013052322627696364,-3.893454932587241e-05,-0.00828871052455201,0.013877617441153671
2.2222222222222223,7.0886075949367084,0.014552193729221261,0.01303509804931552,4.330369597194e-05,-0.008276187533561035,0.013856279335567568
2.323232323232323,7.0886075949367084,0.014303588197848023,0.013048952835351483,-1.0736936590997671e-05,-0.008205762309959851,0.013719376935861841
2.4242424242424243,7.0886075949367084,0.014178521536345605,0.012788738195260961,3.506273089402113e-05,-0.00809017791948197,0.013537377362127524
2.525252525252525,7.0886075949367084,0.014563055983782857,0.01273690098867638,-4.255295477686541e-05,-0.008189987091737771,0.013741487418981483
2.6262626262626263,7.0886075949367084,0.014438337362279525,0.012889814893001167,-6.902902455871877e-05,-0.008198445676584207,0.013730248097505024
2.727272727272727,7.0886075949367084,0.014220016902531446,0.012838986095350963,5.892758555930508e-05,-0.008117700899364722,0.013582645646510037
2.8282828282828283,7.0886075949367084,0.014062609649301436,0.012627385867312426,9.72161779595959e-05,-0.008006998654984158,0.01340381358432287
2.929292929292929,7.0886075949367084,0.014041886292520431,0.012761919115394682,4.193860661140453e-05,-0.008041141622374534,0.013447862640858874
3.0303030303030303,7.0886075949367084,0.014240058592096094,0.0127487809177407,-2.7371268762079333e-05,-0.008096651852951038,0.013556162580447168
3.131313131313131,7.0886075949367084,0.014087767924259361,0.012782786877159598,2.4433460471950193e-05,-0.008061166440425687,0.013482792791775522
3.2323232323232323,7.0886075949367084,0.013927099737048622,0.012616607450348462,2.0341538813083686e-05,-0.007963112156219124,0.01332033714559426
3.3333333333333335,7.0886075949367084,0.01412176004911084,0.012568049226991947,-3.815422976146706e-06,-0.008006942782830836,0.013412570091526832
3.4343434343434343,7.0886075949367084,0.013995475283082624,0.0126407108934559,6.12837334828894e-05,-0.007990855852961557,0.013370093885583781
3.5353535353535355,7.0886075949367084,0.013934867206033041,0.012694959057877408,-6.209929740739506e-05,-0.007988947879173135,0.013358574394059654
3.6363636363636362,7.0886075949367084,0.013767891477202343,0.012647330180309118,-1.1914217664819762e-05,-0.007924566497253437,0.0132432304542617
3.7373737373737375,7.0886075949367084,0.013915110641527532,0.012548027755173637,-8.737808156604357e-05,-0.00793894151901035,0.013285293182755722
3.8383838383838382,7.0886075949367084,0.013978034839390084,0.012528508974372247,-4.3192841236510704e-05,-0.007951963144128698,0.013312800495288154
3.9393939393939394,7.0886075949367084,0.01384592940348767,0.012649094506462368,0.00011930294189118602,-0.00794850717298501,0.013289604316949807
4.040404040404041,7.0886075949367084,0.013947359643278728,0.012242429570484607,0.00012412804111731345,-0.007856936764129,0.013179627384412345
4.141414141414141,7.0886075949367084,0.013711037009241147,0.012512860583703656,-6.596729783075442e-05,-0.00786716927788344,0.013153439715697894
4.242424242424242,7.0886075949367084,0.013630318656778398,0.012414307926530112,4.64207528401581e-06,-0.007813387974992553,0.013064827579598712
4.343434343434343,7.0886075949367084,0.013962488647870405,0.012454140764037308,3.719587696156086e-05,-0.007924988823572314,0.013272907103393121
4.444444444444445,7.0886075949367084,0.01384879429306345,0.012322270152180653,2.1923782642903495e-05,-0.00785131933357323,0.013152197628934093
4.545454545454545,7.0886075949367084,0.013696531710558445,0.012539158707378147,1.4995456742730559e-05,-0.007870707125380978,0.013156107772399448
4.646464646464646,7.0886075949367084,0.013735323624012998,0.012531278593549145,-0.00010167183892015559,-0.007879980665268642,0.013175807482994613
4.747474747474747,7.0886075949367084,0.013722595821917885,0.012298683384472516,-8.116232273631046e-05,-0.00780638376191712,0.013069703509424416
4.848484848484849,7.0886075949367084,0.01375751888249433,0.01256298212281675,-9.424947056352438e-05,-0.007896150301593324,0.013201857094114283
4.94949494949495,7.0886075949367084,0.013785506931413989,0.012315121881629034,-6.569695688562417e-05,-0.007830188643912906,0.013112786832914974
5.05050505050505,7.0886075949367084,0.013883711022725936,0.012442372232123957,-7.799183668847846e-05,-0.007897824976454967,0.013222783602444025
5.151515151515151,7.0886075949367084,0.013897519097744514,0.012484357284728473,5.0259386104788774e-05,-0.007914562914741897,0.013247875230202823
5.252525252525253,7.0886075949367084,0.013662930401665774,0.012510257169534748,-7.11579329742771e-05,-0.007851956271360157,0.013125190244283715
5.353535353535354,7.0886075949367084,0.013887621056416114,0.012468044259862768,-4.54588710575081e-05,-0.007906699594883665,0.013235288882521012
5.454545454545454,7.0886075949367084,0.013503399822566771,0.012512111723313157,-6.26453771964417e-05,-0.0078046534637639785,0.013036505384883504
5.555555555555555,7.0886075949367084,0.013773939697498714,0.01240378720559997,7.288604514376784e-05,-0.007853318070929606,0.013143145436626901
5.656565656565657,7.0886075949367084,0.01382718658746154,0.01243972957673338,-9.240418794627395e-07,-0.007880074849258475,0.013188309272732244
5.757575757575758,7.0886075949367084,0.013734261762775207,0.012479419813333196,6.547856017386266e-05,-0.00786410447283252,0.013152304323102024
5.858585858585858,7.0886075949367084,0.013942075409807977,0.012303009893057316,-2.691343802724476e-05,-0.007873525590859588,0.013199174234180681
5.959595959595959,7.0886075949367084,0.013959261705409155,0.012658828629016614,-3.642024450285276e-06,-0.00798542710032773,0.013356611385211848
6.0606060606060606,7.0886075949367084,0.013718842419226258,0.012497488242209875,7.851228432519514e-07,-0.00786489919843084,0.013150771068875742
6.161616161616162,7.0886075949367084,0.013811834168053913,0.012511631217608888,-3.135160377898585e-06,-0.00789703961569884,0.013209811987666522
6.262626262626262,7.0886075949367084,0.01394056717930875,0.012647927440744734,8.676145304749316e-05,-0.007976548386016045,0.01334214309283348
6.363636363636363,7.0886075949367084,0.014002771147959664,0.012519988930387266,-2.0448355264195494e-05,-0.00795682802350408,0.013323454404832447
6.4646464646464645,7.0886075949367084,0.01391738763995875,0.012588177182830075,-5.271951014871017e-05,-0.007951669446836647,0.013302995151976912
6.565656565656566,7.0886075949367084,0.014020178145012236,0.012689635146662574,6.8558659199294e-06,-0.008012943987502442,0.013404530242815956
6.666666666666667,7.0886075949367084,0.014088740779078382,0.012775190668145997,-4.7040600973775813e-05,-0.008059179434167313,0.013480296809609221
6.767676767676767,7.0886075949367084,0.013979348428346602,0.012759380430147422,0.00010636818472705132,-0.008021618657548206,0.01341231110777163
6.8686868686868685,7.0886075949367084,0.014069593514655157,0.01266454324576357,-4.688689731009182e-05,-0.008020241028125617,0.013422583094106563
6.96969696969697,7.0886075949367084,0.013821133802004124,0.012717388637681133,3.257891839035413e-05,-0.007961556731905576,0.01330376516325415
7.070707070707071,7.0886075949367084,0.014350456850935158,0.012795960526361495,-3.833177443583264e-05,-0.008143925213188996,0.01363996870222683
7.171717171717171,7.0886075949367084,0.01429242155773969,0.012718534621252343,1.1521435773604591e-05,-0.008103286853697609,0.013574099481105108
7.2727272727272725,7.0886075949367084,0.014371637395888495,0.012850142624081348,-0.00012978602853342194,-0.008166534005990952,0.013676369030520934
7.373737373737374,7.0886075949367084,0.014306525358201419,0.012963453218282083,-3.713384040819733e-05,-0.00818099357294505,0.013684661184572611
7.474747474747475,7.0886075949367084,0.014455944862629745,0.012842111671021502,-6.559102423253063e-05,-0.008189416960095374,0.013720868134113703
7.575757575757575,7.0886075949367084,0.014405715570677465,0.012918105470074716,-0.00011426652826273676,-0.008197146312225654,0.013723946496681195
7.6767676767676765,7.0886075949367084,0.01453119358325474,0.0130434859787828,-5.101235538982498e-05,-0.008272403868611262,0.013847689354393124
7.777777777777778,7.0886075949367084,0.014468623214663063,0.013130742630186624,2.9973578046806326e-05,-0.008279809753454905,0.013848335183311602
7.878787878787879,7.0886075949367084,0.014304583265148897,0.013096978368858755,-6.298712092406179e-05,-0.008220468490202295,0.013741070894109558
7.979797979797979,7.0886075949367084,0.014670139526073236,0.013233445809963867,6.346284939592241e-05,-0.00837107560081113,0.01400759322212662
8.080808080808081,7.0886075949367084,0.014846322393250927,0.013304924701373452,7.357330676355245e-05,-0.008445374128387313,0.01413935456353817
8.181818181818182,7.0886075949367084,0.014709961159260116,0.013277388849937427,-2.7795313313094206e-05,-0.008396205002759262,0.014048646035783574
8.282828282828282,7.0886075949367084,0.014876370607862113,0.013484720469296281,-4.675562447958275e-05,-0.008508327323147519,0.014231898946314492
8.383838383838384,7.0886075949367084,0.015010573936555298,0.013451251187343551,3.66448613700473e-06,-0.008538547537169655,0.014294842713663653
8.484848484848484,7.0886075949367084,0.015124737005867028,0.013294293127684933,5.6638653533332855e-06,-0.008525709040065587,0.014297667930974846
8.585858585858587,7.0886075949367084,0.015245728680852768,0.013540011621457489,-1.5044635500543767e-05,-0.008635722090693077,0.014468500033735988
8.686868686868687,7.0886075949367084,0.01529654084059662,0.01358952193442075,-6.94154123891249e-05,-0.00866581883250521,0.014518989163110629
8.787878787878787,7.0886075949367084,0.015550250518604689,0.013907304387954657,8.367714271605522e-05,-0.008837266471967803,0.014798052062756181
8.88888888888889,7.0886075949367084,0.015444869814237198,0.013813501002954174,-2.022318912008068e-05,-0.008777511245157412,0.014697289403152668
8.98989898989899,7.0886075949367084,0.01571955833596948,0.013998282791804904,-7.3325929174714e-05,-0.008915352338332315,0.014934046421642793
9.09090909090909,7.0886075949367084,0.015570005993940135,0.014066533674092552,1.6962168517140934e-05,-0.008890961900409807,0.014875392626133
9.191919191919192,7.0886075949367084,0.01586872637227974,0.014144429409749814,2.513975213296102e-05,-0.009003946734608866,0.015080755154558671
9.292929292929292,7.0886075949367084,0.016083291976993673,0.014421919162514375,-6.425801853405845e-05,-0.009151563341852414,0.015320720729353676
9.393939393939394,7.0886075949367084,0.016045675911692255,0.014491152710247715,-8.089924968669182e-06,-0.009161048586581991,0.015327657312843444
9.494949494949495,7.0886075949367084,0.016186689624428752,0.014661306526265856,9.865903711190264e-05,-0.009254398845208383,0.015481408612986407
9.595959595959595,7.0886075949367084,0.016559657795561813,0.014789336146000509,4.359819673871857e-05,-0.009404698182468696,0.01574947893590399
9.696969696969697,7.0886075949367084,0.01662125346341934,0.014885199146414159,-1.0433451362239222e-05,-0.00945193578295005,0.01582481845167069
9.797979797979798,7.0886075949367084,0.016642442089680014,0.015058151326923433,6.110580471611505e-05,-0.009510178024981034,0.0159099211316407
9.8989898989899,7.0886075949367084,0.016812986212438905,0.015133195042686991,7.829336429358073e-06,-0.009583854376537769,0.016039204527418076
10.0,7.0886075949367084,0.017199830486996807,0.015548960092508005,1.9826439376387225e-05,-0.009824637173851443,0.01643672808568392
0.0,7.189873417721519,0.017232978911659525,0.015269813882930817,-3.687933116011632e-05,-0.009750837838377102,0.016340210458091916
0.10101010101010101,7.189873417721519,0.017149788975359924,0.015042246873406839,6.2975817388603145e-06,-0.009657610754630027,0.016199173197552614
0.20202020202020202,7.189873417721519,0.016629588958007237,0.015151724334065083,5.0066973279481556e-05,-0.009534393987621695,0.015942350881619625
0.30303030303030304,7.189873417721519,0.01674908139672376,0.014829391451038289,-3.376399930681869e-05,-0.009473541854328615,0.01587662791614873
0.40404040404040403,7.189873417721519,0.016327002423333316,0.014812992141096886,7.273937872363761e-05,-0.00934199836932906,0.015625615468546357
0.5050505050505051,7.189873417721519,0.01626059801543916,0.0146170817740604,-1.4583173902345677e-05,-0.009263303936849867,0.015504330831395383
0.6060606060606061,7.189873417721519,0.01610582910726269,0.014577252121479716,-3.6028085236014916e-05,-0.009204924368622722,0.015398674397242039
0.7070707070707071,7.189873417721519,0.01599290228680608,0.014421613761900223,3.39048982858861e-05,-0.00912435481461189,0.015268132039218557
0.8080808080808081,7.189873417721519,0.01582957144886042,0.014024390315826652,4.9833053699351605e-06,-0.008956188529406122,0.015008625585114132
0.9090909090909091,7.189873417721519,0.01565598098472213,0.014078248835089046,-8.91226036587062e-06,-0.008920268945943353,0.0149297780653793
1.0101010101010102,7.189873417721519,0.015561665924671939,0.014098568016566015,-4.258662451491091e-06,-0.008898070182371386,0.014884149803982307
1.1111111111111112,7.189873417721519,0.015442173545457275,0.013765107545960172,-2.063636935617189e-05,-0.008762184327425234,0.014675728518287953
1.2121212121212122,7.189873417721519,0.0153201975120516,0.013628583768180021,-5.231824302515537e-05,-0.008684634384069486,0.014548620683493444
1.3131313131313131,7.189873417721519,0.015421602152554243,0.013782223214592118,5.047981565843086e-06,-0.008761147610143908,0.01467077376765535
1.4141414141414141,7.189873417721519,0.014996490816917434,0.013527347363303365,-1.8570887740471764e-05,-0.00855715145406624,0.0143185948204404
1.5151515151515151,7.189873417721519,0.0150650569455361,0.013539480079726806,9.368160754266915e-06,-0.008581361107578872,0.014363171184485556
1.6161616161616161,7.189873417721519,0.014913189005923594,0.013563001202704936,-5.393056232605304e-06,-0.008542857062588559,0.014286031456728448
1.7171717171717171,7.189873417721519,0.014618544833697135,0.013462286159225715,-2.2492451148659837e-05,-0.008424249297876855,0.01407613177105372
1.8181818181818181,7.189873417721519,0.014815863565425776,0.013432128395971802,2.657791195155085e-05,-0.008474397588419273,0.014174816537909564
1.9191919191919191,7.189873417721519,0.014786509918997784,0.013183155129848722,1.864934613221297e-05,-0.008390899514653952,0.014053634550016425
2.0202020202020203,7.189873417721519,0.014469161013787264,0.01323081249737596,3.5183309822245616e-05,-0.008309992053348968,0.013891579356276584
2.121212121212121,7.189873417721519,0.01448237993813827,0.013136631705166883,3.562830101031369e-05,-0.008285703492991545,0.013858735075599947
2.2222222222222223,7.189873417721519,0.014639383548630688,0.012958454110999615,5.425960040878949e-05,-0.008279351297889091,0.01387581118404462
2.323232323232323,7.189873417721519,0.014543073530565198,0.01292483120841746,4.324644707983278e-05,-0.008240371421694797,0.013805473175987274
2.4242424242424243,7.189873417721519,0.014384298131641163,0.012972556448359908,5.471000651471241e-05,-0.008207056374000321,0.013733284880810754
2.525252525252525,7.189873417721519,0.014250507598686133,0.012739835335952358,1.9378647901509762e-05,-0.008097102880391548,0.013558479912673687
2.6262626262626263,7.189873417721519,0.014567282334715034,0.012872714328381836,1.542370162671525e-05,-0.00823199899892906,0.013798287518220277
2.727272727272727,7.189873417721519,0.014163234445207616,0.013000887780798871,1.728789393213078e-05,-0.008149236667801946,0.01361934535935488
2.8282828282828283,7.189873417721519,0.014187220321669108,0.012714840800449169,1.6331764744233849e-06,-0.008070618336635483,0.013511334399208097
2.929292929292929,7.189873417721519,0.014189334228592502,0.012686947975046015,0.0001175354722210859,-0.008062884661091554,0.013502516557117377
3.0303030303030303,7.189873417721519,0.014137016941329949,0.012657739931219141,6.477044920959296e-07,-0.008038427061764728,0.013458489721279993
3.131313131313131,7.189873417721519,0.01400354383043238,0.012727378070411485,-6.840252726937374e-06,-0.008019276570253158,0.0134110825838078
3.2323232323232323,7.189873417721519,0.013893946688166453,0.012776457551394695,-4.814989451606202e-05,-0.008001121271868345,0.013370533171512952
3.3333333333333335,7.189873417721519,0.014056517456027567,0.01237828136201627,-2.6188607687784273e-05,-0.007930439645413151,0.013297144879919244
3.4343434343434343,7.189873417721519,0.01407714611736626,0.01272387366978301,-1.7371494406950195e-05,-0.00804030593614478,0.01345169433388547
3.5353535353535355,7.189873417721519,0.013912664303726653,0.012568455782138211,-7.182188152761438e-05,-0.007944336025759459,0.013292218694056708
3.6363636363636362,7.189873417721519,0.013870170777650058,0.012406811740472656,3.459470277739025e-05,-0.007883094755436814,0.013199606346349086
3.7373737373737375,7.189873417721519,0.013906075534728722,0.01268040822974071,-6.622778206839633e-05,-0.00797594512934083,0.013336046391410002
3.8383838383838382,7.189873417721519,0.014037988711302818,0.012413827419324326,1.231928706423821e-06,-0.007935544839188144,0.013300491480837938
3.9393939393939394,7.189873417721519,0.013961056068189436,0.012482933956695835,-4.325394758447982e-05,-0.007933197007465581,0.013284027949133788
4.040404040404041,7.189873417721519,0.013794192929548267,0.01259953383148653,-2.276270305786473e-05,-0.007918118028310439,0.01323741535483528
4.141414141414141,7.189873417721519,0.014070978187711114,0.012594093626180544,4.266918858212365e-05,-0.007999521544167497,0.01339394888354544
4.242424242424242,7.189873417721519,0.013791340816746225,0.012431117246857767,7.591846927338198e-05,-0.007866737419081197,0.013164698009690843
4.343434343434343,7.189873417721519,0.013750611380811323,0.012575165543832935,1.6236810751067317e-06,-0.007897733077393278,0.013202192820410784
4.444444444444445,7.189873417721519,0.013626601217966213,0.012407821787347674,1.2881297731786266e-05,-0.007810326901594167,0.013059952548297107
4.545454545454545,7.189873417721519,0.01370480863034106,0.012538121327879096,-8.3387994770098e-05,-0.007872878987466046,0.013161100763892132
4.646464646464646,7.189873417721519,0.01366412539037661,0.012270027940989043,-4.286798810600184e-05,-0.0077802459994096955,0.013023372106359416
4.747474747474747,7.189873417721519,0.013764276233023018,0.012398427645955784,-1.09494134221936e-05,-0.007848811163693641,0.013134735817892993
4.848484848484849,7.189873417721519,0.013691960832166993,0.012538780495847765,-5.326780791329672e-05,-0.007869222398404426,0.013153662178208774
4.94949494949495,7.189873417721519,0.013809900653414772,0.012473264599372699,-8.423251011445316e-06,-0.00788494957583624,0.013192473374448413
5.05050505050505,7.189873417721519,0.01374675450879731,0.012369487762123179,0.00015679771376110648,-0.007834872681276146,0.013115293817757055
5.151515151515151,7.189873417721519,0.013965740146833574,0.012470120227687667,-4.160179558372957e-06,-0.007930758112356372,0.013281242018858287
5.252525252525253,7.189873417721519,0.013787757601531996,0.012471569270936069,-7.332361615360903e-05,-0.007877798061740418,0.013179660648060556
5.353535353535354,7.189873417721519,0.013880851752272333,0.012279081764898558,-7.143065372527002e-06,-0.007847980055151268,0.013153324058776455
5.454545454545454,7.189873417721519,0.013807063474401984,0.01258257729962016,-9.836680108932866e-05,-0.007916892232206643,0.013238460557116395
5.555555555555555,7.189873417721519,0.013780552983481355,0.012531975046876686,-6.491705366091964e-05,-0.007893758409107412,0.013201103577220142
5.656565656565657,7.189873417721519,0.013933830198910185,0.012576005568957563,2.2400334178903304e-06,-0.007952950730360325,0.013306976702367771
5.757575757575758,7.189873417721519,0.013693056111066864,0.012478725313131706,1.427385941947233e-05,-0.00785153442725957,0.013128103306392165
5.858585858585858,7.189873417721519,0.013882033768430104,0.012671364677491415,-3.3283015297879343e-05,-0.007966019533776457,0.013318158854365138
5.959595959595959,7.189873417721519,0.013873564556526198,0.012488423883180548,-3.060102316881592e-05,-0.007908596531912023,0.013235572481210713
6.0606060606060606,7.189873417721519,0.013740946778867037,0.012509165129611593,-6.928630911359997e-06,-0.007875033572543589,0.013168340910808532
6.161616161616162,7.189873417721519,0.013830200395283036,0.012548974273871763,-2.077378816487356e-05,-0.007913752400746439,0.0132362254433773
6.262626262626262,7.189873417721519,0.013954886583509673,0.012430535447322272,-7.607121445505961e-05,-0.007915626609249583,0.013259250326284696
6.363636363636363,7.189873417721519,0.013874230915693118,0.012610019654722306,4.2130258964471345e-05,-0.007945275171124627,0.013287508401862734
6.4646464646464645,7.189873417721519,0.01402788013590164,0.012537898731110624,-6.410233591734164e-05,-0.00796973366010368,0.01334587998114498
6.565656565656566,7.189873417721519,0.014079660570732646,0.01260433686276161,-3.872505066675748e-05,-0.008005199230048277,0.013403203485689736
6.666666666666667,7.189873417721519,0.014001128794062286,0.01272351071794302,-1.924355326957653e-05,-0.008017391853601593,0.013408092003189946
6.767676767676767,7.189873417721519,0.014221578081177433,0.012646888580388524,1.5779752946972857e-06,-0.008060539998469786,0.013503272489432313
6.8686868686868685,7.189873417721519,0.014168569040914777,0.012503192419885002,-6.075652398267683e-05,-0.008001528438239933,0.013414056000646296
6.96969696969697,7.189873417721519,0.014155050559725782,0.012737678390289947,-7.730670506020496e-05,-0.008067818685004719,0.013502938734761176
7.070707070707071,7.189873417721519,0.014197331407111807,0.012525776702523672,4.957049828608261e-05,-0.008016932432890643,0.013440017478059335
7.171717171717171,7.189873417721519,0.014153464758306545,0.01279720044271788,-2.990382105740323e-05,-0.008085199560307328,0.013526524353294647
7.2727272727272725,7.189873417721519,0.014254904576640212,0.012802024433312013,3.4427646731444075e-05,-0.008117078702985668,0.01358698101802365
7.373737373737374,7.189873417721519,0.014331347663019026,0.012820159328031256,-6.846400676594043e-05,-0.008145452097315084,0.01363920498305465
7.474747474747475,7.189873417721519,0.014393146491763008,0.012819399421982663,-3.916403845799514e-05,-0.0081637637741237,0.013674530160937367
7.575757575757575,7.189873417721519,0.014454462479828763,0.01296039501606067,-6.758193469778756e-06,-0.00822445724876683,0.013768366573026592
7.6767676767676765,7.189873417721519,0.014363105151724006,0.013039390354219998,-1.3842280523298076e-05,-0.0082207486517832,0.013749142899226807
7.777777777777778,7.189873417721519,0.014735589306551123,0.013162258764961143,5.0710576137593234e-05,-0.008369354421453678,0.014015588577998308
7.878787878787879,7.189873417721519,0.014592414030712928,0.013074882338335292,4.8832420217199385e-05,-0.008300188910714466,0.013896192022889145
7.979797979797979,7.189873417721519,0.014472930027627146,0.013084745798828396,-5.249612821086655e-06,-0.008267302747936661,0.013831187530509503
8.080808080808081,7.189873417721519,0.014732850853387252,0.0133814067407965,-9.13837373568983e-05,-0.008434277278255126,0.014106655304234302
8.181818181818182,7.189873417721519,0.014667604894648576,0.013225229576421499,7.663750584870693e-06,-0.008367850341321023,0.01400225213406118
8.282828282828282,7.189873417721519,0.0149980210153815,0.013370865841501923,-4.0479735583597834e-05,-0.008510666057065026,0.014254440594830591
8.383838383838384,7.189873417721519,0.01485764652155555,0.013396077570984249,1.3703782419862477e-05,-0.008476117227761938,0.014183473922253826
8.484848484848484,7.189873417721519,0.015135323145269332,0.013445642039315064,-2.2121441233133232e-05,-0.00857428955537532,0.014365257654318533
8.585858585858587,7.189873417721519,0.015079186499578496,0.01360142647566796,-3.0103845414388075e-05,-0.008604183892573936,0.014397393510621848
8.686868686868687,7.189873417721519,0.015149089495335664,0.013673017633875413,-4.071207060357254e-05,-0.008646632138763323,0.014467810074961398
8.787878787878787,7.189873417721519,0.01526380401813236,0.013896463092594385,-8.08828044975937e-05,-0.008748080133218024,0.014628811861576847
8.88888888888889,7.189873417721519,0.015437685581361363,0.013921930043144475,-2.3773674026404454e-06,-0.00880788468735175,0.01473838222122888
8.98989898989899,7.189873417721519,0.01573472478908292,0.01411118075567223,-6.13398402957902e-05,-0.008953771663426544,0.01498942055571034
9.09090909090909,7.189873417721519,0.015825254456852247,0.013959915615730801,3.4772441640942165e-05,-0.008935551021774915,0.014980064525075134
9.191919191919192,7.189873417721519,0.015802705312337642,0.01433495286299999,3.532903074582376e-05,-0.009041297452601288,0.015122469290232223
9.292929292929292,7.189873417721519,0.01610358871700406,0.014420998237477188,1.0530474165749708e-05,-0.009157376086344374,0.015331707925062556
9.393939393939394,7.189873417721519,0.01618397357263196,0.014424457469332743,-4.36182172117534e-05,-0.00918252931258941,0.015380072920751131
9.494949494949495,7.189873417721519,0.016317322557602335,0.014575100085920976,9.924368451731551e-06,-0.009267726793056992,0.01551973724105563
9.595959595959595,7.189873417721519,0.01643339790483838,0.014767478522940332,-6.30351712449392e-05,-0.009360262928333613,0.015667388368967517
9.696969696969697,7.189873417721519,0.016488089438323788,0.014934847312593091,-1.2666483741299956e-05,-0.009426881025275065,0.015768961305625682
9.797979797979798,7.189873417721519,0.016719429006252368,0.0151066788594068,2.2136576737667314e-05,-0.00954783235969775,0.015974275502517944
9.8989898989899,7.189873417721519,0.016863923274127782,0.015211245999953838,5.83662261351948e-05,-0.009622550782224485,0.0161016411420928
10.0,7.189873417721519,0.01699555193684605,0.015391994919062983,4.264606174200124e-05,-0.00971626405677271,0.016253378117414022
0.0,7.291139240506329,0.017299727606471915,0.015341334729331458,-5.441092811793658e-05,-0.00979231870074101,0.016408689656571367
0.10101010101010101,7.291139240506329,0.016901271422588248,0.015181086970015268,-2.6183373732761664e-05,-0.009624707517781056,0.016110268856484047
0.20202020202020202,7.291139240506329,0.016763787828020415,0.014955348970001104,0.000101078623129503,-0.009515741039406455,0.015937672314188717
0.30303030303030304,7.291139240506329,0.016595228432888052,0.014855647408851596,2.0368929635882053e-05,-0.009435262752521894,0.015797476035348337
0.40404040404040403,7.291139240506329,0.016520949053976663,0.01480845500496606,3.26200398886094e-05,-0.009398821217682816,0.01573485172392971
0.5050505050505051,7.291139240506329,0.016137100072307568,0.014732501065690276,2.9516210332889126e-05,-0.009260880341399354,0.015482743813737583
0.6060606060606061,7.291139240506329,0.016084378617663778,0.01460796974142097,4.516311088839104e-05,-0.009207704507725425,0.01539954604675069
0.7070707070707071,7.291139240506329,0.016027923623084996,0.014601698173667988,4.54605510239232e-05,-0.009188886539025895,0.015364739571907917
0.8080808080808081,7.291139240506329,0.01593909072481884,0.01428608226370458,3.7863655041197587e-06,-0.009067551896557025,0.015180238512145292
0.9090909090909091,7.291139240506329,0.015621879935239122,0.01401455307969131,4.080359966264638e-05,-0.00889092990447913,0.014883620526564592
1.0101010101010102,7.291139240506329,0.015580838496351475,0.013874226965731073,-0.00010249036322194432,-0.008836519638624763,0.014802571579117157
1.1111111111111112,7.291139240506329,0.015439690284501803,0.01395237400027423,-3.550675898398241e-05,-0.00881761928543281,0.0147524989482087
1.2121212121212122,7.291139240506329,0.015380499174034156,0.013668020162455255,-5.982277033643062e-06,-0.008714555800946823,0.014599783030830937
1.3131313131313131,7.291139240506329,0.015070231299771596,0.01365531565725942,-4.464583160649777e-06,-0.008617664087109305,0.014414950971100321
1.4141414141414141,7.291139240506329,0.015152830075677698,0.013656042211936736,3.010494589635739e-05,-0.008642661686284329,0.014462737637670944
1.5151515151515151,7.291139240506329,0.015126778108212243,0.013400735501393297,1.7087693117184447e-05,-0.008558254082881661,0.014341898460968873
1.6161616161616161,7.291139240506329,0.014842514357664465,0.01347308469341684,-3.864194986809254e-05,-0.00849467971532439,0.014207542722450598
1.7171717171717171,7.291139240506329,0.014979158488769824,0.01346842346125184,-2.8339123103044994e-05,-0.0085342745850065,0.014283920304349985
1.8181818181818181,7.291139240506329,0.014711944804592335,0.013246615604882585,6.337864949844004e-06,-0.008387568122842476,0.014036765574583145
1.9191919191919191,7.291139240506329,0.01470272175486752,0.013311664792964974,3.719103426496438e-05,-0.008404315964349748,0.01405905020032921
2.0202020202020203,7.291139240506329,0.014667854536899023,0.01325218680567113,-1.9619427682861307e-05,-0.008376012402771046,0.014013793856499545
2.121212121212121,7.291139240506329,0.01467557148859727,0.013007427570582443,-6.954545244206485e-05,-0.008304899717753913,0.013917206869049181
2.2222222222222223,7.291139240506329,0.014565696218558502,0.012987121790165009,1.1572397692362749e-05,-0.008265845402617053,0.013844087898309087
2.323232323232323,7.291139240506329,0.014489651470385398,0.01292921945679544,3.120896592997194e-05,-0.00822566127815425,0.013775984675542842
2.4242424242424243,7.291139240506329,0.014393568655113197,0.013020630863667148,-2.8715515697768746e-08,-0.008224259855634103,0.013758571962625097
2.525252525252525,7.291139240506329,0.014479466491435874,0.012920507690160536,-2.604739261429212e-05,-0.008219992254478923,0.01376642459377448
2.6262626262626263,7.291139240506329,0.014168674002118792,0.012971331545527452,3.166307226782719e-05,-0.008142001664293873,0.01360967320146853
2.727272727272727,7.291139240506329,0.014310341522678245,0.012946695632143694,-1.3468899131209623e-05,-0.008177111146446581,0.013679609293932563
2.8282828282828283,7.291139240506329,0.014264631385277723,0.012800220702999913,5.4152527805984566e-05,-0.00811945562648329,0.013592046428469368
2.929292929292929,7.291139240506329,0.014034905877214407,0.01270173819309966,-8.780473259900272e-05,-0.00802099322109422,0.013418947987988528
3.0303030303030303,7.291139240506329,0.014270990109335064,0.012714851707910238,-0.00013172588466117685,-0.00809575254517359,0.013561974222645736
3.131313131313131,7.291139240506329,0.014005308442392792,0.012625480287379495,-3.060647647591508e-05,-0.007989236618931686,0.013369011992839037
3.2323232323232323,7.291139240506329,0.014236006360872301,0.012601606650932762,-1.5156872303936171e-05,-0.008051283903541519,0.013493276253159351
3.3333333333333335,7.291139240506329,0.014068180161103642,0.012713358038161251,6.249972841033118e-05,-0.008034461459779468,0.013442509920637434
3.4343434343434343,7.291139240506329,0.014123305932949274,0.012658930516183955,8.756728566337259e-05,-0.008034670934739968,0.01345189012420914
3.5353535353535355,7.291139240506329,0.013970725751518876,0.012644243776694694,-1.1190676478393972e-05,-0.007984490858464071,0.013356990389410501
3.6363636363636362,7.291139240506329,0.013993803524155676,0.01252177741215713,2.7156064710454797e-05,-0.007954674280893841,0.013319022715983881
3.7373737373737375,7.291139240506329,0.014018840197583664,0.012348390930358345,4.179251279139668e-06,-0.007910169338382603,0.01326275130969372
3.8383838383838382,7.291139240506329,0.01376661827393436,0.01250562106216973,6.176850855399794e-05,-0.007881671800831226,0.013181869042567117
3.9393939393939394,7.291139240506329,0.013857062216269804,0.012533201846169165,3.429184561674352e-05,-0.00791707921873169,0.01324497987250204
4.040404040404041,7.291139240506329,0.01402313463259058,0.01246635391950588,8.570685222615805e-05,-0.007946846565628938,0.013314013766439564
4.141414141414141,7.291139240506329,0.013901023887314222,0.012403725010146005,1.5219882815328945e-05,-0.007891424669238067,0.013216167240156444
4.242424242424242,7.291139240506329,0.013803741412821017,0.012413607356938385,-8.018818696922423e-05,-0.007865204630927821,0.013164573258741923
4.343434343434343,7.291139240506329,0.013967215299910688,0.012354460904680321,-2.9917133226854477e-05,-0.007896502861377303,0.01323484330144924
4.444444444444445,7.291139240506329,0.013846942339662665,0.012430240751870105,0.00010077658461274824,-0.007883154927459831,0.013196906384003148
4.545454545454545,7.291139240506329,0.013842953012988152,0.012656273226945436,-4.626317114238222e-06,-0.007949767871980077,0.013289411902833705
4.646464646464646,7.291139240506329,0.013734657312518104,0.012436284080836121,2.735892603860145e-05,-0.007851282418006268,0.0131337777761259
4.747474747474747,7.291139240506329,0.013658643335703503,0.01223569717155157,-4.386429938765641e-05,-0.007768302152176522,0.013005905260544385
4.848484848484849,7.291139240506329,0.013896939149368487,0.012434130206716089,-7.142498715610336e-05,-0.007899320806825373,0.01322692199444499
4.94949494949495,7.291139240506329,0.013982052446716535,0.012503438119929145,-6.670962296339178e-05,-0.007945647169993705,0.013305013280936355
5.05050505050505,7.291139240506329,0.013825972547837196,0.012572041388588983,-6.838601647477387e-06,-0.007919404180927852,0.013243609128951797
5.151515151515151,7.291139240506329,0.013919332303458749,0.012499245159307058,0.00011955978160813473,-0.007925573238829742,0.013268032184009527
5.252525252525253,7.291139240506329,0.013870460710562317,0.012461411890682849,-1.7175990518846815e-05,-0.007899561780373548,0.013222398710090585
5.353535353535354,7.291139240506329,0.01386858359779429,0.012430905586009384,-7.063731985279561e-05,-0.007889846755141103,0.013209123372665459
5.454545454545454,7.291139240506329,0.013853369670807214,0.012546437438078312,-4.832072232133557e-05,-0.007919942132665657,0.013248604168700828
5.555555555555555,7.291139240506329,0.013627079308990384,0.012435046355808967,4.671387916851402e-05,-0.007818637699439806,0.013072140299988062
5.656565656565657,7.291139240506329,0.01368603592120173,0.012455248786698719,-1.0600391201654392e-05,-0.007842385412370133,0.013114044241865356
5.757575757575758,7.291139240506329,0.013791847149621322,0.01243759798374779,-5.234334155590279e-05,-0.007868833540010733,0.013167371058027214
5.858585858585858,7.291139240506329,0.013965085923271179,0.012689330720292233,0.00011623620199030991,-0.007996324993069024,0.013374441211488904
5.959595959595959,7.291139240506329,0.013802534588116628,0.012498728137108015,8.322224167037819e-05,-0.007890378817567392,0.013199803654074459
6.0606060606060606,7.291139240506329,0.01390209332376503,0.012462354878117723,-3.120256758151042e-05,-0.007909334460564825,0.013241170195342137
6.161616161616162,7.291139240506329,0.013792815888474634,0.012597102283635959,-5.2424079312641705e-05,-0.007916975451633178,0.013235841053878887
6.262626262626262,7.291139240506329,0.013907397347176229,0.012781796578912454,-3.652311193386889e-05,-0.008006758177826605,0.013380302789411953
6.363636363636363,7.291139240506329,0.01389274001504517,0.01245682879672837,-6.67987882412416e-05,-0.007904870643532062,0.013233847178583209
6.4646464646464645,7.291139240506329,0.014014169128015123,0.012637403763292452,-7.296338190305861e-05,-0.007995471867392271,0.01337961761458792
6.565656565656566,7.291139240506329,0.01390757803922124,0.012583244024012358,-5.085780614941422e-05,-0.007947246618970078,0.013295264885804061
6.666666666666667,7.291139240506329,0.01401822122567671,0.012729694970845539,4.8194399909868485e-05,-0.008024374858956674,0.01342069104951881
6.767676767676767,7.291139240506329,0.014174978760125925,0.012589754594321257,5.968466988047056e-05,-0.008029420006334154,0.013452996930238591
6.8686868686868685,7.291139240506329,0.014163477965962954,0.012703982824831421,-6.942370296285924e-05,-0.008060238237238313,0.013493597216385905
6.96969696969697,7.291139240506329,0.014115320128995653,0.012707172585568926,-7.846967770300374e-05,-0.008046747814369372,0.013467262563517428
7.070707070707071,7.291139240506329,0.014138720664755461,0.012887869096304216,5.217045367521027e-05,-0.008107976928317903,0.013556945674877755
7.171717171717171,7.291139240506329,0.014302685454786737,0.012663109624563856,-5.935211320841384e-05,-0.008089738523805177,0.013557848308736064
7.2727272727272725,7.291139240506329,0.014352161666798754,0.0129175493044675,7.718517374946013e-05,-0.008180913291379877,0.013691995517084252
7.373737373737374,7.291139240506329,0.014217383661986029,0.012770957618711769,3.124774874141336e-05,-0.008096502384209338,0.013552294335656046
7.474747474747475,7.291139240506329,0.014310987334003862,0.012860348022327875,5.006788652821455e-05,-0.00815140060689952,0.013643905322552625
7.575757575757575,7.291139240506329,0.0146043274188107,0.012971556336572137,-1.904452711475037e-05,-0.00827276512661485,0.013860298891433823
7.6767676767676765,7.291139240506329,0.01459730915631661,0.012928426760290369,9.8386630336397e-05,-0.008257720774982094,0.013839597196580847
7.777777777777778,7.291139240506329,0.014422098211053336,0.013022890123052792,-8.12132355768003e-06,-0.008233496500231838,0.013775898572784244
7.878787878787879,7.291139240506329,0.014676194316645953,0.01308862470176536,-3.316971785310818e-05,-0.008329445705523393,0.013950443628551747
7.979797979797979,7.291139240506329,0.014705202122340581,0.013125665454855913,-5.356774280370739e-05,-0.008349260273158948,0.013982814741568147
8.080808080808081,7.291139240506329,0.014811262385204808,0.01330520993310198,-0.00011409065871929683,-0.008434941695492035,0.014119992897771326
8.181818181818182,7.291139240506329,0.014666444655705758,0.013368418335565289,-3.782728743429228e-05,-0.008410458897381312,0.014062586273217732
8.282828282828282,7.291139240506329,0.014782459868863023,0.013323078748958857,-1.44092296940049e-05,-0.008431661585346563,0.014109510730958036
8.383838383838384,7.291139240506329,0.014838772436907543,0.013622918851052976,-3.3955455560569034e-05,-0.008538507386388157,0.014269868661566421
8.484848484848484,7.291139240506329,0.014930944747954892,0.013606887206245597,4.430996748133579e-05,-0.008561349586260146,0.014315121360348963
8.585858585858587,7.291139240506329,0.015033913426288443,0.013641544803933994,5.233935385302419e-05,-0.008602637469066731,0.014388631352132874
8.686868686868687,7.291139240506329,0.015165114643079475,0.013969918672461269,1.4505943219166884e-05,-0.008740509994662223,0.014604264544910154
8.787878787878787,7.291139240506329,0.015318952765765512,0.013832264232585625,2.406262992414691e-05,-0.008745365099505341,0.014632422295974515
8.88888888888889,7.291139240506329,0.015370959793539267,0.013936382226298238,3.048166307767783e-05,-0.008792202605951252,0.014706337785445044
8.98989898989899,7.291139240506329,0.015678790387327845,0.014035519056674443,6.137381035103626e-05,-0.008914292833200686,0.01492553523887443
9.09090909090909,7.291139240506329,0.015882472248780612,0.014207046630719334,1.747501056100907e-05,-0.009026855663849984,0.015114595296572456
9.191919191919192,7.291139240506329,0.015898969684363728,0.01417259248779096,8.545842300739226e-05,-0.009021468651646406,0.015110655378350232
9.292929292929292,7.291139240506329,0.016061006652272936,0.014345424565494067,8.460209896319498e-05,-0.0091219293653301,0.015276342946464749
9.393939393939394,7.291139240506329,0.01610833402970359,0.014592803019819212,-5.747008677089899e-05,-0.00921034111485684,0.015406897421202511
9.494949494949495,7.291139240506329,0.016418447675803395,0.014513653319033435,1.884781729545113e-05,-0.009279630298451047,0.015553808693227965
9.595959595959595,7.291139240506329,0.01632088097388144,0.014735274608398906,2.7592289847646064e-05,-0.009316846674684102,0.015588748973242588
9.696969696969697,7.291139240506329,0.016638369784063772,0.014928856702425495,-4.4250132019795884e-06,-0.00947016794594678,0.015852896643414164
9.797979797979798,7.291139240506329,0.0168071455473258,0.01497852358108528,8.714317762429868e-05,-0.009535700738523322,0.015972253003474136
9.8989898989899,7.291139240506329,0.017044740938212687,0.015304219333535684,-4.134293690043926e-05,-0.00970468808152451,0.01624472212668914
10.0,7.291139240506329,0.01713681738251142,0.015467990543569161,-2.1381528964262204e-05,-0.009781442377824174,0.01636638273251835
0.0,7.3924050632911396,0.0169854426897216,0.015550330454983517,-2.049305944274775e-05,-0.009760731943411533,0.01631533186215058
0.10101010101010101,7.3924050632911396,0.016855737123739018,0.015102990440277193,-4.181530454612195e-05,-0.009587618269204864,0.01605146109047787
0.20202020202020202,7.3924050632911396,0.016718442526377844,0.015113715504952966,5.7239663299161485e-05,-0.009549647409399243,0.01597694470103833
0.30303030303030304,7.3924050632911396,0.01657370370765366,0.01480155150027213,-3.994157882361241e-05,-0.009412576562377737,0.015762672311964453
0.40404040404040403,7.3924050632911396,0.016386230945229528,0.014678657874901973,-8.455688243902603e-06,-0.009319466646039451,0.015602688812850646
0.5050505050505051,7.3924050632911396,0.016114279385290246,0.0145802012561625,3.554618493694553e-05,-0.009208344192435824,0.015404759746118117
0.6060606060606061,7.3924050632911396,0.015993377900770683,0.01435258880466806,-1.1770597358562571e-05,-0.009103790011631623,0.0152393891316615
0.7070707070707071,7.3924050632911396,0.01612960159870454,0.014332007105001363,-2.9026111015261724e-05,-0.00913848261111177,0.01531023965268437
0.8080808080808081,7.3924050632911396,0.015636869601314905,0.014357899072818802,-6.612127061346353e-06,-0.008998430602240112,0.0150382343486176
0.9090909090909091,7.3924050632911396,0.015701457472228716,0.014192534380053572,-2.0160658644699922e-06,-0.008968197555684686,0.015004010666592424
1.0101010101010102,7.3924050632911396,0.015295116153784311,0.014138501417007853,2.78070161287846e-05,-0.00883008527123765,0.014750935521293067
1.1111111111111112,7.3924050632911396,0.015529168625064498,0.01403137045945468,-8.611446836049117e-05,-0.008868161725355754,0.014837828828892308
1.2121212121212122,7.3924050632911396,0.015355014041991976,0.013713739120569805,3.511085813645409e-05,-0.008720625948768533,0.014603839852906173
1.3131313131313131,7.3924050632911396,0.015166931882961282,0.013870537852419509,7.283469127770286e-05,-0.008711240920614236,0.014562625276606815
1.4141414141414141,7.3924050632911396,0.015281004050264056,0.013529620497821571,-2.7578348823217397e-05,-0.008643187364425688,0.014485020250917309
1.5151515151515151,7.3924050632911396,0.01492355026585349,0.013509631897177368,-2.2690157586303332e-05,-0.008529954648909257,0.014269281004091892
1.6161616161616161,7.3924050632911396,0.014946491937755471,0.01376499220180441,1.0018375650540081e-05,-0.008613445241867964,0.014392171055721267
1.7171717171717171,7.3924050632911396,0.014958136197367113,0.013316871080764401,5.356416446156273e-06,-0.008482502183439454,0.01420877927921402
1.8181818181818181,7.3924050632911396,0.014772305541423973,0.013453363976963388,-3.107903250298847e-05,-0.008467700855516208,0.014159085697774968
1.9191919191919191,7.3924050632911396,0.014580982011583133,0.013226097871521748,-5.989668008625781e-05,-0.008342123964931463,0.013953349741834127
2.0202020202020203,7.3924050632911396,0.01455701303920487,0.013115541313967645,-3.15134846505378e-05,-0.008301766305951754,0.013892585287032072
2.121212121212121,7.3924050632911396,0.014545919780978807,0.012936291935086105,-4.5276330621607184e-05,-0.008244663514819473,0.013811854198177103
2.2222222222222223,7.3924050632911396,0.014753858103462653,0.013066827138860745,0.00012522144257795173,-0.008346205572697019,0.013988539172257976
2.323232323232323,7.3924050632911396,0.014476491229654682,0.012903514451058393,7.060988627925966e-05,-0.008214001704213922,0.013758154927045761
2.4242424242424243,7.3924050632911396,0.014352112765298493,0.013108283272847519,7.846136189486982e-05,-0.008238118811443804,0.013773058485812279
2.525252525252525,7.3924050632911396,0.014557759546824905,0.012995740250854855,-3.7737139128656324e-05,-0.008266049939303927,0.013843158536292595
2.6262626262626263,7.3924050632911396,0.014241313700821856,0.01292222991940994,-6.044493275839541e-06,-0.008149063086069538,0.013629732999092233
2.727272727272727,7.3924050632911396,0.014307002437295045,0.012997019532882929,-4.09280422441053e-05,-0.008191206591053391,0.01369925073346368
2.8282828282828283,7.3924050632911396,0.014262495268362653,0.01276865206532298,-4.4725079239735436e-05,-0.00810934420010569,0.013577570039533764
2.929292929292929,7.3924050632911396,0.014058635950009914,0.012802041880139758,-5.7830834284382417e-05,-0.0080582033490449,0.01347472849753494
3.0303030303030303,7.3924050632911396,0.014067173317262994,0.012598889691168865,-1.696222010440058e-06,-0.007999818902529557,0.013393529420168304
3.131313131313131,7.3924050632911396,0.013998278972277584,0.012895137519036174,4.160467569557913e-06,-0.008068024947394127,0.013480604785085962
3.2323232323232323,7.3924050632911396,0.013819675110393545,0.012639389154407772,-1.0870326646855866e-05,-0.007937719279440396,0.013268974381528086
3.3333333333333335,7.3924050632911396,0.014082518683120094,0.012653709058808563,-1.5871554411950306e-05,-0.008020868322578598,0.013425287590688
3.4343434343434343,7.3924050632911396,0.014075293847203161,0.012635582491122614,7.554571793416521e-05,-0.008013262901497733,0.013414150243248657
3.5353535353535355,7.3924050632911396,0.0140173592012666,0.012657047997457545,-1.676196716481758e-05,-0.008002322159617244,0.013389162694876505
3.6363636363636362,7.3924050632911396,0.01389339746343645,0.012539673551771616,3.6481243148157314e-05,-0.00792992130456242,0.013268580549132714
3.7373737373737375,7.3924050632911396,0.01384502966499293,0.012464852843577123,7.866988525362904e-05,-0.007892964752571016,0.013209833924013112
3.8383838383838382,7.3924050632911396,0.013956701218628454,0.012561230487416745,-2.1451339159280117e-05,-0.007955379511813559,0.013313979866768836
3.9393939393939394,7.3924050632911396,0.013799614733619523,0.012239502766380765,-1.990894244058314e-05,-0.007811735250000086,0.013089521043774437
4.040404040404041,7.3924050632911396,0.013789625099586134,0.012463620313167788,6.720682109806708e-05,-0.007875973623826176,0.01317727173834481
4.141414141414141,7.3924050632911396,0.013865646848092725,0.01248303652959365,9.49760127254932e-06,-0.007904605013305912,0.013228652917712237
4.242424242424242,7.3924050632911396,0.0138310599002822,0.01251682033990832,-2.648506224910101e-05,-0.007904364072057154,0.013223094262689097
4.343434343434343,7.3924050632911396,0.013781044718665564,0.012460319528867772,-3.940903906290426e-05,-0.00787240927426,0.01317061862177455
4.444444444444445,7.3924050632911396,0.013663669202024263,0.012362935265240715,5.905542830302705e-05,-0.007807981340179493,0.013062366907855017
4.545454545454545,7.3924050632911396,0.013924181324898428,0.012537210614416412,2.4408306823393916e-05,-0.007938417581794453,0.013285174780620551
4.646464646464646,7.3924050632911396,0.013786443803124321,0.012575391115143756,-1.669749078495972e-05,-0.007908550475480423,0.013222609725122297
4.747474747474747,7.3924050632911396,0.013778509544879346,0.012455867284122207,-5.339951707872228e-05,-0.007870313048700466,0.013167430400015095
4.848484848484849,7.3924050632911396,0.013796642028197522,0.012309996592845495,2.4162693772414504e-05,-0.007831991586312904,0.013116725297023814
4.94949494949495,7.3924050632911396,0.013686092731589083,0.012379919424562803,6.934612489116431e-05,-0.007819803646845565,0.01308255481996035
5.05050505050505,7.3924050632911396,0.01384669734199209,0.012538649758547547,-2.4224117012785638e-05,-0.00791560413016189,0.013241285329904358
5.151515151515151,7.3924050632911396,0.013870563935134868,0.012357926526441125,3.496327370432524e-05,-0.007868547138472798,0.01317964905497885
5.252525252525253,7.3924050632911396,0.01373113455114649,0.012453574883040662,-6.510570983984835e-05,-0.007855412830256146,0.013139504835713623
5.353535353535354,7.3924050632911396,0.013636124844825669,0.012448397093777012,-6.027528430464878e-06,-0.007825356581580805,0.013082763587736974
5.454545454545454,7.3924050632911396,0.013740589870792779,0.012328850968305986,2.5566256908495934e-05,-0.00782083225172963,0.013092007193814495
5.555555555555555,7.3924050632911396,0.013893098730694338,0.012344562605420563,7.488928903377417e-06,-0.00787129840083447,0.013187204383332788
5.656565656565657,7.3924050632911396,0.014007123548323954,0.012459217958450473,-4.6644952206637266e-05,-0.007939902452032327,0.013301140711584588
5.757575757575758,7.3924050632911396,0.013658492451960241,0.012484521842063874,7.73967227102953e-05,-0.007842904288207235,0.013111671331188924
5.858585858585858,7.3924050632911396,0.013951047525024303,0.012494386223364677,8.299650298988628e-05,-0.007933630124516694,0.01328353504924227
5.959595959595959,7.3924050632911396,0.013892369187932728,0.01256646371959926,-4.5540807885823514e-05,-0.007937649872259596,0.013279390068295326
6.0606060606060606,7.3924050632911396,0.013999588803493928,0.0125022248405548,2.3294043527198367e-05,-0.007950544093214619,0.013314268044901864
6.161616161616162,7.3924050632911396,0.013759539915099882,0.012590116583215972,-3.571409135009533e-05,-0.007904896949494755,0.013213840814866757
6.262626262626262,7.3924050632911396,0.013760311646722789,0.012629744075745021,-2.3629587938810145e-05,-0.007917016716740343,0.013231366996853629
6.363636363636363,7.3924050632911396,0.014056717136745674,0.01259394219947038,0.0001427470290542648,-0.007995197800864816,0.013387692997470176
6.4646464646464645,7.3924050632911396,0.014060151202926014,0.012553982737223114,2.6073362988462173e-05,-0.007984240182044739,0.01337091913041622
6.565656565656566,7.3924050632911396,0.01404677094066175,0.012675192238589825,2.578503266337157e-05,-0.008016588953775472,0.013413752075539138
6.666666666666667,7.3924050632911396,0.014165535720108561,0.012584046702425118,9.791604214751134e-05,-0.008024874726760103,0.013445803554778726
6.767676767676767,7.3924050632911396,0.013951373849939976,0.012623348704787502,-6.429647921951572e-05,-0.007972416766418243,0.01333750763510647
6.8686868686868685,7.3924050632911396,0.01417623967636498,0.012902243050913325,8.074731640157386e-05,-0.008123544818183491,0.013584841465451195
6.96969696969697,7.3924050632911396,0.01413471254091875,0.012747415857966099,4.0107475157344285e-05,-0.008064638519665454,0.013494831481242064
7.070707070707071,7.3924050632911396,0.014213649381774688,0.01275060467684465,8.424511752109528e-07,-0.008089276217585801,0.013541533377726548
7.171717171717171,7.3924050632911396,0.014212095239041711,0.01268771224511997,-0.00010015949963214519,-0.008069942245248504,0.01351565070876938
7.2727272727272725,7.3924050632911396,0.01433683290080142,0.012707897056383241,-2.1503446652743658e-05,-0.008113418987155398,0.01359580140329495
7.373737373737374,7.3924050632911396,0.014286684495539128,0.01284592908914715,2.3609224323389593e-05,-0.008139784075405884,0.013623625959199734
7.474747474747475,7.3924050632911396,0.014551015172985127,0.01275536937810718,-3.174613950921748e-05,-0.008191915365327691,0.013741577079456765
7.575757575757575,7.3924050632911396,0.014563896605061456,0.012999369978465354,-7.106593469173167e-05,-0.008268979975058042,0.01384862357650963
7.6767676767676765,7.3924050632911396,0.01450354632078416,0.013171734371101659,-4.5882383099259434e-05,-0.008302584207565746,0.013885852448621635
7.777777777777778,7.3924050632911396,0.014750772630902853,0.013129860840441715,6.131287565594395e-05,-0.00836419004140337,0.014011217818996688
7.878787878787879,7.3924050632911396,0.014396080599926942,0.013250053895465245,3.316939538271386e-05,-0.008293840348617656,0.013858770568351404
7.979797979797979,7.3924050632911396,0.014670754824441596,0.013171716155646416,1.4079858296306273e-05,-0.008352741294026403,0.013981656911625215
8.080808080808081,7.3924050632911396,0.014746108011774766,0.013245572158885976,-5.755279236200183e-06,-0.008397504051198221,0.01405604300463723
8.181818181818182,7.3924050632911396,0.014830423169873172,0.013504546359740003,-4.614741328225035e-06,-0.008500490858883951,0.014213942114532337
8.282828282828282,7.3924050632911396,0.014690774057196663,0.013400053490644874,1.24895236868642e-05,-0.00842724826435246,0.014089839805013356
8.383838383838384,7.3924050632911396,0.015055358661480823,0.013431892824269763,-4.313057818518745e-05,-0.008546175445725175,0.014313042515023388
8.484848484848484,7.3924050632911396,0.014929400944063226,0.013423578554397205,3.174391571576527e-05,-0.00850589384953813,0.014236450064552571
8.585858585858587,7.3924050632911396,0.015188760603034602,0.013594648138431831,-6.076954342869624e-05,-0.00863502262243993,0.014458150968196403
8.686868686868687,7.3924050632911396,0.015218355481290411,0.013628754943728965,-4.5644975025141624e-05,-0.008654133127505813,0.014489317366988422
8.787878787878787,7.3924050632911396,0.015475803420626513,0.013889859409566389,-2.2765970078204356e-05,-0.00880969884905787,0.014746982980833306
8.88888888888889,7.3924050632911396,0.015500450131630041,0.013941055888305402,4.281488505707286e-06,-0.008832451805980633,0.014782571054403585
8.98989898989899,7.3924050632911396,0.015528862443362174,0.013992258580517615,-1.666938286919262e-06,-0.008856336307163938,0.014820425720476815
9.09090909090909,7.3924050632911396,0.015795802307796987,0.013976144393613098,-3.358766422106383e-05,-0.008931584010423025,0.014969266955497627
9.191919191919192,7.3924050632911396,0.01573588624040251,0.014225375686599437,-7.239738568342257e-05,-0.008988378578100585,0.015038160120467808
9.292929292929292,7.3924050632911396,0.015873850584034573,0.014340884886373246,-1.781472740694832e-06,-0.009064420641122345,0.015165587930583839
9.393939393939394,7.3924050632911396,0.0159261595314224,0.014441532541213052,-2.4943579862855565e-05,-0.009110307621790636,0.015238245797209542
9.494949494949495,7.3924050632911396,0.01640519550656597,0.014598189281095738,5.271310700126524e-06,-0.009301015436298512,0.01558048471830286
9.595959595959595,7.3924050632911396,0.016565267628466183,0.01484858793282349,2.3833753302553423e-05,-0.009424156668386901,0.015777183726281948
9.696969696969697,7.3924050632911396,0.016524707111905974,0.0149861002554484,-2.436180190091639e-05,-0.009453242210206311,0.01581170481073619
9.797979797979798,7.3924050632911396,0.016796902444119535,0.015023335357265752,7.598119470534288e-05,-0.009546071340415586,0.015984628804532875
9.8989898989899,7.3924050632911396,0.016867813898002952,0.015168730168396115,-1.8360547233793192e-05,-0.00961096321991972,0.016085745689859314
10.0,7.3924050632911396,0.017086363952766453,0.015359163181251037,-1.2590650355926995e-05,-0.009733658140205248,0.016291591395665987
0.0,7.493670886075949,0.017054247391274233,0.01532198566341897,-0.00011553898643105747,-0.00971286991640796,0.01625871189533331
0.10101010101010101,7.493670886075949,0.016989456653439244,0.015269448970128371,3.958854977488064e-05,-0.009677671687070285,0.016198233533023493
0.20202020202020202,7.493670886075949,0.016593304428559677,0.015061490050624843,-5.6516952648954804e-05,-0.009496438343755355,0.015883196383096154
0.30303030303030304,7.493670886075949,0.016507370694151462,0.014894052224518957,2.0470717891349166e-05,-0.009420426875601124,0.0157627946393879
0.40404040404040403,7.493670886075949,0.01636905060263137,0.014649567773911801,-1.527127720779828e-05,-0.009305585512962952,0.01558065586013067
0.5050505050505051,7.493670886075949,0.016419123736067586,0.014581877919799417,8.01681329606745e-05,-0.009300300496760101,0.01558256753065555
0.6060606060606061,7.493670886075949,0.016247423796825377,0.014423289626419688,2.4032718665795532e-06,-0.00920121402697352,0.015416510042924256
0.7070707070707071,7.493670886075949,0.015951680044292333,0.014327239811124284,-0.00010547852616788187,-0.009083675956624985,0.015205779447778553
0.8080808080808081,7.493670886075949,0.015726084287611797,0.01436538330553447,7.171088971895348e-06,-0.00902744027794388,0.015091815335567282
0.9090909090909091,7.493670886075949,0.015718413062085317,0.013878154561037423,1.0198945900965207e-05,-0.008878970286936821,0.01488386473117856
1.0101010101010102,7.493670886075949,0.015460444926770183,0.01405707458132564,3.560652673604677e-05,-0.008855255852428747,0.014808844627343411
1.1111111111111112,7.493670886075949,0.015481708732655825,0.014105772824041954,1.7417809842886422e-05,-0.008876244467009332,0.014841683734527622
1.2121212121212122,7.493670886075949,0.01531037362625062,0.013917960979113422,5.209456587341263e-05,-0.008768500381609211,0.014664110515714606
1.3131313131313131,7.493670886075949,0.015225488890052905,0.013817676901162989,3.73310781546589e-05,-0.008712949737364768,0.01457281721456934
1.4141414141414141,7.493670886075949,0.015134788375005653,0.013741686267566765,2.904613005473626e-05,-0.008662942392771725,0.01448864307276939
1.5151515151515151,7.493670886075949,0.01493046436274074,0.013539424214040115,5.0240168784035034e-05,-0.008540966573034256,0.01428609308519059
1.6161616161616161,7.493670886075949,0.015022461682866731,0.013393768259614322,-6.796749282567311e-05,-0.008524868982744316,0.014278440792903174
1.7171717171717171,7.493670886075949,0.014823387574353943,0.013223350367820134,-5.465339863860729e-05,-0.008414021382652223,0.01409198096712859
1.8181818181818181,7.493670886075949,0.01475258129941636,0.013277212107099496,-4.357138683993206e-05,-0.008408938021954757,0.01407322140415874
1.9191919191919191,7.493670886075949,0.014701790576108641,0.013245179263489804,-2.6637008995611534e-06,-0.008384090951879534,0.014030309671450613
2.0202020202020203,7.493670886075949,0.014896507853756371,0.013168755135760766,2.624959474103969e-05,-0.008419578896855141,0.014112252154857076
2.121212121212121,7.493670886075949,0.014460558229823183,0.013085776554785062,-7.025666344751973e-05,-0.008263900435382473,0.013825066600317749
2.2222222222222223,7.493670886075949,0.01454854809699161,0.013078905941708198,6.234692991073154e-05,-0.008288236211609942,0.013872656617698178
2.323232323232323,7.493670886075949,0.014482907911908427,0.013032104255644173,-6.867560750396185e-06,-0.00825450365026578,0.013814765237675454
2.4242424242424243,7.493670886075949,0.01449903467500156,0.012831073349797842,-9.689823806062024e-06,-0.008199032407439822,0.013741199149879129
2.525252525252525,7.493670886075949,0.014347637467836617,0.012959568727220191,9.215721863055255e-05,-0.008192161858517042,0.01370734866869526
2.6262626262626263,7.493670886075949,0.014228640167716055,0.013070788818539136,-9.030218380575263e-05,-0.008189828695876556,0.013687389597990953
2.727272727272727,7.493670886075949,0.014213699845051404,0.012891728985760272,4.181429705795315e-05,-0.008131628649243503,0.013601177101503962
2.8282828282828283,7.493670886075949,0.014005353580197655,0.012917507738128168,-6.973362272226353e-05,-0.008076858395497747,0.013494897560113083
2.929292929292929,7.493670886075949,0.014084156214555376,0.012925807897365374,-4.6391396374514344e-05,-0.008102989233576224,0.013542426848048215
3.0303030303030303,7.493670886075949,0.014066732367053233,0.012758153196044725,2.042551617126818e-05,-0.008047465668929386,0.013460280738474807
3.131313131313131,7.493670886075949,0.014184861008702252,0.012656333689085518,6.736563762715225e-05,-0.008052358409336331,0.013486227953495647
3.2323232323232323,7.493670886075949,0.014015397059702839,0.012611428892338574,4.798960852733883e-05,-0.007988047785612422,0.013369076970340378
3.3333333333333335,7.493670886075949,0.01409021423974383,0.012464916576505135,3.5563337512851865e-06,-0.007966539244874688,0.01335196522913949
3.4343434343434343,7.493670886075949,0.013890745130513088,0.012668523456259845,1.1443339495523813e-05,-0.00796778057603188,0.013321765993362258
3.5353535353535355,7.493670886075949,0.014023829399399728,0.01253205092468271,-2.2190281759923738e-05,-0.007966764097224731,0.013340698049044614
3.6363636363636362,7.493670886075949,0.01402531944697096,0.012480869912682905,-4.6226677882530864e-05,-0.00795185680789616,0.013320657738365365
3.7373737373737375,7.493670886075949,0.013923122829943417,0.012501820042259054,4.646057795397352e-05,-0.00792748286166074,0.013269926654522701
3.8383838383838382,7.493670886075949,0.01385265632199419,0.012391813515594735,2.866293975626368e-05,-0.007873340951276677,0.013183173374993288
3.9393939393939394,7.493670886075949,0.013915549477441981,0.012548042467247958,-9.603188485509748e-06,-0.007939077583406982,0.01328470014282028
4.040404040404041,7.493670886075949,0.013704281841924062,0.012480299033845248,9.224796407518993e-05,-0.007855374262730792,0.013136102862204162
4.141414141414141,7.493670886075949,0.01388779524825446,0.012521986130375152,9.00772787193691e-05,-0.007922934413588883,0.01325867850786944
4.242424242424242,7.493670886075949,0.014014635525697483,0.012404251663619728,-3.040929427930781e-06,-0.007925666156795163,0.01328286226532719
4.343434343434343,7.493670886075949,0.013887434720531548,0.012413488368607792,-9.104181218887713e-06,-0.007890276926741801,0.013212277467560797
4.444444444444445,7.493670886075949,0.01375753571914694,0.012336778728784515,4.810628016505356e-05,-0.007828294334379437,0.013105310644494574
4.545454545454545,7.493670886075949,0.013983647387428562,0.012478369183415081,4.171062638961019e-05,-0.007938604971253092,0.013295269701347577
4.646464646464646,7.493670886075949,0.013801223639092919,0.012429153181444543,2.8193691376100463e-05,-0.007869113046161239,0.013168997102859088
4.747474747474747,7.493670886075949,0.013890692757623897,0.012387823081777953,-5.3656832228228005e-05,-0.007883554751820555,0.013203889532796416
4.848484848484849,7.493670886075949,0.013824889745032301,0.012291931015363532,7.237901999356772e-06,-0.00783504622811875,0.013125727052985961
4.94949494949495,7.493670886075949,0.013656053225515895,0.012456976171420431,-1.9788461575884455e-05,-0.007833908819080897,0.013097789514158239
5.05050505050505,7.493670886075949,0.013865798574832326,0.012305499327804306,4.4932944655330735e-05,-0.007851389370790988,0.013155461439679394
5.151515151515151,7.493670886075949,0.013723472766463112,0.012586345743750548,-3.7765072533513574e-05,-0.007892945553064098,0.013191880438798065
5.252525252525253,7.493670886075949,0.013774251445474195,0.012368977158600698,5.42469307768326e-05,-0.007842968581222466,0.013128481462672554
5.353535353535354,7.493670886075949,0.013797121798173693,0.012515149988852075,-0.00011784588884510141,-0.00789368153610773,0.013204475127738043
5.454545454545454,7.493670886075949,0.013787197512949908,0.012535152735649157,-6.0219814421273944e-05,-0.00789670507457972,0.013206177419068025
5.555555555555555,7.493670886075949,0.013890142262311875,0.012536827424639654,-1.6227763095783546e-05,-0.007928090906085459,0.013265389836602876
5.656565656565657,7.493670886075949,0.01384878858965482,0.012516343021200757,4.5291119293476157e-05,-0.007909539483256673,0.013233206469543362
5.757575757575758,7.493670886075949,0.013816089190255192,0.012533838039309839,2.9296513750624933e-05,-0.007904978168869509,0.013221776246729199
5.858585858585858,7.493670886075949,0.01383868188485283,0.012399419403950696,-2.720369662978861e-05,-0.007871430386641058,0.013178213737089285
5.959595959595959,7.493670886075949,0.014021658211962232,0.012389497421103872,-6.814350597715216e-05,-0.00792334668991983,0.013281535216839278
6.0606060606060606,7.493670886075949,0.013978597720881877,0.012709647037431444,2.4450897331756173e-05,-0.008006473427493997,0.013389364155434066
6.161616161616162,7.493670886075949,0.0139379166177274,0.01242644903873805,1.8770752483591996e-05,-0.007909309696939636,0.013247052571125099
6.262626262626262,7.493670886075949,0.013815883608258627,0.012355870974625777,-2.9290593724658974e-06,-0.007851526374865322,0.013146822349625966
6.363636363636363,7.493670886075949,0.013941844598096408,0.01245699380970836,2.493167553844366e-05,-0.00791965152234143,0.013261980187118175
6.4646464646464645,7.493670886075949,0.013925956956650724,0.012674360184911183,3.2856761611308984e-05,-0.007980095142468571,0.013344374379023562
6.565656565656566,7.493670886075949,0.013950398305898242,0.01255421212382449,8.355250782072924e-05,-0.00795138312891682,0.013308138053980033
6.666666666666667,7.493670886075949,0.014090361600465328,0.012877672143558772,1.260931039016602e-05,-0.00809041012320723,0.013524871525378731
6.767676767676767,7.493670886075949,0.014033686547569877,0.012661109121563627,2.1394263890882405e-05,-0.00800843870074005,0.013400275321446421
6.8686868686868685,7.493670886075949,0.014134066563689738,0.012591158228586564,2.098728206149977e-05,-0.00801756743768289,0.013429302142901847
6.96969696969697,7.493670886075949,0.014188166231449629,0.012645260180660915,-1.8509277214864608e-05,-0.008050027923633163,0.013483124279807603
7.070707070707071,7.493670886075949,0.014260610706640751,0.012711447341494984,-9.72998158002097e-05,-0.00809161741444072,0.013553645670054883
7.171717171717171,7.493670886075949,0.014259607502668168,0.012861317808213124,9.092795686576535e-06,-0.008136277593264386,0.013614433738448874
7.2727272727272725,7.493670886075949,0.0141675498499303,0.012781562507602304,-8.521125223293412e-09,-0.00808473370725978,0.013527911328056783
7.373737373737374,7.493670886075949,0.014171548891870518,0.012963396926517656,2.9390060559733225e-05,-0.008140483745516451,0.013607851992406222
7.474747474747475,7.493670886075949,0.014551687368308024,0.01277251345904428,-1.0712957970533502e-05,-0.008197260248205692,0.013748724554129708
7.575757575757575,7.493670886075949,0.01446173159826379,0.013039390102104772,5.1943289998890143e-05,-0.008250336510110569,0.013805915743242832
7.6767676767676765,7.493670886075949,0.014409819293703465,0.012952623189332775,-4.7312812366530304e-05,-0.008208732744910872,0.013739544953562092
7.777777777777778,7.493670886075949,0.014639838295163719,0.012794915927397704,2.8349419277616047e-05,-0.008230426266768426,0.013810200932250067
7.878787878787879,7.493670886075949,0.014504599721215233,0.01306806052769187,3.685935735764541e-06,-0.00827179807467213,0.013842350692699517
7.979797979797979,7.493670886075949,0.014440370674152945,0.013282665167908275,-4.7582814324874316e-05,-0.008316910752618365,0.013897974060167973
8.080808080808081,7.493670886075949,0.014853471157223089,0.013193169878804553,2.2845588946405722e-05,-0.008413992310808293,0.014096898040529661
8.181818181818182,7.493670886075949,0.014689019336173002,0.013382440632748002,2.199259666263633e-06,-0.008421437990676302,0.01408126740169704
8.282828282828282,7.493670886075949,0.014908938916927949,0.01338439946757252,3.235621901148333e-05,-0.00848800151535014,0.014208256592881788
8.383838383838384,7.493670886075949,0.014785380792542652,0.013268818261868254,1.5485588914004227e-05,-0.008416259716323272,0.014088477986943928
8.484848484848484,7.493670886075949,0.015072931654026123,0.013505955674529564,-1.357712630564355e-05,-0.008573666198566705,0.014353756077761869
8.585858585858587,7.493670886075949,0.015130844275720194,0.013790506939578886,0.00011431582718472442,-0.008676405364589725,0.014508539605545968
8.686868686868687,7.493670886075949,0.015122222303306877,0.013734375738622132,-3.4537572136246e-05,-0.008656979412578703,0.014478397001580077
8.787878787878787,7.493670886075949,0.015319097444035605,0.013836825598420397,-8.681255173734795e-06,-0.0087467769127368,0.01463437855104227
8.88888888888889,7.493670886075949,0.015311257265119912,0.013950694510619548,3.4526616435288225e-05,-0.008778585532721837,0.0146784665394534
8.98989898989899,7.493670886075949,0.015792067361133196,0.013888440663833683,-3.73154818059912e-05,-0.008904152407490063,0.014931683175134061
9.09090909090909,7.493670886075949,0.015635730990387436,0.014161976489950602,5.209797090207515e-06,-0.008939312244101412,0.014953423970535108
9.191919191919192,7.493670886075949,0.015643264448519278,0.014219979492744214,-5.727883564341837e-05,-0.008958973182379048,0.01498273947974443
9.292929292929292,7.493670886075949,0.01612357838499841,0.014339616571252368,-5.30989203224584e-05,-0.009138958486875234,0.015310026454462188
9.393939393939394,7.493670886075949,0.016043325417969434,0.014483283899769581,3.724741435603389e-05,-0.009157982795321705,0.015323117449558908
9.494949494949495,7.493670886075949,0.01617145046135606,0.014767415283095659,-7.103295993948227e-05,-0.009281659723335516,0.01551763437250794
9.595959595959595,7.493670886075949,0.016237265579927527,0.014542813691599422,-1.1496836285149784e-05,-0.009234023781458085,0.015459854201236776
9.696969696969697,7.493670886075949,0.016425900188608802,0.014957090309617034,-6.867280726072233e-05,-0.009414897149467751,0.015743418398231443
9.797979797979798,7.493670886075949,0.016820715592669483,0.014965305139750666,1.0033762322073927e-05,-0.009535806219726045,0.01597404117595858
9.8989898989899,7.493670886075949,0.01691172291479672,0.015196691502130317,-4.223716690897559e-05,-0.00963252432507811,0.016122931513434892
10.0,7.493670886075949,0.017056172642523286,0.015362284790309818,3.330294442642894e-05,-0.00972553722984993,0.01627557571581825
0.0,7.594936708860759,0.017251140873109423,0.01552220812981806,6.133028626131032e-05,-0.009832004700878244,0.01645528157620159
0.10101010101010101,7.594936708860759,0.016903055707861003,0.015209861433469321,2.6938861430816936e-05,-0.009633875142399098,0.01612334391732611
0.20202020202020202,7.594936708860759,0.016822818705940545,0.015062066654613768,7.88203235657503e-05,-0.009565465608166292,0.016015782915106972
0.30303030303030304,7.594936708860759,0.01668779070649588,0.014954056489899054,3.6907536208186232e-06,-0.009492554158918481,0.015892011833475876
0.40404040404040403,7.594936708860759,0.016314640530906633,0.014907629768758129,-9.643319730810713e-06,-0.009366681089899428,0.015658626348143686
0.5050505050505051,7.594936708860759,0.016440679862019116,0.014770827412432382,-5.874429105023678e-05,-0.009363452182335448,0.01567294499012616
0.6060606060606061,7.594936708860759,0.016022649028701562,0.014612391572330592,-0.00012361601049435696,-0.009190512180309645,0.015367624750780818
0.7070707070707071,7.594936708860759,0.016066003729947514,0.014268823941337088,2.7358509113568243e-05,-0.00910044830138538,0.015247133478793272
0.8080808080808081,7.594936708860759,0.015727747879044372,0.014337098488091378,-4.1331966204625125e-05,-0.009019453910140725,0.015080759299868771
0.9090909090909091,7.594936708860759,0.015487753834698944,0.014150452473410235,-3.464889312939737e-06,-0.008891461892432753,0.014864290615601641
1.0101010101010102,7.594936708860759,0.015613548235725904,0.014099810348736523,-2.6655949423506144e-05,-0.008914007575338728,0.014914476289967778
1.1111111111111112,7.594936708860759,0.015437639580123189,0.013745497177674816,5.3455739050716305e-05,-0.0087549410273394,0.014665263370864514
1.2121212121212122,7.594936708860759,0.015250404922501277,0.013913663916385278,4.318123427115081e-06,-0.008749220651665966,0.014627916500187996
1.3131313131313131,7.594936708860759,0.015170339651207808,0.013698678622741597,-3.856600284565367e-05,-0.008660705482184821,0.014490819703252203
1.4141414141414141,7.594936708860759,0.01517607015176135,0.013759652990928056,2.984897035877437e-05,-0.008680716942806822,0.014519861208386758
1.5151515151515151,7.594936708860759,0.01504065284575301,0.013450812560973113,-5.343890139779677e-05,-0.008547439622017837,0.014312412846985213
1.6161616161616161,7.594936708860759,0.015102600292596994,0.013273963619921806,-2.11368679538856e-05,-0.00851296917375564,0.014276435802831399
1.7171717171717171,7.594936708860759,0.01495393418318533,0.01328168505758903,-6.277798620246804e-05,-0.008470685772232308,0.014192310754690194
1.8181818181818181,7.594936708860759,0.014740857445231646,0.01334148811595351,-4.827250910701429e-05,-0.008424703668355547,0.014093622658835932
1.9191919191919191,7.594936708860759,0.014874983393347542,0.013242715663587536,-2.2250563585446505e-05,-0.008435309717080524,0.014129789764290319
2.0202020202020203,7.594936708860759,0.01463128801070043,0.013116199236647294,-3.5573250753112643e-05,-0.008324246174204316,0.013935787706437155
2.121212121212121,7.594936708860759,0.014635135326867018,0.012982958181416347,1.4586682832485193e-05,-0.008285428052485009,0.013882999588056655
2.2222222222222223,7.594936708860759,0.014546211412005816,0.013210713636482211,-1.537153478883303e-05,-0.008327077514546408,0.013926596735039475
2.323232323232323,7.594936708860759,0.01429219963287992,0.013122532074880058,9.25679240835895e-05,-0.008224419512327994,0.013745678475833797
2.4242424242424243,7.594936708860759,0.01457896586400085,0.012965928233676286,-3.7945313780393456e-05,-0.00826346822930314,0.013843266776711636
2.525252525252525,7.594936708860759,0.014147849567746626,0.013031485705784449,-3.4940260978929657e-07,-0.008153800582059322,0.013624014388139077
2.6262626262626263,7.594936708860759,0.014402695528841625,0.012710734115637442,-4.0947708222042406e-05,-0.00813402889334372,0.013635857031510117
2.727272727272727,7.594936708860759,0.01430110244011127,0.01278828092674939,3.367834060923347e-05,-0.008126815010058198,0.013608032451075844
2.8282828282828283,7.594936708860759,0.014145908938782344,0.012590399127286907,-1.0660402138699444e-05,-0.008020892419820775,0.013435869576015731
2.929292929292929,7.594936708860759,0.014266323248321004,0.012789927539175922,-1.2134489298666823e-05,-0.008116875236249077,0.013588429880746345
3.0303030303030303,7.594936708860759,0.014107191454656222,0.012633277668987778,-8.579311214612493e-05,-0.0080221407370932,0.013431849090802883
3.131313131313131,7.594936708860759,0.014031122929370131,0.012819968332185383,9.29530667588809e-05,-0.008055327378466653,0.013467418754002813
3.2323232323232323,7.594936708860759,0.01415425188250184,0.01290890028068097,-1.4699786899291388e-05,-0.008118945648954844,0.013574511960369684
3.3333333333333335,7.594936708860759,0.014127219272239465,0.012486721018003523,-3.161276855426426e-05,-0.007984182087072897,0.013382708187664228
3.4343434343434343,7.594936708860759,0.013926070891709687,0.012485917055015413,2.574302491219357e-05,-0.00792359638401753,0.013264833102587147
3.5353535353535355,7.594936708860759,0.014091576909817993,0.012537276947208693,-2.824617905441198e-05,-0.007988656157108006,0.013382385596557148
3.6363636363636362,7.594936708860759,0.013996441586315897,0.012540207098081003,0.0001191761606376722,-0.00796099460531907,0.013329722573448874
3.7373737373737375,7.594936708860759,0.01384239857342281,0.012556386959344178,-2.8111624813582345e-05,-0.007919635659830096,0.013246384774543759
3.8383838383838382,7.594936708860759,0.01380675601631328,0.012512209250542241,5.221292565486945e-05,-0.007895689580056656,0.013207461915329507
3.9393939393939394,7.594936708860759,0.01384943786720196,0.012503168222689928,-5.427915989742004e-05,-0.007905781826967566,0.013228118992534435
4.040404040404041,7.594936708860759,0.014010720585535711,0.012509767417169176,6.524663238250065e-05,-0.007956146400811466,0.013324281881389982
4.141414141414141,7.594936708860759,0.013923355814064215,0.012529117522137994,5.980072992410277e-05,-0.007935742000860663,0.013281641091880386
4.242424242424242,7.594936708860759,0.013747511967862868,0.012232446700841023,-4.8865981066248904e-05,-0.007793987600611167,0.013056350708820183
4.343434343434343,7.594936708860759,0.013896490536835166,0.012443918008571461,-6.003532360166083e-05,-0.007902122563621987,0.013230554354121836
4.444444444444445,7.594936708860759,0.013885583641114963,0.012284080699842843,4.72074250857011e-06,-0.00785089930228734,0.013158134690715343
4.545454545454545,7.594936708860759,0.013774018220522375,0.012444761869844938,9.002467002103368e-06,-0.007865634027110194,0.013159845832089331
4.646464646464646,7.594936708860759,0.01399472441190154,0.012514306709886144,-3.650163783350439e-05,-0.007952709336536306,0.013316527598890073
4.747474747474747,7.594936708860759,0.01372948042439603,0.012214393368663524,2.120255547151247e-05,-0.007783162137917866,0.013038179017119771
4.848484848484849,7.594936708860759,0.013589281943581985,0.012451783962756608,5.9290456911451006e-05,-0.007812319771901577,0.013058148823692285
4.94949494949495,7.594936708860759,0.013777719556168029,0.012437486227626686,5.3423268236073666e-05,-0.007864561735138414,0.013159216722116963
5.05050505050505,7.594936708860759,0.013921217852485186,0.01236558404272961,-3.0511341527415855e-05,-0.007886040568564439,0.013212372183222567
5.151515151515151,7.594936708860759,0.013647977020818946,0.012518679577022516,-5.131961709853318e-05,-0.007849996979352437,0.013120132050557317
5.252525252525253,7.594936708860759,0.013702997605351772,0.01237128902024098,0.00011212899474707788,-0.007822285987677825,0.013089496182417549
5.353535353535354,7.594936708860759,0.013637624099144534,0.01248065486563701,-5.088329295929795e-05,-0.007835483689434463,0.013097817555016824
5.454545454545454,7.594936708860759,0.01368293406604388,0.012392068850331143,6.477661772050832e-05,-0.007822500874912507,0.013085823705701686
5.555555555555555,7.594936708860759,0.01393307289422771,0.012600590512062599,2.3365133698823054e-05,-0.007960099021887093,0.013316985139365477
5.656565656565657,7.594936708860759,0.013806492530113122,0.01238991018227973,-1.4253084896764315e-05,-0.007858920813717855,0.01315555082008724
5.757575757575758,7.594936708860759,0.013932196375161389,0.012559194314076835,-3.417164565910977e-05,-0.007947417206771468,0.01329909016667578
5.858585858585858,7.594936708860759,0.013959557743685652,0.012412418362361628,3.161199629265673e-06,-0.007911592831814184,0.013253887773516276
5.959595959595959,7.594936708860759,0.01399869471061182,0.012391633277856983,0.00010884848991735499,-0.007917098396540641,0.013269697873444513
6.0606060606060606,7.594936708860759,0.01377316883154661,0.012597765687914259,2.0432487546647016e-05,-0.00791128035583826,0.013224748720849513
6.161616161616162,7.594936708860759,0.013897504794723193,0.012687953724364726,-1.075253717248813e-05,-0.007975637555726375,0.013333951340940054
6.262626262626262,7.594936708860759,0.013828216977467285,0.012491538261511972,-9.452954326505946e-07,-0.007895926571693777,0.013210693173825524
6.363636363636363,7.594936708860759,0.014097706951515326,0.012551667770644858,5.35335216844965e-05,-0.007994812416648055,0.013392108446616962
6.4646464646464645,7.594936708860759,0.014106892094213166,0.012624059051473553,-2.301966827625944e-05,-0.008019285343706016,0.013427085401461314
6.565656565656566,7.594936708860759,0.013920704370801973,0.012721670626037638,-5.865620662891197e-05,-0.007992712499051882,0.013361984113918002
6.666666666666667,7.594936708860759,0.01410378774668522,0.012818680935729047,3.8915259245993605e-05,-0.00807674060472428,0.01350733126186573
6.767676767676767,7.594936708860759,0.014087695347054873,0.012797416904808121,-2.22109867969052e-05,-0.008065533675558898,0.013488973609082232
6.8686868686868685,7.594936708860759,0.014047161267435876,0.012627731954000717,-2.611272175512155e-05,-0.008002467966430978,0.01339405138105542
6.96969696969697,7.594936708860759,0.013988894980244386,0.012600194623400273,5.292516305253688e-05,-0.007976726881093398,0.01334914571113589
7.070707070707071,7.594936708860759,0.014247209445584177,0.01269298517540207,-5.9775935035754074e-05,-0.008082058386295875,0.013537575516055287
7.171717171717171,7.594936708860759,0.014217999573671118,0.012703035433562297,1.6385346813090087e-05,-0.008076310502170024,0.013524336366835308
7.2727272727272725,7.594936708860759,0.014490647112766904,0.012861697763136119,9.082609566279867e-06,-0.008205703462770907,0.013748747107344767
7.373737373737374,7.594936708860759,0.014260821361653806,0.012910854520047588,3.433603810035477e-05,-0.008151502764510416,0.013636177517936351
7.474747474747475,7.594936708860759,0.014452764092452018,0.012999748067492324,2.2899044708698724e-05,-0.008235753647983303,0.013783871761892991
7.575757575757575,7.594936708860759,0.01466909870060559,0.012854547735109778,9.020430723069174e-05,-0.00825709393071461,0.01385213467792896
7.6767676767676765,7.594936708860759,0.014501799565442515,0.013120906154458795,2.2769075371564182e-05,-0.008286811715970392,0.013863086708010617
7.777777777777778,7.594936708860759,0.01449946050584915,0.013147308164701537,-1.359389507206832e-05,-0.008294030601165205,0.013872914107278925
7.878787878787879,7.594936708860759,0.014653422903079086,0.013250910322118238,7.598300899696173e-05,-0.008371299967559196,0.014005554419354367
7.979797979797979,7.594936708860759,0.014555373818516326,0.013345510541484787,1.0473449523090919e-05,-0.008370265308000334,0.013989745993362621
8.080808080808081,7.594936708860759,0.014686960046794293,0.013169048621311194,1.7501085915158e-05,-0.008356802600431647,0.013989934414253904
8.181818181818182,7.594936708860759,0.014909892115922805,0.013402437312960591,8.203056026287864e-05,-0.00849369882866502,0.014216944167017248
8.282828282828282,7.594936708860759,0.014834738263576017,0.013370314281158072,-1.6531778101829962e-05,-0.008461515763420226,0.014159465751294256
8.383838383838384,7.594936708860759,0.015007957333248629,0.013497914620546161,-1.3830458533236196e-05,-0.008551761586138436,0.014312823954479605
8.484848484848484,7.594936708860759,0.015015353114499195,0.013689844730613281,7.569662598324442e-06,-0.008611559353533742,0.014398437314095998
8.585858585858587,7.594936708860759,0.01513515849099425,0.01355887851802438,-3.3560631299067564e-05,-0.00860821110270559,0.0144119330012161
8.686868686868687,7.594936708860759,0.015493189614974935,0.013793062971594409,8.697422117916625e-05,-0.008785875775970804,0.014717732982330645
8.787878787878787,7.594936708860759,0.015366494983658887,0.0138052415912629,-2.4799854005400384e-05,-0.008751520972476536,0.014648465206767719
8.88888888888889,7.594936708860759,0.015708184199089755,0.013950640311048567,-5.213041541032537e-05,-0.008897647353041495,0.014907593399345892
8.98989898989899,7.594936708860759,0.015508104104956618,0.014009947502512781,2.8832640268855344e-05,-0.008855415482240819,0.014816028197287757
9.09090909090909,7.594936708860759,0.015714422013164073,0.014176609418050509,-4.707861749661435e-06,-0.008967309429364375,0.015004737824454606
9.191919191919192,7.594936708860759,0.015872538860662203,0.014285965114289768,2.662681888567383e-05,-0.00904755119248559,0.015141792484833461
9.292929292929292,7.594936708860759,0.016001499515144783,0.014343283996613176,5.097505794074975e-05,-0.009103435053527387,0.015240456882681861
9.393939393939394,7.594936708860759,0.016236158020183855,0.01429752617475162,-2.437918974323745e-05,-0.009160105258480643,0.015358937812810615
9.494949494949495,7.594936708860759,0.016024969617387263,0.01456762561246199,5.3002085623915325e-06,-0.009177778568954775,0.01534827982747578
9.595959595959595,7.594936708860759,0.016399193909721214,0.01476392529654688,0.0001078036913162527,-0.009348935761880428,0.015646898803006553
9.696969696969697,7.594936708860759,0.016255378476969645,0.014945741193244896,-5.645914039250187e-05,-0.009360335901064363,0.01564203926710182
9.797979797979798,7.594936708860759,0.016852997901757014,0.015138702638413121,-8.53653893737507e-06,-0.009597510162051041,0.016064605524814923
9.8989898989899,7.594936708860759,0.016990349034368767,0.01526102431921618,4.0999639959949974e-05,-0.009675412006075483,0.016195238086775414
10.0,7.594936708860759,0.01712100236259238,0.015579165048417989,-8.266221003716988e-07,-0.00981005022330311,0.01640451724234742
0.0,7.69620253164557,0.017162147724370195,0.015347920018360906,-1.5670442990854998e-05,-0.00975302032281933,0.016330812272343672
0.10101010101010101,7.69620253164557,0.016862414077377524,0.015215622125896038,-3.6770973745023906e-05,-0.009623410860982068,0.016102425307287126
0.20202020202020202,7.69620253164557,0.01671169321390254,0.01499783327924782,-2.5985987730671795e-05,-0.009512857947945109,0.0159241492810868
0.30303030303030304,7.69620253164557,0.016646744354137644,0.014899013385245168,-7.409425980909444e-05,-0.009463727321814844,0.01584585435912772
0.40404040404040403,7.69620253164557,0.016407161515674205,0.014822056713912188,-1.7530077886536135e-05,-0.009368765468875918,0.0156748638795717
0.5050505050505051,7.69620253164557,0.01624507479402922,0.014830517729211831,4.093185741704365e-05,-0.009322677756972314,0.015586175531082094
0.6060606060606061,7.69620253164557,0.0162498687987219,0.014521680590635268,-1.3557131661338474e-05,-0.00923146481680715,0.015458414867145848
0.7070707070707071,7.69620253164557,0.015923286197097937,0.014306132350714356,2.898793133388989e-07,-0.009068825564343687,0.015179454094563134
0.8080808080808081,7.69620253164557,0.015832827646589758,0.014163444596158115,-8.868322513228797e-06,-0.008998881672824362,0.01506766248903577
0.9090909090909091,7.69620253164557,0.015850911640986776,0.014195382580213937,4.437300562846984e-05,-0.009013888266360213,0.015091601583361619
1.0101010101010102,7.69620253164557,0.015594082181531707,0.013979949700858512,-0.00011742766901445936,-0.008872209564717065,0.014854335258313714
1.1111111111111112,7.69620253164557,0.015412048133630733,0.01388800703451641,7.39089515324091e-05,-0.008790016550444141,0.014709919162500812
1.2121212121212122,7.69620253164557,0.015246209386363481,0.013862013397992203,-2.6590880695361776e-05,-0.008732466835306705,0.014603468031306696
1.3131313131313131,7.69620253164557,0.015161612518686415,0.013666180143663154,1.3017132273806026e-05,-0.00864833779870487,0.014471978243289774
1.4141414141414141,7.69620253164557,0.01532644097605231,0.013651621112081711,-5.232116901696336e-05,-0.008693418626440205,0.01456173064208655
1.5151515151515151,7.69620253164557,0.014983888053167829,0.01357692681896796,6.997757545628937e-05,-0.008568244461640737,0.014332807891659239
1.6161616161616161,7.69620253164557,0.014933862860585699,0.01351402997014462,-0.00010813180166375357,-0.008534367849219095,0.014278223739819887
1.7171717171717171,7.69620253164557,0.01505110364408307,0.013262636091807835,1.0817118668123859e-05,-0.008494121920767272,0.014241357998002394
1.8181818181818181,7.69620253164557,0.014868708692729186,0.013424181883508279,5.422293293607683e-05,-0.00848786717287124,0.014201962116060713
1.9191919191919191,7.69620253164557,0.014694522395188078,0.01325301059429194,9.64545976971343e-06,-0.008384259896844005,0.014029429651924311
2.0202020202020203,7.69620253164557,0.01474000774354431,0.013283016038130136,7.219801219080118e-06,-0.008406907134502335,0.01406821738763999
2.121212121212121,7.69620253164557,0.014405899324929165,0.01328507477237635,-2.8343241234552153e-05,-0.008307292229191654,0.013879557175594118
2.2222222222222223,7.69620253164557,0.01465596961455171,0.012974818960079793,-1.9646641234334817e-05,-0.00828923657238945,0.013891939314861894
2.323232323232323,7.69620253164557,0.014598763918361245,0.013092299596453975,9.056792395318613e-05,-0.008307319054444566,0.013907747242339966
2.4242424242424243,7.69620253164557,0.01440757226090561,0.013139309346782905,-1.6165320475125385e-05,-0.008264064482306554,0.013817193045053123
2.525252525252525,7.69620253164557,0.0142762264634854,0.0128929061658227,2.199774951710525e-06,-0.00815073978879243,0.013637288504637102
2.6262626262626263,7.69620253164557,0.014105411349868443,0.012872204577964176,2.3399747471752822e-05,-0.008093284778349785,0.013531082075675256
2.727272727272727,7.69620253164557,0.014177048465518918,0.012932786142935691,-3.5339760205039e-05,-0.008132950382536383,0.01359781862527755
2.8282828282828283,7.69620253164557,0.014270552357177732,0.01280851133852104,-1.052072634497918e-05,-0.008123719108709631,0.013598618594223176
2.929292929292929,7.69620253164557,0.014100016066657377,0.012521016303502157,-4.5794449975361424e-06,-0.00798630971104786,0.013380576752003371
3.0303030303030303,7.69620253164557,0.014018147402413798,0.012650629329143806,-2.3319263026174454e-05,-0.00800063301946728,0.013386938548975316
3.131313131313131,7.69620253164557,0.013817524168532632,0.01258520382732433,3.293352789054166e-05,-0.007920818398757088,0.013244554553668351
3.2323232323232323,7.69620253164557,0.014024375755496945,0.01254126336413131,-2.4721995952791907e-05,-0.007969691735888476,0.013344843414738862
3.3333333333333335,7.69620253164557,0.013928227425507454,0.012652350418595016,1.3874123700619351e-05,-0.00797417335323074,0.013336163380376643
3.4343434343434343,7.69620253164557,0.014008814701100393,0.012616582170227176,0.00011051106097219932,-0.00798761906139827,0.01336855681394715
3.5353535353535355,7.69620253164557,0.01391178884839641,0.01257574651975647,-9.439214010090418e-06,-0.007946260610445864,0.013294224557829953
3.6363636363636362,7.69620253164557,0.014014952556547888,0.012621011127829438,2.1628180833889346e-06,-0.007990789105313197,0.013372582357653899
3.7373737373737375,7.69620253164557,0.013766419184154928,0.012547599869688118,4.24071357239659e-07,-0.007894205716152913,0.013199281822205375
3.8383838383838382,7.69620253164557,0.01396562004647175,0.012543885332407616,-5.458407507003534e-05,-0.00795285161366381,0.013312152505130173
3.9393939393939394,7.69620253164557,0.013896196313338535,0.01259854496463916,-1.0497233914020694e-05,-0.007948422383393309,0.013294964599034826
4.040404040404041,7.69620253164557,0.013719813454699012,0.012450120766873074,-1.846552488912725e-05,-0.007850980266471625,0.013131126260085984
4.141414141414141,7.69620253164557,0.014000169141229831,0.012502979765954363,1.3188976082278954e-05,-0.007950944672155258,0.013314876242963855
4.242424242424242,7.69620253164557,0.013944555191672288,0.012472115758038757,2.398383552300088e-05,-0.007925001284913313,0.013269811984490032
4.343434343434343,7.69620253164557,0.013631296986341976,0.01253389260379839,-9.859669201235604e-05,-0.00784955687704211,0.013118181001158056
4.444444444444445,7.69620253164557,0.01381927088232693,0.012330101529799136,-3.678136131567335e-05,-0.00784481172363782,0.013138291251643675
4.545454545454545,7.69620253164557,0.013852007475918844,0.012322358389082973,-9.374132978017606e-05,-0.007852309759500546,0.013155059451257275
4.646464646464646,7.69620253164557,0.013868181751343935,0.01224734790749808,-2.109110727259247e-06,-0.007834658897652605,0.013132995181889222
4.747474747474747,7.69620253164557,0.01376895199655652,0.012559727159800015,-1.3753266560012338e-05,-0.007898603746906959,0.013205948376242638
4.848484848484849,7.69620253164557,0.013842543892884565,0.012269697038174413,-2.946016230838608e-05,-0.007833672279317694,0.013127081577227528
4.94949494949495,7.69620253164557,0.013825635375117556,0.012305965537593343,4.6581525113003746e-05,-0.007839480273813268,0.013132162746176065
5.05050505050505,7.69620253164557,0.013798320560951295,0.012363513660743725,-5.76080693437111e-05,-0.007848550266508506,0.013140180807754746
5.151515151515151,7.69620253164557,0.013878086851137127,0.012461014772183046,-1.3372104080149147e-05,-0.007901730486996052,0.013226627498274565
5.252525252525253,7.69620253164557,0.013805503302512425,0.012357131317900514,4.430603284572556e-05,-0.007848790386123882,0.01314154053748279
5.353535353535354,7.69620253164557,0.013749012928496934,0.012268018733155597,-6.163162541314485e-05,-0.007805109498495759,0.01307202690280229
5.454545454545454,7.69620253164557,0.01375579729933942,0.012469424533114495,-8.451162732298031e-05,-0.007867566549736174,0.013160663275689283
5.555555555555555,7.69620253164557,0.01407826043452378,0.012335557016368513,9.862005880712052e-05,-0.007924145235267688,0.013293960178705233
5.656565656565657,7.69620253164557,0.013777024534652798,0.01245431637829733,3.9824269417591525e-05,-0.007869402273885037,0.013165779015702934
5.757575757575758,7.69620253164557,0.013869753686153017,0.012403338553008576,-3.8029850529646022e-06,-0.007881927671748477,0.01319779024484764
5.858585858585858,7.69620253164557,0.013956763217321541,0.012481979235924355,2.975818302855066e-06,-0.007931622735973769,0.013280927792800837
5.959595959595959,7.69620253164557,0.013994241234362267,0.012490278166494409,-8.528637486425045e-05,-0.007945355820257002,0.01330697906938061
6.0606060606060606,7.69620253164557,0.013942463786636652,0.012604900884905007,4.107262294523005e-05,-0.007964209401462497,0.013324320227279437
6.161616161616162,7.69620253164557,0.013839419057386474,0.012660692818347698,-6.360668817857896e-05,-0.007950033562720251,0.013289776764449389
6.262626262626262,7.69620253164557,0.014008200802262267,0.01274312572808806,1.6879981590306608e-05,-0.008025397959105098,0.013420489327597722
6.363636363636363,7.69620253164557,0.01384082149617649,0.012608004748206296,-1.7227874087700484e-05,-0.007934647873314835,0.013267474163377199
6.4646464646464645,7.69620253164557,0.01393018053004103,0.012597400766693705,-6.077151380463656e-05,-0.00795827438902042,0.01331433243980257
6.565656565656566,7.69620253164557,0.01389234468243135,0.012571086687687083,-4.2206653556122146e-05,-0.007939029411035529,0.013281300244763766
6.666666666666667,7.69620253164557,0.014170667846422303,0.012703959296589072,-8.590484090977095e-06,-0.008062388142903412,0.013497223525074965
6.767676767676767,7.69620253164557,0.014083120415297934,0.012711679694870184,1.4882740916114415e-05,-0.008038440033050435,0.013449967656508823
6.8686868686868685,7.69620253164557,0.014137969527435743,0.012549842226851788,-2.1407254238647116e-05,-0.008006343526286258,0.013414649086421124
6.96969696969697,7.69620253164557,0.014320171099876749,0.01272125099623954,-3.352234798662102e-05,-0.008112426628834888,0.01359155648231234
7.070707070707071,7.69620253164557,0.014301093368882144,0.01275330397686644,-1.0791741459555082e-05,-0.008116319203724574,0.013593461381193184
7.171717171717171,7.69620253164557,0.014144774166421945,0.012697423307469976,5.226543806806326e-05,-0.008052659242167576,0.013479807295231766
7.2727272727272725,7.69620253164557,0.01436858371685402,0.012789714043312533,-2.9601618475004876e-05,-0.008147489328049965,0.013647913216291994
7.373737373737374,7.69620253164557,0.01447359056114051,0.012745062941173611,6.638356189716524e-05,-0.008165596050694236,0.013691889962725053
7.474747474747475,7.69620253164557,0.014359484219551348,0.012875969589015,4.958147458834269e-06,-0.008170636142569904,0.013678200595603868
7.575757575757575,7.69620253164557,0.01447177553590891,0.012870630653129468,1.758483782766523e-05,-0.008202721856711514,0.013741378039807123
7.6767676767676765,7.69620253164557,0.01438307054161021,0.013014644534315951,-1.5208505390237637e-07,-0.008219314522777847,0.013750023280630363
7.777777777777778,7.69620253164557,0.014595463109608495,0.013047206377683541,-1.3048413977951799e-05,-0.00829280084618761,0.01388623883779196
7.878787878787879,7.69620253164557,0.014494623487244658,0.013122923464706126,8.147801630785488e-06,-0.008285264085585234,0.013859783359947943
7.979797979797979,7.69620253164557,0.014582237167236821,0.013295321862474256,-4.635340908546208e-05,-0.008363267708913323,0.013983495039888348
8.080808080808081,7.69620253164557,0.014616649302824466,0.013460513871837887,-2.3143229288374066e-05,-0.008423148952398705,0.014074298087735193
8.181818181818182,7.69620253164557,0.014833547997242152,0.01326470973512598,-3.815125098323996e-05,-0.00842947731971044,0.014114826551254922
8.282828282828282,7.69620253164557,0.014992188493927406,0.013433324865001395,2.0190544484056344e-05,-0.00852765400767864,0.014276771948312087
8.383838383838384,7.69620253164557,0.014911521493915779,0.013428621131816617,1.22233985311411e-05,-0.008502042787719719,0.014228162719025385
8.484848484848484,7.69620253164557,0.015052874851446118,0.013541279938520792,8.89611207042187e-05,-0.008578246436990072,0.014357710599769171
8.585858585858587,7.69620253164557,0.015229228270094606,0.013614426448413588,-4.5560080075238735e-05,-0.008653096415552458,0.014489686685201224
8.686868686868687,7.69620253164557,0.01516913114874165,0.013676296408145591,5.755181673546689e-06,-0.008653628267066171,0.014480545182185084
8.787878787878787,7.69620253164557,0.015342696528892702,0.013847931169404278,8.186900036605945e-05,-0.008757188309489093,0.014653294392891772
8.88888888888889,7.69620253164557,0.015313471431024255,0.013751398566585617,-6.82890935413105e-05,-0.00871946099928296,0.01459574290403686
8.98989898989899,7.69620253164557,0.015498503078068987,0.01400842396351838,4.113649829511853e-05,-0.00885207811247621,0.014809963346328068
9.09090909090909,7.69620253164557,0.015693734588356316,0.014095283218726025,-3.4555223198747133e-05,-0.008936705342124701,0.014958818895682334
9.191919191919192,7.69620253164557,0.0160713084772764,0.014250591784673314,-4.5847358739981375e-05,-0.009096570078584913,0.015242931862698181
9.292929292929292,7.69620253164557,0.01597973571077126,0.014408554908314528,0.00010035302907181862,-0.009116487185725736,0.015255940505728987
9.393939393939394,7.69620253164557,0.015998063542742542,0.014428361592181995,-1.7649908777562917e-05,-0.00912792754047736,0.015273858200887771
9.494949494949495,7.69620253164557,0.01637849824653664,0.014460230138191232,-3.39073609918142e-05,-0.00925161851541836,0.01550870902511762
9.595959595959595,7.69620253164557,0.016348854078506083,0.014933024598298587,-1.4807619116743243e-05,-0.0093845636030414,0.01568894741600283
9.696969696969697,7.69620253164557,0.0164959265629173,0.014856746038295567,1.673073070858149e-05,-0.00940580178036386,0.015740506477111386
9.797979797979798,7.69620253164557,0.01669840046241189,0.015122604333322178,-1.0011382436200802e-06,-0.00954630143872022,0.015968921054338846
9.8989898989899,7.69620253164557,0.016901322753562473,0.015203643683892997,-8.251517785172592e-05,-0.009631489931236642,0.016120304879838922
10.0,7.69620253164557,0.017190381466763324,0.015445071427440267,-5.8459277165410066e-05,-0.009790635868261077,0.016387892763065265
0.0,7.7974683544303796,0.01705057702527312,0.015362142149294027,9.958446306093367e-05,-0.009723815752370144,0.01627310515900406
0.10101010101010101,7.7974683544303796,0.01685982989978554,0.01528344294173649,-6.263835685430898e-05,-0.009642981852456609,0.01612987956599523
0.20202020202020202,7.7974683544303796,0.016827250007923778,0.015090055158094593,-2.3342940929715773e-05,-0.009575191549805512,0.016029460733398497
0.30303030303030304,7.7974683544303796,0.016565257382164387,0.014867998008584578,2.2176117614943642e-05,-0.00942997661722469,0.015785258264960158
0.40404040404040403,7.7974683544303796,0.016537959365725104,0.014727602426041401,2.1768412543930287e-05,-0.00937966853752995,0.015711247700830197
0.5050505050505051,7.7974683544303796,0.016216950276153032,0.01452374092797776,9.2733484840829e-06,-0.009222207361239238,0.015440142497220304
0.6060606060606061,7.7974683544303796,0.01620445137222499,0.014470564409202255,1.0602984563244641e-05,-0.009202504734428173,0.015410848729643437
0.7070707070707071,7.7974683544303796,0.01593284771065056,0.014462129899378685,7.30031906809587e-05,-0.009118493283008773,0.015251292159564311
0.8080808080808081,7.7974683544303796,0.01585112590819838,0.014080572076550012,-5.487336627266276e-05,-0.008979509395424518,0.015044494507114542
0.9090909090909091,7.7974683544303796,0.015660643276859402,0.013970470787969124,-1.49892682145748e-05,-0.008889334219448557,0.014887710250298926
1.0101010101010102,7.7974683544303796,0.015595302116708303,0.01398309523125473,-4.9372952191927344e-05,-0.00887351920438891,0.01485520510679166
1.1111111111111112,7.7974683544303796,0.01553877441518965,0.013910354516811026,2.7325971371616993e-05,-0.008834738679600202,0.014792019887885852
1.2121212121212122,7.7974683544303796,0.015372634811918948,0.013851650046482715,-8.943357243691317e-05,-0.008767285457520499,0.014672210039915751
1.3131313131313131,7.7974683544303796,0.01501808138652321,0.013520498708794172,-5.1009961534782526e-05,-0.008561574028595214,0.01432838127354986
1.4141414141414141,7.7974683544303796,0.015047872218839367,0.013474509501697707,-5.6665195192572196e-05,-0.008556714516161123,0.014326472010436275
1.5151515151515151,7.7974683544303796,0.015025896152538151,0.01366945926836904,1.0968718039873928e-05,-0.008608606626272157,0.014395699267035418
1.6161616161616161,7.7974683544303796,0.01509173676758407,0.013331150970473687,-2.568407587158112e-05,-0.008526866321417328,0.01429307044058619
1.7171717171717171,7.7974683544303796,0.015033327677543415,0.013404805979090807,-9.949572073378794e-05,-0.008531440096990266,0.014289878300924373
1.8181818181818181,7.7974683544303796,0.01465225341114077,0.013359655530152727,6.406878558076871e-05,-0.008403572682388049,0.0140510562600517
1.9191919191919191,7.7974683544303796,0.014737507464974544,0.013243876497576254,8.842609003175992e-05,-0.008394415188765238,0.01405119638092063
2.0202020202020203,7.7974683544303796,0.01456292969734761,0.013045631248064326,3.2627867569684575e-05,-0.00828256828362358,0.013866794836605387
2.121212121212121,7.7974683544303796,0.014640197942691766,0.013000787124597186,-4.633730662533073e-05,-0.008292295520186685,0.013893459115113945
2.2222222222222223,7.7974683544303796,0.014553116540631727,0.013047837683388196,-5.450265569521805e-05,-0.008280286267205977,0.013862232088162878
2.323232323232323,7.7974683544303796,0.014311739232380393,0.012851147200579715,-3.738020445008434e-05,-0.008148865929888033,0.013640373473407756
2.4242424242424243,7.7974683544303796,0.01442235150738719,0.012993746571521185,-3.952463600813049e-05,-0.008224829423672511,0.013763937630842459
2.525252525252525,7.7974683544303796,0.01441434331173817,0.012982981987478858,3.370150269183875e-05,-0.008219197589765108,0.013754757802014161
2.6262626262626263,7.7974683544303796,0.014385084437527371,0.012805990210832046,-5.9526229274852744e-05,-0.008157322394507826,0.013664531429275775
2.727272727272727,7.7974683544303796,0.01427123149387052,0.01300799222545226,-4.2502829869571554e-05,-0.008183767115796834,0.013683612872367145
2.8282828282828283,7.7974683544303796,0.014013985518676492,0.01291647103730337,1.9248853840910843e-05,-0.008079136966793958,0.013498773561369198
2.929292929292929,7.7974683544303796,0.014219068317493585,0.012701279430400496,-5.045924652840015e-06,-0.008076104324368224,0.013524204946328297
3.0303030303030303,7.7974683544303796,0.013906980504443662,0.01277429197416719,-3.653889684358685e-05,-0.008004381743583255,0.01337680148699164
3.131313131313131,7.7974683544303796,0.014109745901117689,0.012717158977437042,7.356678002810739e-05,-0.008048071463566418,0.013468163063652434
3.2323232323232323,7.7974683544303796,0.014128393660064914,0.012840733873296414,1.3609457411605654e-05,-0.008090738260008399,0.013530615892283531
3.3333333333333335,7.7974683544303796,0.01392765185066387,0.012700252439655243,4.478915341888194e-05,-0.007988371287095734,0.01335654228885601
3.4343434343434343,7.7974683544303796,0.014000801123394215,0.012624880893572108,4.039060784966084e-05,-0.007987704605089897,0.013366244696244478
3.5353535353535355,7.7974683544303796,0.013993621905288427,0.012656299563919853,2.1436029452965155e-05,-0.007994976440762483,0.013375248796652752
3.6363636363636362,7.7974683544303796,0.01392851604474776,0.01243059979567182,2.7955824823876486e-05,-0.007907734752125873,0.013243334412961247
3.7373737373737375,7.7974683544303796,0.014066370518801422,0.01270549693659252,-8.335985344652568e-06,-0.008031560236618182,0.013437723501706526
3.8383838383838382,7.7974683544303796,0.014134944290639303,0.012627561716789993,6.0980728546834917e-05,-0.008028751802228788,0.013445193920696829
3.9393939393939394,7.7974683544303796,0.013886197872567957,0.012323461287494926,-7.857115290252876e-05,-0.007862897748018864,0.0131752300862496
4.040404040404041,7.7974683544303796,0.014034749288386633,0.012627728917098294,8.982421005671334e-05,-0.007998743461645478,0.013387715298905258
4.141414141414141,7.7974683544303796,0.013964630978006366,0.012409556121813582,-2.665252791805443e-05,-0.007912256129945984,0.013255763302129485
4.242424242424242,7.7974683544303796,0.013923134346429498,0.012270716022561768,-0.00010410334001771036,-0.007858155110697379,0.013176108171318071
4.343434343434343,7.7974683544303796,0.01397626472798164,0.012475446314237467,-1.805505049716817e-05,-0.007935513312665732,0.013289603987820128
4.444444444444445,7.7974683544303796,0.013797852541258695,0.01241826921746666,-6.719048435180758e-05,-0.007864836527617606,0.013162911581831138
4.545454545454545,7.7974683544303796,0.013793765078845884,0.012368646861058898,6.29750350903097e-06,-0.007848723581971435,0.01313930325606996
4.646464646464646,7.7974683544303796,0.01374422469349899,0.012413941243737016,7.706791207864649e-06,-0.007847449781170803,0.013129730767476486
4.747474747474747,7.7974683544303796,0.01394743010609839,0.012314395182230377,5.6652114262859915e-05,-0.007878547586498629,0.013207217630968188
4.848484848484849,7.7974683544303796,0.013642850977681434,0.012435884045724014,1.7407830201028232e-05,-0.007823620507021635,0.013081230488147301
4.94949494949495,7.7974683544303796,0.013850254817288282,0.012490553111955974,-6.026440593115761e-05,-0.007902242378773277,0.013223351599833292
5.05050505050505,7.7974683544303796,0.013866918693708331,0.012357308615662976,-6.365754876095206e-06,-0.007867268192811392,0.013177133148097939
5.151515151515151,7.7974683544303796,0.013764055199864582,0.01237925791003481,2.3663039757223254e-05,-0.007842993932969817,0.013126619235711491
5.252525252525253,7.7974683544303796,0.013679755375291699,0.012314494395336276,1.4343483565422212e-07,-0.007798274931188392,0.013050793405142478
5.353535353535354,7.7974683544303796,0.01376964078895688,0.012667912837985329,1.1432395649953707e-05,-0.007931266088082662,0.013253180972952725
5.454545454545454,7.7974683544303796,0.013862385961819733,0.01238809839907109,4.1351330121278415e-05,-0.007875145308267247,0.013187389997877075
5.555555555555555,7.7974683544303796,0.013817963722659749,0.012256317557246335,2.90054266632117e-05,-0.007822284383971824,0.013107197033298377
5.656565656565657,7.7974683544303796,0.013802324360827534,0.012515099587157075,9.679612327543732e-06,-0.007895227184395382,0.013205858268686518
5.757575757575758,7.7974683544303796,0.013876063513246124,0.01236436360223918,-8.029193162501824e-05,-0.00787212813464559,0.013186101457570015
5.858585858585858,7.7974683544303796,0.013865703320719245,0.012538753210929374,-3.8853848476419416e-05,-0.007921336959494586,0.013252318947752431
5.959595959595959,7.7974683544303796,0.014052438696414206,0.012536192824195706,-3.838922482566303e-05,-0.007976589456182973,0.013359173024225924
6.0606060606060606,7.7974683544303796,0.013889913106815607,0.012648205575997664,1.2995925208778013e-05,-0.007961435604843982,0.013312581292974489
6.161616161616162,7.7974683544303796,0.013831596624083207,0.012423004335522412,-7.162940023881097e-05,-0.007876380287881686,0.01318444194406845
6.262626262626262,7.7974683544303796,0.013979675886377007,0.012589974877108848,-5.433613592803558e-06,-0.007970895229045757,0.013339232574149153
6.363636363636363,7.7974683544303796,0.013991483372293279,0.012565642434604188,7.979677765288495e-05,-0.00796713774206924,0.013336570104142548
6.4646464646464645,7.7974683544303796,0.014049600552429918,0.012641269907707557,2.4793687441055047e-05,-0.008007261138041242,0.013401120552566441
6.565656565656566,7.7974683544303796,0.013858926952887391,0.012523412008706927,0.00011831046101214203,-0.007914701688478295,0.013243362280450768
6.666666666666667,7.7974683544303796,0.014022504490610972,0.01266953461273514,1.1941679324906735e-05,-0.008007611731003833,0.013397371432582747
6.767676767676767,7.7974683544303796,0.014116737183818423,0.0126165179940241,4.791964494477189e-05,-0.008019976553352756,0.013429877705738658
6.8686868686868685,7.7974683544303796,0.014061575373020812,0.01282899321461539,8.278309206159687e-06,-0.008067170576290859,0.01348759872681999
6.96969696969697,7.7974683544303796,0.014171852888127303,0.012584864496845604,-3.376600543348301e-05,-0.008027015215491871,0.013448895897052063
7.070707070707071,7.7974683544303796,0.01416915968225638,0.012617094698163682,4.7567560045334497e-05,-0.008035876314126018,0.013460658350823123
7.171717171717171,7.7974683544303796,0.014330841741479123,0.012775906577876738,-2.8129312027452393e-05,-0.008132024495806758,0.013620194286759138
7.2727272727272725,7.7974683544303796,0.014171648643828525,0.012906163352344211,-9.035510079308053e-05,-0.00812334359885182,0.013584092075842219
7.373737373737374,7.7974683544303796,0.01423126312791592,0.01281499241586293,-6.014807881365036e-05,-0.008113876663133655,0.013579035501697692
7.474747474747475,7.7974683544303796,0.014469053537723115,0.013051391102368979,-0.00012707509634613158,-0.008256133392027628,0.013816638072370869
7.575757575757575,7.7974683544303796,0.014517986866430702,0.0128917912577263,1.6734829495532577e-05,-0.0082229334372471,0.013777089986124093
7.6767676767676765,7.7974683544303796,0.014565990366881082,0.01296668192739804,-9.806733285110368e-06,-0.008259801688283736,0.013835846199114304
7.777777777777778,7.7974683544303796,0.014614929652768845,0.012795723988640928,9.413871148623462e-05,-0.00822319609242293,0.013796546723351821
7.878787878787879,7.7974683544303796,0.01455139038416853,0.01302756901887522,2.176868084532668e-05,-0.008273687820913126,0.013852533910085705
7.979797979797979,7.7974683544303796,0.014564769490325223,0.013317130483728219,2.407104772727155e-05,-0.008364569992216032,0.013982820784980518
8.080808080808081,7.7974683544303796,0.014641681057184568,0.01333590939738093,5.188785993750063e-05,-0.00839327713636965,0.01403471583900205
8.181818181818182,7.7974683544303796,0.014908630061103996,0.013318480837301526,6.917589847967811e-05,-0.008468133269521656,0.01418108720260834
8.282828282828282,7.7974683544303796,0.014939736677119852,0.013437891093201086,2.2781532063892257e-05,-0.008513288331096281,0.014248356100995802
8.383838383838384,7.7974683544303796,0.014998603225016355,0.013444435528546267,5.123418510241592e-05,-0.008532911626068786,0.014285344452651432
8.484848484848484,7.7974683544303796,0.015110516475517009,0.01348798601724062,-7.981337161555143e-05,-0.00857955074782729,0.014368790851910887
8.585858585858587,7.7974683544303796,0.015055305173649376,0.01359310715855714,0.00011543370352194341,-0.008594523699661955,0.014381459396920109
8.686868686868687,7.7974683544303796,0.015128436267424711,0.013652235092857911,-8.979850592044522e-06,-0.008634201408084788,0.014447019773335342
8.787878787878787,7.7974683544303796,0.015406048175065284,0.013783553759084032,-9.287953800585359e-05,-0.008756880580244795,0.014663166820018168
8.88888888888889,7.7974683544303796,0.015402815287818757,0.01382314863967476,-3.7298072317221345e-05,-0.008767789178248055,0.014677020315814368
8.98989898989899,7.7974683544303796,0.015560167834594305,0.014068172590749202,-7.446059159828703e-06,-0.008888502127603051,0.014870418379357871
9.09090909090909,7.7974683544303796,0.015624777123821924,0.013903585402175303,1.3946216179940614e-05,-0.008858508757799168,0.014839255627035853
9.191919191919192,7.7974683544303796,0.01584848654039977,0.014177465981943601,-3.357976646857025e-05,-0.009007785756703012,0.015082674540701996
9.292929292929292,7.7974683544303796,0.016017134517781195,0.014420958459226122,3.639632387973399e-05,-0.009131427893102194,0.015281825270688044
9.393939393939394,7.7974683544303796,0.01601259225017592,0.014362762248010657,-4.632086572874648e-05,-0.009112606349455972,0.015254947766789139
9.494949494949495,7.7974683544303796,0.016191355266542654,0.014445028358534123,5.6491400594166175e-05,-0.009190915087523033,0.015392979487187246
9.595959595959595,7.7974683544303796,0.01616697666986332,0.014744922780194942,-1.344860380658153e-05,-0.009273569835017478,0.015504954125901239
9.696969696969697,7.7974683544303796,0.016713635196361726,0.014769258931433032,1.791146124826859e-06,-0.009444868238338427,0.015831254359172247
9.797979797979798,7.7974683544303796,0.01663789811575773,0.015066835037510789,7.71144966364595e-06,-0.009511419945980556,0.015910653156807605
9.8989898989899,7.7974683544303796,0.01699673047238076,0.015239132135221687,-4.299817082421769e-05,-0.009670758782280733,0.016189815316371786
10.0,7.7974683544303796,0.017030769035863674,0.01545296696897057,9.156854127935881e-06,-0.009745120801450272,0.016299252199827845
0.0,7.898734177215189,0.017210311844594248,0.01534694748305006,5.782319163773399e-05,-0.009767177798293291,0.016358725786388403
0.10101010101010101,7.898734177215189,0.017032431127760834,0.015240177089642213,-8.814257747504715e-06,-0.009681782465220914,0.01621078882302712
0.20202020202020202,7.898734177215189,0.016767862952187452,0.015155820719384807,5.244366393013821e-05,-0.009577105101471677,0.016023035165803202
0.30303030303030304,7.898734177215189,0.01659124606915261,0.01500436563118249,5.168455990679418e-05,-0.009478683510100531,0.015857721327608692
0.40404040404040403,7.898734177215189,0.016481624730224517,0.014904493303775442,-1.2708174516979365e-05,-0.009415835410199988,0.01575239960946785
0.5050505050505051,7.898734177215189,0.01613642232365837,0.014637845079316994,-9.241825888464625e-05,-0.009232280220892609,0.015442597167223108
0.6060606060606061,7.898734177215189,0.016106305100969106,0.014428119935614991,5.6224899800978134e-05,-0.009160327510975229,0.015336541033873228
0.7070707070707071,7.898734177215189,0.01601651808349252,0.014276282861360933,2.740024161884776e-05,-0.009087840283456036,0.015221268461009133
0.8080808080808081,7.898734177215189,0.015921688431737996,0.014352514509629221,4.960753199335381e-06,-0.009082260882410164,0.015197981604784186
0.9090909090909091,7.898734177215189,0.015553075841374261,0.013945792935932804,-4.888022943260044e-05,-0.008849660633192119,0.014815211823300967
1.0101010101010102,7.898734177215189,0.015488041462441685,0.013958707554075418,-1.8648656969209206e-05,-0.00883402470495513,0.014782859901930923
1.1111111111111112,7.898734177215189,0.015378239516803196,0.013890922875292411,-6.277443685320645e-05,-0.008780748717628682,0.014691557840051165
1.2121212121212122,7.898734177215189,0.01551286019114177,0.013841214484953226,3.069729219988262e-05,-0.008806222402828499,0.014748357587167108
1.3131313131313131,7.898734177215189,0.015157623639646012,0.013854674743585734,-5.811326063899582e-05,-0.008703689514969522,0.014550317958447254
1.4141414141414141,7.898734177215189,0.01525532530745374,0.013613278260903876,6.473742501118965e-05,-0.008660581070507285,0.014504615805896104
1.5151515151515151,7.898734177215189,0.015053971943932992,0.013671287793977818,-1.9999176538569847e-05,-0.008617577921373243,0.014412501456988637
1.6161616161616161,7.898734177215189,0.014961221212957102,0.013522843098390767,4.067779269473227e-05,-0.00854521929340436,0.014296578005664622
1.7171717171717171,7.898734177215189,0.014768946671505185,0.013297235910423656,-4.9573278537310805e-05,-0.008419854774578652,0.014091113268070363
1.8181818181818181,7.898734177215189,0.014847935070871399,0.013302460668232464,-7.090060791421998e-05,-0.008445118721731159,0.014139223603244846
1.9191919191919191,7.898734177215189,0.014692315440584388,0.013202375613341822,3.280329549753923e-05,-0.008368407316177863,0.0140070202374983
2.0202020202020203,7.898734177215189,0.014711141055298013,0.01311716130236395,2.709798722866096e-05,-0.008348490707298588,0.013982538557775263
2.121212121212121,7.898734177215189,0.014441879952871564,0.013273928806064561,4.139468286462884e-05,-0.008314742627680836,0.013894953643707644
2.2222222222222223,7.898734177215189,0.014625561441425778,0.013081541754319257,4.906629857314581e-05,-0.00831213095872351,0.013918193560067793
2.323232323232323,7.898734177215189,0.014626114436989836,0.012950799419423266,-4.638293880900854e-05,-0.00827307415692393,0.01386481189551838
2.4242424242424243,7.898734177215189,0.01452148207749363,0.012848242093341261,6.682247014772576e-05,-0.008210917251250468,0.01376185470995354
2.525252525252525,7.898734177215189,0.014346062746554365,0.012800365056677898,-2.5880580177160064e-05,-0.008143928340969678,0.013639136007961919
2.6262626262626263,7.898734177215189,0.01424992917775434,0.012983933973689412,0.00012968149083127374,-0.008170158945433124,0.013662845066003664
2.727272727272727,7.898734177215189,0.014127508408885138,0.0129905651666477,-6.915902412250062e-05,-0.00813542207265985,0.013595267833915882
2.8282828282828283,7.898734177215189,0.014213660012730655,0.012709359560188163,2.9457367061873707e-05,-0.008076905871875645,0.01352449772926909
2.929292929292929,7.898734177215189,0.014227692508109993,0.012774616102370755,-3.308611076887124e-05,-0.008100692583144223,0.013559794427895107
3.0303030303030303,7.898734177215189,0.014064493455636312,0.012656386927257209,-1.6028141924378587e-05,-0.008016264114868056,0.013416005583245502
3.131313131313131,7.898734177215189,0.014124551843059907,0.012680633528970229,1.4562466408059913e-05,-0.008041555611609042,0.013460824713843909
3.2323232323232323,7.898734177215189,0.014114378107996234,0.012557896932576995,6.979308085499436e-05,-0.008001682512171968,0.013404631752475632
3.3333333333333335,7.898734177215189,0.013782397341998152,0.012488125794948861,0.00011627198400401466,-0.007881156941084103,0.013184536704910635
3.4343434343434343,7.898734177215189,0.014102854798700371,0.012753043686006273,4.588304242460074e-05,-0.008056769545411993,0.013478969884450664
3.5353535353535355,7.898734177215189,0.013883380295357333,0.012614904181891174,6.299501730140577e-05,-0.007949485343174552,0.013295053550615632
3.6363636363636362,7.898734177215189,0.014190672527567729,0.01253135144326426,4.106669737854354e-05,-0.008016607191249596,0.013438255487262516
3.7373737373737375,7.898734177215189,0.013910698274578092,0.012504477453296744,7.107584993710929e-05,-0.00792455271836245,0.013264185812239428
3.8383838383838382,7.898734177215189,0.014068864221242008,0.012474866860779272,1.9676505679172238e-05,-0.007963119324606383,0.01334350767685036
3.9393939393939394,7.898734177215189,0.013821291457114887,0.012392048489655064,4.6236493979506566e-07,-0.007864001984030984,0.013164985758731394
4.040404040404041,7.898734177215189,0.013717916977856822,0.012420319782504966,-1.153235821308355e-05,-0.007841471028108537,0.013117357701994662
4.141414141414141,7.898734177215189,0.01400134007340118,0.012588762533417005,-3.731978536251231e-05,-0.007977030782045454,0.013351370676423793
4.242424242424242,7.898734177215189,0.01407216196838529,0.012362446689417946,1.1509041558659052e-05,-0.00793038259734097,0.013299995332640724
4.343434343434343,7.898734177215189,0.014003079732981476,0.012487531596433482,1.4124608332592993e-05,-0.007947183398824487,0.013310198544005992
4.444444444444445,7.898734177215189,0.01388211682365546,0.012653113258150309,-2.9284361669452882e-06,-0.00796056902454173,0.013310239363881699
4.545454545454545,7.898734177215189,0.013789779977103397,0.01253195340633488,2.2921818569879327e-06,-0.007896520015031484,0.013205870800560399
4.646464646464646,7.898734177215189,0.01377849029589537,0.01240068938940328,8.509924989017742e-05,-0.007853753905589594,0.013144688638352444
4.747474747474747,7.898734177215189,0.013817382174266979,0.01247171611286265,2.066277005873807e-05,-0.007886729486138888,0.013196157239871067
4.848484848484849,7.898734177215189,0.014061755956513489,0.012393683456092541,-2.552020361162542e-05,-0.007936631823781808,0.013306440991898988
4.94949494949495,7.898734177215189,0.013821936780311758,0.012399251050293507,-7.929994359718407e-06,-0.00786635634918158,0.013168366925370822
5.05050505050505,7.898734177215189,0.013725780213761609,0.012290864439170615,1.4476663176053401e-05,-0.007804993395879667,0.013067567330252959
5.151515151515151,7.898734177215189,0.013667357049302806,0.012342593557147334,8.649709716977679e-05,-0.007802985181935042,0.013056342390331275
5.252525252525253,7.898734177215189,0.013663557246350487,0.012284774789456738,-4.126149724342881e-05,-0.007784499610742166,0.013029193075212588
5.353535353535354,7.898734177215189,0.013773137748139926,0.012527291089196622,7.258438153914454e-06,-0.007890128651200964,0.013194407820547477
5.454545454545454,7.898734177215189,0.01381551940098714,0.012588656456610928,-1.0719169957493546e-06,-0.00792125275727942,0.013244773446154974
5.555555555555555,7.898734177215189,0.013994074356855972,0.012393422179144326,-1.2334706315520534e-05,-0.007916248960800088,0.013266386672331182
5.656565656565657,7.898734177215189,0.013955519401299955,0.012513926470363246,4.314048352929906e-05,-0.00794083376149896,0.013293687115547721
5.757575757575758,7.898734177215189,0.013872495094509288,0.012521736871341331,-3.477403368702297e-05,-0.007918269589755186,0.013248996520496605
5.858585858585858,7.898734177215189,0.013913414320047989,0.01234273766173644,-8.437224170570936e-05,-0.00787684559453533,0.013199166796501795
5.959595959595959,7.898734177215189,0.013876439468187843,0.012611426993633176,-7.395254610227526e-05,-0.007946359938546305,0.013289784301583864
6.0606060606060606,7.898734177215189,0.013776978483652096,0.012644280559053868,0.00017382256145363306,-0.007926377712811789,0.013250419942037522
6.161616161616162,7.898734177215189,0.01396512310748464,0.012489395955813172,-6.480112298619102e-05,-0.007936355718989345,0.01328933106833647
6.262626262626262,7.898734177215189,0.014051547354550773,0.012495073808823948,7.77509914677817e-05,-0.007963986349012417,0.013342258687038972
6.363636363636363,7.898734177215189,0.013967350487854368,0.012696770327461752,-9.542001149135836e-06,-0.007999236244594836,0.01337740215141897
6.4646464646464645,7.898734177215189,0.01381969804719225,0.012576706708766868,-7.40549402576301e-05,-0.007918921426787736,0.013242649622080367
6.565656565656566,7.898734177215189,0.014164465165494924,0.012429316482602397,-0.00011762085836204202,-0.007978134494429197,0.013383081308108485
6.666666666666667,7.898734177215189,0.014019859680523569,0.012478458865250142,-0.00012160155509167041,-0.007949495563732112,0.013317902222494356
6.767676767676767,7.898734177215189,0.014168001730452282,0.012640353431340958,9.05988155230993e-06,-0.008042506548537972,0.013469317163795128
6.8686868686868685,7.898734177215189,0.014192579435829557,0.012675953004631885,6.1018868995767717e-05,-0.008060559732138432,0.01349873311025921
6.96969696969697,7.898734177215189,0.014133367886897993,0.012849340314747305,-1.7240545975032526e-05,-0.00809481246049359,0.013537136783219451
7.070707070707071,7.898734177215189,0.014139288481324975,0.012746730364025065,5.991316736910454e-05,-0.008065805653605011,0.013497395477778125
7.171717171717171,7.898734177215189,0.014325700435083214,0.012791924935937985,5.510285948319591e-05,-0.00813528761130636,0.013624054494806841
7.2727272727272725,7.898734177215189,0.014215148495686265,0.012769886539842863,3.2071636124412245e-05,-0.008095510510658738,0.013550560922982891
7.373737373737374,7.898734177215189,0.014240396497185314,0.01302495369305951,3.241775701718807e-05,-0.008179605057073446,0.013673366772293387
7.474747474747475,7.898734177215189,0.01449730981055525,0.012923426411730459,4.241459923414861e-05,-0.008226220866685712,0.013778150182537193
7.575757575757575,7.898734177215189,0.014240111335379939,0.012887086430147039,4.816379949345537e-05,-0.008138159329658093,0.013614374065776336
7.6767676767676765,7.898734177215189,0.014290214154616105,0.013016271296249106,5.0488023421636086e-05,-0.008191945635259563,0.01369802474249093
7.777777777777778,7.898734177215189,0.014666108724780762,0.013025494057687265,-3.22329744765684e-06,-0.008307480834740408,0.013918511403840886
7.878787878787879,7.898734177215189,0.014560391443089148,0.013185983032597524,3.937656296939725e-05,-0.008323912342706002,0.013924321331271972
7.979797979797979,7.898734177215189,0.01457370063899762,0.013151896674910983,5.0417628753573175e-05,-0.00831767919417258,0.013917649129768317
8.080808080808081,7.898734177215189,0.014641284007537178,0.013238027764208935,1.9025203132476323e-06,-0.008363793531523835,0.013992528832867767
8.181818181818182,7.898734177215189,0.014796694408494447,0.013317030402557599,7.620706485221313e-06,-0.008434117443315613,0.014115155298162384
8.282828282828282,7.898734177215189,0.014852458223186423,0.013429425476240835,-6.537636728544332e-05,-0.008484565109828177,0.014194992964222991
8.383838383838384,7.898734177215189,0.01482596168166516,0.013544628711692609,3.318181060230085e-05,-0.008511177118007331,0.01422874778571676
8.484848484848484,7.898734177215189,0.014859166448568991,0.013564929341837558,4.588974110303453e-05,-0.008527228737121964,0.01425639892283103
8.585858585858587,7.898734177215189,0.015130049310390838,0.013741719557971087,-8.063081993956895e-05,-0.008661530660508577,0.014486540581190909
8.686868686868687,7.898734177215189,0.015238222838565286,0.013761224986534717,-4.572816444530124e-05,-0.008699834347530001,0.014556249816708357
8.787878787878787,7.898734177215189,0.01526798148308869,0.01389217219179394,-7.935390512111566e-06,-0.008748046102464789,0.014628686472184379
8.88888888888889,7.898734177215189,0.015440713710481429,0.013917567413981218,1.1084684235710142e-05,-0.008807484337338795,0.01473830102952255
8.98989898989899,7.898734177215189,0.015740703956277798,0.013969305753953247,8.477754820529779e-06,-0.008913002913069313,0.014934013980035146
9.09090909090909,7.898734177215189,0.01570804869257797,0.014137538714461847,-1.5056909487427792e-05,-0.008953676222111946,0.014984669774236105
9.191919191919192,7.898734177215189,0.015875126246245142,0.014314587176987893,-2.444210394739555e-05,-0.00905691402696991,0.015155294554497416
9.292929292929292,7.898734177215189,0.01580170832271054,0.014446864060985262,-1.1199281379198926e-06,-0.00907457171510874,0.015169731006375349
9.393939393939394,7.898734177215189,0.01600693072719851,0.014456221946820232,5.980897583351781e-05,-0.009138945802205622,0.015291016066372806
9.494949494949495,7.898734177215189,0.016334898346189668,0.0146638962344432,5.865001262130704e-05,-0.00929963837418986,0.015567139168071495
9.595959595959595,7.898734177215189,0.016288772373438478,0.014723685204046435,9.861784773735549e-05,-0.009303737273245474,0.015566291500365433
9.696969696969697,7.898734177215189,0.01652972424063709,0.014892145102328988,-9.56618393771075e-07,-0.009426560802889823,0.015774812837958823
9.797979797979798,7.898734177215189,0.01670000423236072,0.015065897345614428,4.119895921204877e-05,-0.009529770473392544,0.01594603232205758
9.8989898989899,7.898734177215189,0.016922737800828126,0.015263472684859931,-2.450193654641012e-05,-0.009655863145706418,0.01615718750079169
10.0,7.898734177215189,0.01677262095317434,0.015326393819900301,-7.278512495603033e-05,-0.009629704431922391,0.016098796851458316
0.0,8.0,0.016980921563792183,0.01553052566575547,-1.2997801806426871e-05,-0.009753434168864294,0.01630419557243632
0.10101010101010101,8.0,0.01676012910966415,0.015238741324090886,7.033103077766846e-05,-0.009599661130126511,0.01605405656574998
0.20202020202020202,8.0,0.01661671893760338,0.014966885778820743,-2.1291783793363532e-05,-0.009475081414927236,0.01585635026826373
0.30303030303030304,8.0,0.016416733454264573,0.014913594350035865,-6.360108167740732e-06,-0.009399098341290131,0.01571916193087768
0.40404040404040403,8.0,0.016283712222305225,0.014762711715652185,-2.9295256968196694e-05,-0.009313927181387223,0.015579081050434757
0.5050505050505051,8.0,0.01624493833172654,0.014586303120297303,4.562440662905242e-05,-0.009249372435607153,0.015482600240306335
0.6060606060606061,8.0,0.015984274807074875,0.014620114746866364,1.4883615620824296e-06,-0.00918131686618237,0.015347731791388864
0.7070707070707071,8.0,0.01588680803541739,0.01437957172703108,8.756661180981686e-05,-0.009079913928734541,0.015190136954046451
0.8080808080808081,8.0,0.015854559944592114,0.014234816051776757,-5.163695685818466e-05,-0.00902681279891066,0.01511020561731011
0.9090909090909091,8.0,0.01571569280196521,0.014181069656028942,-5.006077481678948e-05,-0.008969028737398245,0.015007595435678242
1.0101010101010102,8.0,0.01561771168720477,0.013870234341907404,1.3676491895698962e-05,-0.00884638380873365,0.014821456041748917
1.1111111111111112,8.0,0.015546772970523782,0.014034283726972041,4.70473056689738e-05,-0.008874317009248747,0.01484863922943522
1.2121212121212122,8.0,0.015275495288073489,0.013791950215952186,6.980883775092806e-05,-0.008720233651207701,0.014590901148990816
1.3131313131313131,8.0,0.015380478184503433,0.01378079684252544,-6.583235143533975e-05,-0.008748382508108662,0.014646748010834874
1.4141414141414141,8.0,0.01521715048009064,0.013615685327847073,-4.212272342916337e-05,-0.008649850742381313,0.01448316077825379
1.5151515151515151,8.0,0.014987242758804037,0.013588136244526613,9.635428731745139e-06,-0.008572613700999194,0.014338984416588861
1.6161616161616161,8.0,0.014960488450615234,0.0134308074089204,-1.0262895742817831e-05,-0.00851738875786069,0.014257337731638358
1.7171717171717171,8.0,0.014770224521773881,0.013281221793181459,-8.813151777307379e-05,-0.008415433894486601,0.014085704044448652
1.8181818181818181,8.0,0.014884858870040473,0.013543896217021425,4.136205679224858e-05,-0.00852862652611857,0.014261917719467361
1.9191919191919191,8.0,0.014778868169991464,0.013262808678113792,-4.451539020538837e-05,-0.008412503054431576,0.014082389082129151
2.0202020202020203,8.0,0.014519132416325612,0.013174328554118995,-1.0121760666598935e-05,-0.008308038291133382,0.013895633326745349
2.121212121212121,8.0,0.01452349815250995,0.012942643005656907,2.6664959583048777e-05,-0.008239842347450057,0.013801220519823396
2.2222222222222223,8.0,0.014401241996816716,0.012961320039793636,-9.637194701606987e-05,-0.008208768610983106,0.013739008129777434
2.323232323232323,8.0,0.014455433658862633,0.012881683868074633,2.232645394768773e-05,-0.00820113525808118,0.013736393645532906
2.4242424242424243,8.0,0.014394179175096786,0.012964214020391735,2.47846614894722e-05,-0.008207517958646557,0.01373520522801995
2.525252525252525,8.0,0.014396774591786954,0.01284476641242896,5.577371102059882e-05,-0.008172462301264774,0.013687266645799402
2.6262626262626263,8.0,0.014210971255224981,0.012771731904244485,-2.3876823089383817e-05,-0.00809481094784084,0.013548868409875101
2.727272727272727,8.0,0.014178980003894327,0.012901892655108254,2.356000081350385e-05,-0.008124261797700774,0.013585591458840333
2.8282828282828283,8.0,0.014333325407985167,0.012822983479601261,-7.35254246312831e-05,-0.008146892666275928,0.013641603484164858
2.929292929292929,8.0,0.014051481336079481,0.012721912737622632,-1.750493798205905e-05,-0.008032018222110634,0.01343615984269687
3.0303030303030303,8.0,0.014191473836013631,0.01270106532868406,2.9144108613592784e-05,-0.008067761749409307,0.013508171673377587
3.131313131313131,8.0,0.013954689554071167,0.012850812821507967,0.0001095439927076261,-0.008041650712673739,0.013438141498783618
3.2323232323232323,8.0,0.014166429029850196,0.012740134414312022,-1.4637007065514444e-05,-0.008071969033248666,0.013509891526853354
3.3333333333333335,8.0,0.014038013443896987,0.012593728514890337,3.3841677937059157e-06,-0.007989522587636197,0.013374487785135928
3.4343434343434343,8.0,0.013853902832090714,0.012481486636147694,1.7786902634604704e-05,-0.007900616840471521,0.013221262360071054
3.5353535353535355,8.0,0.014037816930550454,0.012387675749357169,-2.8958049130742077e-05,-0.007927647803972288,0.013289898644767527
3.6363636363636362,8.0,0.014045222121085813,0.012561380550897443,2.9070945734116994e-05,-0.007981980801594976,0.01336531709874175
3.7373737373737375,8.0,0.01395252790131084,0.012693535070588683,-2.37312475870638e-05,-0.007993818891569858,0.013367634596397457
3.8383838383838382,8.0,0.013914350223796503,0.012696457671229363,8.307572685009365e-05,-0.007983242368507759,0.013347918400929287
3.9393939393939394,8.0,0.01395671839153042,0.012375905165475518,-3.090311660054048e-05,-0.007899787067101783,0.013237403774847448
4.040404040404041,8.0,0.0138595581818612,0.012652195546635391,3.329623567008774e-05,-0.007953526118548977,0.013297176044474526
4.141414141414141,8.0,0.013896384904393452,0.012447633330810821,-1.3717072505063847e-08,-0.00790320547056128,0.013231628208056139
4.242424242424242,8.0,0.013877919980033725,0.01259095766916094,-3.572649231542569e-05,-0.007940663294758399,0.01328143080172366
4.343434343434343,8.0,0.014004987450868634,0.012535263484149134,4.809613620075048e-05,-0.00796207528050533,0.013331287861348674
4.444444444444445,8.0,0.013860738043625817,0.01242128169066273,-1.7447746143357448e-05,-0.007884605920286563,0.013200040891754236
4.545454545454545,8.0,0.013728755339549275,0.01230944442142397,7.687253230940366e-05,-0.007811459928291973,0.013077672670184478
4.646464646464646,8.0,0.013651662916956155,0.012433651917599783,5.478516001212323e-06,-0.00782559445036678,0.0130852461055497
4.747474747474747,8.0,0.014001152333127,0.01253714124031896,1.9231431404729612e-06,-0.007961488072033788,0.013329582285388322
4.848484848484849,8.0,0.013950976421406823,0.012402333403014311,0.00011016604191464872,-0.00790599294732634,0.013246107569571832
4.94949494949495,8.0,0.013842242290767796,0.012498131822345953,5.352620152212102e-05,-0.007902112233934123,0.013221853008596688
5.05050505050505,8.0,0.013801458777640803,0.012413983808406508,-2.233904522768267e-06,-0.007864632775814194,0.01316268162492973
5.151515151515151,8.0,0.013825094153365148,0.012375139000580116,1.9781246783474687e-05,-0.007860069946183578,0.013160205381462021
5.252525252525253,8.0,0.013813810788246696,0.012364483992070971,-1.923272026200952e-05,-0.0078534884340953,0.013149231924925219
5.353535353535354,8.0,0.0140294517651655,0.012364937603633394,2.950727180931014e-07,-0.007918316810639668,0.013275688432039991
5.454545454545454,8.0,0.013955626085636002,0.012494840013098921,3.0015551373371625e-05,-0.007935139829620476,0.013285703367618248
5.555555555555555,8.0,0.013955024327231568,0.01259375460139339,1.469713790543441e-05,-0.007964633678587487,0.01332665956336023
5.656565656565657,8.0,0.013798667955430477,0.012510184103257813,2.340776736315111e-05,-0.007892655617606487,0.01320173136032497
5.757575757575758,8.0,0.01394539048062298,0.012239839389841597,9.982077095429855e-06,-0.007855568961139373,0.013175679988535931
5.858585858585858,8.0,0.013709834290244518,0.01264293955155302,1.9759339159703945e-05,-0.00790583215253926,0.013208786540453665
5.959595959595959,8.0,0.013839492104167203,0.012409114926594864,1.351616804736241e-05,-0.007874582109228619,0.013182654322132127
6.0606060606060606,8.0,0.013957560065120313,0.012534249802434842,1.2683755534817862e-05,-0.007947542960266545,0.013303151477207795
6.161616161616162,8.0,0.013787054637994307,0.012434445559613207,4.738452396051027e-05,-0.007866450059282255,0.013163231651908464
6.262626262626262,8.0,0.013857739986994307,0.012411248556825833,3.756593291058989e-05,-0.007880696563146041,0.013194257329230314
6.363636363636363,8.0,0.014119027847450163,0.012635483137451142,8.590407051054125e-05,-0.008026353295470391,0.013439634731577214
6.4646464646464645,8.0,0.014038990872237304,0.012480034365578156,2.9746827621613775e-05,-0.007955707571344638,0.013328168987316868
6.565656565656566,8.0,0.013928376082143108,0.012800382945833508,6.232405505080245e-05,-0.008018627708392984,0.013400468985975657
6.666666666666667,8.0,0.013966329845959326,0.01273597123766469,9.098758801029107e-06,-0.008010690325087205,0.013393610636460796
6.767676767676767,8.0,0.013981210263940705,0.012750168459383041,-1.779364922149197e-05,-0.008019413616997125,0.013408176606001493
6.8686868686868685,8.0,0.014111282210478696,0.01261277423594016,-1.1154455167704929e-05,-0.008017216933925656,0.013424914007760805
6.96969696969697,8.0,0.014118509591120012,0.012592861019269009,-9.803373778170156e-06,-0.008013411183116706,0.01342089121345502
7.070707070707071,8.0,0.013985158475009396,0.012706366979151963,-3.0851041236586804e-05,-0.008007457636248407,0.01339174069698111
7.171717171717171,8.0,0.014129274688007253,0.01284893116947398,8.851411330950663e-05,-0.00809346175724437,0.013535466808020003
7.2727272727272725,8.0,0.014205153918361886,0.012862330032268597,8.159421540337714e-06,-0.008120245185189145,0.01358362078293878
7.373737373737374,8.0,0.014308916638391723,0.01270405692739927,3.6363752622521546e-05,-0.008103892069737297,0.013577953940230474
7.474747474747475,8.0,0.01435674293010793,0.012839271813842984,-6.544874466284981e-06,-0.008158804423185274,0.01366136786474795
7.575757575757575,8.0,0.014319543243030135,0.013156134613438609,1.5210634476290447e-05,-0.008242703356940623,0.013774761422176112
7.6767676767676765,8.0,0.01440979055783955,0.012869982805746812,4.372990347494855e-05,-0.008183932009075908,0.013705126834166345
7.777777777777778,8.0,0.01456044085308771,0.012937387839091052,-3.959093442306754e-05,-0.008249348607653627,0.013820747947815654
7.878787878787879,8.0,0.014652822045940607,0.013137721895455656,4.200030939042948e-05,-0.008337163182418878,0.013957274861774966
7.979797979797979,8.0,0.014708648713187947,0.01311549404972507,-8.013732567525737e-05,-0.008347242828873905,0.01398100863428406
8.080808080808081,8.0,0.014856661287442997,0.013317395933851074,3.955111711166962e-05,-0.00845221716638822,0.014150126194538296
8.181818181818182,8.0,0.014638532058323816,0.013306767633030677,-1.2526157775885943e-05,-0.008383589907406348,0.014020185868495022
8.282828282828282,8.0,0.014802430394484908,0.013515050827767472,-4.252620753280425e-05,-0.008495244366675715,0.014202759265006804
8.383838383838384,8.0,0.014856058806680346,0.013370316759865214,-0.0001055901494170022,-0.008467912669963667,0.014172899820330969
8.484848484848484,8.0,0.014961412426431925,0.0136496640836208,-1.1902257806107199e-05,-0.008583322953015816,0.014350587533038365
8.585858585858587,8.0,0.015034213750117176,0.013743469097374198,-4.6850787264210074e-05,-0.008633304854247412,0.014432423872151207
8.686868686868687,8.0,0.015373706992828329,0.013502308107527415,-1.3449959136244727e-05,-0.008662804530106722,0.014528702800461046
8.787878787878787,8.0,0.015495347662884379,0.013766792246253476,-1.0465542180657547e-05,-0.008778641972741356,0.014707462883498364
8.88888888888889,8.0,0.015588561519421965,0.014122170471056223,2.4318723945945505e-05,-0.008913219597143456,0.014909607643514783
8.98989898989899,8.0,0.015515658265836592,0.01406246096947647,-5.659805620277017e-05,-0.008873435770593917,0.014842834337858395
9.09090909090909,8.0,0.01582034308624417,0.014247150505590481,7.902447143865312e-05,-0.009020248077550395,0.015095975572876391
9.191919191919192,8.0,0.015743167573510627,0.014292535428985434,9.376271526877322e-05,-0.00901071090074882,0.01507118071910455
9.292929292929292,8.0,0.015973625165883364,0.014305939303111267,-2.717696033302547e-05,-0.00908386934069839,0.015208586521178975
9.393939393939394,8.0,0.01614031232497748,0.014320372112368722,5.680445687044215e-05,-0.009138205331203861,0.01531199337512788
9.494949494949495,8.0,0.016256833906008752,0.01455331870444905,-1.376718250677183e-05,-0.00924304578313734,0.01547557487162678
9.595959595959595,8.0,0.016539345110797365,0.01484359777004537,7.91089351679128e-05,-0.00941488286425282,0.015760638309382655
9.696969696969697,8.0,0.016503115445277067,0.014866526175105813,-6.032238358775618e-05,-0.009410892486114864,0.01574907421238243
9.797979797979798,8.0,0.01664977385724927,0.014991398869730315,-6.182235637971565e-05,-0.009492351818093875,0.015886002473728424
9.8989898989899,8.0,0.017050768399942996,0.015302070427699353,2.8339680293828714e-05,-0.009705851648292706,0.016247227853171904
10.0,8.0,0.01719352813139522,0.015492854006476542,2.585677005531312e-05,-0.009805914641361529,0.016409482605883544
