x_mm,y_mm,E_xx,E_yy,E_xy,E_zz,von_mises
0.0,0.0,0.006008603091725168,0.005345874631110743,-7.462374728203674e-05,-0.003406343316850773,0.005707639964113956
0.10101010101010101,0.0,0.0057283332088216695,0.005277261939945473,-8.51507467483523e-06,-0.003301678544630143,0.005516665444934654
0.20202020202020202,0.0,0.005820924534441525,0.005355838232535352,-4.2145655776152657e-05,-0.0033530288300930634,0.005603352943317789
0.30303030303030304,0.0,0.005781852007020583,0.005186170535147905,-9.899188892164441e-05,-0.0032904067626505465,0.005510889684574094
0.40404040404040403,0.0,0.005617276377086529,0.00521118674268202,4.434899485979792e-05,-0.003248538935930565,0.005426185168003412
0.5050505050505051,0.0,0.005510751225663903,0.005410477790527541,-4.303121174081564e-05,-0.0032763687048574333,0.005461813520518864
0.6060606060606061,0.0,0.005531988797738473,0.00502843557893562,-3.7589550416943085e-05,-0.003168127313002228,0.005298589818044966
0.7070707070707071,0.0,0.0055233649389569706,0.00494237193404676,3.6798300485354734e-05,-0.0031397210619011195,0.005257388997621277
0.8080808080808081,0.0,0.005511367378356343,0.004823610991104337,-4.588301415518391e-05,-0.003100493510838204,0.005202308801236561
0.9090909090909091,0.0,0.005658697063504879,0.005087980125898484,3.8557112959183576e-05,-0.0032240031568210093,0.00539643548774031
1.0101010101010102,0.0,0.0053174888944987585,0.004850908325719362,-8.562416806424335e-05,-0.003050519166065436,0.005102386017529139
1.1111111111111112,0.0,0.005414000097477322,0.004899032643539774,1.4463880071656886e-05,-0.0030939098223051282,0.005175826726211381
1.2121212121212122,0.0,0.005372025367968944,0.004889297627748401,7.703774559970139e-05,-0.0030783968987152036,0.005149394275226406
1.3131313131313131,0.0,0.005342852989306502,0.004760878089389444,1.1207424585142648e-05,-0.003031119323608784,0.005076981715039871
1.4141414141414141,0.0,0.005494608301334625,0.0047712765087307785,6.936484597002765e-05,-0.003079765443019621,0.00517242098447099
1.5151515151515151,0.0,0.005234558851025721,0.004674298354671876,-4.412575353327665e-05,-0.0029726571617092793,0.004978716992853875
1.6161616161616161,0.0,0.00551881955544474,0.0046141652668223645,4.554169320021007e-05,-0.003039895446680131,0.005127315772017036
1.7171717171717171,0.0,0.004999021846064803,0.004701620467547618,-3.922974463596734e-05,-0.0029101926940837256,0.004857629867302827
1.8181818181818181,0.0,0.005124145760495693,0.004491054352222299,7.539190498558374e-05,-0.0028845600338153975,0.004840524110913742
1.9191919191919191,0.0,0.005314308119835992,0.00461184776972708,6.166240095530396e-08,-0.0029778467668689214,0.0050002230555236254
2.0202020202020203,0.0,0.005088092426456963,0.0047242472630984154,-6.30420666400267e-05,-0.0029437019068666134,0.004917490511376634
2.121212121212121,0.0,0.004910351028333016,0.004809521349621473,3.0639295569011936e-05,-0.0029159617133863464,0.004861010288850597
2.2222222222222223,0.0,0.005025842827673901,0.004501560579233954,-4.15854468155894e-06,-0.0028582210220723563,0.004785296198459756
2.323232323232323,0.0,0.005102500359367159,0.004487900739731773,3.6706894127891576e-05,-0.0028771203297296797,0.004825068913287251
2.4242424242424243,0.0,0.004978838227063083,0.004466250983092932,2.6608950642167934e-05,-0.0028335267630468044,0.004743586292851107
2.525252525252525,0.0,0.004892613816290708,0.004540167464504165,-3.934901818445074e-05,-0.0028298343842384616,0.004726748304245796
2.6262626262626263,0.0,0.004967234427223398,0.0046439430375140416,-5.807690852195081e-06,-0.002883353239421232,0.0048137482531270225
2.727272727272727,0.0,0.004905096377698012,0.0044260680633367,4.908651336846314e-05,-0.0027993493323104136,0.00468476114740779
2.8282828282828283,0.0,0.004888739493468409,0.004396133593297257,-1.8631598575881754e-05,-0.0027854619260297,0.004662108310453051
2.929292929292929,0.0,0.004820948494920789,0.0045048898520650815,-8.676038244409738e-05,-0.002797751504095761,0.00467336250570255
3.0303030303030303,0.0,0.004848567920515029,0.0045264143442307015,1.644648678479475e-05,-0.0028124946794237187,0.004695872844519059
3.131313131313131,0.0,0.0049554449456516185,0.004461618549223349,6.654972198432573e-05,-0.00282511904846249,0.004729318787676747
3.2323232323232323,0.0,0.004880688932452819,0.00456581865088052,6.186003531170077e-05,-0.0028339522750000018,0.004732331755388978
3.3333333333333335,0.0,0.004662406311923105,0.004329435653836006,-3.3950796973000925e-05,-0.0026975525897277334,0.004505542758481179
3.4343434343434343,0.0,0.004839816224731224,0.004374314026826373,-4.074331936171016e-06,-0.0027642390754672795,0.004624674917861804
3.5353535353535355,0.0,0.004839067505444504,0.0045274654110097024,-2.4420570033291647e-05,-0.002809959874936262,0.004691225395397177
3.6363636363636362,0.0,0.004679098262391671,0.004218502584807181,6.904366489149873e-05,-0.002669280254159655,0.0044682477075091214
3.7373737373737375,0.0,0.004744706013490715,0.004432969158847853,-6.425986944887739e-05,-0.0027533025517015703,0.004598119537877596
3.8383838383838382,0.0,0.004805230512235512,0.00453394371984859,-2.7767263052822773e-05,-0.002801752269625231,0.004675741041780537
3.9393939393939394,0.0,0.004854607979507282,0.004382898662250526,1.155618338613082e-05,-0.002771251992527342,0.004636827054704909
4.040404040404041,0.0,0.004860522813471553,0.0042929305277687995,3.1447583274729994e-05,-0.002746036002372106,0.004603369920084574
4.141414141414141,0.0,0.004872901309925109,0.0044751775632778,-2.1097156154354158e-05,-0.0028044236619608723,0.004686855882026288
4.242424242424242,0.0,0.004834402857682938,0.004174708640798038,-1.5874536837362047e-05,-0.0027027334495442925,0.004540724154319272
4.343434343434343,0.0,0.0047170552773285555,0.004315787024749126,3.3270973765603382e-06,-0.002709852690623304,0.004529774318901327
4.444444444444445,0.0,0.00487344588316763,0.0042695004746379885,-4.4795509508542894e-05,-0.002742883907341685,0.0046019506169457285
4.545454545454545,0.0,0.004801187402263278,0.004500417209033357,-8.701253280977956e-06,-0.0027904813833889907,0.004658115096635264
4.646464646464646,0.0,0.004829815875844132,0.004345379369706729,-1.82607799780256e-05,-0.0027525585736652585,0.004606849396616951
4.747474747474747,0.0,0.004739277734119537,0.004386282972924487,-1.3919978883307356e-05,-0.002737668212113207,0.00457307334601099
4.848484848484849,0.0,0.004836417005959302,0.0043612861882832265,5.8343107281877176e-05,-0.0027593109582727585,0.004618328673587001
4.94949494949495,0.0,0.004715557328122723,0.004242225954520809,-7.347933850982464e-05,-0.0026873349847930596,0.00449941106326066
5.05050505050505,0.0,0.0047739019040755224,0.004284273144842805,-5.24561527246608e-05,-0.0027174525146754984,0.004549801203293225
5.151515151515151,0.0,0.00487709531341715,0.004304795509193204,6.404329599938793e-05,-0.0027545672467831064,0.004618953312202618
5.252525252525253,0.0,0.00487271791955868,0.00434536983467776,-1.4883431307889614e-05,-0.0027654263262709322,0.004631686735170473
5.353535353535354,0.0,0.004799853244794467,0.004207537273242597,-5.291594739472396e-05,-0.002702217155411119,0.004533740170784892
5.454545454545454,0.0,0.0048561430855247004,0.004208600922753585,2.7936107690779557e-05,-0.0027194232024834856,0.004567189551755842
5.555555555555555,0.0,0.004850961397822117,0.0042055633463543044,-3.0309002395401274e-05,-0.0027169574232529265,0.0045629288840587255
5.656565656565657,0.0,0.004726775025168403,0.004304074106942435,5.054186926126513e-05,-0.002709254739633251,0.004531084804225567
5.757575757575758,0.0,0.004795044739498709,0.004274644374681362,3.679895367008341e-05,-0.0027209067342540212,0.004557629872062811
5.858585858585858,0.0,0.004788328559138632,0.004393838303437096,-2.385903332452436e-05,-0.0027546500587727184,0.004603962614405343
5.959595959595959,0.0,0.004599466255948639,0.004418430358825755,-5.382910608279614e-05,-0.002705368984432318,0.00451263648588164
6.0606060606060606,0.0,0.004580936761964151,0.0042522575352587225,-6.386126932750454e-05,-0.002649958289166862,0.004427142157626497
6.161616161616162,0.0,0.00472041331366254,0.004427240662237562,-4.7842116466513395e-05,-0.0027442961927700306,0.004581617899026706
6.262626262626262,0.0,0.004801763020137167,0.004519469657357922,-6.447682607618219e-05,-0.002796369803248527,0.004668359840169249
6.363636363636363,0.0,0.00480886269427094,0.004186442875439013,-2.4074146067447092e-05,-0.002698591670912986,0.004530030252635896
6.4646464646464645,0.0,0.00495352848846504,0.004403271399074269,-1.1367851072812026e-05,-0.0028070399662617923,0.004702648282223171
6.565656565656566,0.0,0.004762540735624505,0.004510987606284809,-7.637612213514106e-05,-0.0027820585025727937,0.004643763683242988
6.666666666666667,0.0,0.004915468494933589,0.004428452913667215,5.162805741021737e-05,-0.0028031764225802413,0.004691812157765924
6.767676767676767,0.0,0.00501275391880979,0.004345063099888382,-3.0240042591881697e-06,-0.0028073451056094515,0.0047145063946205995
6.8686868686868685,0.0,0.005124831488673419,0.004514880772080566,4.2001199474954654e-05,-0.0028919136782261956,0.004849261317696623
6.96969696969697,0.0,0.004918326366933392,0.004329641140616545,-7.427064096888984e-05,-0.002774390252264981,0.004653781995459975
7.070707070707071,0.0,0.004836947838899415,0.004476577335189957,-1.4478415472716572e-05,-0.002794057552226811,0.004667276169309116
7.171717171717171,0.0,0.004940559972808688,0.004360153269073038,2.6066454040270348e-05,-0.0027902139725645174,0.004677660637360644
7.2727272727272725,0.0,0.004945078353012698,0.004440994647551143,1.75433805963343e-05,-0.002815821900169153,0.004713394762819099
7.373737373737374,0.0,0.005024570997069557,0.004630035290983575,3.9347208773247525e-05,-0.0028963818864159397,0.004839859922598596
7.474747474747475,0.0,0.004981383295610576,0.004305312415580139,9.644503854335268e-05,-0.0027860087133572144,0.004683095997367526
7.575757575757575,0.0,0.005131996769264726,0.004511147454015982,2.2981245560403753e-05,-0.0028929432669842128,0.004851621630431848
7.6767676767676765,0.0,0.0050084679071769585,0.004634034807683051,8.964047179442968e-05,-0.0028927508144580027,0.004834637628982001
7.777777777777778,0.0,0.005138352492467797,0.004609077193147943,-8.286409571048021e-06,-0.0029242289056847217,0.004895242753899858
7.878787878787879,0.0,0.005099543069554016,0.00451855489981221,8.290235004592509e-06,-0.0028854293908098677,0.004835319923345913
7.979797979797979,0.0,0.005054335050227949,0.004677171773070706,6.541209262397819e-05,-0.0029194520469895966,0.0048780202533188
8.080808080808081,0.0,0.005212352442782725,0.0046837512305136,-4.822615355611507e-06,-0.0029688311019888973,0.004969190193806547
8.181818181818182,0.0,0.005294540156481558,0.004584996030098858,-3.0008251235997606e-06,-0.0029638608559741245,0.004977843456840059
8.282828282828282,0.0,0.005144292772278439,0.004802429199492028,1.3243151010930757e-05,-0.0029840165915311404,0.0049822182475148715
8.383838383838384,0.0,0.005314535100853233,0.004590586255561782,-9.526694847572174e-05,-0.0029715364069245044,0.004994813419307267
8.484848484848484,0.0,0.005183630150769474,0.004570241350094736,4.359463284550459e-05,-0.002926161450259263,0.004906362008196751
8.585858585858587,0.0,0.005229383437225753,0.004603411696058717,3.764949767261882e-06,-0.0029498385399853405,0.004946199351358648
8.686868686868687,0.0,0.0051654326881278865,0.004831804533134582,6.220119006210392e-05,-0.0029991711663787408,0.00500812098376602
8.787878787878787,0.0,0.005390030339345198,0.0050600751797188395,3.568741924624577e-05,-0.003135031655719211,0.00523322557521588
8.88888888888889,0.0,0.005315405158667135,0.004904969691074005,1.5380336697048157e-05,-0.0030661124549223417,0.005122603648182225
8.98989898989899,0.0,0.005493010952996305,0.005007106997650575,9.689459689499766e-06,-0.003150035385194064,0.005266923000351049
9.09090909090909,0.0,0.005490205353296096,0.004984623514123596,6.549657233926097e-05,-0.0031424486602259073,0.005256908701934303
9.191919191919192,0.0,0.005368220277025405,0.004795858379917662,7.607074943451509e-05,-0.0030492235970829198,0.005107854991954604
9.292929292929292,0.0,0.005551779444722748,0.0050610089013839316,3.0263307731347896e-05,-0.0031838365038320037,0.0053236461676050345
9.393939393939394,0.0,0.00559054009480938,0.005059601638995416,-2.7776184227074052e-05,-0.003195042520141439,0.005345102058862851
9.494949494949495,0.0,0.005784547790247682,0.004991011938682488,7.822119605468482e-05,-0.003232667918679051,0.005433120824651478
9.595959595959595,0.0,0.005859021986562586,0.005236734509669266,-4.3875646356286625e-05,-0.0033287269488695556,0.005574509803639336
9.696969696969697,0.0,0.005835400747719621,0.00524869617415232,1.6336150972930115e-05,-0.0033252290765615825,0.00556536328062528
9.797979797979798,0.0,0.005832448035166717,0.0052254582693872145,1.5076922109677971e-05,-0.0033173718913661796,0.005553947454976063
9.8989898989899,0.0,0.006113320480982388,0.005358712449226962,1.661108749467784e-05,-0.003441609879062805,0.00577319561714546
10.0,0.0,0.005888095762630995,0.005323762736113417,-3.0504298425041156e-05,-0.0033635575496233235,0.0056274406357817676
0.0,0.10126582278481013,0.0059810241292783005,0.00532338692034739,2.35250545778124e-05,-0.0033913233148877065,0.00568097285711095
0.10101010101010101,0.10126582278481013,0.005780595110559952,0.005215742665818077,3.9305794026201124e-05,-0.003298901332913409,0.005520307027025749
0.20202020202020202,0.10126582278481013,0.005825013863191536,0.005258096420539561,0.00010468214701504638,-0.003324933085119329,0.005566215499433599
0.30303030303030304,0.10126582278481013,0.005696928134077886,0.005179743848471631,-7.475843313880678e-05,-0.0032630015947648556,0.005458284942445664
0.40404040404040403,0.10126582278481013,0.005845957078508437,0.005133792012029245,-4.1256776133045636e-05,-0.0032939247271613044,0.0055248722337223714
0.5050505050505051,0.10126582278481013,0.005794122114010661,0.005030097604632142,4.244356635227121e-05,-0.0032472659155928407,0.005452901758379325
0.6060606060606061,0.10126582278481013,0.005594108980030115,0.005110215276593437,8.541259491104815e-05,-0.0032112972769870653,0.005370580994549137
0.7070707070707071,0.10126582278481013,0.005549159302388235,0.004976242660653919,-2.99429215611841e-05,-0.003157620588912646,0.005286292317431931
0.8080808080808081,0.10126582278481013,0.005527284812170137,0.004888252528130258,5.209886721888193e-05,-0.0031246612020901184,0.005237868754820833
0.9090909090909091,0.10126582278481013,0.005501881491364116,0.00482184002320687,2.4471403288560502e-05,-0.0030971164543712962,0.005195521660541009
1.0101010101010102,0.10126582278481013,0.005403389825474025,0.00486831864099458,-5.89043291024138e-05,-0.003081512539940581,0.005157725636783805
1.1111111111111112,0.10126582278481013,0.005328468579989379,0.004659015829974605,-2.568528316470976e-05,-0.002996245322989195,0.005027481044172014
1.2121212121212122,0.10126582278481013,0.005206387113990757,0.004835532855125048,2.274170320589599e-05,-0.003012575990734741,0.005031375595472369
1.3131313131313131,0.10126582278481013,0.005289082927028048,0.004617111931862774,-0.00012997910593839067,-0.0029718584576672465,0.004992245648330811
1.4141414141414141,0.10126582278481013,0.005379316105570578,0.004968290817867205,-5.897216231190986e-05,-0.0031042820770313347,0.005187039786682414
1.5151515151515151,0.10126582278481013,0.005414674995372993,0.0045940740928724485,-1.8489917984464832e-06,-0.0030026247264736323,0.005054583485814042
1.6161616161616161,0.10126582278481013,0.005156670785156463,0.004637563604745184,3.046631301557356e-05,-0.0029382703169704943,0.004917992030121157
1.7171717171717171,0.10126582278481013,0.005233601533428172,0.004678528788091735,2.1321485654827343e-05,-0.002973639096455972,0.004979460313067237
1.8181818181818181,0.10126582278481013,0.004997940537701692,0.004679568030270271,4.539714310494384e-05,-0.002903252570391589,0.00484724112384716
1.9191919191919191,0.10126582278481013,0.005114048691000842,0.0047818660643654375,7.02666247001734e-05,-0.0029687744266098837,0.004957807315748372
2.0202020202020203,0.10126582278481013,0.005064099432253862,0.004529039050699299,2.7183265118427277e-05,-0.002877941544885948,0.0048191296399784376
2.121212121212121,0.10126582278481013,0.0051933293543316075,0.00447631442265671,5.2671589714916233e-05,-0.002900893133096495,0.004875388024735578
2.2222222222222223,0.10126582278481013,0.004976897901395826,0.004581490643898249,-4.520741921269689e-06,-0.002867516563588222,0.004791452742278287
2.323232323232323,0.10126582278481013,0.005047380794875922,0.004605466436642482,1.5026966732540331e-05,-0.002895854169455521,0.004841643168693386
2.4242424242424243,0.10126582278481013,0.005002252180697041,0.004485209521081942,-6.953321050572028e-05,-0.002846238510533695,0.004766338932730952
2.525252525252525,0.10126582278481013,0.005101531201815868,0.004315969065073224,1.1022350569484053e-06,-0.0028252500800667276,0.004757642521984302
2.6262626262626263,0.10126582278481013,0.004944822801267685,0.004615673147387038,4.69386011704605e-05,-0.002868148784596417,0.004789429508186511
2.727272727272727,0.10126582278481013,0.004912159507148952,0.004541596623543758,1.6144693361893945e-05,-0.002836126839207813,0.004737841896481255
2.8282828282828283,0.10126582278481013,0.004993834213133355,0.0045647875966851915,9.596128654734917e-06,-0.0028675865429455636,0.004793761543105203
2.929292929292929,0.10126582278481013,0.004977644484123023,0.004650268467390844,2.0414352827283494e-05,-0.0028883738854541597,0.0048224276542147065
3.0303030303030303,0.10126582278481013,0.004842937492821783,0.004456633803652575,-4.031766057798253e-05,-0.0027898713889423074,0.004662328390516394
3.131313131313131,0.10126582278481013,0.0047833989348388135,0.004414236816287136,-0.00017478001754494117,-0.0027592907253377844,0.004619846373909716
3.2323232323232323,0.10126582278481013,0.004860764338127925,0.004551522780185161,-3.425055382580277e-05,-0.002823686135493926,0.0047141308060523615
3.3333333333333335,0.10126582278481013,0.0048912634380066855,0.0044641953326208855,-1.885069083922391e-05,-0.002806637631188271,0.004692441648315064
3.4343434343434343,0.10126582278481013,0.004966562184006035,0.004397274569113443,-9.890731686099323e-06,-0.002809151025935843,0.004707835963140624
3.5353535353535355,0.10126582278481013,0.004900236450515719,0.004489616236567837,-1.1056665444580914e-05,-0.0028169558061250668,0.004708413410153337
3.6363636363636362,0.10126582278481013,0.004817767007486149,0.004367109985251621,-6.39465489983135e-05,-0.002755463097821331,0.004610322943144467
3.7373737373737375,0.10126582278481013,0.004992976093476493,0.004565314983674505,-3.380559358450063e-05,-0.0028674873231452993,0.004793832605753636
3.8383838383838382,0.10126582278481013,0.0048854349767931465,0.004555093439327438,1.5500145295054191e-06,-0.0028321585248361754,0.0047289264690901665
3.9393939393939394,0.10126582278481013,0.00477412890603503,0.004368670800414183,7.057643075479907e-06,-0.0027428399119347633,0.004584882032898942
4.040404040404041,0.10126582278481013,0.004789225021840642,0.004267646850815941,0.00011017777265219464,-0.002717061561796975,0.004554907495828691
4.141414141414141,0.10126582278481013,0.004761099106217751,0.004471567112016397,-6.900505310088845e-07,-0.0027697998654702444,0.004623137937006572
4.242424242424242,0.10126582278481013,0.0049368743788527165,0.004232477823595721,-6.0111141811910665e-05,-0.0027508056607345316,0.004626253979359514
4.343434343434343,0.10126582278481013,0.004749929404948155,0.004206592979464306,4.4236261401465355e-05,-0.0026869567153237385,0.004503565776085865
4.444444444444445,0.10126582278481013,0.005083455348446259,0.004406049265200407,4.252224099602688e-05,-0.0028468513840939997,0.004781449375164101
4.545454545454545,0.10126582278481013,0.005026186287627869,0.0044087824600258394,1.3051770973680443e-05,-0.0028304906242961124,0.0047477426718631685
4.646464646464646,0.10126582278481013,0.004769591142254936,0.0043303331294514,-1.035591568252954e-05,-0.0027299772815119008,0.0045658720825298505
4.747474747474747,0.10126582278481013,0.0049986275940451545,0.004273792523074989,3.5622359199641305e-06,-0.002781726035136043,0.004678516985728392
4.848484848484849,0.10126582278481013,0.004905239006585894,0.004198243588935378,6.962972199938524e-05,-0.0027310447786563813,0.004594319930820113
4.94949494949495,0.10126582278481013,0.0048496546959258865,0.004344223554464224,-3.752672994830193e-05,-0.002758163475117033,0.004618188992040099
5.05050505050505,0.10126582278481013,0.004866179186866229,0.004223575252382255,-0.0001076307961431598,-0.002726926331774545,0.004582615734354706
5.151515151515151,0.10126582278481013,0.004818673934053116,0.004332089637082917,9.674649368266425e-06,-0.00274522907134081,0.004594776652762597
5.252525252525253,0.10126582278481013,0.0048228651989928855,0.004464870033336017,8.276259231121046e-06,-0.0027863205696986707,0.004654227361210103
5.353535353535354,0.10126582278481013,0.004747551895658468,0.004481858974377874,4.292800411421425e-06,-0.0027688232610109027,0.00462044435987561
5.454545454545454,0.10126582278481013,0.004721004373517758,0.0042718872103350855,-1.5380424581875045e-05,-0.002697867475155853,0.004513315200804473
5.555555555555555,0.10126582278481013,0.004856467864642429,0.0042919721475600464,-1.0324605322388712e-05,-0.0027445320036607428,0.0046003043396709384
5.656565656565657,0.10126582278481013,0.0047013026852502,0.004261394239789112,-1.2099119404941391e-05,-0.0026888090775117933,0.004497561871602147
5.757575757575758,0.10126582278481013,0.0046877261770984675,0.004313167557545993,-5.0998040317466354e-05,-0.0027002681203933377,0.00451298626471984
5.858585858585858,0.10126582278481013,0.004824373733378472,0.004408408935776732,-3.938100267262709e-05,-0.0027698348007465616,0.004630927723330453
5.959595959595959,0.10126582278481013,0.0046630395450793834,0.004348809267913284,-0.00010966366519129314,-0.0027035546438978,0.004518128884368486
6.0606060606060606,0.10126582278481013,0.004781729162209291,0.004272806694566868,1.6015679234270434e-05,-0.0027163607570328476,0.004548755429775131
6.161616161616162,0.10126582278481013,0.00493620716354667,0.004421890288025,-4.364163983908584e-05,-0.002807429235471501,0.004700808669026677
6.262626262626262,0.10126582278481013,0.004882280013945969,0.004499133103032892,-7.635473975119194e-05,-0.0028144239350936582,0.004704287334252644
6.363636363636363,0.10126582278481013,0.004888857679545836,0.004389298312982686,2.234124241747813e-06,-0.002783446797758556,0.004659209085230812
6.4646464646464645,0.10126582278481013,0.004820949041540513,0.004473213798726411,-7.196285078731495e-05,-0.002788248852080077,0.004658496702837856
6.565656565656566,0.10126582278481013,0.004887735826454023,0.004517299083273904,-3.3679901014036093e-06,-0.0028215104729183782,0.004713451174977379
6.666666666666667,0.10126582278481013,0.004982620597058775,0.004464867568056384,4.554633125623229e-05,-0.0028342464495345475,0.004745633014851793
6.767676767676767,0.10126582278481013,0.005019744819557794,0.004429819906219749,1.7421796362845193e-05,-0.0028348694177332628,0.004752419119370996
6.8686868686868685,0.10126582278481013,0.004826196423831365,0.004343217993829018,2.5894459026950026e-05,-0.0027508243252981146,0.004603965994945018
6.96969696969697,0.10126582278481013,0.004797177443901659,0.004342832480239976,-2.5748974806439885e-05,-0.002742002977242491,0.004587129428298944
7.070707070707071,0.10126582278481013,0.005053624414901479,0.004381997405719401,-2.457918086114535e-05,-0.002830686546186264,0.004753721102824269
7.171717171717171,0.10126582278481013,0.00480493942564039,0.004590115897410507,-6.756262050596039e-05,-0.0028185165969152695,0.004702666489883851
7.2727272727272725,0.10126582278481013,0.004911832182293414,0.004458923672592445,3.291737720810303e-05,-0.0028112267564657577,0.004702112458539869
7.373737373737374,0.10126582278481013,0.0046800500849178564,0.0045269069704337896,-4.7588923040253734e-05,-0.0027620871166054934,0.00460612616866887
7.474747474747475,0.10126582278481013,0.004902789627290598,0.0044191922157704325,-8.962516614554233e-05,-0.002796594552918309,0.004682342813606398
7.575757575757575,0.10126582278481013,0.005153733326193286,0.004423557397567408,-2.5228717953230724e-05,-0.0028731872171282075,0.004830414219458342
7.6767676767676765,0.10126582278481013,0.005133724388741311,0.004464204371232716,-5.4260332200270356e-05,-0.002879378627992208,0.004834778636268586
7.777777777777778,0.10126582278481013,0.005053073380267153,0.004685983107356625,0.00010664578515732329,-0.0029217169462871333,0.004883389370007915
7.878787878787879,0.10126582278481013,0.005125012629802191,0.004635833419636765,1.3426244652099997e-05,-0.002928253814831687,0.00489883066834239
7.979797979797979,0.10126582278481013,0.004879361521698515,0.004479954283849595,-9.479808444782302e-06,-0.002807794741664433,0.004692452694863816
8.080808080808081,0.10126582278481013,0.005143068189541349,0.004641893733254316,-3.8176084081000776e-05,-0.002935488576838699,0.00491214047789286
8.181818181818182,0.10126582278481013,0.005258396276976283,0.004609288668893295,-7.37458084563327e-05,-0.0029603054837608737,0.0049674060027023485
8.282828282828282,0.10126582278481013,0.005258900067068332,0.004703930428393091,1.9960704188375256e-05,-0.002988849148638427,0.005004666485825765
8.383838383838384,0.10126582278481013,0.005334147223696194,0.004675555829464303,0.00012112499959388203,-0.0030029109159481495,0.005041612794345647
8.484848484848484,0.10126582278481013,0.0051585861685827265,0.004843189654939299,9.69857248867316e-05,-0.0030005327470566077,0.005011158031743427
8.585858585858587,0.10126582278481013,0.005285079360745452,0.004588976834528158,-9.628379400092656e-05,-0.002962216858582083,0.004976492458456207
8.686868686868687,0.10126582278481013,0.005210481521993973,0.004720029718427115,6.863792345323025e-05,-0.0029791533721263267,0.004984807327907148
8.787878787878787,0.10126582278481013,0.005400833847247412,0.004944950890163521,5.2657404245333206e-05,-0.0031037354212232796,0.005188738364746914
8.88888888888889,0.10126582278481013,0.005345997416685718,0.004790352373607479,7.296696189456774e-06,-0.003040904937087959,0.005090983456420099
8.98989898989899,0.10126582278481013,0.005378717321104503,0.004943756156446868,3.816537404939714e-06,-0.0030967420432654116,0.005174968771174508
9.09090909090909,0.10126582278481013,0.00544055343607991,0.0049726317297018666,-2.618412499626789e-06,-0.0031239555497345325,0.005222340465245565
9.191919191919192,0.10126582278481013,0.005677491926715382,0.004939427851550526,-2.944190832628998e-05,-0.0031850759334797725,0.00534704598883513
9.292929292929292,0.10126582278481013,0.005566075678436942,0.004703488442259168,-7.355868436474252e-05,-0.0030808692362088333,0.005190400948136978
9.393939393939394,0.10126582278481013,0.005502545401801746,0.004863406428487001,-3.14310225458619e-05,-0.0031097855490866237,0.005212732204411508
9.494949494949495,0.10126582278481013,0.005670251391827457,0.005052990544851464,-1.6576919043206516e-05,-0.003216972581003676,0.005388280060072918
9.595959595959595,0.10126582278481013,0.005800733125278541,0.005154756203595413,1.1126173785926052e-05,-0.003286646798662186,0.005506271208495593
9.696969696969697,0.10126582278481013,0.0057213913854311255,0.0053569168027468635,-0.00010486817931271291,-0.0033234924564533967,0.005551112624891258
9.797979797979798,0.10126582278481013,0.005889724698660309,0.005284908178780755,3.8980468326289746e-05,-0.0033523898632323193,0.005612220209878521
9.8989898989899,0.10126582278481013,0.005730248640280269,0.005233632489939817,5.8591692291967705e-05,-0.003289164339066026,0.005499721994719383
10.0,0.10126582278481013,0.005995516803960484,0.00517537534942804,-0.00011674914782362947,-0.0033512676460165573,0.0056340547539311244
0.0,0.20253164556962025,0.005947393392630815,0.005267839785504759,-6.855296336560812e-05,-0.003364569953440672,0.005639663745744544
0.10101010101010101,0.20253164556962025,0.006063938085138925,0.0053769661746796826,2.20501773914884e-05,-0.003432271277945582,0.005751432778523356
0.20202020202020202,0.20253164556962025,0.005664359298243255,0.005257407090303588,4.371163751347677e-05,-0.0032765299165640528,0.005472767577553467
0.30303030303030304,0.20253164556962025,0.005743256199762679,0.005177979513506491,-4.4883214688997195e-05,-0.003276370713980751,0.005483068865525722
0.40404040404040403,0.20253164556962025,0.005712878986256898,0.005200559585224817,1.6006285597227463e-05,-0.0032740315714445147,0.005474797470538749
0.5050505050505051,0.20253164556962025,0.005689765213557549,0.004987535155516459,-5.708118412231775e-05,-0.0032031901107222025,0.0053740865147866475
0.6060606060606061,0.20253164556962025,0.005673833820888863,0.005004907051132669,-2.4477767780173365e-05,-0.003203622261606459,0.005370872499302571
0.7070707070707071,0.20253164556962025,0.0055925114929723406,0.004975385890982454,-8.59946860311286e-05,-0.0031703692151864383,0.005312996522114424
0.8080808080808081,0.20253164556962025,0.0053071297436642325,0.004863782048591946,-2.8488719748412358e-05,-0.0030512735376768533,0.005100168073403767
0.9090909090909091,0.20253164556962025,0.0055765039898060895,0.004992803997708479,-2.6607087289567973e-05,-0.0031707923962543704,0.005308975504332072
1.0101010101010102,0.20253164556962025,0.005384644063037565,0.004946442963604587,-2.337545977292584e-05,-0.003099326107992646,0.005179622976340116
1.1111111111111112,0.20253164556962025,0.005480312644858445,0.004898164406287034,4.538822422607595e-05,-0.003113543115343644,0.00521426401103141
1.2121212121212122,0.20253164556962025,0.00544021097608306,0.004697631359690488,-1.1544038480264487e-06,-0.0030413527007320646,0.005109553225988223
1.3131313131313131,0.20253164556962025,0.005470352396693871,0.004827303973217084,4.6630750341881163e-05,-0.0030892969109732864,0.0051794872733723595
1.4141414141414141,0.20253164556962025,0.005322690206481238,0.004648880437653735,2.9312729193527195e-05,-0.002991471193240492,0.005020074470508125
1.5151515151515151,0.20253164556962025,0.004927053332717807,0.004734177245181929,-4.4180692791377245e-05,-0.0028983691733699204,0.004834108062459936
1.6161616161616161,0.20253164556962025,0.005143644088464958,0.004822594559229361,-1.7075007939714846e-05,-0.0029898715943082956,0.004990957569801029
1.7171717171717171,0.20253164556962025,0.005225893456144436,0.0046841512922874235,-1.103678226764726e-05,-0.002973013424529558,0.004977220669183184
1.8181818181818181,0.20253164556962025,0.00501467389039788,0.004881966686796602,2.210291323421695e-05,-0.002968992173158344,0.004949802793675638
1.9191919191919191,0.20253164556962025,0.005188904194604061,0.004444968086517006,4.030673353725248e-05,-0.0028901616843363203,0.004860332126535215
2.0202020202020203,0.20253164556962025,0.0051505176154623125,0.004594657604636117,-4.607285508002776e-06,-0.0029235525660295286,0.004896315856087222
2.121212121212121,0.20253164556962025,0.005242731974271126,0.004644493253961663,-3.490562073932481e-05,-0.0029661675684698368,0.004971054019057372
2.2222222222222223,0.20253164556962025,0.005098026433355568,0.00444279600644318,-0.0001295855884707409,-0.002862246731939624,0.004809282240150145
2.323232323232323,0.20253164556962025,0.005009729000382326,0.004390870149186436,-1.4598091201648642e-05,-0.0028201797448706286,0.004730823936038632
2.4242424242424243,0.20253164556962025,0.005053190733695207,0.004506567046303382,-3.346433591764971e-05,-0.0028679273339995764,0.00480361321091837
2.525252525252525,0.20253164556962025,0.004915587438168177,0.00470811420956844,-6.093117617457561e-05,-0.0028871104943209848,0.0048163606625014465
2.6262626262626263,0.20253164556962025,0.004801691780420875,0.004470519731527346,-3.491006262552894e-05,-0.002781663453584466,0.004645362086260886
2.727272727272727,0.20253164556962025,0.0050454866826906385,0.004567668304112323,-5.76938057428131e-05,-0.002883946496040888,0.004825391769371409
2.8282828282828283,0.20253164556962025,0.0048311789555644455,0.004437454256066102,8.77517748890793e-05,-0.0027805899634891643,0.0046493285406787556
2.929292929292929,0.20253164556962025,0.005027091693781123,0.00446341159966525,5.421976012396815e-06,-0.0028471509880339117,0.004770304269182167
3.0303030303030303,0.20253164556962025,0.004893297135299938,0.004470853891952645,-1.987292839750957e-05,-0.002809245308175775,0.004696473106016419
3.131313131313131,0.20253164556962025,0.00492884963821274,0.004417887817396516,-2.1543698219845585e-05,-0.0028040212366827765,0.0046944200009767
3.2323232323232323,0.20253164556962025,0.004792174051550277,0.00437977117224197,3.732917386194741e-05,-0.0027515835671376738,0.0046003132827962204
3.3333333333333335,0.20253164556962025,0.005007939444993928,0.004370016125246786,1.3864290449245931e-05,-0.002813386671072214,0.004721472116449393
3.4343434343434343,0.20253164556962025,0.004857720993197856,0.004504647459566747,8.410806371700199e-05,-0.0028087105358293807,0.004693421348077563
3.5353535353535355,0.20253164556962025,0.004919948819698891,0.0043575387626832015,-1.7299253333605624e-05,-0.0027832462747146274,0.0046643403131617096
3.6363636363636362,0.20253164556962025,0.004842932648283329,0.004358413986266619,-1.7911950190902043e-05,-0.0027604039903649843,0.00461987296757678
3.7373737373737375,0.20253164556962025,0.004798539297929919,0.0044220354305958675,6.812651905164982e-05,-0.002766172418557736,0.004623309379704597
3.8383838383838382,0.20253164556962025,0.004758224087052921,0.004363006745992106,3.8384905242334614e-05,-0.0027363692499135076,0.004573923998087484
3.9393939393939394,0.20253164556962025,0.00477836509717982,0.004399745553624381,3.655575881558998e-05,-0.0027534331952412607,0.004601190315470631
4.040404040404041,0.20253164556962025,0.004831260227878438,0.00434074837279529,4.9461838277973776e-05,-0.0027516025802021182,0.0046064331399715925
4.141414141414141,0.20253164556962025,0.004815245991923168,0.004288083840783184,2.6617058049452563e-05,-0.0027309989498119054,0.004574735387352354
4.242424242424242,0.20253164556962025,0.004907302754573368,0.004460106615028748,5.982724630375519e-05,-0.002810222810880635,0.004700831390620807
4.343434343434343,0.20253164556962025,0.00487147551475697,0.004461925794343825,-7.04796497740994e-07,-0.0028000203927302384,0.004680159689531254
4.444444444444445,0.20253164556962025,0.004835289486466282,0.004261153397508275,1.3570534867594678e-05,-0.002728932865192367,0.0045753792138013664
4.545454545454545,0.20253164556962025,0.004899387480533957,0.004352079650776511,-2.1330748612899238e-05,-0.0027754401393931404,0.004650100581527672
4.646464646464646,0.20253164556962025,0.005024517894402454,0.004410380870766368,2.065990510776898e-05,-0.0028304696295506464,0.0047474711568511576
4.747474747474747,0.20253164556962025,0.004694457098582925,0.004309276475024623,7.231068880283462e-05,-0.0027011200720822638,0.004515945544163031
4.848484848484849,0.20253164556962025,0.004911738673066277,0.00448506150553278,5.492947936528935e-05,-0.0028190400535797167,0.00471386838978462
4.94949494949495,0.20253164556962025,0.004866655416317896,0.0043009148907416535,0.00013186527453047986,-0.002750271092117865,0.004615549635992494
5.05050505050505,0.20253164556962025,0.0048116802060619865,0.004579692392850971,-8.473530733173318e-05,-0.0028174117796738872,0.004702273258641814
5.151515151515151,0.20253164556962025,0.004641294765628102,0.0044406691428154794,9.98342265768005e-05,-0.0027245891725330745,0.004547593397320525
5.252525252525253,0.20253164556962025,0.004752037228998944,0.00430647569556568,-9.204965904276464e-05,-0.002717553877369387,0.004548458786267312
5.353535353535354,0.20253164556962025,0.004872387358126092,0.004402204869590518,-0.00010257500470870383,-0.002782377668314983,0.004658528074593137
5.454545454545454,0.20253164556962025,0.004609670607620229,0.00431826358197293,-1.0514584945043454e-05,-0.0026783802568779475,0.004471132119929332
5.555555555555555,0.20253164556962025,0.004867484237049007,0.004231561119226965,2.6611493172084056e-06,-0.0027297136068827918,0.0045827367917953
5.656565656565657,0.20253164556962025,0.004761857287478031,0.004411030619761887,-1.4938223523160308e-05,-0.0027518663721719755,0.004596569057933187
5.757575757575758,0.20253164556962025,0.004784409590353615,0.00431587218356739,2.2642489720017933e-05,-0.0027300845321763015,0.004568365748753086
5.858585858585858,0.20253164556962025,0.004822500943828166,0.004304578122897,-3.9618010389395743e-05,-0.0027381237200175498,0.004586042397223972
5.959595959595959,0.20253164556962025,0.004779669084177178,0.0043467484607353475,3.0331344989929566e-05,-0.0027379252634737576,0.00457888626984111
6.0606060606060606,0.20253164556962025,0.004714257400210048,0.004279628960969836,2.493118460658907e-06,-0.002698165908353965,0.004512670276734236
6.161616161616162,0.20253164556962025,0.004666133932233034,0.004342729814588941,-6.356337092033685e-05,-0.0027026591240465925,0.004514473399639315
6.262626262626262,0.20253164556962025,0.00487426599549644,0.004283616115983527,-2.9933785714855733e-05,-0.00274736463344399,0.004607715241488923
6.363636363636363,0.20253164556962025,0.004978943983918176,0.004110000701944818,-1.688513809891838e-05,-0.002726683405758898,0.004606449936751742
6.4646464646464645,0.20253164556962025,0.004811827555373131,0.004482552981169799,3.940967434441019e-05,-0.002788314160962879,0.004656431365941668
6.565656565656566,0.20253164556962025,0.004833919552333307,0.0043645523083305285,5.930734863016158e-05,-0.0027595415581991504,0.004618306230098627
6.666666666666667,0.20253164556962025,0.00510101768907721,0.004271959365600102,4.7429392066074785e-05,-0.0028118931164031937,0.004741880074017807
6.767676767676767,0.20253164556962025,0.004776772694165077,0.004205913034102757,-2.9197931265112977e-06,-0.00269480571848035,0.0045184728462609155
6.8686868686868685,0.20253164556962025,0.0050782339376224716,0.004436381908179054,4.075672250994707e-05,-0.002854384753740458,0.00479019232655215
6.96969696969697,0.20253164556962025,0.0048830767703565234,0.004458676805899253,1.5893792931379406e-05,-0.002802526072876733,0.0046853958536293
7.070707070707071,0.20253164556962025,0.005080984896050849,0.004462084772474784,2.9688713418677244e-05,-0.0028629209005576893,0.004801819129863046
7.171717171717171,0.20253164556962025,0.005024261984320475,0.004359363626711746,3.02671254233726e-05,-0.002815087683309666,0.004727306111107279
7.2727272727272725,0.20253164556962025,0.004975345903013599,0.004458036411577688,0.00013570223582564853,-0.0028300146943773864,0.004743746156381306
7.373737373737374,0.20253164556962025,0.005033408560921593,0.004635333075507711,8.852769891520674e-06,-0.002900622490928791,0.004846671475525785
7.474747474747475,0.20253164556962025,0.005037238799876995,0.004650756175105764,0.00011131981494963429,-0.0029063984924948276,0.004859373887329684
7.575757575757575,0.20253164556962025,0.004908987011525675,0.004597144173997732,-2.3528014248928117e-05,-0.0028518393556570217,0.004760906184535331
7.6767676767676765,0.20253164556962025,0.004979280432299233,0.004722976333734359,1.2721101562343956e-05,-0.0029106770298100776,0.004856253793923037
7.777777777777778,0.20253164556962025,0.0050712722059518215,0.0045596848390833935,3.189414959601646e-05,-0.002889287113510564,0.004836132373769173
7.878787878787879,0.20253164556962025,0.005183951403282413,0.00440418654456944,0.00010037316323401824,-0.0028764413843555556,0.004844517165684806
7.979797979797979,0.20253164556962025,0.005119175804162725,0.004709298333803012,7.479546649294891e-06,-0.002948542241389721,0.004927057281638902
8.080808080808081,0.20253164556962025,0.005116731796130442,0.004686819868407017,-3.774790182024512e-06,-0.002941065499361238,0.004915899435112125
8.181818181818182,0.20253164556962025,0.0053345182524960144,0.004477914141637536,9.579169587429278e-05,-0.0029437297182400655,0.004964757141231635
8.282828282828282,0.20253164556962025,0.005124583433117353,0.004494664336834673,2.211698363566049e-05,-0.002885774330985608,0.004840614418513766
8.383838383838384,0.20253164556962025,0.005178615707588572,0.004675566872865789,-7.965268002449672e-05,-0.002956254774136308,0.0049482376487113835
8.484848484848484,0.20253164556962025,0.005284185917118382,0.004746158335763568,-9.745931336858561e-06,-0.0030091032758645855,0.0050367987517953555
8.585858585858587,0.20253164556962025,0.005370259673536455,0.004857767723590427,3.925537344642101e-05,-0.003068408219138065,0.005133687277308328
8.686868686868687,0.20253164556962025,0.005390089357534377,0.004674657759807511,5.38813918962453e-05,-0.0030194241352025663,0.005071230129412192
8.787878787878787,0.20253164556962025,0.00521889068972406,0.0046282384139548095,-7.33016504315786e-05,-0.002954138731103661,0.0049516926272893174
8.88888888888889,0.20253164556962025,0.005443578382872896,0.004729403371591193,-1.527971406009197e-05,-0.003051894526339227,0.005124024230349082
8.98989898989899,0.20253164556962025,0.005327086630857846,0.004830877628361059,6.442731079134065e-05,-0.0030473892777656713,0.0050983506782722125
9.09090909090909,0.20253164556962025,0.005649636857211102,0.004901159500066811,1.258159536207278e-05,-0.003165238907183374,0.005315116611931583
9.191919191919192,0.20253164556962025,0.00555935982937947,0.004937495163513437,1.5077254004935066e-05,-0.003149056497867872,0.005276050597104777
9.292929292929292,0.20253164556962025,0.005633296572910512,0.005024994455278745,-4.899583383229313e-05,-0.0031974873084567768,0.005355792871772594
9.393939393939394,0.20253164556962025,0.005631922948040484,0.004986721003697231,4.420902035687357e-05,-0.0031855931855213145,0.005339192571693305
9.494949494949495,0.20253164556962025,0.0059654540882184545,0.005189472422815037,-4.083587037413181e-05,-0.0033464779533100477,0.005618247923538866
9.595959595959595,0.20253164556962025,0.005753278187265638,0.005228944253738214,-6.829708037397573e-05,-0.0032946667323011554,0.0055111242469092665
9.696969696969697,0.20253164556962025,0.005817469813340613,0.005016093610747422,-1.2645667501316471e-05,-0.0032500690272264108,0.0054611039834649
9.797979797979798,0.20253164556962025,0.005818480018076336,0.005394133753982967,7.427146787523941e-05,-0.0033637841316177903,0.005619811203861925
9.8989898989899,0.20253164556962025,0.005850723197632449,0.005318364495066083,-2.9635913704569985e-05,-0.0033507263078095596,0.005603777223899018
10.0,0.20253164556962025,0.005818754434349891,0.0054046531551757045,-7.776369089694598e-05,-0.0033670222768576786,0.00562476408012649
0.0,0.3037974683544304,0.005997786088489207,0.005327153588513521,2.1299205372902553e-05,-0.003397481903100818,0.005692296250451478
0.10101010101010101,0.3037974683544304,0.005766155813654668,0.005052963248681092,-1.0201575836777795e-05,-0.003245735718700728,0.005444734085678391
0.20202020202020202,0.3037974683544304,0.005736209252555438,0.005247686867118969,3.7495883455205645e-05,-0.003295168835902322,0.005508602536631435
0.30303030303030304,0.3037974683544304,0.005686433704841869,0.005389059471609318,1.1917340267214275e-05,-0.0033226479529353562,0.005543770099881877
0.40404040404040403,0.3037974683544304,0.005620861797338337,0.004997388612105408,-4.027065752934707e-05,-0.0031854751228331236,0.0053369668095759205
0.5050505050505051,0.3037974683544304,0.005571792663215093,0.0051719047213649606,-1.3792083121514174e-05,-0.003223109215374016,0.005383053205389708
0.6060606060606061,0.3037974683544304,0.005655739758026037,0.005139146601316152,-8.516904656953909e-05,-0.0032384659078026562,0.0054179613826999835
0.7070707070707071,0.3037974683544304,0.005351727996642664,0.005113744649966156,4.3987117616796996e-05,-0.003139641793982646,0.005237347714611812
0.8080808080808081,0.3037974683544304,0.005335243673336391,0.004817301701956992,-8.782642765378299e-05,-0.0030457636125880145,0.0050983215628104825
0.9090909090909091,0.3037974683544304,0.005509346293015299,0.0049184137377030505,1.888457458830098e-05,-0.0031283280092155048,0.005239037665423854
1.0101010101010102,0.3037974683544304,0.0053620431600070965,0.004872947736306485,9.986117458667822e-06,-0.0030704972688940743,0.0051350238149053245
1.1111111111111112,0.3037974683544304,0.005546727999309136,0.004828114278117869,3.84156923555095e-07,-0.003112452683228101,0.005224618911778598
1.2121212121212122,0.3037974683544304,0.005450568954211699,0.004719222377323773,-1.3477625256557472e-05,-0.0030509373994606413,0.00512424235692804
1.3131313131313131,0.3037974683544304,0.0053724111000819,0.00476169387775179,6.447389003596659e-05,-0.003040231493350107,0.005095804472030442
1.4141414141414141,0.3037974683544304,0.005372841441992673,0.004576453856696493,8.958310044215756e-05,-0.0029847885896067496,0.005024626306532107
1.5151515151515151,0.3037974683544304,0.005163023288430844,0.00479017573820328,8.232349587604516e-06,-0.0029859597079902375,0.0049870840681173435
1.6161616161616161,0.3037974683544304,0.005156621023240572,0.0047668640161436385,-0.00011000573351947423,-0.002977045511815263,0.004976859000351316
1.7171717171717171,0.3037974683544304,0.00503262690902077,0.004423367710353901,8.955521736722918e-06,-0.0028367983858124013,0.00475737288247301
1.8181818181818181,0.3037974683544304,0.005012942402645339,0.00475264965826037,2.6499066393170636e-05,-0.002929677618271713,0.004888212138517504
1.9191919191919191,0.3037974683544304,0.0050518103216248295,0.004602246982439597,2.0416057424988778e-06,-0.002896217191219328,0.004842705701253844
2.0202020202020203,0.3037974683544304,0.00499421303716134,0.004590943277756526,-1.142030751050112e-05,-0.00287554689447536,0.004805326892081451
2.121212121212121,0.3037974683544304,0.0049800195850207025,0.004618821954985021,2.846836239539829e-05,-0.002879652462001717,0.004809856428882762
2.2222222222222223,0.3037974683544304,0.005122882405862689,0.004660417631260217,3.287376759046711e-06,-0.002934990011136872,0.004908021757841057
2.323232323232323,0.3037974683544304,0.004871708678335369,0.004595394986167912,-9.975780803511569e-05,-0.0028401310993509845,0.004742744959595043
2.4242424242424243,0.3037974683544304,0.005040654112859786,0.004659753004584343,2.5352579631597284e-05,-0.0029101221352332385,0.004861606428088991
2.525252525252525,0.3037974683544304,0.004877076194143969,0.004646842950651038,-3.0649683539559255e-05,-0.002857175743438502,0.004766427665270753
2.6262626262626263,0.3037974683544304,0.004985333729727684,0.0044729969896321765,7.741362305074747e-05,-0.002837499215807958,0.0047518259972074844
2.727272727272727,0.3037974683544304,0.004978292106072033,0.004561776362718929,-2.7902530576633486e-05,-0.0028620205406372883,0.004783897602822239
2.8282828282828283,0.3037974683544304,0.0049687166376870835,0.004382083757878947,5.435001515608299e-06,-0.0028052401186698093,0.004702930919002306
2.929292929292929,0.3037974683544304,0.004803036922891691,0.004627485296222636,-2.667360143238911e-05,-0.002829156665734298,0.004717937637841559
3.0303030303030303,0.3037974683544304,0.0048849557031323335,0.004431258109363955,3.036486578407176e-05,-0.0027948641437488867,0.004674944615201588
3.131313131313131,0.3037974683544304,0.004811818291918807,0.004277636303466752,-7.237864634754661e-05,-0.0027268363786156677,0.0045699316202023384
3.2323232323232323,0.3037974683544304,0.005039011557670452,0.004447862321247908,1.086916410265456e-05,-0.002846062163675508,0.004771021010182512
3.3333333333333335,0.3037974683544304,0.004852683768037148,0.0044160119604762125,-2.3870945538143362e-06,-0.0027806087185540083,0.004649753641026649
3.4343434343434343,0.3037974683544304,0.004959244864700729,0.004497063243612641,6.754911744657766e-06,-0.0028368924324940112,0.004745080245316199
3.5353535353535355,0.3037974683544304,0.004794609758076824,0.0042399473220995415,4.792754077918349e-05,-0.00271036712405291,0.004543504635152233
3.6363636363636362,0.3037974683544304,0.0047043821839464406,0.00456826735816349,8.890331815809038e-05,-0.002781794862632979,0.004640378671723341
3.7373737373737375,0.3037974683544304,0.005013971913234352,0.004283072355268331,3.324042238503403e-05,-0.0027891132805508046,0.004691772951938515
3.8383838383838382,0.3037974683544304,0.0047549091392832445,0.004230946029531958,4.709388658647699e-05,-0.0026957565506445604,0.00451652020769058
3.9393939393939394,0.3037974683544304,0.004885755430413097,0.00439228233021652,-3.567104310112189e-05,-0.0027834113281888853,0.0046590718192927915
4.040404040404041,0.3037974683544304,0.004804308082334554,0.0044114931959902326,0.000122340388602854,-0.0027647403834974355,0.004625297554065464
4.141414141414141,0.3037974683544304,0.004864394691895374,0.004433160934336814,8.728125531122293e-05,-0.002789266687869656,0.004666204145078751
4.242424242424242,0.3037974683544304,0.004975079154954184,0.004502757625004694,1.89366264873636e-05,-0.0028433510339876634,0.004756652080517751
4.343434343434343,0.3037974683544304,0.004716539873411902,0.004290057992462717,-6.903683167228656e-06,-0.002701979359762386,0.004518435498931195
4.444444444444445,0.3037974683544304,0.004739616702662043,0.004482400632260108,-5.311963090819452e-05,-0.0027666052004766454,0.004617302902898985
4.545454545454545,0.3037974683544304,0.004702071700167523,0.004360312715330949,-8.745548737318667e-05,-0.0027187153246495416,0.004543374034037902
4.646464646464646,0.3037974683544304,0.00482309804792843,0.004245112705796534,1.7893675367748634e-05,-0.002720463226117489,0.00456175650502493
4.747474747474747,0.3037974683544304,0.0048963563638965675,0.004193979597674127,-6.148783147071451e-05,-0.002727100788471208,0.004586926430095656
4.848484848484849,0.3037974683544304,0.004900846935396979,0.0043534478610415175,6.158703711670347e-05,-0.0027762884389315487,0.004652591347219688
4.94949494949495,0.3037974683544304,0.004874138684819894,0.004360487114924658,-3.591047664356692e-05,-0.0027703877399233652,0.004639108271399484
5.05050505050505,0.3037974683544304,0.004857436121117697,0.0043043791154959744,3.58901445889333e-05,-0.0027485445709841015,0.004606298183302716
5.151515151515151,0.3037974683544304,0.00456356647174476,0.004405947542853988,-7.06883110560436e-05,-0.0026908542043796242,0.004488504062774057
5.252525252525253,0.3037974683544304,0.0049060245452218895,0.004311253474971951,5.803211848692623e-05,-0.002765183406058152,0.004638423350150357
5.353535353535354,0.3037974683544304,0.004573600036356739,0.0042675468056174,1.3246314147670883e-05,-0.002652344052592242,0.004428571688466532
5.454545454545454,0.3037974683544304,0.004786197817962405,0.004380187856172361,-5.7047820228338853e-05,-0.0027499157022404298,0.004597722589492405
5.555555555555555,0.3037974683544304,0.004616469111796368,0.004191479996692289,7.767753974993777e-05,-0.0026423847325465974,0.004421374795914055
5.656565656565657,0.3037974683544304,0.004948291806056817,0.004445548361915875,-5.700185511736471e-05,-0.0028181520503918075,0.004718089564408967
5.757575757575758,0.3037974683544304,0.0046914601328900025,0.0044084984149536585,-3.849964900006291e-05,-0.0027299875643530982,0.004557061395504863
5.858585858585858,0.3037974683544304,0.0048082803949649495,0.0044324257742330755,-8.948462828627398e-07,-0.0027722118507594075,0.004631804729320672
5.959595959595959,0.3037974683544304,0.004859440605459225,0.004480266534680049,-4.694030590271552e-06,-0.002801912142041782,0.00468139169474475
6.0606060606060606,0.3037974683544304,0.004769546941417311,0.004173867802215082,-0.0001336961534971384,-0.0026830244230897173,0.004507318053032827
6.161616161616162,0.3037974683544304,0.00452752394105675,0.004540343313748086,-1.129574524599315e-05,-0.002720360176441451,0.004533989432222972
6.262626262626262,0.3037974683544304,0.004804437982096507,0.004326506687980682,1.2810659772910966e-05,-0.002739283401023157,0.004584249526633081
6.363636363636363,0.3037974683544304,0.004581115943562411,0.004301847875663261,-1.2701677525537345e-05,-0.002664889145767701,0.004448116291371558
6.4646464646464645,0.3037974683544304,0.004966155952125906,0.004776436702485183,3.425899605183151e-05,-0.0029227777963833266,0.004874427555120201
6.565656565656566,0.3037974683544304,0.004951170175284617,0.004388091925354737,1.4496697519949621e-05,-0.002801778630191806,0.004695090781389075
6.666666666666667,0.3037974683544304,0.004875649853680474,0.004392062051663208,1.1732085337469208e-05,-0.0027803135716031042,0.004652786991394112
6.767676767676767,0.3037974683544304,0.004861220982978365,0.004403877087105965,2.7758893661634122e-05,-0.002779529421025299,0.004649698356874439
6.8686868686868685,0.3037974683544304,0.0048215620985201475,0.004334713764834158,-2.2918571951104574e-05,-0.002746882759006292,0.00459768296854966
6.96969696969697,0.3037974683544304,0.004908261044331393,0.004418050041864037,-7.221665968642734e-05,-0.002797893325858629,0.004684110959097445
7.070707070707071,0.3037974683544304,0.004869440638523509,0.004419787505688445,4.529865890497965e-05,-0.0027867684432635862,0.004661570201037621
7.171717171717171,0.3037974683544304,0.0051423451434748895,0.0046046391401313135,-6.6451103958935594e-06,-0.0029240952850818607,0.004895702599036923
7.2727272727272725,0.3037974683544304,0.00491483636853176,0.004496262600714545,-1.1780921692610567e-05,-0.002823329690773891,0.004719535498533042
7.373737373737374,0.3037974683544304,0.005033423451569237,0.004453984323215682,7.5251326253163865e-06,-0.002846222332435476,0.004770189590752737
7.474747474747475,0.3037974683544304,0.004912621232545441,0.004426173572541752,-9.629363131141749e-06,-0.0028016384415261576,0.004688392450640851
7.575757575757575,0.3037974683544304,0.0051073311646510425,0.004381443069645729,-4.536004482082638e-05,-0.002846632270289031,0.004786498392689049
7.6767676767676765,0.3037974683544304,0.005169694245990748,0.0045519537186539845,5.474433126866434e-06,-0.0029164943893934194,0.004890184272060734
7.777777777777778,0.3037974683544304,0.005109655972504024,0.004491456188527995,0.0001512660554747276,-0.0028803336483096058,0.004837417820539889
7.878787878787879,0.3037974683544304,0.00495496151958109,0.004594866071191657,2.4760100356895283e-05,-0.002864948277231824,0.0047852787264738555
7.979797979797979,0.3037974683544304,0.005185889116014574,0.004643334937264634,7.746410889682065e-05,-0.0029487672159837623,0.004938844724685261
8.080808080808081,0.3037974683544304,0.005328847402190539,0.0044889837971629825,-6.930799522738065e-07,-0.002945349359806057,0.004962507628418995
8.181818181818182,0.3037974683544304,0.005193494275824683,0.004683269917525081,-0.00011352349606434385,-0.0029630292580049293,0.004962008379384974
8.282828282828282,0.3037974683544304,0.005118998454853433,0.00461708588569831,-2.4172203706679466e-05,-0.0029208253021655224,0.004887588835835851
8.383838383838384,0.3037974683544304,0.005186839122180428,0.004731526163598989,-4.817226944891619e-05,-0.0029755095857338246,0.0049755338010970505
8.484848484848484,0.3037974683544304,0.005139859335780871,0.004791827725369521,1.815464610535763e-05,-0.0029795061183451174,0.004975081430998421
8.585858585858587,0.3037974683544304,0.005170172550599702,0.004663269486053722,7.695521662199275e-05,-0.002950032610996027,0.004938079072451782
8.686868686868687,0.3037974683544304,0.005319503815319,0.004758067258504534,6.961857350372435e-05,-0.0030232713221470604,0.005063625991304754
8.787878787878787,0.3037974683544304,0.005227490907591041,0.00469194352260421,6.881085523451368e-06,-0.0029758303290585756,0.004981369806882879
8.88888888888889,0.3037974683544304,0.005351717503319585,0.004952487259161212,-3.337778086152585e-05,-0.0030912614287442394,0.0051640139200467665
8.98989898989899,0.3037974683544304,0.005313367438317795,0.0050044156191128885,4.231146038888365e-05,-0.0030953349172292044,0.005166345033390061
9.09090909090909,0.3037974683544304,0.0055457345720903405,0.004680119795322075,3.869012452756604e-05,-0.003067756310223725,0.005168024948605555
9.191919191919192,0.3037974683544304,0.005373864307136087,0.00505368054151592,-5.28195133871714e-06,-0.003128263454595602,0.005221148802947213
9.292929292929292,0.3037974683544304,0.005541618408125769,0.004988581811807227,-8.631030425946883e-06,-0.0031590600659798986,0.005286860104038935
9.393939393939394,0.3037974683544304,0.005541020202257368,0.005020611847378177,-4.819787625115611e-05,-0.003168489614890663,0.005300670300600538
9.494949494949495,0.3037974683544304,0.005627858053907734,0.004969068883923889,4.5774054290112105e-05,-0.0031790780813494867,0.005329681350835135
9.595959595959595,0.3037974683544304,0.005709757040930734,0.005121274884960319,-3.727648196960643e-05,-0.003249309577767316,0.005439826760951455
9.696969696969697,0.3037974683544304,0.005667637830111559,0.005390418367429745,0.00013969215650215254,-0.003317416859262391,0.005539524472879172
9.797979797979798,0.3037974683544304,0.00559248573872337,0.005320441952164383,-6.892272956912088e-05,-0.0032738783072663257,0.0054628522395305515
9.8989898989899,0.3037974683544304,0.00591067175763067,0.005197998101415541,-3.200059149591286e-05,-0.0033326009577138633,0.0055887956151648615
10.0,0.3037974683544304,0.005793269108216406,0.005239941120490319,-2.6116968711571742e-05,-0.0033099630686120175,0.00553756328834032
0.0,0.4050632911392405,0.006179310157214749,0.005360348841116497,5.90824517348542e-05,-0.0034618976994993736,0.00581415753877549
0.10101010101010101,0.4050632911392405,0.006144160306628861,0.005197739973368409,3.665475008730126e-05,-0.003402570083999181,0.0057302259805237215
0.20202020202020202,0.4050632911392405,0.005836022585734872,0.0053184618399453225,1.5795340420643786e-05,-0.0033463453277040585,0.005595290968592179
0.30303030303030304,0.4050632911392405,0.005808992662708046,0.005398145251788559,2.9298054427741963e-05,-0.003362141374348982,0.005615082980946142
0.40404040404040403,0.4050632911392405,0.005806768538742202,0.0051524250657458874,-1.4979905216357476e-05,-0.003287758081346427,0.005508881768865047
0.5050505050505051,0.4050632911392405,0.005852122765466083,0.005160655493742736,2.501804806402945e-06,-0.0033038334777626454,0.005538856855399486
0.6060606060606061,0.4050632911392405,0.005563416820369467,0.004817844197961423,-2.9106969269860637e-06,-0.003114378305499267,0.005230638527045454
0.7070707070707071,0.4050632911392405,0.00564104742626484,0.005067069253611752,3.5612681093825027e-05,-0.0032124350039629775,0.005377437466269462
0.8080808080808081,0.4050632911392405,0.005392944591909868,0.004954547852698894,6.736873326812293e-05,-0.0031042477333826286,0.005188969973625635
0.9090909090909091,0.4050632911392405,0.005479674609345502,0.004935250121425754,7.149531506247561e-05,-0.003124477419231377,0.005230229205725151
1.0101010101010102,0.4050632911392405,0.005396548941073404,0.004911259796765195,9.164333306018874e-06,-0.0030923426213515797,0.00517103581153407
1.1111111111111112,0.4050632911392405,0.005518903812837142,0.004924119134521754,5.2375753966374196e-05,-0.003132906884207669,0.0052476412166559
1.2121212121212122,0.4050632911392405,0.005300745980810504,0.004793072568377671,-8.778211142927732e-07,-0.0030281455647564524,0.005066023564686798
1.3131313131313131,0.4050632911392405,0.005285147292220204,0.004787323706353662,3.799205991584753e-05,-0.0030217412995721597,0.005055083524147907
1.4141414141414141,0.4050632911392405,0.005079734529495113,0.004654167782218687,-0.00010484093812829296,-0.00292017069351414,0.004884262350929797
1.5151515151515151,0.4050632911392405,0.005099854842630094,0.004810536677649222,2.126776944394718e-05,-0.0029731174560837952,0.004961663100795774
1.6161616161616161,0.4050632911392405,0.005013436333139559,0.004637470145543472,-1.9571625304006937e-05,-0.0028952719436049095,0.004836544328472995
1.7171717171717171,0.4050632911392405,0.005277566568030492,0.004640369311960991,9.650042826318049e-06,-0.0029753807639974444,0.004989604960038633
1.8181818181818181,0.4050632911392405,0.00538087818825669,0.004499709318245244,-0.00012176060936184293,-0.00296417625195058,0.005003331214250659
1.9191919191919191,0.4050632911392405,0.005211737135091411,0.004452807149190676,1.3897965074087669e-05,-0.0028993632852846265,0.004876824228802639
2.0202020202020203,0.4050632911392405,0.0049342876831342895,0.0045523146765119125,-1.4690072877548563e-05,-0.0028459807078938604,0.004754890220665012
2.121212121212121,0.4050632911392405,0.005132234563965804,0.004582373850503902,-2.1780444753061722e-05,-0.002914382524340912,0.00488073636125728
2.2222222222222223,0.4050632911392405,0.005177002052572638,0.004444018930484712,-4.2940492922141346e-06,-0.0028863062949172047,0.004852217503228266
2.323232323232323,0.4050632911392405,0.005046416473992786,0.00455183695563384,-3.188511276299323e-06,-0.002879476028887988,0.004818205516541653
2.4242424242424243,0.4050632911392405,0.005043180962235465,0.004471334487981578,-2.725852135041079e-05,-0.002854354635065113,0.004783198348035631
2.525252525252525,0.4050632911392405,0.005139952843056701,0.004566723120162491,2.02025896466816e-05,-0.002912002788965758,0.004878786553439968
2.6262626262626263,0.4050632911392405,0.004773929080002315,0.004499503567660223,-1.3076805661106591e-05,-0.0027820297942987614,0.004642858311168931
2.727272727272727,0.4050632911392405,0.0048789935030083805,0.004359645105540664,-3.129448802287496e-05,-0.0027715915825647134,0.004641480468368827
2.8282828282828283,0.4050632911392405,0.004975067257425481,0.004557527175052903,-2.8892913050326583e-05,-0.0028597783297435154,0.004780256096182906
2.929292929292929,0.4050632911392405,0.004969870120130595,0.0043998425779900666,3.109254019203213e-05,-0.002810913809436198,0.004711101548321449
3.0303030303030303,0.4050632911392405,0.004739660465834047,0.004207136739233763,-6.546983811974255e-05,-0.0026840391615203427,0.0044985375507832276
3.131313131313131,0.4050632911392405,0.0048707153060361125,0.004357908916489933,8.021450485516087e-05,-0.0027685872667578136,0.004637715726021338
3.2323232323232323,0.4050632911392405,0.004990737406097976,0.004381206324821804,1.930053026449972e-05,-0.002811583119275934,0.004715728571447723
3.3333333333333335,0.4050632911392405,0.004782996241805566,0.004515175261832664,7.267570804441553e-05,-0.0027894514510914685,0.004656569516432887
3.4343434343434343,0.4050632911392405,0.004909579378749748,0.004582820630649265,-8.259606250741008e-05,-0.0028477200028197043,0.004756780347338935
3.5353535353535355,0.4050632911392405,0.004781999058131726,0.004344795597090496,1.7148642570113935e-05,-0.0027380383965666666,0.0045791743302951516
3.6363636363636362,0.4050632911392405,0.004799447677730776,0.004437107192876891,-0.00012920099469423705,-0.0027709664611823,0.004634332004803886
3.7373737373737375,0.4050632911392405,0.0048638435320490616,0.00434323268297442,3.625293889122757e-05,-0.002762122864507044,0.004625989913108134
3.8383838383838382,0.4050632911392405,0.00469474001331521,0.004267560009549616,3.338262309547524e-05,-0.002688690006859448,0.004496766692885879
3.9393939393939394,0.4050632911392405,0.0048829343186031875,0.004177194018901817,4.146159787041165e-05,-0.002718038501251501,0.004571672625339235
4.040404040404041,0.4050632911392405,0.0046986901856699865,0.004512900853734766,5.289300500194237e-05,-0.0027634773118214253,0.004609515553302819
4.141414141414141,0.4050632911392405,0.0047888715502408035,0.004411451636325754,5.8728669600721296e-05,-0.002760096955969967,0.004612880683237157
4.242424242424242,0.4050632911392405,0.004736172864942851,0.004410943865856118,-6.928908009165326e-05,-0.002744135019239691,0.004583794222907555
4.343434343434343,0.4050632911392405,0.004924243888230826,0.0042404861457578475,1.640035260984128e-06,-0.0027494190101966017,0.0046204675852032865
4.444444444444445,0.4050632911392405,0.0048788549650991666,0.004505603102909936,-2.2230177938224992e-05,-0.002815337420402731,0.004703507580993102
4.545454545454545,0.4050632911392405,0.004653835333505782,0.0043077718859954916,-1.1386211037977255e-05,-0.0026884821658503823,0.004490858476821193
4.646464646464646,0.4050632911392405,0.00460377889725948,0.004357323087842354,-6.323909811283591e-06,-0.00268833059553055,0.004485645162276157
4.747474747474747,0.4050632911392405,0.00486475952182466,0.004217263592386523,3.1592308268104284e-06,-0.002724606934263355,0.004575505888747606
4.848484848484849,0.4050632911392405,0.004795071500847289,0.0043792829890159975,2.6749682589699366e-06,-0.002752306346958986,0.004601290754528818
4.94949494949495,0.4050632911392405,0.004638963975798786,0.004459739264028554,-4.835995276076446e-05,-0.002729610971948202,0.004552769194642536
5.05050505050505,0.4050632911392405,0.004771055471930706,0.0041939638077339945,0.00011572847405422633,-0.0026895057838994102,0.00451473675887916
5.151515151515151,0.4050632911392405,0.0047895705986799614,0.004234355817027943,2.039955130714186e-05,-0.002707177924712371,0.00453764895121163
5.252525252525253,0.4050632911392405,0.004658086449963037,0.004188477046616521,-5.4103844745459076e-05,-0.002653969048973867,0.004442927283513181
5.353535353535354,0.4050632911392405,0.0049420970066757575,0.004296274438896965,-5.2493087722295553e-05,-0.0027715114336718167,0.004653811170015228
5.454545454545454,0.4050632911392405,0.004859235357008536,0.00440514489089877,4.5970507543574573e-05,-0.0027793140743721917,0.004649534796160154
5.555555555555555,0.4050632911392405,0.004865397400800162,0.004474859609376628,4.636180089430489e-05,-0.0028020771030530366,0.004683047974202607
5.656565656565657,0.4050632911392405,0.004703408362263046,0.004202675961023133,-0.00010997960671647407,-0.0026718252969858535,0.00447816041899909
5.757575757575758,0.4050632911392405,0.00464254195852391,0.004350841880164472,-4.837278331476089e-05,-0.0026980151516065145,0.00450456154334452
5.858585858585858,0.4050632911392405,0.004717298536001973,0.00429760189209259,1.8552144473087964e-05,-0.0027044701284283687,0.004522195145390139
5.959595959595959,0.4050632911392405,0.004850919880396427,0.0042496830252254725,-1.5513269689436445e-06,-0.0027301808716865697,0.004579996162477806
6.0606060606060606,0.4050632911392405,0.004851715234335399,0.004147238882887638,1.378287868117904e-05,-0.002699686235166911,0.004540713479346328
6.161616161616162,0.4050632911392405,0.004902842015449648,0.004261309805262146,-5.678438420554264e-05,-0.0027492455462135375,0.00461668341232791
6.262626262626262,0.4050632911392405,0.004783273827552212,0.004314676725195157,-5.794493202173763e-05,-0.0027293851658242107,0.004568143643073531
6.363636363636363,0.4050632911392405,0.004972057114101872,0.004486220569632972,5.275242729661684e-05,-0.0028374833051204532,0.004748697769112319
6.4646464646464645,0.4050632911392405,0.004782711432367515,0.004483450842704505,9.265733625084706e-06,-0.002779848682521606,0.004640351933188355
6.565656565656566,0.4050632911392405,0.005027415543973137,0.004408967499989539,0.00010156831172394853,-0.002830914913188803,0.004751751055270708
6.666666666666667,0.4050632911392405,0.004741680342141428,0.004182580014765089,4.5535134867280284e-05,-0.0026772781070719554,0.004489016702691103
6.767676767676767,0.4050632911392405,0.004910451094695419,0.0044389161800464354,1.6166681376334215e-05,-0.0028048101824225563,0.004692569666618006
6.8686868686868685,0.4050632911392405,0.004865544733260835,0.004434149089010038,1.6015709777066756e-05,-0.002789908146681262,0.004664913981766831
6.96969696969697,0.4050632911392405,0.004807423388044408,0.0044985692318531304,-7.819594045172688e-05,-0.0027917977859692614,0.004662645348195992
7.070707070707071,0.4050632911392405,0.0047439582307399,0.004405616812307344,-6.239669990686455e-05,-0.0027448725129141727,0.004585435322642362
7.171717171717171,0.4050632911392405,0.00485390864190944,0.004440054709352152,5.196617991234651e-06,-0.0027881890053784776,0.004660791350863487
7.2727272727272725,0.4050632911392405,0.004891225550200842,0.0043466425349606725,3.3188223753007965e-05,-0.002771360425548454,0.004643305294686655
7.373737373737374,0.4050632911392405,0.004992916497304258,0.004442510100589023,-1.9797358425794354e-06,-0.002830627979367984,0.004741733958192804
7.474747474747475,0.4050632911392405,0.004841923243820093,0.004454126903920886,1.4562507112226754e-05,-0.0027888150443222937,0.004660210594822767
7.575757575757575,0.4050632911392405,0.0050351761488125904,0.004590443331084509,1.4324349964122396e-05,-0.00288768584396913,0.004828259894964498
7.6767676767676765,0.4050632911392405,0.005034315766427508,0.004545087619432477,3.206811615012056e-05,-0.002873821015757996,0.0048087249385191325
7.777777777777778,0.4050632911392405,0.005086734894168418,0.004572654343974938,-4.046067192693343e-05,-0.002897816771443007,0.0048506773156409486
7.878787878787879,0.4050632911392405,0.005122124142811532,0.00452867942020476,-6.640314222896644e-06,-0.0028952410689048877,0.00485270719427757
7.979797979797979,0.4050632911392405,0.005068402071966075,0.004738323722719738,-8.812410260468851e-05,-0.0029420177384057436,0.004914059326351236
8.080808080808081,0.4050632911392405,0.005020144483090707,0.004608013629991974,3.749743611676941e-05,-0.002888447433924804,0.004827728680842874
8.181818181818182,0.4050632911392405,0.0051117294292326075,0.004628842032906538,2.0710172935142853e-05,-0.002922171438641744,0.004888338676298607
8.282828282828282,0.4050632911392405,0.005192373610888991,0.004648582944077667,3.8082411487251315e-05,-0.002952286966489997,0.0049434035346472265
8.383838383838384,0.4050632911392405,0.005160768062466164,0.004705232742970253,4.157960536379134e-05,-0.002959800241630925,0.004949274076513223
8.484848484848484,0.4050632911392405,0.0051155348692622235,0.004767166606972397,1.7274545371037773e-05,-0.0029648104428703858,0.004950642653380866
8.585858585858587,0.4050632911392405,0.005252412712526015,0.004894757252090256,7.950325927894428e-05,-0.0030441509893848816,0.005084895765765037
8.686868686868687,0.4050632911392405,0.005390177199860251,0.00482181831896624,-2.7710862793230846e-05,-0.003063598655647947,0.005129891875858753
8.787878787878787,0.4050632911392405,0.005334916773090114,0.004809644751664639,0.00010205793514688009,-0.003043368457426426,0.0050957053114492655
8.88888888888889,0.4050632911392405,0.005504531075035104,0.004852517488238138,-9.738465008688455e-05,-0.0031071145689819724,0.005211948420096231
8.98989898989899,0.4050632911392405,0.005319018326846212,0.004911083635694241,1.263349718413038e-06,-0.003069030588762136,0.005127237010645693
9.09090909090909,0.4050632911392405,0.005380991140906232,0.004923812396772899,8.309369064033984e-05,-0.0030914410613037393,0.00516959543628699
9.191919191919192,0.4050632911392405,0.005609919690047195,0.0050285614097513726,-1.7703935079648416e-05,-0.00319154432993957,0.005343102413691519
9.292929292929292,0.4050632911392405,0.005635338507373741,0.00500936369607452,2.0526390987007645e-05,-0.0031934106610344783,0.005350006410883144
9.393939393939394,0.4050632911392405,0.005637739260003822,0.0048933668184833416,1.9020305046896147e-05,-0.003159331823546149,0.005304969545046505
9.494949494949495,0.4050632911392405,0.005794645271428634,0.005126494914503153,2.9438367131681072e-05,-0.0032763420557795357,0.005491379086091801
9.595959595959595,0.4050632911392405,0.005746447968431086,0.005142193120421922,-2.0314379086787574e-05,-0.003266592326655903,0.005469525313358052
9.696969696969697,0.4050632911392405,0.005845156289917781,0.005195241880888351,-8.264946145597715e-05,-0.00331211945124184,0.0055506650319776816
9.797979797979798,0.4050632911392405,0.005779730240371966,0.005162826484501208,5.4330275472163936e-05,-0.0032827670174619523,0.005498106031968737
9.8989898989899,0.4050632911392405,0.005672300032735967,0.005179632735343729,-9.116845782153502e-06,-0.0032555798304239087,0.005442738405508879
10.0,0.4050632911392405,0.005964670568032855,0.005276084005821355,6.201458794237762e-06,-0.0033722263721562627,0.0056519350502215885
0.0,0.5063291139240507,0.005964326169192417,0.005260549329481526,-3.1289088585347016e-05,-0.0033674626496021827,0.005645694898899625
0.10101010101010101,0.5063291139240507,0.005851695708377687,0.005465329524951562,-4.1800110488449044e-05,-0.003395107569998775,0.005668859312192773
0.20202020202020202,0.5063291139240507,0.005981360514798619,0.005262197105043044,3.7132437466677203e-06,-0.003373067285952499,0.0056561767440260115
0.30303030303030304,0.5063291139240507,0.005705794448990404,0.005330997716322606,6.415396593036566e-05,-0.0033110376495939027,0.005529050276695474
0.40404040404040403,0.5063291139240507,0.0055215778301406756,0.005112016796315849,9.905942677081373e-06,-0.0031900783879369576,0.00532864271962129
0.5050505050505051,0.5063291139240507,0.0057421499522481954,0.005144073326368286,3.343513343985559e-05,-0.003265866983584944,0.005468006015014539
0.6060606060606061,0.5063291139240507,0.005619349657355694,0.005031251270764076,-5.851423516497671e-06,-0.0031951802784359307,0.005349609568391107
0.7070707070707071,0.5063291139240507,0.0056005729218612825,0.004951985859138113,-8.744302424160673e-06,-0.0031657676342998187,0.005306114631115259
0.8080808080808081,0.5063291139240507,0.005426825998975763,0.005024954026310432,5.0887797137517035e-05,-0.0031355340075858583,0.005238207798450329
0.9090909090909091,0.5063291139240507,0.0054685889098423255,0.004924028420965286,-2.5884434427877567e-05,-0.003117785199242283,0.00521785811924032
1.0101010101010102,0.5063291139240507,0.005489441323855082,0.004739943258210148,-2.292774923102695e-05,-0.0030688153746195692,0.00515586702600125
1.1111111111111112,0.5063291139240507,0.005375872164099427,0.004757270632044205,-4.303799847248152e-05,-0.0030399428388430895,0.005095360971638099
1.2121212121212122,0.5063291139240507,0.005410514994829387,0.0049293221840589485,-5.498531453892959e-06,-0.0031019511536665005,0.005186695365440088
1.3131313131313131,0.5063291139240507,0.00540287969240077,0.004763592999797787,5.403437164618377e-05,-0.003049941807659567,0.005114153546459744
1.4141414141414141,0.5063291139240507,0.005208651861068734,0.004897779512975347,1.8859738017434133e-05,-0.0030319294122132237,0.005060487828394285
1.5151515151515151,0.5063291139240507,0.005174961866850231,0.004685807401962832,-9.79896620965354e-05,-0.002958230780643919,0.004951459646681458
1.6161616161616161,0.5063291139240507,0.005264395520192372,0.004792737971072716,-3.185831290223579e-05,-0.003017140047379526,0.0050454310028297455
1.7171717171717171,0.5063291139240507,0.005151418887473445,0.004564696086373446,-2.818497460182736e-05,-0.002914834492154067,0.004884801782941743
1.8181818181818181,0.5063291139240507,0.0050853395377565965,0.004805385397760614,2.4288495656179205e-05,-0.002967217480655163,0.0049514806342098195
1.9191919191919191,0.5063291139240507,0.0050863898260786015,0.0046802882581386375,-1.1669552568514116e-05,-0.002930003425265171,0.004896028757898206
2.0202020202020203,0.5063291139240507,0.005176430993718329,0.004536698859503649,-3.205321216178885e-05,-0.0029139389559665932,0.004888378873847425
2.121212121212121,0.5063291139240507,0.004865260463774381,0.004566779500797176,-2.6300387766905695e-05,-0.0028296119893714672,0.0047233185122807116
2.2222222222222223,0.5063291139240507,0.005116090965958376,0.004685927012172914,-2.516732226039404e-06,-0.002940605393439387,0.0049151489176908775
2.323232323232323,0.5063291139240507,0.005135742421458265,0.004437700461462531,4.105985824670075e-05,-0.002872032864876239,0.004825267539468713
2.4242424242424243,0.5063291139240507,0.005009993466793889,0.004512926274611198,1.120326821685395e-05,-0.0028568759224215264,0.004780918686311783
2.525252525252525,0.5063291139240507,0.004945381937225004,0.004564204490010253,4.970164193788476e-05,-0.0028528759281705772,0.004767015989966584
2.6262626262626263,0.5063291139240507,0.005140399999061092,0.0045955737513475375,3.0144325673512285e-05,-0.0029207921251225887,0.004891078509737972
2.727272727272727,0.5063291139240507,0.004973855339469375,0.0044381362378260155,-6.04023884767993e-05,-0.002823597473188617,0.0047299670110128806
2.8282828282828283,0.5063291139240507,0.005044964010767119,0.004323332232023318,0.00012287579399554338,-0.002810488872837131,0.004730444305082787
2.929292929292929,0.5063291139240507,0.004803266559445379,0.004410082143159206,1.3830684936295447e-05,-0.0027640046107813756,0.004619303836228089
3.0303030303030303,0.5063291139240507,0.004919769914933248,0.004472036097660124,6.102461033063223e-05,-0.002817541803778012,0.004713069724934243
3.131313131313131,0.5063291139240507,0.004952480238528932,0.004198858899795015,-1.2522896803721999e-05,-0.002745401741497184,0.004622032163089556
3.2323232323232323,0.5063291139240507,0.004995251059266503,0.004466407533766544,9.872184178702655e-06,-0.002838497577909914,0.004752977468775527
3.3333333333333335,0.5063291139240507,0.004986808237989229,0.004450924981543953,5.711885082350559e-05,-0.0028313199658599546,0.004742664643270915
3.4343434343434343,0.5063291139240507,0.004853401791182423,0.004464687801177225,3.068322649452391e-05,-0.002795426877707895,0.004671492986026413
3.5353535353535355,0.5063291139240507,0.004952907441312732,0.004335538219187298,-3.5739226305077005e-05,-0.002786533698150009,0.004675307063843715
3.6363636363636362,0.5063291139240507,0.004867683266741015,0.004288657519424854,-4.742002941548813e-05,-0.0027469022358497606,0.004606283017543725
3.7373737373737375,0.5063291139240507,0.004796290379304569,0.004368804150967074,-6.891559445338914e-05,-0.0027495283590814926,0.004599026622149957
3.8383838383838382,0.5063291139240507,0.004918621422241585,0.004267570944498987,-7.886612329252147e-05,-0.0027558577100221713,0.004629588771081824
3.9393939393939394,0.5063291139240507,0.004818975433919556,0.004303356780828562,1.0315564973018774e-05,-0.0027366996644244356,0.00458300692103574
4.040404040404041,0.5063291139240507,0.004975399439057121,0.004272921538213487,9.228159721532608e-05,-0.002774496293181182,0.004666745579640054
4.141414141414141,0.5063291139240507,0.004816221515824404,0.004466518510632009,6.161793362414402e-05,-0.002784822007936924,0.004652464406398696
4.242424242424242,0.5063291139240507,0.004857353860102539,0.004173370622151276,-4.080499292678489e-05,-0.002709217344676144,0.004554598348184678
4.343434343434343,0.5063291139240507,0.004848809958789557,0.004191616641583482,-1.2908568042538502e-05,-0.002712127980111912,0.004555958237813982
4.444444444444445,0.5063291139240507,0.004834145176953692,0.004356084562425619,-2.2471815840951923e-05,-0.002757068921813793,0.004613892291388776
4.545454545454545,0.5063291139240507,0.0049950019407509465,0.0044354047806168095,1.0361801639018172e-05,-0.0028291220164103265,0.00474007664174608
4.646464646464646,0.5063291139240507,0.004866458031998354,0.004318240208917892,1.8540639202629925e-05,-0.002755409472274874,0.004616937166156361
4.747474747474747,0.5063291139240507,0.004694322767004318,0.004247686365987086,7.324209290127545e-05,-0.0026826027398974208,0.004489497533374789
4.848484848484849,0.5063291139240507,0.004797706885422753,0.004228738128382747,1.9520387928895796e-05,-0.00270793350414165,0.004540166805120046
4.94949494949495,0.5063291139240507,0.0049567302879353825,0.004268864594061164,3.749645051268545e-05,-0.0027676784645989634,0.004651557544811218
5.05050505050505,0.5063291139240507,0.004721625974598508,0.0043124716089856996,2.1402958298648608e-05,-0.002710229275075262,0.004531077081498098
5.151515151515151,0.5063291139240507,0.004767551863217044,0.004184988256791079,-1.865165011720895e-05,-0.002685762036002437,0.004504727801864844
5.252525252525253,0.5063291139240507,0.0047877816715476374,0.004267999687417116,2.6992950242202702e-05,-0.002716734407689426,0.00455045160909351
5.353535353535354,0.5063291139240507,0.004718172309437017,0.004327652388596483,-4.1999926651413766e-05,-0.00271374740941005,0.0045361225132082095
5.454545454545454,0.5063291139240507,0.004861819472108522,0.004346220705363746,-5.556197017429341e-05,-0.0027624120532416803,0.004626623384421557
5.555555555555555,0.5063291139240507,0.004772819848928882,0.004152156115205331,-1.4322534356297345e-05,-0.002677492789240264,0.004494811675458079
5.656565656565657,0.5063291139240507,0.004855326193808208,0.004230140242279075,2.3689244996954456e-05,-0.002725639930826185,0.00457506849531182
5.757575757575758,0.5063291139240507,0.004681827989322356,0.004387119475172752,7.748650175289483e-05,-0.0027206842393485324,0.0045436333845876
5.858585858585858,0.5063291139240507,0.004784487520721517,0.0043378291420987465,5.885105091848757e-05,-0.002736694998846079,0.004578666120516993
5.959595959595959,0.5063291139240507,0.0049000471928918885,0.00428827857423042,7.1999831973066315e-06,-0.002756497730136692,0.004624627958230725
6.0606060606060606,0.5063291139240507,0.004849244366581471,0.004226701267211135,-6.664062148267127e-05,-0.002722783690137782,0.004571344456187345
6.161616161616162,0.5063291139240507,0.004707980802245287,0.004308966978581821,-3.175417181395103e-05,-0.0027050843342481326,0.004522031714443122
6.262626262626262,0.5063291139240507,0.005053249618993966,0.004444827032367497,5.016623422573198e-05,-0.0028494229954084387,0.00477896939777726
6.363636363636363,0.5063291139240507,0.0048817402398363685,0.004284163101279982,1.192511206066401e-05,-0.002749771002334905,0.004612124940519161
6.4646464646464645,0.5063291139240507,0.004742472637111978,0.004515150825178174,-0.00011170822739834069,-0.0027772870386870456,0.0046370346808307745
6.565656565656566,0.5063291139240507,0.004642008834919244,0.004454034553047386,6.207696806791944e-05,-0.002728813016389989,0.0045522041613728515
6.666666666666667,0.5063291139240507,0.004857192837495306,0.004511436252266743,-4.8655089986736535e-05,-0.0028105887269286142,0.0046946315532638404
6.767676767676767,0.5063291139240507,0.004884969139078899,0.004483405294821831,7.092647025909816e-05,-0.002810512330170219,0.0046986851050854995
6.8686868686868685,0.5063291139240507,0.004793938390563742,0.004395197366380296,-2.0879882640514477e-05,-0.0027567407270832115,0.00460766835847148
6.96969696969697,0.5063291139240507,0.005097873829972087,0.004418486154761946,-5.319645012731207e-05,-0.0028549079954202096,0.004795304175607716
7.070707070707071,0.5063291139240507,0.004950566008000499,0.004627188210767399,-3.615688173064904e-05,-0.002873326265630369,0.0047974676475072255
7.171717171717171,0.5063291139240507,0.0050843246978553545,0.004286561046240507,1.5689305822918447e-05,-0.002811265723228758,0.004736183432158722
7.2727272727272725,0.5063291139240507,0.004999169879877426,0.004481864949599638,-1.3054993504742116e-05,-0.0028443104488431186,0.004761692971115714
7.373737373737374,0.5063291139240507,0.004878500710009454,0.004354595058115808,4.25149005829951e-05,-0.0027699287304375785,0.004639374393732682
7.474747474747475,0.5063291139240507,0.004923292135273045,0.004535836011950342,-2.6798455757425828e-06,-0.002837738444167016,0.004741454371470906
7.575757575757575,0.5063291139240507,0.004837624954599059,0.004604236694520561,-3.59236565803147e-06,-0.002832558494735886,0.004725259688684727
7.6767676767676765,0.5063291139240507,0.005011664003741876,0.0042190334096520905,-2.1631892683710806e-05,-0.0027692092240181898,0.00466626670313304
7.777777777777778,0.5063291139240507,0.0049624351436432824,0.004432414932174902,-6.10685404808544e-05,-0.0028184550227454554,0.004720983070834756
7.878787878787879,0.5063291139240507,0.0049066836802733795,0.004584073881289564,8.787472133681749e-06,-0.0028472272684688833,0.004753620645770004
7.979797979797979,0.5063291139240507,0.005123949649636348,0.004623787180382934,4.637623756070333e-06,-0.002924321049005785,0.004893084888005536
8.080808080808081,0.5063291139240507,0.005247635810134385,0.0046404857979069816,-1.925738448111826e-05,-0.00296643648241241,0.004972054216059557
8.181818181818182,0.5063291139240507,0.00512633759620485,0.00439520969330691,-6.338892844536913e-06,-0.002856464186853528,0.004802707283302473
8.282828282828282,0.5063291139240507,0.005112725158247647,0.004838630338751936,-1.184386374932961e-05,-0.0029854066490998745,0.004981378912088226
8.383838383838384,0.5063291139240507,0.0051609121390274485,0.0045683058621689854,-8.414225562132577e-06,-0.00291876540035893,0.0048916275180971875
8.484848484848484,0.5063291139240507,0.005255821352973636,0.004629572277226782,1.2815819978775557e-05,-0.0029656180890601258,0.004972412439689841
8.585858585858587,0.5063291139240507,0.005352012082702619,0.004843966198432528,4.482003004195109e-05,-0.0030587934843405444,0.005117528968947477
8.686868686868687,0.5063291139240507,0.005287565292947488,0.004731120171601152,-3.5123789245759187e-06,-0.0030056056393645914,0.005032472056515493
8.787878787878787,0.5063291139240507,0.005344652863719127,0.004942634976864983,-3.8464178332632566e-05,-0.0030861863521752324,0.00515584377612577
8.88888888888889,0.5063291139240507,0.005502392416511072,0.004848825279218287,0.00010648855307129097,-0.0031053653087188076,0.0052097321317043374
8.98989898989899,0.5063291139240507,0.00546199317408907,0.00485173051714154,3.68834551968279e-05,-0.003094117107369183,0.005184266644899079
9.09090909090909,0.5063291139240507,0.005544306281594897,0.0047815535016532,1.5714745435793432e-06,-0.0030977579349744295,0.005205016457889775
9.191919191919192,0.5063291139240507,0.0055070871529154285,0.00511466148266386,-2.8966180029972318e-05,-0.003186524590673786,0.0053219734655594155
9.292929292929292,0.5063291139240507,0.005630810107253524,0.004940587030923641,-9.272422648559587e-06,-0.003171419141453149,0.0053194147439407395
9.393939393939394,0.5063291139240507,0.005611283061651945,0.0051204839442218425,4.339503746900092e-05,-0.003219530101762136,0.005383216323460701
9.494949494949495,0.5063291139240507,0.005632745188611424,0.005249423927278743,-5.741163602783485e-05,-0.0032646507347670497,0.005452108843979995
9.595959595959595,0.5063291139240507,0.005707363725785878,0.005078810716197456,-7.6028512514501565e-06,-0.003235852332595,0.0054205048056119335
9.696969696969697,0.5063291139240507,0.005786951198050042,0.005118414574098572,-3.9294916626247955e-07,-0.003271609731644584,0.0054833344811791385
9.797979797979798,0.5063291139240507,0.005995117100705698,0.005154137009128804,3.766880226253638e-05,-0.0033447762329503502,0.005622380212439264
9.8989898989899,0.5063291139240507,0.005874444771693534,0.005289726272805975,0.00011423969102706698,-0.0033492513133498527,0.005608498256301252
10.0,0.5063291139240507,0.005942336200751307,0.005259777924622091,-0.00015711552534234392,-0.0033606342376120194,0.005638733052257193
0.0,0.6075949367088608,0.005950596790031404,0.005381297951685222,-7.765405406511819e-06,-0.003399568422514988,0.005687373417440282
0.10101010101010101,0.6075949367088608,0.005912132320604744,0.005347325730980467,6.333259224591537e-06,-0.0033778374154755635,0.005650948955452636
0.20202020202020202,0.6075949367088608,0.005877692070277552,0.005195849015739617,7.803490141798989e-05,-0.0033220623258051504,0.00556980958801212
0.30303030303030304,0.6075949367088608,0.00565645961744576,0.005176817757966188,1.8127022641590048e-06,-0.0032499832126235847,0.005432543305473539
0.40404040404040403,0.6075949367088608,0.005674632564096776,0.005051395555763229,3.2068178297563385e-05,-0.003217808435958002,0.005390391747136962
0.5050505050505051,0.6075949367088608,0.005538354129270993,0.005121511241792993,6.987086602701454e-05,-0.0031979596113191956,0.005343514455926093
0.6060606060606061,0.6075949367088608,0.005580729686557875,0.0051299085348354215,4.431988396393764e-05,-0.003213191466417989,0.005370080568936256
0.7070707070707071,0.6075949367088608,0.005485205833519634,0.004936729774777761,-1.143638946191857e-05,-0.0031265806824892187,0.005232609035571627
0.8080808080808081,0.6075949367088608,0.0054768235918388735,0.00495521161363194,-0.00010276410517462549,-0.003129610561641244,0.005238566627221549
0.9090909090909091,0.6075949367088608,0.005588240634130162,0.004924691498596865,5.280207990482178e-05,-0.003153879639818108,0.005288574739682533
1.0101010101010102,0.6075949367088608,0.005422594694435494,0.0047108082255449685,-3.820558996198676e-06,-0.003040020875994139,0.005104065777167454
1.1111111111111112,0.6075949367088608,0.005487088102527535,0.004959945090729405,3.528538254007065e-05,-0.0031341099579770817,0.005243783998801035
1.2121212121212122,0.6075949367088608,0.005267944998657835,0.004898945220909685,-7.031259208335518e-05,-0.003050067065870256,0.005094935366909427
1.3131313131313131,0.6075949367088608,0.005244211936699159,0.004779688693987912,0.00010254865600926771,-0.0030071701892061212,0.005031205722914172
1.4141414141414141,0.6075949367088608,0.0051435522091826495,0.0048902894199206156,8.712584739983898e-05,-0.003010152488730979,0.005023979869551174
1.5151515151515151,0.6075949367088608,0.005077826145354998,0.004768377413522445,-1.2956613642565826e-06,-0.0029538610676632326,0.004930390963722086
1.6161616161616161,0.6075949367088608,0.005057975152441651,0.004584422371416151,6.20175164086738e-05,-0.0028927192571573403,0.00483980218566441
1.7171717171717171,0.6075949367088608,0.00515576314370586,0.004643358741707797,-9.808291939200919e-06,-0.0029397365656240967,0.004919644778077048
1.8181818181818181,0.6075949367088608,0.00513882087876835,0.004620354190483523,4.6615622523140764e-05,-0.002927752520775562,0.004900867202548164
1.9191919191919191,0.6075949367088608,0.005127837713128004,0.004556941611098023,-3.107053145895928e-05,-0.002905433797267808,0.004867861495872616
2.0202020202020203,0.6075949367088608,0.005280838115175882,0.004611000681373536,2.448703532118592e-06,-0.0029675516389648256,0.004979824125756774
2.121212121212121,0.6075949367088608,0.004984719368722428,0.004545749752593466,4.3545973003351905e-05,-0.002859140736394768,0.0047809695581855225
2.2222222222222223,0.6075949367088608,0.004968743064904748,0.004541235283782705,3.0935289851761864e-06,-0.0028529935046062356,0.00476938391567304
2.323232323232323,0.6075949367088608,0.004899083691402448,0.004540834002045974,-2.6619264961765196e-05,-0.0028319753080345267,0.004730369372524144
2.4242424242424243,0.6075949367088608,0.005134513356005895,0.004561188146134594,5.429864816208855e-05,-0.002908710450642147,0.004874118205525437
2.525252525252525,0.6075949367088608,0.004985846942438857,0.004470177871692556,-4.362407811883968e-05,-0.002836807444239424,0.004749657508161581
2.6262626262626263,0.6075949367088608,0.0049701458463486566,0.004503233793520662,-7.281922992187128e-05,-0.002842013891960795,0.004755590764544287
2.727272727272727,0.6075949367088608,0.005153095413284324,0.004289108161693292,9.370641592598193e-05,-0.002832661072493285,0.004782781642848748
2.8282828282828283,0.6075949367088608,0.005021583630521623,0.004382988031755605,7.054260259935812e-05,-0.0028213714986831686,0.004736272169981782
2.929292929292929,0.6075949367088608,0.004847709365035927,0.004347692969335533,-6.951333284906342e-07,-0.0027586207003114376,0.004618048264077474
3.0303030303030303,0.6075949367088608,0.005119263717216643,0.004480753734116409,5.8005461100195845e-05,-0.0028800052353999154,0.0048327992836363605
3.131313131313131,0.6075949367088608,0.004845112501273616,0.004415208711893158,1.5521023720445326e-05,-0.0027780963639500323,0.004645182762861047
3.2323232323232323,0.6075949367088608,0.004918609177148621,0.004677664834419001,-1.9148558888851845e-05,-0.0028788822034702863,0.0048027866244936025
3.3333333333333335,0.6075949367088608,0.004919735418327319,0.004340551229716776,-7.234442067196225e-05,-0.002778085994413228,0.004658918231719178
3.4343434343434343,0.6075949367088608,0.004779052936660704,0.004340503971516388,-3.784957358425437e-05,-0.0027358670724531276,0.004576037720250295
3.5353535353535355,0.6075949367088608,0.0048698137651078804,0.004358413284252408,1.2963418961522047e-06,-0.0027684681148080867,0.004635320538971126
3.6363636363636362,0.6075949367088608,0.004763437161556418,0.0044403015303775455,4.698990419384118e-05,-0.0027611216075801893,0.004611088603328074
3.7373737373737375,0.6075949367088608,0.0048657654552267,0.00430700210820968,-4.549718038817309e-06,-0.0027518302690309137,0.00461184785649826
3.8383838383838382,0.6075949367088608,0.004530710562640607,0.004210261470397914,-4.2543085145014156e-05,-0.0026222916099115563,0.004379907930357754
3.9393939393939394,0.6075949367088608,0.004951290911012398,0.004577563972340198,-5.532747403489711e-05,-0.0028586564650057785,0.004776369552669095
4.040404040404041,0.6075949367088608,0.004707120645478809,0.004415501310069124,-7.977567640833925e-05,-0.00273678658666438,0.0045703863829209355
4.141414141414141,0.6075949367088608,0.004913173251986645,0.004461131829333422,3.537007917602024e-05,-0.0028122915243960203,0.00470387161312512
4.242424242424242,0.6075949367088608,0.004710448161077184,0.00426874360310565,-1.3360187152184877e-05,-0.0026937575292548498,0.0045059220871752825
4.343434343434343,0.6075949367088608,0.004809674510407053,0.00434066583283279,-5.038087043406422e-05,-0.0027451021029719527,0.004593993214005406
4.444444444444445,0.6075949367088608,0.0047922898027255465,0.00413685357035985,-2.444424144975406e-05,-0.002678743011925619,0.004500709988226544
4.545454545454545,0.6075949367088608,0.004823618982568375,0.004272603272160018,-1.0668472739538108e-05,-0.0027288666764185175,0.004573113819994362
4.646464646464646,0.6075949367088608,0.0047237728348942685,0.004367219206228223,6.0584467281693836e-05,-0.0027272976123367473,0.004557180419245187
4.747474747474747,0.6075949367088608,0.004824824674575136,0.004274728390963277,-6.691148614877381e-05,-0.0027298659196615237,0.0045761176099403285
4.848484848484849,0.6075949367088608,0.004704411050023601,0.004349087846971621,7.144990856018859e-05,-0.0027160496690985664,0.004538883868501544
4.94949494949495,0.6075949367088608,0.004743940038537751,0.004430085355600179,5.3558717128779256e-05,-0.0027522076182413787,0.004595994958995792
5.05050505050505,0.6075949367088608,0.004795768262416942,0.004340857135208407,1.8336911788619872e-05,-0.0027409876192876046,0.00458537869116375
5.151515151515151,0.6075949367088608,0.004676685454894831,0.004219136453523365,-9.019198583990705e-05,-0.002668746572525459,0.004468257933019819
5.252525252525253,0.6075949367088608,0.004666424863428368,0.004164798535589526,6.647543278071521e-05,-0.002649367019705368,0.004438423747223359
5.353535353535354,0.6075949367088608,0.004840510146624891,0.004281153693254557,-8.160523442828328e-05,-0.0027364991519638346,0.004588662743789811
5.454545454545454,0.6075949367088608,0.004642475105607287,0.0042781005545122035,5.0321753992738675e-05,-0.002676172698035847,0.004472285877922843
5.555555555555555,0.6075949367088608,0.0048013117847498675,0.00424496256517263,-3.947399315338506e-05,-0.002713882304976749,0.0045492403577428175
5.656565656565657,0.6075949367088608,0.0046842519574749756,0.004240274779568678,4.080753371155317e-05,-0.002677358021113096,0.004479355638409486
5.757575757575758,0.6075949367088608,0.004953166597318154,0.004414751211773874,2.3256758094012538e-05,-0.002810375342727609,0.004707282867579781
5.858585858585858,0.6075949367088608,0.004756284100575986,0.004325617320778753,3.625517332657961e-06,-0.002724570426406422,0.004556246064069058
5.959595959595959,0.6075949367088608,0.004763303824685252,0.004433858093010313,-1.0480756114829122e-05,-0.002759148575308669,0.004607458870289862
6.0606060606060606,0.6075949367088608,0.004786097052993878,0.004314010350326178,7.131157968304325e-05,-0.0027300322209960165,0.004570054059123103
6.161616161616162,0.6075949367088608,0.004609799530067629,0.004239112684590982,-0.0001438824201766618,-0.002654673664397583,0.004443081684062126
6.262626262626262,0.6075949367088608,0.004797729706050082,0.004452036586861311,-6.088829649849593e-05,-0.0027749298878734178,0.00463576251244736
6.363636363636363,0.6075949367088608,0.00482555508205085,0.004578017107652553,4.4076884353622026e-05,-0.002821071656911021,0.004707289781128912
6.4646464646464645,0.6075949367088608,0.004790003247164152,0.0044938320558396755,-4.369552820958281e-05,-0.002785150590901148,0.0046496145444337115
6.565656565656566,0.6075949367088608,0.00480630300878631,0.0044691207346856335,9.643721524037927e-05,-0.0027826271230415828,0.004649896851454504
6.666666666666667,0.6075949367088608,0.00491548348248161,0.004205314007085296,3.1459436737053916e-05,-0.002736239246870072,0.004602006226934122
6.767676767676767,0.6075949367088608,0.004767241884627877,0.00434009537433838,1.9134602223848524e-05,-0.002732201177689877,0.004568789444927937
6.8686868686868685,0.6075949367088608,0.004962889151983841,0.004569841666418514,-1.5421000268748504e-05,-0.0028598192455207066,0.00477857901265735
6.96969696969697,0.6075949367088608,0.004797753957572535,0.004356000033163444,2.253620648370326e-05,-0.0027461261972207937,0.004593004089899645
7.070707070707071,0.6075949367088608,0.004994809918268568,0.004446444144683128,-3.803762666681203e-05,-0.0028323762188855084,0.004744911897986913
7.171717171717171,0.6075949367088608,0.0050763298996487054,0.004338699528079932,-1.864023144201584e-05,-0.002824508828318591,0.004750769525006365
7.2727272727272725,0.6075949367088608,0.005103616958448807,0.0044346705886977806,0.00018345748125484206,-0.002861486264143976,0.0048146982469829125
7.373737373737374,0.6075949367088608,0.00497911128466998,0.004481594086195952,3.767696049195434e-05,-0.0028382116112597795,0.004750382901485068
7.474747474747475,0.6075949367088608,0.004902893379954541,0.004496531585021556,4.260339716261786e-05,-0.002819827489492829,0.004713447782429464
7.575757575757575,0.6075949367088608,0.005121725952830277,0.0046683588013105935,-6.710979118348248e-05,-0.002937025426242261,0.004912138778179139
7.6767676767676765,0.6075949367088608,0.005084350969508357,0.004558946899387471,-1.3718507083700044e-05,-0.0028929893606687487,0.004843129165843837
7.777777777777778,0.6075949367088608,0.005129726276890802,0.0044473819576428915,3.541103433365585e-05,-0.002873132470360108,0.004825267628386889
7.878787878787879,0.6075949367088608,0.005007920598110098,0.004487751494314834,6.509634101246233e-05,-0.0028487016277274797,0.004770491761334614
7.979797979797979,0.6075949367088608,0.005088730716914386,0.004571015822582747,-0.00010100171992009515,-0.00289792396184914,0.004853792473723179
8.080808080808081,0.6075949367088608,0.0050420102618680615,0.004565562711908885,-3.466984688544927e-05,-0.0028822718921330836,0.004821848432640542
8.181818181818182,0.6075949367088608,0.0050778511190679,0.004607485887149205,-1.2922959206378344e-05,-0.0029056011018651316,0.004859822201292144
8.282828282828282,0.6075949367088608,0.005259877087639213,0.004831875625667256,-1.6263500610256272e-05,-0.0030275258139919404,0.0050595504394734545
8.383838383838384,0.6075949367088608,0.005141557232865053,0.004655005186100795,-4.844110196493251e-05,-0.0029389687256897545,0.004917087359292094
8.484848484848484,0.6075949367088608,0.005151298198089411,0.00451315655550856,-0.00010151317438819915,-0.0028993364260793916,0.004866904022251266
8.585858585858587,0.6075949367088608,0.0052680581374563995,0.004794691583294412,-5.713605573896747e-05,-0.0030188249162252435,0.005049018072176337
8.686868686868687,0.6075949367088608,0.0053020727854505125,0.004793576895829774,3.355036609122117e-06,-0.003028694904384086,0.005067000635772263
8.787878787878787,0.6075949367088608,0.0053852571705660345,0.004933387693404025,5.7116500978334283e-05,-0.003095593459191018,0.005175087860078217
8.88888888888889,0.6075949367088608,0.005475417562087746,0.004863867227057623,1.7818645880803835e-05,-0.00310178543674361,0.005196792314437135
8.98989898989899,0.6075949367088608,0.0054699040527862895,0.005025847767153842,8.60731398561433e-05,-0.0031487255459820393,0.005264058967305125
9.09090909090909,0.6075949367088608,0.005512800185506202,0.004816380558719233,-1.2359128536467694e-05,-0.0030987542232676305,0.005199730971725797
9.191919191919192,0.6075949367088608,0.005485707492839795,0.005038203307658082,-7.32390506478409e-06,-0.003157173240149363,0.0052762231330546975
9.292929292929292,0.6075949367088608,0.005617532191397947,0.0050470053615783205,3.063175499607314e-05,-0.00319936126589288,0.005355374017340964
9.393939393939394,0.6075949367088608,0.005738572670370238,0.005062892631492899,-3.155124061418436e-05,-0.0032404395905589415,0.005432615138714888
9.494949494949495,0.6075949367088608,0.005664957130308489,0.005128120350418077,-5.101124756498106e-05,-0.00323792324421797,0.005417248574189528
9.595959595959595,0.6075949367088608,0.0057647347140419615,0.005093892814123185,-2.7262583549352944e-05,-0.003257588258449544,0.005460512735564016
9.696969696969697,0.6075949367088608,0.005637407390804317,0.005044662781965975,-5.414340534594835e-05,-0.003204621051831088,0.005366466243954651
9.797979797979798,0.6075949367088608,0.005901977145459288,0.005258656293737132,4.262292906506015e-06,-0.003348190031758926,0.005608064325696094
9.8989898989899,0.6075949367088608,0.005843733369589314,0.005269227502539897,1.75705560792683e-05,-0.0033338882616387633,0.00557879411281212
10.0,0.6075949367088608,0.0059628665333278826,0.0055557638793426725,1.0287307827062453e-06,-0.0034555891238011666,0.005770096554560174
0.0,0.7088607594936709,0.00596882595568699,0.0053526671923886555,1.673736603126609e-05,-0.0033964479444226936,0.0056859151339021885
0.10101010101010101,0.7088607594936709,0.005978758103373172,0.005433079527586138,9.505081521605889e-06,-0.003423551289287793,0.005725478530186247
0.20202020202020202,0.7088607594936709,0.0058088432807013,0.005361822786455462,-4.669516845185142e-06,-0.0033511998201470284,0.005598739233153427
0.30303030303030304,0.7088607594936709,0.005855206525890527,0.005250086785212569,-8.318103424116077e-05,-0.003331587993330929,0.005579181800246224
0.40404040404040403,0.7088607594936709,0.0057790384475953,0.005143958510458236,-2.7554022080830383e-05,-0.0032768990874160607,0.005489329485804773
0.5050505050505051,0.7088607594936709,0.005693473060024858,0.0050767207112800425,-0.0001295671415866331,-0.0032310581313914695,0.005416171987221436
0.6060606060606061,0.7088607594936709,0.00533961936008736,0.0049027587857403765,4.688943551599691e-06,-0.003072713443748321,0.0051351512976903985
0.7070707070707071,0.7088607594936709,0.005675011814658355,0.004878861857258766,4.7278579566169955e-05,-0.003166162101575136,0.0053224204295559225
0.8080808080808081,0.7088607594936709,0.005594232026925005,0.00507546856329007,0.00011800662862409986,-0.0032009101770645227,0.00535763390059535
0.9090909090909091,0.7088607594936709,0.005480382987897585,0.005050791559887689,1.4990606964244972e-05,-0.003159352364335582,0.005278777802686551
1.0101010101010102,0.7088607594936709,0.005421389789646011,0.004858049450163916,-1.970752056244044e-05,-0.003083831771942978,0.005162934938956915
1.1111111111111112,0.7088607594936709,0.005395268013886385,0.004962049828370654,4.877018289863411e-06,-0.003107195352677112,0.005192238252863822
1.2121212121212122,0.7088607594936709,0.0053969183397877965,0.004798848905333092,-0.00011445338396261849,-0.0030587301735362665,0.005127960749342101
1.3131313131313131,0.7088607594936709,0.005287821374691026,0.004767334040374779,6.631400815478882e-05,-0.003016546624519741,0.0050490504599580086
1.4141414141414141,0.7088607594936709,0.0053999020558298605,0.004678408783263374,-4.883542976704476e-05,-0.00302349325172797,0.005078450201263833
1.5151515151515151,0.7088607594936709,0.005241504833621526,0.004729857976274782,1.060195045900208e-05,-0.0029914088429688923,0.0050053664357048834
1.6161616161616161,0.7088607594936709,0.005198802312816151,0.004804832904673747,2.55579685165919e-05,-0.003001090565246969,0.005013636199539131
1.7171717171717171,0.7088607594936709,0.0052120509867882876,0.004428585229876848,-1.203938165730824e-05,-0.0028921908649995405,0.0048678810020213676
1.8181818181818181,0.7088607594936709,0.004970227204945982,0.004592515364668158,-8.030121999816059e-05,-0.002868822770884242,0.004794565245847817
1.9191919191919191,0.7088607594936709,0.004864304602964251,0.0044853188495269855,-1.4640003629097213e-05,-0.002804887035747371,0.00468638776841435
2.0202020202020203,0.7088607594936709,0.005265293851672538,0.004311279412356988,-7.714509396501337e-06,-0.0028729719792088574,0.004859061130929913
2.121212121212121,0.7088607594936709,0.005132352808790469,0.004518076796462095,-3.787935261934941e-05,-0.0028951288815757697,0.004854894817814276
2.2222222222222223,0.7088607594936709,0.005040819749140595,0.0043703430747749974,-3.4242889218238866e-05,-0.002823348847174678,0.004741641949694223
2.323232323232323,0.7088607594936709,0.005063820244244964,0.004494156239100319,3.126367164299585e-05,-0.002867392945003585,0.004804690278738813
2.4242424242424243,0.7088607594936709,0.005006434920005269,0.004443319449964309,-3.180718674961457e-05,-0.002834926310990873,0.004750297230597907
2.525252525252525,0.7088607594936709,0.00497316005445544,0.004512036899572906,-0.00011413609214911938,-0.002845559086208504,0.00476348584334487
2.6262626262626263,0.7088607594936709,0.005071881724785499,0.00464260312728529,8.783705843908776e-05,-0.002914345455621237,0.004873823972763863
2.727272727272727,0.7088607594936709,0.004985913642145857,0.004489796187386155,1.5220408568662584e-05,-0.002842712948859603,0.004757369396270519
2.8282828282828283,0.7088607594936709,0.004974890568220956,0.004398301975076703,2.1376193564192445e-05,-0.0028119577629892975,0.004713268106388033
2.929292929292929,0.7088607594936709,0.004871682972042205,0.004378630010302156,-6.047601239224763e-05,-0.0027750938947033086,0.004646005868417219
3.0303030303030303,0.7088607594936709,0.004920196920626021,0.00424433534110486,-5.269844839052373e-06,-0.0027493596785192636,0.0046195062359385385
3.131313131313131,0.7088607594936709,0.0050714132981940835,0.0043251137575941135,-1.3224194156993574e-05,-0.002818958116736459,0.004742565452231313
3.2323232323232323,0.7088607594936709,0.004853854416060742,0.004361960800271534,2.4133923736596665e-05,-0.0027647445648996826,0.004627745602467878
3.3333333333333335,0.7088607594936709,0.004802810266735435,0.004475300536675478,-5.168870576687439e-05,-0.002783433241023274,0.0046485801224101855
3.4343434343434343,0.7088607594936709,0.004887384116500546,0.0043429978911106205,1.0861369263010272e-05,-0.00276911460228335,0.004639246617871323
3.5353535353535355,0.7088607594936709,0.004911405179386934,0.004351265404146675,1.8601131362696392e-06,-0.0027788011750600828,0.004656672029538049
3.6363636363636362,0.7088607594936709,0.0048983216789455315,0.004546977032010627,-2.283893476827877e-05,-0.002833589613286847,0.0047326064786034055
3.7373737373737375,0.7088607594936709,0.004785296091346128,0.004359637115909913,-2.489268012160394e-05,-0.0027434799621768122,0.004587504653991267
3.8383838383838382,0.7088607594936709,0.004730126291895686,0.004410803214919416,1.551308580431293e-05,-0.0027422788520445308,0.004578902210164731
3.9393939393939394,0.7088607594936709,0.004667238023068821,0.0043973700722063636,6.736777324476247e-05,-0.0027193824285825555,0.004539825631456015
4.040404040404041,0.7088607594936709,0.0047531188900349994,0.004272738417564351,-8.979709427315917e-05,-0.0027077571922798052,0.004534731484603494
4.141414141414141,0.7088607594936709,0.004676369411430921,0.004314503784560805,-4.8989437839846195e-05,-0.002697261958797518,0.004507145454785411
4.242424242424242,0.7088607594936709,0.004977506370226962,0.0043470169472607685,-1.4771653857957485e-05,-0.0027973569952463194,0.0046941959976358446
4.343434343434343,0.7088607594936709,0.00486240855602545,0.004415259971456307,-3.4771701853178965e-05,-0.0027833005582445273,0.0046553589477845115
4.444444444444445,0.7088607594936709,0.004774279866770019,0.004401436791145485,6.981074071695099e-05,-0.002752714997374651,0.004600795978352684
4.545454545454545,0.7088607594936709,0.004867630161821491,0.004498880682723269,6.282807944331644e-06,-0.0028099532533634275,0.004694143362214457
4.646464646464646,0.7088607594936709,0.0045641433336123085,0.004317852966568645,7.593962804087852e-07,-0.0026645988900542857,0.004446117464465941
4.747474747474747,0.7088607594936709,0.004716453824842567,0.00440675270674061,-3.388018739782648e-05,-0.0027369619594749535,0.004569858208160295
4.848484848484849,0.7088607594936709,0.00484681863165013,0.0042370433945838545,-7.250943630786273e-05,-0.0027251586078701957,0.004574251803604544
4.94949494949495,0.7088607594936709,0.004769341290176958,0.0045267859855035435,-1.7174100917460635e-05,-0.00278883818270415,0.004652902882879529
5.05050505050505,0.7088607594936709,0.00486374099821501,0.004268525392819339,3.6467637977437855e-05,-0.0027396799173103046,0.004595571045881322
5.151515151515151,0.7088607594936709,0.004810773679597526,0.004439791447449718,4.7721178431341336e-05,-0.0027751695381141727,0.004637164175169487
5.252525252525253,0.7088607594936709,0.004877809500055975,0.004338964570120382,-0.00010991864137916637,-0.0027650322210529075,0.0046358648364921845
5.353535353535354,0.7088607594936709,0.004847873080166394,0.00428733022249844,-5.298574010674353e-05,-0.0027405609907994503,0.004594242432945884
5.454545454545454,0.7088607594936709,0.004678773374639441,0.004273338434141621,-2.7176047826879662e-05,-0.0026856335426343183,0.004490052916190204
5.555555555555555,0.7088607594936709,0.004879637604425643,0.00425900428785143,1.2753107341459936e-05,-0.0027415925676831216,0.004600877211933871
5.656565656565657,0.7088607594936709,0.004773335071703178,0.0045310004424914015,-1.8584715342753837e-05,-0.0027913006542583736,0.004657010368197084
5.757575757575758,0.7088607594936709,0.004504283091947032,0.0042239328842148035,-2.269115325128918e-05,-0.0026184647928485507,0.0043710331017015784
5.858585858585858,0.7088607594936709,0.004746174434437605,0.0044932476592781665,3.961920530373193e-06,-0.0027718266281147315,0.004624906076029876
5.959595959595959,0.7088607594936709,0.004931005551860874,0.0044547123133021095,5.062670877637933e-05,-0.0028157153595488953,0.004711767777475571
6.0606060606060606,0.7088607594936709,0.004862484977815537,0.004282920783817417,-4.764016726891845e-06,-0.002743621728489886,0.0046001739874723165
6.161616161616162,0.7088607594936709,0.0048742505638306715,0.0043174932052474696,2.6432999160473532e-05,-0.002757523130723442,0.004621322165428739
6.262626262626262,0.7088607594936709,0.004827621084851261,0.004303524349408376,3.0486422298630445e-06,-0.002739343630277891,0.004588081315662889
6.363636363636363,0.7088607594936709,0.004817869396536818,0.004454949272341097,4.892387437419359e-05,-0.0027818456006633743,0.004647822653171452
6.4646464646464645,0.7088607594936709,0.004824651511500355,0.004228369918320065,2.092406731695213e-05,-0.002715906428946126,0.004556015419832379
6.565656565656566,0.7088607594936709,0.0050236359856460295,0.004361105151198383,8.801866900161353e-05,-0.0028154223410533238,0.004729777345670598
6.666666666666667,0.7088607594936709,0.004886683355619541,0.004483444080611247,-2.9273677743454653e-05,-0.0028110382308692366,0.004698334207153534
6.767676767676767,0.7088607594936709,0.004920297112628878,0.004265045010045995,4.007525660963595e-05,-0.0027556026368024617,0.004628116468357056
6.8686868686868685,0.7088607594936709,0.004962272284400707,0.004352557247121645,4.24058401161586e-05,-0.0027944488594567056,0.00468782693645694
6.96969696969697,0.7088607594936709,0.004919841498501939,0.004485650675679836,9.273943696722221e-06,-0.002821647652254532,0.004717782321251259
7.070707070707071,0.7088607594936709,0.004948232733706383,0.004372043626641551,2.479845734327535e-05,-0.0027960829081043804,0.004686974308026457
7.171717171717171,0.7088607594936709,0.004949055221711055,0.004377014052244263,3.8503302566451e-05,-0.0027978207821865953,0.004689750831681001
7.2727272727272725,0.7088607594936709,0.00480750391157469,0.004487012301121275,-2.007324236023917e-05,-0.002788354863808789,0.0046556688957089575
7.373737373737374,0.7088607594936709,0.005103793530436759,0.004517176545496501,0.00010369699196831533,-0.0028862910227799776,0.004840569709672193
7.474747474747475,0.7088607594936709,0.005094038065932286,0.004357734752395114,4.71620150817688e-05,-0.0028355318454982197,0.004769411079626316
7.575757575757575,0.7088607594936709,0.004994934422768491,0.004455600055087018,2.819382711314885e-05,-0.0028351603433566523,0.004748546759279892
7.6767676767676765,0.7088607594936709,0.004997706571076123,0.004408910256214735,-1.2484662351803182e-05,-0.002821985048187257,0.004730918352661115
7.777777777777778,0.7088607594936709,0.005084184088880833,0.004738360461815328,-3.2534414278240035e-06,-0.0029467633652088482,0.004920398622370309
7.878787878787879,0.7088607594936709,0.005132330429503571,0.004699704510319637,4.982252747897557e-05,-0.0029496104819469625,0.004931029152892079
7.979797979797979,0.7088607594936709,0.004964808144920614,0.004739298717284491,9.947659240369139e-06,-0.0029112320586615315,0.004856012792663515
8.080808080808081,0.7088607594936709,0.005254158972061228,0.004541755609566038,-0.00010890760861698226,-0.00293877437448818,0.004940263873261151
8.181818181818182,0.7088607594936709,0.005084207441859226,0.004618570084456793,-5.1958460538711116e-05,-0.002910833257894805,0.004868951179424271
8.282828282828282,0.7088607594936709,0.005315447133181385,0.0044101475891028955,-5.787366086858105e-05,-0.0029176784166852843,0.004926613614419087
8.383838383838384,0.7088607594936709,0.00524034904194847,0.004473094623127105,3.241843541073677e-05,-0.0029140330995226726,0.004902286133113135
8.484848484848484,0.7088607594936709,0.005412001618237006,0.004681313213724991,2.535658259650997e-05,-0.0030279944495885994,0.005086365018506357
8.585858585858587,0.7088607594936709,0.005123879341066402,0.004709129075988386,2.1239126080009915e-05,-0.002949902525116436,0.0049297444427357714
8.686868686868687,0.7088607594936709,0.005166278532296311,0.004869261575223803,-1.448704700947593e-05,-0.003010662032256034,0.005024421383661589
8.787878787878787,0.7088607594936709,0.005374627829143282,0.004886306104720848,5.818732290998038e-05,-0.0030782801801592387,0.005148853481342285
8.88888888888889,0.7088607594936709,0.00558609141078194,0.004834658488525719,6.598392946443414e-05,-0.0031262249697922976,0.005252100278013621
8.98989898989899,0.7088607594936709,0.005509834780010111,0.0048899763835371516,3.117314014242182e-05,-0.0031199433490641786,0.005227819973671445
9.09090909090909,0.7088607594936709,0.00548384422971916,0.004893667202295868,2.3255781318645846e-05,-0.0031132534296045085,0.005214023404940615
9.191919191919192,0.7088607594936709,0.005311232873689051,0.004830448360005541,6.518862083046627e-06,-0.0030425043701083772,0.00508791876503598
9.292929292929292,0.7088607594936709,0.005474121524779473,0.005033148374761446,-3.8693988706210995e-05,-0.0031521809698622756,0.005267923200751247
9.393939393939394,0.7088607594936709,0.005471676165085236,0.00490938188070116,-3.594783152615723e-05,-0.0031143174137359193,0.005213693453201786
9.494949494949495,0.7088607594936709,0.005509124603148925,0.005074902911612856,-7.787172217369256e-05,-0.0031752082544285343,0.00530707197819116
9.595959595959595,0.7088607594936709,0.005859905324851237,0.005094828360667503,1.506017978036982e-05,-0.003286420105655622,0.005517357612847679
9.696969696969697,0.7088607594936709,0.005795906808435108,0.004959999427447546,-3.220508842650076e-05,-0.0032267718707647956,0.005426743692503694
9.797979797979798,0.7088607594936709,0.005882542460182076,0.005153497617411245,-5.4351563542349025e-05,-0.003310812023277996,0.005554821078398299
9.8989898989899,0.7088607594936709,0.005887260249583258,0.005336401700398256,-4.681138463015951e-05,-0.0033670985849944537,0.005632655205581674
10.0,0.7088607594936709,0.006071256452599837,0.005371140887863441,3.0745255438345515e-05,-0.003432719202138983,0.005753483413502276
0.0,0.810126582278481,0.0061234331495361675,0.005326525149140859,1.666919576726178e-05,-0.003434987489603108,0.0057664995116139435
0.10101010101010101,0.810126582278481,0.005632248038275086,0.005329815820148502,5.898697475728201e-05,-0.003288619157527076,0.005488237270156323
0.20202020202020202,0.810126582278481,0.00587744033035202,0.005188426685485586,1.028365513281849e-05,-0.0033197601047512816,0.0055650449518263945
0.30303030303030304,0.810126582278481,0.006048235447339152,0.005090505388148259,5.981795203260259e-05,-0.0033416222506462228,0.005631745427654126
0.40404040404040403,0.810126582278481,0.005685102427296635,0.005141424775959604,-2.415699084904701e-05,-0.0032479581609768716,0.005433862580407697
0.5050505050505051,0.810126582278481,0.005778912389845132,0.005040661340770096,-3.306887158709938e-05,-0.003245872119184568,0.005447736735329104
0.6060606060606061,0.810126582278481,0.005629491201198977,0.004937106585243341,-1.6636574720358148e-05,-0.003169979335932695,0.005317294882200556
0.7070707070707071,0.810126582278481,0.005703084742152922,0.004953986386306978,-8.801214780239432e-06,-0.0031971213385379696,0.005367903212936736
0.8080808080808081,0.810126582278481,0.005506134103531632,0.00489030613442048,-1.9418635730721873e-05,-0.0031189320713856336,0.005225615439469598
0.9090909090909091,0.810126582278481,0.00543094369719088,0.004927129987169812,-5.131010077194927e-06,-0.0031074221053082073,0.005197390959439024
1.0101010101010102,0.810126582278481,0.0054061215623304164,0.004874628516980127,-4.315101426783917e-05,-0.0030842250237931627,0.005161482851017696
1.1111111111111112,0.810126582278481,0.005461367415455421,0.004887241972336858,-1.549810901464127e-05,-0.0031045828163376835,0.005198207831334928
1.2121212121212122,0.810126582278481,0.005335003658616303,0.004947513645565026,-9.063015478179875e-05,-0.003084755191254398,0.005154589545756799
1.3131313131313131,0.810126582278481,0.0053382613016195,0.004687246833051334,1.1316405915508486e-05,-0.0030076524404012497,0.00504439812082969
1.4141414141414141,0.810126582278481,0.005388047061044227,0.004618086045416261,-5.0521864660353435e-05,-0.003001839931938146,0.005048065202299547
1.5151515151515151,0.810126582278481,0.005310360972406215,0.004662924244979174,2.4097605124645182e-05,-0.002991985565215617,0.0050182394649482195
1.6161616161616161,0.810126582278481,0.005240933971042184,0.004698804926897913,4.76736753852865e-05,-0.002981921669382029,0.004992679501345812
1.7171717171717171,0.810126582278481,0.005099890819022761,0.0048251160638678545,0.00011596491621136976,-0.0029775020648671845,0.004972264058382769
1.8181818181818181,0.810126582278481,0.0051938694115479895,0.004723531368908957,6.11770306762757e-05,-0.0029752202341370836,0.004976530001222162
1.9191919191919191,0.810126582278481,0.005164926872168972,0.0045021825588050365,-3.6081237475362165e-05,-0.0029001328292922023,0.0048679132360152115
2.0202020202020203,0.810126582278481,0.004939170109576803,0.004519146563611829,-4.7854232040785694e-05,-0.002837495001956589,0.004743851124300372
2.121212121212121,0.810126582278481,0.005147214155892518,0.00438035889571459,-8.88447450436738e-06,-0.0028582719154821323,0.004809880363131298
2.2222222222222223,0.810126582278481,0.005068247742879936,0.0045246790605046935,7.785984336299704e-06,-0.002877878041015389,0.004819527281048883
2.323232323232323,0.810126582278481,0.005100147334907889,0.0045718222926185255,-1.240783191998571e-05,-0.0029015908882579246,0.0048576286904784905
2.4242424242424243,0.810126582278481,0.004994991066648155,0.004692648306132995,-7.670760592821495e-05,-0.0029062918118343446,0.0048527105501269645
2.525252525252525,0.810126582278481,0.0051671121311578395,0.004557535789630653,-8.369602254287318e-07,-0.002917394376236548,0.004890898065227234
2.6262626262626263,0.810126582278481,0.005124532144829051,0.004415590372300175,3.4833537985877164e-05,-0.002862036755138768,0.004809789326383449
2.727272727272727,0.810126582278481,0.004975707836804173,0.004370960950279109,4.335351881847016e-06,-0.002804000636124985,0.004702595010976212
2.8282828282828283,0.810126582278481,0.004831216900956092,0.004390642727460596,-2.3295077844935514e-05,-0.002766557888525007,0.004626865130439209
2.929292929292929,0.810126582278481,0.0050765387555544595,0.004385513104052659,-2.242054548804127e-05,-0.002838615557882135,0.004768883698448589
3.0303030303030303,0.810126582278481,0.005038212287007254,0.004392030120115219,-2.1220451734076342e-06,-0.0028290727221367416,0.004748214929645338
3.131313131313131,0.810126582278481,0.00483648614117521,0.0044215259018496825,6.941820877225983e-05,-0.0027774036129074677,0.004644491081969235
3.2323232323232323,0.810126582278481,0.004922448369058883,0.0045059277712948135,-7.838328685610821e-05,-0.002828512842106109,0.004729917339261239
3.3333333333333335,0.810126582278481,0.00479472113841322,0.004339012132730304,-5.6167172006816884e-05,-0.0027401199813430572,0.004584919644238889
3.4343434343434343,0.810126582278481,0.004932411637306521,0.00438694818070215,-4.192839121314408e-05,-0.0027958079454026012,0.00468412623775405
3.5353535353535355,0.810126582278481,0.00496078903786938,0.004379611802114773,-3.2704013677850143e-05,-0.0028021202519952462,0.004697585108855998
3.6363636363636362,0.810126582278481,0.004903424215663922,0.004499071860751333,-6.625507976056994e-05,-0.0028207488229245767,0.004715668345391332
3.7373737373737375,0.810126582278481,0.004794140157218363,0.004487855071201084,-2.7883474655647347e-05,-0.002784598568525834,0.0046488223492637815
3.8383838383838382,0.810126582278481,0.005085136852280928,0.004391110315600599,1.7338375434775647e-05,-0.002842874150364458,0.0047761879757497175
3.9393939393939394,0.810126582278481,0.004891003141219139,0.00436103083253872,2.585783135366346e-05,-0.0027756101921273574,0.0046489452600773215
4.040404040404041,0.810126582278481,0.004843791725353184,0.004331813101726864,2.771677140547458e-05,-0.002752681448124014,0.004609428080274474
4.141414141414141,0.810126582278481,0.004934451812275609,0.004382056597363813,6.20949514331553e-05,-0.0027949525228918265,0.0046839892122841256
4.242424242424242,0.810126582278481,0.004783711522871348,0.004129623784917437,3.6116452283498384e-05,-0.0026740005923366356,0.004492958140062228
4.343434343434343,0.810126582278481,0.004748361898787813,0.0042528429083254745,-1.7746797692886875e-05,-0.002700361442133986,0.004521119456928396
4.444444444444445,0.810126582278481,0.00485088699395527,0.004402537503581453,-4.538378904561863e-05,-0.0027760273492610167,0.004643641700967727
4.545454545454545,0.810126582278481,0.004944615994816685,0.004322194744470151,-4.762666081951435e-05,-0.002780043221786051,0.004665383840110599
4.646464646464646,0.810126582278481,0.004795200069724462,0.004329401727578397,-5.448881461530607e-06,-0.0027373805391908575,0.004580109674715519
4.747474747474747,0.810126582278481,0.004784233187690187,0.004260653318817767,7.768499714995978e-06,-0.0027134659519523863,0.004545137614746359
4.848484848484849,0.810126582278481,0.004855170917503579,0.004402663644020253,2.2774957538141477e-06,-0.0027773503684571494,0.004645477680229828
4.94949494949495,0.810126582278481,0.004820646213492516,0.00421045481453023,-1.456113436408211e-05,-0.002709330308406824,0.004546436261734673
5.05050505050505,0.810126582278481,0.004886580014530946,0.004457268692719096,1.2755302260369648e-05,-0.0028031546121750125,0.004686746890699209
5.151515151515151,0.810126582278481,0.004756683734722069,0.004317808486516297,-2.2704422328407282e-07,-0.0027223476663715096,0.004553137493596245
5.252525252525253,0.810126582278481,0.0047336906193187886,0.00435988995477417,5.440798017820355e-05,-0.0027280741722278874,0.0045592738239671375
5.353535353535354,0.810126582278481,0.004737159802532766,0.004367262849278887,2.0589263033637733e-05,-0.002731326795543496,0.004563607950512617
5.454545454545454,0.810126582278481,0.00479335618119009,0.004334020141954848,6.784096987410518e-05,-0.002738212896943481,0.004582499211714315
5.555555555555555,0.810126582278481,0.004724433023009727,0.004238675919214727,-1.0469905607622718e-05,-0.002688932682667336,0.004501291959785742
5.656565656565657,0.810126582278481,0.004690378092223991,0.0044042448986557165,-1.780285149504628e-05,-0.0027283868972639122,0.0045541625810317414
5.757575757575758,0.810126582278481,0.004807624621512483,0.004333934644452918,-2.4550875428919182e-05,-0.00274246777978962,0.004589348683148565
5.858585858585858,0.810126582278481,0.004913749900759028,0.004287110818526866,-4.445278028523054e-06,-0.0027602582157857684,0.0046323348518808915
5.959595959595959,0.810126582278481,0.004802347199257096,0.004430107504240949,2.8806477904855743e-05,-0.0027697364110494138,0.004627738777789097
6.0606060606060606,0.810126582278481,0.0049145380005795256,0.004471020524378649,-2.7009529164665775e-05,-0.0028156675574874525,0.00470870434027478
6.161616161616162,0.810126582278481,0.004948578890225704,0.004407459669107258,-7.215592147270052e-08,-0.0028068115677998885,0.004701432962953806
6.262626262626262,0.810126582278481,0.004826487488393629,0.004252993956848617,8.101558415471957e-06,-0.002723844433572674,0.004566849445450749
6.363636363636363,0.810126582278481,0.005047715862020865,0.004430746114427755,8.172869424783555e-06,-0.002843538592934586,0.0047692766222157115
6.4646464646464645,0.810126582278481,0.0050207044941449515,0.004410273101796979,-2.7396471432041516e-05,-0.002829293278782579,0.004745266711924984
6.565656565656566,0.810126582278481,0.005128619636941871,0.00443381091547655,5.192857992169025e-05,-0.002868729165725526,0.004819769560805016
6.666666666666667,0.810126582278481,0.004783567273010588,0.004569506423915266,8.54831123281015e-05,-0.002805922109077756,0.0046825511762123885
6.767676767676767,0.810126582278481,0.005155310381545665,0.004640425903536157,4.976144315036474e-05,-0.0029387208855245466,0.00491887898455143
6.8686868686868685,0.810126582278481,0.0049256005895823895,0.004325864192269857,6.175020927324592e-05,-0.002775439434555674,0.004656028589602413
6.96969696969697,0.810126582278481,0.004852090569325457,0.00434040611122509,1.4006695452725457e-05,-0.002757749004165164,0.004617624184202502
7.070707070707071,0.810126582278481,0.0047916577803139345,0.0045880322640454,1.916656454213981e-05,-0.0028139070133078006,0.00469327667166652
7.171717171717171,0.810126582278481,0.004828656330850203,0.004302997497634368,-3.7591641305709817e-05,-0.002739496148545371,0.0045889271853027675
7.2727272727272725,0.810126582278481,0.004680916393155822,0.004480439391674558,-3.7753492762196807e-06,-0.002748406735449114,0.004583971638758243
7.373737373737374,0.810126582278481,0.005011728468269344,0.004611492791626343,-1.1797628019178285e-05,-0.0028869663779687057,0.00482412228845322
7.474747474747475,0.810126582278481,0.005075586363701178,0.004586026689924073,2.4954238867113726e-05,-0.0028984839160875746,0.004849568160903538
7.575757575757575,0.810126582278481,0.004921885541269175,0.004541326933729853,1.2973537632979624e-05,-0.0028389637424997083,0.004743123566291484
7.6767676767676765,0.810126582278481,0.0050317467867208015,0.004527010371022025,-3.535510299738125e-06,-0.002867627147322848,0.004799329769527565
7.777777777777778,0.810126582278481,0.0050421633311143275,0.004634143367910603,-4.646996126109385e-05,-0.002902892009707479,0.004851707578067447
7.878787878787879,0.810126582278481,0.0050634095807714045,0.0046261432900223266,1.5031737132888189e-05,-0.0029068658612381192,0.00485962322871944
7.979797979797979,0.810126582278481,0.005208565075510604,0.004639017805911607,-1.1499221104407386e-05,-0.002954274864426663,0.004948475211326083
8.080808080808081,0.810126582278481,0.005188198429811383,0.004513240416604405,6.622142059047032e-05,-0.002910431653924736,0.004887157762136968
8.181818181818182,0.810126582278481,0.005289233615265308,0.004628084763971094,-9.264107072376042e-05,-0.0029751955137709207,0.004994185260421895
8.282828282828282,0.810126582278481,0.005110169619006985,0.004728068009783261,6.900437496965219e-05,-0.0029514712886370737,0.0049316848998348884
8.383838383838384,0.810126582278481,0.00522195746153249,0.0046122092792963585,-4.949312219782115e-05,-0.0029502500222486545,0.004946099697068988
8.484848484848484,0.810126582278481,0.005193168128375117,0.004642319049511594,-8.287092085565253e-06,-0.0029506461533660134,0.004940848516706698
8.585858585858587,0.810126582278481,0.005325999815058444,0.004778290191727358,-1.2807075031014995e-05,-0.0030312870020357406,0.005074411352308513
8.686868686868687,0.810126582278481,0.005325992833625111,0.004879824694033629,4.1923845460109195e-05,-0.0030617452582976214,0.0051180318663536055
8.787878787878787,0.810126582278481,0.0052380184055158575,0.004927049338323882,-1.7624620770396322e-05,-0.003049520323151922,0.005089755275211901
8.88888888888889,0.810126582278481,0.005300182903207603,0.004773110440072575,2.7203593417771228e-05,-0.0030219880029840537,0.00505750767053043
8.98989898989899,0.810126582278481,0.005232251119683761,0.004744071548062701,8.071673983359965e-05,-0.0029928968003239383,0.005007997458029223
9.09090909090909,0.810126582278481,0.005273102615487623,0.005053527284304639,-6.656938322963282e-05,-0.0030979889699376787,0.005168101751583427
9.191919191919192,0.810126582278481,0.005418568686559243,0.004803135207054878,7.585753238044518e-05,-0.0030665111680842363,0.005140247026516256
9.292929292929292,0.810126582278481,0.005551591794894516,0.004960692820082185,-1.1010016138671016e-05,-0.0031536853844930106,0.005281028954357359
9.393939393939394,0.810126582278481,0.005700651884723248,0.005149985389220557,-7.587602737001506e-05,-0.0032551911821831416,0.005447823328561137
9.494949494949495,0.810126582278481,0.00558425257963608,0.005252160074916385,-4.708096290033307e-05,-0.003250923796365739,0.00542644669465271
9.595959595959595,0.810126582278481,0.0058115800249268325,0.005016679063893704,-5.643152895853171e-05,-0.0032484777266461613,0.005458594409683365
9.696969696969697,0.810126582278481,0.005893016485670473,0.005078839461370561,-3.1130963742730634e-05,-0.00329155678411231,0.005531317773509218
9.797979797979798,0.810126582278481,0.005904470095641425,0.005282632716628743,-1.2215491132633425e-05,-0.0033561308436810505,0.0056194551588387666
9.8989898989899,0.810126582278481,0.005951728931320719,0.005392881065464422,-5.232752346099042e-06,-0.003403382999035542,0.005692921863398424
10.0,0.810126582278481,0.0058929852139837716,0.005675864998439503,2.9207298811826943e-05,-0.0034706550637269825,0.005787701521267458
0.0,0.9113924050632911,0.00607719438293413,0.005326981049516542,-2.5004261040180116e-05,-0.0034212526297352015,0.0057391458421063414
0.10101010101010101,0.9113924050632911,0.005861382726997873,0.005298769977007883,-5.0034510601447846e-06,-0.003348045811201727,0.005601314758839013
0.20202020202020202,0.9113924050632911,0.0057696229829596185,0.005372591286277476,-4.589198844551293e-05,-0.0033426642807711285,0.005582273600902759
0.30303030303030304,0.9113924050632911,0.00565728108938428,0.005161362702174386,-3.311170295176958e-05,-0.0032455931374675995,0.005426647566578694
0.40404040404040403,0.9113924050632911,0.005717293202458381,0.005109256569306064,5.098330331938686e-05,-0.0032479649315293336,0.005439542654692272
0.5050505050505051,0.9113924050632911,0.005636751337211107,0.005207448395346635,-3.0272755770810197e-05,-0.0032532599197673227,0.00543508436374702
0.6060606060606061,0.9113924050632911,0.005485235019945682,0.005162911972827418,-7.490651898454003e-05,-0.00319444409783193,0.005332964528731889
0.7070707070707071,0.9113924050632911,0.005582388753636249,0.0051219793201591245,-3.170206096277855e-05,-0.003211310422138612,0.005367296494666223
0.8080808080808081,0.9113924050632911,0.005474082239731263,0.004894952468433844,-3.46979529483872e-05,-0.003110710412449532,0.005209066663770185
0.9090909090909091,0.9113924050632911,0.005313584032068784,0.004786129251629555,-3.09158493941381e-05,-0.0030299139851095017,0.005070756933783713
1.0101010101010102,0.9113924050632911,0.00540595520629721,0.004883177675940329,-3.311827927599779e-05,-0.003086739864671262,0.005164767815501156
1.1111111111111112,0.9113924050632911,0.0054573301588989945,0.0047095127710577835,2.134425145312752e-06,-0.003050052878987033,0.005124510766120349
1.2121212121212122,0.9113924050632911,0.005334950359371288,0.00487462966780175,5.508765420236496e-05,-0.003062874008151911,0.005121221181130971
1.3131313131313131,0.9113924050632911,0.005348217237584241,0.004750435798028092,2.3008655412948185e-05,-0.0030295959106837,0.005075952468768857
1.4141414141414141,0.9113924050632911,0.0051756079817390326,0.004726805184591626,3.337517477075361e-05,-0.0029707239498991977,0.004966775241451755
1.5151515151515151,0.9113924050632911,0.005216793028189013,0.004547336225926273,-5.03649856647452e-05,-0.0029292387762345855,0.00491714289254262
1.6161616161616161,0.9113924050632911,0.005262737403731486,0.00479212457101768,-2.3087533549957702e-05,-0.0030164585924247495,0.005044082549301371
1.7171717171717171,0.9113924050632911,0.005198604898051572,0.004814149034581913,4.921910980689821e-05,-0.0030038261797900455,0.005018160282852126
1.8181818181818181,0.9113924050632911,0.005279592870205376,0.004703207013916098,-2.420674349085779e-05,-0.0029948399652364424,0.005016472542772757
1.9191919191919191,0.9113924050632911,0.005182912352180071,0.00470505699957404,1.071111129980978e-05,-0.0029663908055262336,0.004961309097660985
2.0202020202020203,0.9113924050632911,0.005179492347364244,0.004581335213449714,-9.07726677480476e-06,-0.0029282482682441873,0.00490785389207363
2.121212121212121,0.9113924050632911,0.005138976637753258,0.004689947855404027,-2.2411481118532766e-05,-0.0029486773479471856,0.00492997628108271
2.2222222222222223,0.9113924050632911,0.004918583592811289,0.004525106153732799,-6.811829054913637e-05,-0.0028331069239632264,0.004735594754945288
2.323232323232323,0.9113924050632911,0.005131395804157976,0.004612242985714247,3.208651506851511e-05,-0.0029230916369616666,0.004892836864938063
2.4242424242424243,0.9113924050632911,0.00497815623798765,0.004499058395692279,3.436828613094112e-05,-0.0028431643901039787,0.004757109826076442
2.525252525252525,0.9113924050632911,0.004857792773861415,0.004447708897930968,-4.4008948905399185e-05,-0.0027916505015377147,0.004666907679894428
2.6262626262626263,0.9113924050632911,0.0050499791569370315,0.004501438721288012,7.842649339362066e-05,-0.002865425363467513,0.004801199899282868
2.727272727272727,0.9113924050632911,0.0047977920876453774,0.004513154887485427,-5.75370178076741e-05,-0.0027932840925392415,0.0046630600114586935
2.8282828282828283,0.9113924050632911,0.004984388451707251,0.004390820253836427,5.982986113189193e-06,-0.0028125626116631036,0.004715716738804049
2.929292929292929,0.9113924050632911,0.004847145908099898,0.004379619434231187,2.3145039043233198e-05,-0.0027680296026993253,0.00463128950746264
3.0303030303030303,0.9113924050632911,0.005166458307347561,0.004528001422802942,2.2727454969027616e-05,-0.0029083379190451507,0.004878822334495525
3.131313131313131,0.9113924050632911,0.004949400936434917,0.00440853148014461,1.8330975647308748e-05,-0.002807379724973858,0.004702460810988527
3.2323232323232323,0.9113924050632911,0.004755423725904814,0.0045321241148010005,2.2710886356329336e-06,-0.0027862643522117442,0.004647800418920752
3.3333333333333335,0.9113924050632911,0.0048700248362365944,0.004318773263863512,8.249412114995896e-05,-0.002756639430030032,0.004621344738623878
3.4343434343434343,0.9113924050632911,0.0049073315167616205,0.004208548608407127,6.680762362654621e-05,-0.002734764037550624,0.004599394585659268
3.5353535353535355,0.9113924050632911,0.00488934771955575,0.004424224706479612,4.5025368516873047e-07,-0.0027940717278106086,0.004674175114916691
3.6363636363636362,0.9113924050632911,0.004896446857075942,0.0043662584171568096,2.754600732758325e-05,-0.002778811582269825,0.0046543021424539895
3.7373737373737375,0.9113924050632911,0.005102246337041017,0.004427989512807578,1.3944646556391592e-05,-0.0028590707549545785,0.004800822731231243
3.8383838383838382,0.9113924050632911,0.004922420154378007,0.004306096407457003,-4.6687560024286624e-05,-0.0027685549685505027,0.004645730285817601
3.9393939393939394,0.9113924050632911,0.00489903565216922,0.004486252642386995,-8.68837547534955e-06,-0.0028155864883668644,0.004706264752057871
4.040404040404041,0.9113924050632911,0.0047920899214794555,0.00447927133678843,-4.875246637331363e-05,-0.0027814083774803655,0.0046443575340897455
4.141414141414141,0.9113924050632911,0.004694092660096913,0.0044249318928206135,-6.450297590241668e-05,-0.002735707365875258,0.004566833666760762
4.242424242424242,0.9113924050632911,0.004724728207355967,0.004191294103558937,-3.8295272606327985e-05,-0.0026748066932744713,0.0044823740365140625
4.343434343434343,0.9113924050632911,0.004730331006398876,0.004314971560796536,3.09565830496629e-05,-0.0027135907701586236,0.004537250507181482
4.444444444444445,0.9113924050632911,0.0046523488478489045,0.004100862289008271,-8.088842944705068e-06,-0.0026259633410571524,0.004402610096088125
4.545454545454545,0.9113924050632911,0.004853107906149053,0.004308633030249872,-5.3075453814406704e-05,-0.0027485222809196775,0.004605992284587421
4.646464646464646,0.9113924050632911,0.004671159446270443,0.004404873295795957,1.8406011999621054e-06,-0.0027228098226199197,0.004543873235759836
4.747474747474747,0.9113924050632911,0.004612972188463501,0.004533820889572474,-4.479740561491889e-05,-0.0027440379234107922,0.0045745682880287495
4.848484848484849,0.9113924050632911,0.004848866662977325,0.004380236913509074,-1.2041377707428047e-05,-0.0027687310729459197,0.004632411205007042
4.94949494949495,0.9113924050632911,0.004949378018744949,0.004301540217985689,2.7599470010596884e-05,-0.0027752754710191918,0.004659605950074847
5.05050505050505,0.9113924050632911,0.004604273309598535,0.004414560354959511,4.670869219731075e-05,-0.0027056500993674136,0.004513134002762396
5.151515151515151,0.9113924050632911,0.004811087208466559,0.004101903910159663,8.681033522648086e-06,-0.0026738973355878667,0.004498642513487221
5.252525252525253,0.9113924050632911,0.00503683705924696,0.004285124455178209,-4.839364371704669e-05,-0.002796588454327551,0.004706970504762007
5.353535353535354,0.9113924050632911,0.004757176591795081,0.004419874546166092,-6.7002377335051995e-06,-0.0027531153413883516,0.004597828952803138
5.454545454545454,0.9113924050632911,0.004712456983715253,0.004298561557856319,2.1519499977585756e-05,-0.0027033055624714713,0.0045198987957071265
5.555555555555555,0.9113924050632911,0.004746721699896491,0.00434812346935604,-3.389896810269537e-05,-0.0027284535507757592,0.004560883685792348
5.656565656565657,0.9113924050632911,0.005025278349124165,0.004424310590563778,-5.3993392630181225e-05,-0.002834876681906383,0.004754292831403336
5.757575757575758,0.9113924050632911,0.00463149111253818,0.004369033295527083,-1.8975323150489984e-06,-0.002700157322419579,0.004505999754351299
5.858585858585858,0.9113924050632911,0.004860165845765986,0.004379088882372466,-9.743511851829879e-05,-0.0027717764184415354,0.0046414452569593185
5.959595959595959,0.9113924050632911,0.004783381508528377,0.004256643670858263,1.7330520034098786e-05,-0.0027120075538159924,0.004543072133918314
6.0606060606060606,0.9113924050632911,0.004890750411785754,0.0043764494610965534,-6.277098314194643e-06,-0.0027801599618646924,0.004654969997517392
6.161616161616162,0.9113924050632911,0.004597993824937246,0.004484091510487885,-3.3450201225131843e-06,-0.0027246256006275395,0.004542117609705038
6.262626262626262,0.9113924050632911,0.004946030652344087,0.004319641364786665,-2.357668244713477e-05,-0.0027797016051392255,0.004664666088456989
6.363636363636363,0.9113924050632911,0.004728381031026159,0.004468275883598688,-2.5613456138036407e-05,-0.002758997074387454,0.004604056229513705
6.4646464646464645,0.9113924050632911,0.005013002292814785,0.004480846150417694,-3.086553726062485e-05,-0.0028481545329697437,0.0047695429791392305
6.565656565656566,0.9113924050632911,0.004978388924832735,0.004420982632950924,-3.972390228466555e-05,-0.002819811467335098,0.00472491340833124
6.666666666666667,0.9113924050632911,0.00488122747069989,0.004323188571060474,-8.694953129786497e-05,-0.0027613248125281085,0.004629962731012606
6.767676767676767,0.9113924050632911,0.005030814719618375,0.004277714493391469,-9.674388961385587e-05,-0.0027925587639029536,0.004702725500276892
6.8686868686868685,0.9113924050632911,0.004810734791625303,0.004431602819050745,-9.308984855649421e-05,-0.0027727012832028143,0.0046356233751905776
6.96969696969697,0.9113924050632911,0.004902378811110147,0.004421719218830661,-6.828120091633428e-05,-0.002797229408982242,0.004682089620876554
7.070707070707071,0.9113924050632911,0.004754266137303653,0.004375997228019976,-7.309622975953535e-05,-0.0027390790095970885,0.004578621187896621
7.171717171717171,0.9113924050632911,0.0046767532706238485,0.004580674905386703,-2.288863819884373e-05,-0.0027772284528031653,0.004629631634047603
7.2727272727272725,0.9113924050632911,0.005083357757823951,0.0047077412469304376,3.6050367141837686e-05,-0.0029373297014263166,0.0049067422634147635
7.373737373737374,0.9113924050632911,0.004983316174884379,0.004387506789513065,8.26330628527975e-06,-0.002811246889319233,0.004713759351301711
7.474747474747475,0.9113924050632911,0.005012198980248193,0.00454786546017455,-8.838112596634154e-05,-0.002868019332126823,0.004799358906139244
7.575757575757575,0.9113924050632911,0.0050842002581006525,0.0046600802384900745,-2.1112784280399654e-05,-0.002923284148977218,0.004886102351702804
7.6767676767676765,0.9113924050632911,0.005143906882262253,0.004597384446857895,-3.190948360778862e-05,-0.002922387398736044,0.004893900174138253
7.777777777777778,0.9113924050632911,0.005188911303080667,0.004577106156254666,3.6417117087438466e-05,-0.0029298052378006,0.00491207512427524
7.878787878787879,0.9113924050632911,0.0053310249031809955,0.004465526888883825,7.567880718962084e-05,-0.002938965537619446,0.004957025691762078
7.979797979797979,0.9113924050632911,0.004989469744857286,0.004768657991750052,-9.078135390108025e-05,-0.0029274383209822014,0.004885340967257804
8.080808080808081,0.9113924050632911,0.004917134180531658,0.0046450603363897515,-3.3718269917988024e-05,-0.0028686583550764228,0.004787255987780356
8.181818181818182,0.9113924050632911,0.005244683720855528,0.004543955055335601,-7.772556669874662e-06,-0.0029365916328573387,0.004931815994906005
8.282828282828282,0.9113924050632911,0.005317858966005882,0.004462753941390484,8.853525243440857e-05,-0.0029341838722189094,0.00494843572618609
8.383838383838384,0.9113924050632911,0.005240880821584157,0.004750190824406932,-1.8536647930941346e-05,-0.0029973214937973267,0.0050136804331527415
8.484848484848484,0.9113924050632911,0.005200368200663695,0.0046755814726363405,-5.025620691308952e-05,-0.0029627849019900105,0.004959609196179059
8.585858585858587,0.9113924050632911,0.005426578535884596,0.0046524758588589515,-3.954678401404043e-05,-0.003023716318423064,0.0050843831910430464
8.686868686868687,0.9113924050632911,0.005305912408051925,0.0048553169220315745,-1.860948321899404e-05,-0.0030483687990250498,0.005095680674085726
8.787878787878787,0.9113924050632911,0.0053873023310558495,0.004678694337342767,9.642762673929716e-05,-0.003019799000519585,0.005073022872037371
8.88888888888889,0.9113924050632911,0.005609921304911133,0.004755201270111214,2.0766219578042375e-05,-0.003109536772506704,0.005235278880809736
8.98989898989899,0.9113924050632911,0.005225751175652127,0.004760764820937644,-9.75839243099447e-06,-0.002995954798976931,0.005009498013649407
9.09090909090909,0.9113924050632911,0.005268031247434113,0.0049852068422252425,-7.044405477203523e-05,-0.003075971426897807,0.00513391684374658
9.191919191919192,0.9113924050632911,0.005612113168543673,0.004945902778020652,7.620189125050224e-05,-0.003167404783969297,0.005312082697021737
9.292929292929292,0.9113924050632911,0.005525669159728402,0.005132267309420968,-4.565615265745712e-05,-0.003197380940744811,0.00534043347115208
9.393939393939394,0.9113924050632911,0.0054064286874464535,0.005097362185366935,-1.7213145330826305e-05,-0.0031511372618440166,0.005258796072210516
9.494949494949495,0.9113924050632911,0.0057816832865737414,0.005110755038539482,3.931722707578098e-05,-0.003267731497533967,0.005477549564827448
9.595959595959595,0.9113924050632911,0.005784076574437006,0.005113566149321774,-4.8625961561241915e-05,-0.003269292817127634,0.005480322605351586
9.696969696969697,0.9113924050632911,0.005863242191851296,0.005382148737261111,7.375677191869241e-05,-0.003373617278733722,0.0056395578421884855
9.797979797979798,0.9113924050632911,0.005891212421910301,0.005204477642541716,4.0273820140948114e-05,-0.003328707019335605,0.005580067556603311
9.8989898989899,0.9113924050632911,0.006035001983837391,0.005340941917846393,-3.3700160976500717e-06,-0.0034127831705051347,0.005719645838335813
10.0,0.9113924050632911,0.005825602209666129,0.005367472507325436,4.0130368019264914e-05,-0.003357922415097469,0.005611013621661964
0.0,1.0126582278481013,0.005992105009797177,0.005435242602112646,-1.6690025676136992e-05,-0.0034282042835729466,0.005734062768887839
0.10101010101010101,1.0126582278481013,0.005842169802486485,0.005304857894512988,-6.484324813974129e-06,-0.003344108309099842,0.005592916128788345
0.20202020202020202,1.0126582278481013,0.005914926220653733,0.005343057547025491,3.171782046716698e-05,-0.0033773951303037674,0.005651003718247385
0.30303030303030304,1.0126582278481013,0.005718635498970269,0.00510940504637372,3.0350002887635364e-05,-0.0032484121636031965,0.005439921891829644
0.40404040404040403,1.0126582278481013,0.005544456221313347,0.005137965281592803,3.708547239538027e-05,-0.003204726450871845,0.005353184514966998
0.5050505050505051,1.0126582278481013,0.005498043218566556,0.0050675661310355955,-1.5667843983697838e-05,-0.0031696828048806453,0.005296012138229314
0.6060606060606061,1.0126582278481013,0.0056684257374485245,0.005085625049569795,-7.923702785512675e-06,-0.003226215236105496,0.005400678931299635
0.7070707070707071,1.0126582278481013,0.0056483281445211505,0.005130598285836381,2.0270693932757926e-05,-0.0032336779291072594,0.00540819559611086
0.8080808080808081,1.0126582278481013,0.005395712228537062,0.004956338774684218,-9.002525958083616e-06,-0.003105615300966384,0.005190016368346779
0.9090909090909091,1.0126582278481013,0.005565040391847384,0.0049625652469476806,-8.512268341702759e-05,-0.0031582816916385192,0.005291652857128876
1.0101010101010102,1.0126582278481013,0.0054309099637472715,0.004914928207807231,-0.00012427230895676456,-0.003103751451466351,0.005196643201881972
1.1111111111111112,1.0126582278481013,0.00548085691667465,0.004709010597530288,1.4087840816728443e-05,-0.0030569602542614813,0.0051386530770544765
1.2121212121212122,1.0126582278481013,0.005302993142231425,0.004749731194601035,6.858830150760796e-06,-0.003015817301049738,0.005049161501255515
1.3131313131313131,1.0126582278481013,0.005351744735688463,0.00476466846800889,-1.5332415117874074e-05,-0.0030349239611092054,0.005083763682932165
1.4141414141414141,1.0126582278481013,0.005238345796307655,0.004629641849503623,3.234165350235461e-05,-0.002960396293743383,0.004962390891824817
1.5151515151515151,1.0126582278481013,0.005298860728736657,0.0047877884867140764,-1.0475405764320998e-05,-0.00302599476463522,0.005062741197087848
1.6161616161616161,1.0126582278481013,0.005249909020487186,0.004651620566855161,2.6101336524717895e-05,-0.002970458876202704,0.004978009410082624
1.7171717171717171,1.0126582278481013,0.005015751493213285,0.00467969456070776,-2.858074263065385e-05,-0.0029086338161763135,0.004856703595967641
1.8181818181818181,1.0126582278481013,0.005148278054093991,0.004678100675595748,-7.082363299006832e-05,-0.0029479136189069217,0.004931559365072378
1.9191919191919191,1.0126582278481013,0.005146540778876741,0.004506398204043434,-8.705966096484794e-05,-0.0028958816948760524,0.004860543466813418
2.0202020202020203,1.0126582278481013,0.005243796127224532,0.004521839191579124,-1.7950338795518125e-05,-0.0029296905956410963,0.0049227828818311555
2.121212121212121,1.0126582278481013,0.0052521609394673135,0.004550564830318697,-2.0216099987753624e-06,-0.0029408177309358033,0.004938881271645128
2.2222222222222223,1.0126582278481013,0.004898728527213693,0.004536535062068748,-9.085935120632241e-05,-0.0028305790767847324,0.0047306663478372596
2.323232323232323,1.0126582278481013,0.005041553143402301,0.00450356457092449,-1.969062475367424e-05,-0.002863535314298037,0.0047953680761007155
2.4242424242424243,1.0126582278481013,0.005218403025582392,0.00451546117084673,-8.44819885480813e-06,-0.0029201592589287364,0.004904878959075063
2.525252525252525,1.0126582278481013,0.005108864920383564,0.004536683546989941,-8.004689071130498e-05,-0.0028936645402120515,0.0048501461283444285
2.6262626262626263,1.0126582278481013,0.005040149485268756,0.004497459740847596,-3.5779486454856456e-05,-0.002861282767834905,0.004792308636920496
2.727272727272727,1.0126582278481013,0.0048596130682829084,0.004399618511791072,-2.7640396921787782e-05,-0.0027777694740221946,0.004646970043155798
2.8282828282828283,1.0126582278481013,0.005050993357087256,0.004427186851089185,1.8449749128401343e-05,-0.002843454062452932,0.0047698896331141395
2.929292929292929,1.0126582278481013,0.004818201237152111,0.004502681618192888,1.079397253012399e-06,-0.0027962648566034996,0.004668445380265522
3.0303030303030303,1.0126582278481013,0.004898035116255527,0.004222161062995682,2.4032815597511233e-05,-0.0027360588537753625,0.0045976985131243805
3.131313131313131,1.0126582278481013,0.004931381637207308,0.004597520860086299,-3.668666008014836e-06,-0.0028586707491880825,0.0047732204371826155
3.2323232323232323,1.0126582278481013,0.004700020843380164,0.004298956033059162,1.2252230950801591e-05,-0.0026996930629317978,0.004512924361621919
3.3333333333333335,1.0126582278481013,0.004930107164409241,0.004536733830926774,1.5795389441574458e-05,-0.0028400522986008047,0.004745742831775423
3.4343434343434343,1.0126582278481013,0.005045373850155134,0.004214787974060564,6.143188429831896e-06,-0.0027780485472647097,0.004685634123801553
3.5353535353535355,1.0126582278481013,0.005027354635875512,0.004439520329435475,-6.470761802378349e-05,-0.002840062489593296,0.004762053497029385
3.6363636363636362,1.0126582278481013,0.0047346659857382505,0.004317737085819103,7.177085804152178e-06,-0.0027157209214672064,0.0045405976649399386
3.7373737373737375,1.0126582278481013,0.0048255816157481,0.004199999453268652,-2.672443999255056e-05,-0.0027076743207050257,0.004545430208125133
3.8383838383838382,1.0126582278481013,0.0048904348784957205,0.004453701550540587,1.8006889872851774e-05,-0.0028032409287108923,0.004687456255280641
3.9393939393939394,1.0126582278481013,0.004781348828504896,0.004200385892899183,9.024451666044335e-05,-0.0026945204164212236,0.004521665657607983
4.040404040404041,1.0126582278481013,0.004866860932147708,0.004231585944840357,1.4333401384037076e-05,-0.0027295340630964196,0.004582437229755902
4.141414141414141,1.0126582278481013,0.004761141333606878,0.004204247167564034,4.8923712757621674e-05,-0.0026896165503512734,0.004509359895525227
4.242424242424242,1.0126582278481013,0.004805915025704133,0.004313442641008098,-7.474136041196346e-06,-0.0027358073000136695,0.004579599921254107
4.343434343434343,1.0126582278481013,0.004788573541750835,0.004280752132827773,-1.691097388489459e-05,-0.002720797702373582,0.004556033025398997
4.444444444444445,1.0126582278481013,0.004910873816600585,0.00440711338535857,-2.9649258336147718e-05,-0.0027953961605877466,0.0046796569894162286
4.545454545454545,1.0126582278481013,0.004886521415529204,0.00427583289741989,1.6329109621063633e-05,-0.0027487062938847283,0.00461169051521025
4.646464646464646,1.0126582278481013,0.004793066518690353,0.004335295956876002,-4.710386606508264e-05,-0.002738508742669906,0.004582092547011101
4.747474747474747,1.0126582278481013,0.004670701905294219,0.004457610917720032,-3.6371275869521923e-06,-0.002738493846904275,0.004567890022924355
4.848484848484849,1.0126582278481013,0.004669010645340309,0.004415107830768357,-1.7294775735391868e-05,-0.0027252355428325995,0.004547477259891861
4.94949494949495,1.0126582278481013,0.004862768926665857,0.004289797215108527,-7.187346356882757e-05,-0.0027457698425323155,0.004604789524600288
5.05050505050505,1.0126582278481013,0.004829431826271029,0.004342555054293831,7.205937500901743e-05,-0.002751596064169458,0.004607027266927313
5.151515151515151,1.0126582278481013,0.00474755087998237,0.00449173631783884,-3.9214306884493635e-05,-0.002771786159346363,0.004625451446529575
5.252525252525253,1.0126582278481013,0.004824989346653817,0.004437903615980508,8.46485959079886e-06,-0.0027788678887902974,0.004643585682747435
5.353535353535354,1.0126582278481013,0.004771391333501034,0.004222351114433157,1.547052967634894e-05,-0.002698122734380257,0.004522018651932375
5.454545454545454,1.0126582278481013,0.004756718358361917,0.004633706105519047,-3.7995467157756175e-05,-0.0028171273391642887,0.004696881718789524
5.555555555555555,1.0126582278481013,0.004740399442445416,0.004412716296254931,2.924299929804932e-06,-0.002745934721610104,0.004585350561224759
5.656565656565657,1.0126582278481013,0.004898179663165617,0.004328642295427548,-2.114450271078444e-05,-0.002768046587577949,0.004639847168152892
5.757575757575758,1.0126582278481013,0.004787182304305676,0.00425934433447189,-2.7806938146272236e-05,-0.0027139579916332698,0.004546558085602111
5.858585858585858,1.0126582278481013,0.004770467190340788,0.0042542750393201175,-0.0001021930398877724,-0.0027074226688982715,0.004537914067359831
5.959595959595959,1.0126582278481013,0.00476936056070572,0.004223492461268279,-4.438296882483822e-05,-0.0026978559065921996,0.004521862436978753
6.0606060606060606,1.0126582278481013,0.004811722083977141,0.004394588866343295,1.5507583800804837e-05,-0.002761893285096131,0.0046173869098120515
6.161616161616162,1.0126582278481013,0.004908224807508269,0.004361268466077092,2.1835785471689834e-05,-0.002780847982075608,0.004659042575617484
6.262626262626262,1.0126582278481013,0.005060718123119725,0.004406593179655186,-5.9812544097625945e-05,-0.0028401933908324736,0.004768557227134172
6.363636363636363,1.0126582278481013,0.004764726106558291,0.004467737973661344,-5.633771010409277e-05,-0.0027697392240658906,0.004624421209642021
6.4646464646464645,1.0126582278481013,0.004846326017643203,0.004348848529874413,3.1296911623294214e-05,-0.0027585523642552844,0.00461804721911632
6.565656565656566,1.0126582278481013,0.004841348888341105,0.004302597851669529,6.238686876169989e-05,-0.00274318402200319,0.004596988837255913
6.666666666666667,1.0126582278481013,0.004662931725675138,0.0043403003054668324,7.322027260842873e-05,-0.0027009696093425913,0.004512061463631338
6.767676767676767,1.0126582278481013,0.004851982190810367,0.004506932515382147,5.325056802761233e-05,-0.002807674411857754,0.004689895782138155
6.8686868686868685,1.0126582278481013,0.004930923955683851,0.004420877471487351,7.282824119494307e-05,-0.0028055404281513603,0.004698411423394921
6.96969696969697,1.0126582278481013,0.004896450453908211,0.004479599931963152,-0.00010602491163802942,-0.002812815115761409,0.004705489063157792
7.070707070707071,1.0126582278481013,0.005026786771136517,0.004489150719251281,2.7009188751769892e-05,-0.0028547812471163394,0.00478092506344621
7.171717171717171,1.0126582278481013,0.005029962308532461,0.004365658027601091,-2.5258916342028482e-05,-0.0028186861008400654,0.0047331078106254585
7.2727272727272725,1.0126582278481013,0.004897861700896961,0.00434628398977894,3.0529490221014815e-05,-0.00277324370720277,0.004646991716743378
7.373737373737374,1.0126582278481013,0.005067907679552639,0.004597559699090094,-3.728176232935736e-05,-0.0028996402135928194,0.004850299487490721
7.474747474747475,1.0126582278481013,0.0051910497675572605,0.00450661412735385,-3.2236174276125074e-05,-0.0029092991684733327,0.004885245938194617
7.575757575757575,1.0126582278481013,0.0050824834378553835,0.004559404251007804,-3.680006012350533e-05,-0.002892566306658956,0.004842599628425109
7.6767676767676765,1.0126582278481013,0.005143785533446116,0.004808882424249175,5.794088234588334e-05,-0.0029858003873085874,0.004985788942182274
7.777777777777778,1.0126582278481013,0.004961901772770988,0.004491589262780396,-1.0678394768772518e-05,-0.0028360473106654152,0.0047442977000760975
7.878787878787879,1.0126582278481013,0.004883118731964366,0.004527495031965026,2.91615433569172e-06,-0.002823184129178818,0.004715377983506049
7.979797979797979,1.0126582278481013,0.004993036153680871,0.0044565441304106924,-2.590905969210286e-05,-0.002834874085227469,0.0047477914331581356
8.080808080808081,1.0126582278481013,0.004971405574232843,0.004567780342494868,-3.935796696896605e-05,-0.0028617557750183127,0.004782870386382795
8.181818181818182,1.0126582278481013,0.0051941934410366574,0.004864911759856907,-3.899890700028278e-06,-0.0030177315602680694,0.005037634842589707
8.282828282828282,1.0126582278481013,0.0051195479557015365,0.004681641108182107,1.7176913018152957e-05,-0.002940356719165093,0.0049153365816441185
8.383838383838384,1.0126582278481013,0.005095012995770266,0.004729831991066481,-5.703481714765743e-06,-0.002947453496051024,0.004922601976353681
8.484848484848484,1.0126582278481013,0.005239269676017525,0.004710090786254057,3.745629172894639e-05,-0.002984808138681475,0.0049961660347162175
8.585858585858587,1.0126582278481013,0.005203843986317577,0.0047024925118191955,-5.154304721926489e-05,-0.002971900949441032,0.004972962973566704
8.686868686868687,1.0126582278481013,0.005189535457950665,0.004710610715268041,-6.855864020550847e-05,-0.0029700438519656117,0.004968838003606068
8.787878787878787,1.0126582278481013,0.00540657032662417,0.004832813655295672,4.8377502987017935e-06,-0.0030718151945759524,0.005143754837878988
8.88888888888889,1.0126582278481013,0.0053834355229105835,0.004644231427619161,2.5725586844550553e-05,-0.003008300085158923,0.005054733282381358
8.98989898989899,1.0126582278481013,0.005383458950505321,0.0048479236244822815,6.752942369388642e-05,-0.003069414772496281,0.005138003170707199
9.09090909090909,1.0126582278481013,0.005708134230626934,0.004917926764899458,-9.438654394511832e-06,-0.003187818298657918,0.0053569470049572784
9.191919191919192,1.0126582278481013,0.005465192711085139,0.005128620985370111,-6.947649159863128e-05,-0.0031781441089365754,0.005306285282791378
9.292929292929292,1.0126582278481013,0.005584818543998897,0.004938833267611943,-3.736726753419301e-05,-0.003157095543483252,0.005291878072483861
9.393939393939394,1.0126582278481013,0.005561074888909983,0.005032800321738356,4.161018389909818e-05,-0.0031781625631945015,0.0053171465778789635
9.494949494949495,1.0126582278481013,0.0057171294586373135,0.004848443872415039,-1.157475660707982e-06,-0.0031696719993157055,0.005336084703084617
9.595959595959595,1.0126582278481013,0.005857449633846186,0.005188127902488541,7.592655660810798e-05,-0.003313673260900418,0.0055546812679794135
9.696969696969697,1.0126582278481013,0.005613859354829276,0.005041440484136859,-3.3573695026845394e-05,-0.0031965899516898408,0.005350979608090914
9.797979797979798,1.0126582278481013,0.005879901256944629,0.005204824992083626,1.5717930514336193e-05,-0.003325417874708476,0.00557317917678294
9.8989898989899,1.0126582278481013,0.005676772355617093,0.005424094997005012,5.2921915310297164e-05,-0.0033302602057866315,0.0055555018286518945
10.0,1.0126582278481013,0.00600988729477685,0.005326515638331484,6.003335652181936e-05,-0.0034009208799324997,0.005699962060641921
0.0,1.1139240506329113,0.005944910606538117,0.005476985042836602,-6.724897403112989e-05,-0.0034265686948124156,0.0057264917776680725
0.10101010101010101,1.1139240506329113,0.005877420118917406,0.005325796807315522,2.487719580145609e-05,-0.0033609650778698786,0.005622107274598894
0.20202020202020202,1.1139240506329113,0.005857502398726081,0.004988288127802273,2.5042321591170643e-05,-0.0032537371579585057,0.005475063878762355
0.30303030303030304,1.1139240506329113,0.00570640777726259,0.005019690701715569,4.263243014162779e-05,-0.0032178295436934476,0.005396427982829904
0.40404040404040403,1.1139240506329113,0.005797806130046526,0.005292730053206202,2.9307184572624646e-05,-0.003327160854975818,0.0055627242717718375
0.5050505050505051,1.1139240506329113,0.005626331266903544,0.005079323203644963,4.921293541298389e-05,-0.003211696341164552,0.005374424482275485
0.6060606060606061,1.1139240506329113,0.005443866658990991,0.004978527698400816,-2.5671825717157222e-06,-0.003126718307217542,0.005226758179570733
0.7070707070707071,1.1139240506329113,0.005645062705994934,0.005126157093183625,-0.00011340978353591316,-0.0032313659397535674,0.005407894840306563
0.8080808080808081,1.1139240506329113,0.005371128970968114,0.004920458424839065,7.242175172311025e-05,-0.0030874762187421538,0.005162097971524119
0.9090909090909091,1.1139240506329113,0.005558720676265773,0.004930474427618162,5.790212894261694e-05,-0.003146758531165181,0.005273697134188575
1.0101010101010102,1.1139240506329113,0.005349136613713902,0.004837149601032882,5.2677129672658495e-06,-0.003055885864424035,0.005112415083348606
1.1111111111111112,1.1139240506329113,0.005451653881486368,0.0047025800631800875,0.00012011493270791665,-0.0030462701833999365,0.005122619762473726
1.2121212121212122,1.1139240506329113,0.005115325536368362,0.00453751585497497,-1.540291119819002e-05,-0.0028958524174029993,0.004852365042076066
1.3131313131313131,1.1139240506329113,0.005265425966194172,0.004847567453182921,6.527487791541175e-05,-0.003033898025813128,0.005070689864981263
1.4141414141414141,1.1139240506329113,0.005317888216602496,0.004804072173503617,5.231670315910355e-05,-0.003036588117031834,0.005081312511705704
1.5151515151515151,1.1139240506329113,0.005432589903703678,0.004568657957194155,5.110486715309517e-05,-0.00300037435826935,0.005057060274731594
1.6161616161616161,1.1139240506329113,0.005141485913825288,0.004821533001446217,0.00013656385228088492,-0.0029889056745814515,0.0049948136034659715
1.7171717171717171,1.1139240506329113,0.005169138480524598,0.004807259623050027,-3.335233089743523e-05,-0.0029929194310723876,0.00499836814818557
1.8181818181818181,1.1139240506329113,0.005287791873090757,0.004659208133121324,-2.5800093143350583e-05,-0.0029841000018636242,0.005003402577639528
1.9191919191919191,1.1139240506329113,0.0051673109584262,0.004411178949592749,2.612194096579707e-05,-0.0028735469724056844,0.004834016550239724
2.0202020202020203,1.1139240506329113,0.005218050889176803,0.004567835144030356,-1.582943081305682e-05,-0.002935765809962148,0.004925315062287549
2.121212121212121,1.1139240506329113,0.004992417670725802,0.004609800058265776,4.170769132349921e-05,-0.0028806653186974735,0.004813072002506311
2.2222222222222223,1.1139240506329113,0.005032017465367523,0.004467796999418035,6.947145324619097e-05,-0.002849944339435667,0.004776489936703817
2.323232323232323,1.1139240506329113,0.004923777757044279,0.004551292852723928,-5.5480498460721806e-05,-0.0028425211829304618,0.004749477210716098
2.4242424242424243,1.1139240506329113,0.0049376601051283565,0.004514889753643267,-1.256528129769011e-05,-0.0028357649576314873,0.00474048514865243
2.525252525252525,1.1139240506329113,0.004980789309649635,0.004338181690735444,4.749188538635153e-05,-0.002795691300115524,0.0046933229143062485
2.6262626262626263,1.1139240506329113,0.0050575925448080854,0.0044461145690336545,-2.8067257470724578e-05,-0.002851112134152522,0.004781516969058063
2.727272727272727,1.1139240506329113,0.004902474216776015,0.00438749487490433,-2.3816287769738503e-05,-0.002786990727504104,0.00466652824589109
2.8282828282828283,1.1139240506329113,0.004958245655651868,0.004472422332261581,-7.646221276899833e-05,-0.0028292003963740348,0.00473591937332879
2.929292929292929,1.1139240506329113,0.004834153975568061,0.004657164611691824,-5.630639516150393e-06,-0.0028473955761779655,0.004748143971039033
3.0303030303030303,1.1139240506329113,0.005068350913920059,0.004279412056864014,5.129227578598853e-05,-0.002804328891235222,0.004724391942068954
3.131313131313131,1.1139240506329113,0.005019342964549643,0.0044521238311032284,-1.721679890704167e-05,-0.0028414400386958614,0.004761235472941169
3.2323232323232323,1.1139240506329113,0.004811563935420254,0.004382464603951722,-6.677330797556044e-05,-0.0027582085618115927,0.004613459753468176
3.3333333333333335,1.1139240506329113,0.004776003856564253,0.004334044440230484,4.170800831773592e-05,-0.002733014489038421,0.004571647379295699
3.4343434343434343,1.1139240506329113,0.00482766746010725,0.00437964878975967,-3.0399010342868666e-05,-0.0027621948749600757,0.004620279318124646
3.5353535353535355,1.1139240506329113,0.004751206955534126,0.004537114205533381,-8.01499727632965e-06,-0.002786496348320252,0.00464788091473198
3.6363636363636362,1.1139240506329113,0.004928327369201436,0.004272413241123978,-6.809041799656728e-05,-0.002760222183097624,0.004636807454191986
3.7373737373737375,1.1139240506329113,0.004655747951967205,0.004389976868895443,-5.3709649283417894e-05,-0.002713717446258794,0.00452967043662328
3.8383838383838382,1.1139240506329113,0.004873577237425223,0.0043605960039197,-4.120764157359329e-05,-0.002770251972403477,0.004638959514957148
3.9393939393939394,1.1139240506329113,0.004538831328391879,0.004547026063474097,3.2394304067452297e-05,-0.0027257572175597928,0.004543280717103197
4.040404040404041,1.1139240506329113,0.004884557312081572,0.004357379990645368,3.124399678202871e-05,-0.002772581190818082,0.004643782594509153
4.141414141414141,1.1139240506329113,0.004949706847240819,0.004303303040084792,-2.1175511212065768e-05,-0.0027759029661976833,0.004660393933133874
4.242424242424242,1.1139240506329113,0.004878457238569198,0.00444830477614456,1.5089117860297394e-05,-0.0027980286044141274,0.004678309397625146
4.343434343434343,1.1139240506329113,0.004775289527050241,0.004146594592276636,-5.4712890236209735e-05,-0.0026765652357980626,0.004495044777475055
4.444444444444445,1.1139240506329113,0.004824879794598616,0.004401421499943556,3.845633227577226e-05,-0.0027678903883626513,0.004628183580885495
4.545454545454545,1.1139240506329113,0.004761910460212922,0.00438908233254494,1.4956546497740035e-05,-0.002745297837827359,0.004586947675493073
4.646464646464646,1.1139240506329113,0.004731109135467441,0.004329931450696225,3.9972694541419145e-05,-0.0027183121758490997,0.0045443498133420366
4.747474747474747,1.1139240506329113,0.0048167892207385335,0.004338140241202403,-7.1865491705555e-05,-0.0027464788385822806,0.004597880592640594
4.848484848484849,1.1139240506329113,0.004958079417782111,0.0042573779905699435,2.5339203001887445e-05,-0.002764637222505616,0.004647722765450504
4.94949494949495,1.1139240506329113,0.004636530601261886,0.004301111603881391,1.5102833604865744e-05,-0.0026812926615429828,0.004478328456175483
5.05050505050505,1.1139240506329113,0.004736927969032227,0.004423531429948657,9.40214491914953e-05,-0.002748137819694265,0.004591153149465904
5.151515151515151,1.1139240506329113,0.004850916236217725,0.004306903450886897,2.2002711361086133e-05,-0.0027473459061313865,0.004603241265266738
5.252525252525253,1.1139240506329113,0.004478050204698929,0.004408410429344827,3.032492478742538e-05,-0.0026659381902131266,0.004443950014010728
5.353535353535354,1.1139240506329113,0.0048213746188287675,0.004183886188184092,5.0813752166627894e-05,-0.002701578242103858,0.004537204016485548
5.454545454545454,1.1139240506329113,0.00496278465548977,0.004246178087628459,-6.435742824996051e-05,-0.002762688822935468,0.004647452857918435
5.555555555555555,1.1139240506329113,0.004786626655633225,0.004194361742661541,-2.9707729357411274e-05,-0.0026942965194884302,0.0045199855193883125
5.656565656565657,1.1139240506329113,0.004774370562707712,0.0042721645248130465,6.476452286249377e-05,-0.002713960526256228,0.0045455132582662506
5.757575757575758,1.1139240506329113,0.004803041993649525,0.004199005400733112,-4.7705140948508946e-05,-0.0027006142183147908,0.00453207312587552
5.858585858585858,1.1139240506329113,0.004830322560971842,0.004258779826932882,-3.278964728338911e-05,-0.002726730716371417,0.004571779397563413
5.959595959595959,1.1139240506329113,0.004818605198061941,0.004306013159916838,-8.182004856889194e-05,-0.002737385507393634,0.004586045306569877
6.0606060606060606,1.1139240506329113,0.004855017422194378,0.004393580303321677,-1.9410341640143942e-05,-0.002774579317654816,0.004641655245405253
6.161616161616162,1.1139240506329113,0.004912448646871239,0.004206723389271924,-7.193181044118982e-05,-0.002735751610842949,0.00460205207670058
6.262626262626262,1.1139240506329113,0.005095643119995172,0.0041703771472335885,2.0057923655424323e-05,-0.002779806080168628,0.004701922766203254
6.363636363636363,1.1139240506329113,0.004825416575749639,0.0041267350573486496,5.74629101868633e-05,-0.0026856454899294863,0.0045178841919369574
6.4646464646464645,1.1139240506329113,0.004827461781449505,0.004509441719991984,-2.7984231586811226e-05,-0.002801071050432447,0.004676819824418852
6.565656565656566,1.1139240506329113,0.004918355003957708,0.0044182874445960856,-9.755824876615396e-06,-0.002800992734566138,0.004688396234783876
6.666666666666667,1.1139240506329113,0.004956172622832989,0.004407107597598388,8.631104672337213e-05,-0.0028089840661294128,0.004708100170280123
6.767676767676767,1.1139240506329113,0.0049803804411352294,0.004520459479120977,-5.970707518969822e-06,-0.002850251976076862,0.004767099979453274
6.8686868686868685,1.1139240506329113,0.004770787141406517,0.004361370947019123,3.8904875089714287e-05,-0.0027396474265276916,0.0045803203841092485
6.96969696969697,1.1139240506329113,0.004861418315257906,0.004418095403635377,4.718537423380197e-06,-0.002783854115667985,0.0046556215386933586
7.070707070707071,1.1139240506329113,0.005060684737614413,0.00442319234785951,-1.875573789153804e-05,-0.0028451631256421767,0.004774079375801419
7.171717171717171,1.1139240506329113,0.004859076931220726,0.0046695500139981826,-3.2995816004755904e-05,-0.0028585880835656726,0.004767482498779972
7.2727272727272725,1.1139240506329113,0.004982034910146739,0.004524379199159905,4.0033646027600075e-05,-0.002851924232791993,0.004770206698372518
7.373737373737374,1.1139240506329113,0.005073411277980227,0.004393156097740401,4.4548455413607055e-05,-0.0028399702127161887,0.004770428544385304
7.474747474747475,1.1139240506329113,0.005010292206507639,0.0045253058080514,1.5860747470716094e-05,-0.0028606794043677117,0.004786342123037406
7.575757575757575,1.1139240506329113,0.004943300202421728,0.004428288317979097,-2.158073234052166e-05,-0.0028114765561202473,0.004707121515723814
7.6767676767676765,1.1139240506329113,0.004911541513165109,0.0045228951957244756,5.43570373228039e-06,-0.002830331012666875,0.00472922003232892
7.777777777777778,1.1139240506329113,0.0049518731687785925,0.0044080372658748665,9.706952718195247e-06,-0.0028079731303960373,0.004703624307695315
7.878787878787879,1.1139240506329113,0.005039403515612658,0.004585741670103019,8.53838253055503e-05,-0.002887543555714703,0.004830847022722956
7.979797979797979,1.1139240506329113,0.005000738036674845,0.004685992915182376,1.1529326689629468e-05,-0.002906019285557166,0.004851070632155999
8.080808080808081,1.1139240506329113,0.005207562760997142,0.004667933553748459,-9.10088686987356e-06,-0.0029626488944236805,0.004959839221693665
8.181818181818182,1.1139240506329113,0.0048369283865503845,0.004819418444021187,7.828287349746939e-05,-0.002896904049171471,0.00483010073409313
8.282828282828282,1.1139240506329113,0.00521020376813656,0.0046869487287222854,-4.293167795664991e-06,-0.0029691457490576534,0.0049692865743075545
8.383838383838384,1.1139240506329113,0.005342084046658857,0.0046234289553700484,-1.2519164081828482e-05,-0.0029896539006086715,0.0050215218203236165
8.484848484848484,1.1139240506329113,0.005213753773723324,0.004953542295424437,1.7616288911513866e-05,-0.0030501888207443277,0.005088731752648275
8.585858585858587,1.1139240506329113,0.0052247908823566626,0.004804539383669279,-0.00011523432894345001,-0.003008799079807782,0.005031814954821857
8.686868686868687,1.1139240506329113,0.005344030669008991,0.004803386973430606,-4.862402951269526e-05,-0.003044225292731879,0.005095962695648217
8.787878787878787,1.1139240506329113,0.005305196629788247,0.004789289943569327,-1.4362776861759672e-05,-0.003028345972007272,0.005067040896289043
8.88888888888889,1.1139240506329113,0.005255884259785534,0.0048667681676986384,-2.0836324411441814e-05,-0.0030367957282452515,0.005072660445860582
8.98989898989899,1.1139240506329113,0.0055643959223464585,0.0047393224857262585,3.244179491356997e-05,-0.003091115522421815,0.005201477703523104
9.09090909090909,1.1139240506329113,0.0054064943646010095,0.004954166689045345,6.655731276407753e-05,-0.003108198316093906,0.005196399160893861
9.191919191919192,1.1139240506329113,0.005431793462736068,0.004894282778721199,1.097144093887518e-05,-0.0030978228724371803,0.005184015051600302
9.292929292929292,1.1139240506329113,0.005622785533236321,0.004891944381021587,8.443624087652327e-05,-0.0031544189742773727,0.005297345686388187
9.393939393939394,1.1139240506329113,0.005754833560206782,0.005014971804263906,1.1234626933790516e-05,-0.0032309416093412066,0.005422923760399235
9.494949494949495,1.1139240506329113,0.005768861694908893,0.005194356618305426,3.056581009885206e-05,-0.0032889654939642957,0.005504396771156928
9.595959595959595,1.1139240506329113,0.005671844562919794,0.005197421426134693,-1.508953192065667e-06,-0.003260779796716346,0.005450142255075652
9.696969696969697,1.1139240506329113,0.005554163791787789,0.005173299662174477,-4.71154416959838e-05,-0.00321823903618868,0.005374483300511986
9.797979797979798,1.1139240506329113,0.005876163007549275,0.005251829089819316,-1.3927598996070249e-05,-0.003338397629210577,0.005590257471211578
9.8989898989899,1.1139240506329113,0.005923297311769976,0.0051581368780241246,8.233706620705222e-05,-0.0033244302569382304,0.005582023555139011
10.0,1.1139240506329113,0.005852481777600832,0.0055085509431352184,-2.9103955471616884e-05,-0.0034083098162208153,0.005688543183913895
0.0,1.2151898734177216,0.006090416619224153,0.005372021840146067,6.041795832116111e-05,-0.003438731537811066,0.005765838459559066
0.10101010101010101,1.2151898734177216,0.0059896902958618565,0.005313010518196692,-3.477653884072429e-05,-0.0033908102442175643,0.005681972482080223
0.20202020202020202,1.2151898734177216,0.005817914678467533,0.005272696219176401,1.9186906891813974e-05,-0.0033271832692931803,0.0055654707176650085
0.30303030303030304,1.2151898734177216,0.005581825258544327,0.005228167854890957,3.995572464855591e-05,-0.003242997934030585,0.005414109559964156
0.40404040404040403,1.2151898734177216,0.005792244374693494,0.005112021410111667,8.27179155821585e-06,-0.0032712797354415486,0.005483884189621736
0.5050505050505051,1.2151898734177216,0.005654322955987102,0.005095707147229843,-2.2407887022702672e-05,-0.0032250090309650834,0.005396881679411291
0.6060606060606061,1.2151898734177216,0.00550451585285309,0.004847839622427245,6.837113276793446e-05,-0.0031057066425841003,0.00520867138152661
0.7070707070707071,1.2151898734177216,0.0055772761448955694,0.004965913518175566,5.242624341753925e-05,-0.0031629568989213403,0.005298894299463013
0.8080808080808081,1.2151898734177216,0.005469808810827921,0.004961612440405412,-2.045349442224397e-05,-0.0031294263753699997,0.005234366249094134
0.9090909090909091,1.2151898734177216,0.0053872993495465,0.0048908380185477465,-2.7771292318665292e-05,-0.0030834412104282735,0.005157246946120359
1.0101010101010102,1.2151898734177216,0.0052431861349435775,0.004757826707913477,-9.861133255232165e-06,-0.0030003038528571163,0.005018170635465717
1.1111111111111112,1.2151898734177216,0.005366141192334382,0.004938021826829089,-7.012986952380569e-05,-0.0030912489057490413,0.005166832987480125
1.2121212121212122,1.2151898734177216,0.005408852975685832,0.004627995149505851,-4.816244458902483e-05,-0.0030110544375575045,0.0050644686931382256
1.3131313131313131,1.2151898734177216,0.005042419429672828,0.004842564413675607,1.4408173737668115e-05,-0.0029654951530045308,0.004945584465236712
1.4141414141414141,1.2151898734177216,0.0054018924776782756,0.004808057894854275,-4.7040273311690707e-05,-0.003062985111759765,0.005131460771374212
1.5151515151515151,1.2151898734177216,0.005258088425426677,0.004733233526710159,-2.123427986225411e-05,-0.0029973965856410507,0.005016431577353239
1.6161616161616161,1.2151898734177216,0.005085750993771366,0.004576053249567367,-5.5395352614070976e-06,-0.00289854127300162,0.004851036096684636
1.7171717171717171,1.2151898734177216,0.0051186699589307345,0.004750246505804893,-0.000174096956084924,-0.002960674939420688,0.0049539488469246915
1.8181818181818181,1.2151898734177216,0.005108482236845547,0.004445436614700789,3.5885687145008326e-05,-0.0028661756554639005,0.004811748832378174
1.9191919191919191,1.2151898734177216,0.005260604117715,0.0047662365129326765,1.0798965645379758e-05,-0.003008052189194303,0.005031702754294262
2.0202020202020203,1.2151898734177216,0.005023246712587553,0.0044753304957776,-6.787085394429873e-06,-0.0028495731625095455,0.004772948729547117
2.121212121212121,1.2151898734177216,0.004968558503220456,0.004387880851119233,-1.2782263974185722e-05,-0.0028069318063019067,0.0047052225673620785
2.2222222222222223,1.2151898734177216,0.005182426480065857,0.00462257334259981,-2.4478081011493133e-05,-0.0029414999467997,0.00492659918824501
2.323232323232323,1.2151898734177216,0.0051277266252734,0.00458430787925549,-1.1903008960631739e-05,-0.0029136103513586666,0.004878812001840165
2.4242424242424243,1.2151898734177216,0.004910704200390356,0.00453095683235106,2.6788049412707133e-05,-0.002832498309822425,0.004732499298544113
2.525252525252525,1.2151898734177216,0.005035814387943401,0.004551466278266007,-5.292670625892021e-06,-0.002876184199862822,0.004811965970241923
2.6262626262626263,1.2151898734177216,0.0048663000046928005,0.004315439115996516,4.495488640624251e-05,-0.002754521736206795,0.004616246520123898
2.727272727272727,1.2151898734177216,0.005077598974860745,0.004489208391528535,5.4605666633072206e-05,-0.0028700422099167838,0.004811397795007277
2.8282828282828283,1.2151898734177216,0.004944310955723088,0.00459759819404329,3.90812770597268e-05,-0.002862572744929913,0.004780873026820772
2.929292929292929,1.2151898734177216,0.005029237114153919,0.004467220794668063,-3.2051207368715036e-05,-0.0028489373726465947,0.0047734323919706445
3.0303030303030303,1.2151898734177216,0.005047370910674257,0.004444026367306784,-2.494661293622683e-05,-0.0028474191833943122,0.004774572342222488
3.131313131313131,1.2151898734177216,0.004721304702247666,0.004382989135234177,-6.985837075468151e-05,-0.002731288151244553,0.004563170522000981
3.2323232323232323,1.2151898734177216,0.004873315538297685,0.004353755818257286,-1.8126484388751138e-05,-0.0027681214069664906,0.004635531672857443
3.3333333333333335,1.2151898734177216,0.004898823815867777,0.004227420073453596,7.238027076842193e-05,-0.002737873166796412,0.004601726396867732
3.4343434343434343,1.2151898734177216,0.004982680652497207,0.0043919406186879225,4.296701243983341e-05,-0.0028123863813555388,0.004715734282979898
3.5353535353535355,1.2151898734177216,0.0048895226133171,0.004384723147109598,4.206822507473878e-05,-0.0027822737281280093,0.004658254468005532
3.6363636363636362,1.2151898734177216,0.005119424401204309,0.004404475852606822,4.2019458144359695e-05,-0.002857170076143339,0.004802585708353408
3.7373737373737375,1.2151898734177216,0.005071251344082022,0.0042172757042459,-4.4545974653326425e-05,-0.0027865581144983767,0.004703412857545938
3.8383838383838382,1.2151898734177216,0.004739024881961342,0.004512533503749519,2.63312950581196e-05,-0.0027754675157132583,0.0046301605707206065
3.9393939393939394,1.2151898734177216,0.004817853480787277,0.004388335217732004,-4.6918881296995395e-06,-0.0027618566095557844,0.0046181065474231115
4.040404040404041,1.2151898734177216,0.004799151317321647,0.004299990767374585,6.073506438801784e-06,-0.0027297426254088695,0.004570074208673366
4.141414141414141,1.2151898734177216,0.004795413082893764,0.004477741935386854,-8.358735080288211e-06,-0.0027819465054841853,0.004644754764472603
4.242424242424242,1.2151898734177216,0.004632205617434093,0.0042639709428601725,-4.210209412853951e-05,-0.0026688529680882794,0.004460101421340239
4.343434343434343,1.2151898734177216,0.004771755519962784,0.004445533353139277,9.915557692392686e-06,-0.0027651866619306177,0.00461732760089655
4.444444444444445,1.2151898734177216,0.004920343528843484,0.0043764385857290415,-2.6755942298630648e-05,-0.0027890346343717575,0.00467242565517762
4.545454545454545,1.2151898734177216,0.004787787988670998,0.0040655809291453154,8.131386578574239e-05,-0.0026560106753448936,0.004472869147501145
4.646464646464646,1.2151898734177216,0.004820578979230729,0.00433179004210444,-1.624177731559735e-05,-0.002745710706400551,0.004595807005353664
4.747474747474747,1.2151898734177216,0.004927262818124811,0.004194039023224861,-8.095911077586237e-05,-0.0027363905524049018,0.004606779005244413
4.848484848484849,1.2151898734177216,0.004872510509885704,0.00435390713250405,-4.063971393280441e-05,-0.002767925292716926,0.004635554172293706
4.94949494949495,1.2151898734177216,0.004753938031754525,0.00420141703642103,8.071179203153134e-05,-0.0026866065204526664,0.004505341148803991
5.05050505050505,1.2151898734177216,0.004859380655071295,0.004212470274240404,-2.7863098614841415e-05,-0.00272155527879351,0.004570647509743748
5.151515151515151,1.2151898734177216,0.004951457801278559,0.004302194353172994,-1.8960293582801988e-05,-0.0027760956463354657,0.004660982224368502
5.252525252525253,1.2151898734177216,0.004839732584411858,0.00428784071021851,7.015182685517366e-05,-0.0027382719883891106,0.004590354112619875
5.353535353535354,1.2151898734177216,0.004765413718280794,0.004351078688160066,5.695242900711888e-05,-0.002734947721932258,0.004573411672326444
5.454545454545454,1.2151898734177216,0.004680308734227604,0.004382013757784403,-4.504509009893029e-05,-0.002718696747603602,0.00453918983271918
5.555555555555555,1.2151898734177216,0.004769033666355535,0.004394834408605104,4.3060010583735675e-05,-0.0027491604224881916,0.004593985288475665
5.656565656565657,1.2151898734177216,0.00481506823934484,0.004441276803344677,-1.0150997438485718e-06,-0.0027769035128068554,0.004639479928486971
5.757575757575758,1.2151898734177216,0.004662668090383025,0.004422512231585244,1.244288077962866e-06,-0.0027255540965904807,0.004547349353504137
5.858585858585858,1.2151898734177216,0.004716613511911942,0.0044330672007424155,1.9473764324857967e-05,-0.0027449042137963073,0.004581550048979506
5.959595959595959,1.2151898734177216,0.004887497314498026,0.004345803304814389,-3.992211661482297e-05,-0.002769990185793724,0.004640939097631979
6.0606060606060606,1.2151898734177216,0.00467551046065975,0.004423832174283482,-6.699265785787112e-06,-0.0027298027904829694,0.004554903973453786
6.161616161616162,1.2151898734177216,0.00484167123159539,0.004375924845893441,5.757114120659766e-05,-0.002765278823246649,0.004627488783636291
6.262626262626262,1.2151898734177216,0.004902485404569909,0.004152636125734879,-7.143612052168535e-05,-0.002716536459091436,0.0045755678659396976
6.363636363636363,1.2151898734177216,0.005044415411157178,0.0043020113364441006,2.4155663607189495e-05,-0.002803928024280383,0.004717419483460741
6.4646464646464645,1.2151898734177216,0.005022962601681944,0.004264029707990626,2.9466631413371697e-05,-0.0027860976929017706,0.004690058180867794
6.565656565656566,1.2151898734177216,0.004983122730679081,0.00435052725398278,2.4811969238481314e-05,-0.0028000949953985587,0.0046990674807188635
6.666666666666667,1.2151898734177216,0.004843631387754512,0.004363299737287249,-5.529170185849918e-06,-0.0027620793375125277,0.0046222316873253955
6.767676767676767,1.2151898734177216,0.004913342299495344,0.00435180464332083,-5.263008028619045e-06,-0.002779544082844852,0.004658037512754806
6.8686868686868685,1.2151898734177216,0.004848415821599304,0.004473159522623106,-5.259805857552146e-05,-0.002796472603266723,0.004672992013607825
6.96969696969697,1.2151898734177216,0.004831022679700652,0.004505695700803968,4.16332992027754e-05,-0.002801015514151386,0.0046774090858529
7.070707070707071,1.2151898734177216,0.005008194899610545,0.0045684771007669005,-7.097947786133931e-06,-0.002873001600113234,0.004803470266407047
7.171717171717171,1.2151898734177216,0.00499961931998322,0.004379023724950067,0.0001488802417368154,-0.002813592913479986,0.00472705896828447
7.2727272727272725,1.2151898734177216,0.00498783759220391,0.004389322799887587,7.947921642623378e-05,-0.002813148117627449,0.0047191524726109095
7.373737373737374,1.2151898734177216,0.0051169695359389806,0.004375714163912441,4.0845328961621296e-05,-0.0028478051099554264,0.004790079396415974
7.474747474747475,1.2151898734177216,0.005137814701373614,0.004430892953303137,3.525720432879915e-05,-0.0028706122964030248,0.004823751084473563
7.575757575757575,1.2151898734177216,0.005011694351785717,0.004603439797900725,0.00010313382425739231,-0.0028845402449059324,0.004823858908779396
7.6767676767676765,1.2151898734177216,0.005014930915554065,0.004686740676183952,5.790652381148579e-07,-0.002910501477521405,0.004859155332909941
7.777777777777778,1.2151898734177216,0.005040865426262787,0.004557632837278752,9.69306984140964e-06,-0.002879549479062462,0.004817489947773996
7.878787878787879,1.2151898734177216,0.005119897518964625,0.004611939704274377,-2.4498308040951682e-05,-0.0029195511669717006,0.004885947225699878
7.979797979797979,1.2151898734177216,0.005222315012360944,0.004739459793682658,-9.135939739445353e-06,-0.002988532441813081,0.004998434913992546
8.080808080808081,1.2151898734177216,0.005062514885906082,0.004517389672427023,5.30987793886822e-05,-0.0028739713674999314,0.004814039094314513
8.181818181818182,1.2151898734177216,0.005048496543028325,0.004637139881985641,0.00010252639510852747,-0.0029056909275041896,0.0048591495090611605
8.282828282828282,1.2151898734177216,0.0052360638783823755,0.004600758254181347,-7.337146244621328e-05,-0.0029510466397691167,0.0049507198929584426
8.383838383838384,1.2151898734177216,0.0052542836666998795,0.004782997681336533,-4.526333615701339e-05,-0.0030111844044109237,0.005035820030909567
8.484848484848484,1.2151898734177216,0.005185226509536615,0.004707826687382851,-1.2496002293039555e-05,-0.00296791595907584,0.004963821791939541
8.585858585858587,1.2151898734177216,0.005253103924087228,0.0045572928827962616,9.692421033172995e-06,-0.002943119042065047,0.00494210157322679
8.686868686868687,1.2151898734177216,0.005318338958682429,0.004735083800807914,3.6708183857848916e-05,-0.0030160268278471027,0.005052426120383795
8.787878787878787,1.2151898734177216,0.005173636486965262,0.00480388860295419,4.8216058265898956e-05,-0.0029932575269758354,0.004999726114310177
8.88888888888889,1.2151898734177216,0.0054948105976001145,0.004755563128260077,2.1867847474534548e-05,-0.0030751121177580573,0.005165156348447254
8.98989898989899,1.2151898734177216,0.005426987442996994,0.00491771744145147,1.6726014477006994e-05,-0.0031034114653345395,0.005191202752360909
9.09090909090909,1.2151898734177216,0.005356193062329459,0.004865655839361137,-1.020574687527573e-05,-0.003066554670507179,0.005128579851127821
9.191919191919192,1.2151898734177216,0.0056776115901301695,0.004922840326397472,2.9309297136511827e-05,-0.0031801355749582925,0.0053406209431832025
9.292929292929292,1.2151898734177216,0.00545223150136379,0.004959507975521357,-7.214898802164754e-05,-0.0031235218430655442,0.005224823300145062
9.393939393939394,1.2151898734177216,0.005435987158108359,0.0050125766713874425,-4.8148978164816766e-08,-0.0031345691488487404,0.0052371346041433665
9.494949494949495,1.2151898734177216,0.005530045846658147,0.0050559288027265,-4.865453695352638e-05,-0.0031757923948153946,0.005309558064449616
9.595959595959595,1.2151898734177216,0.0056463013858819855,0.005226315645238869,9.774945880122533e-06,-0.003261785109336256,0.005448488592427569
9.696969696969697,1.2151898734177216,0.005874989045307434,0.004966880434929352,-7.140080756095447e-05,-0.0032525608440710355,0.005479080545015344
9.797979797979798,1.2151898734177216,0.005645711631852352,0.005212227935986213,-6.35393777637745e-05,-0.003257381870351569,0.005443046551171939
9.8989898989899,1.2151898734177216,0.005827276196539036,0.005421407113482058,5.0189450303123745e-05,-0.0033746049930063284,0.005635984677009697
10.0,1.2151898734177216,0.006040425199360203,0.005500416426901267,-1.8647890473765725e-05,-0.0034622524878784406,0.00578943060221117
0.0,1.3164556962025316,0.005692366821987311,0.005466673343361555,-2.4697722534937392e-05,-0.0033477120496046594,0.0055831064332666274
0.10101010101010101,1.3164556962025316,0.005807754308111444,0.005257251809277384,-5.461446492247889e-05,-0.0033195018352166483,0.0055538120300129236
0.20202020202020202,1.3164556962025316,0.005654483439946217,0.005234238974873276,-7.13529631809697e-05,-0.003266616724445848,0.005457911390873853
0.30303030303030304,1.3164556962025316,0.005718816881363378,0.00523094598733604,-5.8217738138367664e-05,-0.0032849288606098255,0.005492085955465213
0.40404040404040403,1.3164556962025316,0.005855415177499401,0.005060670051379083,1.14006695747942e-05,-0.0032748255686635454,0.0055013029337107056
0.5050505050505051,1.3164556962025316,0.005604622457466082,0.005160905574480688,-3.292673827861052e-05,-0.003229658409584031,0.005396764258898441
0.6060606060606061,1.3164556962025316,0.0055106647088105,0.005120747620650247,-6.559994246434459e-07,-0.003189423698838224,0.005326420920513864
0.7070707070707071,1.3164556962025316,0.005522748337531486,0.004916136069170026,-1.5332172004783526e-05,-0.0031316653220104535,0.005245880857750119
0.8080808080808081,1.3164556962025316,0.005476368111367099,0.004956283541081743,2.5211655484627968e-05,-0.003129795495734653,0.005235917109565371
0.9090909090909091,1.3164556962025316,0.005468074640583074,0.0049894216295101245,1.3386376291940675e-05,-0.0031372488810279594,0.005245205064982768
1.0101010101010102,1.3164556962025316,0.00540059675318869,0.004774563658868042,-3.9180743162879205e-05,-0.0030525481236170194,0.00511683650521145
1.1111111111111112,1.3164556962025316,0.0053752758673501645,0.0047840078858201185,4.495905915205654e-05,-0.003047785125951085,0.00510597923172861
1.2121212121212122,1.3164556962025316,0.005421006161413465,0.004890829576635,-0.00010243460377420468,-0.0030935507214145393,0.005179361256425355
1.3131313131313131,1.3164556962025316,0.005149460650313752,0.004715641758780357,-0.00010460310345534743,-0.002959530722728233,0.004950155142641947
1.4141414141414141,1.3164556962025316,0.005347590404381574,0.00475822169615925,6.190192628002819e-05,-0.0030317436301622474,0.005079751145869707
1.5151515151515151,1.3164556962025316,0.005288419777199747,0.0046091482271914475,-1.8115641923686988e-05,-0.0029692704013173582,0.004983724010097469
1.6161616161616161,1.3164556962025316,0.005184244817417987,0.004509374143497521,-1.397191480309561e-05,-0.0029080856882746525,0.004881980704893594
1.7171717171717171,1.3164556962025316,0.005209516790770592,0.004469089461245724,7.321422871530588e-05,-0.002903581875604895,0.004883247913835827
1.8181818181818181,1.3164556962025316,0.005059282474124702,0.004506297291535355,7.31515776865681e-05,-0.002869673929698017,0.004808375711441225
1.9191919191919191,1.3164556962025316,0.005085831129058868,0.004580621420718841,2.9946028276588296e-05,-0.0028999357649333126,0.004853266338782097
2.0202020202020203,1.3164556962025316,0.005161106940159157,0.004492982469246726,1.4492735436150607e-05,-0.0028962268228217643,0.004861664676920446
2.121212121212121,1.3164556962025316,0.005098682256225077,0.004461251841644478,-5.4740600642198604e-05,-0.0028679802293608667,0.00481267209968148
2.2222222222222223,1.3164556962025316,0.00493926097893448,0.004462041029972523,4.018638761100672e-05,-0.002820390602672101,0.00471929749673432
2.323232323232323,1.3164556962025316,0.0050059251832780954,0.004507056182670316,-9.313022033188696e-05,-0.002853894409784523,0.00477879441291035
2.4242424242424243,1.3164556962025316,0.005002801024577722,0.00452781684157262,-3.071796623169921e-05,-0.0028591853598451027,0.004783325986024059
2.525252525252525,1.3164556962025316,0.004958143432014432,0.00441470267137299,-8.122670217299141e-05,-0.0028118538310162263,0.0047120961626572104
2.6262626262626263,1.3164556962025316,0.005043291477763444,0.0044670467292166,5.867568487806804e-05,-0.002853101462094013,0.004782363978038968
2.727272727272727,1.3164556962025316,0.004905304827221322,0.004578581202021677,-3.007939097687697e-05,-0.0028451658087728995,0.004750663017795511
2.8282828282828283,1.3164556962025316,0.004888494437812894,0.0044715192008219756,-5.5630355684049285e-05,-0.0028080040915904607,0.004694906740232016
2.929292929292929,1.3164556962025316,0.004965063071888739,0.004515566541385541,7.057855863170165e-05,-0.0028441888839822837,0.004757842348485257
3.0303030303030303,1.3164556962025316,0.0049825950790026744,0.004371137746385226,-1.4620011786269322e-05,-0.00280611984761637,0.004706817473476893
3.131313131313131,1.3164556962025316,0.004841367402627741,0.004459118349338132,4.5427812011156554e-05,-0.0027901457255897614,0.004662674727878627
3.2323232323232323,1.3164556962025316,0.004770787263346053,0.004506296869332827,-0.0001017205290821909,-0.002783125239803664,0.004647534838568163
3.3333333333333335,1.3164556962025316,0.004830069704510856,0.004318210818450079,1.3409521654530063e-05,-0.0027444841568882803,0.004595628163476582
3.4343434343434343,1.3164556962025316,0.004827459427682104,0.004392908087049696,-1.1450163222374915e-05,-0.0027661102544195397,0.00462556091151418
3.5353535353535355,1.3164556962025316,0.004753233499249317,0.004331959545840023,3.0210033721707847e-05,-0.002725557913526802,0.004557523989285536
3.6363636363636362,1.3164556962025316,0.005042210136204755,0.0045267962591048335,-1.546332327295944e-05,-0.0028707019185928765,0.0048053539713531265
3.7373737373737375,1.3164556962025316,0.004793051096876622,0.004369350521340038,3.7956299965981627e-05,-0.0027487204854649977,0.004596342516477494
3.8383838383838382,1.3164556962025316,0.0047984653364132,0.004260386096012846,1.2839397138694646e-06,-0.002717655429727814,0.004553333857286086
3.9393939393939394,1.3164556962025316,0.005085032380580038,0.004195851824614662,-9.910238859161967e-05,-0.0027842652615584097,0.0047070317933557634
4.040404040404041,1.3164556962025316,0.004780895659970233,0.004370576842987578,5.227829835861212e-05,-0.0027454417508873436,0.004590406567311177
4.141414141414141,1.3164556962025316,0.00478942226625892,0.004243527442993811,1.5491979824751867e-05,-0.0027098849127758194,0.004541229567566437
4.242424242424242,1.3164556962025316,0.0048514480074626125,0.004348337950980306,2.814754098163022e-05,-0.002759935787532875,0.004620739342267754
4.343434343434343,1.3164556962025316,0.004785098011321822,0.0043503061855858964,2.1853201790646678e-05,-0.0027406212590723156,0.004583352277133013
4.444444444444445,1.3164556962025316,0.004763824110953313,0.004406052614221841,-5.24394826936104e-06,-0.0027509630175525457,0.004595404510879615
4.545454545454545,1.3164556962025316,0.004794474990469461,0.004347666782672841,5.184447978169742e-06,-0.0027426425319426904,0.004587428241016604
4.646464646464646,1.3164556962025316,0.004717205815126031,0.004349987564311618,3.9765862790314716e-06,-0.0027201580138312945,0.004544742381867556
4.747474747474747,1.3164556962025316,0.004776819294059215,0.004040480318475307,-2.7872504019872605e-06,-0.0026451898837603566,0.004454532830254789
4.848484848484849,1.3164556962025316,0.00495131827159703,0.004213721714015041,-4.285339896926021e-06,-0.002749511995683621,0.004626832727492828
4.94949494949495,1.3164556962025316,0.00475921234407738,0.004291147163713232,-4.4383269732186644e-05,-0.0027151078523371835,0.0045439492942552
5.05050505050505,1.3164556962025316,0.004833512670768189,0.0044127702655617435,-4.3253988491479094e-05,-0.0027738848808989795,0.0046380834280855664
5.151515151515151,1.3164556962025316,0.004622956087446066,0.004277774464003753,0.00011957435179577554,-0.0026702191654349454,0.004465199651647381
5.252525252525253,1.3164556962025316,0.0048263537204545105,0.004217777989272643,6.6900269080627364e-06,-0.0027132395129181456,0.0045526901037233804
5.353535353535354,1.3164556962025316,0.004791179814959143,0.004364269262431519,2.9432154600819612e-05,-0.0027466347232171988,0.004592913037739916
5.454545454545454,1.3164556962025316,0.004879712205316839,0.004143371487977232,5.100217775836849e-06,-0.002706925107988221,0.00455639507831801
5.555555555555555,1.3164556962025316,0.004779021651889714,0.004329312192262145,-1.308841607333518e-05,-0.002732500153245558,0.004570845569760082
5.656565656565657,1.3164556962025316,0.004912681314693945,0.004360490102745577,-2.3106235265239106e-05,-0.002781951425231856,0.004661353352787522
5.757575757575758,1.3164556962025316,0.004866153682747105,0.004427089460738285,4.556685526709046e-05,-0.002787972943045617,0.004662821473010468
5.858585858585858,1.3164556962025316,0.004935844722022118,0.004384642576069535,-6.251883764892741e-05,-0.002796146189427496,0.004685879270524576
5.959595959595959,1.3164556962025316,0.004900967703668083,0.004511494379897136,-9.894448608347261e-06,-0.0028237386250695657,0.004718333542833201
6.0606060606060606,1.3164556962025316,0.004669384144089618,0.004384585941729329,-5.993568198794924e-05,-0.002716191025745684,0.004534887313782219
6.161616161616162,1.3164556962025316,0.004879713701846525,0.0043755607523268385,7.258085675517429e-05,-0.002776582336252009,0.004649887944370543
6.262626262626262,1.3164556962025316,0.004678432582470219,0.004380969719181437,-1.224605547081488e-05,-0.002717820690495497,0.0045370701482006625
6.363636363636363,1.3164556962025316,0.0049831996436568255,0.004324649475799748,2.0500208384322852e-05,-0.002792354735836972,0.004688874153350883
6.4646464646464645,1.3164556962025316,0.004900976361457977,0.0043458497865981995,-9.987265531300061e-05,-0.002774047844416853,0.00465155847329885
6.565656565656566,1.3164556962025316,0.004818246023780004,0.004596295753190528,7.115020107053095e-06,-0.0028243625330911593,0.004711209773516277
6.666666666666667,1.3164556962025316,0.004878270984247904,0.004390505991378845,7.73711986599203e-05,-0.0027806330926880246,0.004655529140637482
6.767676767676767,1.3164556962025316,0.004955839966428196,0.004295448893563364,3.5494016165821113e-06,-0.002775386657997468,0.004660870247533841
6.8686868686868685,1.3164556962025316,0.004822149703380445,0.00428818880895045,-1.0134466073568433e-07,-0.0027331015536992687,0.0045785808566315015
6.96969696969697,1.3164556962025316,0.004904812840369644,0.004451880794973474,5.4706391717359275e-05,-0.002807008090602935,0.004695718038022712
7.070707070707071,1.3164556962025316,0.004955818538512267,0.004412525762201724,-3.10532833362889e-05,-0.002810503290214197,0.004708050226366684
7.171717171717171,1.3164556962025316,0.004810177545854727,0.004403149768876914,-4.302331800070889e-06,-0.002763998194419492,0.004620136284861673
7.2727272727272725,1.3164556962025316,0.004803384681782286,0.004292198033673762,-5.540023425081646e-06,-0.0027286748146368145,0.004569297774374929
7.373737373737374,1.3164556962025316,0.0050116066162419586,0.004527462980992886,-1.0057712737742896e-05,-0.0028617208791704538,0.00478796010453755
7.474747474747475,1.3164556962025316,0.0049260742070494625,0.004618027420742871,-2.7155157238195185e-05,-0.0028632304883377,0.004779733339320963
7.575757575757575,1.3164556962025316,0.005059813440927744,0.004455585306827616,1.1053834086868388e-05,-0.0028546196243266074,0.004786427542799401
7.6767676767676765,1.3164556962025316,0.005115374520588374,0.004518551961295649,2.2941002070172514e-05,-0.0028901779445652067,0.0048447767346674565
7.777777777777778,1.3164556962025316,0.00490624346782707,0.004554311460433151,4.5519759493484995e-06,-0.0028381664784780662,0.004740092736696567
7.878787878787879,1.3164556962025316,0.005037999592849943,0.004655870017719241,1.9199831860527192e-05,-0.002908160883170755,0.004858333064586225
7.979797979797979,1.3164556962025316,0.004826718443858041,0.004591468632987382,3.79149161829756e-06,-0.0028254561230536272,0.004713503148930381
8.080808080808081,1.3164556962025316,0.00512396998603994,0.004430212136889364,3.263285426232409e-05,-0.002866254636878791,0.004815056456989981
8.181818181818182,1.3164556962025316,0.005263913770307905,0.004627709281850605,-3.6515528416632226e-05,-0.002967486915647553,0.0049768081052312
8.282828282828282,1.3164556962025316,0.00500821416741068,0.004723729639782249,-4.577549504459926e-05,-0.002919583142157879,0.004872850022243135
8.383838383838384,1.3164556962025316,0.005180275336896642,0.004832380054820973,-9.564131382767683e-05,-0.0030037966175152845,0.005018120377842972
8.484848484848484,1.3164556962025316,0.005236648227925498,0.00457802489626246,4.286110702863451e-05,-0.0029444019372563872,0.004940931276278765
8.585858585858587,1.3164556962025316,0.0052491865767515895,0.004706444689055451,-0.00010024587433600481,-0.002986689379742112,0.005002971391946772
8.686868686868687,1.3164556962025316,0.005219430677818375,0.004648062149327141,-1.2421602306712854e-06,-0.0029602478481436548,0.0049584982402780834
8.787878787878787,1.3164556962025316,0.005535083340918298,0.004751503319924326,7.384899964745543e-05,-0.003085975998252787,0.005189443664207063
8.88888888888889,1.3164556962025316,0.00547409033693861,0.004807573143738984,7.264268796294342e-05,-0.0030844990442032783,0.005174665761132916
8.98989898989899,1.3164556962025316,0.005567849759825551,0.004860754861874367,1.796571066597858e-05,-0.0031285813865099756,0.005250228974553955
9.09090909090909,1.3164556962025316,0.005364737898832302,0.0049258049364616086,6.826734357595245e-05,-0.003087162850588173,0.00516064878294804
9.191919191919192,1.3164556962025316,0.00538865727953136,0.005016436215872069,0.0001200301304094029,-0.003121528048621029,0.005216668069641169
9.292929292929292,1.3164556962025316,0.005593178550942364,0.0050606461148714485,-5.136236143901058e-05,-0.003196147399744144,0.005347579113542331
9.393939393939394,1.3164556962025316,0.005630717055989467,0.004890030197448628,3.607973325196422e-05,-0.003156224176031428,0.005299707416541712
9.494949494949495,1.3164556962025316,0.005697145985731549,0.004986772154516914,-6.711255110437129e-05,-0.0032051754420745386,0.005378523238351366
9.595959595959595,1.3164556962025316,0.005783980098766088,0.005107599020880973,-5.309495949702633e-05,-0.0032674737358941186,0.005477974048491441
9.696969696969697,1.3164556962025316,0.00585090032945586,0.005221659763216352,2.064291273315981e-06,-0.0033217680278016634,0.005563035799184268
9.797979797979798,1.3164556962025316,0.00593279471676018,0.005181385386976428,9.277095869742888e-06,-0.003334254031120982,0.005595084451888242
9.8989898989899,1.3164556962025316,0.005735960606662523,0.005053045274168115,-8.10555239620036e-06,-0.0032367017642491915,0.005426844302871184
10.0,1.3164556962025316,0.0058225158633918115,0.005353819307260964,-3.584179796569929e-05,-0.0033529005511958327,0.005603233728074662
0.0,1.4177215189873418,0.006035143297780396,0.0053044197749602786,-4.2313169933371424e-05,-0.0034018689218222025,0.005705458923988271
0.10101010101010101,1.4177215189873418,0.006013696467417187,0.00531055953266911,-1.5362869147801788e-05,-0.003397276800025889,0.005694840006872289
0.20202020202020202,1.4177215189873418,0.005918349303781384,0.0051263558978143975,-4.253584574719716e-05,-0.0033134115604787347,0.0055652714496582205
0.30303030303030304,1.4177215189873418,0.005706069274644182,0.005046998541770691,-3.680231524934735e-05,-0.003225920344924462,0.005407121301628554
0.40404040404040403,1.4177215189873418,0.0057910933999726355,0.005321554770217202,-4.121555067044654e-05,-0.003333794451056951,0.005571640996787351
0.5050505050505051,1.4177215189873418,0.005648996439880191,0.005215343247749758,-4.1646932238051165e-06,-0.003259301906288985,0.005445141188651166
0.6060606060606061,1.4177215189873418,0.005755775476086311,0.004908698165562871,2.3234357787022572e-05,-0.0031993420924947545,0.00538261311975936
0.7070707070707071,1.4177215189873418,0.005420866381369912,0.004997608209633386,1.146624147619431e-05,-0.0031255423773009897,0.005222155516152541
0.8080808080808081,1.4177215189873418,0.005660545396816473,0.004840616044500972,8.15951939328764e-05,-0.0031503484323952336,0.005300262666912206
0.9090909090909091,1.4177215189873418,0.0054062387447855005,0.004945604924943435,-1.1542261607615718e-05,-0.0031055531009186806,0.005191310446219002
1.0101010101010102,1.4177215189873418,0.005402841842039558,0.004712120519030359,0.0001699473207111412,-0.003034488708320975,0.005101233588697997
1.1111111111111112,1.4177215189873418,0.005330996070050898,0.0049571681833468,6.219270524213709e-05,-0.003086449276019309,0.005155385067154228
1.2121212121212122,1.4177215189873418,0.00541179187782023,0.005057366267906969,9.316425468052852e-06,-0.0031407474437181596,0.005243595292557754
1.3131313131313131,1.4177215189873418,0.005310884449570053,0.004601342204782702,6.5356045025737e-05,-0.0029736679963058266,0.004995343951874879
1.4141414141414141,1.4177215189873418,0.005178747850037802,0.004561305171453354,1.1006376115096973e-05,-0.002922015906447347,0.004899331406662899
1.5151515151515151,1.4177215189873418,0.00522083010405772,0.004764038751734167,7.801591206026031e-06,-0.002995460656737566,0.005008101223616084
1.6161616161616161,1.4177215189873418,0.005270016155753843,0.004705720337127386,-3.677652420389735e-05,-0.002992720947864368,0.005012156173767694
1.7171717171717171,1.4177215189873418,0.005197323096429854,0.004747330181562788,3.235544309594793e-05,-0.0029833959833977927,0.004987889638568517
1.8181818181818181,1.4177215189873418,0.005139363228382569,0.004655008386097445,3.161599140074921e-05,-0.0029383114843440044,0.004915422388086654
1.9191919191919191,1.4177215189873418,0.005065902773557625,0.004373335414928785,-1.580287971716075e-05,-0.002831771456545923,0.004757656013989001
2.0202020202020203,1.4177215189873418,0.005082632351749825,0.0046425035722178695,-5.279239046052184e-06,-0.002917540777190308,0.004877492778358126
2.121212121212121,1.4177215189873418,0.005165757876885155,0.004591257342360293,-3.01304576646734e-05,-0.002927104565773635,0.00490408994398666
2.2222222222222223,1.4177215189873418,0.005056294640258774,0.004733568357657737,-2.5120721207633118e-05,-0.0029369588993749533,0.004903097156033807
2.323232323232323,1.4177215189873418,0.005113744117639019,0.004502256157968436,4.4967775156009854e-05,-0.0028848000826822364,0.004837702943664966
2.4242424242424243,1.4177215189873418,0.00517405467598226,0.004444914460119916,1.5540057673678045e-05,-0.0028856907408306527,0.004850835018972497
2.525252525252525,1.4177215189873418,0.0051224568016645725,0.004545243445280108,1.137614335789875e-05,-0.0029003100740834045,0.004859668374508503
2.6262626262626263,1.4177215189873418,0.005064741090473385,0.004527784604057696,0.0001413921216651083,-0.002877757708359324,0.004824971937482595
2.727272727272727,1.4177215189873418,0.0048339984398527176,0.0044454130231623545,4.487686433703821e-05,-0.0027838234389045216,0.004652543395110933
2.8282828282828283,1.4177215189873418,0.005020985281416732,0.0045190722774750836,-1.9384181674439377e-05,-0.0028620172676675445,0.004789910155095195
2.929292929292929,1.4177215189873418,0.004904494859048881,0.004390863929643551,4.333902578669947e-05,-0.00278860763660773,0.004669520437350089
3.0303030303030303,1.4177215189873418,0.004817105483942336,0.004355621236309044,3.180376220125352e-05,-0.002751818016075414,0.004604073098038749
3.131313131313131,1.4177215189873418,0.004865796557289712,0.004353887199341239,7.733416280408922e-05,-0.0027659051269892853,0.004633046757194167
3.2323232323232323,1.4177215189873418,0.0049458795676830735,0.00461665212129598,-1.2964367503800471e-05,-0.002868759506693716,0.004789812139713559
3.3333333333333335,1.4177215189873418,0.004947112189398847,0.004433154497301882,-7.903377482626134e-05,-0.002814080006010219,0.004713194688642298
3.4343434343434343,1.4177215189873418,0.004924982433965303,0.0044226660145425326,-3.9616775757234575e-05,-0.0028042945345523504,0.004694526886162569
3.5353535353535355,1.4177215189873418,0.004880739959346228,0.004505473403188314,6.715237791888358e-05,-0.002815864008760362,0.004705783397954473
3.6363636363636362,1.4177215189873418,0.005024031949493633,0.004349780929187564,-5.1394475870093496e-05,-0.0028121438636043586,0.0047239789347932205
3.7373737373737375,1.4177215189873418,0.004961923389314813,0.004279864665913989,-6.678315498698707e-05,-0.00277253641656864,0.004659929684065829
3.8383838383838382,1.4177215189873418,0.004861619072029738,0.0043516677021299514,2.0998992841751122e-05,-0.0027639860322479066,0.004627907082966832
3.9393939393939394,1.4177215189873418,0.004872690295235813,0.004375787960591514,5.275033624533103e-05,-0.002774543476748198,0.004645117786846844
4.040404040404041,1.4177215189873418,0.004916454679789259,0.004357409806904697,-3.135753532679894e-05,-0.0027821593460081867,0.004662455242882235
4.141414141414141,1.4177215189873418,0.004988747767241037,0.004398952183546109,7.452640941480106e-06,-0.002816309985236144,0.004721576891249659
4.242424242424242,1.4177215189873418,0.005036930676287349,0.004387358052273692,-4.511718769842227e-06,-0.002827286618568312,0.004745611027258813
4.343434343434343,1.4177215189873418,0.004757875521500328,0.004363825035897929,-4.48693098463826e-05,-0.0027365101672194767,0.00457425970715599
4.444444444444445,1.4177215189873418,0.004782980830892082,0.004452539184251705,-0.00016366515724746569,-0.0027706560045431356,0.00463529503915303
4.545454545454545,1.4177215189873418,0.00499500308317541,0.004418357174242768,3.659527912772911e-05,-0.0028240080772254533,0.004733523619415548
4.646464646464646,1.4177215189873418,0.004872724378735583,0.004306340364408162,1.53802437765741e-06,-0.0027537194229431236,0.004615669791593342
4.747474747474747,1.4177215189873418,0.004916276383345969,0.00438479701041276,-9.120162441308444e-05,-0.0027903220181276192,0.0046759274503352264
4.848484848484849,1.4177215189873418,0.004767386799216102,0.004411243472867381,-4.019273544967096e-05,-0.002753589081625045,0.004600194380406947
4.94949494949495,1.4177215189873418,0.004755154266763741,0.004296512938626191,-2.42438291402686e-05,-0.0027155001616169794,0.00454342348784965
5.05050505050505,1.4177215189873418,0.004682249658800334,0.004413056826152334,-1.6158145353355532e-05,-0.0027285919454858006,0.004553710778766158
5.151515151515151,1.4177215189873418,0.005052055624022145,0.004262681292205733,-4.447155376175008e-05,-0.0027944210748683637,0.0047079027165729025
5.252525252525253,1.4177215189873418,0.004937165567052319,0.00425825007996661,5.398329702857151e-05,-0.002758624694105678,0.00463609258949689
5.353535353535354,1.4177215189873418,0.0049567950527790155,0.004299806612555083,-1.5944931722732033e-05,-0.0027769804996002293,0.004663223850315395
5.454545454545454,1.4177215189873418,0.004772993139939995,0.004282976644038017,-3.609544823804613e-05,-0.0027167909351934034,0.004548257133333959
5.555555555555555,1.4177215189873418,0.0047263280482536755,0.004125565293642291,-1.762034731497452e-05,-0.00265556800256879,0.004456525808237874
5.656565656565657,1.4177215189873418,0.004594209742352732,0.004217076809837348,9.026390345405357e-07,-0.002643385965657024,0.004417733248744639
5.757575757575758,1.4177215189873418,0.004805117669469668,0.004440192766680502,-6.40902062228468e-05,-0.0027735931308450514,0.004634775244529624
5.858585858585858,1.4177215189873418,0.004952574024102755,0.004451823498751649,2.1411203528644654e-05,-0.002821319256856321,0.004722299421611965
5.959595959595959,1.4177215189873418,0.004746267087995878,0.004193452233893534,2.218283091147637e-05,-0.0026819157965668238,0.004495589485227673
6.0606060606060606,1.4177215189873418,0.004930439527022796,0.004368024328096167,1.2749705608859296e-05,-0.002789539156535689,0.004674727620215487
6.161616161616162,1.4177215189873418,0.004922328534429186,0.0042767068440319154,0.00010761596395218743,-0.0027597106135383302,0.004637124872803232
6.262626262626262,1.4177215189873418,0.0048945281843477805,0.004279341218979256,9.065952624569249e-05,-0.0027521608209981107,0.00462044030999122
6.363636363636363,1.4177215189873418,0.004823167997559385,0.0043491685634481836,5.14779394140034e-06,-0.0027517009683022705,0.004604511439240838
6.4646464646464645,1.4177215189873418,0.004893750066148481,0.004190793246592282,-1.2741753694802111e-05,-0.002725362993822229,0.004582939021495683
6.565656565656566,1.4177215189873418,0.004661593226311765,0.004416976761514422,-3.512947270521203e-05,-0.002723570996347856,0.004544632923202895
6.666666666666667,1.4177215189873418,0.004952421729050663,0.004428105197702346,2.974054875096276e-05,-0.0028141580780259023,0.004712473419064391
6.767676767676767,1.4177215189873418,0.004708212907170705,0.00449216333545166,1.6350291827876196e-05,-0.002760112872786709,0.0046040787146465105
6.8686868686868685,1.4177215189873418,0.004887915113563625,0.0042859771267749515,-1.4536151714422607e-06,-0.002752167672101573,0.004616473551671415
6.96969696969697,1.4177215189873418,0.005083608373350856,0.004456879500084995,2.3789316327781984e-05,-0.0028621463620307555,0.004801199518968877
7.070707070707071,1.4177215189873418,0.00492440141812135,0.004316864070834301,-2.5679330732900813e-05,-0.0027723796466866957,0.004650704405214633
7.171717171717171,1.4177215189873418,0.004961406488935744,0.004236884403546803,-1.7331205980280332e-05,-0.002759487267744764,0.004641846522338528
7.2727272727272725,1.4177215189873418,0.005035165507896641,0.004546680907642589,-4.887001441931182e-05,-0.0028745539246617688,0.0048103090255395805
7.373737373737374,1.4177215189873418,0.004980847502833335,0.004461060242600529,2.7641239348186228e-05,-0.002832572323630159,0.004742608109425062
7.474747474747475,1.4177215189873418,0.004975904800032084,0.004386463082672225,-3.794329919987382e-05,-0.0028087103648112926,0.0047093930955335326
7.575757575757575,1.4177215189873418,0.005097373160168156,0.004438752823379387,-1.1154224686986985e-05,-0.002860837795064263,0.0048020967821079535
7.6767676767676765,1.4177215189873418,0.005091529675286118,0.004498322939481621,4.442655182146595e-05,-0.002876955784430322,0.004822982492432978
7.777777777777778,1.4177215189873418,0.0050338592963100484,0.0046790518362744326,-1.2223508931304505e-05,-0.002913873339775344,0.004866212609427928
7.878787878787879,1.4177215189873418,0.005075538530807206,0.004546023392598933,-5.2138895003824174e-05,-0.0028864685770218414,0.0048334313448931045
7.979797979797979,1.4177215189873418,0.005217785420943487,0.00437771215618322,-2.1576987181677967e-05,-0.0028786492731380114,0.004852739685467619
8.080808080808081,1.4177215189873418,0.005238237258485912,0.004678674136899951,8.7634071789042e-05,-0.0029750734186157588,0.0049843911627076125
8.181818181818182,1.4177215189873418,0.0051936988324053895,0.004798830616602358,-0.0001239575392909478,-0.0029977588347023243,0.005012554068820761
8.282828282828282,1.4177215189873418,0.00502569012943525,0.004783334814290743,-2.929517358827876e-05,-0.0029427074831177976,0.004909263619152111
8.383838383838384,1.4177215189873418,0.005163906560293511,0.004658264281608072,2.705234408005966e-05,-0.0029466512525704747,0.0049307921356848685
8.484848484848484,1.4177215189873418,0.005225791551921959,0.004698073962125139,-1.4300511450403905e-06,-0.002977159654214129,0.004982935601761062
8.585858585858587,1.4177215189873418,0.0050759455256278495,0.004766268777142847,-4.7938277913803665e-05,-0.0029526642908312088,0.004929108904994717
8.686868686868687,1.4177215189873418,0.005308605817635203,0.00479536441150472,8.740417937239193e-06,-0.003031191068741977,0.005071522980158792
8.787878787878787,1.4177215189873418,0.005333027157791005,0.004850768725656382,-3.080447562257309e-05,-0.003055138765034216,0.005109276004739696
8.88888888888889,1.4177215189873418,0.005311685520070655,0.004866213930575518,1.8555046273309102e-05,-0.0030533698351938522,0.0051036531895180745
8.98989898989899,1.4177215189873418,0.00541131743608025,0.00479495976487872,-9.93027196458585e-06,-0.0030618831602876907,0.0051310078922902
9.09090909090909,1.4177215189873418,0.005499668711573062,0.004999605927317323,-1.2948517158335621e-05,-0.0031497823916671152,0.0052675176382381205
9.191919191919192,1.4177215189873418,0.005587660944211976,0.005006595847771891,-0.00010198772438592838,-0.0031782770375951602,0.005323908453018894
9.292929292929292,1.4177215189873418,0.005528585377906139,0.004855354944665688,0.00013225432387202907,-0.003115182096771548,0.005229623044389783
9.393939393939394,1.4177215189873418,0.005824461064308327,0.005130620274000479,-2.303229100197461e-05,-0.003286524401492642,0.005510544848129641
9.494949494949495,1.4177215189873418,0.005687407848313256,0.005118684623276708,1.2718693226486703e-05,-0.0032418277414769893,0.005425493387852617
9.595959595959595,1.4177215189873418,0.005799657557723629,0.005224780929723239,-1.597572482273111e-05,-0.0033073315462340603,0.005534725739843991
9.696969696969697,1.4177215189873418,0.0057473231438464785,0.004984600992249329,-6.100940497711899e-05,-0.0032195772408287423,0.005407497033620884
9.797979797979798,1.4177215189873418,0.005821995149784735,0.00519695212038332,-2.460605299035362e-05,-0.0033056841810504166,0.005536165207132982
9.8989898989899,1.4177215189873418,0.005935346382115869,0.005384628866651959,-2.3253784483811995e-06,-0.0033959925746303485,0.005680047840178188
10.0,1.4177215189873418,0.006026455409615249,0.005449854712152955,8.400798640676444e-05,-0.0034428930365304608,0.005761679165080758
0.0,1.5189873417721518,0.0061753888013502175,0.005578802704003809,7.963970616435835e-05,-0.003526257451606208,0.005901374260559001
0.10101010101010101,1.5189873417721518,0.005851012903908106,0.005350596805487539,-4.278442737256606e-05,-0.003360482912818693,0.0056180351321215806
0.20202020202020202,1.5189873417721518,0.005906145800762798,0.005258345246433771,2.063269836509722e-05,-0.0033493473141589705,0.005610479157710178
0.30303030303030304,1.5189873417721518,0.005637561563499864,0.005176044854151255,3.906061265638089e-06,-0.0032440819252953354,0.0054215601966284745
0.40404040404040403,1.5189873417721518,0.005509434967692082,0.005189743725191308,-0.00011543758129441035,-0.0032097536078650167,0.0053604790409987205
0.5050505050505051,1.5189873417721518,0.005388161834102285,0.005049307802303922,-8.85997448977053e-05,-0.003131240890921862,0.005229231242569284
0.6060606060606061,1.5189873417721518,0.00569758127694828,0.004967610547098519,-1.4464271078411995e-05,-0.0031995575472140397,0.005369995321801519
0.7070707070707071,1.5189873417721518,0.0056920833657031185,0.004984928380350605,0.00010237963426465713,-0.0032031035238161165,0.00537644314160026
0.8080808080808081,1.5189873417721518,0.0055107539058567665,0.00503484567214233,4.0107744055816465e-05,-0.003163679873399729,0.005289339277590474
0.9090909090909091,1.5189873417721518,0.005662105928897595,0.004933308637787366,4.082536922450007e-05,-0.003178624370005488,0.00533564070294694
1.0101010101010102,1.5189873417721518,0.005355465939848706,0.004885803710030247,5.513906544634553e-05,-0.003072380894963686,0.00513765110897834
1.1111111111111112,1.5189873417721518,0.005353604269415913,0.004837449572413457,-3.0107604395964295e-05,-0.0030573161525488104,0.00511536174270422
1.2121212121212122,1.5189873417721518,0.005403260087198479,0.004928146847008497,1.2938830076485179e-05,-0.003099422080262093,0.005182112888896681
1.3131313131313131,1.5189873417721518,0.005383537143349641,0.0047542880450258795,1.8001898465046708e-05,-0.0030413475565126556,0.005098216640489719
1.4141414141414141,1.5189873417721518,0.005363210237968961,0.004753672244759848,3.804553397181005e-05,-0.0030350647448186426,0.005086336855161669
1.5151515151515151,1.5189873417721518,0.0053614427246028,0.004602589841679592,-1.3831692013794345e-05,-0.0029892097698847177,0.005025231682821853
1.6161616161616161,1.5189873417721518,0.0050648341269072085,0.004861767699956481,4.569195943625757e-05,-0.0029779805480591066,0.004967046023851667
1.7171717171717171,1.5189873417721518,0.005284234982631321,0.004371969997890689,4.111082344193922e-05,-0.002896861494156603,0.004892832973611976
1.8181818181818181,1.5189873417721518,0.005215297946402655,0.00462106358975513,-3.0462910200800744e-05,-0.0029509084608473355,0.004945313123267323
1.9191919191919191,1.5189873417721518,0.005085206258554193,0.004389473226808045,7.111468869668129e-05,-0.0028424038456086715,0.004777090440113972
2.0202020202020203,1.5189873417721518,0.004950564982223656,0.004843793552060682,5.639760247205389e-06,-0.0029383075602853015,0.00489806189210981
2.121212121212121,1.5189873417721518,0.00504889972719205,0.00458065585554012,-7.346269909703929e-05,-0.0028888666748196506,0.004833499221807389
2.2222222222222223,1.5189873417721518,0.0049324700538265894,0.004462418100878109,5.880193690663336e-05,-0.002818466446411409,0.004716149434873495
2.323232323232323,1.5189873417721518,0.005002407017272054,0.004425820972379416,-2.4706343193649403e-05,-0.0028284683968954408,0.004740679335998962
2.4242424242424243,1.5189873417721518,0.004913580736003947,0.004430595229194763,-6.461351122475934e-05,-0.0028032527895596126,0.004692109023082102
2.525252525252525,1.5189873417721518,0.004875897439519243,0.004568692593070816,7.23256506650633e-06,-0.0028333770097770175,0.00472980002369849
2.6262626262626263,1.5189873417721518,0.005188743262000408,0.004559810625963049,-0.0001114278407547759,-0.0029245661663890366,0.004908410273522615
2.727272727272727,1.5189873417721518,0.004882660850485949,0.004463286565750305,5.2014909845083125e-05,-0.002803784224870876,0.004687931955812179
2.8282828282828283,1.5189873417721518,0.005085579386399978,0.0045133999979244995,5.4740078047404254e-05,-0.002879693815297343,0.00482593334734874
2.929292929292929,1.5189873417721518,0.004994057534028597,0.004479405991685223,5.6019585649390884e-06,-0.002842039057714146,0.0047576645107241565
3.0303030303030303,1.5189873417721518,0.004855396394804099,0.0045176432136917214,5.556971776335105e-05,-0.0028119118825487457,0.004696625359204033
3.131313131313131,1.5189873417721518,0.005042575145809577,0.004499507432600035,-5.633116732016428e-05,-0.0028626247735228836,0.0047951586512210405
3.2323232323232323,1.5189873417721518,0.004809227937923955,0.004518416504073366,-9.104463564030017e-05,-0.002798293332599196,0.004673278672801482
3.3333333333333335,1.5189873417721518,0.0048834640326744306,0.004252383624244907,2.113507221292029e-05,-0.0027407542970758012,0.004600648327993529
3.4343434343434343,1.5189873417721518,0.00480991303843693,0.0043950213833977275,4.8316812503542355e-05,-0.002761480326550397,0.004617229611438717
3.5353535353535355,1.5189873417721518,0.004864648099840851,0.0043693464371436525,-1.5555257588370714e-05,-0.0027701983610953513,0.004636958321807928
3.6363636363636362,1.5189873417721518,0.004784630928593298,0.004377896016639431,2.263867552840562e-05,-0.0027487580835698186,0.004594952393754431
3.7373737373737375,1.5189873417721518,0.005009967520651466,0.004334367246995497,1.6236715793661524e-05,-0.002803300430294089,0.004708743542879168
3.8383838383838382,1.5189873417721518,0.004925060415612008,0.004351930131797095,4.6949024148686564e-05,-0.002783097164222731,0.004665684277622557
3.9393939393939394,1.5189873417721518,0.004782372403000151,0.004467201576249758,-3.03228865515733e-05,-0.002774872193774972,0.004633132052864088
4.040404040404041,1.5189873417721518,0.004698076690245956,0.00450550620738606,2.9747055650986266e-05,-0.002761074869289605,0.004605100622517113
4.141414141414141,1.5189873417721518,0.0048901061923851885,0.004298076768103521,7.144393991929562e-05,-0.0027564548881466124,0.004624268954972106
4.242424242424242,1.5189873417721518,0.004807384489438177,0.0042071231423120884,0.00010539108000827955,-0.0027043522895250794,0.004540803239912196
4.343434343434343,1.5189873417721518,0.004818614956848344,0.0044678722782137805,-3.629269988584509e-05,-0.0027859461705186375,0.004653593030326112
4.444444444444445,1.5189873417721518,0.004742229623636575,0.004303457814503754,-2.660663020703702e-05,-0.0027137062314420987,0.004539011959756509
4.545454545454545,1.5189873417721518,0.004817539695632789,0.004258144607894876,1.360940223866965e-05,-0.0027227052910582996,0.004563689208299737
4.646464646464646,1.5189873417721518,0.004920903364211856,0.004250674960382552,4.111330315529451e-05,-0.0027514734973783225,0.004622925235941654
4.747474747474747,1.5189873417721518,0.004949329485726275,0.004288845763926196,-2.8058905750686663e-05,-0.002771452574895741,0.004654622589691974
4.848484848484849,1.5189873417721518,0.004771213127891399,0.004250357481940987,-2.2737664432260726e-05,-0.0027064711829497155,0.004533453763317564
4.94949494949495,1.5189873417721518,0.004867295690160999,0.004251158078650612,2.970329744487636e-05,-0.002735536130643483,0.004590633486607732
5.05050505050505,1.5189873417721518,0.0047526636817175425,0.004207548097625511,8.394356795908874e-05,-0.0026880635338029165,0.0045072554398979435
5.151515151515151,1.5189873417721518,0.004737173161576185,0.004288570470931483,-7.122079234993604e-05,-0.0027077230897523,0.004531242932603293
5.252525252525253,1.5189873417721518,0.004856609286296615,0.004413712395000126,-3.126582853208716e-05,-0.002781096504389022,0.004651318836311006
5.353535353535354,1.5189873417721518,0.005018359235524297,0.004341425450076109,9.228531701855487e-05,-0.0028079354056801216,0.004719175944147721
5.454545454545454,1.5189873417721518,0.004729803865040666,0.004316512742934328,1.9497719000921487e-05,-0.0027138949823924986,0.004537423133208838
5.555555555555555,1.5189873417721518,0.0048761541913583,0.00424171858336937,5.742451952996656e-05,-0.002735361832418301,0.004593002843007282
5.656565656565657,1.5189873417721518,0.004713434002177218,0.004238770474070004,8.051613972668316e-06,-0.0026856613428741668,0.004494959936449299
5.757575757575758,1.5189873417721518,0.004830277246613529,0.004423572699762807,1.4547224299837528e-05,-0.0027761549839129007,0.004640379942853667
5.858585858585858,1.5189873417721518,0.0048731074233624785,0.004155629913730024,-7.030937402977768e-06,-0.0027086212011277503,0.00455694560647981
5.959595959595959,1.5189873417721518,0.0048084235025781545,0.0044539197923021065,3.0230736235964795e-05,-0.0027787029884640785,0.004641631952314084
6.0606060606060606,1.5189873417721518,0.004882155441298687,0.004221134360954332,-2.712230461135725e-05,-0.002730986940675905,0.004587743433940913
6.161616161616162,1.5189873417721518,0.004953118331505307,0.004233485126751084,-2.0759034760267783e-05,-0.002755981037476917,0.004635527753063639
6.262626262626262,1.5189873417721518,0.0048283270565185445,0.004475882871634104,-3.002592008700955e-05,-0.0027912629784457945,0.004662397231254426
6.363636363636363,1.5189873417721518,0.004879511873985169,0.004468949583100994,-9.005470444517944e-05,-0.0028045384371258486,0.0046903287197228045
6.4646464646464645,1.5189873417721518,0.004824437589043567,0.004279269971503519,2.469617828907438e-05,-0.002731112268164126,0.004576473351727018
6.565656565656566,1.5189873417721518,0.004855583293526286,0.004430514324819601,-2.8893013138741366e-05,-0.002785829285503766,0.004657887867274718
6.666666666666667,1.5189873417721518,0.004958738031914187,0.004433595302146951,-3.9649862619475104e-05,-0.0028177000002183416,0.004718636335247375
6.767676767676767,1.5189873417721518,0.004917358425786792,0.00448386983788245,-5.5635414007839396e-05,-0.0028203684791007727,0.00471656584615982
6.8686868686868685,1.5189873417721518,0.0049824030356605065,0.004509641089198577,4.002280012343895e-06,-0.0028476132374577246,0.004763654202953937
6.96969696969697,1.5189873417721518,0.005057413047251321,0.0043941121734835855,3.309987561534249e-05,-0.002835457566220472,0.004760892257938636
7.070707070707071,1.5189873417721518,0.004895774387876131,0.004573052357708828,-1.671268840899633e-05,-0.0028406480236754872,0.004742743937627701
7.171717171717171,1.5189873417721518,0.004940736749366839,0.004276595757750555,1.4149665516670013e-05,-0.0027651997521352186,0.0046444825027501455
7.2727272727272725,1.5189873417721518,0.005028307595279938,0.00432037727794051,-2.636343268839785e-05,-0.0028046054619661346,0.00471459821269011
7.373737373737374,1.5189873417721518,0.004894658337878654,0.004494402788762448,4.1913142022256135e-05,-0.002816718337992331,0.004707870083468961
7.474747474747475,1.5189873417721518,0.004872539534873029,0.004504192170973268,-3.9129712366744604e-05,-0.002813019511753889,0.004699694416597152
7.575757575757575,1.5189873417721518,0.005026414785197464,0.004441835420848276,-1.4016592879999132e-06,-0.002840475061813722,0.004761118162778021
7.6767676767676765,1.5189873417721518,0.004972265410026601,0.004581778863155568,5.779963182093254e-05,-0.0028662132819546504,0.004790023245586873
7.777777777777778,1.5189873417721518,0.0050424876628646885,0.004627723750001956,3.079022060440388e-05,-0.0029010634238599933,0.004848722835242141
7.878787878787879,1.5189873417721518,0.00501216772124228,0.004652688172947887,5.149779784213167e-05,-0.00289945676825705,0.004843266985480444
7.979797979797979,1.5189873417721518,0.005076925100636772,0.004484076676746935,6.661597030445545e-05,-0.0028683005332151117,0.0048093766487523
8.080808080808081,1.5189873417721518,0.005061234937035163,0.004590666070563928,9.679456469260231e-05,-0.002895570302279728,0.004846027457820911
8.181818181818182,1.5189873417721518,0.005380249701560251,0.004495796667126277,9.221690916418339e-05,-0.0029628139106059586,0.004999627758314471
8.282828282828282,1.5189873417721518,0.005055864146171685,0.004633583313828531,-1.068813060224113e-05,-0.0029068342380000646,0.004858542122330194
8.383838383838384,1.5189873417721518,0.005237783308008198,0.004641920072249443,-1.9952233734088766e-05,-0.0029639110140772923,0.004966851995193552
8.484848484848484,1.5189873417721518,0.005299025692663932,0.004763230001759171,-3.880369722149549e-05,-0.003018676708326931,0.005052927108373502
8.585858585858587,1.5189873417721518,0.005394928502701468,0.004696974676681548,6.223166824618727e-05,-0.003027570953814905,0.005083168347059759
8.686868686868687,1.5189873417721518,0.00545085098902495,0.004738086625247824,-2.931230580594242e-05,-0.003056681284281832,0.005131979621881168
8.787878787878787,1.5189873417721518,0.0055246039886191,0.004844851312317738,3.1650206272025194e-05,-0.003110836590281051,0.005218328639699412
8.88888888888889,1.5189873417721518,0.0052346358583191714,0.004943434037202131,5.982694171753187e-05,-0.0030534209686563906,0.005096333325427359
8.98989898989899,1.5189873417721518,0.005500389768551352,0.004872794163733933,-3.2152755811962156e-05,-0.0031119551796855854,0.00521528952262134
9.09090909090909,1.5189873417721518,0.005488403729450712,0.004830235447321604,-8.761440859941994e-06,-0.0030955917530316947,0.005190731934837661
9.191919191919192,1.5189873417721518,0.005523997425422903,0.004998640624841599,-1.746228927502167e-05,-0.0031567914150793506,0.005281040854301027
9.292929292929292,1.5189873417721518,0.00553326940327064,0.004852907055655686,-5.58826222203111e-05,-0.0031158529376778977,0.005227303669620371
9.393939393939394,1.5189873417721518,0.005662710714422358,0.005050639255960536,5.633375174264542e-06,-0.0032140049911148676,0.005382846431435792
9.494949494949495,1.5189873417721518,0.005849107385076482,0.005067809146513054,1.375549429115556e-05,-0.0032750749594768606,0.005500286763749645
9.595959595959595,1.5189873417721518,0.005768179300173922,0.005320972016423629,6.577449888510397e-05,-0.0033267453949792657,0.005559252993945279
9.696969696969697,1.5189873417721518,0.005741341941552623,0.005283881580359313,3.8049377111306274e-05,-0.003307567056573581,0.005527222103269695
9.797979797979798,1.5189873417721518,0.005630984878210663,0.004931847390252839,-5.040876129947325e-05,-0.0031688496805390505,0.005316725912897117
9.8989898989899,1.5189873417721518,0.006052776525500152,0.005351234170395782,-1.6212036050486547e-05,-0.00342120320876878,0.005734350419652602
10.0,1.5189873417721518,0.005970829648188238,0.005456937342158567,-1.0177617733105184e-06,-0.0034283300971040417,0.00573118937748348
0.0,1.620253164556962,0.00585511787480397,0.005402643222733905,-1.3307529102389651e-05,-0.0033773283292613623,0.0056425506188581215
0.10101010101010101,1.620253164556962,0.005737243359528468,0.005418364526677154,4.5859253754330315e-05,-0.0033466823658616866,0.005585200875858312
0.20202020202020202,1.620253164556962,0.005869737072471228,0.00526519989189404,5.709952693578753e-05,-0.0033404810893095803,0.005592904904434818
0.30303030303030304,1.620253164556962,0.005825715258547254,0.005104576481046773,4.86645657065225e-05,-0.0032790875218782077,0.005501359372949265
0.40404040404040403,1.620253164556962,0.005624507465108202,0.005226611356394784,9.547105481351567e-05,-0.003255335646450896,0.005439005430362491
0.5050505050505051,1.620253164556962,0.005637440165310119,0.005063987340854999,5.2671954554967226e-05,-0.003210428251849535,0.005374485722208538
0.6060606060606061,1.620253164556962,0.0055455965415016715,0.005090419190388287,4.8274516963827695e-05,-0.0031908047195669874,0.0053332531127766565
0.7070707070707071,1.620253164556962,0.005536011854759353,0.004818693476688879,-2.027675464993347e-05,-0.0031064115994344694,0.0052146067260394864
0.8080808080808081,1.620253164556962,0.005510761058227284,0.0049510295314506006,-4.433493951734374e-05,-0.0031385371769033655,0.005253868753852253
0.9090909090909091,1.620253164556962,0.005481263790416379,0.0049198186040326245,-2.0400548638961073e-05,-0.003120324718334701,0.005223341154296614
1.0101010101010102,1.620253164556962,0.00533349181449347,0.004699126481012397,3.0898188646947735e-05,-0.0030097854886517597,0.005046586578297916
1.1111111111111112,1.620253164556962,0.005322861053678491,0.004974671973011536,2.8945211077175132e-05,-0.0030892599080070077,0.005157832569170664
1.2121212121212122,1.620253164556962,0.005376121336165912,0.004704406261168357,3.3882731259449205e-05,-0.003024158279200281,0.005074061897047718
1.3131313131313131,1.620253164556962,0.005482626372218274,0.004714805017924817,-2.7479855833141022e-05,-0.003059229417042927,0.005142113319509842
1.4141414141414141,1.620253164556962,0.005280481872645158,0.004625510619007764,-3.371510185065172e-05,-0.0029717977474958764,0.004985711829094007
1.5151515151515151,1.620253164556962,0.0051498366919921455,0.0045946376289267505,5.3707246994561345e-05,-0.0029233422962756683,0.004896788013853843
1.6161616161616161,1.620253164556962,0.0051898938228233625,0.004767555953048635,-2.4412707961741273e-05,-0.0029872349327615994,0.00499232074368903
1.7171717171717171,1.620253164556962,0.005366513171352957,0.004754626577630385,2.213190895330558e-05,-0.0030363419246950026,0.005088382927952401
1.8181818181818181,1.620253164556962,0.005217812203343,0.004505760707476161,-1.7371043513848656e-05,-0.002917071873245748,0.004900830113056052
1.9191919191919191,1.620253164556962,0.0049956954060935265,0.004710585338551625,-2.411482611362453e-05,-0.0029118842233935454,0.004859596882555496
2.0202020202020203,1.620253164556962,0.005046041215089639,0.004484532228490546,2.3865136740379086e-05,-0.0028591720330740553,0.004790212462057141
2.121212121212121,1.620253164556962,0.00511896283156924,0.004629268805322601,-1.8601642576071556e-05,-0.0029244694910675524,0.004892636636257649
2.2222222222222223,1.620253164556962,0.005030122682834288,0.004545977646189417,-2.164456233681744e-06,-0.0028728300987071113,0.00480637449070245
2.323232323232323,1.620253164556962,0.0049365484442730045,0.004465216803578694,-9.284930310679361e-06,-0.0028205295743555093,0.004718598437074328
2.4242424242424243,1.620253164556962,0.005126271830148677,0.004478973846572565,-3.106422697773669e-05,-0.002881573703016373,0.004835527592289437
2.525252525252525,1.620253164556962,0.005112018992664882,0.0043586701392707115,-2.438802351291466e-06,-0.002841206739580678,0.004780079170149194
2.6262626262626263,1.620253164556962,0.005172907945096625,0.0044437491121662506,7.156210460310387e-05,-0.002884997117178863,0.004851199964588857
2.727272727272727,1.620253164556962,0.005156895743356092,0.0043566078286272755,4.5424532495748177e-05,-0.0028540510715950097,0.0048076213742180435
2.8282828282828283,1.620253164556962,0.004985729211503111,0.004253685806296856,-6.342394288116719e-05,-0.00277182450533999,0.004664298545087798
2.929292929292929,1.620253164556962,0.004846170060826849,0.004507153687019464,-9.712733475982998e-06,-0.0028059971243538937,0.0046858988861117465
3.0303030303030303,1.620253164556962,0.004845062174248994,0.0044635709521176035,1.3869322937997848e-05,-0.002792589937909979,0.004666089520047933
3.131313131313131,1.620253164556962,0.004867600801845106,0.004332614646666608,3.27245788652417e-05,-0.002760064634553514,0.004623728085497527
3.2323232323232323,1.620253164556962,0.004889770167022826,0.0042495684859208335,6.467374547071608e-05,-0.002741801595883098,0.004604543351703999
3.3333333333333335,1.620253164556962,0.0048137652077242105,0.0043351109460804645,1.3854212204326825e-05,-0.0027446628461414023,0.004593244165472118
3.4343434343434343,1.620253164556962,0.0047765239413915086,0.004141169845443525,8.700520678880922e-05,-0.00267530813605051,0.004495195374774331
3.5353535353535355,1.620253164556962,0.004841658251743505,0.00443196409103663,-3.320668327791557e-05,-0.00278208670283404,0.0046507217579165785
3.6363636363636362,1.620253164556962,0.004707451305553852,0.004247320631668876,-7.409544449895223e-05,-0.0026864315811668178,0.004496915130886038
3.7373737373737375,1.620253164556962,0.0049645445139830146,0.004468756992140408,-6.387722234953065e-05,-0.0028299904518370267,0.004737445427134122
3.8383838383838382,1.620253164556962,0.004778927388787667,0.004494211941369404,-5.370680142071679e-05,-0.0027819417990471215,0.004644053045043946
3.9393939393939394,1.620253164556962,0.004846805897320144,0.004228817059687932,1.586316153017415e-05,-0.0027226868871024225,0.004569345750400456
4.040404040404041,1.620253164556962,0.004872770431027385,0.004274701298784027,4.369685930218415e-05,-0.0027442415189434235,0.0046035913180548635
4.141414141414141,1.620253164556962,0.004686700570225097,0.0043144033728138706,1.471048839865419e-05,-0.0027003311829116904,0.004512158147289929
4.242424242424242,1.620253164556962,0.004865519644462153,0.004436724929460955,2.5377841513218853e-05,-0.0027906733721769325,0.004666130014637377
4.343434343434343,1.620253164556962,0.004814537351763883,0.004424851054234818,2.189829817805144e-05,-0.0027718165217996103,0.0046321598303034105
4.444444444444445,1.620253164556962,0.004924836227401467,0.004288048444034029,-6.528218395577286e-05,-0.0027638654014306486,0.004640713338884809
4.545454545454545,1.620253164556962,0.004912235886394165,0.0042879951058948365,4.501251099173857e-05,-0.0027600692976867004,0.004632428992476292
4.646464646464646,1.620253164556962,0.004801765708795053,0.004229824470549802,-2.5829302928264243e-05,-0.0027094770538034565,0.004543098539057129
4.747474747474747,1.620253164556962,0.004849545694590565,0.00437204030355423,-2.649250776883454e-05,-0.0027664757994434385,0.004629527642000883
4.848484848484849,1.620253164556962,0.004803902257359178,0.004320801917356086,9.556931059531383e-06,-0.002737411252414579,0.004581524858351605
4.94949494949495,1.620253164556962,0.00477421283345999,0.004355158543598159,-5.3427375238968135e-05,-0.0027388114131174446,0.004580024428070841
5.05050505050505,1.620253164556962,0.004900947609849729,0.004268941171195468,-1.657498435675864e-05,-0.002750966634313559,0.004617587395857198
5.151515151515151,1.620253164556962,0.004716551588859997,0.004459819686738182,-4.18935261952919e-06,-0.0027529113826794535,0.0045935752471367285
5.252525252525253,1.620253164556962,0.004771311868271985,0.004185107103704883,4.627902962174391e-06,-0.0026869256915930603,0.004506900428493528
5.353535353535354,1.620253164556962,0.0047230409938868465,0.004218164580969285,9.475468033584076e-06,-0.0026823616724568396,0.004491963243469756
5.454545454545454,1.620253164556962,0.004923955865636396,0.004295649940208172,-7.462524397884113e-05,-0.00276588174175337,0.004643604832116271
5.555555555555555,1.620253164556962,0.004908528279325328,0.004312700922083303,1.5624871144766083e-05,-0.002766368760422589,0.0046394781048897295
5.656565656565657,1.620253164556962,0.004794297820036598,0.004336919035630219,5.600138088740862e-05,-0.002739365056700045,0.004583785040183072
5.757575757575758,1.620253164556962,0.0049711158045815254,0.00425931489688742,1.1432900676469035e-05,-0.002769129210440684,0.00465624314941288
5.858585858585858,1.620253164556962,0.004719129950039804,0.004396161897728739,6.834605348835846e-05,-0.002734587554330563,0.00456775450179751
5.959595959595959,1.620253164556962,0.00481466778629767,0.004389931906152312,-1.185966264942755e-05,-0.0027613799077349944,0.004617021361794766
6.0606060606060606,1.620253164556962,0.004817899809560654,0.004489094263348889,3.36775172232924e-05,-0.0027920982218728623,0.004662566032691336
6.161616161616162,1.620253164556962,0.004882406142542658,0.004539192068049997,-9.832703861433447e-06,-0.0028264794631777963,0.0047201975787411424
6.262626262626262,1.620253164556962,0.0048737253904712965,0.004471314300852243,-8.924249709795931e-05,-0.002803511907397062,0.004688047076529226
6.363636363636363,1.620253164556962,0.004942097735181197,0.004318579149662783,-6.607457441303351e-05,-0.002778203065453194,0.004663122688648418
6.4646464646464645,1.620253164556962,0.004890708660765178,0.0042116419512542155,-3.0423345716627157e-05,-0.002730705183605818,0.004589316082261144
6.565656565656566,1.620253164556962,0.004840723220595138,0.004265362593403191,-3.140838132317909e-05,-0.002731825744199499,0.004580550082765111
6.666666666666667,1.620253164556962,0.004895837927074883,0.004449466210794806,-5.113652754419904e-07,-0.0028035912413609068,0.004688615352492197
6.767676767676767,1.620253164556962,0.004881162582999732,0.004380106429165731,-4.5300133928367586e-05,-0.0027783807036496386,0.004651583083993775
6.8686868686868685,1.620253164556962,0.00505710100544334,0.004298646956680903,6.404091694192756e-05,-0.0028067243886372726,0.0047250659368827195
6.96969696969697,1.620253164556962,0.004781614451645302,0.004400263805669753,-4.568753279865934e-05,-0.0027545634771945168,0.004603482960909913
7.070707070707071,1.620253164556962,0.004741441150459791,0.004525429415097491,-3.38103364705722e-05,-0.0027800611696671843,0.004637579944175132
7.171717171717171,1.620253164556962,0.005077998561951457,0.004543814273744537,1.168805129561379e-05,-0.002886543850708798,0.0048331402869403305
7.2727272727272725,1.620253164556962,0.00496697177167703,0.004391321567284922,-3.978842273385644e-05,-0.002807488001688586,0.004706133527496682
7.373737373737374,1.620253164556962,0.005009936966115176,0.004464877445291787,-2.0049626272269267e-05,-0.0028424443234220885,0.004760992586228465
7.474747474747475,1.620253164556962,0.004887820258226242,0.0044411933771524095,2.5228597521116742e-05,-0.002798704090613595,0.004680720027607094
7.575757575757575,1.620253164556962,0.005073830718877559,0.004593545779645893,5.0960505040843164e-05,-0.0029002129495570355,0.0048523538852202975
7.6767676767676765,1.620253164556962,0.004944544726634064,0.004576510801941502,6.748069107852932e-06,-0.0028563166585726697,0.004771199841880273
7.777777777777778,1.620253164556962,0.004893359109396104,0.004603619181501683,-1.513991057800022e-05,-0.0028490934872693364,0.004755186508906364
7.878787878787879,1.620253164556962,0.00485583342772034,0.004556373105695702,1.126053324357077e-05,-0.002823661960024813,0.004713283963342016
7.979797979797979,1.620253164556962,0.004993816537495681,0.004690355075319531,4.17649144123808e-06,-0.0029052514838445636,0.0048492178678757915
8.080808080808081,1.620253164556962,0.0052705831216033755,0.0045140561384268965,-3.511161578727426e-05,-0.002935391778009082,0.00493636907515297
8.181818181818182,1.620253164556962,0.005052294633654645,0.004464391168522681,-2.3363907814078284e-05,-0.0028550057406531975,0.004785675254772468
8.282828282828282,1.620253164556962,0.005076879813492294,0.004817922321489543,3.621180075293724e-05,-0.0029684406404945508,0.0049528785007457886
8.383838383838384,1.620253164556962,0.005255581740190582,0.004583950014690164,-6.833893036623889e-05,-0.002951859526464224,0.004955443854798624
8.484848484848484,1.620253164556962,0.005220807137296804,0.004645743887109601,-0.00010760284868391965,-0.0029599653073219215,0.0049618510361280855
8.585858585858587,1.620253164556962,0.005224136195230584,0.004764838099292225,-4.30650112196269e-05,-0.0029966922883568428,0.005010856384434986
8.686868686868687,1.620253164556962,0.005401807862992981,0.004814284504742239,-5.539365300088333e-05,-0.003064827710320566,0.005134221358616169
8.787878787878787,1.620253164556962,0.005127636286313869,0.004823022881258129,-7.432882437059931e-05,-0.0029851977502715994,0.004983981418965951
8.88888888888889,1.620253164556962,0.005367145453316464,0.0048446554950870415,-1.1896855255194679e-05,-0.0030635402845210513,0.0051259526992829835
8.98989898989899,1.620253164556962,0.005556979950282839,0.005050875569128046,3.091600290455687e-05,-0.0031823566558232654,0.005322276140087888
9.09090909090909,1.620253164556962,0.005369131393786275,0.004939995555351022,-6.692342633927447e-05,-0.0030927380847411896,0.005169243564024462
9.191919191919192,1.620253164556962,0.005578436125692554,0.005006108432445349,-9.580727258831373e-06,-0.0031753633674413704,0.005315457693195323
9.292929292929292,1.620253164556962,0.005671495669744936,0.0051382115154904795,-7.951554297360129e-05,-0.0032429121555706247,0.0054262974959211245
9.393939393939394,1.620253164556962,0.005805595547994488,0.005134069664725867,4.627282460824222e-06,-0.0032818995638161062,0.005500667526378473
9.494949494949495,1.620253164556962,0.00555270617095636,0.004960145663396019,-4.6025159118051135e-06,-0.0031538555503057134,0.005281422435155119
9.595959595959595,1.620253164556962,0.0057027497002555055,0.00510341319875359,3.655748340609967e-05,-0.0032418488697027285,0.0054283240213056135
9.696969696969697,1.620253164556962,0.005709991749907955,0.0052022883772714105,-2.2520280252973004e-05,-0.0032736840381538098,0.005473966379008584
9.797979797979798,1.620253164556962,0.0056492183183186545,0.005304332452090784,4.953520829704477e-05,-0.0032860652311228317,0.005485584702300221
9.8989898989899,1.620253164556962,0.005862717151149344,0.005134387019965758,-6.271880368224706e-05,-0.0032991312513345303,0.00553567742625848
10.0,1.620253164556962,0.005843349129350425,0.005285235198691583,0.00010728283538782042,-0.0033385752984126022,0.005588335573011761
0.0,1.7215189873417722,0.005995917901858557,0.005388009891696631,3.969065656988804e-05,-0.0034151783380665566,0.005716672385093508
0.10101010101010101,1.7215189873417722,0.005925240969403545,0.005234438334307345,7.829814532324969e-05,-0.003347903791113267,0.005613457806877448
0.20202020202020202,1.7215189873417722,0.005869171915214268,0.0053528427085587455,-2.6822713144200524e-05,-0.0033666043871319043,0.0056289882141552965
0.30303030303030304,1.7215189873417722,0.005977566573705578,0.005269843703842443,-1.7463253414993483e-05,-0.0033742230832644066,0.0056570865406963865
0.40404040404040403,1.7215189873417722,0.005768673781722812,0.005090760654671101,-1.3867470189786389e-05,-0.0032578303309181733,0.005461417457551168
0.5050505050505051,1.7215189873417722,0.005338247816649174,0.005027856975906192,-7.433417579750795e-05,-0.00310983143776661,0.005191614942110708
0.6060606060606061,1.7215189873417722,0.005521261542401599,0.0050940250376287615,-0.00011716525024080298,-0.003184585974009108,0.00532439279682604
0.7070707070707071,1.7215189873417722,0.005380780929109044,0.004962947223926974,-4.754722505054167e-05,-0.0031031184459108054,0.005185161424266088
0.8080808080808081,1.7215189873417722,0.005517437703796289,0.0050016556944649845,-5.316076189889054e-05,-0.003155728019478382,0.005279283378548207
0.9090909090909091,1.7215189873417722,0.005513034924993714,0.005077061808558325,6.7151659677129675e-06,-0.0031770290200656115,0.005308505147925365
1.0101010101010102,1.7215189873417722,0.0051300432621256544,0.0047890763183077575,-9.237559336328751e-05,-0.0029757358741300233,0.004970918115002944
1.1111111111111112,1.7215189873417722,0.005229708462713866,0.0048437128558055514,4.3461038622836716e-05,-0.003022026395555825,0.0050483527320453045
1.2121212121212122,1.7215189873417722,0.0053244658865484115,0.004757386258172099,9.914736591466375e-05,-0.003024555643416153,0.005067702708939663
1.3131313131313131,1.7215189873417722,0.005274823227386629,0.004886373224265887,-4.476366155253931e-06,-0.003048358935495755,0.005091729421279588
1.4141414141414141,1.7215189873417722,0.005310299740465034,0.004760022124688013,-0.00011290037132222374,-0.003021096559545914,0.005061441414192
1.5151515151515151,1.7215189873417722,0.005178334535181485,0.004832699660883408,-4.5979938001836016e-05,-0.0030033102588194675,0.005015091373299136
1.6161616161616161,1.7215189873417722,0.0051037540864290465,0.004625055854553015,-3.942643447081205e-06,-0.0029186429822946184,0.004882043255456758
1.7171717171717171,1.7215189873417722,0.005298454225603033,0.004521668292741691,7.975075879385444e-05,-0.002946036755503417,0.004957855323476908
1.8181818181818181,1.7215189873417722,0.005064292263648706,0.004732377551568577,2.3142216735764834e-06,-0.002939000944565185,0.004906763339110074
1.9191919191919191,1.7215189873417722,0.005020652706640221,0.004598273880169895,1.552457640124755e-05,-0.0028856779760430347,0.004823428564083414
2.0202020202020203,1.7215189873417722,0.004869638012432527,0.004644481883870347,-2.0805114453078113e-05,-0.002854235968890862,0.004761190961339463
2.121212121212121,1.7215189873417722,0.005110634263359919,0.004487261317860878,-8.510501925956877e-06,-0.002879368674366239,0.004829240370370752
2.2222222222222223,1.7215189873417722,0.005027405374501884,0.004695693819072576,3.6006779701130944e-05,-0.0029169297580723384,0.004870428971207712
2.323232323232323,1.7215189873417722,0.005063829419868326,0.004637486239583414,6.101291156705352e-05,-0.0029103946978355217,0.004865837593646765
2.4242424242424243,1.7215189873417722,0.005166870831047008,0.004576255032018709,-2.0035665080188866e-05,-0.0029229377589197153,0.004898464039477784
2.525252525252525,1.7215189873417722,0.005061836961705709,0.0045588224295153214,-2.8582285564140665e-05,-0.0028861978173663093,0.004830268143313847
2.6262626262626263,1.7215189873417722,0.004872553214696175,0.0044175226321819016,-4.548344471086547e-05,-0.002787022754063423,0.004662389212054546
2.727272727272727,1.7215189873417722,0.004895614511526965,0.004445539660408048,4.559769371860449e-05,-0.0028023462515805037,0.004687478351276876
2.8282828282828283,1.7215189873417722,0.004936200652716231,0.004327981545648164,-5.115739355243932e-06,-0.002779254659509318,0.004661951772073837
2.929292929292929,1.7215189873417722,0.004904845925002273,0.0043986277151428456,7.955521424692292e-06,-0.0027910420920435356,0.0046723696312660394
3.0303030303030303,1.7215189873417722,0.004731087439773235,0.00422899167981262,-3.288579382627375e-05,-0.002688023735875756,0.004501452432020601
3.131313131313131,1.7215189873417722,0.004987990113643166,0.0043228320620444065,-1.4477794059867957e-05,-0.0027932466527062715,0.0046909815221962215
3.2323232323232323,1.7215189873417722,0.004815617443960028,0.004313377474084561,5.276990646857769e-05,-0.002738698475413377,0.004586084907959345
3.3333333333333335,1.7215189873417722,0.004974083531074553,0.004416890203309426,2.9441526257130075e-05,-0.002817292120315194,0.004720492096567578
3.4343434343434343,1.7215189873417722,0.0048994388651577995,0.004478583804835015,-5.6800701130272904e-05,-0.002813406800997844,0.004704183828786981
3.5353535353535355,1.7215189873417722,0.0048817362801382705,0.004261717270344448,-3.4234985416933515e-05,-0.0027430360651448152,0.004603533370088408
3.6363636363636362,1.7215189873417722,0.004897098493385503,0.0042644424864691065,-4.2147303227306255e-05,-0.002748462293956383,0.0046139980151938065
3.7373737373737375,1.7215189873417722,0.004812568231859451,0.004413217641935451,5.584327887935547e-05,-0.0027677357621384703,0.0046268506927413236
3.8383838383838382,1.7215189873417722,0.00469730728782376,0.004441400839152468,7.335376585459199e-06,-0.002741612438092868,0.004574743059846963
3.9393939393939394,1.7215189873417722,0.004873619614797999,0.004328127970329027,4.69862229270797e-06,-0.002760524275538108,0.004625070457505617
4.040404040404041,1.7215189873417722,0.00463202647401888,0.004540378587719067,6.889328733682253e-05,-0.0027517215185213838,0.004588441130772697
4.141414141414141,1.7215189873417722,0.004699786278213633,0.004333688013566543,-0.0001621800344120179,-0.0027100422875340527,0.004536556236869791
4.242424242424242,1.7215189873417722,0.004886210933539718,0.004304760669884152,-0.00010594486372148378,-0.0027572914810271606,0.004626632252839177
4.343434343434343,1.7215189873417722,0.004768434179927355,0.004429418757009464,-1.8257997724078673e-05,-0.0027593558810810456,0.004608397044369565
4.444444444444445,1.7215189873417722,0.004854672642655286,0.004394481644189942,-6.169561605143392e-05,-0.0027747462860535682,0.004642947837192247
4.545454545454545,1.7215189873417722,0.00462610260886138,0.004437102833870738,8.728661551112006e-05,-0.0027189616328196354,0.004537077337917475
4.646464646464646,1.7215189873417722,0.004851266653430823,0.004279581983643058,-1.11706361985608e-05,-0.002739254591122164,0.004592231601180464
4.747474747474747,1.7215189873417722,0.0048339226292564335,0.0044231999371256246,5.745135979426733e-05,-0.0027771367699146177,0.004643274854653233
4.848484848484849,1.7215189873417722,0.00504141760551341,0.004342432134314761,-1.794529429649715e-05,-0.002815154921948451,0.004730915408500829
4.94949494949495,1.7215189873417722,0.0048649851028130225,0.00452226852428851,-4.6306413737106594e-05,-0.0028161760881304596,0.004703685417482653
5.05050505050505,1.7215189873417722,0.004929525534643109,0.004375711694365696,3.111217053397923e-06,-0.0027915711687026418,0.004677277128662534
5.151515151515151,1.7215189873417722,0.004847063077073492,0.004272303779042729,-7.646198267669751e-05,-0.002735810056834866,0.00458868319417422
5.252525252525253,1.7215189873417722,0.004727109326745539,0.004337211711964464,3.935278641299319e-06,-0.0027192963116130005,0.004544726674395626
5.353535353535354,1.7215189873417722,0.005182891243515881,0.004186956741631666,-3.164918725876499e-05,-0.002810954395544264,0.0047639722898426195
5.454545454545454,1.7215189873417722,0.004786480000722645,0.004333842805260827,4.910306555958957e-05,-0.002736096841795041,0.004577768635210201
5.555555555555555,1.7215189873417722,0.004676213866401224,0.004542431754270788,-2.0056435749189277e-05,-0.002765593686201603,0.0046109095406300545
5.656565656565657,1.7215189873417722,0.004849296885868421,0.004162501867945411,-9.99465990346498e-06,-0.0027035396261441496,0.004545018638242619
5.757575757575758,1.7215189873417722,0.004731663025871828,0.004146170674347542,-6.318379431911955e-05,-0.002663350110065811,0.0044691229954042936
5.858585858585858,1.7215189873417722,0.004770385197336001,0.00436591753060609,4.68012522584636e-05,-0.002740890818382627,0.004582278202582407
5.959595959595959,1.7215189873417722,0.0048775308601532695,0.0044621885043933576,-5.035131787969568e-05,-0.002801915809363988,0.004684503940880467
6.0606060606060606,1.7215189873417722,0.004986083701166008,0.004621169647697203,3.6919918490180516e-05,-0.002882176004658963,0.004814435602255895
6.161616161616162,1.7215189873417722,0.00483279135399592,0.004281748656884301,-9.982689534535638e-05,-0.0027343620032640663,0.004585448960583578
6.262626262626262,1.7215189873417722,0.00474129171636595,0.004332068686281168,-4.4571480805891266e-05,-0.0027220081207941353,0.004551156415247523
6.363636363636363,1.7215189873417722,0.004799997161000027,0.004336142154058579,-2.9890065130747607e-06,-0.0027408417945175814,0.0045857015056715335
6.4646464646464645,1.7215189873417722,0.005125673057759247,0.004465373880984154,2.7155502749516165e-05,-0.00287731408162302,0.004829726064842697
6.565656565656566,1.7215189873417722,0.00500877106074975,0.004538849597874334,1.6816214117543618e-06,-0.0028642861975872254,0.004791126504252554
6.666666666666667,1.7215189873417722,0.004821029629657715,0.0044054934692002645,-4.0714927419588495e-06,-0.002767956929657394,0.004627281554010432
6.767676767676767,1.7215189873417722,0.004992745225621117,0.004324916926913342,1.617434134157033e-05,-0.0027952986457603374,0.004694676538651301
6.8686868686868685,1.7215189873417722,0.004795273529611114,0.004461116666004897,1.7612929517944748e-05,-0.0027769170586848034,0.00463733394488191
6.96969696969697,1.7215189873417722,0.004837204796611132,0.004349202525926392,-6.772216370462577e-05,-0.0027559221967612575,0.004614096705792843
7.070707070707071,1.7215189873417722,0.004951453878571804,0.004505946993059121,4.5944621614680004e-05,-0.0028372202614892774,0.004745081435046895
7.171717171717171,1.7215189873417722,0.0049372320014465345,0.00447310707133261,-3.369956136367857e-05,-0.002823101721833743,0.004722667287724355
7.2727272727272725,1.7215189873417722,0.004821228482279007,0.004562392376071151,6.844139205094598e-05,-0.002815086257505047,0.004698657773573351
7.373737373737374,1.7215189873417722,0.005007058447101884,0.004504325104501177,3.755216219554343e-05,-0.0028534150654809178,0.0047760224425147805
7.474747474747475,1.7215189873417722,0.004931813098812037,0.0043481107131285,1.466445375607845e-05,-0.0027839771435821613,0.0046674857240013735
7.575757575757575,1.7215189873417722,0.00499766946457659,0.0046373379082736785,-8.84617352695429e-05,-0.0028905022118550804,0.004830030779134974
7.6767676767676765,1.7215189873417722,0.004873221344126112,0.004734851218706339,5.2241770342345465e-05,-0.0028824217688497348,0.004806382415036849
7.777777777777778,1.7215189873417722,0.005096740483836745,0.004443804625433143,-1.0792350167092272e-05,-0.002862163532780966,0.004803706235435481
7.878787878787879,1.7215189873417722,0.0051614246665859145,0.004587049617041242,-3.0494516752391555e-05,-0.0029245422850881467,0.004899837495718146
7.979797979797979,1.7215189873417722,0.005024454145815823,0.004645548793380442,-6.385711670481429e-06,-0.00290100088175888,0.004846136450053264
8.080808080808081,1.7215189873417722,0.005084454429027328,0.004788408193793896,-2.864913797899894e-05,-0.0029618587868463675,0.004943333788208402
8.181818181818182,1.7215189873417722,0.005260261183350201,0.004699793629403823,-7.19931617986425e-05,-0.0029880164438262067,0.005005178810349679
8.282828282828282,1.7215189873417722,0.005266846151714277,0.004575549539383066,1.2963692069823488e-05,-0.0029527187073292026,0.004957530702036508
8.383838383838384,1.7215189873417722,0.005120211660307624,0.004717613506658923,-1.589989622281015e-05,-0.0029513475500899636,0.004931330791889831
8.484848484848484,1.7215189873417722,0.005065218174947492,0.004741269872892782,-6.586038839058083e-05,-0.002941946414352082,0.0049125880762779725
8.585858585858587,1.7215189873417722,0.005195374293209736,0.004764714977004042,-3.165548671139598e-05,-0.002988026781064133,0.004994291877949243
8.686868686868687,1.7215189873417722,0.005292941231195965,0.004824474303247562,4.19554353358563e-05,-0.003035224660333058,0.005075470519739871
8.787878787878787,1.7215189873417722,0.005453219481542853,0.00476842106145731,6.047624662282504e-05,-0.0030664921629000486,0.005146179906873317
8.88888888888889,1.7215189873417722,0.005297899657991276,0.004857480994163434,7.715905466272241e-05,-0.003046614195646413,0.00509374872331516
8.98989898989899,1.7215189873417722,0.0054613949879308114,0.004821184121858045,-2.7545748121400456e-05,-0.003084773732936657,0.005171318696112577
9.09090909090909,1.7215189873417722,0.005458211158550273,0.005032557324611268,7.001062324110433e-05,-0.003147230544948462,0.005259719212437479
9.191919191919192,1.7215189873417722,0.005330906805850243,0.004931623668371444,-1.0855512386166425e-05,-0.003078759142266506,0.005142937558238082
9.292929292929292,1.7215189873417722,0.005541519308246109,0.005058501138447816,-1.994662463321995e-05,-0.0031800061340081774,0.005316604356668979
9.393939393939394,1.7215189873417722,0.005489157792687498,0.00520288036132466,-2.1559150591859327e-05,-0.0032076114462036474,0.005351895032454994
9.494949494949495,1.7215189873417722,0.0057137439205696226,0.005101688203297235,1.2680392790099751e-05,-0.003244629637160057,0.0054336759688410835
9.595959595959595,1.7215189873417722,0.005531123424616265,0.005208104002700803,7.290443066893119e-05,-0.00322176822819512,0.005378378265066917
9.696969696969697,1.7215189873417722,0.005605327257658097,0.005350186591952712,2.8881623745146584e-05,-0.0032866541548832425,0.005482439779997266
9.797979797979798,1.7215189873417722,0.005892865107049322,0.00508612035857651,-4.634439928881776e-05,-0.00329369563968775,0.005534356483868155
9.8989898989899,1.7215189873417722,0.005866838115577046,0.005308822596779742,-3.4931174156108895e-05,-0.0033526982137070363,0.005609014587218195
10.0,1.7215189873417722,0.005940189281720181,0.0052750371945140635,-2.891709732625828e-05,-0.0033645679428702733,0.005637344702800754
0.0,1.8227848101265822,0.00596608035768255,0.005469273244039038,2.132717943836742e-05,-0.0034306060805164764,0.005733960718907587
0.10101010101010101,1.8227848101265822,0.0058154691295668505,0.00527924296233927,-4.0107622189900323e-05,-0.003328413627571836,0.005567193084621713
0.20202020202020202,1.8227848101265822,0.006038499433021712,0.005435501424183794,-2.8451319454201152e-05,-0.0034422002571616516,0.00576092937810568
0.30303030303030304,1.8227848101265822,0.00594502013332274,0.005097464029005635,-0.00012499373021173968,-0.0033127452486985125,0.005574024392579285
0.40404040404040403,1.8227848101265822,0.005725935505292553,0.00530638008667773,8.079919374070504e-06,-0.0033096946775910845,0.0055281292267335535
0.5050505050505051,1.8227848101265822,0.0057974352693786965,0.004840454415504554,5.536599237573235e-05,-0.003191366905464975,0.0053839789823403724
0.6060606060606061,1.8227848101265822,0.005574726005220758,0.005044433844246092,-2.1252604364813657e-06,-0.003185747954840055,0.005329405206898924
0.7070707070707071,1.8227848101265822,0.005476199114455128,0.004923933084556027,-4.521178691940692e-05,-0.003120039659703346,0.005222601658377927
0.8080808080808081,1.8227848101265822,0.005461728904914396,0.0048538897664222765,7.742139205964208e-05,-0.0030946856014010017,0.005186335958329824
0.9090909090909091,1.8227848101265822,0.0055568073661945595,0.004933995051797071,4.5485684141142245e-05,-0.0031472407253974894,0.005273647890212617
1.0101010101010102,1.8227848101265822,0.005459586748971223,0.004895166659871666,2.597898394033624e-05,-0.003106426022652867,0.005200594368919762
1.1111111111111112,1.8227848101265822,0.005248780061159303,0.004920617866003113,1.963555271822828e-05,-0.0030508193781487248,0.005092748573686194
1.2121212121212122,1.8227848101265822,0.005357129951606607,0.004821494100504869,-7.587449223369078e-05,-0.0030535872156334425,0.005112098105280241
1.3131313131313131,1.8227848101265822,0.005361618431299738,0.004817844221235612,3.181725290021493e-05,-0.003053838795760605,0.005111767774457776
1.4141414141414141,1.8227848101265822,0.005223489334137296,0.00478819419090244,-9.107418186201982e-06,-0.0030035050575119206,0.005020041033983584
1.5151515151515151,1.8227848101265822,0.005262478280156983,0.004751622462054296,3.2382105289007564e-05,-0.003004230222663384,0.0050268707434332335
1.6161616161616161,1.8227848101265822,0.005454408590993612,0.004606027870408105,3.2788058129736497e-06,-0.0030181309384205153,0.00508359519291946
1.7171717171717171,1.8227848101265822,0.0052722533352915065,0.004606821612402489,1.0130477343955029e-05,-0.0029637224843081984,0.0049730712712188945
1.8181818181818181,1.8227848101265822,0.005174223664336593,0.004466867295955164,1.0816924525968468e-05,-0.002892327288087527,0.0048593491866340275
1.9191919191919191,1.8227848101265822,0.005051618718360413,0.004391243290586655,4.734598756263481e-06,-0.0028328586026841207,0.004755948880979025
2.0202020202020203,1.8227848101265822,0.004982056116182228,0.00461275668729049,-1.9237101589174063e-05,-0.0028784438410418152,0.004808170643060464
2.121212121212121,1.8227848101265822,0.004880792071539691,0.004470203068171406,3.21835508475037e-05,-0.0028052985419133292,0.004689330694867427
2.2222222222222223,1.8227848101265822,0.005211825801061847,0.004707892586296581,6.824362174665696e-05,-0.002975915516207528,0.004980425314223601
2.323232323232323,1.8227848101265822,0.0051309400224174165,0.004532006782616382,-2.8273357187692154e-07,-0.0028988840415101395,0.004859236179519057
2.4242424242424243,1.8227848101265822,0.005017917800866829,0.00466906420474399,2.322190065286489e-05,-0.002906094601683245,0.004853070882226285
2.525252525252525,1.8227848101265822,0.005047538692458224,0.004513258498576484,3.476239318402341e-05,-0.0028682391573104124,0.0048031164360386545
2.6262626262626263,1.8227848101265822,0.004964312031784548,0.004529198776726238,-1.1911298178393638e-05,-0.002848053242553236,0.004761733420031643
2.727272727272727,1.8227848101265822,0.004978578231397216,0.004383589514084322,-2.6739011175193537e-06,-0.0028086503236444617,0.004709360503632368
2.8282828282828283,1.8227848101265822,0.004841819799405146,0.004494758038960917,2.638216561992868e-05,-0.0028009733515098187,0.004678177891885627
2.929292929292929,1.8227848101265822,0.004825963696009393,0.004410508241298798,4.762975940344029e-06,-0.0027709415811924577,0.004632237466508647
3.0303030303030303,1.8227848101265822,0.005053841977446802,0.004575720267396087,-5.692598373860187e-05,-0.002888868673452867,0.004833558651440582
3.131313131313131,1.8227848101265822,0.004891861450221993,0.004517236030751141,6.088174359213601e-05,-0.0028227292442919404,0.004716901182493385
3.2323232323232323,1.8227848101265822,0.0047299596212309804,0.004346744799212177,-6.68385137106053e-05,-0.002723011326132947,0.004551942787934553
3.3333333333333335,1.8227848101265822,0.004756731108926916,0.004300402002896247,4.573003756930162e-06,-0.002717139933546949,0.004545784308364072
3.4343434343434343,1.8227848101265822,0.005006442547187763,0.004392136287986765,-3.863860792089894e-05,-0.002819573650552358,0.004729781072246788
3.5353535353535355,1.8227848101265822,0.0048858878969389825,0.004354575165625418,-7.39968839529056e-05,-0.00277213891876932,0.004644855857074619
3.6363636363636362,1.8227848101265822,0.004982817501486497,0.004407865571273873,-5.17983342327226e-05,-0.002817204921828111,0.004722521427911821
3.7373737373737375,1.8227848101265822,0.004887834869282918,0.004330751937288119,-4.164306218186757e-05,-0.002765576041971311,0.004635034428814417
3.8383838383838382,1.8227848101265822,0.004844787203462745,0.0045283378277408476,6.271575266165152e-05,-0.0028119375093610772,0.0046958250782035815
3.9393939393939394,1.8227848101265822,0.004862581442819778,0.004135783029561325,1.586418407735035e-05,-0.002699509341714331,0.0045430796560921305
4.040404040404041,1.8227848101265822,0.0047838092396614235,0.004255926699756862,-5.058169137428295e-05,-0.002711920781825486,0.004543773428337021
4.141414141414141,1.8227848101265822,0.004810097050595466,0.004111895591627316,-3.0736321753447614e-05,-0.0026765977926668347,0.004502103541609534
4.242424242424242,1.8227848101265822,0.0047600329828887565,0.004374963490989362,-6.764824608767509e-05,-0.0027404989421634354,0.004581154645417613
4.343434343434343,1.8227848101265822,0.004846417425480244,0.0043824437039998495,-7.756579179308025e-05,-0.002768658338844028,0.004633839930731842
4.444444444444445,1.8227848101265822,0.004873030244331093,0.00433991929521268,-3.4518236007836765e-05,-0.0027638848618631315,0.004629939502137008
4.545454545454545,1.8227848101265822,0.004778451191715648,0.004315797507541379,2.4053615890452257e-05,-0.002728274609777108,0.0045649328476886466
4.646464646464646,1.8227848101265822,0.0050031993492861224,0.004212812537107096,-4.795238232419229e-05,-0.0027648035659179654,0.004659307947549385
4.747474747474747,1.8227848101265822,0.004746221479982808,0.004438143725652295,2.4973945037219574e-05,-0.0027553095616905305,0.00460013000668974
4.848484848484849,1.8227848101265822,0.0048345796416798415,0.004359154033996522,-4.246445408294174e-05,-0.0027581201027029093,0.004615854909518808
4.94949494949495,1.8227848101265822,0.004882609307479635,0.00431625198454946,1.8953541170036056e-05,-0.0027596583876087284,0.004625625410751927
5.05050505050505,1.8227848101265822,0.00482365618305506,0.0042368644767060175,-4.519189492902218e-05,-0.0027181561979283233,0.004559345233536408
5.151515151515151,1.8227848101265822,0.004881975891712067,0.004435866648140598,3.0060420214155143e-05,-0.0027953527619557998,0.004675202496027555
5.252525252525253,1.8227848101265822,0.004824688714230856,0.004383400771599142,-5.760143232007893e-05,-0.002762426845748999,0.004620955859561235
5.353535353535354,1.8227848101265822,0.004671725783182716,0.0043871433428989545,-6.368278247659395e-05,-0.002717660737824501,0.004537475545411699
5.454545454545454,1.8227848101265822,0.005119615968659616,0.004150611160441184,4.66940539355135e-06,-0.00278106813873024,0.004710474594463081
5.555555555555555,1.8227848101265822,0.004768844100637566,0.004215509982697466,7.137733942664905e-05,-0.0026953062250005097,0.0045193553447359066
5.656565656565657,1.8227848101265822,0.004869510731102437,0.004232055213405854,-2.404478676651379e-05,-0.0027304697833524867,0.00458433444118681
5.757575757575758,1.8227848101265822,0.004840336085228579,0.00433056381842631,-5.618728162239627e-05,-0.002751269971096467,0.004607680882565892
5.858585858585858,1.8227848101265822,0.004879612938741383,0.004232725901095566,-7.81783683403138e-05,-0.0027337016519510845,0.004592478904081645
5.959595959595959,1.8227848101265822,0.004963406738481874,0.004420879798540805,-9.454465346119352e-05,-0.0028152859611068034,0.004718450607683833
6.0606060606060606,1.8227848101265822,0.004903065234649407,0.004340958165961025,7.744085853864445e-05,-0.0027732070201831297,0.0046495114458375095
6.161616161616162,1.8227848101265822,0.004906948073096458,0.00419316228754783,-6.468733681932688e-05,-0.002730033108193286,0.0045932203419114526
6.262626262626262,1.8227848101265822,0.004932027376372401,0.004404428784152021,-2.23806418568834e-06,-0.002800936848157327,0.004690537137900861
6.363636363636363,1.8227848101265822,0.00489966249466056,0.004392560688815295,1.9377575189275103e-05,-0.0027876669550427565,0.004666941565443137
6.4646464646464645,1.8227848101265822,0.0047382651220501115,0.004444038581387799,-0.0001308603925553303,-0.0027546911110313734,0.0046038001254924375
6.565656565656566,1.8227848101265822,0.004825641271610926,0.0042934895063356,2.152550686162138e-06,-0.0027357392333839576,0.004582798224088696
6.666666666666667,1.8227848101265822,0.004872840882245447,0.004474300122595802,9.071863778927388e-05,-0.0028041423014523747,0.004688931318290958
6.767676767676767,1.8227848101265822,0.004924236395855861,0.004253073647356465,-2.5966034210520906e-05,-0.002753193012963698,0.004625540205028951
6.8686868686868685,1.8227848101265822,0.005035958839080098,0.004040758407296768,1.3239125662996544e-05,-0.0027230151739130594,0.004619528411058867
6.96969696969697,1.8227848101265822,0.005068718978825426,0.0045293004083564,-5.098917393714846e-05,-0.002879405816154548,0.004822501738971284
7.070707070707071,1.8227848101265822,0.004892779010303439,0.004513218766704434,5.499192989849672e-05,-0.002821799333102362,0.004715434271222731
7.171717171717171,1.8227848101265822,0.004940133753106231,0.004618658950978243,5.9211846907876144e-05,-0.0028676378112253422,0.004788596574640611
7.2727272727272725,1.8227848101265822,0.004962666099571714,0.004474658209868404,-4.9601272036650606e-05,-0.0028311972928320352,0.00473832957531025
7.373737373737374,1.8227848101265822,0.004862431768419695,0.0044088951418215835,1.0118574080338235e-05,-0.0027813980730723832,0.004652306355939468
7.474747474747475,1.8227848101265822,0.004898106602235991,0.004392842894687845,-0.00014422777157150515,-0.0027872848490771503,0.004672719673755182
7.575757575757575,1.8227848101265822,0.005060205648859965,0.0043693172984650445,3.539746670017844e-05,-0.002828856884197503,0.004752970621623088
7.6767676767676765,1.8227848101265822,0.005028756956338011,0.004580624237616238,-2.950459057815746e-07,-0.0028828143581862745,0.004820339116081812
7.777777777777778,1.8227848101265822,0.005148142912550781,0.004703517258316798,-8.664250311898734e-05,-0.0029554980512602733,0.004943135824545697
7.878787878787879,1.8227848101265822,0.0050467875462596205,0.004764549932104183,2.4091904661712425e-05,-0.002943401243509141,0.004911931452222267
7.979797979797979,1.8227848101265822,0.005233185815757906,0.004530282597644243,8.790158613977511e-05,-0.002929040524020645,0.004921896345103069
8.080808080808081,1.8227848101265822,0.005059944653506946,0.004677353306683553,2.209610618586069e-06,-0.0029211893880571496,0.004879911847822446
8.181818181818182,1.8227848101265822,0.005037920694308522,0.004812113348041288,-2.2903595080575593e-05,-0.0029550102127049427,0.0049290575266562435
8.282828282828282,1.8227848101265822,0.005306634179262276,0.004627566110588511,2.4563829990894842e-05,-0.0029802600869552357,0.005001974017962165
8.383838383838384,1.8227848101265822,0.005292843689932592,0.004622703712493607,-0.00012140161122328054,-0.00297466422072786,0.004996053524341439
8.484848484848484,1.8227848101265822,0.005357434304895347,0.004663505389679667,3.5457228142132386e-05,-0.0030062819083725044,0.005046754674064232
8.585858585858587,1.8227848101265822,0.005328963651682874,0.004773366674118856,4.998215204879095e-06,-0.003030699097740519,0.005074037884217828
8.686868686868687,1.8227848101265822,0.005358157546787153,0.004694583083858355,2.3242068632302046e-05,-0.0030158221891936525,0.005059275385755268
8.787878787878787,1.8227848101265822,0.005412164067857061,0.004730379669672054,2.6533823501345655e-05,-0.0030427631212587344,0.005105735301844186
8.88888888888889,1.8227848101265822,0.005426791795512853,0.0050141233952253434,8.088684207011922e-05,-0.0031322745572214586,0.005234551265882685
8.98989898989899,1.8227848101265822,0.00532905786405874,0.004872809209967147,-5.548785049752906e-05,-0.0030605601222077655,0.005117116549332464
9.09090909090909,1.8227848101265822,0.005591427463669732,0.004903335259904354,-2.916845115493109e-05,-0.0031484288170722263,0.005281350841623797
9.191919191919192,1.8227848101265822,0.005403469775414381,0.00498550586538064,-2.219586510864305e-06,-0.0031166926922385064,0.005207085448551708
9.292929292929292,1.8227848101265822,0.005577355911823274,0.004927562526409558,-7.33561206297238e-05,-0.0031514755314698494,0.005284046251934035
9.393939393939394,1.8227848101265822,0.005641979798714008,0.005011534502741658,-1.7298476917908078e-05,-0.0031960542904366997,0.005354748865087081
9.494949494949495,1.8227848101265822,0.005803323756475282,0.005122631210015052,-1.5909239894154017e-05,-0.0032777864899471002,0.0054947601450191265
9.595959595959595,1.8227848101265822,0.0057005960286002355,0.0052305047471710425,9.156967576368049e-05,-0.003279330232731383,0.0054829859947597955
9.696969696969697,1.8227848101265822,0.00566519849590657,0.0051856421286861085,-2.5573714956475825e-05,-0.0032552521873778035,0.005441472993755826
9.797979797979798,1.8227848101265822,0.0058539310587646266,0.00512801859594424,-2.7886702639037726e-05,-0.00329458489641266,0.005527056109444769
9.8989898989899,1.8227848101265822,0.005946894190397205,0.005308323478602121,-3.461207273055959e-05,-0.0033765653006997977,0.005655033562795771
10.0,1.8227848101265822,0.006018065705660311,0.00541447203228002,-2.008780023079612e-05,-0.003429761321382099,0.005740225111737373
0.0,1.9240506329113924,0.005935058167931625,0.005323152819762521,5.5831241777106014e-05,-0.003377463296308244,0.005654821054628774
0.10101010101010101,1.9240506329113924,0.005799798596829954,0.0053316885510517045,1.0399304240272288e-05,-0.003339446144364497,0.005580517111224422
0.20202020202020202,1.9240506329113924,0.005768820312573099,0.005233359789532857,-1.6838743036530555e-05,-0.0033006540306317867,0.0055206775723996146
0.30303030303030304,1.9240506329113924,0.00577991493911202,0.0053249488954776,8.257501015087096e-05,-0.0033314591503768856,0.005568231466879195
0.40404040404040403,1.9240506329113924,0.005803575858078299,0.005251407853189755,-3.3670401243185343e-06,-0.003316495113380416,0.005548140891703729
0.5050505050505051,1.9240506329113924,0.005648075524205497,0.005253177619871488,-5.1183587717460833e-05,-0.003270375943223096,0.005462064405781254
0.6060606060606061,1.9240506329113924,0.005635872669855331,0.0050177741650742225,-1.0740369507567804e-05,-0.003196094050478866,0.005353683601845749
0.7070707070707071,1.9240506329113924,0.005658429339006152,0.005021973076362314,-1.1192510780775517e-05,-0.0032041207246105395,0.00536860616791163
0.8080808080808081,1.9240506329113924,0.00536974063249366,0.0049218602515976205,9.574501203676374e-05,-0.003087480265227384,0.00516306218614889
0.9090909090909091,1.9240506329113924,0.005491110401363552,0.004898468547865566,1.3985358040097076e-05,-0.0031168736847687357,0.005220138190811895
1.0101010101010102,1.9240506329113924,0.005537206890471941,0.005054611676119776,-8.531155201040391e-08,-0.003177545569977515,0.005312375058711513
1.1111111111111112,1.9240506329113924,0.005357939437199212,0.004805028006839239,9.99568901188148e-05,-0.003048890233211535,0.005106930021466915
1.2121212121212122,1.9240506329113924,0.00534484094568408,0.004759416265643727,6.400387504857882e-07,-0.0030312771633983424,0.005077503935903602
1.3131313131313131,1.9240506329113924,0.005323215926128842,0.004712136045064486,3.933446303940461e-05,-0.0030106055913579986,0.005045966494355909
1.4141414141414141,1.9240506329113924,0.005197622999914835,0.004757004917051281,1.5967943839387433e-06,-0.002986388375089834,0.004991920483318717
1.5151515151515151,1.9240506329113924,0.0051609716045171,0.00471150254557514,-8.514028422971572e-05,-0.002961742245027672,0.004953756139664695
1.6161616161616161,1.9240506329113924,0.005259448774422991,0.0047257703639537125,-5.4317154568712845e-05,-0.0029955657415130107,0.005014839065667331
1.7171717171717171,1.9240506329113924,0.005223211619182566,0.004612877702836105,5.42963076052613e-05,-0.0029508267966056015,0.004947260673526637
1.8181818181818181,1.9240506329113924,0.0051898553608649345,0.0046152494579063,-2.9150463353949546e-06,-0.0029415314456313697,0.0049277453847621135
1.9191919191919191,1.9240506329113924,0.005118224182630184,0.00448920615524929,-2.861597837071734e-05,-0.0028822291013638423,0.0048347578849445684
2.0202020202020203,1.9240506329113924,0.005120662520513669,0.0045221634659200725,-1.2976278631538202e-05,-0.002892847795930122,0.004849245223882156
2.121212121212121,1.9240506329113924,0.0049366027259242365,0.004748178025165961,2.2390437706007707e-05,-0.0029054342253270592,0.0048452942578511874
2.2222222222222223,1.9240506329113924,0.005116634586729583,0.004436016739172512,-7.67171782897175e-05,-0.0028657953977706285,0.004814392371391107
2.323232323232323,1.9240506329113924,0.005076999181323393,0.004410138664482254,-2.0556449873691296e-05,-0.0028461413537416943,0.004778727973102769
2.4242424242424243,1.9240506329113924,0.005115227028848554,0.004679006062314743,9.078543742572709e-05,-0.002938269927348989,0.004914182841194256
2.525252525252525,1.9240506329113924,0.004955680932536311,0.004419308625648733,-2.3938531920159124e-05,-0.002812496867455513,0.004710636676994741
2.6262626262626263,1.9240506329113924,0.004914012652787936,0.004301337064501596,-3.437201577304207e-05,-0.0027646049151868594,0.0046385062726866585
2.727272727272727,1.9240506329113924,0.004927333294376907,0.004288671760535474,-0.00010260091082949204,-0.0027648015164737144,0.004644478932007151
2.8282828282828283,1.9240506329113924,0.005000904177955788,0.004380693443201299,3.599202666537288e-05,-0.0028144792863471256,0.004721861473603821
2.929292929292929,1.9240506329113924,0.005002572854192604,0.004393625511185824,-0.00013329306373138165,-0.002818859509613528,0.004733238817429142
3.0303030303030303,1.9240506329113924,0.004625722457494882,0.004476740357035882,4.866931932774997e-05,-0.002730738844359229,0.0045538401575047835
3.131313131313131,1.9240506329113924,0.005020568187635604,0.004349241203748086,4.995806573089417e-05,-0.002810942817415107,0.00472163418449395
3.2323232323232323,1.9240506329113924,0.004920329500356751,0.004434410028028326,-6.891840464058483e-05,-0.002806421858515523,0.004697778778387517
3.3333333333333335,1.9240506329113924,0.004979355048908001,0.004480918404799239,2.3231576859633756e-05,-0.002838082036112172,0.004749962303993837
3.4343434343434343,1.9240506329113924,0.004732692243203838,0.004258242567487376,-2.3614538873289362e-05,-0.0026972804432073643,0.004514391099910813
3.5353535353535355,1.9240506329113924,0.00501168895285079,0.004149622935234314,-6.169301102725584e-05,-0.002748393566425531,0.0046423264991346785
3.6363636363636362,1.9240506329113924,0.004941614252409094,0.004297009462610623,-3.824640697026346e-05,-0.002771587114505915,0.004653393052509419
3.7373737373737375,1.9240506329113924,0.004589041035374778,0.004379673198025393,-2.4997098344491897e-05,-0.002690614270020051,0.004488230105883934
3.8383838383838382,1.9240506329113924,0.005064137991101326,0.0042256064248752424,1.2603483857506498e-05,-0.0027869233247929705,0.004701347228468259
3.9393939393939394,1.9240506329113924,0.0051209333536784895,0.004357493876556643,6.474330185363284e-05,-0.00284352816907054,0.004786423576277125
4.040404040404041,1.9240506329113924,0.004742785891916146,0.004287951606410927,5.0066434391240146e-05,-0.0027092212494981218,0.0045333465072652365
4.141414141414141,1.9240506329113924,0.004747533466090591,0.004352651103241284,-4.393250325281728e-06,-0.002730055370799563,0.004562931816419005
4.242424242424242,1.9240506329113924,0.0045699482417594,0.004529274180256839,-1.369025484663492e-05,-0.0027297667266048715,0.004549809361393441
4.343434343434343,1.9240506329113924,0.004841123286306878,0.0043322343834456736,-3.368161756189165e-05,-0.0027520073009257655,0.004608172308516491
4.444444444444445,1.9240506329113924,0.0048118626437994765,0.004301878511050953,7.749927128738718e-05,-0.0027341223464551288,0.004580191123992021
4.545454545454545,1.9240506329113924,0.004927064302901152,0.004346592946305686,-2.483957845377823e-06,-0.0027820971747620515,0.004664001334793142
4.646464646464646,1.9240506329113924,0.004893585564280125,0.004346256271669852,4.6305233650029315e-05,-0.0027719525507849934,0.00464486585686228
4.747474747474747,1.9240506329113924,0.0047730511135001775,0.004352872119281647,-5.376249480186174e-05,-0.0027377769698345472,0.00457839521236269
4.848484848484849,1.9240506329113924,0.0048340813821973845,0.004333549609163622,-8.84297264918821e-07,-0.002750289297408302,0.004604266052939154
4.94949494949495,1.9240506329113924,0.0047882485424563526,0.004344240770385,-8.240323682427367e-06,-0.0027397467938524056,0.004582428520701482
5.05050505050505,1.9240506329113924,0.004875756507732738,0.004309271043692463,6.422374869371926e-05,-0.00275550826542756,0.004619982271126755
5.151515151515151,1.9240506329113924,0.00479490741691436,0.004249978957163651,-8.727497700086738e-05,-0.002713465912223403,0.004549511337991338
5.252525252525253,1.9240506329113924,0.0049485052069732334,0.004340313975954316,-9.754976680763612e-06,-0.0027866457548782644,0.0046742109881890296
5.353535353535354,1.9240506329113924,0.004817698160838166,0.004186643983886242,5.834214497804332e-06,-0.0027013026434173225,0.004535230811069907
5.454545454545454,1.9240506329113924,0.004675902805366709,0.004430360965388055,6.53563599559942e-05,-0.002731879131226429,0.004559500238335926
5.555555555555555,1.9240506329113924,0.0048356188740537875,0.004405071370645446,4.847205016743491e-05,-0.0027722070734097696,0.0046361261882179785
5.656565656565657,1.9240506329113924,0.0047753408953824395,0.004406902769044114,2.3348846222209612e-05,-0.002754673099327966,0.004602373862887487
5.757575757575758,1.9240506329113924,0.0049944748471916905,0.004319092003656173,-1.317979700068055e-05,-0.002794070055254359,0.00469342726389326
5.858585858585858,1.9240506329113924,0.004836745973678999,0.004418267000392994,3.151947848917471e-05,-0.002776503892221598,0.004641997437358706
5.959595959595959,1.9240506329113924,0.004961940087633202,0.004337601905918335,2.5529600197992336e-05,-0.002789862598065461,0.004681311165451
6.0606060606060606,1.9240506329113924,0.0050650210780602035,0.004282672540579726,6.158376013170397e-05,-0.002804308085591979,0.004723904486873086
6.161616161616162,1.9240506329113924,0.004888683455324078,0.004472339130501101,0.00010193800230710336,-0.002808306775747554,0.0046976980511346834
6.262626262626262,1.9240506329113924,0.004994955049663237,0.004421261318857439,5.48356230276446e-06,-0.0028248649105562028,0.004734259842429455
6.363636363636363,1.9240506329113924,0.0048658501858559735,0.004450672131417909,4.007035171418951e-05,-0.0027949566951821644,0.004672632398765209
6.4646464646464645,1.9240506329113924,0.004872566671077997,0.0044792478323177395,-6.704953378776543e-05,-0.0028055443510187207,0.004689735635205568
6.565656565656566,1.9240506329113924,0.0046558342474147035,0.00433917294322832,-9.616386391496877e-05,-0.002698502157192907,0.0045089341137652325
6.666666666666667,1.9240506329113924,0.004837341210411946,0.004335635540498378,8.342483237844533e-06,-0.0027518930252730966,0.00460704524002995
6.767676767676767,1.9240506329113924,0.005038713041381605,0.00439866405546824,-5.591637861177904e-05,-0.0028312131290549533,0.004752120428766954
6.8686868686868685,1.9240506329113924,0.004937449622247118,0.004513733169489172,3.84764618030616e-05,-0.002835354837520887,0.004740285548286625
6.96969696969697,1.9240506329113924,0.004898211448580697,0.0043696964897518295,3.3464858067959084e-05,-0.002780372381499758,0.0046568643017386386
7.070707070707071,1.9240506329113924,0.004995961854540026,0.004572341547314913,-3.98591377125599e-06,-0.0028704910205564816,0.004798202349165059
7.171717171717171,1.9240506329113924,0.004856238556061428,0.004727002756728957,-5.1965396774135155e-06,-0.002874972393837116,0.00479293604648954
7.2727272727272725,1.9240506329113924,0.004920425430839286,0.004351623598829419,7.485936016247187e-06,-0.002781614708900612,0.004662139322557032
7.373737373737374,1.9240506329113924,0.005032995868542451,0.004528545847305464,2.427862685509595e-05,-0.0028684625147543746,0.004800873953676079
7.474747474747475,1.9240506329113924,0.005024120650441941,0.004533743401204652,3.5150297443623924e-05,-0.0028673592154939776,0.004798150719037266
7.575757575757575,1.9240506329113924,0.0048897096837112585,0.004496716949264047,0.00012057162518169001,-0.0028159279898925917,0.004710169450396675
7.6767676767676765,1.9240506329113924,0.005132207435828413,0.004411346207818644,-2.1825700427723497e-05,-0.002863066093094117,0.004812589095635067
7.777777777777778,1.9240506329113924,0.005015027891531416,0.004629218111229338,-2.4570490533039376e-05,-0.0028932738008282267,0.004833871973624183
7.878787878787879,1.9240506329113924,0.005204802482197751,0.004633271363401669,5.3428061649678585e-05,-0.002951422153679826,0.004944742034322517
7.979797979797979,1.9240506329113924,0.005128966027731656,0.00454014574716341,2.267735670924599e-06,-0.0029007335324685198,0.004861376147639182
8.080808080808081,1.9240506329113924,0.005102510862896029,0.004740639457291405,3.376005262171015e-06,-0.00295294509605623,0.00493154635325795
8.181818181818182,1.9240506329113924,0.0051237851925320654,0.0045994044999897185,-9.749818372733217e-05,-0.002916956907756535,0.004885678404245847
8.282828282828282,1.9240506329113924,0.005002054830703977,0.004608355056367713,-3.153195031290876e-05,-0.002883122966121507,0.004817595559538725
8.383838383838384,1.9240506329113924,0.005134282834684477,0.004793640089030227,6.25881577261991e-06,-0.002978376877114411,0.004972731545464198
8.484848484848484,1.9240506329113924,0.005200324665464777,0.00468523402688231,1.1589795785460184e-05,-0.002965667607704126,0.0049629083619915125
8.585858585858587,1.9240506329113924,0.005375611342447632,0.004566365021073736,-2.7397118243642884e-06,-0.00298259290905641,0.005020149970644295
8.686868686868687,1.9240506329113924,0.005259271411849791,0.00473865529411262,4.180647270022088e-05,-0.0029993780117887232,0.0050197767683895856
8.787878787878787,1.9240506329113924,0.005382926068015033,0.004644865851453022,-4.4694403262807684e-06,-0.0030083375758404164,0.005054479427713736
8.88888888888889,1.9240506329113924,0.00540170152806681,0.004766509762324185,2.197631488745346e-05,-0.0030504633871172985,0.005113920269343984
8.98989898989899,1.9240506329113924,0.005428154594334346,0.004911176453795522,6.795755631308971e-06,-0.0031017993144389602,0.00518902977211883
9.09090909090909,1.9240506329113924,0.00534895852511723,0.004963786259285266,8.302990552436034e-06,-0.003093823435320749,0.005167170533453116
9.191919191919192,1.9240506329113924,0.005644711577935049,0.004975111351888068,-8.040323540560124e-05,-0.003185946878946935,0.005343297404508934
9.292929292929292,1.9240506329113924,0.005642197267568488,0.00500739623610799,4.4784725256197854e-05,-0.0031948780511029434,0.0053536629260155484
9.393939393939394,1.9240506329113924,0.005720834841389866,0.005014521642380499,2.962560053753225e-05,-0.0032206069451311096,0.005402662444420377
9.494949494949495,1.9240506329113924,0.00564587124386411,0.005156831785839766,1.0100712116751971e-05,-0.0032408109089111623,0.005417958467335983
9.595959595959595,1.9240506329113924,0.005649933986100572,0.005035617858032029,-5.5144874377604974e-05,-0.0032056655532397807,0.005370048012245851
9.696969696969697,1.9240506329113924,0.005808194390005797,0.005218875808491668,3.744967222614592e-05,-0.0033081210595492395,0.005537485802906012
9.797979797979798,1.9240506329113924,0.005901625265853264,0.005157614203168658,4.4520761126916275e-05,-0.003317771840706576,0.005567567246909087
9.8989898989899,1.9240506329113924,0.006029705427078125,0.0053751900904671305,-1.4153673905993231e-05,-0.0034214686552635765,0.005730602426043908
10.0,1.9240506329113924,0.006174977185761898,0.005193691328857805,-5.783366814856546e-05,-0.0034106005543859106,0.005748380780538194
0.0,2.0253164556962027,0.005960745615604905,0.005545643973414751,-5.178117976509469e-05,-0.0034519168767058964,0.005765112856251844
0.10101010101010101,2.0253164556962027,0.005942305903883495,0.005420230250920795,3.6205864869745316e-05,-0.003408760846441287,0.0056995755808502005
0.20202020202020202,2.0253164556962027,0.005713968237896143,0.005290351472842858,6.943410519202989e-05,-0.0033012959132217,0.005515688056050382
0.30303030303030304,2.0253164556962027,0.00584742937744927,0.0052106263691347006,3.0457952806428896e-05,-0.003317416723975191,0.005556714032398648
0.40404040404040403,2.0253164556962027,0.005685822007412296,0.005052566501161811,7.943026710741769e-05,-0.003221516552572232,0.00539888264777211
0.5050505050505051,2.0253164556962027,0.005614463208177528,0.005028455263041623,-1.3283604997876908e-05,-0.0031928755413657456,0.005345653537460268
0.6060606060606061,2.0253164556962027,0.005531768775906661,0.005041081230216742,-1.7021555713372205e-05,-0.0031718550018370205,0.0053035591081550156
0.7070707070707071,2.0253164556962027,0.005572950461155287,0.004869862972995381,-9.654006933406798e-06,-0.0031328440302452005,0.005256816214846614
0.8080808080808081,2.0253164556962027,0.0054949430062859895,0.005106894513875233,5.7277733249616326e-05,-0.0031805512560483667,0.00531248700153703
0.9090909090909091,2.0253164556962027,0.0055274392644700104,0.004792735463100562,1.1908660531928299e-05,-0.0030960524182711713,0.005199208527006165
1.0101010101010102,2.0253164556962027,0.0054016061149511595,0.00488175772418893,1.9810537829578096e-05,-0.0030850091517420266,0.005161468017559961
1.1111111111111112,2.0253164556962027,0.0054385089635324985,0.004831341283859819,0.00010133429808484441,-0.003080955074217695,0.005164760535523442
1.2121212121212122,2.0253164556962027,0.005339873271162617,0.004847755674090636,1.553190483778381e-05,-0.0030562886835759757,0.0051116831277726
1.3131313131313131,2.0253164556962027,0.005359693850421535,0.0047180352943125,-7.556415610318135e-05,-0.00302331874342021,0.005071102471917636
1.4141414141414141,2.0253164556962027,0.005265926645891425,0.004734390397643575,-9.250932934076378e-06,-0.0030000951130605,0.0050213285163874365
1.5151515151515151,2.0253164556962027,0.005331626351757104,0.004799255903668979,-3.0992691423969597e-05,-0.0030392646766278252,0.0050866628726101
1.6161616161616161,2.0253164556962027,0.005242565063302878,0.0046652024948999745,-3.76244184852112e-05,-0.002972330267460856,0.004979480087216725
1.7171717171717171,2.0253164556962027,0.0050615775738008266,0.004766307203329811,-5.5587686161090133e-05,-0.0029483654331391913,0.004921533116261216
1.8181818181818181,2.0253164556962027,0.005344397568956392,0.004706236033259477,-7.777189344104127e-05,-0.0030151900806647605,0.005057409609964193
1.9191919191919191,2.0253164556962027,0.005349050349646151,0.004746115609592981,-1.968240832260423e-05,-0.0030285497877717395,0.005074633371319499
2.0202020202020203,2.0253164556962027,0.0050867419221674055,0.0044819090336722925,2.926064353912272e-05,-0.002870595286751909,0.004813180440385334
2.121212121212121,2.0253164556962027,0.00507406965311362,0.0045138829370093905,-2.096940586950463e-05,-0.0028763857770369027,0.004818597797413053
2.2222222222222223,2.0253164556962027,0.005060334428383407,0.004526823929757512,4.827367402921647e-05,-0.002876147507442276,0.004816520266534618
2.323232323232323,2.0253164556962027,0.005005550956225094,0.0046042640718657124,2.6755719878052944e-05,-0.002882944508427242,0.004817681724319042
2.4242424242424243,2.0253164556962027,0.005015611594620235,0.004470806909673696,6.65592499374756e-05,-0.0028459255512881788,0.004768011484829295
2.525252525252525,2.0253164556962027,0.004892550416536737,0.004588510841123023,-0.00010018152679871935,-0.002844318377297928,0.004751007230616756
2.6262626262626263,2.0253164556962027,0.00498023818701718,0.004405578975894362,1.0713289870556183e-05,-0.0028157451488734627,0.004719259495337906
2.727272727272727,2.0253164556962027,0.004902969944159429,0.004653337779194824,-2.1410706598222912e-05,-0.002866892317006275,0.0047831858362674794
2.8282828282828283,2.0253164556962027,0.004806400662111966,0.004376686677425929,7.35159857163433e-06,-0.002754926201861368,0.004606617630200713
2.929292929292929,2.0253164556962027,0.004665826976423438,0.0046727852164991715,2.551646670245301e-05,-0.002801583657876783,0.004669519140714422
3.0303030303030303,2.0253164556962027,0.004897833190987566,0.004261158130845564,5.783554318532621e-05,-0.0027476973965499386,0.0046136570860517345
3.131313131313131,2.0253164556962027,0.004764655130614972,0.004400814852527325,1.542465871509377e-05,-0.0027496409949426892,0.004593632394329048
3.2323232323232323,2.0253164556962027,0.004820888112556671,0.004510799095650942,-6.742622524298011e-05,-0.002799506162462284,0.004675024259221778
3.3333333333333335,2.0253164556962027,0.004759513042988234,0.004218870732172117,3.385362151023522e-05,-0.002693515132548105,0.004513923192497539
3.4343434343434343,2.0253164556962027,0.004717138836056785,0.004248606044518895,-6.889972766632908e-05,-0.002689723464172704,0.004502780148515964
3.5353535353535355,2.0253164556962027,0.004692931201432883,0.004651336339685147,-1.2911535490280899e-05,-0.002803280262335409,0.0046723261543514935
3.6363636363636362,2.0253164556962027,0.004843465727712631,0.004159652441015503,-2.861692863282776e-05,-0.0027009354506184404,0.004540615754953444
3.7373737373737375,2.0253164556962027,0.004930145108638766,0.0044507946795771655,-1.4805101370396301e-05,-0.0028142819364647795,0.004708874390551749
3.8383838383838382,2.0253164556962027,0.004789300273043639,0.004374248014081995,3.5321111425058887e-05,-0.00274906448613769,0.004596259166823555
3.9393939393939394,2.0253164556962027,0.0049619319197542885,0.004498286854160265,1.6337788524543003e-05,-0.002838065632174366,0.004747205561456153
4.040404040404041,2.0253164556962027,0.00483660084716595,0.004323351568852934,-3.432644464532116e-05,-0.0027479857248056652,0.004601878485640961
4.141414141414141,2.0253164556962027,0.004876785663500211,0.004233601610126021,-8.781878883946794e-05,-0.0027331161820878694,0.0045916434729591695
4.242424242424242,2.0253164556962027,0.004726857118981105,0.004276468672616036,2.9405073413767382e-05,-0.0027009977374791425,0.0045188162296005505
4.343434343434343,2.0253164556962027,0.00467472060490322,0.004135061872910392,2.6262169492685722e-05,-0.0026429347433440833,0.00442984870977547
4.444444444444445,2.0253164556962027,0.004746674251273518,0.004262513057853851,-8.463030209531306e-06,-0.00270275619273821,0.004524089732452989
4.545454545454545,2.0253164556962027,0.00477177427225423,0.004184165570882503,-1.9175564863283472e-05,-0.00268678195294102,0.00450691476675345
4.646464646464646,2.0253164556962027,0.004867258101908541,0.004466116397936247,5.993759713239169e-05,-0.0028000123499534366,0.004680751375071912
4.747474747474747,2.0253164556962027,0.00491345007799878,0.004208688908173755,-8.618492263445274e-05,-0.00273664169585176,0.004604145379253417
4.848484848484849,2.0253164556962027,0.004899014999253118,0.004232855914324065,6.071000559791e-05,-0.002739561274073155,0.004603438894427021
4.94949494949495,2.0253164556962027,0.0047919201352199705,0.004334101266330461,7.587263041224027e-06,-0.0027378064204651295,0.00458022247741351
5.05050505050505,2.0253164556962027,0.004733439428871774,0.004250132389434993,1.4509322186965225e-06,-0.00269507154549203,0.004511245530899272
5.151515151515151,2.0253164556962027,0.004771619851629263,0.0042839809955993345,-1.6181933289571412e-05,-0.002716680254168579,0.004547538452988542
5.252525252525253,2.0253164556962027,0.004740645710043402,0.00421749873847306,3.825033352744621e-05,-0.0026874433345549383,0.00450241483201669
5.353535353535354,2.0253164556962027,0.00476113535913315,0.0042783785474798325,-0.00012378366720744766,-0.0027118541719838942,0.004544112752800331
5.454545454545454,2.0253164556962027,0.004752870524137525,0.0043561114628933115,5.2261622239418885e-05,-0.0027326945961092513,0.0045683306968738475
5.555555555555555,2.0253164556962027,0.004827243697867458,0.0044415940253608975,-9.534789857348642e-07,-0.002780651316968507,0.0046464379006589665
5.656565656565657,2.0253164556962027,0.004770549583511403,0.004187669703031112,-1.3094732807985377e-05,-0.0026874657859627545,0.0045075214174564995
5.757575757575758,2.0253164556962027,0.004854009907303076,0.004245867250350136,4.349317431777388e-06,-0.002729963147295964,0.004580324872668464
5.858585858585858,2.0253164556962027,0.004853908688338433,0.004501146082617459,4.226326439472648e-05,-0.0028065164312867674,0.004688064854974207
5.959595959595959,2.0253164556962027,0.004812357100649568,0.004269580009010996,-2.0997827067709294e-05,-0.002724581132898169,0.0045653776810454395
6.0606060606060606,2.0253164556962027,0.004777703022018889,0.0044552758325769265,6.256507000319929e-05,-0.0027698936563787446,0.004626195766034492
6.161616161616162,2.0253164556962027,0.004825295978045744,0.004314167465178101,-2.366789383966317e-05,-0.002741839032967153,0.004591303494935005
6.262626262626262,2.0253164556962027,0.004937599325772705,0.004415527171507186,2.9335310601554187e-05,-0.002805937949183967,0.004698642889236066
6.363636363636363,2.0253164556962027,0.004786081845327204,0.004134640390346439,-3.047729309202362e-05,-0.0026762166707020927,0.004496208388703063
6.4646464646464645,2.0253164556962027,0.0051657843972117345,0.004382105710680086,-6.19607934674201e-05,-0.002864367032367546,0.004823140368128314
6.565656565656566,2.0253164556962027,0.004893332881723332,0.00431313811840606,-9.980779320310605e-05,-0.0027619413000388175,0.004633803117132155
6.666666666666667,2.0253164556962027,0.00494552505838056,0.004223507042003417,5.8310439205505063e-05,-0.0027507096301151927,0.0046280633366894254
6.767676767676767,2.0253164556962027,0.0047611656216043725,0.004314798225582253,-6.734222479742707e-05,-0.0027227891541559877,0.004555910200361212
6.8686868686868685,2.0253164556962027,0.004891164147306623,0.00444594785689756,-4.4343307664458714e-05,-0.002801133601261255,0.004685080286452042
6.96969696969697,2.0253164556962027,0.005042422052754358,0.004569371822185326,-4.648242501644833e-05,-0.002883538162481905,0.0048239983013646775
7.070707070707071,2.0253164556962027,0.00494715558498971,0.004486826962426748,5.351409549767552e-05,-0.0028301947642249375,0.004734714857523462
7.171717171717171,2.0253164556962027,0.004795523433495736,0.004586480474373456,5.758014375835372e-05,-0.002814601172360758,0.004695553212322574
7.2727272727272725,2.0253164556962027,0.004882932057473781,0.004521395627796155,3.8698337459526626e-05,-0.0028212983055809805,0.004713053036985482
7.373737373737374,2.0253164556962027,0.004950754581269562,0.004571547557301659,6.137767614603782e-05,-0.002856690641571366,0.004773647414421883
7.474747474747475,2.0253164556962027,0.004942739717206481,0.0044445839635995415,-4.461152365450581e-07,-0.0028161971042418065,0.0047134468741304985
7.575757575757575,2.0253164556962027,0.005043748132637683,0.004454596201587665,-0.0001094631464463232,-0.0028495033002676044,0.004780262316292114
7.6767676767676765,2.0253164556962027,0.005082527023360988,0.004636738289745347,-9.98426242562778e-06,-0.0029157795939319005,0.004874974288074813
7.777777777777778,2.0253164556962027,0.005005788862575308,0.004456637196609697,-0.0001292220342211233,-0.002838727817755501,0.00476032009406355
7.878787878787879,2.0253164556962027,0.005112672564164672,0.0045807163559265516,3.245449523019538e-05,-0.0029080166760273667,0.004868864357058129
7.979797979797979,2.0253164556962027,0.005205248095537313,0.00464316759757697,-0.00010897380080100496,-0.002954524707934285,0.004951807715220622
8.080808080808081,2.0253164556962027,0.00519048367870007,0.004615715506120188,4.295553566124297e-05,-0.0029418597554460774,0.004928862950659342
8.181818181818182,2.0253164556962027,0.005272570531407386,0.004728898358584928,5.56410479063815e-05,-0.003000440666997694,0.005023775208111276
8.282828282828282,2.0253164556962027,0.005126155280372614,0.004729663473532262,8.968032071341165e-05,-0.002956745626171463,0.00494229934563804
8.383838383838384,2.0253164556962027,0.005189057646255399,0.004585258767009985,5.333563255266145e-05,-0.0029322949239796157,0.0049159209941464855
8.484848484848484,2.0253164556962027,0.005382009282960416,0.004676163842485684,5.412481648545727e-05,-0.00301745193763383,0.005066967878526518
8.585858585858587,2.0253164556962027,0.005269694297115807,0.004906047615466939,-4.798344400275485e-05,-0.0030527225737748236,0.005098285719962551
8.686868686868687,2.0253164556962027,0.005304475751924653,0.0048625963738793574,-8.218021180061789e-05,-0.003050121637741203,0.0050999061464909595
8.787878787878787,2.0253164556962027,0.005453840070685048,0.004841044031162223,-8.160983784889817e-05,-0.003088465230554181,0.005176657165010953
8.88888888888889,2.0253164556962027,0.0053862535899047255,0.0048846332090123875,4.986907280149185e-05,-0.003081266039675134,0.005154508408878932
8.98989898989899,2.0253164556962027,0.0055701777126175205,0.004827920396683082,-5.968854281162578e-05,-0.0031194294327901804,0.00523965730571979
9.09090909090909,2.0253164556962027,0.0054656018603303535,0.005024706877841978,-6.72197438080032e-05,-0.0031470926214516998,0.0052603223405609
9.191919191919192,2.0253164556962027,0.0055504043204453925,0.0049240428845499125,5.950834464544043e-05,-0.0031423341614985915,0.0052662492609150775
9.292929292929292,2.0253164556962027,0.005601192398101966,0.004839370606676354,-5.6141297249584576e-05,-0.003132168901433496,0.005262705941944242
9.393939393939394,2.0253164556962027,0.0055766876782688355,0.005042010843140837,5.067377532253402e-05,-0.0031856095564229015,0.005330225375645966
9.494949494949495,2.0253164556962027,0.005844776893174653,0.005172098599513291,-7.702615367004131e-07,-0.0033050626478063833,0.005539156998165689
9.595959595959595,2.0253164556962027,0.0056535382288494754,0.005147428141007039,-8.700700170078593e-05,-0.0032402899109569548,0.005420335769257256
9.696969696969697,2.0253164556962027,0.00574379702339813,0.005207426893301045,7.281713233871887e-05,-0.0032853671750097523,0.005496726572247558
9.797979797979798,2.0253164556962027,0.005812915479542094,0.005364379803628267,7.614294179748095e-05,-0.003353188584951108,0.005603683065090131
9.8989898989899,2.0253164556962027,0.005861873499929886,0.005305918937199297,2.6517819018308838e-05,-0.0033503377311387547,0.005604803357009247
10.0,2.0253164556962027,0.0059468545546816675,0.005197117372161038,-5.415254355284722e-05,-0.0033431915780528115,0.005610472747694688
0.0,2.1265822784810124,0.006041307047708503,0.00553182846494418,-3.897086137719249e-05,-0.0034719406537958046,0.005803757309053056
0.10101010101010101,2.1265822784810124,0.0057959214179349496,0.0053522327085660055,-0.00011017594231640968,-0.0033444462379502867,0.005590563126820687
0.20202020202020202,2.1265822784810124,0.005638208195876767,0.005190482061304318,-5.146755315681647e-07,-0.003248607077154325,0.005428211306208449
0.30303030303030304,2.1265822784810124,0.0055786642482327075,0.005410557931740634,4.678392580994329e-05,-0.0032967666539920025,0.005497136712651458
0.40404040404040403,2.1265822784810124,0.005617024862152619,0.005057569217476308,-3.026965707047466e-05,-0.003202378223888678,0.005359499175426737
0.5050505050505051,2.1265822784810124,0.005503475827720776,0.005033968661186428,-7.867204320631877e-05,-0.0031612333466721613,0.005286145069416589
0.6060606060606061,2.1265822784810124,0.005702558445258085,0.004950196239930961,8.159368200882534e-05,-0.0031958264055567133,0.005367942329099586
0.7070707070707071,2.1265822784810124,0.005561811540495115,0.004972713127499727,-1.5928975155083646e-06,-0.0031603574003984526,0.005291912490986666
0.8080808080808081,2.1265822784810124,0.005566165633181422,0.004975643595674101,-3.0401256287186225e-05,-0.003162542768656657,0.005295917802528069
0.9090909090909091,2.1265822784810124,0.005591906712541002,0.004842891230001929,6.908108899933517e-06,-0.0031304393827628796,0.005257581510175824
1.0101010101010102,2.1265822784810124,0.00544008515976295,0.0047760351495883015,-2.0274014228505407e-05,-0.0030648360928053754,0.005140450706188447
1.1111111111111112,2.1265822784810124,0.005455661029822296,0.004817170923672059,1.4701921215096072e-06,-0.003081849586048307,0.005166094054730043
1.2121212121212122,2.1265822784810124,0.005308230291245511,0.004851980726459053,-6.242027652040648e-05,-0.0030480633053113692,0.005096595295180875
1.3131313131313131,2.1265822784810124,0.005138411402090173,0.004758280063811702,6.299235837172236e-05,-0.0029690074397705625,0.004960484298958065
1.4141414141414141,2.1265822784810124,0.005237964258610003,0.004878869493357988,-1.1960461459044381e-05,-0.003035050125590397,0.005068009691878871
1.5151515151515151,2.1265822784810124,0.005234802776677875,0.004619639273137044,-5.649784418206925e-05,-0.002956332614944476,0.0049569045431144074
1.6161616161616161,2.1265822784810124,0.0051829432092903955,0.004810981026951322,8.860654696705315e-06,-0.0029981772708725153,0.005007357870410073
1.7171717171717171,2.1265822784810124,0.005215111689379443,0.004429439308149397,0.00010439702970586587,-0.0028933652992586515,0.00487339696960843
1.8181818181818181,2.1265822784810124,0.005216732687780751,0.0045849458286984016,0.00010331629702878907,-0.0029405035549437456,0.00493453282320417
1.9191919191919191,2.1265822784810124,0.00504967261516105,0.004622847927207165,-2.45480139827179e-06,-0.0029017561627104646,0.004850367612302051
2.0202020202020203,2.1265822784810124,0.005160094309188712,0.004616310867038833,-2.7201378553327854e-05,-0.0029329215528682635,0.004911060945599745
2.121212121212121,2.1265822784810124,0.005199776921194228,0.004630419683031008,-2.0707184103950472e-05,-0.0029490589812675703,0.0049398991315954535
2.2222222222222223,2.1265822784810124,0.004990159894376477,0.004719713816876903,-2.365741684266202e-05,-0.0029129621133760137,0.004860755774862954
2.323232323232323,2.1265822784810124,0.005004062348368178,0.004762625255983608,-1.4653448294576803e-05,-0.002930006281305536,0.004887883976024268
2.4242424242424243,2.1265822784810124,0.0051540307489114185,0.004465062986437495,-4.173825264155073e-05,-0.0028857281206046735,0.004846955204131159
2.525252525252525,2.1265822784810124,0.00500532319687369,0.004425582746017227,9.171875668771461e-05,-0.0028292717828672753,0.0047447663756678546
2.6262626262626263,2.1265822784810124,0.004995853480192689,0.004468191504638033,-2.4282603407167923e-05,-0.0028392134954492165,0.004754221931456739
2.727272727272727,2.1265822784810124,0.005070900708955523,0.004484257253486508,1.500987121109052e-05,-0.002866547388732609,0.004804586321254893
2.8282828282828283,2.1265822784810124,0.00499241047125253,0.0044187186864537206,2.5978522905265418e-05,-0.0028233387473118755,0.004731934525611427
2.929292929292929,2.1265822784810124,0.004831203450751936,0.004417454647819764,-3.506149766849869e-05,-0.0027745974295715096,0.004638587946333572
3.0303030303030303,2.1265822784810124,0.004847474588531259,0.004202052420426214,-4.6385390240728164e-05,-0.002714858102687242,0.004559864791422781
3.131313131313131,2.1265822784810124,0.004870120836579067,0.004403790788981283,-5.1098344708170446e-05,-0.002782173487668105,0.00465535069754589
3.2323232323232323,2.1265822784810124,0.004811359169138191,0.0044964294505839865,2.6050956539662297e-05,-0.002792336585916653,0.004662097569773586
3.3333333333333335,2.1265822784810124,0.004986655400144566,0.004515137078344617,0.0001091700680844102,-0.002850537743546755,0.004772160572865277
3.4343434343434343,2.1265822784810124,0.004858568995337699,0.004369869929437229,7.308379044541608e-05,-0.0027685316774324785,0.0046353171467669665
3.5353535353535355,2.1265822784810124,0.00492034070617361,0.004371043076511563,2.0577471995289285e-06,-0.0027874151348055523,0.004669985199839623
3.6363636363636362,2.1265822784810124,0.004918510795120856,0.004242071058943972,0.000155310071411079,-0.0027481745562194485,0.004625430430631282
3.7373737373737375,2.1265822784810124,0.005233521355756114,0.004396275004715846,-5.169212026247704e-05,-0.002888938908141588,0.004870009938509276
3.8383838383838382,2.1265822784810124,0.004813817828757565,0.0042084667051209,4.3575699813141696e-05,-0.002706685360163539,0.004542129298531073
3.9393939393939394,2.1265822784810124,0.004797172377361505,0.004465326683104176,-5.000116411268788e-05,-0.0027787497181397044,0.004640965819106797
4.040404040404041,2.1265822784810124,0.0046700711053230095,0.004518303816858451,2.698000635777877e-05,-0.002756512476654438,0.0045963047301346765
4.141414141414141,2.1265822784810124,0.005137336571637246,0.004418189195330734,4.823327430411722e-05,-0.0028666577300903943,0.004818908302580985
4.242424242424242,2.1265822784810124,0.004791536431564273,0.004186614910775282,-2.2145642277530456e-06,-0.0026934454027018667,0.004519542303055453
4.343434343434343,2.1265822784810124,0.004835259866921363,0.004419792280611445,-1.887546402900743e-06,-0.0027765156442598423,0.0046414941816550655
4.444444444444445,2.1265822784810124,0.004821265066211939,0.004252961851820078,4.832675060037831e-05,-0.0027222680754096047,0.004564496836681024
4.545454545454545,2.1265822784810124,0.004735831809935884,0.004331282871703694,-1.895656913455288e-05,-0.0027201344044918735,0.004547193101200966
4.646464646464646,2.1265822784810124,0.0047903401984858915,0.004242880705179117,3.009352797368779e-05,-0.0027099662710995025,0.0045417255264369625
4.747474747474747,2.1265822784810124,0.00489477675722746,0.00440747876581436,-4.258606437554429e-05,-0.0027906766569125462,0.004670816274694814
4.848484848484849,2.1265822784810124,0.004866311737423511,0.004325748130707463,-4.0028015783301644e-05,-0.0027576179604392923,0.00462033057698776
4.94949494949495,2.1265822784810124,0.004858631548327013,0.004424201516704566,-1.3427857333939834e-05,-0.002784849919509473,0.0046566979115732045
5.05050505050505,2.1265822784810124,0.00476079272411207,0.004301992006724502,-7.225863711182472e-05,-0.002718835419250972,0.004550500442257907
5.151515151515151,2.1265822784810124,0.004776862803635354,0.004306300296000531,-3.4749685374574994e-05,-0.002724948929890765,0.0045602255866065795
5.252525252525253,2.1265822784810124,0.004728215987053899,0.004437460470467447,-1.633462726885246e-05,-0.0027497029372564033,0.004589837771528901
5.353535353535354,2.1265822784810124,0.0050237421862314585,0.004356378815092066,2.4300547615115934e-05,-0.0028140363003970573,0.004725724225086008
5.454545454545454,2.1265822784810124,0.004875088680736371,0.004258049794441569,3.196506151782643e-05,-0.002739941542553382,0.004598061834900372
5.555555555555555,2.1265822784810124,0.004871546130698481,0.004423236186037654,1.2884380797773279e-05,-0.0027884346950208406,0.004663633664380668
5.656565656565657,2.1265822784810124,0.004891836727584807,0.004250407867605944,-5.268634291985729e-05,-0.0027426733785572252,0.004605655202962414
5.757575757575758,2.1265822784810124,0.004817765583722177,0.004241518869040514,3.1039874519092246e-05,-0.0027177853358288074,0.004557367038936352
5.858585858585858,2.1265822784810124,0.004699498076235351,0.004349617177919642,4.443652258928564e-05,-0.0027147345762464975,0.004535345413154249
5.959595959595959,2.1265822784810124,0.004928719275686854,0.004296433307121665,2.1172628258945474e-05,-0.0027675457748425557,0.004645109691290418
6.0606060606060606,2.1265822784810124,0.00475716310901621,0.004643035079756296,2.5393723732678292e-05,-0.0028200594566317517,0.004701343948911053
6.161616161616162,2.1265822784810124,0.004904868934261866,0.0043471736723279825,-6.667088636339467e-05,-0.0027756127819769548,0.004652598856949902
6.262626262626262,2.1265822784810124,0.004940598620550085,0.004251193227715356,-5.279383017344081e-05,-0.0027575375544796324,0.004635415920683397
6.363636363636363,2.1265822784810124,0.004845115625696732,0.004509829594027775,-2.3226726157123053e-05,-0.002806483565917352,0.004686649229535935
6.4646464646464645,2.1265822784810124,0.004959633094921256,0.0044317682307453395,1.0596361753115049e-06,-0.0028174203976999786,0.00471790091773271
6.565656565656566,2.1265822784810124,0.004765308602345699,0.004340381087181953,8.427019061347625e-05,-0.0027317069068582955,0.004570024411360192
6.666666666666667,2.1265822784810124,0.004869801484758541,0.004398259690245148,2.896960893100914e-05,-0.0027804183525011066,0.004652259767963008
6.767676767676767,2.1265822784810124,0.004966157948614742,0.004401786510584386,7.370826248271938e-05,-0.002810383337759738,0.004711133718287236
6.8686868686868685,2.1265822784810124,0.004889917216509217,0.0044324940829544735,-5.158443764825215e-06,-0.0027967233898391073,0.004678017195356552
6.96969696969697,2.1265822784810124,0.0050549912278303735,0.004338208630680474,1.2523282585418244e-05,-0.0028179599575532542,0.004737494523689174
7.070707070707071,2.1265822784810124,0.00497044649585917,0.004421717048211379,-7.6678884800406e-05,-0.002817649063221164,0.00472193296953711
7.171717171717171,2.1265822784810124,0.004872778424136926,0.004371569608161789,-4.1288047214888475e-05,-0.0027733044096896146,0.004643060892558177
7.2727272727272725,2.1265822784810124,0.00485422437253886,0.00440372254177379,-2.6033345385019938e-05,-0.0027773840742937946,0.004645604632006
7.373737373737374,2.1265822784810124,0.004855381262063881,0.004402218657603317,-7.762642501295764e-06,-0.0027772799759001594,0.00464542647165709
7.474747474747475,2.1265822784810124,0.005062981731458181,0.004394945383956125,3.8603339321126016e-05,-0.002837378134624291,0.004764690063868838
7.575757575757575,2.1265822784810124,0.005054070755500731,0.0043486171942700306,1.8702856369414148e-05,-0.0028208063849312283,0.0047409844026309565
7.6767676767676765,2.1265822784810124,0.004891537984473621,0.004382021570926264,3.1681027603754674e-05,-0.002782067866619966,0.004658051416759248
7.777777777777778,2.1265822784810124,0.005112396880794224,0.004699378060445909,-3.3827883760557536e-06,-0.00294353248237204,0.0049189129504017435
7.878787878787879,2.1265822784810124,0.005045759165322308,0.0045479056330378345,-2.937141888621046e-05,-0.002878099439508043,0.004816438799701695
7.979797979797979,2.1265822784810124,0.004996719261363403,0.004754273632116043,4.04041246601812e-05,-0.0029252978680438337,0.0048805171851348085
8.080808080808081,2.1265822784810124,0.005062055352758677,0.004483135117019065,-1.2432029061481122e-05,-0.0028635571409333224,0.004798905127384299
8.181818181818182,2.1265822784810124,0.005080069937743249,0.004624855515975141,-2.607973979883226e-05,-0.0029114776361155166,0.0048686599903239244
8.282828282828282,2.1265822784810124,0.005317408045211754,0.004458417115642397,8.959838175889296e-06,-0.0029327475482562454,0.0049442218086175604
8.383838383838384,2.1265822784810124,0.005174618635685852,0.004710535680745359,5.667208994791744e-06,-0.0029655462949293634,0.004958900589696041
8.484848484848484,2.1265822784810124,0.005286332749255051,0.004725129992978269,-7.031431447065223e-05,-0.0030034388226699957,0.0050307445043929035
8.585858585858587,2.1265822784810124,0.005278607210341655,0.004752056877376164,2.5654082651717788e-05,-0.0030091992263153455,0.005036215974904933
8.686868686868687,2.1265822784810124,0.005400078997751484,0.004860964316092499,1.735338100115256e-05,-0.003078312994153195,0.005151809329898312
8.787878787878787,2.1265822784810124,0.005285537760242652,0.004857535137097187,-6.591672692816943e-05,-0.003042921869201952,0.005086345119918508
8.88888888888889,2.1265822784810124,0.005355219954087228,0.004846353036771187,2.7590631591213857e-05,-0.0030604718972575243,0.00512001130423184
8.98989898989899,2.1265822784810124,0.005371297617723105,0.004912974952555982,5.388439196551148e-05,-0.003085281771083726,0.005158276931989557
9.09090909090909,2.1265822784810124,0.005248910503478702,0.004906017375147571,-2.8181976968038505e-05,-0.003046478363587882,0.00508637439632547
9.191919191919192,2.1265822784810124,0.005444912068662632,0.004987172579637802,7.140545680713881e-05,-0.00312962539449013,0.005232546017472893
9.292929292929292,2.1265822784810124,0.005481538500895268,0.0050474091528641,2.1637206609938745e-05,-0.0031586842961278104,0.005278014816021962
9.393939393939394,2.1265822784810124,0.005579955900874401,0.004962624643089418,6.537513750092619e-05,-0.003162774163189146,0.005299542081036785
9.494949494949495,2.1265822784810124,0.0057324817715371365,0.005150697710191422,-1.1743124790610536e-05,-0.0032649538445185676,0.005464903213355737
9.595959595959595,2.1265822784810124,0.0056485959851343675,0.005205966026937216,4.339165364432567e-06,-0.003256368603621475,0.005440806609636595
9.696969696969697,2.1265822784810124,0.00572302037176523,0.0049798944716532845,1.6651903552667223e-05,-0.0032108744530255544,0.0053900932711415835
9.797979797979798,2.1265822784810124,0.0057816123527415645,0.0052632406896828896,-8.429636884411377e-05,-0.003313455912727336,0.00554256657166928
9.8989898989899,2.1265822784810124,0.0059391666463839395,0.005206644387906345,-1.697036714169389e-05,-0.0033437433102870852,0.005608973304222741
10.0,2.1265822784810124,0.006033882343598111,0.0053466975764859485,-0.0001148146637199907,-0.0034141739760252176,0.005724780714445207
0.0,2.2278481012658227,0.006024858994041152,0.005302656606685419,8.849066463083133e-06,-0.0033982546802179712,0.005698207573907299
0.10101010101010101,2.2278481012658227,0.00589234738791864,0.005382602295491855,-2.6511954918839742e-05,-0.0033824849050231483,0.005654919211320384
0.20202020202020202,2.2278481012658227,0.005818035332021777,0.0053184588854266485,3.4839759480158704e-05,-0.0033409482652345278,0.0055853558310847064
0.30303030303030304,2.2278481012658227,0.00556536886114542,0.005144036782330705,4.804255144668578e-05,-0.0032128216930428373,0.005367765560254735
0.40404040404040403,2.2278481012658227,0.005631312453277336,0.0049749220366070825,-6.334437836185353e-05,-0.0031818703469653257,0.005334625228517558
0.5050505050505051,2.2278481012658227,0.0058051744046013504,0.005002487512558056,-4.157785839422791e-05,-0.003242298575147822,0.00544883518458982
0.6060606060606061,2.2278481012658227,0.005529662811499889,0.0048479029792361985,7.109111344742145e-05,-0.003113269737220826,0.005223717749473427
0.7070707070707071,2.2278481012658227,0.005653554777994403,0.005054377858258825,4.88370032464731e-05,-0.003212379790875968,0.005379718415507489
0.8080808080808081,2.2278481012658227,0.005489674426608573,0.005051131376005469,4.504310473292644e-05,-0.0031622417407842123,0.0052846450582211876
0.9090909090909091,2.2278481012658227,0.005329287843096984,0.00481489861524785,-1.9210584170170652e-05,-0.0030432559375034502,0.005091727022665745
1.0101010101010102,2.2278481012658227,0.005294269472613122,0.004844286738084749,-3.0682191782336846e-05,-0.0030415668632093615,0.005084512567206224
1.1111111111111112,2.2278481012658227,0.005310661330029899,0.004761847454941766,7.784140596321598e-06,-0.003021752635491499,0.005058649778990857
1.2121212121212122,2.2278481012658227,0.005250073011689044,0.00476202996344152,-2.888889231600923e-05,-0.0030036308925391695,0.00502411133566518
1.3131313131313131,2.2278481012658227,0.005252295950876692,0.004805330298393846,-3.858600395290901e-05,-0.0030172878747811616,0.005044131422007327
1.4141414141414141,2.2278481012658227,0.005285603831542045,0.00467087001770552,2.4996418128908914e-05,-0.0029869421547742696,0.005006809421862489
1.5151515151515151,2.2278481012658227,0.0053172417149618635,0.004851768893938893,-9.02508029495477e-05,-0.0030507031826702267,0.005102854938523773
1.6161616161616161,2.2278481012658227,0.00526449425561932,0.00465519337873918,-4.8301732693509973e-05,-0.0029759062903075497,0.004988535409504477
1.7171717171717171,2.2278481012658227,0.005448287948035727,0.004591159465180804,-2.1912712757795987e-05,-0.003011834223964959,0.005074452533891427
1.8181818181818181,2.2278481012658227,0.005137038623104591,0.004527914983985252,1.4023419050200506e-05,-0.002899486082126953,0.004861244257537961
1.9191919191919191,2.2278481012658227,0.005267029460439362,0.0043340955047606435,5.787698408867579e-05,-0.0028803374895600017,0.0048691091289323205
2.0202020202020203,2.2278481012658227,0.005089666498144833,0.004487735542127361,-4.858226504700133e-05,-0.002873220612081658,0.00481772548268816
2.121212121212121,2.2278481012658227,0.005056372171889346,0.004674327875446855,-6.452142665894164e-05,-0.00291921001420086,0.004877867185526342
2.2222222222222223,2.2278481012658227,0.005075641074270935,0.004696689340047733,0.0001244662246501358,-0.0029316991242956006,0.004901916897249838
2.323232323232323,2.2278481012658227,0.005012861520848979,0.0046150699885410314,-5.544710406572152e-05,-0.002888379452817003,0.004827231919931547
2.4242424242424243,2.2278481012658227,0.004898851064864323,0.004524066448211409,5.396658131096003e-05,-0.0028268752539227196,0.004723550404294663
2.525252525252525,2.2278481012658227,0.005013657419710096,0.004381261849923564,-2.8657838841676903e-05,-0.0028184757808900982,0.004729538450359497
2.6262626262626263,2.2278481012658227,0.005002364398768186,0.004451205447289218,2.0359265878304713e-05,-0.002836070953817221,0.0047509547829925
2.727272727272727,2.2278481012658227,0.004922903050656268,0.004501209096260696,-6.41117778688751e-05,-0.0028272336440750894,0.0047274911679432916
2.8282828282828283,2.2278481012658227,0.0049339142838685955,0.004423365200290888,5.849307030084631e-05,-0.002807183845247845,0.004700577563347315
2.929292929292929,2.2278481012658227,0.004900445108130681,0.004447868478904533,-5.958694658918186e-05,-0.0028044940761105643,0.004691696148195186
3.0303030303030303,2.2278481012658227,0.004806377181039106,0.004313788892183048,2.6690169825580892e-05,-0.0027360498219666457,0.0045802267207009145
3.131313131313131,2.2278481012658227,0.004787135391815547,0.004567859211180242,-1.2519091929435868e-06,-0.0028064983808987367,0.00468135100584174
3.2323232323232323,2.2278481012658227,0.005164685962845935,0.004491200165368526,-8.577832008659479e-06,-0.0028967658384643387,0.004863069227084873
3.3333333333333335,2.2278481012658227,0.004887750059320926,0.004503048321078856,-8.828875428831556e-05,-0.002817239514119935,0.004709687339758978
3.4343434343434343,2.2278481012658227,0.004895074785695335,0.004252379208831046,0.00012940581377989137,-0.0027442361983579145,0.00461291767136646
3.5353535353535355,2.2278481012658227,0.004983701955549,0.004305944777238925,2.300879604163597e-05,-0.0027868940198363776,0.004681932123989873
3.6363636363636362,2.2278481012658227,0.004892455703894294,0.00439240274429326,-1.5791296227294195e-05,-0.002785457534456266,0.004662664143773801
3.7373737373737375,2.2278481012658227,0.004933430781146138,0.004235015728361751,-4.4825245592921825e-05,-0.0027505339528523668,0.00462460468005873
3.8383838383838382,2.2278481012658227,0.00489202790011336,0.004462926696002953,-6.626254896900248e-06,-0.002806486378834894,0.004692229904654935
3.9393939393939394,2.2278481012658227,0.00477118547481599,0.004385831588375708,-1.9206452102117755e-05,-0.0027471051189575093,0.004590775560910052
4.040404040404041,2.2278481012658227,0.004817169111501209,0.004386890569735505,-8.179969086423012e-05,-0.002761217904371014,0.004619264761825878
4.141414141414141,2.2278481012658227,0.004727104877283033,0.004308812171227266,-1.4049296497459541e-05,-0.0027107751145530896,0.004532523355266973
4.242424242424242,2.2278481012658227,0.004793303374085375,0.004274370920025124,-7.216613875468275e-05,-0.0027203022882331496,0.004557770430777982
4.343434343434343,2.2278481012658227,0.004813412045828731,0.004267936140517288,2.8469093335340967e-06,-0.0027244044559038053,0.0045651838415936
4.444444444444445,2.2278481012658227,0.004677502406164655,0.004310255549612936,-1.4548542053085474e-05,-0.0026963273867332774,0.004505189889269241
4.545454545454545,2.2278481012658227,0.00481097097010142,0.004211377032860937,-5.9643110335336047e-05,-0.0027067044008887067,0.004542135779636357
4.646464646464646,2.2278481012658227,0.004796259116562217,0.004330580975330539,7.437264986698772e-05,-0.002738052027567827,0.0045830163088631595
4.747474747474747,2.2278481012658227,0.004777316941098869,0.00407169235244011,-2.8451266050817098e-05,-0.0026547027880616937,0.004466777287709158
4.848484848484849,2.2278481012658227,0.004867385176824588,0.004433536408542248,-1.578016170469434e-05,-0.0027902764756100504,0.004665694073779488
4.94949494949495,2.2278481012658227,0.004771228692642211,0.004364612461143296,8.509654448738935e-05,-0.002740752346135652,0.004583843936287545
5.05050505050505,2.2278481012658227,0.0049421845107234744,0.004357399732325842,-5.504769595192557e-05,-0.0027898752729147948,0.004678262225192791
5.151515151515151,2.2278481012658227,0.004786620316141378,0.004356137869639022,-1.1265391157210642e-05,-0.0027428274557341195,0.004586597201694018
5.252525252525253,2.2278481012658227,0.004841630471985294,0.004283004459620491,3.15404894528681e-05,-0.0027373904794817353,0.004588221042240975
5.353535353535354,2.2278481012658227,0.004628689203393304,0.0042913694483394695,4.4127165149902915e-05,-0.002676017595519832,0.004470239554046612
5.454545454545454,2.2278481012658227,0.004823597521757669,0.004429182672847659,-9.433928248649582e-06,-0.002775834058381598,0.004639011169873089
5.555555555555555,2.2278481012658227,0.004737696420427978,0.004275870324938833,-2.9118557573854903e-05,-0.002704070023610043,0.004524776518938501
5.656565656565657,2.2278481012658227,0.004858801176965289,0.00437523507475797,3.3908169987602954e-05,-0.0027702108755169774,0.0046363436885021305
5.757575757575758,2.2278481012658227,0.004862699386511777,0.00428236959206905,5.4323823994599944e-05,-0.002743520693574248,0.004601033785145355
5.858585858585858,2.2278481012658227,0.004913294407407273,0.004266749059484011,-0.00012076178860989149,-0.002754013040067385,0.004628775800085701
5.959595959595959,2.2278481012658227,0.004909134928743011,0.004295250728922986,5.622931725672463e-06,-0.002761315697299799,0.004632808440237623
6.0606060606060606,2.2278481012658227,0.004767373716237891,0.004264180310711329,1.566059546297859e-05,-0.002709466208084766,0.004536835956996957
6.161616161616162,2.2278481012658227,0.0049559536478264235,0.004337550929076672,-1.719849688855031e-05,-0.0027880513730709285,0.004677607362427204
6.262626262626262,2.2278481012658227,0.004885195192561355,0.004392979268948184,-9.560594716995297e-06,-0.0027834523384528617,0.004658659886282723
6.363636363636363,2.2278481012658227,0.005013091570314303,0.0042923617638474685,-3.630293416131369e-07,-0.0027916360002485313,0.004694406716975405
6.4646464646464645,2.2278481012658227,0.0048968385206842446,0.004455906649772237,-5.0523735385426874e-05,-0.0028058235511369445,0.004692753369342525
6.565656565656566,2.2278481012658227,0.00484796914921133,0.004469357147692253,-4.8575354027041456e-05,-0.0027951978890710747,0.004670945440868478
6.666666666666667,2.2278481012658227,0.005029159472402385,0.004442212184116144,0.00013595525563750763,-0.002841411496955559,0.0047687054949956745
6.767676767676767,2.2278481012658227,0.005055711716255037,0.004393841605612454,3.871646157832334e-05,-0.002834865996560247,0.004759891324538532
6.8686868686868685,2.2278481012658227,0.004805630706068707,0.0045659964526806335,2.7501509823812005e-05,-0.002811488147624802,0.004690648817735929
6.96969696969697,2.2278481012658227,0.004788032858950633,0.0046126748392650045,4.7112987770894266e-06,-0.002820212309464691,0.0047028135963625255
7.070707070707071,2.2278481012658227,0.004871680826981783,0.004498066231179161,-7.381050102715847e-05,-0.002810924117448283,0.004697773393141917
7.171717171717171,2.2278481012658227,0.005164780934483048,0.0044742303692486335,1.610103520458617e-05,-0.002891703391119504,0.004856547901620031
7.2727272727272725,2.2278481012658227,0.004988938159910435,0.004281233914581859,4.866009619685092e-05,-0.0027810516223476882,0.004676190753348489
7.373737373737374,2.2278481012658227,0.0050068272145016085,0.00448823224098777,-1.3047623967217463e-05,-0.0028485178366468135,0.004768779172619393
7.474747474747475,2.2278481012658227,0.005061415442010896,0.0043934817370427995,-6.966289407495595e-06,-0.0028364691537161087,0.004762721630523666
7.575757575757575,2.2278481012658227,0.005132288129355367,0.004550936126311197,2.868240373232678e-05,-0.0029049672766999694,0.0048679722319274294
7.6767676767676765,2.2278481012658227,0.005071773985022244,0.004441463000584772,-4.559032739460553e-05,-0.0028539710956821053,0.004788488683578886
7.777777777777778,2.2278481012658227,0.005106715045073854,0.0046600719969722105,3.492408077514452e-05,-0.002930036112613819,0.0048990620392823
7.878787878787879,2.2278481012658227,0.0050432300623144384,0.00459137869734671,-3.50511543904886e-05,-0.002890382627898345,0.004833552987215983
7.979797979797979,2.2278481012658227,0.005016343729739212,0.004535626065956348,-1.0047416805106915e-05,-0.002865590938708668,0.0047941267922769915
8.080808080808081,2.2278481012658227,0.005139161142530348,0.004620048280211247,2.1845575730889976e-05,-0.002927762826822479,0.004900416558787424
8.181818181818182,2.2278481012658227,0.005245417338923398,0.004592098658075186,-7.247827418986717e-05,-0.0029512547990995746,0.004952782906866434
8.282828282828282,2.2278481012658227,0.004922614830074581,0.004742078121938937,4.65198419530212e-05,-0.002899407885604055,0.00483554649222808
8.383838383838384,2.2278481012658227,0.005458310372234431,0.004642712325517505,1.2332457069603057e-05,-0.0030303068093255805,0.005099707960655534
8.484848484848484,2.2278481012658227,0.005287662176498574,0.004650479274137576,-2.910511844935707e-06,-0.002981442435190845,0.0049996190679637365
8.585858585858587,2.2278481012658227,0.005361458404974293,0.004765044307221211,-5.160113636560792e-06,-0.0030379508136586506,0.005089535981535342
8.686868686868687,2.2278481012658227,0.005285673579367279,0.004813406002738626,-1.0582791861081218e-06,-0.0030297238746317717,0.0050660766831190605
8.787878787878787,2.2278481012658227,0.005146299731233842,0.004784076042370569,1.5869916512213877e-05,-0.0029791127320813234,0.004975163395766812
8.88888888888889,2.2278481012658227,0.005404766442547085,0.004792536089223641,-9.827323514137166e-05,-0.0030591907595312177,0.005128970376352137
8.98989898989899,2.2278481012658227,0.005351327850651957,0.004899791844999583,3.310252311040077e-05,-0.0030753359086954615,0.005140774713800726
9.09090909090909,2.2278481012658227,0.005185127854056162,0.0050267350034167504,6.023053528545355e-05,-0.0030635588572418735,0.0051088389217562235
9.191919191919192,2.2278481012658227,0.00537181725824621,0.004793539309512815,-7.751023057047381e-05,-0.0030496069703277074,0.005109055302543038
9.292929292929292,2.2278481012658227,0.0056435145964748535,0.004912499033109894,-5.430141866086878e-05,-0.0031668040888754244,0.0053166709212261595
9.393939393939394,2.2278481012658227,0.005741763920393324,0.005199397413210094,2.4744073399692393e-05,-0.003282348400081025,0.005490875222637595
9.494949494949495,2.2278481012658227,0.005673495754862926,0.0050173324073107504,3.4864717319707915e-05,-0.003207248448652103,0.00537587305447459
9.595959595959595,2.2278481012658227,0.005635079754655167,0.005189331641929205,-3.1343225744805414e-06,-0.0032473234189753114,0.005425957844248283
9.696969696969697,2.2278481012658227,0.005694940967560281,0.005086680413022183,0.00013788007405240413,-0.0032344864141747387,0.00542174864039966
9.797979797979798,2.2278481012658227,0.005835527856598451,0.005415816364033099,-5.1222603191452114e-05,-0.0033754032661894653,0.005638100412440475
9.8989898989899,2.2278481012658227,0.006035942896960926,0.005287692396500971,-5.513258937274259e-06,-0.003397090588038569,0.005698787534334408
10.0,2.2278481012658227,0.00590526367862998,0.005189915405508256,9.638488523886125e-06,-0.0033285537252414708,0.00558209824282513
0.0,2.329113924050633,0.006024930835028924,0.005330423515060737,-5.908938530331451e-05,-0.003406606305026898,0.005710363218176989
0.10101010101010101,2.329113924050633,0.005997420197281443,0.0052320400948328025,-5.145523465108657e-05,-0.003368838087634274,0.00565442238981842
0.20202020202020202,2.329113924050633,0.005831469726599498,0.00531747145942788,-4.818670500522756e-07,-0.0033446823558082135,0.005592215013118998
0.30303030303030304,2.329113924050633,0.005862647619123121,0.005233184443034729,2.234039773522132e-05,-0.003328749618647355,0.0055747679310939845
0.40404040404040403,2.329113924050633,0.005739446527264059,0.005121013736500564,-6.27909195487585e-05,-0.003258138079129387,0.0054576617448734
0.5050505050505051,2.329113924050633,0.005649281290984842,0.005001600875769216,-7.35740062930471e-05,-0.0031952646500262175,0.005356414806184856
0.6060606060606061,2.329113924050633,0.0055259404925316075,0.005040186584548674,2.1887880994683668e-05,-0.003169838123124084,0.005299921247961719
0.7070707070707071,2.329113924050633,0.005706009704290708,0.0049252667527467445,-1.970269953506536e-05,-0.0031893829371112356,0.005358576679761688
0.8080808080808081,2.329113924050633,0.005635286092532156,0.004841456050351419,-7.440736195325904e-05,-0.0031430226428650725,0.0052848619140482955
0.9090909090909091,2.329113924050633,0.0053397572140752025,0.005026788431955781,7.0606161709734854e-06,-0.003109963693809295,0.005190368850924673
1.0101010101010102,2.329113924050633,0.0054083766813630505,0.0047024291599049965,-7.178218289433828e-05,-0.003033241752380414,0.005093753838043984
1.1111111111111112,2.329113924050633,0.005285503880362752,0.004579180056875356,3.2884940921672295e-05,-0.0029594051811714325,0.004970453858667088
1.2121212121212122,2.329113924050633,0.005182689806728848,0.004832962626625706,4.328025091937604e-05,-0.003004695730006366,0.005017536724546852
1.3131313131313131,2.329113924050633,0.005296732619504786,0.004733480517336929,-3.4277149658942544e-05,-0.0030090639410525143,0.005039122776786813
1.4141414141414141,2.329113924050633,0.0052257397313649175,0.004882116547959434,-8.125434315083128e-05,-0.003032356883797305,0.005064637609428939
1.5151515151515151,2.329113924050633,0.005352747814490421,0.004800777920691791,-4.7196546271927426e-05,-0.0030460577205546637,0.0050998732168983305
1.6161616161616161,2.329113924050633,0.005309164191677976,0.004725530447990601,1.0195089307190422e-05,-0.003010408391900573,0.005042772769763096
1.7171717171717171,2.329113924050633,0.005263033062735234,0.004628672493545469,0.00010020392841026651,-0.0029675116668842105,0.004979296354270576
1.8181818181818181,2.329113924050633,0.004993883201950511,0.004757757620925097,-8.196431670775199e-05,-0.0029254922468626827,0.004882171197299882
1.9191919191919191,2.329113924050633,0.005207327110573799,0.004668246013976452,-6.871782667134012e-05,-0.002962671937365075,0.004961235619805165
2.0202020202020203,2.329113924050633,0.004984013997251318,0.004468202760304768,-3.024013715528648e-07,-0.0028356650272668258,0.0047471724854291995
2.121212121212121,2.329113924050633,0.00491916253616283,0.004750854623537245,2.3066277789653726e-05,-0.0029010051479100227,0.004837370131778833
2.2222222222222223,2.329113924050633,0.0051673901271742,0.004623235758889938,4.08707023541891e-06,-0.0029371877658192413,0.004917948444731681
2.323232323232323,2.329113924050633,0.004948417065217012,0.004615592221252753,5.695443791935587e-05,-0.0028692027859409295,0.004791698979953351
2.4242424242424243,2.329113924050633,0.004928911659784613,0.004394866186516417,9.834071613072202e-06,-0.002797133353890309,0.004684805426517267
2.525252525252525,2.329113924050633,0.0050365128171282305,0.0044128458973970415,-0.0001200490028918761,-0.0028348076143575817,0.004759994814945172
2.6262626262626263,2.329113924050633,0.004969739983647698,0.004511510390343625,-3.6889624145012324e-05,-0.0028443751121973973,0.0047576349656968265
2.727272727272727,2.329113924050633,0.0048887420246397995,0.004485756283723733,1.9709728067893508e-05,-0.0028123494925090596,0.004700347666296129
2.8282828282828283,2.329113924050633,0.004913394961472489,0.00450291868013023,-5.4927849930909835e-06,-0.002824894092480815,0.004721567456309158
2.929292929292929,2.329113924050633,0.004744498528214622,0.0045609805387071016,-1.7520630801294742e-05,-0.002791643720076517,0.004655552085746146
3.0303030303030303,2.329113924050633,0.004817013158076441,0.0045198490590050286,1.3148229688269342e-05,-0.0028010586651244407,0.004675574565693009
3.131313131313131,2.329113924050633,0.005038970221882143,0.004352200844388114,-9.103141801628464e-06,-0.002817351319881077,0.004733129116552553
3.2323232323232323,2.329113924050633,0.00487250490967506,0.004170420255195291,-2.4795457109617785e-05,-0.002712877549461105,0.004562363474667837
3.3333333333333335,2.329113924050633,0.004937110904310119,0.004339676193502143,6.725942265683725e-05,-0.0027830361293436786,0.004668614610310114
3.4343434343434343,2.329113924050633,0.004957228249634747,0.004407005360434178,1.4380606029836316e-05,-0.0028092700830206776,0.004706367718562336
3.5353535353535355,2.329113924050633,0.0051775434893550154,0.004339477738353127,-1.2644671751181708e-05,-0.0028551063683124427,0.004813592065971597
3.6363636363636362,2.329113924050633,0.004778433364729314,0.0043782434014733316,9.02467218687866e-05,-0.0027470030298607936,0.004594097274505747
3.7373737373737375,2.329113924050633,0.004698420762578861,0.004266094354563352,3.750731995114109e-05,-0.002689354535142664,0.004498336671572979
3.8383838383838382,2.329113924050633,0.0047880099491951844,0.004141723452007306,-3.8122634282394665e-05,-0.002678920020360747,0.0045002954722114935
3.9393939393939394,2.329113924050633,0.004734056421490037,0.004345615738454679,1.642639559407204e-05,-0.0027239016479834147,0.004552371440866085
4.040404040404041,2.329113924050633,0.004945142493770388,0.004306113865963811,-5.493475357063357e-05,-0.0027753769079202598,0.00465958772105403
4.141414141414141,2.329113924050633,0.004727664719086058,0.004270019571281675,-2.7953562819298983e-05,-0.0026993052871103194,0.004516525673932024
4.242424242424242,2.329113924050633,0.004740098850301123,0.004398865996124127,-2.5564955271123524e-05,-0.0027416894539275746,0.004579242318598187
4.343434343434343,2.329113924050633,0.005006728041124514,0.004225592525619817,-1.642379015337616e-05,-0.002769696170023299,0.00466555189710914
4.444444444444445,2.329113924050633,0.004812535723441311,0.004161544433485167,-2.0941077942390612e-07,-0.002692224047077943,0.00452231921053712
4.545454545454545,2.329113924050633,0.00476493025920653,0.004387875303541336,-4.533158355462264e-05,-0.0027458416688243598,0.004588709524960535
4.646464646464646,2.329113924050633,0.004651204646794148,0.00416976494435526,-6.277361664238958e-07,-0.0026462908773448226,0.004430148468670892
4.747474747474747,2.329113924050633,0.004710300953628551,0.004355349715863426,3.397441728458284e-05,-0.002719695200847593,0.004543617620827903
4.848484848484849,2.329113924050633,0.004719661764928933,0.0044987467399056945,-4.427616379933831e-05,-0.002765522551450388,0.00461381052523345
4.94949494949495,2.329113924050633,0.004870176962544675,0.004206317147284309,-1.4509747801095795e-06,-0.002722948232948695,0.00457451910457937
5.05050505050505,2.329113924050633,0.004859652406164267,0.004363126349478534,4.099632080676254e-05,-0.00276683362669284,0.0046319388686131245
5.151515151515151,2.329113924050633,0.004781607012623757,0.00423300481651856,-1.8426270961396105e-05,-0.002704383548742695,0.004532388825673649
5.252525252525253,2.329113924050633,0.004888678024912785,0.004422331445529795,4.3213413505789486e-05,-0.002793302841132774,0.004673589186702762
5.353535353535354,2.329113924050633,0.004738747192832446,0.0043292482918645655,1.0698164628693551e-06,-0.002720398645409103,0.004547846300565089
5.454545454545454,2.329113924050633,0.004958730323227409,0.00437029725760149,1.3186965034626362e-05,-0.00279870827424867,0.004692323592171419
5.555555555555555,2.329113924050633,0.004685753134152897,0.004410744778356569,5.848873210611824e-05,-0.0027289493737528395,0.004555606826783975
5.656565656565657,2.329113924050633,0.004947012704473055,0.004325959818535843,-5.495346299182194e-05,-0.0027818917569026693,0.004668548437978565
5.757575757575758,2.329113924050633,0.004818604703941339,0.0045236035009617965,6.869201456990279e-06,-0.0028026624614709405,0.0046781005093996615
5.858585858585858,2.329113924050633,0.0047500573971844765,0.004425371072755239,-4.027361741808607e-06,-0.0027526285409819142,0.004596328585689495
5.959595959595959,2.329113924050633,0.004735482574299614,0.004231498338047395,6.436679135871379e-05,-0.002690094273704103,0.004506064358714975
6.0606060606060606,2.329113924050633,0.004909830069538882,0.004186796598008237,4.481358235578794e-06,-0.0027289880002641354,0.00459121960709924
6.161616161616162,2.329113924050633,0.0048308228555821375,0.00425661919825397,2.90662422834996e-05,-0.002726232616150832,0.004571128710706523
6.262626262626262,2.329113924050633,0.004935396848303134,0.004251615223931136,3.5085669333480903e-06,-0.002756103621670281,0.004631522710334253
6.363636363636363,2.329113924050633,0.004947536800706426,0.004308847829988089,1.5842900661661593e-05,-0.0027769153892083544,0.0046612079766227416
6.4646464646464645,2.329113924050633,0.004832964129473209,0.004330432121184671,7.2137277145719205e-06,-0.002749018875197364,0.004602338279588021
6.565656565656566,2.329113924050633,0.004804676211836846,0.004406081360129595,-8.38818155727868e-05,-0.0027632272715899316,0.004620582282698933
6.666666666666667,2.329113924050633,0.004841403191271474,0.004410929149175829,5.201937674468848e-05,-0.0027756997021341906,0.004642037527517534
6.767676767676767,2.329113924050633,0.004808850429417107,0.004534324599345954,2.5816576186488094e-05,-0.002802952508628918,0.004677847017044869
6.8686868686868685,2.329113924050633,0.004797418185644581,0.0044400509866870394,5.172603827035444e-06,-0.0027712407516994855,0.004629100661154754
6.96969696969697,2.329113924050633,0.004921856866005962,0.004373568137871254,4.39209264982607e-06,-0.0027886275011631645,0.0046719112544182225
7.070707070707071,2.329113924050633,0.00474958201981875,0.004197006754566772,5.721277170244851e-05,-0.0026839766323156567,0.00449990968198853
7.171717171717171,2.329113924050633,0.004949292521147041,0.0044743053587016504,-4.624972191168953e-05,-0.002827079363954608,0.004730399133685111
7.2727272727272725,2.329113924050633,0.005056478104253936,0.0044031978884335,-0.00010633525097135766,-0.002837902797806231,0.0047671134147134545
7.373737373737374,2.329113924050633,0.0049692554675013646,0.0044670971734200315,3.212601568851139e-05,-0.002830905792276419,0.0047385025322188145
7.474747474747475,2.329113924050633,0.004973689564324565,0.004625267543184497,-5.1310604797794936e-05,-0.0028796871322527185,0.004809775582192513
7.575757575757575,2.329113924050633,0.0051885301932033,0.004534460883985396,-5.796933403188315e-05,-0.002916897323156609,0.004895413690259756
7.6767676767676765,2.329113924050633,0.005140675542523948,0.004611782954407032,8.471969708682319e-05,-0.0029257375490792936,0.004899891783717016
7.777777777777778,2.329113924050633,0.0049707551351194056,0.004518815244079915,5.6904154591147544e-05,-0.0028468711137597962,0.004761920620160323
7.878787878787879,2.329113924050633,0.005125090375961936,0.0045166391490531034,2.2515461063535387e-05,-0.002892518857504512,0.004849733762588678
7.979797979797979,2.329113924050633,0.005060093617362619,0.004645111110474925,1.1573550214634849e-05,-0.002911561418351263,0.004865933559376953
8.080808080808081,2.329113924050633,0.005066966812334584,0.004568192083543045,-2.6308437555160835e-05,-0.002890547668763289,0.004837120043106543
8.181818181818182,2.329113924050633,0.005157009643099898,0.0045586334603587445,-3.112697697384236e-05,-0.0029146929310375925,0.004885680857013315
8.282828282828282,2.329113924050633,0.005172808407276877,0.00477799212494578,-5.616310860750581e-05,-0.0029852401596667973,0.0049880838620577905
8.383838383838384,2.329113924050633,0.005291104559144321,0.004781479461452001,-5.9121699726601285e-05,-0.0030217752061788964,0.005056630463488231
8.484848484848484,2.329113924050633,0.005289853101557259,0.004688501357715492,-5.026900896725881e-06,-0.002993506337781825,0.005016291775583446
8.585858585858587,2.329113924050633,0.005274225590579425,0.004648026296884799,7.010469206060897e-07,-0.002976675566239267,0.004990677936968076
8.686868686868687,2.329113924050633,0.005234069125342865,0.004808068754914731,-0.00010602346047600074,-0.0030126413640772787,0.005037952308303814
8.787878787878787,2.329113924050633,0.005349258029323213,0.004783888233327517,5.705902135541944e-05,-0.003039943878795219,0.005091135702914468
8.88888888888889,2.329113924050633,0.0055327170212882025,0.004575639600735484,0.00010944549804301771,-0.003032506986607106,0.005125197678365886
8.98989898989899,2.329113924050633,0.0052201773840954155,0.004803789364435788,9.235693831698362e-05,-0.0030071900245593614,0.005027484559227181
9.09090909090909,2.329113924050633,0.005450213191977444,0.005002510144851906,5.545932680584221e-05,-0.0031358170010488047,0.005241603954293725
9.191919191919192,2.329113924050633,0.00549657943077764,0.00488488146495051,5.412371078127073e-05,-0.003114438268718445,0.005218534421812044
9.292929292929292,2.329113924050633,0.00542843792174443,0.005122637772370208,-0.00011054376033359925,-0.003165322708234391,0.005285649878974035
9.393939393939394,2.329113924050633,0.005673256160060055,0.005042433802021311,-1.5479128374165324e-05,-0.0032147069886244097,0.005385691625655862
9.494949494949495,2.329113924050633,0.005694697962305966,0.005050792347017035,-4.0265155057177176e-05,-0.0032236470927969004,0.005402056569134058
9.595959595959595,2.329113924050633,0.005651210871275583,0.005171061323568268,3.242731585338817e-05,-0.003246681658453155,0.005427380228838367
9.696969696969697,2.329113924050633,0.005568414860055074,0.005200900276852753,3.937273437737603e-05,-0.003230794541072348,0.005394486814590879
9.797979797979798,2.329113924050633,0.005765539404633924,0.005069496692123137,2.1306758418460377e-05,-0.003250510829027118,0.005451075153728809
9.8989898989899,2.329113924050633,0.005807588527285821,0.005341512286801576,-1.562208196392604e-06,-0.003344730244226219,0.005589144823549695
10.0,2.329113924050633,0.006052251792247093,0.005495469935730647,-6.355543956608574e-05,-0.003464316518393322,0.005795005753681961
0.0,2.430379746835443,0.005806522181231128,0.0054361731301590145,-5.799730681875933e-05,-0.003372808593417043,0.00563138609435596
0.10101010101010101,2.430379746835443,0.006003012915341235,0.00527545969715024,-6.104072409328578e-06,-0.0033835417837474427,0.0056743368036057795
0.20202020202020202,2.430379746835443,0.005850295202540082,0.005077381743657458,-2.0726981920477034e-05,-0.003278303083859262,0.005504803910644259
0.30303030303030304,2.430379746835443,0.005846772658533599,0.005180151773626674,-0.0001333967832469523,-0.003308077329648082,0.005548417546168525
0.40404040404040403,2.430379746835443,0.005734178808686549,0.0051964783722075495,5.550855320273578e-05,-0.0032791971542682295,0.005485973160664951
0.5050505050505051,2.430379746835443,0.0055258468337698406,0.005126443713213848,-5.382280007475361e-05,-0.003195687164095107,0.005338179117947952
0.6060606060606061,2.430379746835443,0.005614849452259699,0.005094074485404638,5.860161797153766e-05,-0.0032126771812993012,0.0053743809270588435
0.7070707070707071,2.430379746835443,0.005635700101029016,0.0049583420099088855,-4.248388341573131e-05,-0.0031782126332813706,0.0053299115556298005
0.8080808080808081,2.430379746835443,0.005377139162704428,0.004983380520760871,4.3955329293283805e-05,-0.0031081559050395893,0.005192029722744925
0.9090909090909091,2.430379746835443,0.005410644223742611,0.004792160149665425,5.9626278246787395e-05,-0.003060841312022411,0.005130483608988198
1.0101010101010102,2.430379746835443,0.005239953132447411,0.004862075821594124,-1.5905443744082513e-05,-0.0030306086862124607,0.005061679527887828
1.1111111111111112,2.430379746835443,0.0054461355184138496,0.004798176178592079,-5.673710024867952e-05,-0.003073293509101778,0.00515373906125773
1.2121212121212122,2.430379746835443,0.005353084398198195,0.00497234706769251,-5.211756561523082e-05,-0.003097629439767211,0.005174021950791172
1.3131313131313131,2.430379746835443,0.005449999190046954,0.004921005183611164,-4.248869643829208e-06,-0.0031113013120974355,0.0052057048593271635
1.4141414141414141,2.430379746835443,0.0053147669145878805,0.004624120643293074,-1.6844902814045175e-05,-0.002981666267364286,0.0050053937835441795
1.5151515151515151,2.430379746835443,0.005114300587955725,0.004769445000903921,-7.111051264007209e-05,-0.002965123676657894,0.004952420707420772
1.6161616161616161,2.430379746835443,0.005347001287982131,0.004669466636798965,-6.409987878246214e-06,-0.003004940377434329,0.005042501421768896
1.7171717171717171,2.430379746835443,0.0050932285715197525,0.004597763027718298,3.556266756398471e-05,-0.0029072974797714154,0.004864847195228157
1.8181818181818181,2.430379746835443,0.005100950199027937,0.0045064887549091685,-5.6412372801805554e-05,-0.0028822316861811317,0.004832215453312304
1.9191919191919191,2.430379746835443,0.00505323888320851,0.00470920239167532,-7.418310588976941e-05,-0.002928732382465149,0.004891992962138954
2.0202020202020203,2.430379746835443,0.005313595154200029,0.004483890210579505,1.0785435794174335e-05,-0.00293924560943386,0.004951195468292921
2.121212121212121,2.430379746835443,0.004990252924664682,0.0045970054667869905,-4.975315419757214e-05,-0.0028761775174355017,0.004806484127459322
2.2222222222222223,2.430379746835443,0.004909001435851332,0.004565311298039881,-7.687152019159872e-05,-0.0028422938201673642,0.004748365015441066
2.323232323232323,2.430379746835443,0.004925370916795788,0.004672146434976426,-5.844412768130134e-05,-0.002879255205531664,0.004804833395261273
2.4242424242424243,2.430379746835443,0.004847782479645461,0.004514005185186896,-1.6466517429507482e-05,-0.0028085362994497067,0.004689897223891228
2.525252525252525,2.430379746835443,0.005074221380065705,0.004487351029329655,4.940086485616613e-06,-0.0028684717228186075,0.004807733619370035
2.6262626262626263,2.430379746835443,0.004935214928950262,0.004457320448518083,-0.00014217803166619069,-0.0028177606132405034,0.0047208962425724504
2.727272727272727,2.430379746835443,0.004736670664524149,0.004417143084445789,4.474477427803197e-05,-0.0027461441246909813,0.004585919343818248
2.8282828282828283,2.430379746835443,0.0050034157424290035,0.0045971590352049665,7.672681603136921e-05,-0.002880172433290191,0.004814997758281276
2.929292929292929,2.430379746835443,0.004746621404153451,0.0045202379488528,-1.8642745021005634e-05,-0.0027800578059018755,0.004637688036570702
3.0303030303030303,2.430379746835443,0.004872432130544182,0.004576790418205306,1.804847487937062e-05,-0.002834766764624846,0.004731646854197949
3.131313131313131,2.430379746835443,0.004952853994921087,0.004262135125190384,-6.790096206784036e-05,-0.002764496736033441,0.004647650714139775
3.2323232323232323,2.430379746835443,0.004795714040875356,0.00437877586731375,-6.278412499424317e-05,-0.002752346972456731,0.004602718749646722
3.3333333333333335,2.430379746835443,0.004683234819616995,0.004428468573464341,-7.76138585007759e-05,-0.0027335110179244003,0.0045631716814186
3.4343434343434343,2.430379746835443,0.0047516652369007225,0.004271308848312499,4.22695766163885e-05,-0.002706892225563966,0.004531217516515012
3.5353535353535355,2.430379746835443,0.004840927932426182,0.0043938064551786275,4.204732047225315e-05,-0.0027704203162814433,0.0046341473806344805
3.6363636363636362,2.430379746835443,0.004841163953380658,0.004309537716392206,-4.634218938571466e-05,-0.0027452105009318595,0.004599157303217409
3.7373737373737375,2.430379746835443,0.004809182444660085,0.004350296536612079,-2.752258974908718e-06,-0.0027478436943816488,0.0045969521135567435
3.8383838383838382,2.430379746835443,0.004676993235897862,0.004513473419764994,-8.209309211707122e-05,-0.0027571399966988563,0.00459961315897694
3.9393939393939394,2.430379746835443,0.004874801014386837,0.004252613518762448,2.282334277218675e-05,-0.0027382243599447854,0.0045955766438713205
4.040404040404041,2.430379746835443,0.004892235448825611,0.004336189989126762,3.570158601894199e-05,-0.002768527631385712,0.004639684551845437
4.141414141414141,2.430379746835443,0.004933508106237568,0.004311229395426261,-2.6442171010879223e-05,-0.002773421250499148,0.0046539030425372455
4.242424242424242,2.430379746835443,0.0048354405934200465,0.004296824652532212,1.9494284162285147e-05,-0.0027396795737856775,0.004590020431412667
4.343434343434343,2.430379746835443,0.004770656724973441,0.004347656003489461,8.57368945115281e-06,-0.0027354938185388707,0.004573874122201719
4.444444444444445,2.430379746835443,0.004862671466019734,0.004261899228582113,-4.41843699750289e-05,-0.002737371208380554,0.004592493857024072
4.545454545454545,2.430379746835443,0.004833887881670914,0.004388725445348067,8.180496735181943e-05,-0.002766783998105694,0.004629562884226976
4.646464646464646,2.430379746835443,0.004844892214576039,0.004440205082096735,-1.4309812324990336e-05,-0.002785529189001832,0.004655824419020984
4.747474747474747,2.430379746835443,0.004833106597619542,0.004383074564609692,3.849861632063512e-06,-0.0027648543486687703,0.0046245475336634
4.848484848484849,2.430379746835443,0.004813557566257232,0.004354651329373424,-6.177083923162923e-05,-0.0027504626686891964,0.004602543503206304
4.94949494949495,2.430379746835443,0.0046515559201090705,0.004313701052862702,-4.9267501862186785e-05,-0.0026895770918915316,0.00449297779224041
5.05050505050505,2.430379746835443,0.004899878960662594,0.004345199056489982,4.374369548890847e-05,-0.0027735234051457724,0.004648049027878711
5.151515151515151,2.430379746835443,0.004766381709067859,0.004296717530633029,-8.211706682535328e-05,-0.0027189297719102667,0.004551989666677348
5.252525252525253,2.430379746835443,0.004641534261257552,0.0043771343742133595,-0.00011859486095227403,-0.0027056005906412736,0.004519814231518956
5.353535353535354,2.430379746835443,0.00464522573954791,0.004320750355651308,-3.810645501098188e-05,-0.002689792828559765,0.004492271290419535
5.454545454545454,2.430379746835443,0.004876964521025158,0.004400793305017742,4.6173044350481824e-05,-0.00278332734781287,0.00465785870223264
5.555555555555555,2.430379746835443,0.004862504516212858,0.004575866207938785,-3.299526588380851e-06,-0.002831511217245493,0.004725713097733029
5.656565656565657,2.430379746835443,0.004721953260253632,0.004479815928491935,-6.472526617256505e-06,-0.0027605307566236697,0.004605674499692064
5.757575757575758,2.430379746835443,0.004978224529680362,0.0043729300746381036,1.8786362680429986e-05,-0.0028053463812955396,0.004704983307485115
5.858585858585858,2.430379746835443,0.004966290634842829,0.004206362781129801,0.00014940509868018522,-0.002751796024791789,0.004640525409914289
5.959595959595959,2.430379746835443,0.0046608386890496884,0.004419902442622606,2.982036017390773e-05,-0.002724222339501688,0.004545456010444467
6.0606060606060606,2.430379746835443,0.004852660583774905,0.004367213726874802,-3.789813908628308e-05,-0.0027659622931949118,0.004629532737873106
6.161616161616162,2.430379746835443,0.004830297129411796,0.004365536927600599,1.4357348790657918e-05,-0.002758750217103718,0.004615567238737926
6.262626262626262,2.430379746835443,0.004905170765739447,0.004350493568453129,-3.848715293175328e-05,-0.0027766993002577727,0.004653173588479754
6.363636363636363,2.430379746835443,0.004739241913255781,0.004496247050330483,-7.248877595186417e-05,-0.0027706466890758787,0.004624241867009551
6.4646464646464645,2.430379746835443,0.004878706306931549,0.00434445889461367,-3.0197597017951558e-05,-0.002766949560463566,0.004635029125207511
6.565656565656566,2.430379746835443,0.0049368420822380335,0.004428384673056978,2.2057494345880785e-05,-0.0028095680265885032,0.00470342687265436
6.666666666666667,2.430379746835443,0.005042310785077985,0.004436978341597115,6.333201106920675e-05,-0.00284378673800253,0.004769809633832497
6.767676767676767,2.430379746835443,0.004927667140705992,0.004381343117679961,-8.173745795383905e-06,-0.0027927030775157856,0.004678511609651752
6.8686868686868685,2.430379746835443,0.005144024627276347,0.004437001908442198,-2.2231047234476118e-05,-0.0028743079607155635,0.004829638793080686
6.96969696969697,2.430379746835443,0.004925128031676147,0.0045031357296567475,-4.298177947054395e-05,-0.0028284791283998685,0.004728862422997508
7.070707070707071,2.430379746835443,0.004882018793403191,0.004398261416713345,5.7222580722728215e-05,-0.002784084063034961,0.004660068600936068
7.171717171717171,2.430379746835443,0.004842763713809341,0.004334593614268792,-4.39426198253206e-05,-0.00275320719842344,0.004610362499941733
7.2727272727272725,2.430379746835443,0.004725673068324668,0.004526289362925621,2.5052000868128757e-05,-0.002775588729375086,0.004629406053916978
7.373737373737374,2.430379746835443,0.004926705361668615,0.004670016032092164,2.0194008901009592e-05,-0.0028790164181282337,0.0048036346478777655
7.474747474747475,2.430379746835443,0.004964731740718213,0.0042965179331351366,3.0444192117597793e-05,-0.002778374902156005,0.004666942167666831
7.575757575757575,2.430379746835443,0.0052017888707464365,0.004477980068972387,-2.0446088713994762e-05,-0.002903930681915647,0.004880436475906803
7.6767676767676765,2.430379746835443,0.005189590251116834,0.004553046561883304,-2.9452728049250965e-05,-0.0029227910439000413,0.004902676443362571
7.777777777777778,2.430379746835443,0.005179449350712905,0.004670098721166843,-8.767785189563703e-06,-0.0029548644215639246,0.004944512966420771
7.878787878787879,2.430379746835443,0.00521808043412674,0.004560485011941724,1.4773887608253045e-05,-0.0029335696338205386,0.004922404306178561
7.979797979797979,2.430379746835443,0.005278067961871614,0.004515034587412306,4.6882995951103804e-05,-0.0029379307647851753,0.004941606356138651
8.080808080808081,2.430379746835443,0.005129537220263499,0.00463753601510457,6.633272355973147e-05,-0.002930121970610421,0.004903435415738006
8.181818181818182,2.430379746835443,0.005196958107820226,0.004563555713678972,-1.9602454845321153e-05,-0.002928154146449759,0.0049111057032306905
8.282828282828282,2.430379746835443,0.0051639699297633505,0.004596191937134874,1.7007794554109584e-05,-0.0029280485600694673,0.0049048788567023
8.383838383838384,2.430379746835443,0.005308581540730906,0.0046113348912965885,-3.904371338403495e-05,-0.002975974929608248,0.004997036462432235
8.484848484848484,2.430379746835443,0.005240046415415246,0.0048644130978864,1.024930069919246e-05,-0.003031337853990494,0.005062723175368253
8.585858585858587,2.430379746835443,0.005273265243418144,0.0047190631817869986,-4.242479528995369e-05,-0.002997698527561543,0.005019702319151408
8.686868686868687,2.430379746835443,0.005187445886331296,0.004818292147526753,9.183303888292971e-05,-0.0030017214101574143,0.005015596094562922
8.787878787878787,2.430379746835443,0.005600876255648274,0.00490974800847808,1.1388770527115923e-05,-0.003153187279237906,0.0052893230576530476
8.88888888888889,2.430379746835443,0.005465298817813142,0.004879871693757562,-5.526731472056212e-05,-0.003103551153471211,0.005198254066971167
8.98989898989899,2.430379746835443,0.005380992463367641,0.0048805035865274755,-3.455273877615362e-05,-0.003078448814968535,0.005149371205074908
9.09090909090909,2.430379746835443,0.005345246367895544,0.004962729357393711,-8.419081675541356e-05,-0.0030923927175867763,0.005166681199441127
9.191919191919192,2.430379746835443,0.005536866768474122,0.005009764153402136,7.305471711664981e-06,-0.003163989276562877,0.005293051476741153
9.292929292929292,2.430379746835443,0.0056063584185266895,0.005166377526887272,-6.290997140605324e-06,-0.0032318207836241884,0.005399839447251598
9.393939393939394,2.430379746835443,0.005644522159267105,0.005074531280447357,-2.782863642124244e-05,-0.0032157160319143383,0.005382426698184759
9.494949494949495,2.430379746835443,0.0058029967551108735,0.004970747537185612,-3.388164678003754e-05,-0.0032321232876889455,0.005435192221758699
9.595959595959595,2.430379746835443,0.005723816407070963,0.005103387841454929,6.461380744060915e-05,-0.003248161274557768,0.005441351991549019
9.696969696969697,2.430379746835443,0.005739929137432248,0.005336136249720616,-8.091426794538321e-05,-0.0033228196161458595,0.005550831828971017
9.797979797979798,2.430379746835443,0.006014055813750999,0.005216808577383834,-3.1541275602688635e-05,-0.00336925931734045,0.005657982473120285
9.8989898989899,2.430379746835443,0.006023565826969836,0.005295966094905668,-9.684463570613431e-05,-0.003395859576562651,0.005697204438192444
10.0,2.430379746835443,0.005981127033263924,0.005484386177165908,-6.59020375152011e-06,-0.0034396539631289494,0.00574888616999671
0.0,2.5316455696202533,0.016348521755517053,0.014729355043268496,-1.7309176455974032e-05,-0.009323363039635664,0.015602108224032815
0.10101010101010101,2.5316455696202533,0.016304073696567126,0.014577022136848267,2.8239990104735033e-06,-0.009264328750024618,0.0155128196731124
0.20202020202020202,2.5316455696202533,0.016186448877272174,0.014295000247752284,1.1636134340629568e-05,-0.009144434737507336,0.015328511826913116
0.30303030303030304,2.5316455696202533,0.015805293493532557,0.014051344734628725,-4.090069539508127e-06,-0.008956991468448383,0.015005399492998416
0.40404040404040403,2.5316455696202533,0.0157441981859403,0.014145314718832605,3.346523176177197e-05,-0.00896685387143187,0.015008878253966879
0.5050505050505051,2.5316455696202533,0.015437402911764236,0.013871429200538871,6.358131315447817e-05,-0.008792649633690933,0.014717446889495696
0.6060606060606061,2.5316455696202533,0.015458472830543774,0.013750009241318561,1.222877726838631e-05,-0.008762544621558701,0.014679013616089384
0.7070707070707071,2.5316455696202533,0.015200446883009795,0.013875996110461248,-3.5293257820579965e-05,-0.008722932898041312,0.014583526614538884
0.8080808080808081,2.5316455696202533,0.015154112199829907,0.013505619241163447,2.006583181908371e-05,-0.008597919432298005,0.0144008474145227
0.9090909090909091,2.5316455696202533,0.015087320507930397,0.013424138164032599,4.367886014494588e-05,-0.008553437601588899,0.014328509136020545
1.0101010101010102,2.5316455696202533,0.014959889111549078,0.013254146500851048,2.6514596822248605e-05,-0.008464210683720037,0.01418422464734829
1.1111111111111112,2.5316455696202533,0.014717963341664577,0.013352572313349902,-2.9945108729441512e-05,-0.008421160696504344,0.014085086177003742
1.2121212121212122,2.5316455696202533,0.01460637933044091,0.013324189351433037,2.5642173967711076e-05,-0.008379170604562185,0.014009430668059927
1.3131313131313131,2.5316455696202533,0.01469620346150078,0.01314889993141916,-4.3631300426648866e-05,-0.008353531017875981,0.013987092906404227
1.4141414141414141,2.5316455696202533,0.014544358543220622,0.012931475764193278,-5.6925172420542214e-05,-0.008242750292224169,0.013809095998364383
1.5151515151515151,2.5316455696202533,0.014197815206272831,0.013078424917546766,-5.566062459589574e-05,-0.00818287203714588,0.013672870550924135
1.6161616161616161,2.5316455696202533,0.014184125063028926,0.013117430192267814,-8.635465383623569e-05,-0.008190466576589022,0.013682816949689265
1.7171717171717171,2.5316455696202533,0.014328356947076322,0.012714999328645301,-2.006549868326367e-05,-0.008113006882716487,0.013593718389032757
1.8181818181818181,2.5316455696202533,0.014161991937119258,0.012592725054283414,-1.539267530517393e-05,-0.008026415097420801,0.013446240368149228
1.9191919191919191,2.5316455696202533,0.014204790950907858,0.012873507132432948,0.0001501865107945011,-0.008123489425002241,0.013590638770515473
2.0202020202020203,2.5316455696202533,0.014154564163583492,0.01268114039282518,5.128587037698605e-05,-0.0080507113669226,0.01347868256497611
2.121212121212121,2.5316455696202533,0.01403874256152957,0.012650002608385422,3.988109535462994e-05,-0.008006623550974498,0.013398637997369707
2.2222222222222223,2.5316455696202533,0.013959499681409715,0.012590148738712423,-9.134066758908104e-05,-0.007964894526036641,0.01332862816136341
2.323232323232323,2.5316455696202533,0.013759696354165657,0.012506168067968188,2.8590797112004457e-05,-0.007879759326640152,0.013177816990485963
2.4242424242424243,2.5316455696202533,0.01377600181729109,0.01257502477367742,1.5877124807517207e-05,-0.007905307977290553,0.013216530037919338
2.525252525252525,2.5316455696202533,0.013700852139802107,0.012446315703596313,2.3698469753937987e-05,-0.007844150353019526,0.013118714786992058
2.6262626262626263,2.5316455696202533,0.01375324000197291,0.012442760100667341,-1.284016134376472e-05,-0.007858800030792075,0.013147095425697891
2.727272727272727,2.5316455696202533,0.013768862635290936,0.01220328283664362,-1.3510275840226436e-05,-0.007791643641580366,0.013056680771388336
2.8282828282828283,2.5316455696202533,0.01358987886913434,0.012237706547639924,4.839132980576029e-06,-0.007748275625032279,0.012966780242491904
2.929292929292929,2.5316455696202533,0.013647600144833343,0.012128124548333804,8.445123164009981e-05,-0.007732717407950144,0.01295569359248402
3.0303030303030303,2.5316455696202533,0.013695833193618525,0.012144516171461468,1.61266464140501e-05,-0.007752104809523997,0.012989866527834182
3.131313131313131,2.5316455696202533,0.01339162544726756,0.012302340898075189,3.196365178296504e-05,-0.007708189903602824,0.012881690389302146
3.2323232323232323,2.5316455696202533,0.013421724693672584,0.012236941401950826,-3.0371498215459727e-05,-0.007697599828687022,0.012870405483963683
3.3333333333333335,2.5316455696202533,0.013487733078894991,0.012139242616593715,5.649092526605372e-05,-0.007688092708646611,0.012866967956492028
3.4343434343434343,2.5316455696202533,0.013234325956754674,0.01208709213235047,-5.178666217458337e-05,-0.007596425426731543,0.012699949140522006
3.5353535353535355,2.5316455696202533,0.013309786076979375,0.011980932025401337,-4.354768561168933e-05,-0.007587215430714213,0.012697841728186913
3.6363636363636362,2.5316455696202533,0.013218846468442135,0.012065139958194138,-4.4935011889481515e-05,-0.0075851959279908815,0.012681653240224784
3.7373737373737375,2.5316455696202533,0.013273243666253732,0.012085447517527211,1.2876759000589736e-05,-0.007607607355134283,0.012721023812553632
3.8383838383838382,2.5316455696202533,0.013310223304785186,0.012052218787999216,5.2084545669688747e-05,-0.007608732627835321,0.012728253499610378
3.9393939393939394,2.5316455696202533,0.013330467521811263,0.012144374344247382,-3.6419467940826216e-05,-0.007642452559817593,0.012778927338689523
4.040404040404041,2.5316455696202533,0.013059208576269982,0.01205858934033317,1.1036363943166791e-06,-0.007535339374980945,0.012588759900814827
4.141414141414141,2.5316455696202533,0.013230543128290981,0.012004802437792023,-3.558928058157974e-05,-0.007570603669824902,0.012662396946504317
4.242424242424242,2.5316455696202533,0.01340274134141464,0.011739281572788543,-4.492308493142133e-06,-0.007542606874260956,0.012653288639656668
4.343434343434343,2.5316455696202533,0.013216029998079665,0.011907025450518681,-2.3506840068246274e-05,-0.007536916634579503,0.012612642711267066
4.444444444444445,2.5316455696202533,0.013186605086837668,0.011940978384060668,6.642544382946393e-05,-0.0075382750412695005,0.012610542779853212
4.545454545454545,2.5316455696202533,0.013244761649775505,0.011732062693565914,-1.3258887470380418e-05,-0.007493047303002425,0.01255695662025286
4.646464646464646,2.5316455696202533,0.013389090563404071,0.01179159870580183,6.23643390904815e-05,-0.007554206780761769,0.01266658719335145
4.747474747474747,2.5316455696202533,0.01328008321415428,0.012011674754449588,-3.254341045094902e-05,-0.0075875273905811605,0.012693623498504614
4.848484848484849,2.5316455696202533,0.013366794509961625,0.011796135007828895,-7.289155368506029e-05,-0.0075488788553371555,0.012655410837616024
4.94949494949495,2.5316455696202533,0.013269069648401962,0.011668882004663442,-0.00011077918903115612,-0.007481385495919621,0.012547215811493964
5.05050505050505,2.5316455696202533,0.013165286453020893,0.011998337485288996,-4.162271621192261e-05,-0.007549087181492967,0.0126225400454367
5.151515151515151,2.5316455696202533,0.013229468983539761,0.011920910089531403,-1.0827871191947455e-05,-0.007545113721921349,0.012626162853079869
5.252525252525253,2.5316455696202533,0.013255318485851656,0.012070202878208383,5.31224280445978e-05,-0.007597656409218011,0.012704619172571022
5.353535353535354,2.5316455696202533,0.013088143172052836,0.01201560127759994,-5.274591006675195e-05,-0.007531123334895833,0.012586524632636759
5.454545454545454,2.5316455696202533,0.013127462786584509,0.012060948171971096,-6.397589249902339e-06,-0.007556523287566681,0.012628033279537381
5.555555555555555,2.5316455696202533,0.013262953453067685,0.011864799030960466,-0.00015153474843501653,-0.007538325745208445,0.01262481688602409
5.656565656565657,2.5316455696202533,0.013377638977761055,0.012034400662479587,-1.484355375486205e-05,-0.007623611892072193,0.012759185614344075
5.757575757575758,2.5316455696202533,0.013148683418557024,0.011966395890173103,4.2901692707257e-06,-0.007534523792619038,0.012599214667487703
5.858585858585858,2.5316455696202533,0.013249633231622536,0.011917961597600241,1.0241388239845638e-05,-0.007550278448766832,0.012636545573681289
5.959595959595959,2.5316455696202533,0.013246216690363334,0.01194085827860277,-4.903158684365495e-05,-0.007556122490689831,0.012644460016148197
6.0606060606060606,2.5316455696202533,0.013481952413124446,0.011908744118005628,2.477261069161344e-05,-0.007617208959339022,0.012768318091494257
6.161616161616162,2.5316455696202533,0.013280315789376357,0.011849494537900076,3.0887466141518985e-06,-0.007538943098182929,0.01262585868297861
6.262626262626262,2.5316455696202533,0.013264416537835607,0.01198501964783885,2.1760439689518354e-05,-0.0075748308557023365,0.012673301455241178
6.363636363636363,2.5316455696202533,0.013267700385182478,0.01199480056663237,9.05931763684874e-05,-0.007578750285544455,0.012680233255621672
6.4646464646464645,2.5316455696202533,0.013459579982358182,0.012155617539490857,-1.7315181190856855e-06,-0.007684559256554711,0.012857287177107256
6.565656565656566,2.5316455696202533,0.01346038504916464,0.011874982867299152,-1.815823743220627e-05,-0.007600610374939137,0.01274191237958822
6.666666666666667,2.5316455696202533,0.013481824245383873,0.012117352308071866,4.661257942197368e-06,-0.007679752966036722,0.012854021276881032
6.767676767676767,2.5316455696202533,0.013344784076875687,0.012090021042504971,-0.00011958931767782737,-0.007630441535814197,0.012765424214817283
6.8686868686868685,2.5316455696202533,0.013384674742126181,0.01221994790689456,-1.5061943905871898e-05,-0.007681386794706222,0.012842012976425487
6.96969696969697,2.5316455696202533,0.01349677411836738,0.01223813886461657,0.00010085918501146993,-0.007720473894895184,0.012914723237937806
7.070707070707071,2.5316455696202533,0.013707481108020284,0.01214986511227617,7.770698416317167e-05,-0.007757203866088936,0.012999551115630165
7.171717171717171,2.5316455696202533,0.013446241589888143,0.012242874175158194,-4.0254147479389045e-06,-0.0077067347295139005,0.012886767851579583
7.2727272727272725,2.5316455696202533,0.01374389521949696,0.012398862191148762,2.7609555466719227e-05,-0.007842827223193715,0.013123264209263555
7.373737373737374,2.5316455696202533,0.013619608203921484,0.012318403107757173,0.00013456048279205648,-0.007781403393503597,0.01301995692383401
7.474747474747475,2.5316455696202533,0.01375944314424257,0.012280783599909934,3.19614170936332e-05,-0.007812068023245751,0.013083051721762062
7.575757575757575,2.5316455696202533,0.013952142072270607,0.012362720338960794,-5.732867057955297e-05,-0.00789445872336942,0.013229608903692477
7.6767676767676765,2.5316455696202533,0.0138858303470861,0.012456416147068257,3.131856491350802e-05,-0.007902673948246307,0.013229279982812031
7.777777777777778,2.5316455696202533,0.013834758232523349,0.012361517528288037,5.586335805707811e-05,-0.007858882728243415,0.013160486568052892
7.878787878787879,2.5316455696202533,0.013999294989172852,0.012624065845475417,-8.555034553540112e-06,-0.00798700825039448,0.013364860511695421
7.979797979797979,2.5316455696202533,0.014007970610901012,0.012438654648624883,2.9208028629544816e-05,-0.007933987577857769,0.013293066639167524
8.080808080808081,2.5316455696202533,0.014093944790573737,0.012582810752823345,-7.690587834098342e-05,-0.008003026663019124,0.013403085826888813
8.181818181818182,2.5316455696202533,0.01420811369855407,0.012654545671668975,5.2623562369386025e-05,-0.008058797811066913,0.013498855693677411
8.282828282828282,2.5316455696202533,0.01412365601951062,0.012796865314192028,-0.00013184424336695115,-0.008076156400110794,0.013511145255488214
8.383838383838384,2.5316455696202533,0.014412799922460046,0.01264559861496516,2.569698964308996e-05,-0.008117519561227561,0.013615559636102826
8.484848484848484,2.5316455696202533,0.014403410122368851,0.012943975936907519,-8.673012599497176e-06,-0.00820421581778291,0.013731990672822656
8.585858585858587,2.5316455696202533,0.01432772422589692,0.01301490312868125,-6.5173450685425744e-06,-0.00820278820637345,0.013718511927871869
8.686868686868687,2.5316455696202533,0.014625317719586148,0.013050791457418259,2.5319016332378913e-05,-0.008302832753101322,0.013905143928231138
8.787878787878787,2.5316455696202533,0.014542282280633324,0.013264179357490134,-3.0001334622926007e-05,-0.008341938491437037,0.013947318299944103
8.88888888888889,2.5316455696202533,0.014879862521545783,0.013361222381838253,5.401404430723364e-05,-0.00847232547101521,0.01418196645696329
8.98989898989899,2.5316455696202533,0.014939405338492254,0.013242067929844059,-8.373966203861496e-06,-0.008454441980500894,0.014167208086723223
9.09090909090909,2.5316455696202533,0.015003334577267416,0.013528159546990293,-2.6644558416462713e-05,-0.008559448237277313,0.014322910844712485
9.191919191919192,2.5316455696202533,0.015052728516773889,0.01367928700068088,1.1170021914999768e-05,-0.00861960465523643,0.014415176357942351
9.292929292929292,2.5316455696202533,0.015385472311373598,0.01368734685584167,-2.1714645357844915e-05,-0.00872184575016458,0.014610658462468866
9.393939393939394,2.5316455696202533,0.015446340165029831,0.013973277422682909,3.1694755133430393e-05,-0.008825885276313823,0.014765125255360723
9.494949494949495,2.5316455696202533,0.01532483470520009,0.013957197826413486,-4.821296387442016e-05,-0.008784609759484072,0.014689082807971316
9.595959595959595,2.5316455696202533,0.015715036327317022,0.014092470633106261,-2.3315029089804197e-05,-0.008942252088126984,0.014969904413345036
9.696969696969697,2.5316455696202533,0.01579840388207601,0.014283746064120497,-2.1819729404389917e-05,-0.009024644983858951,0.015098212009282977
9.797979797979798,2.5316455696202533,0.01607997759450094,0.014375115178890478,-3.338193291075339e-05,-0.009136527832017424,0.015299066275803401
9.8989898989899,2.5316455696202533,0.016139380557595413,0.014697859791089622,-1.1041708309257636e-05,-0.00925117210460551,0.015469088545509388
10.0,2.5316455696202533,0.016588653281637816,0.014640431582072455,2.0874628059066994e-05,-0.00936872545911308,0.015705474155513013
0.0,2.632911392405063,0.01650302879570394,0.01470191469396351,5.5435226408312326e-05,-0.009361483046900236,0.01568054057572416
0.10101010101010101,2.632911392405063,0.016319725540475442,0.01452881396969045,-1.9155696925540554e-05,-0.009254561853049766,0.015502087649427069
0.20202020202020202,2.632911392405063,0.016017411625377058,0.014353196196607715,0.00010173430232245498,-0.009111182346595432,0.015254563717754212
0.30303030303030304,2.632911392405063,0.01578639827508797,0.014198294175597334,5.127893523388806e-05,-0.00899540773520559,0.015055560099221033
0.40404040404040403,2.632911392405063,0.015670999624462095,0.014255247225866739,2.066680761249113e-05,-0.00897787405509865,0.01501331442847019
0.5050505050505051,2.632911392405063,0.01553868991693237,0.014233664751407063,2.550974935918572e-05,-0.008931706400501829,0.014929083892800524
0.6060606060606061,2.632911392405063,0.015404262342111829,0.013868188663574378,8.085402020950993e-06,-0.008781735301705862,0.0146965620078532
0.7070707070707071,2.632911392405063,0.015315317765207108,0.013870655905360869,-7.801707495598365e-06,-0.008755792101170393,0.0146465263216799
0.8080808080808081,2.632911392405063,0.015192874273437981,0.01354203252519534,-9.398342525975665e-05,-0.008620472039589995,0.014439327362883359
0.9090909090909091,2.632911392405063,0.015064800915348411,0.013570615883326125,2.3422805609574056e-05,-0.00859062503960236,0.014376121221468622
1.0101010101010102,2.632911392405063,0.014973023523864664,0.013568992286891722,-2.384114161909543e-05,-0.008562604743226915,0.014322773810308699
1.1111111111111112,2.632911392405063,0.01486865230340161,0.01330729250010896,-7.59244436643807e-05,-0.008452783441053172,0.014153326226811822
1.2121212121212122,2.632911392405063,0.01476673546939402,0.013037652538008013,5.2682232125638265e-05,-0.008341316402220609,0.013982904569759229
1.3131313131313131,2.632911392405063,0.014625831593515881,0.013140529124732481,7.767803458046934e-05,-0.008329908215474508,0.013943291974385777
1.4141414141414141,2.632911392405063,0.014414042317675525,0.012774138954406437,9.183870079927591e-05,-0.008156454381624588,0.013669000166158332
1.5151515151515151,2.632911392405063,0.014732765996043971,0.013004587754101626,3.107216611035458e-06,-0.00832120612504368,0.013949199878720875
1.6161616161616161,2.632911392405063,0.014137498340375601,0.012790813339757217,6.744958169113214e-05,-0.008078493504039845,0.013515077180392764
1.7171717171717171,2.632911392405063,0.014173195528691479,0.012748760413929415,9.212770672501816e-06,-0.008076586782786268,0.01351739413188285
1.8181818181818181,2.632911392405063,0.01429092806636291,0.012745399134392894,4.3030673943762416e-05,-0.00811089816022674,0.013584468955500228
1.9191919191919191,2.632911392405063,0.014027768825119379,0.012735291332594432,6.261949960907983e-05,-0.008028918047314143,0.01342870002673597
2.0202020202020203,2.632911392405063,0.01416395575950779,0.012600781567766733,-1.0909217354228168e-05,-0.008029421198182356,0.013450679657469522
2.121212121212121,2.632911392405063,0.014074371155384298,0.012486297024057435,-6.15543000571558e-05,-0.00796820045383252,0.013351783585540582
2.2222222222222223,2.632911392405063,0.013748526756447771,0.012375580172167193,-3.7365644990437015e-05,-0.00783723207858449,0.013116217672071833
2.323232323232323,2.632911392405063,0.013751297869564525,0.012468591659544767,-7.967548115231597e-05,-0.007865966858732788,0.013157647878419675
2.4242424242424243,2.632911392405063,0.013696921554817366,0.012487487195299648,-2.8467953373944e-05,-0.007855322625035105,0.013134127122648675
2.525252525252525,2.632911392405063,0.013727341318821912,0.012456898601161863,-1.4231800767659528e-05,-0.007855271975995132,0.013138292552817465
2.6262626262626263,2.632911392405063,0.013561627498493939,0.012324712414663984,-4.827170948791836e-05,-0.007765901973947376,0.012987690641224613
2.727272727272727,2.632911392405063,0.013572634562399207,0.012400513666038712,-8.067987395665289e-06,-0.0077919444685313755,0.01302619296065153
2.8282828282828283,2.632911392405063,0.01362349014973644,0.012373588073701628,2.9680806676239997e-05,-0.007799123467031419,0.013043632672285027
2.929292929292929,2.632911392405063,0.01358262267904214,0.01202130138667273,-4.166527773477632e-05,-0.007681177219714461,0.012873373023816794
3.0303030303030303,2.632911392405063,0.01344797133415676,0.012196456356023618,-2.4944272816969554e-05,-0.007693328307054113,0.012868012738757695
3.131313131313131,2.632911392405063,0.013454680895549822,0.01207897370482562,-3.0674339163921474e-05,-0.007660096380112631,0.012822407331075768
3.2323232323232323,2.632911392405063,0.01338028504572739,0.012030323338405756,5.8287687410959344e-05,-0.007623182515239943,0.012759378685299753
3.3333333333333335,2.632911392405063,0.013462965337656561,0.012060731499508691,-0.00012539265497711431,-0.0076571090511495755,0.012821335336667615
3.4343434343434343,2.632911392405063,0.01340166563020914,0.012017634790848452,2.6582968359685272e-05,-0.007625790126317276,0.012766126446962728
3.5353535353535355,2.632911392405063,0.013258294897026344,0.012027483742912614,7.125753958509644e-05,-0.007585733591981687,0.012688343285892745
3.6363636363636362,2.632911392405063,0.013069601967556747,0.011884384400818713,-1.9820125697322546e-05,-0.007486195910512638,0.012519188988939873
3.7373737373737375,2.632911392405063,0.013354470521983986,0.01207586476045897,1.589724236953419e-05,-0.007629100584732887,0.0127633213087881
3.8383838383838382,2.632911392405063,0.013248463149410954,0.01184911913294853,1.94689037731235e-05,-0.007529274684707845,0.012607216940185509
3.9393939393939394,2.632911392405063,0.013125554850732088,0.011822037505511042,-6.457691388977785e-05,-0.007484277706872939,0.012525273239682711
4.040404040404041,2.632911392405063,0.013210099713266579,0.011868507143563255,2.995874975311651e-05,-0.00752358205704895,0.012593122171138926
4.141414141414141,2.632911392405063,0.013239129385992723,0.011842562666338832,-3.456896466478579e-05,-0.007524507615699466,0.012599174696930969
4.242424242424242,2.632911392405063,0.013311009779466854,0.012025211949334634,6.789761840866824e-05,-0.007600866518640447,0.01271750054757162
4.343434343434343,2.632911392405063,0.013207868164007099,0.012007577103083783,-3.248330497356525e-05,-0.007564633580127263,0.012650626841106308
4.444444444444445,2.632911392405063,0.013179993182898588,0.01185104387798741,1.398388050277712e-07,-0.0075093111182657985,0.01256832462326601
4.545454545454545,2.632911392405063,0.013253069651637934,0.011834718782010228,-6.146463500551567e-05,-0.007526336530094448,0.01260434072924768
4.646464646464646,2.632911392405063,0.013327601532916247,0.011846520467227964,-3.36929702725402e-05,-0.007552236600043263,0.012652379661969871
4.747474747474747,2.632911392405063,0.013186231027766454,0.01182499940502244,-3.471889862832648e-05,-0.007503369129836668,0.012561199854884523
4.848484848484849,2.632911392405063,0.013408931752268377,0.01187772161955513,5.48566952324977e-05,-0.007585996011547053,0.012713032321622431
4.94949494949495,2.632911392405063,0.013118916635800516,0.012031948049994289,0.00011143389579035841,-0.0075452594057384414,0.012612092478255949
5.05050505050505,2.632911392405063,0.013251213635704265,0.011836010981919429,2.3462201708005882e-05,-0.007526167385287108,0.012603410653151107
5.151515151515151,2.632911392405063,0.013213147905140466,0.011924051974684496,1.5489299598925354e-05,-0.007541159963947488,0.012618111999947251
5.252525252525253,2.632911392405063,0.013124666200876973,0.011763048849953696,6.015417766220519e-05,-0.007466314515249201,0.012500037881776917
5.353535353535354,2.632911392405063,0.013183393749431739,0.01178221950850845,7.83376129704425e-05,-0.007489683977382056,0.012542381696517916
5.454545454545454,2.632911392405063,0.013219038307462277,0.011973139196474983,4.9136211491548e-06,-0.0075576532511811775,0.012642219849557998
5.555555555555555,2.632911392405063,0.013181984669097896,0.01198518179826052,-3.054109523917753e-06,-0.007550149940207524,0.012626196886450839
5.656565656565657,2.632911392405063,0.013178381502919827,0.01197490843143749,7.715908815028625e-05,-0.007545986980307194,0.01262046432507339
5.757575757575758,2.632911392405063,0.013340174780941806,0.01200046658200693,-1.22927236445349e-06,-0.007602192408884621,0.012723330705772319
5.858585858585858,2.632911392405063,0.01316860208456927,0.011989384665152168,4.3131533651221836e-05,-0.007547396024916431,0.012620601039731338
5.959595959595959,2.632911392405063,0.013307901995898526,0.011958534868171881,-2.0948863098307443e-06,-0.007579931059221123,0.012687151565706224
6.0606060606060606,2.632911392405063,0.013278296263475091,0.011920619209447791,-2.852527504015204e-05,-0.007559674641876865,0.012654297355606142
6.161616161616162,2.632911392405063,0.013317794386218667,0.011967936891576667,-3.674804171023273e-05,-0.0075857193833386,0.012696955905287253
6.262626262626262,2.632911392405063,0.013236304119102997,0.012017881866094895,-8.403076969091362e-05,-0.007576255795559368,0.01267194048062391
6.363636363636363,2.632911392405063,0.013474966950103914,0.012028761936349844,1.6526860805475254e-05,-0.007651118665936127,0.012813254773716698
6.4646464646464645,2.632911392405063,0.013438781307382467,0.012024864418337264,2.3426003995313102e-05,-0.007639093717715919,0.01279063448274073
6.565656565656566,2.632911392405063,0.013516623025799155,0.011989083930487119,2.8061452916538544e-05,-0.007651712086885882,0.012821375352753185
6.666666666666667,2.632911392405063,0.013384343670603444,0.01202292949461335,3.075470187840036e-05,-0.007622181949565037,0.012758342619517212
6.767676767676767,2.632911392405063,0.013499287737065624,0.011966351413536438,9.418225801285177e-05,-0.007639691745180619,0.012802879580755992
6.8686868686868685,2.632911392405063,0.013521131383983982,0.012219699887152621,-4.1675509767342206e-05,-0.007722249381340981,0.012919872372911919
6.96969696969697,2.632911392405063,0.01352313255863688,0.012108715123225519,8.956061150782648e-06,-0.00768955430455872,0.012874337926310597
7.070707070707071,2.632911392405063,0.013540624545918941,0.012245681972837484,3.485952030635353e-05,-0.007735891955626927,0.012941974491126426
7.171717171717171,2.632911392405063,0.013620587749503267,0.012444209229884453,-0.00011472383698031509,-0.007819439093816315,0.013073667996647102
7.2727272727272725,2.632911392405063,0.013709118172383088,0.012403229118627944,-5.037723983042468e-05,-0.007833704187303309,0.013105353620792144
7.373737373737374,2.632911392405063,0.0136776938196876,0.012314289483497146,2.2927371729159258e-06,-0.007797594990955423,0.013049519850023108
7.474747474747475,2.632911392405063,0.01370038792136506,0.01241083637263584,-0.00011962427047647389,-0.00783336728820027,0.013104928303077025
7.575757575757575,2.632911392405063,0.013849507613163748,0.012210399609580713,-1.4427942490248619e-05,-0.007817972166823338,0.013107071446232497
7.6767676767676765,2.632911392405063,0.013779009205965795,0.01256413499192102,2.39843970748481e-05,-0.007902943259366045,0.01321359061075137
7.777777777777778,2.632911392405063,0.01386397303664588,0.012498559326080733,-1.2084046033396499e-05,-0.007908759708817983,0.013234216341257501
7.878787878787879,2.632911392405063,0.01400684718664591,0.012392027694291891,4.355314253904065e-05,-0.00791966246428134,0.013273528953077705
7.979797979797979,2.632911392405063,0.014104273711604826,0.012824639941367403,-3.618114211089844e-05,-0.008078674095891669,0.013510130339744724
8.080808080808081,2.632911392405063,0.0141601991001475,0.012574582950061168,-2.532935160848339e-05,-0.0080204346150626,0.013437808656092688
8.181818181818182,2.632911392405063,0.014243538519365566,0.012821179599751464,-1.1741638115801129e-05,-0.008119415435735109,0.013588321603022452
8.282828282828282,2.632911392405063,0.014244285298055314,0.01282469566612313,1.2334366744710194e-05,-0.008120694289253534,0.013590228661133326
8.383838383838384,2.632911392405063,0.01407722103325652,0.012927757410610367,-6.358364698106298e-06,-0.008101493533160066,0.013539139058288524
8.484848484848484,2.632911392405063,0.014500866158688541,0.013103910673077533,-1.569324154722033e-05,-0.008281433049529822,0.013855333929139962
8.585858585858587,2.632911392405063,0.01463742297306286,0.013130512976440968,0.00012927022368718004,-0.00833038078485115,0.01394696319632243
8.686868686868687,2.632911392405063,0.014625165876083389,0.013146214964878283,-2.0857983365902234e-05,-0.008331414252288501,0.013944682695140802
8.787878787878787,2.632911392405063,0.01452721716796909,0.013127213453296153,4.9919870920100016e-05,-0.008296329186379571,0.013880539147596347
8.88888888888889,2.632911392405063,0.014717126872542409,0.013366927102638109,-2.7128831212629402e-05,-0.008425216192554154,0.01409070649061463
8.98989898989899,2.632911392405063,0.014812227882235558,0.013346842922610446,-5.844547614774483e-05,-0.008447721241453801,0.014136975616412821
9.09090909090909,2.632911392405063,0.014890836814732005,0.013445991909329234,-1.2416156397462344e-05,-0.00850104861721837,0.01422357587308887
9.191919191919192,2.632911392405063,0.015238937327526686,0.01379055005837472,2.178725566344354e-05,-0.008708846215770422,0.01456889075347404
9.292929292929292,2.632911392405063,0.0154407678314895,0.013697737320598903,-1.5329527819219777e-05,-0.00874155154562652,0.014647267394611928
9.393939393939394,2.632911392405063,0.015330064475097263,0.013834199262805465,6.0245196958098326e-05,-0.008749279121370818,0.014639934010942985
9.494949494949495,2.632911392405063,0.015531868867255634,0.013895857795869068,3.9398225886796706e-05,-0.00882831799893741,0.014782077999042584
9.595959595959595,2.632911392405063,0.015666804963127126,0.014052690909907909,-3.56243267864067e-05,-0.008915848761910511,0.01492547952822332
9.696969696969697,2.632911392405063,0.015792097335364404,0.014278195219163925,4.03677009298742e-05,-0.0090210877663585,0.015092363530794068
9.797979797979798,2.632911392405063,0.015930563502149872,0.014289535199998928,-2.7789242002099174e-05,-0.009066029610644639,0.015176812528794126
9.8989898989899,2.632911392405063,0.016110779899049462,0.014499638630439108,-2.6862403777625062e-05,-0.009183125558846572,0.01536874840526674
10.0,2.632911392405063,0.01636053077240613,0.014802121396733935,-6.289901253774074e-05,-0.00934879565074202,0.015640047034701475
0.0,2.7341772151898733,0.016213082758591374,0.014778510740414542,3.68548466103252e-05,-0.009297478049701775,0.015545651784263162
0.10101010101010101,2.7341772151898733,0.016361358337645137,0.014668756185159329,6.144337781441876e-05,-0.009309034356841338,0.01558451167748196
0.20202020202020202,2.7341772151898733,0.015974049630732665,0.01441881898697352,1.5282369835600415e-05,-0.009117860585311855,0.015256027435811602
0.30303030303030304,2.7341772151898733,0.015826156163936424,0.014304303294601684,-9.405786897260872e-06,-0.009039137837561433,0.015122778822658896
0.40404040404040403,2.7341772151898733,0.015598959226292963,0.01418964005979917,5.840150845700922e-05,-0.00893657978582764,0.01494456521449177
0.5050505050505051,2.7341772151898733,0.015473006885926663,0.014072861265923059,-7.342736411567798e-05,-0.008863760445554916,0.014823159641686933
0.6060606060606061,2.7341772151898733,0.015498289846297203,0.013871472698565236,5.958299782248077e-05,-0.008810928763458731,0.014752670568761637
0.7070707070707071,2.7341772151898733,0.01524154565489926,0.013779112016397255,-1.1172213771709646e-05,-0.008706197301388954,0.014565508967557353
0.8080808080808081,2.7341772151898733,0.015253609485532591,0.013596352528266041,4.7032831411448e-05,-0.00865498860413959,0.014496433657210452
0.9090909090909091,2.7341772151898733,0.015149059217336409,0.013514188512827294,-3.215266355757136e-05,-0.00859897431904911,0.01440149803516467
1.0101010101010102,2.7341772151898733,0.014878021481412766,0.01340855889137104,-0.00011138235953874559,-0.008485974111835142,0.014201738119476358
1.1111111111111112,2.7341772151898733,0.014735339544186803,0.013193847705659413,-0.0001087321029649198,-0.008378756174953863,0.014029522120730756
1.2121212121212122,2.7341772151898733,0.01475725476523123,0.013317186052730462,-2.2530600678423515e-05,-0.008422332245388508,0.014092566413423492
1.3131313131313131,2.7341772151898733,0.01454266904083236,0.013169063583169579,4.20376908128119e-06,-0.008313519787200581,0.013906839261171372
1.4141414141414141,2.7341772151898733,0.014227915998798293,0.012886328207540045,3.338700096208389e-05,-0.008134273261901501,0.013606939301216038
1.5151515151515151,2.7341772151898733,0.014319677776919858,0.012973169270600129,-2.638384932326098e-06,-0.008187854114255995,0.013696156750754892
1.6161616161616161,2.7341772151898733,0.014216441192677213,0.012958608064163515,-0.00016241938702651632,-0.008152514777052219,0.013634022657827954
1.7171717171717171,2.7341772151898733,0.014106826322711688,0.012727279690892157,-2.037641827888664e-05,-0.008050231804081152,0.013470186289158052
1.8181818181818181,2.7341772151898733,0.014276548628143986,0.012756288547275106,-2.5223034735635824e-05,-0.008109851152625728,0.013580459236628803
1.9191919191919191,2.7341772151898733,0.014124204671264117,0.012656214605468967,-2.604104175348552e-06,-0.008034125783019925,0.013450426782390024
2.0202020202020203,2.7341772151898733,0.014121440386879335,0.012585695182274119,-1.1625346679658168e-06,-0.008012140670746036,0.01341963716468694
2.121212121212121,2.7341772151898733,0.013949729714188702,0.012498385597362448,-6.11951323132033e-05,-0.007934434593465345,0.013284078260271493
2.2222222222222223,2.7341772151898733,0.013891371745702697,0.01258818239754385,2.5176094862471672e-05,-0.007943866242973965,0.013287863834018051
2.323232323232323,2.7341772151898733,0.013901091230005087,0.01227442732994733,-3.658933312026512e-05,-0.007852655567985726,0.013163509634262105
2.4242424242424243,2.7341772151898733,0.01382443953178413,0.012487415298030635,-4.116824559744027e-05,-0.00789355644894443,0.013206976791487197
2.525252525252525,2.7341772151898733,0.01386707894083453,0.012248680056484175,-5.0900013917537116e-05,-0.00783472769919561,0.01313317938076719
2.6262626262626263,2.7341772151898733,0.013791244579180543,0.012361774856064095,-8.707644663855905e-05,-0.007845905830573392,0.013135843752295795
2.727272727272727,2.7341772151898733,0.013534767429256146,0.012158155330325411,2.880328563922607e-05,-0.007707876827874467,0.012901757807501996
2.8282828282828283,2.7341772151898733,0.01365741326376507,0.012188737066869189,-3.5439596197884306e-05,-0.007753845099190278,0.012985661205801911
2.929292929292929,2.7341772151898733,0.013545194717554441,0.012285553721726374,5.440158541022556e-05,-0.007749224531784244,0.012961704803366553
3.0303030303030303,2.7341772151898733,0.01351941635567185,0.012165827371533485,7.225666822423897e-06,-0.0077055731181616,0.012896016645296092
3.131313131313131,2.7341772151898733,0.013500653376376855,0.012112921188634353,2.3891891811686248e-05,-0.007684072369503362,0.012863120283799833
3.2323232323232323,2.7341772151898733,0.013526219647432275,0.012134796282710102,-1.6675863486480562e-05,-0.007698304779042712,0.012887001712188345
3.3333333333333335,2.7341772151898733,0.013343891744358039,0.012174696481386884,-2.2062377523813307e-05,-0.007655576467723477,0.012799465210566553
3.4343434343434343,2.7341772151898733,0.01348282951850329,0.012194061268432314,2.2752748581649513e-05,-0.007703067236080681,0.012886928489192135
3.5353535353535355,2.7341772151898733,0.013448433907059262,0.011898822121602103,3.8059669944448846e-06,-0.0076041768085984085,0.012744483630810727
3.6363636363636362,2.7341772151898733,0.013367951976200852,0.01212616061877712,-2.756181896155344e-05,-0.007648233778493391,0.012792429696679057
3.7373737373737375,2.7341772151898733,0.013149167110484371,0.012160272935001942,-2.1384882848933036e-07,-0.007592832013645893,0.012683665588422688
3.8383838383838382,2.7341772151898733,0.013417118131990969,0.01208738594758048,-7.57653159865873e-05,-0.007651351223871435,0.012804815266032995
3.9393939393939394,2.7341772151898733,0.0133050957844673,0.01196197993608076,2.550777268650156e-05,-0.007580122716164418,0.012687048551299073
4.040404040404041,2.7341772151898733,0.013296820922007279,0.011861577360349838,-1.670071533451417e-05,-0.007547519484707135,0.012640491716545873
4.141414141414141,2.7341772151898733,0.013264124594098859,0.011956247532575875,4.2273528773501506e-05,-0.00756611163800242,0.012661163473857226
4.242424242424242,2.7341772151898733,0.013105130034631408,0.011998074863655677,5.060133471298044e-05,-0.007530961469486126,0.012588470276020771
4.343434343434343,2.7341772151898733,0.013062554437184187,0.01192765279960833,-4.302729922675755e-05,-0.007497062171037755,0.012533920766269618
4.444444444444445,2.7341772151898733,0.013243510943309776,0.012056426126963457,-3.680284484368642e-05,-0.00758998112108197,0.012691833794176955
4.545454545454545,2.7341772151898733,0.013215700459396466,0.011872446206904638,3.1074216960887984e-05,-0.007526443999890331,0.012598012605108237
4.646464646464646,2.7341772151898733,0.013308120572631402,0.011866127032629703,3.70528509456515e-05,-0.007552274281578331,0.012649083500044308
4.747474747474747,2.7341772151898733,0.013094498887444602,0.011780656113614164,1.5312715084499503e-05,-0.00746254650031763,0.012489542611527628
4.848484848484849,2.7341772151898733,0.013330080696195816,0.012017847410758314,-6.075542215847049e-05,-0.007604378432086239,0.012725246781078602
4.94949494949495,2.7341772151898733,0.013179892161216343,0.011980563302692185,1.5831750362155716e-05,-0.007548136639172558,0.012623061197821882
5.05050505050505,2.7341772151898733,0.013055532802112345,0.012152703131530022,1.7320587333299936e-05,-0.00756247078009271,0.012628381360663136
5.151515151515151,2.7341772151898733,0.013211648056261011,0.01183529833092754,-4.419825704552723e-05,-0.007514083916156565,0.012580301872899201
5.252525252525253,2.7341772151898733,0.013172697571978656,0.011952573487954468,-1.4228431294182746e-05,-0.007537581317979937,0.012607019706848301
5.353535353535354,2.7341772151898733,0.013045005810869578,0.011923173441174615,7.2910735599664534e-06,-0.007490453775613257,0.012521842283349726
5.454545454545454,2.7341772151898733,0.013169676384550997,0.01198819741478163,1.7069746416838387e-05,-0.007547362139799787,0.012620516909838534
5.555555555555555,2.7341772151898733,0.013185806729323537,0.011937659022142428,2.639630177303995e-05,-0.007537039725439789,0.012608236500784669
5.656565656565657,2.7341772151898733,0.013191316774237285,0.011983039650051255,-5.939069408072875e-05,-0.007552306927286562,0.012631016875712463
5.757575757575758,2.7341772151898733,0.013338834675654275,0.01177287824551857,-1.3561571759050085e-05,-0.0075335138763518526,0.012628905251974458
5.858585858585858,2.7341772151898733,0.013283290037915412,0.011981234972818262,8.945639329841972e-05,-0.007579357503220102,0.012683436990335528
5.959595959595959,2.7341772151898733,0.013342880978716271,0.011875313406753808,7.394848559891576e-05,-0.0075654583156410235,0.012673636142998289
6.0606060606060606,2.7341772151898733,0.013386176118429054,0.011933114025323596,-1.0482227883296874e-05,-0.007595787043125794,0.012722047204047064
6.161616161616162,2.7341772151898733,0.013256480494636683,0.011939453347887798,9.493341542798152e-05,-0.007558780152757344,0.012650562358577866
6.262626262626262,2.7341772151898733,0.01326025812022419,0.012086928749239115,-2.3559398700007606e-05,-0.007604156060838992,0.012714329004878188
6.363636363636363,2.7341772151898733,0.013309377018903584,0.011993442333787154,2.14515856617934e-05,-0.007590845805807221,0.01270268910041991
6.4646464646464645,2.7341772151898733,0.013348654961330132,0.012024160387093741,-5.98117175113159e-05,-0.007611844604527161,0.012738578665174725
6.565656565656566,2.7341772151898733,0.013362121429615093,0.012047825160670617,-6.46305050204401e-05,-0.007622983977085713,0.012756347782525832
6.666666666666667,2.7341772151898733,0.013492820226289956,0.012123758750563684,9.845207767442421e-05,-0.007684973693056092,0.012864179143939908
6.767676767676767,2.7341772151898733,0.013594036101996365,0.012187282042499858,-2.582073463268168e-05,-0.007734395443348867,0.012948177832647954
6.8686868686868685,2.7341772151898733,0.013369469163657131,0.011883520102161173,1.7969914977277064e-05,-0.007575896779745491,0.012691941101676962
6.96969696969697,2.7341772151898733,0.013620563294809812,0.012162819676237818,1.3443998991651485e-05,-0.007735014891314289,0.012953378475300158
7.070707070707071,2.7341772151898733,0.013633232811998746,0.012127340424515715,-1.4300447546210019e-05,-0.0077281719709543385,0.012946164713492019
7.171717171717171,2.7341772151898733,0.013574583649516294,0.012192991520355929,-3.24792181643977e-05,-0.007730272550961666,0.012939348702353996
7.2727272727272725,2.7341772151898733,0.013765976653189158,0.012333066287023266,-2.155474899823421e-05,-0.007829712882063727,0.013108444930977717
7.373737373737374,2.7341772151898733,0.013893572655353908,0.012264045372944697,1.8665653038923547e-05,-0.007847285408489581,0.01315476376912524
7.474747474747475,2.7341772151898733,0.01365997823645507,0.012161878796719091,-3.0173137585938116e-05,-0.007746557109952248,0.012976056136731985
7.575757575757575,2.7341772151898733,0.013775674697515571,0.012432251291691192,3.8781935464648486e-05,-0.00786237779676203,0.013155681210601658
7.6767676767676765,2.7341772151898733,0.013903805872563518,0.012474393435847638,2.0682144837591217e-05,-0.007913459792523347,0.013247114700099396
7.777777777777778,2.7341772151898733,0.01388395846280469,0.012441451626568262,3.3096296016301114e-05,-0.007897623026811885,0.013221978281153181
7.878787878787879,2.7341772151898733,0.014022090189395958,0.012826971635115906,2.4634965222477637e-05,-0.008054718547353559,0.013464437683309986
7.979797979797979,2.7341772151898733,0.013999653886188035,0.012657270435082654,-8.297775560473772e-05,-0.007997077296381206,0.013379837610696737
8.080808080808081,2.7341772151898733,0.014173685875233434,0.0127132898347774,2.4507267148894445e-05,-0.00806609271300325,0.013502915795202984
8.181818181818182,2.7341772151898733,0.014270894994985434,0.012574286949252389,-3.580099489584263e-05,-0.008053554583271347,0.013502912748149905
8.282828282828282,2.7341772151898733,0.014260629957009135,0.01273352136953293,8.95624176578535e-05,-0.00809824539796262,0.01356260156527836
8.383838383838384,2.7341772151898733,0.01418230209706671,0.012889247995869097,1.449273680329521e-05,-0.00812146502788074,0.013582040638590039
8.484848484848484,2.7341772151898733,0.014553419818671864,0.012998459597924868,5.273447656882954e-05,-0.00826556382497902,0.013841903177952367
8.585858585858587,2.7341772151898733,0.014671072838900739,0.012948482127334978,-4.178835149500273e-05,-0.008285866489870715,0.0138903089239178
8.686868686868687,2.7341772151898733,0.014461196857711614,0.01343781168192465,-2.8470858683836184e-05,-0.008369702561890879,0.013977717591100926
8.787878787878787,2.7341772151898733,0.01464972303795106,0.013085330454769593,2.741262962985091e-06,-0.008320516047816195,0.01393354993245877
8.88888888888889,2.7341772151898733,0.014779817653861986,0.013286200509748993,2.7218048730990427e-05,-0.008419805449083292,0.014092577318803565
8.98989898989899,2.7341772151898733,0.014950923392297932,0.013529577015742639,-4.9441000507802015e-05,-0.008544150122412171,0.014293607950839548
9.09090909090909,2.7341772151898733,0.014963493077501167,0.013546956465431644,-4.846766922435337e-05,-0.008553134862879843,0.014308158952496633
9.191919191919192,2.7341772151898733,0.015090362968281888,0.013568736919704602,1.1568691630921907e-05,-0.008597729966395946,0.01439002823051632
9.292929292929292,2.7341772151898733,0.015277768499668247,0.01372087150797105,6.261629479591913e-05,-0.008699592002291789,0.014562279668937599
9.393939393939394,2.7341772151898733,0.015274673885175435,0.013947327039722677,6.422138310341019e-06,-0.008766600277469434,0.014656153843398616
9.494949494949495,2.7341772151898733,0.01541768447464444,0.013962973974242981,2.252582366099873e-05,-0.008814197534666226,0.014744301676943655
9.595959595959595,2.7341772151898733,0.015668029462305742,0.014160617292421938,3.952356737803579e-05,-0.008948594026418304,0.014971504491170946
9.696969696969697,2.7341772151898733,0.015583408986860765,0.014366719059125508,8.731597788146832e-05,-0.008985038413795882,0.015012850013169148
9.797979797979798,2.7341772151898733,0.016129190695559407,0.014395628600320391,2.0704860818268504e-05,-0.00915744578876394,0.015336113017608162
9.8989898989899,2.7341772151898733,0.016021389197149804,0.014572278381997091,-0.00012579745857267864,-0.009178100273744069,0.01534977330788733
10.0,2.7341772151898733,0.016287665652913366,0.014771424269983393,-6.644848102790147e-05,-0.009317726976869027,0.015585385906676213
0.0,2.8354430379746836,0.016637713762663348,0.014780079951252844,1.3861844510834837e-05,-0.009425338114174857,0.015791077209858714
0.10101010101010101,2.8354430379746836,0.016112104088069366,0.014545254480247611,-5.7850434409171405e-05,-0.009197207570495093,0.015388947718574585
0.20202020202020202,2.8354430379746836,0.01618404233663836,0.014372435023275124,6.5075661827072e-05,-0.009166943207974045,0.015358994839519491
0.30303030303030304,2.8354430379746836,0.015854556873334296,0.014259485600330732,3.204266680069637e-05,-0.009034212742099508,0.015120355749729676
0.40404040404040403,2.8354430379746836,0.01573593392371293,0.014190237069201455,-8.471094478515966e-05,-0.008977851297874316,0.015023559481072445
0.5050505050505051,2.8354430379746836,0.015279976161423148,0.013810739525458629,4.146106691183077e-05,-0.008727214706064532,0.014601081606281811
0.6060606060606061,2.8354430379746836,0.01544841850681009,0.013888903465106081,-2.3113278444720866e-06,-0.00880119659157485,0.014730705907106213
0.7070707070707071,2.8354430379746836,0.01509417097662934,0.013774816539141484,3.0298054961916966e-05,-0.008660696254731247,0.014479740538477393
0.8080808080808081,2.8354430379746836,0.015204070811835817,0.013794838603368009,2.6894008821708982e-05,-0.008699672824561147,0.014550800948537786
0.9090909090909091,2.8354430379746836,0.015067907307872143,0.013522903577713179,4.465951978085115e-05,-0.008577243265675596,0.014358094497063358
1.0101010101010102,2.8354430379746836,0.014833051732113666,0.01367385393844923,3.853660280712506e-05,-0.008552071701168869,0.014288917998941972
1.1111111111111112,2.8354430379746836,0.014917758493742075,0.013480518988503751,-2.784743525870787e-05,-0.008519483244673748,0.014253670070377394
1.2121212121212122,2.8354430379746836,0.014656673855096735,0.013146124301234383,-7.177479646936184e-05,-0.008340839446899334,0.01396336890441029
1.3131313131313131,2.8354430379746836,0.014594498954100497,0.013249338196699613,9.209447296804677e-05,-0.008353151145240033,0.01397148360387548
1.4141414141414141,2.8354430379746836,0.014742119190771548,0.013093327838278471,-6.374688665567094e-06,-0.008350634108715005,0.013990783910480893
1.5151515151515151,2.8354430379746836,0.014511155507555194,0.013040916394510296,3.0070698541117394e-05,-0.008265621570619646,0.01383485025405133
1.6161616161616161,2.8354430379746836,0.014367568258795796,0.012821414914452104,2.6380363481621285e-05,-0.00815669495197437,0.013660352553748036
1.7171717171717171,2.8354430379746836,0.014223523821623696,0.012880661692976015,-4.8028180657308444e-05,-0.008131255654379914,0.013602154139815064
1.8181818181818181,2.8354430379746836,0.014213178594469708,0.01283254905429757,-5.868131431782992e-05,-0.008113718294630184,0.013576000145409944
1.9191919191919191,2.8354430379746836,0.014055790236062841,0.012659849545839366,-3.033675298424187e-05,-0.008014691934570663,0.013412516579777264
2.0202020202020203,2.8354430379746836,0.014046694661919394,0.012868507477292209,-7.207084426534151e-05,-0.00807456064176348,0.0134968034345155
2.121212121212121,2.8354430379746836,0.014190030104343276,0.012646121558037987,7.422341671470285e-05,-0.008050845498714378,0.013485140954319479
2.2222222222222223,2.8354430379746836,0.013924325805108244,0.01247357716954515,9.206822779641167e-05,-0.007919370892396018,0.013259572155360198
2.323232323232323,2.8354430379746836,0.013814376916141268,0.01260859468041766,-4.67419270910886e-05,-0.007926891478967678,0.013252937203555085
2.4242424242424243,2.8354430379746836,0.013767971644880458,0.01234897061163113,-3.395780692545484e-05,-0.007835082676953476,0.013116299041830195
2.525252525252525,2.8354430379746836,0.013681191270901666,0.01242773860759866,-1.114525553344821e-05,-0.007832678963550097,0.013099533777376602
2.6262626262626263,2.8354430379746836,0.013805935741660851,0.01246888298988483,-2.9908263707931596e-05,-0.007882445619463704,0.013188441564581614
2.727272727272727,2.8354430379746836,0.013715691230795798,0.01228429840647283,0.00011239926732888066,-0.007799996891180588,0.01306041462333986
2.8282828282828283,2.8354430379746836,0.013576061202579863,0.012208880021590715,-7.899497916066788e-05,-0.007735482367251172,0.012947447910299495
2.929292929292929,2.8354430379746836,0.013415943788989068,0.012379639346488886,-6.265702719086298e-07,-0.007738674940643385,0.012928978059992553
3.0303030303030303,2.8354430379746836,0.01342456027120782,0.012296758735316046,2.7781991909767336e-05,-0.007716395701957159,0.012897783941605427
3.131313131313131,2.8354430379746836,0.013386776039953993,0.01221604373052346,2.9757018848480407e-05,-0.007680845931143235,0.01284160083851147
3.2323232323232323,2.8354430379746836,0.013420920066550424,0.01225925929502663,-4.504878896883711e-05,-0.0077040538084731155,0.012879677131121248
3.3333333333333335,2.8354430379746836,0.0132518141691539,0.012011744837229495,-3.945488473076117e-05,-0.007579067701915018,0.01267753337372952
3.4343434343434343,2.8354430379746836,0.013384081465392886,0.011906588990662954,1.0060615332109883e-05,-0.0075872011368167515,0.012709919145565372
3.5353535353535355,2.8354430379746836,0.013235678571029296,0.011881477398838446,-6.05641661457926e-06,-0.007535146790960323,0.012613222691100186
3.6363636363636362,2.8354430379746836,0.013334453248474182,0.012100283574742379,-6.518925799938932e-05,-0.007630421046964968,0.012762703057045443
3.7373737373737375,2.8354430379746836,0.013409620555764709,0.012027009327943589,1.1359592795925124e-05,-0.007630988965112488,0.012774569755444163
3.8383838383838382,2.8354430379746836,0.013295989012032855,0.01192326282828722,-1.0710540608473929e-05,-0.007565775552096022,0.012665555371757998
3.9393939393939394,2.8354430379746836,0.01329752571097464,0.01187254248723761,2.1064255529485785e-05,-0.007551020459463674,0.012645447689789235
4.040404040404041,2.8354430379746836,0.013207923723641532,0.011912341363741105,-1.6750487852800129e-06,-0.007536079526214792,0.012610148221607982
4.141414141414141,2.8354430379746836,0.01339484586104343,0.01186991701774338,6.898062727864359e-05,-0.007579428863636043,0.012701786952787255
4.242424242424242,2.8354430379746836,0.013323813502723344,0.012116052086204187,-1.110233989506495e-06,-0.007631959676678259,0.01276286447953427
4.343434343434343,2.8354430379746836,0.013278024399619306,0.01178250210668538,-1.1947327082815555e-05,-0.007518157951891405,0.012597037969525611
4.444444444444445,2.8354430379746836,0.01313592066310787,0.012036068649923461,2.5260855091518777e-05,-0.007551596793909398,0.012622061308059795
4.545454545454545,2.8354430379746836,0.013193359209390859,0.011823503753864642,5.142354439702598e-05,-0.0075050588889766495,0.012564878401723888
4.646464646464646,2.8354430379746836,0.013181416662787942,0.011877381915502467,3.5498984207384704e-05,-0.007517639573487122,0.012580342087839563
4.747474747474747,2.8354430379746836,0.013137966765093262,0.01174192482666283,-4.522555320888476e-05,-0.007463967477526826,0.012498803433799794
4.848484848484849,2.8354430379746836,0.013371410012546797,0.011990960619364211,-3.464653487373566e-05,-0.007608711189573302,0.012737554418336959
4.94949494949495,2.8354430379746836,0.013092338497469344,0.011834985027759166,-6.520196011890201e-05,-0.007478197057568552,0.012511647442703415
5.05050505050505,2.8354430379746836,0.013167558859907018,0.01194298849770936,-3.351969997592531e-05,-0.007533164207284913,0.012600116955394217
5.151515151515151,2.8354430379746836,0.01311788296394321,0.011947727122986215,-3.635849770871635e-06,-0.007519683026078827,0.012573710289123078
5.252525252525253,2.8354430379746836,0.01308425835674763,0.011781493548468507,2.349490263557693e-05,-0.007459725571564841,0.012484028099678302
5.353535353535354,2.8354430379746836,0.01317231977945458,0.01189697857460906,8.671791768299369e-06,-0.007520789506219093,0.012583224029745496
5.454545454545454,2.8354430379746836,0.013242956954384762,0.011934053765058593,4.032428958626767e-05,-0.007553103215833006,0.012639630770161146
5.555555555555555,2.8354430379746836,0.013202889315088466,0.011900109641888531,-0.00010420687227695574,-0.007530899687093099,0.0126033980550034
5.656565656565657,2.8354430379746836,0.013141998749077314,0.011844324251210538,7.334531695343526e-05,-0.0074958969000863546,0.012544249367819735
5.757575757575758,2.8354430379746836,0.013218499265623683,0.011861435146741232,-2.9264195039060582e-05,-0.007523980323709474,0.012595021396509573
5.858585858585858,2.8354430379746836,0.013292814745991796,0.012017853729882542,3.027813528573802e-05,-0.007593200542762301,0.012703518377393825
5.959595959595959,2.8354430379746836,0.013170734702194353,0.01206679193874601,3.01373425468745e-06,-0.0075712579922821086,0.012654929166319091
6.0606060606060606,2.8354430379746836,0.013280769406904147,0.012050371571393118,1.6291225458427342e-05,-0.007599342293489179,0.01271034543798461
6.161616161616162,2.8354430379746836,0.013282140225509899,0.012140644244813975,-1.7262029691831742e-05,-0.007626835341097162,0.01274980965719101
6.262626262626262,2.8354430379746836,0.013334347461988505,0.011956894618668572,-2.1738903670391515e-05,-0.007587372624197123,0.012701818038653986
6.363636363636363,2.8354430379746836,0.013378819684982739,0.012040354929403816,5.3067118948226135e-06,-0.007625752384315966,0.012762339516295086
6.4646464646464645,2.8354430379746836,0.01320410350654328,0.012097038515057463,0.00011173239394395768,-0.007590342606480222,0.01268832510437852
6.565656565656566,2.8354430379746836,0.013383043478450369,0.012128876913409267,-5.1753084948456774e-05,-0.00765357611755789,0.012802431643840212
6.666666666666667,2.8354430379746836,0.013501698112222668,0.011815652813487603,9.556098539531145e-06,-0.007595205277713081,0.012742621394084835
6.767676767676767,2.8354430379746836,0.013209909518068734,0.011962142831175247,9.306806089949853e-06,-0.007551615704773194,0.012632339688152765
6.8686868686868685,2.8354430379746836,0.013338077546248474,0.012210902571377137,-2.874934012056491e-05,-0.007664694035287682,0.012811829237246391
6.96969696969697,2.8354430379746836,0.0136285986184951,0.01206908764432373,2.9096925236101524e-05,-0.007709305878845649,0.0129197277667783
7.070707070707071,2.8354430379746836,0.013672495917203738,0.012224592107525767,2.586157274671132e-05,-0.007769126407418852,0.013009193579332345
7.171717171717171,2.8354430379746836,0.013562534074193739,0.012265511574642408,-6.780680677995517e-05,-0.007748413694650843,0.012963312822036844
7.2727272727272725,2.8354430379746836,0.013863803276988522,0.012327003100868114,-2.334910522881495e-05,-0.00785724191335699,0.01316292278746372
7.373737373737374,2.8354430379746836,0.013651423684287838,0.012155001089319165,-8.351409181011264e-05,-0.0077419274320821,0.012968934965778858
7.474747474747475,2.8354430379746836,0.013794568143947313,0.012365616363389132,-2.3989976735155196e-05,-0.007848055352200933,0.013138567932419158
7.575757575757575,2.8354430379746836,0.01383433049538172,0.012475721693817653,3.4711758834219325e-05,-0.007893015656759811,0.013207675407692614
7.6767676767676765,2.8354430379746836,0.013860809459986778,0.012468646405394445,8.675956353517279e-06,-0.007898836759614367,0.013219828888315813
7.777777777777778,2.8354430379746836,0.013782205633082134,0.012466070052354537,-2.5615108648444177e-06,-0.007874482705631,0.013173540657273126
7.878787878787879,2.8354430379746836,0.014116431988804152,0.012575948108712421,-2.3633919165161277e-05,-0.00800771402925497,0.013412765652265637
7.979797979797979,2.8354430379746836,0.013965192169414076,0.01264040123174808,-1.8585038810183195e-05,-0.007981678020348647,0.01335221852500119
8.080808080808081,2.8354430379746836,0.014136638232798959,0.012758785969861542,4.047585538259669e-05,-0.00806862726079815,0.013500730842763004
8.181818181818182,2.8354430379746836,0.014223219611468049,0.012598251569558202,8.140364136522378e-05,-0.008046441354307874,0.013485106584304745
8.282828282828282,2.8354430379746836,0.01429237480118917,0.013000154061671345,-1.4397417198668209e-05,-0.008187758658858154,0.013692097378382706
8.383838383838384,2.8354430379746836,0.0143846310513093,0.01286805924030389,3.592249506327973e-05,-0.008175807087483958,0.013689636439769094
8.484848484848484,2.8354430379746836,0.01421861542136454,0.012745837513892359,-2.9204428170636692e-05,-0.00808933588057707,0.013542518055880488
8.585858585858587,2.8354430379746836,0.014522719735939632,0.013105013235798687,7.999544814372248e-06,-0.008288319891521494,0.013868327875341615
8.686868686868687,2.8354430379746836,0.014764422245731405,0.013151972304266851,-7.505221896340229e-05,-0.008374918364999477,0.014028476958843532
8.787878787878787,2.8354430379746836,0.014619408776172823,0.013101872258578978,5.173672851945679e-05,-0.008316384310425539,0.013923094965948816
8.88888888888889,2.8354430379746836,0.014840820040254353,0.01349447326029356,3.9881089517916585e-05,-0.008500587990164373,0.014215712094364298
8.98989898989899,2.8354430379746836,0.014759727254768883,0.013464996283113177,4.989732521620639e-05,-0.008467417061364618,0.014157099637403948
9.09090909090909,2.8354430379746836,0.015018714637654777,0.01354064433840914,-3.469611380174692e-06,-0.008567807692819175,0.014336938350033596
9.191919191919192,2.8354430379746836,0.0149737007769089,0.013639539323259873,9.430402354305418e-05,-0.008583972030050633,0.014354129966401584
9.292929292929292,2.8354430379746836,0.015277312497013935,0.013711757330294507,-8.356465955119805e-05,-0.008696720948192533,0.014558527183583865
9.393939393939394,2.8354430379746836,0.015301210525317762,0.013818893546821344,5.46542353424886e-06,-0.008736031221641733,0.014616536957301836
9.494949494949495,2.8354430379746836,0.01560460768043954,0.013906126247598153,-6.168292793208032e-05,-0.008853220178411307,0.014828887280471645
9.595959595959595,2.8354430379746836,0.015750152207431416,0.014236146313007502,3.675509348011951e-05,-0.008995889556131674,0.015050506235212565
9.696969696969697,2.8354430379746836,0.015615454981727598,0.014262986452503856,4.506987455670925e-05,-0.008963532430269436,0.014985269028528746
9.797979797979798,2.8354430379746836,0.016223545373660365,0.01446725090862854,5.0618948224053844e-05,-0.009207238884686672,0.015420841696545737
9.8989898989899,2.8354430379746836,0.0162458552509111,0.014492143182591188,3.6849896724058336e-05,-0.009221399530050686,0.01544399042291503
10.0,2.8354430379746836,0.016398794548727478,0.014644120463235395,-4.688154194561825e-06,-0.009312874503588862,0.01559566830584954
0.0,2.9367088607594938,0.01645034343180506,0.014714229333826916,-4.415007268922401e-05,-0.009349371829689592,0.01565484160647264
0.10101010101010101,2.9367088607594938,0.01624503553715433,0.014641520352220718,-2.119829755040577e-05,-0.009265966766812515,0.015505632121637728
0.20202020202020202,2.9367088607594938,0.016073650085825272,0.014407358593810125,-5.855533417804353e-05,-0.009144302603890618,0.015309005657316733
0.30303030303030304,2.9367088607594938,0.015968396020600146,0.01427152760731012,-7.324917973612186e-06,-0.00907197708837308,0.01519121219744321
0.40404040404040403,2.9367088607594938,0.015786693676606765,0.013995983975150722,7.576299689572425e-05,-0.008934803295527247,0.014972447129590612
0.5050505050505051,2.9367088607594938,0.015626044125617092,0.01403227644844785,6.4461625305469025e-06,-0.008897496172219483,0.01489325991964577
0.6060606060606061,2.9367088607594938,0.015361510292781263,0.013854444574531532,4.6675920923164404e-05,-0.008764786460193838,0.01466638932854093
0.7070707070707071,2.9367088607594938,0.015274019862643073,0.013645377105715138,-5.634034597252815e-06,-0.008675819090507464,0.014528328651385864
0.8080808080808081,2.9367088607594938,0.015015340949505499,0.013630594860294776,9.964597923194572e-05,-0.008593780742940081,0.014374120455423314
0.9090909090909091,2.9367088607594938,0.015027682868801193,0.013552781156622217,-2.4603666249739363e-05,-0.008574139207627023,0.014347266230670935
1.0101010101010102,2.9367088607594938,0.014863531345770998,0.013646785877756364,3.068919581917125e-05,-0.00855309516705821,0.014294150015905489
1.1111111111111112,2.9367088607594938,0.014828181180665414,0.013297505106180328,-1.081555025944347e-05,-0.008437705886053722,0.014125195047809028
1.2121212121212122,2.9367088607594938,0.014677858423388795,0.013200276489595378,-6.533007870189498e-05,-0.008363440473895251,0.013998137086501578
1.3131313131313131,2.9367088607594938,0.014595949482017642,0.013196098828758236,6.024943742011488e-06,-0.008337614493232762,0.013948809361932633
1.4141414141414141,2.9367088607594938,0.014416145618272438,0.013064906065429576,-9.041228783383434e-05,-0.008244315505110605,0.013791155129387264
1.5151515151515151,2.9367088607594938,0.014468838243001946,0.013007633104524793,-2.0982896963833327e-05,-0.008242941404258021,0.01379644086771271
1.6161616161616161,2.9367088607594938,0.014470528917564587,0.013035161012594828,3.175022073280527e-05,-0.008251706979047825,0.013809018054518974
1.7171717171717171,2.9367088607594938,0.014293862861406742,0.012707220576984795,1.4272955209474103e-06,-0.00810032503151746,0.013570287695082213
1.8181818181818181,2.9367088607594938,0.014162941651875888,0.012745522773592692,7.86317680365428e-06,-0.008072539327640574,0.013510120544621744
1.9191919191919191,2.9367088607594938,0.01413464585565224,0.012683613181417143,4.1321270220507814e-05,-0.008045477711120814,0.013468073308874945
2.0202020202020203,2.9367088607594938,0.014148813931914818,0.012421302588522753,-8.37919596384275e-07,-0.007971034956131271,0.013369031253793087
2.121212121212121,2.9367088607594938,0.013998936550336783,0.012565878400888509,0.00013995965621845053,-0.007969444485367587,0.013342464397894872
2.2222222222222223,2.9367088607594938,0.013866663669842504,0.012445196206550865,8.237939723083688e-05,-0.00789355796291801,0.013214169627558963
2.323232323232323,2.9367088607594938,0.013937721413231881,0.012495647862964403,-2.412627277170224e-06,-0.007930010782858885,0.013275558458254639
2.4242424242424243,2.9367088607594938,0.01366993442517649,0.012588448988976651,6.136461286110506e-06,-0.007877515024245942,0.013162560385850992
2.525252525252525,2.9367088607594938,0.013739535141944498,0.012439365128755625,1.770078716081203e-05,-0.007853670081210037,0.013137826165192277
2.6262626262626263,2.9367088607594938,0.01362206388835472,0.012410583285350617,-3.5065297332208636e-05,-0.007809794152111601,0.013058680346094682
2.727272727272727,2.9367088607594938,0.013780382114010427,0.012168098491497603,1.2906417421342103e-05,-0.007784544181652408,0.013049176411559692
2.8282828282828283,2.9367088607594938,0.013610515427283672,0.012297830973079923,6.12925326328113e-05,-0.007772503920109078,0.013004392680214218
2.929292929292929,2.9367088607594938,0.013503000514100465,0.01223122950226221,-2.064062382282741e-05,-0.007720269004908803,0.012914216115186198
3.0303030303030303,2.9367088607594938,0.013494923389140975,0.012225043646590352,-5.575335424781356e-05,-0.007715990110719398,0.012907282723707244
3.131313131313131,2.9367088607594938,0.013447319558011327,0.012241260434441178,2.2260045700746996e-06,-0.007706573997735751,0.012886688260744376
3.2323232323232323,2.9367088607594938,0.013424356981379804,0.01223177289132815,9.769158518421053e-05,-0.007696838961812386,0.012870686600086455
3.3333333333333335,2.9367088607594938,0.013587870354804165,0.012179011204348425,-6.568467709888689e-05,-0.007730064467745777,0.012941586179083048
3.4343434343434343,2.9367088607594938,0.013394552936775123,0.012107670313714932,2.4684235155053165e-05,-0.0076506669751470165,0.012799793974045254
3.5353535353535355,2.9367088607594938,0.013461144594925976,0.012087571493447127,-2.232370264914278e-05,-0.00766461482651193,0.012829682216758263
3.6363636363636362,2.9367088607594938,0.013370288488402849,0.011924426763153502,-0.0001438051542561504,-0.007588414575466905,0.012711631751191782
3.7373737373737375,2.9367088607594938,0.013371930705705058,0.011979671167699237,1.038533422698236e-05,-0.007605480562021288,0.012733029604861374
3.8383838383838382,2.9367088607594938,0.01357431066565887,0.012082794576670195,-5.519523989008287e-05,-0.0076971315726987195,0.012893772414630678
3.9393939393939394,2.9367088607594938,0.013404675154430744,0.011914527574067347,-2.5870262643396775e-05,-0.007595760818549427,0.012725286612552629
4.040404040404041,2.9367088607594938,0.013294908021720517,0.011934798584108211,-2.1582034949706494e-05,-0.007568911981748618,0.012669780758500072
4.141414141414141,2.9367088607594938,0.01335156017157309,0.011946972228471976,3.63936480046518e-05,-0.007589559720013519,0.012707775547250845
4.242424242424242,2.9367088607594938,0.01309890968724694,0.012008503882301853,-0.00011802098746227537,-0.007532224070864638,0.012590833154050168
4.343434343434343,2.9367088607594938,0.012938257465765239,0.0119181539752978,-4.9003405790361936e-05,-0.007456923432318911,0.012459853922965447
4.444444444444445,2.9367088607594938,0.013214422324905483,0.011948724042104425,-7.973520716029639e-05,-0.007548943910102971,0.012629986183246117
4.545454545454545,2.9367088607594938,0.01324318760310299,0.011760989734439328,1.8542921544617576e-05,-0.007501253201262694,0.012567853257141322
4.646464646464646,2.9367088607594938,0.01312954532428179,0.0117959820181225,-5.4242128513038346e-05,-0.007477658202721286,0.012516513023538293
4.747474747474747,2.9367088607594938,0.013158183375249663,0.011933776894591202,-9.451945342593683e-05,-0.007527588080952259,0.01259177500392438
4.848484848484849,2.9367088607594938,0.013344235270711326,0.011833325270339081,1.8403269078455687e-05,-0.0075532681623151215,0.012656640214228323
4.94949494949495,2.9367088607594938,0.013021507371297104,0.011725713768505092,1.2780447467319128e-05,-0.007424166341940659,0.012424413038484275
5.05050505050505,2.9367088607594938,0.013197493877821268,0.012015842201899902,-2.5233974857061433e-05,-0.0075640008239163505,0.012648209946079698
5.151515151515151,2.9367088607594938,0.013287555754997604,0.012113295042737754,6.083568264725158e-05,-0.007620255239320608,0.012741509895546935
5.252525252525253,2.9367088607594938,0.013138713258018587,0.011825143450146507,-6.146226624522235e-06,-0.007489157012449528,0.012533664587616417
5.353535353535354,2.9367088607594938,0.01320184598333281,0.01196349681741512,-2.4074672485587097e-06,-0.007549602840224379,0.012628292380604408
5.454545454545454,2.9367088607594938,0.013263068332259697,0.011820674062318556,-8.94674944704385e-05,-0.007525122718373475,0.012604876927188154
5.555555555555555,2.9367088607594938,0.013436604709530677,0.011939813431040351,3.674879868869074e-05,-0.007612925442171308,0.012754410567815917
5.656565656565657,2.9367088607594938,0.013104421754740561,0.01197255670624353,2.4597808006350937e-05,-0.007523093538295227,0.012576818604307214
5.757575757575758,2.9367088607594938,0.013217914682245181,0.011825492342103417,-4.036170698839773e-05,-0.007513022107304579,0.012579828139881944
5.858585858585858,2.9367088607594938,0.013228448945966679,0.011898858920669745,3.354038745279739e-05,-0.007538192359990927,0.012616442931963052
5.959595959595959,2.9367088607594938,0.01341235204876244,0.01191616853439318,3.839064139984117e-05,-0.007598556174946686,0.0127305472815735
6.0606060606060606,2.9367088607594938,0.01321932516837553,0.011984718829958815,-7.225613689448036e-06,-0.007561213199500303,0.01264730424652293
6.161616161616162,2.9367088607594938,0.013366109011484295,0.012032382572816485,-2.9709676620057403e-05,-0.007619547475290233,0.012751768949600879
6.262626262626262,2.9367088607594938,0.013373916427372722,0.01194161953653949,-5.08678955371066e-06,-0.0075946607891736635,0.012718402953945709
6.363636363636363,2.9367088607594938,0.01324775887164709,0.011950256525744647,-2.592798961912582e-05,-0.00755940461921752,0.01264909664865249
6.4646464646464645,2.9367088607594938,0.013520401001672223,0.0120251165583486,-7.108214140123146e-06,-0.0076636552680062475,0.012838240732565037
6.565656565656566,2.9367088607594938,0.013309001050607252,0.012043492890121292,-4.003941834606547e-06,-0.007605748182218563,0.012723537972062347
6.666666666666667,2.9367088607594938,0.013436400628457034,0.012067189118119302,1.0353145301936636e-05,-0.0076510769239729005,0.012806820416219724
6.767676767676767,2.9367088607594938,0.0134306221300781,0.012148449927640378,2.5061587713911032e-05,-0.007673721617315543,0.012837721380780657
6.8686868686868685,2.9367088607594938,0.013575639643460905,0.012065389333952127,-7.040484566613753e-05,-0.007692308693223909,0.012887633773507146
6.96969696969697,2.9367088607594938,0.013589870148410205,0.012215384427783162,-7.081044583269667e-05,-0.00774157637285801,0.012957999133369702
7.070707070707071,2.9367088607594938,0.013753228453265022,0.012135814061917166,3.8957704883044464e-05,-0.007766712754554657,0.01302026135227482
7.171717171717171,2.9367088607594938,0.013618905196807642,0.01209600287273369,1.5416588198546518e-06,-0.0077144724208624,0.012924919922493857
7.2727272727272725,2.9367088607594938,0.013748246163302592,0.012433501849466115,3.533011588148445e-05,-0.007854524403830611,0.01314043916162501
7.373737373737374,2.9367088607594938,0.013648418703912838,0.012255478764150844,-3.286297556115481e-06,-0.0077711692404191035,0.013008005983435047
7.474747474747475,2.9367088607594938,0.013642678987265905,0.012303666135672742,2.4166347273655167e-05,-0.007783903536881594,0.013024963528134384
7.575757575757575,2.9367088607594938,0.013765172144224982,0.012328983500418346,-0.00011243228789316436,-0.007828246693392998,0.013107674893940947
7.6767676767676765,2.9367088607594938,0.013934711774867032,0.012477468922134994,-7.412338610537485e-05,-0.007923654209100607,0.013266875015268432
7.777777777777778,2.9367088607594938,0.013966602927320349,0.012388098526781754,-3.943177460515243e-05,-0.00790641043623063,0.013248244936033911
7.878787878787879,2.9367088607594938,0.01402114249243349,0.012669408760745664,-2.9022236207446646e-05,-0.008007165375953746,0.01339661511282855
7.979797979797979,2.9367088607594938,0.014048272914465284,0.012670302566130298,1.1687464914215727e-05,-0.008015572644178674,0.013412497173503785
8.080808080808081,2.9367088607594938,0.014093580121147527,0.012702436072298236,2.8921749989413604e-05,-0.00803880485803373,0.013452159368897093
8.181818181818182,2.9367088607594938,0.014220468113543626,0.012823656063134348,2.2840404617516976e-05,-0.008113237253003391,0.013576120252165941
8.282828282828282,2.9367088607594938,0.014003090530918576,0.012696365048638173,5.771002898317544e-06,-0.008009836673867024,0.01339761100305331
8.383838383838384,2.9367088607594938,0.01436461132324559,0.012735494680259264,1.0777620103228374e-05,-0.008130031801051455,0.013623318266814679
8.484848484848484,2.9367088607594938,0.01438175642867223,0.013023431581396789,-2.6474997686011542e-05,-0.008221556403020705,0.013753071294673036
8.585858585858587,2.9367088607594938,0.014407923936955927,0.013345802112859316,1.3809882329820461e-05,-0.008326117814944573,0.013907335353241287
8.686868686868687,2.9367088607594938,0.014560317322671174,0.012974539094740032,9.593597880055272e-05,-0.00826045692522336,0.01383675214994774
8.787878787878787,2.9367088607594938,0.014850196825600938,0.01311891903781538,6.429568466108145e-06,-0.008390734759024895,0.01406470677430615
8.88888888888889,2.9367088607594938,0.014716347734439866,0.01331764597910161,-5.7098460194665694e-05,-0.008410198114062442,0.01406958622474308
8.98989898989899,2.9367088607594938,0.014749453746054691,0.013251394535655775,-6.703195357668582e-05,-0.008400254484513139,0.01406088517912861
9.09090909090909,2.9367088607594938,0.015101687269228193,0.013437878851307535,-5.524587104607451e-05,-0.008561869836160719,0.014342665677779996
9.191919191919192,2.9367088607594938,0.015009061978282855,0.013511301479181203,1.524690674169948e-05,-0.008556109037239218,0.01431907626997846
9.292929292929292,2.9367088607594938,0.01527155908880526,0.013624906254335599,5.1946048083407936e-05,-0.008668939602942257,0.014518716254391082
9.393939393939394,2.9367088607594938,0.015569753625908858,0.013923097024015266,5.000322770401464e-05,-0.008847855194977236,0.014815470606985279
9.494949494949495,2.9367088607594938,0.015529436785230045,0.014031372790141383,6.0251929181200105e-05,-0.008868242872611428,0.01483760099789682
9.595959595959595,2.9367088607594938,0.015655408794919903,0.014191713070143523,5.547196117125859e-05,-0.008954136559519028,0.014977606824972466
9.696969696969697,2.9367088607594938,0.01606650917257739,0.01423130748985155,-4.248768665813593e-05,-0.009089344998728682,0.015232229421535825
9.797979797979798,2.9367088607594938,0.015963391514408554,0.014577468090869083,-2.82173178665022e-05,-0.00916225788158329,0.01531760434305375
9.8989898989899,2.9367088607594938,0.016172201520750686,0.014581701786277095,-1.1935720005400372e-05,-0.009226170992108334,0.015438534146503681
10.0,2.9367088607594938,0.016302372926306447,0.014953806091280844,9.447226076213964e-07,-0.009376853705276186,0.015671667389074037
0.0,3.0379746835443036,0.014375185590315908,0.012900316185150001,4.158013276194357e-06,-0.008182650532639772,0.013697435196590821
0.10101010101010101,3.0379746835443036,0.0142127545591698,0.012763744349764395,-3.567790652526267e-05,-0.008092949672680257,0.013546638513859994
0.20202020202020202,3.0379746835443036,0.014034577691852233,0.012637468802640422,5.631841666678179e-05,-0.008001613948347796,0.013391152537384453
0.30303030303030304,3.0379746835443036,0.013892676565305767,0.012487686959045181,-1.1570482468073359e-05,-0.007914109057305285,0.013246199205534218
0.40404040404040403,3.0379746835443036,0.013770359417680999,0.012331284531224377,-6.74934353486146e-05,-0.007830493184671612,0.013110714042222308
0.5050505050505051,3.0379746835443036,0.013652926551227159,0.012166137372439005,-1.4538828732715226e-05,-0.0077457191770998485,0.012973609989237144
0.6060606060606061,3.0379746835443036,0.013436913892174732,0.012144925339264397,-1.998241005798557e-05,-0.007674551769431738,0.012839811070322383
0.7070707070707071,3.0379746835443036,0.013531872441226929,0.012089325298072823,2.6717980339938034e-06,-0.007686359321789925,0.012871370226582537
0.8080808080808081,3.0379746835443036,0.01339532306526065,0.011944358875449186,-5.537547093778814e-05,-0.00760190458221295,0.012732362009953816
0.9090909090909091,3.0379746835443036,0.01314586342777783,0.011877177628475467,-6.146667602290042e-05,-0.007506912316875988,0.012560121541033434
1.0101010101010102,3.0379746835443036,0.013249323694327748,0.011651724541190761,0.0001229183373760038,-0.007470314470655552,0.01252897122075363
1.1111111111111112,3.0379746835443036,0.013022199395625591,0.011566690267302884,6.0944327865653136e-05,-0.007376666898878542,0.012359344499777797
1.2121212121212122,3.0379746835443036,0.012799303346093544,0.011548247524328661,6.479594860167738e-05,-0.007304265261126661,0.012222408084894469
1.3131313131313131,3.0379746835443036,0.012791237788806463,0.01147292230364896,5.7019603849559835e-06,-0.0072792480277366275,0.012185685478213273
1.4141414141414141,3.0379746835443036,0.012725358988263387,0.011344622290051794,-1.3063245866554721e-05,-0.0072209943834945535,0.012094268766739464
1.5151515151515151,3.0379746835443036,0.012617526885712615,0.011380308568626134,-1.8281376987186124e-05,-0.007199350636301624,0.012046703330069759
1.6161616161616161,3.0379746835443036,0.012535711363389929,0.01143812581985707,6.925910310996486e-05,-0.0071921511549740995,0.012025145666948452
1.7171717171717171,3.0379746835443036,0.012480790047597426,0.011259444792300241,2.930818154566826e-05,-0.0071220704519693,0.011917257555594198
1.8181818181818181,3.0379746835443036,0.012351182892900403,0.011082202764559616,4.808243961385925e-05,-0.007030015697238005,0.011768413636952253
1.9191919191919191,3.0379746835443036,0.012404519632865273,0.01097110512394704,4.645028597018346e-05,-0.007012687427043693,0.011753826566093584
2.0202020202020203,3.0379746835443036,0.012432362464298189,0.011130092014169786,-1.5353408355662924e-05,-0.007068736343540393,0.0118351152798725
2.121212121212121,3.0379746835443036,0.012190318562729799,0.011068447061877904,-0.00010079846033499784,-0.006977629687382311,0.011671202694334623
2.2222222222222223,3.0379746835443036,0.012424976494835373,0.011164227028954083,9.621968316338564e-06,-0.007076761057136836,0.011845042227881799
2.323232323232323,3.0379746835443036,0.012188221545408016,0.010887405648754877,-0.00010884710506027406,-0.006922688158248869,0.011594213089967626
2.4242424242424243,3.0379746835443036,0.012234275377229183,0.010697359450899247,-1.6672261282509333e-05,-0.006879490448438529,0.011542849985553912
2.525252525252525,3.0379746835443036,0.012008748509479987,0.010672174251379585,3.7606510468452094e-05,-0.006804276828257872,0.01139956710276626
2.6262626262626263,3.0379746835443036,0.01186538346402734,0.010856478313006956,2.856169068462689e-05,-0.006816558533110288,0.011394587099452264
2.727272727272727,3.0379746835443036,0.011968247218346172,0.010931200462376089,6.167496783250022e-05,-0.006869834304216678,0.011485390150363047
2.8282828282828283,3.0379746835443036,0.01202913049207951,0.010644467973054305,4.753827428012297e-05,-0.006802079539540145,0.0114003405309135
2.929292929292929,3.0379746835443036,0.011921772870953857,0.010577597538804252,-2.499361790719812e-06,-0.006749811122927432,0.011309754260901179
3.0303030303030303,3.0379746835443036,0.011790307078386934,0.010694232536410024,3.6705975292289314e-05,-0.006745361884439087,0.011282451283271173
3.131313131313131,3.0379746835443036,0.01183160759109432,0.010568648603782257,-8.155806605300663e-06,-0.006720076858462973,0.011253415837126744
3.2323232323232323,3.0379746835443036,0.011740596483782749,0.010654904454406575,-5.868967242192674e-06,-0.006718650281456797,0.01123715997436307
3.3333333333333335,3.0379746835443036,0.011770573618440297,0.010741693629126458,2.4064892612983584e-05,-0.006753680174270026,0.011291422719832252
3.4343434343434343,3.0379746835443036,0.011736119431349416,0.010664574774995151,-4.982164727095555e-06,-0.00672020826190337,0.011238727937820938
3.5353535353535355,3.0379746835443036,0.011542908311649485,0.010713622014166577,-7.424923104406197e-05,-0.006676959097744818,0.011152157244377391
3.6363636363636362,3.0379746835443036,0.01158771382693646,0.010451686828751904,1.730707414768959e-05,-0.00661182019670651,0.011063571391073904
3.7373737373737375,3.0379746835443036,0.011682744024354468,0.010452367939324666,-4.0792009934150736e-05,-0.00664053358910374,0.011118954823108877
3.8383838383838382,3.0379746835443036,0.011575919542536903,0.010611853246033788,5.605385837537762e-05,-0.006656331836571207,0.011125682419630077
3.9393939393939394,3.0379746835443036,0.011694426154051836,0.010445462585733747,-6.757240157437656e-05,-0.006641966621935675,0.01112327734694789
4.040404040404041,3.0379746835443036,0.011697861365030605,0.010565644822175823,1.8880018358194812e-05,-0.006679051856161928,0.011174901879979075
4.141414141414141,3.0379746835443036,0.011623521228525202,0.010476192976015958,-3.7682802863795766e-05,-0.006629914261362348,0.011094632646047773
4.242424242424242,3.0379746835443036,0.011650820239326329,0.01062866395954744,-4.064241249456974e-05,-0.00668384525966213,0.011175079957399196
4.343434343434343,3.0379746835443036,0.01163181512983566,0.010421147343483836,-5.91233887655676e-05,-0.006615888741995849,0.011076690054090588
4.444444444444445,3.0379746835443036,0.011629169036775834,0.010493529792787911,-2.3445081301827084e-05,-0.006636809648869124,0.011105059984564297
4.545454545454545,3.0379746835443036,0.011686538419119291,0.010214036033858795,8.506324093169429e-06,-0.006570172335893425,0.011024300652250293
4.646464646464646,3.0379746835443036,0.0115604291191141,0.0104599786991187,-3.29808593713595e-05,-0.00660612234546984,0.011051520107058926
4.747474747474747,3.0379746835443036,0.011638162115098492,0.010432400919828723,-1.0241543399130855e-05,-0.006621168910478164,0.01108459055997655
4.848484848484849,3.0379746835443036,0.011726923644792626,0.010524285855782481,-6.283747804866054e-06,-0.006675362850172532,0.011174254013344551
4.94949494949495,3.0379746835443036,0.011575133934929786,0.010386282736071966,1.8233416133693093e-05,-0.006588425001300525,0.011028915554192052
5.05050505050505,3.0379746835443036,0.011705521357087753,0.010401499476408442,1.5854127406176542e-05,-0.006632106250048858,0.011111084618172697
5.151515151515151,3.0379746835443036,0.01140489206179045,0.010479554263791482,9.49339315090493e-05,-0.006565333897674579,0.010972760483519113
5.252525252525253,3.0379746835443036,0.011551472414998844,0.01055836571298341,3.895308992806513e-05,-0.006632951438394677,0.01108852935389677
5.353535353535354,3.0379746835443036,0.011607439002070365,0.01028968263347843,-3.5622701763390764e-05,-0.006569136490664639,0.011008049431955283
5.454545454545454,3.0379746835443036,0.011500159239401455,0.01047217616055152,-2.338897322165198e-06,-0.006591700619985892,0.011022180322020233
5.555555555555555,3.0379746835443036,0.011538462036952031,0.010343675886177219,3.538068374887031e-05,-0.006564641376938775,0.010990058273713698
5.656565656565657,3.0379746835443036,0.011700805699887571,0.010510228396634024,5.577010467953466e-05,-0.006663310228956478,0.01115369649753865
5.757575757575758,3.0379746835443036,0.011641076178380984,0.01043291990553317,2.6864801181541245e-05,-0.006622198825174245,0.011086578467476252
5.858585858585858,3.0379746835443036,0.011622733069832159,0.010400657913017303,1.106860096204042e-05,-0.006607017294854838,0.011062454786543698
5.959595959595959,3.0379746835443036,0.011571234916012986,0.010635725205916309,4.245319989838864e-06,-0.006662088036578788,0.011133000823934614
6.0606060606060606,3.0379746835443036,0.011660132309917933,0.010649880419793978,-2.3778843824640806e-05,-0.0066930038189135736,0.01118933956770202
6.161616161616162,3.0379746835443036,0.011622492043251453,0.010702724586980872,-3.4762724862466915e-05,-0.006697564989069698,0.011191154045407067
6.262626262626262,3.0379746835443036,0.01169406935354122,0.01055031501392398,4.927985814794143e-05,-0.00667331531023956,0.011166538182318848
6.363636363636363,3.0379746835443036,0.011660842499813072,0.01056721114160501,-0.00011437019314546687,-0.006668416092425425,0.011156068122569992
6.4646464646464645,3.0379746835443036,0.011745209527787084,0.010448973183100157,-4.2074172865984796e-05,-0.006658254813266172,0.011153964261870937
6.565656565656566,3.0379746835443036,0.0118049083009285,0.010685837862930972,-1.9644724888594463e-05,-0.006747223849157842,0.01128710824265178
6.666666666666667,3.0379746835443036,0.01180442815608047,0.010692813888139807,2.816923912093739e-05,-0.006749172613266083,0.011289845885913282
6.767676767676767,3.0379746835443036,0.01193950012387994,0.01063529330960195,-8.163464736488115e-05,-0.006772438030044567,0.011344647806294045
6.8686868686868685,3.0379746835443036,0.011920505876236278,0.01070834870521363,-0.00010972213810219518,-0.006788656374434971,0.011364610662724747
6.96969696969697,3.0379746835443036,0.011773811665799301,0.01073947533052292,5.1592733674976014e-05,-0.006753986098896666,0.011292581503626695
7.070707070707071,3.0379746835443036,0.011999841666847798,0.010640464391508068,-3.12455479775634e-05,-0.00679209181750676,0.01138133223262304
7.171717171717171,3.0379746835443036,0.012073119505781174,0.010720886277934742,-6.897456371176194e-05,-0.006838201735114775,0.011457632757913186
7.2727272727272725,3.0379746835443036,0.012022579644587977,0.010884624251235774,-5.7225782362699285e-05,-0.006872161168747125,0.011496348498965064
7.373737373737374,3.0379746835443036,0.011942798326851804,0.010845262016672047,-2.8093164771105834e-05,-0.006836418103057155,0.0114337102769339
7.474747474747475,3.0379746835443036,0.012108045215953196,0.010798890795082167,1.9778160293696474e-05,-0.006872080803310609,0.011509496811483794
7.575757575757575,3.0379746835443036,0.012117624485821153,0.011015080856950743,4.431762138522479e-05,-0.006939811602831569,0.011605951409244511
7.6767676767676765,3.0379746835443036,0.01224363070200099,0.011045316760104886,0.00012422588547880337,-0.006986684238631764,0.011692605864928395
7.777777777777778,3.0379746835443036,0.012279067654758157,0.011040783806897032,-2.0076717563553195e-05,-0.006995955438496557,0.011709188163066007
7.878787878787879,3.0379746835443036,0.012271433640557635,0.011014251351101291,9.866145674936705e-06,-0.006985705497497678,0.011693650152406473
7.979797979797979,3.0379746835443036,0.012388922604303102,0.01117216056762461,3.8835568447174684e-05,-0.0070683249515783135,0.011827766782160532
8.080808080808081,3.0379746835443036,0.012531871787524271,0.010994908704302543,4.0149947790270974e-05,-0.007058034147548044,0.011838660303090177
8.181818181818182,3.0379746835443036,0.012308832528216962,0.01104533986991645,4.837157261994028e-05,-0.007006251719440023,0.011728540906725432
8.282828282828282,3.0379746835443036,0.012423110014735434,0.011425996160847164,4.064327079715783e-05,-0.007154731852674779,0.011955985906571999
8.383838383838384,3.0379746835443036,0.012679016777770146,0.011422120597201041,-5.7409298319293e-05,-0.007230341212491356,0.012100038602457255
8.484848484848484,3.0379746835443036,0.012583141971392982,0.011326895146541687,-0.00010479771519956165,-0.007173011135380401,0.01200579166453834
8.585858585858587,3.0379746835443036,0.01278006737585452,0.011220808815508668,-2.48284004375591e-05,-0.007200262857408955,0.012076250630067259
8.686868686868687,3.0379746835443036,0.012881407065736004,0.011368674599873061,4.3402637019576495e-05,-0.00727502449968272,0.01219584093856733
8.787878787878787,3.0379746835443036,0.013000231830027823,0.011635800682339563,2.628335806061501e-05,-0.007390809753710216,0.012374645497949628
8.88888888888889,3.0379746835443036,0.012751099251573828,0.011729494594408833,-1.7522285867797962e-05,-0.007344178153794798,0.012272267390794298
8.98989898989899,3.0379746835443036,0.013022744696809073,0.01167545261046656,4.5548976175409114e-05,-0.00740945919218269,0.012404348377057624
9.09090909090909,3.0379746835443036,0.013275262493788409,0.011943390155294395,-2.5243458084922102e-05,-0.00756559579472484,0.012662047030391064
9.191919191919192,3.0379746835443036,0.013232848774259655,0.011983286635380652,1.3328962750564289e-05,-0.007564840622892092,0.012654444214870239
9.292929292929292,3.0379746835443036,0.013309541333247623,0.012029481026119697,-3.0464972444712688e-05,-0.007601706707810196,0.012718027113832582
9.393939393939394,3.0379746835443036,0.013469385605072845,0.012143840121132645,5.893661915083567e-05,-0.007683967717861646,0.012858365243028181
9.494949494949495,3.0379746835443036,0.013492347174962425,0.012362072678489263,6.44653813931711e-05,-0.007756325956035506,0.012964696840800672
9.595959595959595,3.0379746835443036,0.013852884289333022,0.012369055142132558,1.3215091642326041e-05,-0.007866581829439672,0.013173813514178987
9.696969696969697,3.0379746835443036,0.013918819495825284,0.012712894218754801,2.8603551962737974e-05,-0.007989514114374026,0.013356840575667626
9.797979797979798,3.0379746835443036,0.014082276542837736,0.012625715926700589,-1.767240154162187e-05,-0.008012397740861496,0.013413475649544345
9.8989898989899,3.0379746835443036,0.014200158963917384,0.012900615673355788,-1.5133853405675672e-05,-0.00813023239118195,0.013597069285645958
10.0,3.0379746835443036,0.014301309505826658,0.012796723756156545,-6.108029886908853e-06,-0.008129409978594961,0.01361153177638568
0.0,3.1392405063291138,0.014412080430754386,0.012833294850973129,7.530088983193408e-05,-0.008173612584518253,0.013691751245285044
0.10101010101010101,3.1392405063291138,0.014335002306202159,0.012883854757373546,5.7727724793484526e-05,-0.008165657119072712,0.013667696014282152
0.20202020202020202,3.1392405063291138,0.014178994400106984,0.012728606844702091,-5.6906669832553e-05,-0.008072280373442722,0.01351266755086804
0.30303030303030304,3.1392405063291138,0.014179017568608175,0.012413945067258118,-0.00011770904312857132,-0.007977888790759889,0.013385611394176754
0.40404040404040403,3.1392405063291138,0.01398744608658911,0.012471160306078916,-3.1752888120187185e-05,-0.007937581917800408,0.01329442852191768
0.5050505050505051,3.1392405063291138,0.013628905262769227,0.012305881805677833,-3.7335001864043575e-05,-0.007780436120534118,0.01301807474550386
0.6060606060606061,3.1392405063291138,0.013515755395405222,0.012132504806921865,-1.1813112621590265e-05,-0.007694478060698125,0.012879975471380487
0.7070707070707071,3.1392405063291138,0.013460724965836637,0.011969974195991204,9.905599618450773e-05,-0.007629209748548351,0.01278187406561863
0.8080808080808081,3.1392405063291138,0.013318954619917276,0.01205050844020938,2.535071575043909e-05,-0.007610838918037996,0.01273228411359335
0.9090909090909091,3.1392405063291138,0.013158430521070023,0.01199215558266543,1.5681980863594693e-05,-0.007545175831120635,0.012615818682823845
1.0101010101010102,3.1392405063291138,0.01324145059521597,0.011602277033269508,5.890665231801024e-05,-0.007453118288545643,0.01250313073095268
1.1111111111111112,3.1392405063291138,0.01297361070896473,0.011625940838164381,-7.623213144991013e-05,-0.007379865464138733,0.012355730599768636
1.2121212121212122,3.1392405063291138,0.012973089973487688,0.011412420040873367,0.0001551142958438148,-0.007315653004308316,0.012270379944336524
1.3131313131313131,3.1392405063291138,0.012838811892914241,0.011460743373915628,6.109123920660201e-06,-0.007289866580048961,0.012208255941693977
1.4141414141414141,3.1392405063291138,0.012824615563895794,0.01130850256202708,2.232780872215822e-05,-0.007239935437776861,0.012137845450857014
1.5151515151515151,3.1392405063291138,0.01269207487795445,0.011241158093337944,9.350122246776331e-05,-0.0071799698913877176,0.012033495219064978
1.6161616161616161,3.1392405063291138,0.012517266938454072,0.011230768353588943,1.5925655146653342e-05,-0.007124410587612904,0.011926204966130286
1.7171717171717171,3.1392405063291138,0.0125802913430181,0.01121678432630011,1.7329786080508645e-05,-0.007139122700795464,0.011957025846996833
1.8181818181818181,3.1392405063291138,0.012250087627522641,0.011195594677599957,-9.628655060674312e-05,-0.007033704691536778,0.011759540149331752
1.9191919191919191,3.1392405063291138,0.012384644016187923,0.011013667304558342,-5.5411636023534006e-05,-0.007019493396223879,0.011759640188872027
2.0202020202020203,3.1392405063291138,0.012362134270243864,0.011154696442032298,-5.0897521246552e-05,-0.007055049213682849,0.011805148577727353
2.121212121212121,3.1392405063291138,0.01222898947857308,0.010929653803861362,0.00010732901564657025,-0.006947592984730333,0.011635353588105708
2.2222222222222223,3.1392405063291138,0.012262660975737217,0.011054121506668855,-2.5048622704931196e-05,-0.006995034744721821,0.01170535750712809
2.323232323232323,3.1392405063291138,0.0122112875437074,0.010868203106752591,-9.960791953245675e-05,-0.006923847195137997,0.01159949974083628
2.4242424242424243,3.1392405063291138,0.01206680113322645,0.010988399399630316,2.1809231369005993e-05,-0.006916560159857029,0.01156543157666612
2.525252525252525,3.1392405063291138,0.012262583967828426,0.010900361053548692,7.486550494940488e-06,-0.006948883506413136,0.011641409369672184
2.6262626262626263,3.1392405063291138,0.012107577653535456,0.010961685910607508,4.89521625959723e-05,-0.006920779069242889,0.01157755242724147
2.727272727272727,3.1392405063291138,0.012055262060441291,0.010812299010163444,-0.00010935513099167812,-0.00686026832118142,0.011485901393523667
2.8282828282828283,3.1392405063291138,0.012132399429405635,0.010856968514374855,-4.594343637747617e-05,-0.0068968103831341466,0.011547906088375122
2.929292929292929,3.1392405063291138,0.011821322297938995,0.010689190210755019,9.113916460313862e-05,-0.006753153752608204,0.01129898246259878
3.0303030303030303,3.1392405063291138,0.011828203171908934,0.010884635387905952,0.00018395917339618186,-0.006813851567944466,0.011390238009617689
3.131313131313131,3.1392405063291138,0.011876489086324757,0.010700591493441792,1.3694424971229036e-05,-0.0067731241739299635,0.011334405844589066
3.2323232323232323,3.1392405063291138,0.011693022115339048,0.010540579571947529,9.77589504226047e-06,-0.006670080506185973,0.011161525010654406
3.3333333333333335,3.1392405063291138,0.01173142794490523,0.010483525510181611,5.850873699228518e-05,-0.006664486036526051,0.011160387736757798
3.4343434343434343,3.1392405063291138,0.011676099375590984,0.010678021939578336,-6.423834464301185e-05,-0.006706236394550796,0.011210984950676834
3.5353535353535355,3.1392405063291138,0.011811614672894443,0.010660329474130004,7.177079732008295e-05,-0.006741583244107335,0.011280807364079088
3.6363636363636362,3.1392405063291138,0.01174839433752289,0.010537844338449523,9.27260669416338e-06,-0.006685871602791724,0.011192338450900207
3.7373737373737375,3.1392405063291138,0.011750841062146482,0.010726544123479006,2.3375155042739758e-05,-0.006743215555687646,0.011273718931802696
3.8383838383838382,3.1392405063291138,0.011775289929417477,0.010612443616254508,-8.089334222248127e-05,-0.006716320063701596,0.011239948540250393
3.9393939393939394,3.1392405063291138,0.011579440165055962,0.010536060317663543,6.101886246298252e-05,-0.006634650144815852,0.011095111150163343
4.040404040404041,3.1392405063291138,0.011642714275635412,0.01043967751703145,-1.4089076196627082e-05,-0.006624717537800058,0.011090269402017638
4.141414141414141,3.1392405063291138,0.011682634465668813,0.010480693536243951,5.653331908898098e-05,-0.006648998400573829,0.011130874250343693
4.242424242424242,3.1392405063291138,0.011543014836354752,0.010486925059517649,-4.80466503071676e-05,-0.006608981968761721,0.011053188798184429
4.343434343434343,3.1392405063291138,0.011388307794474938,0.010449962539936445,-6.75393358631587e-05,-0.006551481100323414,0.010949957367401515
4.444444444444445,3.1392405063291138,0.011448631963894828,0.01071568005704121,5.814173392662234e-06,-0.006649293606280811,0.011100324190198655
4.545454545454545,3.1392405063291138,0.01159667055299875,0.010555258148037965,-0.00011805988463570863,-0.0066455786103110145,0.011114504287233812
4.646464646464646,3.1392405063291138,0.01163811663158119,0.010361097138281865,3.1681678158858575e-05,-0.006599764130958917,0.011055199993619555
4.747474747474747,3.1392405063291138,0.011779997199580528,0.010374921845357194,-9.993482811899062e-06,-0.006646475713481316,0.011144105466313415
4.848484848484849,3.1392405063291138,0.011555828626639456,0.010352723593692164,-4.072134019344586e-05,-0.006572565666099485,0.011003941842386218
4.94949494949495,3.1392405063291138,0.0115254419722327,0.010379248776648127,-9.38904648484155e-06,-0.006571407224664248,0.010997247509936806
5.05050505050505,3.1392405063291138,0.011641937219808409,0.010298063105221935,4.7003684958246837e-05,-0.006582000097509103,0.011031864295379706
5.151515151515151,3.1392405063291138,0.011545704312281335,0.0103583541858224,4.1303999832169715e-05,-0.00657121754943112,0.011000427854197106
5.252525252525253,3.1392405063291138,0.011614085611849463,0.010430966582066374,4.085591474728033e-06,-0.006613515658174751,0.011070047859574394
5.353535353535354,3.1392405063291138,0.011592295504106388,0.010363303068877077,2.7417795513306055e-05,-0.00658667957189504,0.011029376645369356
5.454545454545454,3.1392405063291138,0.011672093843114201,0.010340907343850486,3.878200900590513e-05,-0.0066039003560894064,0.011066915133354066
5.555555555555555,3.1392405063291138,0.011481576174420938,0.010475956434361434,1.844605406295222e-05,-0.006587259782634712,0.01101330030614642
5.656565656565657,3.1392405063291138,0.011633569752972108,0.010356587672937123,-6.340894300484626e-06,-0.006597047227772769,0.011050560571728348
5.757575757575758,3.1392405063291138,0.01158166907040374,0.010409263285338638,7.044541302496419e-05,-0.0065972797067227135,0.01104291925312318
5.858585858585858,3.1392405063291138,0.011688705246977557,0.010484361643060812,-3.0333535030203798e-05,-0.0066519200670115105,0.011135610303651643
5.959595959595959,3.1392405063291138,0.011692017771990209,0.010529704857772852,-2.658536957512805e-05,-0.006666516788928918,0.011156459473644614
6.0606060606060606,3.1392405063291138,0.011695452932892435,0.01074845291820784,7.865038507076979e-05,-0.006733171755330082,0.011252705980489231
6.161616161616162,3.1392405063291138,0.011756557653772554,0.010418286487591437,-1.554512379724091e-05,-0.006652453242409197,0.011147864387932858
6.262626262626262,3.1392405063291138,0.01175182176132568,0.010500832395172677,-3.3014473532448145e-06,-0.006675796246949508,0.011178949760443318
6.363636363636363,3.1392405063291138,0.011756255414123666,0.010616455756990564,1.1187240377462331e-05,-0.006711813351334269,0.01122983901012687
6.4646464646464645,3.1392405063291138,0.011843104590153131,0.010680238905413872,-3.540806354557381e-05,-0.006757003048670101,0.011306776914677115
6.565656565656566,3.1392405063291138,0.011669701833607497,0.01042917791082289,5.67018738515923e-05,-0.006629663923329116,0.011101979170375182
6.666666666666667,3.1392405063291138,0.01183833552265028,0.010594907725042584,3.183706139578664e-05,-0.006729972974307859,0.011268328445864183
6.767676767676767,3.1392405063291138,0.011970918723750897,0.010701395619881914,2.6771809286850596e-05,-0.006801694303089843,0.011389441439196428
6.8686868686868685,3.1392405063291138,0.01181866748688099,0.010596030152904584,-6.8934347358350816e-06,-0.0067244092919356725,0.011257261730407812
6.96969696969697,3.1392405063291138,0.01170554352333495,0.010843766517076834,3.612610289856829e-05,-0.0067647930121235355,0.011299502458824115
7.070707070707071,3.1392405063291138,0.01204298011449399,0.010546490180671742,-1.3621489535734127e-05,-0.006776841088549719,0.011368870228852943
7.171717171717171,3.1392405063291138,0.011942397869256683,0.01073236631432246,-2.365783103425027e-06,-0.006802429255073743,0.01138570954130538
7.2727272727272725,3.1392405063291138,0.011959417454865796,0.010686259256704154,4.860175971045829e-06,-0.0067937030134709855,0.011376398293982437
7.373737373737374,3.1392405063291138,0.01201665606844227,0.010743026815784028,1.9661584094792214e-05,-0.0068279048652678895,0.011433221312745736
7.474747474747475,3.1392405063291138,0.01214810700135613,0.010820083584591978,1.9691317377662935e-06,-0.006890457175784432,0.011541541967049016
7.575757575757575,3.1392405063291138,0.012027972639147871,0.011100130035689671,2.8894564903450675e-05,-0.006938430802451263,0.011592042828798289
7.6767676767676765,3.1392405063291138,0.012081070574942726,0.01074987146401042,5.12472245455143e-05,-0.006849282611685944,0.011473880151687597
7.777777777777778,3.1392405063291138,0.01228701641488434,0.010929245841927327,1.3761720382338355e-05,-0.0069648786770435,0.011667558962597925
7.878787878787879,3.1392405063291138,0.012362280452106631,0.011125138145403122,3.4500088192094244e-05,-0.007046225579252926,0.01179263200804614
7.979797979797979,3.1392405063291138,0.012168286894752852,0.011201828429193032,5.525126617788429e-05,-0.007011034597183765,0.01171538570193549
8.080808080808081,3.1392405063291138,0.01227966125574657,0.01131130110377113,-9.440906944796594e-07,-0.00707728870785531,0.01182525559867174
8.181818181818182,3.1392405063291138,0.012402193566783142,0.01117634075091491,-8.07703884207884e-05,-0.007073560295309415,0.011837796587806456
8.282828282828282,3.1392405063291138,0.012577636383332591,0.011251484747037568,-4.533955429267601e-05,-0.0071487363391110476,0.011970042986925727
8.383838383838384,3.1392405063291138,0.01268052789475846,0.011345703810640546,-2.382877973395203e-06,-0.007207869511619701,0.01206860746011562
8.484848484848484,3.1392405063291138,0.012603286940490323,0.011279458045110593,2.8499917007233446e-05,-0.007164823495680275,0.011996383036390654
8.585858585858587,3.1392405063291138,0.012634267009831135,0.011510129674382879,-9.211321326119544e-05,-0.007243319005264204,0.012112439510893525
8.686868686868687,3.1392405063291138,0.012750090834088497,0.011581935665399687,-7.384969406079362e-05,-0.007299607949846455,0.012208672311045462
8.787878787878787,3.1392405063291138,0.012884620179432395,0.011726366985274635,-2.0594003538235832e-05,-0.007383296149412109,0.012346360090756354
8.88888888888889,3.1392405063291138,0.013071371276610618,0.011633587193785693,1.742454779176304e-06,-0.007411487541118893,0.012415078318966261
8.98989898989899,3.1392405063291138,0.013071086278041162,0.011895710817277347,-8.0384749790694e-05,-0.007490039128595552,0.01252560397861206
9.09090909090909,3.1392405063291138,0.013132621538322713,0.011907737850259803,8.525491774940056e-05,-0.007512107816574755,0.012565904655746297
9.191919191919192,3.1392405063291138,0.01318591884452562,0.011986911016823327,-4.154184613434249e-05,-0.007551848958404683,0.012629379747644559
9.292929292929292,3.1392405063291138,0.013488764145171285,0.012004535958340936,-2.5727655597372406e-05,-0.007647990031053667,0.012811372809408755
9.393939393939394,3.1392405063291138,0.013515940762835237,0.012182724683733973,-1.9537775204551494e-05,-0.007709599633970762,0.012901147059189464
9.494949494949495,3.1392405063291138,0.013690504188242336,0.012401737620816164,4.2656237739507164e-05,-0.007827672542717549,0.013093984067824275
9.595959595959595,3.1392405063291138,0.013817825190459066,0.01242078316160038,-3.1154489386364956e-05,-0.007871582505617834,0.013175084390341334
9.696969696969697,3.1392405063291138,0.013760709095403596,0.012699645722736736,4.046526848511928e-05,-0.007938106445442098,0.013262235791899595
9.797979797979798,3.1392405063291138,0.014171933823265202,0.012654963832717199,3.5219479621660106e-06,-0.00804806929679472,0.013477631288088357
9.8989898989899,3.1392405063291138,0.01436080206633103,0.012872371748122174,2.2315541768296934e-05,-0.008169952144335961,0.013677518106783504
10.0,3.1392405063291138,0.01440104126682042,0.013044692267989835,-3.8764473429333805e-05,-0.008233720060443076,0.013773211038974331
0.0,3.240506329113924,0.01465804445037113,0.012808948439218973,3.7440433608227437e-06,-0.00824009786687703,0.013826544532045036
0.10101010101010101,3.240506329113924,0.013974563457382709,0.012703476963002442,-3.194889924349222e-05,-0.008003412126115545,0.013384478623448937
0.20202020202020202,3.240506329113924,0.01414251736376828,0.0128851241195316,-9.210062036599936e-05,-0.008108292444989963,0.013558561020191361
0.30303030303030304,3.240506329113924,0.013860426907956044,0.012721875441127347,9.934786319854762e-06,-0.007974690704725016,0.013327686229290592
0.40404040404040403,3.240506329113924,0.013913263213353127,0.012453345211498306,2.003069799602989e-05,-0.00790998252745543,0.013243837588593916
0.5050505050505051,3.240506329113924,0.013671449276126974,0.012311408999052486,-4.076509466715349e-06,-0.007794857482553838,0.013044713989093529
0.6060606060606061,3.240506329113924,0.013484107121167259,0.012114410317542516,2.390634221564316e-06,-0.007679555231612932,0.012854108016924897
0.7070707070707071,3.240506329113924,0.013345817281189262,0.012013156081688738,7.846685350868005e-05,-0.007607692008863399,0.012732629070642805
0.8080808080808081,3.240506329113924,0.01335724195608824,0.011849338388888807,1.265808222212851e-05,-0.007561974103493113,0.01267078268020812
0.9090909090909091,3.240506329113924,0.013186255282166649,0.011885406829922587,3.303332537680919e-05,-0.007521498633626771,0.012586480401177621
1.0101010101010102,3.240506329113924,0.013160464339623321,0.01173339949691959,5.464182433976208e-05,-0.0074681591509628735,0.012508495389692039
1.1111111111111112,3.240506329113924,0.013013262418830895,0.011679265722243771,4.188869394698069e-05,-0.007407758442322399,0.01240040970602834
1.2121212121212122,3.240506329113924,0.012593268846894715,0.011671833061936662,6.354085773642275e-05,-0.0072795305726494125,0.012159263460944073
1.3131313131313131,3.240506329113924,0.012881752224069594,0.011633196889576664,-4.5159664048543006e-05,-0.007354484734093877,0.01230532277164664
1.4141414141414141,3.240506329113924,0.01251105023760201,0.01146396850361898,-2.677636204514567e-05,-0.007192505622366296,0.012021847484866802
1.5151515151515151,3.240506329113924,0.01260425799114469,0.01140028634020701,-6.342679378043495e-05,-0.00720136329940551,0.01204797770647262
1.6161616161616161,3.240506329113924,0.012515560773295891,0.011381421024923665,-3.509427175026566e-06,-0.007169094539465867,0.011988793785905854
1.7171717171717171,3.240506329113924,0.012496950877448825,0.011248341136139034,-1.5421783624960226e-05,-0.007123587604076358,0.011921816405709352
1.8181818181818181,3.240506329113924,0.01236397181717585,0.011211896090045208,-1.2773921845121147e-05,-0.007072760372166316,0.011830102927477196
1.9191919191919191,3.240506329113924,0.01238590827016131,0.01122786581681355,-0.000105574844099399,-0.007084132226092457,0.011850815016006617
2.0202020202020203,3.240506329113924,0.012210499854548744,0.011190637378818124,-2.5292164456697542e-05,-0.007020341170010061,0.01173393858158967
2.121212121212121,3.240506329113924,0.01241076528753898,0.011277293476517824,3.755556820723441e-06,-0.00710641762921704,0.011884638954329152
2.2222222222222223,3.240506329113924,0.012026383937887483,0.01089361096800308,3.7585807791803364e-05,-0.006875998471767169,0.01150209375076251
2.323232323232323,3.240506329113924,0.012238120987301846,0.010944241950904463,3.406010059461082e-05,-0.006954708881461893,0.011645366475197736
2.4242424242424243,3.240506329113924,0.01211926659300698,0.010861335754094417,-1.618401129270674e-05,-0.0068941807041304195,0.011541862905189118
2.525252525252525,3.240506329113924,0.012060530133547869,0.011038537575516804,-5.2827676419534975e-05,-0.006929720312719402,0.011583758290756906
2.6262626262626263,3.240506329113924,0.01207137258321978,0.010706500369813172,-6.387299940217959e-06,-0.006833361885909886,0.011450115876187725
2.727272727272727,3.240506329113924,0.012046822406018136,0.01084500666666701,-1.8226178572615097e-05,-0.0068675487218055435,0.011493181759527186
2.8282828282828283,3.240506329113924,0.011911781289802857,0.010609772966610437,1.6883852155066072e-05,-0.006756466276923987,0.011317127549859085
2.929292929292929,3.240506329113924,0.01180663583046276,0.010695874560615336,-1.4447795830894251e-05,-0.006750753117323429,0.01129232981454679
3.0303030303030303,3.240506329113924,0.011996449560147912,0.010602543612296726,7.00559761982995e-05,-0.006779697951733392,0.011364443539612678
3.131313131313131,3.240506329113924,0.011894586913031559,0.010642932377155695,5.723303008021939e-06,-0.006761255787056176,0.011320778308728007
3.2323232323232323,3.240506329113924,0.011838871369080791,0.010607208171012518,-1.3365959751338358e-05,-0.006733823862027993,0.011273637536385312
3.3333333333333335,3.240506329113924,0.012016112117131935,0.010662164459440992,-4.5592613232868266e-05,-0.006803482972971877,0.011399876046468811
3.4343434343434343,3.240506329113924,0.011832866884276488,0.010685280881263838,-1.6813134309098006e-05,-0.006755444329662098,0.011302889363692187
3.5353535353535355,3.240506329113924,0.011636401014511053,0.010552914863197012,7.333402809781415e-05,-0.00665679476331242,0.011134991023762657
3.6363636363636362,3.240506329113924,0.011766317051617903,0.010396359421355673,-0.00010087660017282072,-0.006648802941892073,0.011146038458050764
3.7373737373737375,3.240506329113924,0.011670427832017534,0.010450515726190693,8.896929164457303e-05,-0.006636283067462468,0.011111882007130156
3.8383838383838382,3.240506329113924,0.011756878805084988,0.010564002100645807,-2.209786502792037e-06,-0.006696264271719239,0.011208151581568607
3.9393939393939394,3.240506329113924,0.011665289557774806,0.01048400304302516,-0.0001283186713952717,-0.00664478778023999,0.0111240175339531
4.040404040404041,3.240506329113924,0.0117764171694981,0.010609441037864412,-7.674438752191927e-05,-0.006715757462208753,0.011239248462060767
4.141414141414141,3.240506329113924,0.011559390759709291,0.010491246960026497,-9.224769380949e-06,-0.006615191315920737,0.011064068403325682
4.242424242424242,3.240506329113924,0.01166430788155446,0.010692161604928939,-6.813947822239677e-05,-0.0067069408459450195,0.011210515698568943
4.343434343434343,3.240506329113924,0.01173275809234298,0.01053212948633385,7.677301427291326e-06,-0.006679466273603048,0.011180903958662137
4.444444444444445,3.240506329113924,0.011698901873654298,0.010394871999914524,5.1618387905812526e-05,-0.006628132162070646,0.011104822141831555
4.545454545454545,3.240506329113924,0.011605967900377302,0.010289429758711435,-5.236596967332912e-05,-0.0065686192977266215,0.011007283532079673
4.646464646464646,3.240506329113924,0.01154228620808325,0.010377612505779085,-3.904605906894151e-05,-0.006575969614158701,0.011006471383477611
4.747474747474747,3.240506329113924,0.01165955437189717,0.010231406656468892,-1.6341336119281952e-05,-0.006567288308509818,0.01101517359041478
4.848484848484849,3.240506329113924,0.011645286241326557,0.010599618291108186,-2.9330594534034267e-05,-0.006673471359730424,0.011159372355208717
4.94949494949495,3.240506329113924,0.011714280847778346,0.010676450942436416,-6.595357678941239e-05,-0.0067172195370644285,0.01123196711767462
5.05050505050505,3.240506329113924,0.011536064968567216,0.010227768239071285,-7.597696413375069e-05,-0.00652914996229155,0.010941533563400578
5.151515151515151,3.240506329113924,0.011427386960781756,0.010575529351397236,-0.00011308923800309557,-0.0066008748936536975,0.011027905291914879
5.252525252525253,3.240506329113924,0.011865264092753878,0.010569553177508989,2.2236002789713893e-05,-0.00673044518107886,0.011273459535071521
5.353535353535354,3.240506329113924,0.01144724266437363,0.010316750779351208,1.2613079854578988e-05,-0.006529198033117451,0.010925970842472118
5.454545454545454,3.240506329113924,0.011575828883792305,0.010296409107770747,-7.777044604875217e-05,-0.006561671397468914,0.010992930893951152
5.555555555555555,3.240506329113924,0.011661398161910808,0.010645578017571962,-2.9660072140728647e-05,-0.00669209285384483,0.011188246227710336
5.656565656565657,3.240506329113924,0.011565720715295623,0.010520393809642729,-1.512531480991354e-05,-0.006625834357481506,0.011080132277296102
5.757575757575758,3.240506329113924,0.011559146563874512,0.010329180719966176,-2.9174335419030013e-05,-0.006566498185152206,0.010995993962782922
5.858585858585858,3.240506329113924,0.011689270362254657,0.010604663976249871,-2.356137169655636e-05,-0.006688180301551358,0.011186546417304951
5.959595959595959,3.240506329113924,0.011789813595210828,0.010497355587805787,-5.1351389677421146e-05,-0.006686150754904984,0.011200010009792217
6.0606060606060606,3.240506329113924,0.01156487668437443,0.010280645809712129,7.938618619964769e-05,-0.006553656748225968,0.010980098199204112
6.161616161616162,3.240506329113924,0.011753040535736222,0.010535459592771561,4.975740217064424e-05,-0.006686550038552335,0.011194356364094287
6.262626262626262,3.240506329113924,0.011601468430953244,0.010470255762321927,-4.8868534425430864e-05,-0.0066215172579825515,0.011079582491828237
6.363636363636363,3.240506329113924,0.011642506149020264,0.010558487833677304,3.108224416266904e-06,-0.0066602981948092705,0.011140124964250615
6.4646464646464645,3.240506329113924,0.011577036949731974,0.010663670295446522,-4.0266693664289654e-05,-0.006672212173553548,0.011148668435968496
6.565656565656566,3.240506329113924,0.012016763962109754,0.010613858516230684,-6.43155598625455e-05,-0.006789186743502131,0.011380895644920529
6.666666666666667,3.240506329113924,0.011697666979717903,0.010657206467870342,1.1493013482858891e-05,-0.006706462034276473,0.011213715108742233
6.767676767676767,3.240506329113924,0.01192604060220907,0.010604501986240742,-1.3331333994521861e-06,-0.006759162776534943,0.01132325884625726
6.8686868686868685,3.240506329113924,0.011797557513076276,0.010555112718768982,7.388071391834097e-05,-0.006705801069553576,0.011228739622203754
6.96969696969697,3.240506329113924,0.012061147076480904,0.010689887493811319,-7.111086504116648e-05,-0.006825310371087667,0.011437999318164695
7.070707070707071,3.240506329113924,0.011864003194852845,0.010571263204707795,1.221903100032405e-05,-0.006730579919868192,0.011273381259877608
7.171717171717171,3.240506329113924,0.012241770295522241,0.0107267993445199,5.608329761880719e-06,-0.006890570892012642,0.011558989788222855
7.2727272727272725,3.240506329113924,0.011812930204151592,0.010899797857416254,1.914346202552712e-05,-0.006813818418470354,0.011383912395485512
7.373737373737374,3.240506329113924,0.011904746164566174,0.010832404393301397,-2.853177267811671e-05,-0.00682114516736027,0.01140655003560412
7.474747474747475,3.240506329113924,0.012002579045602976,0.010822623414819862,3.897991370893684e-05,-0.006847560738126851,0.011458457427106149
7.575757575757575,3.240506329113924,0.012148704371477755,0.01102718665387198,1.1026821493608215e-05,-0.00695276730760492,0.011628593959300328
7.6767676767676765,3.240506329113924,0.012100179622125068,0.011062102952120068,-1.4341371010966505e-05,-0.006948684772273541,0.011616008476093193
7.777777777777778,3.240506329113924,0.012238833596408696,0.010961039091218995,2.0577635795425574e-05,-0.006959961806288307,0.011652654744560908
7.878787878787879,3.240506329113924,0.012245889961075436,0.010861963840532366,2.9511960930257927e-05,-0.006932356140482341,0.011616035396251808
7.979797979797979,3.240506329113924,0.01230502962101034,0.011320769044510333,-9.552840691512586e-06,-0.0070877395996562014,0.01184362449075723
8.080808080808081,3.240506329113924,0.012413975637744896,0.011285257266570212,6.932305696976881e-05,-0.007109769871294532,0.011890472277962567
8.181818181818182,3.240506329113924,0.012376395678925596,0.011265402533311748,8.589260111199095e-06,-0.007092539463671203,0.011860000266880505
8.282828282828282,3.240506329113924,0.01253922381904721,0.01122962914597508,-1.3001198325942923e-06,-0.007130655889506687,0.01193842018631239
8.383838383838384,3.240506329113924,0.012547174908685108,0.011210803049346152,-2.891084460834514e-05,-0.007127393387409377,0.011935338452855349
8.484848484848484,3.240506329113924,0.012665520273005226,0.01141140558675872,-1.1192998158457637e-07,-0.0072230777579291834,0.012087356720409214
8.585858585858587,3.240506329113924,0.01281353341377277,0.011349794124482882,5.490210034350192e-05,-0.007248998261476696,0.01214835551349978
8.686868686868687,3.240506329113924,0.012945555951968068,0.011448020646982512,9.29518935377949e-05,-0.007318072979685173,0.01226660197357087
8.787878787878787,3.240506329113924,0.012807732854903772,0.011482217911381836,1.3559319898259487e-05,-0.007286985229885683,0.012199127879555079
8.88888888888889,3.240506329113924,0.01296841231469992,0.011702042606383299,-8.093509018720357e-06,-0.007401136476324965,0.012383892853080204
8.98989898989899,3.240506329113924,0.013224283520928302,0.011736802941712409,4.693222224376498e-05,-0.007488325938792213,0.012547111863073068
9.09090909090909,3.240506329113924,0.013307618504319378,0.01182380368918217,2.057869909073807e-05,-0.007539426658050464,0.012631296276304733
9.191919191919192,3.240506329113924,0.013294896664923958,0.011941351567101776,-2.966412975770898e-05,-0.00757087446960772,0.012672559304961533
9.292929292929292,3.240506329113924,0.013494485853308723,0.011919919138935262,4.6646126667313215e-05,-0.007624321497673194,0.012780413456315011
9.393939393939394,3.240506329113924,0.013607769481745679,0.012182801935425367,-3.3636022515724604e-05,-0.007737171425151314,0.012954330821510296
9.494949494949495,3.240506329113924,0.013691277603163507,0.012204307707378882,-8.830279914571111e-05,-0.007768675593162716,0.01301257224380072
9.595959595959595,3.240506329113924,0.0139299743383666,0.01240965311050978,3.87406701195938e-05,-0.007901888234662913,0.013235634798976152
9.696969696969697,3.240506329113924,0.014087457136755127,0.01234074970575507,-1.8087850146752354e-05,-0.007928462052753058,0.01330044175490903
9.797979797979798,3.240506329113924,0.014106453969259638,0.012678747975107067,-1.858585171496703e-05,-0.00803556058331001,0.01344959313161862
9.8989898989899,3.240506329113924,0.014196518824967811,0.012715008907575535,8.824636045487299e-05,-0.008073458319763003,0.013517658717831343
10.0,3.240506329113924,0.014257537148666356,0.012968007608427836,6.891154613482053e-05,-0.008167663427128257,0.013659025699517066
0.0,3.3417721518987342,0.01438279752022949,0.01302108161418802,0.00013059513321868384,-0.008221163740325253,0.01375445439944736
0.10101010101010101,3.3417721518987342,0.014411412670157251,0.012807274461264891,-1.745946632975422e-05,-0.008165606139426643,0.013680098367094301
0.20202020202020202,3.3417721518987342,0.01390896134190651,0.01256058299126525,4.26287800124342e-05,-0.007940863299951527,0.013286393004591234
0.30303030303030304,3.3417721518987342,0.013721696734369331,0.012705811603649786,3.8550672794274796e-05,-0.007928252501405735,0.013243178419520328
0.40404040404040403,3.3417721518987342,0.013879582874533253,0.012400702102716179,-1.755573084425119e-05,-0.00788408549317483,0.013202446193238382
0.5050505050505051,3.3417721518987342,0.013846186126848662,0.01242129464648492,1.554213389086313e-05,-0.007880244232000073,0.013191610895423266
0.6060606060606061,3.3417721518987342,0.01366149368691926,0.012195712775188135,-2.6166733880433196e-05,-0.007757161938632218,0.012990851429401942
0.7070707070707071,3.3417721518987342,0.013485264634654682,0.012089929947595703,-2.069828041999334e-05,-0.007672558374675114,0.012844615560736409
0.8080808080808081,3.3417721518987342,0.013367180130623525,0.011779742643921112,9.29082451236755e-06,-0.007544076832363391,0.012648405375624604
0.9090909090909091,3.3417721518987342,0.013129706779662112,0.011931809120035093,-3.2046000012179464e-05,-0.0075184547699091615,0.012573750225698347
1.0101010101010102,3.3417721518987342,0.013079342916070106,0.011575252813657516,1.2131767315194744e-05,-0.0073963787189182855,0.012395944073185478
1.1111111111111112,3.3417721518987342,0.012851204788686961,0.011751933519080665,3.3460031030177615e-05,-0.007380941492330288,0.012338486955942033
1.2121212121212122,3.3417721518987342,0.012992596967640126,0.011600748089900269,-5.438747644930517e-06,-0.007378003517262118,0.012355613157330103
1.3131313131313131,3.3417721518987342,0.012797389998474393,0.011441165902365335,-9.427948942573842e-06,-0.007271566770251918,0.01217606966748084
1.4141414141414141,3.3417721518987342,0.01269847989895704,0.011501566845881113,-5.547679758163763e-05,-0.007260014023451445,0.012144721045819262
1.5151515151515151,3.3417721518987342,0.01248091478574288,0.011465766637568186,-1.895493839698344e-06,-0.007184004426993319,0.012005573409801608
1.6161616161616161,3.3417721518987342,0.012698081726599067,0.011248816432971154,7.933669811139027e-06,-0.007184069447871065,0.012039059311841719
1.7171717171717171,3.3417721518987342,0.012551009559013844,0.011188307922781445,9.276189986423992e-06,-0.007121795244538586,0.011928192385290937
1.8181818181818181,3.3417721518987342,0.012425806535190126,0.011192595953695527,-8.499367014602972e-05,-0.007085520746665695,0.011858309831395762
1.9191919191919191,3.3417721518987342,0.012423665932204023,0.011313726411383097,-0.0001590195912051686,-0.0071212177030761355,0.011910742412394721
2.0202020202020203,3.3417721518987342,0.012170762388302392,0.011079887689840253,3.716540894069238e-05,-0.006975195023442793,0.011663825777708291
2.121212121212121,3.3417721518987342,0.012352501792939263,0.01105850860940525,3.2447279431513566e-06,-0.007023303120703354,0.011759026208352603
2.2222222222222223,3.3417721518987342,0.012054361783049554,0.010869462994618368,1.1365954335790945e-05,-0.006877147433300377,0.01150777180944159
2.323232323232323,3.3417721518987342,0.012316982413239384,0.011031474315673502,7.37155422943617e-05,-0.007004537018673865,0.011727885919921256
2.4242424242424243,3.3417721518987342,0.012247313171135385,0.010590382075178748,-5.918128746171473e-06,-0.00685130857389424,0.011508659852744992
2.525252525252525,3.3417721518987342,0.011894018133284969,0.0108952640154611,1.4522568958138447e-05,-0.006836784644623821,0.011427449858551954
2.6262626262626263,3.3417721518987342,0.011967102036117805,0.010997385369381652,-3.216933197931687e-05,-0.0068893462216498376,0.011513048590942591
2.727272727272727,3.3417721518987342,0.011940216031605782,0.01084235891778643,5.1956529781258944e-05,-0.006834772484817663,0.011431250870132362
2.8282828282828283,3.3417721518987342,0.011885128976467933,0.010627619070894958,7.933636845032188e-05,-0.006753824414208867,0.011309767341154622
2.929292929292929,3.3417721518987342,0.012022973379335831,0.01084217125882832,6.506319502933378e-06,-0.006859543391449245,0.011478220988614413
3.0303030303030303,3.3417721518987342,0.011918955523292078,0.010653664671953503,-3.680929722092507e-05,-0.006771786058573675,0.011339558240806766
3.131313131313131,3.3417721518987342,0.011854947773194185,0.010657616468306083,-4.707414130234594e-05,-0.0067537692724500805,0.01130423534771397
3.2323232323232323,3.3417721518987342,0.01193708162223129,0.010708227757093168,2.9433342935024845e-06,-0.006793592813797337,0.01137255892828782
3.3333333333333335,3.3417721518987342,0.011805022855528167,0.01058843167259927,2.4155223876256568e-05,-0.0067180363584382315,0.011246267044230037
3.4343434343434343,3.3417721518987342,0.011824670831920221,0.01064907456248668,8.631593049084388e-07,-0.00674212361832207,0.011282899901612964
3.5353535353535355,3.3417721518987342,0.011755343398175662,0.01048165029654747,0.00010810412310142557,-0.006671098108416939,0.011174647745541472
3.6363636363636362,3.3417721518987342,0.011801082014005489,0.010615587120398446,-5.8379256663813966e-05,-0.0067250007403211794,0.011255711296503506
3.7373737373737375,3.3417721518987342,0.011753226383609216,0.010504550340981836,0.0001274689289553508,-0.006677333017377316,0.011183483136239689
3.8383838383838382,3.3417721518987342,0.011438836420497443,0.010384222951977197,4.689865814759804e-05,-0.006546917811742392,0.01094998793250635
3.9393939393939394,3.3417721518987342,0.011605250735639982,0.010615588960351837,6.089765703123279e-06,-0.006666251908797546,0.01114343363943898
4.040404040404041,3.3417721518987342,0.011683076114983253,0.010590071789449635,3.824607274155052e-05,-0.006681944371329867,0.011176925405546583
4.141414141414141,3.3417721518987342,0.011623319309126759,0.01050747586212383,3.331902733043719e-05,-0.006639238551375176,0.01110766330734657
4.242424242424242,3.3417721518987342,0.011494735751746584,0.010511436441882653,-2.9756054443290392e-05,-0.006601851658088771,0.011036109734495548
4.343434343434343,3.3417721518987342,0.011731754378439712,0.010544864825060753,1.7193111966772537e-05,-0.006682985761050139,0.011185676452619161
4.444444444444445,3.3417721518987342,0.011649557931126356,0.010431542385004175,-2.8253976904218627e-05,-0.006624330094839159,0.011090933867683736
4.545454545454545,3.3417721518987342,0.01152252710668625,0.01053240087508945,-3.910032340544573e-05,-0.006616478394532709,0.011060958866304106
4.646464646464646,3.3417721518987342,0.011567209745612001,0.010510402057754442,3.6445110527197055e-05,-0.006623283541009933,0.011076861123085206
4.747474747474747,3.3417721518987342,0.011760152649398952,0.0105202011973579,7.061653055438416e-05,-0.006684106154027056,0.011192480139356954
4.848484848484849,3.3417721518987342,0.011637934638066096,0.010320623590300216,9.510324224871684e-05,-0.006587567468509893,0.011039618881312056
4.94949494949495,3.3417721518987342,0.011704893088023489,0.010347117358850825,4.878307571910046e-06,-0.006615603134062294,0.011088531407673676
5.05050505050505,3.3417721518987342,0.011392008059895419,0.010455138966747816,-4.093060566349064e-05,-0.00655414410799297,0.010953893235633297
5.151515151515151,3.3417721518987342,0.011553119944858069,0.010410152725383787,2.5298905107246863e-05,-0.006588981801072556,0.011026243115823344
5.252525252525253,3.3417721518987342,0.01162723000092323,0.010366905386335,9.139458381698428e-05,-0.006598240616177469,0.011052233727564628
5.353535353535354,3.3417721518987342,0.011504423775840331,0.010384206604029852,-8.84301800473479e-05,-0.006566589113961054,0.010988296480842145
5.454545454545454,3.3417721518987342,0.011668910700377814,0.010517654989763602,-2.413295632939895e-05,-0.006655969707042424,0.011138074957680077
5.555555555555555,3.3417721518987342,0.01164139385923081,0.010522941124714765,-3.8316328878357894e-05,-0.006649300495183672,0.011124614291418124
5.656565656565657,3.3417721518987342,0.011495109232388973,0.010475976791030123,5.1436582219007814e-05,-0.006591325807025728,0.011021300541581477
5.757575757575758,3.3417721518987342,0.011661009003296762,0.010534346697082846,6.012310814959483e-05,-0.006658606710113883,0.011140975001999445
5.858585858585858,3.3417721518987342,0.011533317162323378,0.010191089806958634,-0.00010128759532439596,-0.006517322090784603,0.010925631458994216
5.959595959595959,3.3417721518987342,0.011741214057250265,0.01032040700441588,1.9590612938556643e-06,-0.0066184863184998435,0.011099225738399018
6.0606060606060606,3.3417721518987342,0.011640265738759833,0.010591702573041012,3.570414799548058e-05,-0.006669590493540254,0.011153185269112952
6.161616161616162,3.3417721518987342,0.011647607192178127,0.01062628406027503,8.206627459863141e-05,-0.006682167375735947,0.011172917622833662
6.262626262626262,3.3417721518987342,0.011761717690104267,0.010697386046381667,3.180240129460363e-05,-0.006737731120945781,0.011267451829300864
6.363636363636363,3.3417721518987342,0.011708380111588146,0.010548787219283248,-2.489353914218066e-05,-0.006677150199261418,0.011173885860361575
6.4646464646464645,3.3417721518987342,0.01180459312109093,0.010550034568226164,1.0350380001972876e-05,-0.006706388306795127,0.011230009084814615
6.565656565656566,3.3417721518987342,0.01185069047941311,0.010604170702547199,-1.031873843548874e-05,-0.006736458354588092,0.011279223190005332
6.666666666666667,3.3417721518987342,0.011905222728086164,0.010937415656009768,1.3116251866200016e-05,-0.00685279151522878,0.011452053793595412
6.767676767676767,3.3417721518987342,0.01183286579244695,0.010846357556452768,3.849651004070103e-06,-0.006803767004669916,0.011371751679557613
6.8686868686868685,3.3417721518987342,0.01181119884460622,0.010761744304093811,-4.442497565492025e-05,-0.006771882944610009,0.011323267084125867
6.96969696969697,3.3417721518987342,0.012047038143511931,0.010814459992893597,-2.5406547190358752e-05,-0.006858449440921658,0.011480566075380387
7.070707070707071,3.3417721518987342,0.011942481144833816,0.010587002535413245,1.8854319514173248e-06,-0.0067588451040741186,0.011325741083242108
7.171717171717171,3.3417721518987342,0.012066701242269487,0.010617200850265872,-4.2661278152884315e-05,-0.0068051706277606075,0.0114114460972178
7.2727272727272725,3.3417721518987342,0.011773842162642023,0.010900044397070768,1.9994069811284214e-05,-0.006802165967913837,0.011362223555295061
7.373737373737374,3.3417721518987342,0.01210312834778915,0.010778009511216212,3.443034350782185e-06,-0.006864341357701608,0.011497982777097862
7.474747474747475,3.3417721518987342,0.012120364893331917,0.0108794119321773,5.4114152672631934e-06,-0.006899933047652765,0.011549999763848573
7.575757575757575,3.3417721518987342,0.012110844321115045,0.010936673508691966,1.0264004899717966e-05,-0.006914255348942103,0.011568549753567534
7.6767676767676765,3.3417721518987342,0.012260841607823538,0.011156502809689708,8.694312583662924e-05,-0.007025203325253974,0.011748632062895583
7.777777777777778,3.3417721518987342,0.011959959860295103,0.010921703393051688,-5.3359654930659986e-05,-0.006864498976004037,0.011476482581219857
7.878787878787879,3.3417721518987342,0.012151340724818086,0.011024248621005763,-4.069638579772367e-06,-0.006952676803747154,0.01162883431498177
7.979797979797979,3.3417721518987342,0.012262361159026153,0.011263764857958335,-7.552975782619768e-05,-0.007057837805095346,0.011795535659904988
8.080808080808081,3.3417721518987342,0.012340313378067772,0.01102472195640653,-8.314464698529749e-05,-0.007009510600342291,0.011738826335449239
8.181818181818182,3.3417721518987342,0.012416009834149878,0.011302522331181552,1.629344080284786e-05,-0.0071155596495994285,0.01189844020292387
8.282828282828282,3.3417721518987342,0.012655053290761333,0.011285986304000895,-4.709282104750406e-05,-0.007182311878428669,0.01202937054594104
8.383838383838384,3.3417721518987342,0.012553611815038373,0.011290630846892438,-7.719472533873433e-06,-0.007153272798579243,0.011972196811590306
8.484848484848484,3.3417721518987342,0.012662855820525376,0.011327349302157617,-6.090974308799643e-06,-0.007197061536804898,0.012050737736854847
8.585858585858587,3.3417721518987342,0.012849402273063353,0.01146102576889989,-2.888362567019295e-06,-0.007293128412588972,0.01221453826027689
8.686868686868687,3.3417721518987342,0.012606764090070612,0.011637438597766003,-4.4364212438752635e-05,-0.0072732608063509835,0.012151376032153135
8.787878787878787,3.3417721518987342,0.012980906086131587,0.011662164771399608,2.1822668363761253e-05,-0.007392921257259358,0.012374407985850277
8.88888888888889,3.3417721518987342,0.012968000723549304,0.011646079676634627,-3.0445489373187543e-05,-0.007384224120055179,0.012360284208336644
8.98989898989899,3.3417721518987342,0.0130790797279706,0.011637287270583658,-3.569651431617733e-05,-0.0074149100995662765,0.012421255823902907
9.09090909090909,3.3417721518987342,0.013208880543345366,0.011838344800770619,-5.219879741255659e-06,-0.007514167603234795,0.012579734983989975
9.191919191919192,3.3417721518987342,0.013155901268478468,0.012004923199423851,4.346709116976845e-06,-0.007548247340370695,0.012619841185386288
9.292929292929292,3.3417721518987342,0.013424289593535496,0.01202698339946266,-6.492268596035197e-06,-0.007635381897899447,0.012783047333858998
9.393939393939394,3.3417721518987342,0.013499623567686928,0.01220617745212909,1.9756077861931697e-05,-0.007711740305944805,0.012901665573321133
9.494949494949495,3.3417721518987342,0.0136624051598348,0.012333978463044043,-1.2376901494104982e-05,-0.007798915086863653,0.013049022493911275
9.595959595959595,3.3417721518987342,0.013879456038090725,0.012461672862409205,-9.40655015810057e-06,-0.007902338670149979,0.013227683668642819
9.696969696969697,3.3417721518987342,0.014037393651109571,0.012449461370680094,-8.573069857157432e-05,-0.0079460565065369,0.013315463498871576
9.797979797979798,3.3417721518987342,0.014225193870551824,0.012500453597295916,-1.7360890230294124e-05,-0.00801769424035432,0.013446077833446115
9.8989898989899,3.3417721518987342,0.014175994559727395,0.012718275976869971,-1.5870778083660199e-06,-0.008068281160979211,0.013506263809080439
10.0,3.3417721518987342,0.014288271313744303,0.012992005941342116,-3.8990929723967584e-05,-0.008184083176525926,0.0136864228559973
0.0,3.4430379746835444,0.01440807283712491,0.01294934550591763,-4.2659395943702466e-05,-0.008207225502912762,0.013737119717806761
0.10101010101010101,3.4430379746835444,0.014252712368135882,0.012779713163841053,0.00012237285220793992,-0.00810972765959308,0.013577931649269416
0.20202020202020202,3.4430379746835444,0.01416021028049024,0.012565744413626434,1.33397577302774e-05,-0.008017786408235002,0.013434151944795341
0.30303030303030304,3.4430379746835444,0.01390531251850253,0.012516019370581478,-1.0782898928095272e-05,-0.007926399566725202,0.013265355068717727
0.40404040404040403,3.4430379746835444,0.013765820211955876,0.01235812928507308,-7.709600158331716e-05,-0.007837184849108687,0.013119421138923447
0.5050505050505051,3.4430379746835444,0.013635225144771742,0.012289572386627168,-6.947849946792801e-05,-0.007777439259419673,0.013015235286225075
0.6060606060606061,3.4430379746835444,0.013545450870494241,0.012144140521445248,0.00011844570999127151,-0.007706877417581847,0.01290362808091634
0.7070707070707071,3.4430379746835444,0.013481982891090236,0.012132289789517995,-5.767307065287831e-05,-0.007684281804182468,0.01286075322015385
0.8080808080808081,3.4430379746835444,0.013203788061945288,0.012080763748245623,4.898907544150755e-05,-0.007585365543057273,0.012679914335513682
0.9090909090909091,3.4430379746835444,0.013299715929538814,0.011923877997190286,6.334073277063265e-05,-0.00756707817801873,0.012668431485487137
1.0101010101010102,3.4430379746835444,0.013016138220031667,0.011769572682142274,-4.870556826399772e-05,-0.007435713270652182,0.0124400734386444
1.1111111111111112,3.4430379746835444,0.013061860079902647,0.01173214721410783,2.89753952892313e-05,-0.007438202188203142,0.012450474704747323
1.2121212121212122,3.4430379746835444,0.01297970828559471,0.011696964265154102,-1.7555399525106527e-06,-0.007403001765224643,0.012388245455126552
1.3131313131313131,3.4430379746835444,0.012784069466318673,0.011548051708694532,1.4561522291818625e-05,-0.007299636352503961,0.01221308606600099
1.4141414141414141,3.4430379746835444,0.012777697982197132,0.011257061998390853,1.5847855203301556e-05,-0.007210427994176395,0.01208935174610686
1.5151515151515151,3.4430379746835444,0.012745336311756474,0.01126766059850325,6.780281061407764e-05,-0.007203899073077917,0.012075075194447903
1.6161616161616161,3.4430379746835444,0.012735717920893508,0.011364344393283212,0.00010193767451448226,-0.007230018694253015,0.012109703702792619
1.7171717171717171,3.4430379746835444,0.01260158821275485,0.011182835087069534,-2.2783763004483026e-05,-0.007135326989947316,0.01195558031003132
1.8181818181818181,3.4430379746835444,0.012587798501936366,0.011102758788613077,5.820339005359909e-06,-0.007107167187164832,0.011914895510488131
1.9191919191919191,3.4430379746835444,0.01254519156718237,0.011145579327759295,-6.607398254584982e-05,-0.007107231268482499,0.011907789027700287
2.0202020202020203,3.4430379746835444,0.012334903146780598,0.011247584575579657,0.00010613194270570326,-0.007074746316708076,0.01183021217130379
2.121212121212121,3.4430379746835444,0.012224912872047368,0.01103540287201743,4.7497802027104624e-05,-0.00697809472321944,0.011675981362700002
2.2222222222222223,3.4430379746835444,0.012241707497747915,0.011243556680782661,-9.358594725493942e-05,-0.007045579253559173,0.011775521736316826
2.323232323232323,3.4430379746835444,0.012140215056944102,0.010973695287645573,-2.412757559264419e-06,-0.006934173103376902,0.011601026101071952
2.4242424242424243,3.4430379746835444,0.011912438864206171,0.010940268631181568,-7.568647972803473e-05,-0.006855812248616321,0.011458079311933695
2.525252525252525,3.4430379746835444,0.012041044636911444,0.01084942197876814,-3.7036793788280186e-05,-0.006867139984703874,0.01149184293587056
2.6262626262626263,3.4430379746835444,0.012084619689420546,0.010773957100335923,2.9839706994692845e-05,-0.00685757303692694,0.011485629358222315
2.727272727272727,3.4430379746835444,0.011887836453290852,0.010789512390634673,-3.301510789755019e-05,-0.006803204653177658,0.011378644227203794
2.8282828282828283,3.4430379746835444,0.012086379268246322,0.010871867646793914,-6.658549829356881e-05,-0.00688747407451207,0.011527786218425456
2.929292929292929,3.4430379746835444,0.012101819812601158,0.010716857954161692,-1.889069993853146e-05,-0.0068456033300288545,0.011472256702300159
3.0303030303030303,3.4430379746835444,0.011854267558897914,0.010725924402952551,-3.297874844484874e-05,-0.0067740575885551395,0.011332448930404566
3.131313131313131,3.4430379746835444,0.011803177208222293,0.010576540176909677,6.784572620728776e-05,-0.0067139152155395905,0.011240784024801337
3.2323232323232323,3.4430379746835444,0.011784579180648123,0.010780067215796475,-3.5232135058022204e-05,-0.00676939391893338,0.011315976487904828
3.3333333333333335,3.4430379746835444,0.01169004911124225,0.01076034965069672,-3.734149128277435e-05,-0.0067351196285816905,0.011254223212582704
3.4343434343434343,3.4430379746835444,0.01170158649851647,0.010675398740286958,5.6421624025626265e-05,-0.006713095571641028,0.011224157575503595
3.5353535353535355,3.4430379746835444,0.011771014440272036,0.010574008936555395,-8.583190063184758e-05,-0.006703507013048228,0.01122148543666057
3.6363636363636362,3.4430379746835444,0.011708019536821752,0.010635654302009944,-3.451804218933517e-05,-0.006703102151649509,0.011210530319184613
3.7373737373737375,3.4430379746835444,0.011608892330521576,0.010523696385190117,5.81933463607872e-05,-0.0066397766147135075,0.011106586689492727
3.8383838383838382,3.4430379746835444,0.011830900678312996,0.010497605411299816,1.0464726482313063e-05,-0.006698551826883843,0.011223819839152353
3.9393939393939394,3.4430379746835444,0.011721370176143261,0.010524312667741544,-1.1479501972948774e-05,-0.006673704853165441,0.011171065600173962
4.040404040404041,3.4430379746835444,0.011517824347654537,0.01053987708449642,-2.457832059795542e-05,-0.006617310429645287,0.011061403438811354
4.141414141414141,3.4430379746835444,0.011506993045085146,0.01040901636165795,-9.789740981179205e-05,-0.006574802822022929,0.011000490142974034
4.242424242424242,3.4430379746835444,0.01176784795277415,0.010649680103687999,-3.765021516592195e-05,-0.006725258416938644,0.011250705229483193
4.343434343434343,3.4430379746835444,0.011741751321895807,0.010456269951599722,-2.526000033567113e-05,-0.006659406382048659,0.011154788123605243
4.444444444444445,3.4430379746835444,0.011632005109394038,0.010479290882259348,-5.551392945097627e-05,-0.006633388797496016,0.011101043219616573
4.545454545454545,3.4430379746835444,0.011604770205137614,0.010443775284040883,-6.816519536768322e-06,-0.0066145636467535495,0.011070034365213978
4.646464646464646,3.4430379746835444,0.011608009389407018,0.010459604623433929,5.640406708242205e-05,-0.006620284203852284,0.011078969556830007
4.747474747474747,3.4430379746835444,0.011526967663033221,0.010474149786117768,-8.484277638541102e-05,-0.006600335234745296,0.011039257504670004
4.848484848484849,3.4430379746835444,0.011630520976920317,0.010471400276859786,-1.917766876203661e-05,-0.006630576376134031,0.011096508672730952
4.94949494949495,3.4430379746835444,0.011823553995789177,0.01037387688329413,9.39887763889449e-05,-0.0066592292637249915,0.011170683008484778
5.05050505050505,3.4430379746835444,0.011558316826763568,0.010403017141623477,1.1851734238207091e-05,-0.006588400190516113,0.01102617371668135
5.151515151515151,3.4430379746835444,0.011503204350249135,0.010505858750902297,-1.4721386140863395e-05,-0.006602718930345429,0.011038405160558679
5.252525252525253,3.4430379746835444,0.011520124828605031,0.01042847486252259,-3.604583847091279e-05,-0.006584579907338285,0.011015122774807866
5.353535353535354,3.4430379746835444,0.011717234169188115,0.010296118866870667,-2.4738428376996886e-05,-0.006604005910817634,0.011075352837219945
5.454545454545454,3.4430379746835444,0.011636003243399931,0.010521362044096774,1.4492136932256703e-05,-0.006647209586249011,0.01112068603726306
5.555555555555555,3.4430379746835444,0.0113926568042037,0.010448998213567932,-6.35955700304878e-05,-0.00655249650533149,0.010951916513568763
5.656565656565657,3.4430379746835444,0.011714572230924902,0.010389217169897729,2.6111062084891262e-05,-0.006631136820246789,0.01111142863721907
5.757575757575758,3.4430379746835444,0.011851898821372261,0.010564953973002583,-2.049448429466696e-05,-0.006725055838312453,0.011263758371648705
5.858585858585858,3.4430379746835444,0.011869194689192602,0.010409545369143212,-0.00012046754761080514,-0.006683622017500744,0.011212806697698252
5.959595959595959,3.4430379746835444,0.01152607223139678,0.010481945095009293,6.794213658893917e-05,-0.006602405197921822,0.011041725688012986
6.0606060606060606,3.4430379746835444,0.011763627610809272,0.010606057477408698,6.493926558377315e-05,-0.00671090552646539,0.011230241783748906
6.161616161616162,3.4430379746835444,0.011821676078526928,0.010420633035375434,2.412278960095797e-05,-0.006672692734170709,0.011187225554761234
6.262626262626262,3.4430379746835444,0.011611205663338526,0.010578595965010106,-1.2800925622110385e-05,-0.006656940488504589,0.01113090417528009
6.363636363636363,3.4430379746835444,0.01192149730741112,0.010575608892705817,-0.00013939015006133974,-0.006749131860035082,0.011311357009893455
6.4646464646464645,3.4430379746835444,0.011700515380532761,0.010584305698665,7.131395030524606e-05,-0.006685446323759329,0.011184945807285348
6.565656565656566,3.4430379746835444,0.01166430431729445,0.010569278556921385,-7.74872818635583e-05,-0.00667007486226475,0.011157973640165054
6.666666666666667,3.4430379746835444,0.011892256409806994,0.010619568815222285,3.300061813315796e-05,-0.006753547567508783,0.011309891075868723
6.767676767676767,3.4430379746835444,0.011910738532691952,0.010644732844147357,-4.4274420220473486e-05,-0.006766641413051793,0.011331164138484728
6.8686868686868685,3.4430379746835444,0.011855746191009927,0.01069830406769655,7.545425421211245e-06,-0.006766215077611944,0.011321493751710236
6.96969696969697,3.4430379746835444,0.011708889467531158,0.010572769499904868,3.93769097485194e-06,-0.006684497690230808,0.011184194407159622
7.070707070707071,3.4430379746835444,0.011950531450264406,0.010925308177616957,1.4280297947083062e-05,-0.006862751888364409,0.011472355186270544
7.171717171717171,3.4430379746835444,0.011903143326258282,0.0108668171923407,5.029830821178121e-05,-0.006830988155579695,0.011420632388617822
7.2727272727272725,3.4430379746835444,0.012114058976069276,0.010839443250775557,-1.8455694832417242e-05,-0.0068860506680534506,0.01152975810209531
7.373737373737374,3.4430379746835444,0.012121318790434633,0.010706870225257403,5.009533384542935e-05,-0.006848456704707611,0.011479964312623488
7.474747474747475,3.4430379746835444,0.012109428845532412,0.010969070172299337,6.34674804627941e-05,-0.006923549705349525,0.011581954801325964
7.575757575757575,3.4430379746835444,0.011930227611969539,0.010946016442287184,2.455173950831056e-05,-0.0068628732162770165,0.011469914890316898
7.6767676767676765,3.4430379746835444,0.012053768819885971,0.010961640608931776,-8.45694898425729e-05,-0.006904622828645323,0.011547436157508575
7.777777777777778,3.4430379746835444,0.012263691412829262,0.011120363663429868,-1.972473869668855e-05,-0.00701521652287774,0.011733928323679161
7.878787878787879,3.4430379746835444,0.012225972971217509,0.011084345647778996,-3.126513441656259e-05,-0.006993095585698951,0.011697143059948019
7.979797979797979,3.4430379746835444,0.012564363927436135,0.01095799593843589,1.2142822664351485e-05,-0.007056707959761608,0.011843188310011247
8.080808080808081,3.4430379746835444,0.012441038887483824,0.011031212139187998,3.8207935815274334e-05,-0.007041675308001547,0.011799649579500643
8.181818181818182,3.4430379746835444,0.012430010893901758,0.011177248914387183,2.097973885361988e-05,-0.007082177942486682,0.011853440799840723
8.282828282828282,3.4430379746835444,0.012468772395989603,0.0112591893522225,-0.00012405701865809325,-0.00711838852446363,0.011912075006799439
8.383838383838384,3.4430379746835444,0.012405721250396629,0.011355058841689815,-4.268520041925091e-05,-0.0071282340276259334,0.011915412386817736
8.484848484848484,3.4430379746835444,0.012692707062761849,0.011397170484514035,1.1969697318986838e-05,-0.0072269632641827645,0.012097098459995768
8.585858585858587,3.4430379746835444,0.012877469410928058,0.011434532599122726,7.841174264009661e-05,-0.007293600603015236,0.012220816487472393
8.686868686868687,3.4430379746835444,0.012734332220987238,0.011628324370202777,-6.126399501652379e-05,-0.007308796977357005,0.012219388646770236
8.787878787878787,3.4430379746835444,0.012773315158113035,0.011718616801835528,-2.3803462885188864e-05,-0.007347579587984569,0.012280051875471631
8.88888888888889,3.4430379746835444,0.012983755630369161,0.011630870589264918,4.71364971052183e-05,-0.007384387865890223,0.012363225508821926
8.98989898989899,3.4430379746835444,0.013145790257891149,0.011816422297853756,-6.10959983055389e-05,-0.007488663766723472,0.012534537345369173
9.09090909090909,3.4430379746835444,0.01318232184709681,0.011799115497313457,1.4143247871710606e-05,-0.00749443120332308,0.012548051557796366
9.191919191919192,3.4430379746835444,0.01339812547075769,0.011891724066111473,-1.758806403314312e-05,-0.007586954861060749,0.012712080251213793
9.292929292929292,3.4430379746835444,0.013504112330112785,0.012106315419570687,7.383386112717603e-05,-0.007683128324905041,0.012862940326765373
9.393939393939394,3.4430379746835444,0.013539741006546462,0.01214729331342447,1.039509713255328e-05,-0.00770611029599128,0.012900017059931932
9.494949494949495,3.4430379746835444,0.01358815217781833,0.012540477144482871,8.048457191486004e-05,-0.00783858879669036,0.01309652503896012
9.595959595959595,3.4430379746835444,0.013715503611998974,0.012675711708749373,0.00010072794524958409,-0.007917364596224503,0.01322744779936537
9.696969696969697,3.4430379746835444,0.013942187421920318,0.012418006148928453,0.00015919604829093076,-0.007908058071254631,0.013248899117784575
9.797979797979798,3.4430379746835444,0.013971931674554426,0.012474337951405352,-1.0628425956774487e-05,-0.007933880887787933,0.013286599391577487
9.8989898989899,3.4430379746835444,0.014176537816630724,0.012715059170206154,0.00010301871699485637,-0.008067479096051064,0.013506416089001317
10.0,3.4430379746835444,0.014314856990007964,0.013041468600508267,4.426797443414546e-05,-0.008206897677154868,0.013722760469641276
0.0,3.5443037974683542,0.0040334009553689605,0.0035905848854616367,-1.94494645577233e-05,-0.0022871957522491793,0.0038313821819465133
0.10101010101010101,3.5443037974683542,0.003966669388524157,0.0035233283090928616,1.4562821517684141e-05,-0.0022469993092851057,0.0037647132811705866
0.20202020202020202,3.5443037974683542,0.004082019201275617,0.0036002312132849905,3.2433015208002445e-06,-0.0023046751243681824,0.0038637241314627346
0.30303030303030304,3.5443037974683542,0.003931532883133276,0.0033961435641036977,6.5063160157618e-05,-0.002198302934171092,0.0036947789467673404
0.40404040404040403,3.5443037974683542,0.003781402130594617,0.0034645167060071264,-9.718398385667138e-06,-0.0021737756509805227,0.0036333772949823876
0.5050505050505051,3.5443037974683542,0.0037992051170369872,0.003530257122770556,-1.9778146036036253e-05,-0.002198838671942263,0.003672285048044061
0.6060606060606061,3.5443037974683542,0.0037686851239157795,0.0034780953283035736,-4.4550226705397705e-05,-0.002174034135665806,0.0036329385792703813
0.7070707070707071,3.5443037974683542,0.003646714943552467,0.00345190567908759,3.615418517041266e-05,-0.0021295861867920173,0.003553869447306653
0.8080808080808081,3.5443037974683542,0.0035508071577969058,0.003303706134768287,-7.247535925266298e-05,-0.0020563539877695575,0.0034362247218817023
0.9090909090909091,3.5443037974683542,0.003633673752314709,0.003137249083083269,-2.329508425305511e-05,-0.0020312768506193933,0.003412888085294576
1.0101010101010102,3.5443037974683542,0.003548836026671343,0.003336791694686958,0.00010147025415359448,-0.0020656883164074905,0.0034521845280580657
1.1111111111111112,3.5443037974683542,0.003507342869290179,0.00303192170895753,9.26705733383192e-05,-0.001961779373474313,0.0032993602063640893
1.2121212121212122,3.5443037974683542,0.0035656271553364564,0.003360067071542395,-8.11299633453896e-06,-0.002077708268063655,0.0034674484573272895
1.3131313131313131,3.5443037974683542,0.003753094483422005,0.003134388997907224,-6.053267183747808e-05,-0.0020662450443987685,0.0034867530953352093
1.4141414141414141,3.5443037974683542,0.0034868977185953066,0.00303335014549528,6.544692990533384e-06,-0.001956074359227176,0.003283719781301714
1.5151515151515151,3.5443037974683542,0.0035660637730695974,0.0032329646455452996,-6.0146581748456777e-05,-0.002039708525584469,0.003413321837263431
1.6161616161616161,3.5443037974683542,0.0034594766588735455,0.003159182899476558,4.60988541783406e-05,-0.001985597867505031,0.0033204926075590118
1.7171717171717171,3.5443037974683542,0.003334198409558355,0.003268115886088704,1.1192692025155876e-05,-0.0019806942886941175,0.0033017100900324028
1.8181818181818181,3.5443037974683542,0.0033148687844933526,0.003095996520451263,-1.6678019106911384e-05,-0.0019232595914833845,0.003211162057491778
1.9191919191919191,3.5443037974683542,0.0034023974993025777,0.00311178227527421,-0.0001335164182292529,-0.0019542539323730364,0.003274974403260951
2.0202020202020203,3.5443037974683542,0.0034338061526871634,0.0029793037738756398,-2.7022659586198322e-05,-0.0019239329779688408,0.00323096188683756
2.121212121212121,3.5443037974683542,0.00356890835079341,0.003050549193918249,-5.0909701585454016e-05,-0.0019858372634134975,0.003341197704617886
2.2222222222222223,3.5443037974683542,0.0034721646093993615,0.002754661947114435,1.5109033121646704e-06,-0.0018680479669541388,0.0031748160013616994
2.323232323232323,3.5443037974683542,0.0034516738289105432,0.002865474918690437,5.0987506724435176e-05,-0.001895144624280294,0.003200330158610594
2.4242424242424243,3.5443037974683542,0.0034187706281308947,0.0031320236125691493,5.8912737637380845e-05,-0.001965238272210013,0.0032863819492209337
2.525252525252525,3.5443037974683542,0.0033332181632344297,0.0030508009511371484,3.533467100990238e-05,-0.0019152057343114733,0.003201951005458727
2.6262626262626263,3.5443037974683542,0.0033210466429245858,0.003051147505415901,2.8516287452386847e-05,-0.001911658244502146,0.0031950411985305193
2.727272727272727,3.5443037974683542,0.0031201351972163487,0.002898355071446019,7.500285906770499e-05,-0.0018055470805987102,0.0030181654002458046
2.8282828282828283,3.5443037974683542,0.0034090380130984517,0.003004222472711369,-8.729999535856185e-05,-0.0019239781457429462,0.0032292798111321014
2.929292929292929,3.5443037974683542,0.003320817727080589,0.0029616237458623238,5.111360833285773e-05,-0.0018847324418828737,0.003157826903935088
3.0303030303030303,3.5443037974683542,0.003122585451322956,0.003008159736867245,-4.1929969414724016e-05,-0.0018392235564570602,0.003067833672272865
3.131313131313131,3.5443037974683542,0.0033202376310140567,0.003065175504499538,1.013358040419048e-05,-0.0019156239406540783,0.003200386822313733
3.2323232323232323,3.5443037974683542,0.003098977724834131,0.0028918998518492212,-1.6776023539627282e-05,-0.0017972632730050057,0.003000942980749421
3.3333333333333335,3.5443037974683542,0.003228829478897787,0.002937322895215908,-4.1979822340817273e-05,-0.0018498457122341084,0.0030942491428286277
3.4343434343434343,3.5443037974683542,0.003174010428452708,0.0027402553997683274,1.2595195398364956e-05,-0.0017742797484663105,0.0029809761081294947
3.5353535353535355,3.5443037974683542,0.003357974476416991,0.0027685024595823977,3.3163930849707265e-06,-0.0018379430807998166,0.003105490436500437
3.6363636363636362,3.5443037974683542,0.003381866290130924,0.00288074391630871,-5.3927019710442026e-05,-0.0018787830619318904,0.0031626158073616733
3.7373737373737375,3.5443037974683542,0.0031850795544178614,0.0029582378482912843,-3.8538891413867725e-05,-0.0018429952208127438,0.003078658114469728
3.8383838383838382,3.5443037974683542,0.003272681596728837,0.002998392283576926,4.9909104755554016e-05,-0.0018813221640917286,0.0031457098769209165
3.9393939393939394,3.5443037974683542,0.003290115351857776,0.0027234205986643193,2.8569576652850095e-05,-0.0018040607851566286,0.00304695906218947
4.040404040404041,3.5443037974683542,0.0031841023871001903,0.0031586388061034584,7.41103190643891e-05,-0.0019028223579610943,0.0031740439150449652
4.141414141414141,3.5443037974683542,0.003360020459773587,0.0028132625575497928,8.668053988815141e-05,-0.0018519849051970138,0.0031263564262112432
4.242424242424242,3.5443037974683542,0.003116957652877919,0.0029506694117364058,-5.4256114539510896e-05,-0.0018202881193842974,0.0030386830306995314
4.343434343434343,3.5443037974683542,0.003076069188121657,0.002887389778915366,-3.854478489676208e-05,-0.0017890376901111068,0.0029869495733616945
4.444444444444445,3.5443037974683542,0.0030633434864261204,0.0028096470955903717,-6.302333713756043e-06,-0.0017618971746049476,0.002944723271614268
4.545454545454545,3.5443037974683542,0.0033387392290456625,0.0027285818552225984,-2.1046228084399717e-05,-0.0018201963252804784,0.003079552586281696
4.646464646464646,3.5443037974683542,0.0032039382926956723,0.0029163619807319042,-4.514462379653235e-05,-0.0018360900820282727,0.003071263269699395
4.747474747474747,3.5443037974683542,0.003070464485765388,0.00290454671861421,-3.575340677501323e-05,-0.0017925033613138794,0.0029916001020349994
4.848484848484849,3.5443037974683542,0.0032197809205502022,0.002829415523459999,-4.036666998437157e-05,-0.0018147589332030605,0.0030442358098753354
4.94949494949495,3.5443037974683542,0.0031626509942654854,0.002858956226710466,1.71426646404378e-05,-0.0018064821662927852,0.0030224150736886846
5.05050505050505,3.5443037974683542,0.003148804990345312,0.002997633434007583,-1.7080107113247653e-05,-0.0018439315273058685,0.0030761487522308804
5.151515151515151,3.5443037974683542,0.003214938917563336,0.0029098712962947197,-2.259253192160195e-05,-0.0018374430641574166,0.0030740292771216
5.252525252525253,3.5443037974683542,0.0032325108017052643,0.0029974781521040373,-8.061195473926066e-05,-0.0018689966861427903,0.003124758504696173
5.353535353535354,3.5443037974683542,0.003357691711657438,0.0028732140494527846,3.7057927360997545e-05,-0.0018692717283330666,0.0031442336864141453
5.454545454545454,3.5443037974683542,0.003271674340836469,0.0029819900185945186,-5.9133486115234035e-05,-0.0018760993078292961,0.0031385518225065757
5.555555555555555,3.5443037974683542,0.0032304995365997034,0.003037671106084512,4.145751047886565e-05,-0.0018804511928052644,0.003139352493698118
5.656565656565657,3.5443037974683542,0.0031940934921552166,0.0028398553265765757,-2.7285525670014205e-05,-0.0018101846456195377,0.0030328998656345973
5.757575757575758,3.5443037974683542,0.0032126751000676862,0.0030430412977488826,-6.535798036447136e-05,-0.0018767149193449706,0.003133351820245629
5.858585858585858,3.5443037974683542,0.003245071204590136,0.002740257373706057,-3.7046906700528e-05,-0.0017955985734888578,0.0030251090427155527
5.959595959595959,3.5443037974683542,0.003219157826965496,0.0028059544064108306,3.4964924910201e-05,-0.0018075336700128977,0.0030343392681415424
6.0606060606060606,3.5443037974683542,0.003183777899706375,0.0029101518297985564,-0.00010787808636079928,-0.0018281789188514795,0.003061872197069387
6.161616161616162,3.5443037974683542,0.0033259173173686074,0.0030254012438392184,1.831924592282461e-05,-0.0019053955683623477,0.0031864637270234922
6.262626262626262,3.5443037974683542,0.0032959973246288574,0.002796902661698323,6.630591720283282e-05,-0.001827869995898154,0.0030791019139903555
6.363636363636363,3.5443037974683542,0.0034074568856600576,0.003024667317036674,2.603728381387647e-05,-0.0019296372608090195,0.0032334169465999337
6.4646464646464645,3.5443037974683542,0.003212820642523087,0.0029780919838159315,0.00011805518723944435,-0.0018572737879017055,0.0031088557422076116
6.565656565656566,3.5443037974683542,0.0034360174686213635,0.0029213265060996658,3.5300684745545426e-05,-0.0019072031924163087,0.003210354202955975
6.666666666666667,3.5443037974683542,0.003267471108398042,0.002877266404966285,1.7543731378840487e-05,-0.0018434212540092982,0.003091046409794583
6.767676767676767,3.5443037974683542,0.003093881419265111,0.00300723500963221,-3.228909220788995e-05,-0.001830334928669196,0.00305199342666293
6.8686868686868685,3.5443037974683542,0.003353298670809341,0.002888245099513604,-1.3363698098993332e-05,-0.0018724631310968833,0.0031467378414202422
6.96969696969697,3.5443037974683542,0.0031603679522294228,0.0027830719877946445,4.8556421561111356e-06,-0.0017830319820072201,0.002989641198460886
7.070707070707071,3.5443037974683542,0.0032554477026738656,0.0031460420481899433,2.9742271305644143e-05,-0.0019204469252591424,0.003202561281792379
7.171717171717171,3.5443037974683542,0.003264927155554785,0.0029568002535083652,1.618935207465746e-05,-0.001866518222718945,0.0031224134758800364
7.2727272727272725,3.5443037974683542,0.003361065470498237,0.003013672990492557,8.038396197902084e-06,-0.001912421538297238,0.0032015664307214514
7.373737373737374,3.5443037974683542,0.0032673080511699247,0.003143999367349351,-9.321692910603672e-06,-0.0019233922255557827,0.003207472550029915
7.474747474747475,3.5443037974683542,0.003377410800237896,0.002930681067241996,5.69095505508833e-06,-0.0018924275602439674,0.0031777001909882477
7.575757575757575,3.5443037974683542,0.0032985394634162646,0.0029831064473671777,-8.519758086780842e-05,-0.0018844937732350325,0.0031561318431242913
7.6767676767676765,3.5443037974683542,0.003263937047711875,0.0030321477971307405,-1.3372606057770582e-05,-0.0018888254534527847,0.003154520924903854
7.777777777777778,3.5443037974683542,0.003560245642135671,0.0030330813459228108,8.959207000072961e-06,-0.0019779980964175444,0.003328161300393431
7.878787878787879,3.5443037974683542,0.0034987067106646086,0.0030142965431586856,3.88072000377681e-06,-0.001953900976146988,0.0032834186351771814
7.979797979797979,3.5443037974683542,0.0035499800832703198,0.003336693069989187,-4.857867659108692e-05,-0.002066001945977852,0.003449313693467169
8.080808080808081,3.5443037974683542,0.0032278175826805006,0.0031676935975119697,9.504889973682367e-06,-0.0019186533540577408,0.0031982218517461174
8.181818181818182,3.5443037974683542,0.003459477106385912,0.003013015636177166,5.357339891105315e-05,-0.0019417478227689235,0.003260582277160215
8.282828282828282,3.5443037974683542,0.0034746292766829404,0.0031603900591324315,9.712907195469617e-05,-0.0019905058007446113,0.0033329014808275346
8.383838383838384,3.5443037974683542,0.0034443772823237475,0.002972826316486504,4.2803119813805e-05,-0.0019251610796430752,0.0032353349229067036
8.484848484848484,3.5443037974683542,0.0035475914819082816,0.003225066532735101,0.00010456143172461678,-0.002031797404393015,0.0034026519337085584
8.585858585858587,3.5443037974683542,0.0034118577317387155,0.003190713439654868,1.4693579335011273e-05,-0.001980771351418075,0.003306934051442723
8.686868686868687,3.5443037974683542,0.003540354448829631,0.003230992720917405,-3.742104330673102e-05,-0.002031404150924111,0.0033968757904550206
8.787878787878787,3.5443037974683542,0.003612209212234064,0.003144311409127439,2.7321621168097212e-05,-0.0020269561864084506,0.003402804491193194
8.88888888888889,3.5443037974683542,0.0036233094133579437,0.003230470384854917,4.057859341976013e-05,-0.002056133939463858,0.0034444529498987003
8.98989898989899,3.5443037974683542,0.0036359155788223004,0.0033447395338198635,1.5415456049596413e-05,-0.002094196533792649,0.003499526678874929
9.09090909090909,3.5443037974683542,0.0037007419393625977,0.0033240959459675413,5.425096287821116e-05,-0.0021074513655990417,0.0035287834990216467
9.191919191919192,3.5443037974683542,0.003509585539775313,0.0031740199225309433,2.998401812588662e-05,-0.002005081638691877,0.0033548168102861997
9.292929292929292,3.5443037974683542,0.0036820233586479616,0.003570970292145319,8.133601499176066e-05,-0.002175898095237984,0.003630506225624859
9.393939393939394,3.5443037974683542,0.003680039598719009,0.0033347702958753827,-4.160661471702999e-05,-0.0021044429683783174,0.003520865087461329
9.494949494949495,3.5443037974683542,0.0037508017023016363,0.0034893820258430543,4.2021969558875714e-05,-0.0021720551184434074,0.003627894406888022
9.595959595959595,3.5443037974683542,0.003787364613944617,0.0035387559031744916,7.556230334925065e-05,-0.0021978361551357323,0.003671715424866667
9.696969696969697,3.5443037974683542,0.0040157448341495575,0.003532227386084593,7.388429796291899e-05,-0.002264391666070245,0.0037993012080842544
9.797979797979798,3.5443037974683542,0.003898369746669661,0.0035082491698589426,1.61967740629351e-05,-0.002221985674958581,0.0037187946297796977
9.8989898989899,3.5443037974683542,0.003987812135239133,0.0035255178101458473,-2.161735224272996e-05,-0.002253998983615494,0.0037781239629039063
10.0,3.5443037974683542,0.003857071895402314,0.0035497434218708917,4.853677885786357e-05,-0.0022220445951819617,0.003713910854575847
0.0,3.6455696202531644,0.0039603213187921,0.0035074098510269078,5.186498574806004e-05,-0.0022403193509457024,0.003755485153031023
0.10101010101010101,3.6455696202531644,0.003929220796526443,0.003561241359743956,-7.884882813941014e-05,-0.0022471386468811195,0.0037612449921731626
0.20202020202020202,3.6455696202531644,0.0038748692128595785,0.0035552525252075117,2.5358642277659683e-05,-0.002229036521420127,0.0037256170714538065
0.30303030303030304,3.6455696202531644,0.003829868809119786,0.0032366827237754053,8.932954380822015e-07,-0.0021199654598685574,0.0035704260718548296
0.40404040404040403,3.6455696202531644,0.0038455616319925667,0.003389248321607231,2.7399010865234356e-06,-0.0021704429860799393,0.0036389294669279706
0.5050505050505051,3.6455696202531644,0.0037542337171479465,0.0032683865715130507,1.4942947887736842e-05,-0.002106786086598299,0.0035365243377423797
0.6060606060606061,3.6455696202531644,0.003668421872568815,0.003314824135353225,3.660854241556022e-05,-0.0020949738023766117,0.003505599132494493
0.7070707070707071,3.6455696202531644,0.003665270556801637,0.003567506365760159,-1.2129713379033899e-05,-0.0021698330767685385,0.0036174404308174984
0.8080808080808081,3.6455696202531644,0.003839361241707517,0.003266347442833117,-0.00010875385394790953,-0.0021317126053621905,0.0035922854549589973
0.9090909090909091,3.6455696202531644,0.0036787460082519105,0.003107223343713888,-2.811429439118268e-05,-0.0020357908055897394,0.003429241150628314
1.0101010101010102,3.6455696202531644,0.0035964012940891536,0.0032782764288275517,4.8592892876077014e-05,-0.0020624033168750115,0.003449389051503076
1.1111111111111112,3.6455696202531644,0.003699706044503893,0.003308027372735428,-1.5110748377099365e-05,-0.002102320025171796,0.003520344592843356
1.2121212121212122,3.6455696202531644,0.0035890329759288844,0.00312373933478705,-5.1854783283237996e-05,-0.00201383169321478,0.003381681299130946
1.3131313131313131,3.6455696202531644,0.003554973168513953,0.0032107146278455546,7.274031275457416e-05,-0.002029706338907852,0.00339829247650467
1.4141414141414141,3.6455696202531644,0.003612925610872251,0.0031256266597911656,2.9279457538088422e-05,-0.002021565681199025,0.0033959812627295943
1.5151515151515151,3.6455696202531644,0.003720545147678258,0.003200556096078947,-2.8494082475019153e-05,-0.0020763303731271615,0.0034900770485950627
1.6161616161616161,3.6455696202531644,0.003439544836240035,0.003086430953895382,-5.0748976016009484e-05,-0.001957792737040625,0.003278465104204527
1.7171717171717171,3.6455696202531644,0.0033467594630006846,0.0030758924815878835,-1.5936003203071517e-05,-0.0019267955833765704,0.003220000475177116
1.8181818181818181,3.6455696202531644,0.003619744736827481,0.0031114093846879723,2.242388327323355e-05,-0.002019346236454636,0.003394469187693102
1.9191919191919191,3.6455696202531644,0.003411883105569521,0.003127568126372432,0.0001068833916473262,-0.0019618353695825858,0.0032842052368135836
2.0202020202020203,3.6455696202531644,0.003515271133173253,0.003073375999011799,-1.3484996130486355e-05,-0.001976594139655516,0.0033165594786873902
2.121212121212121,3.6455696202531644,0.003288279432689154,0.0030639197819943838,-3.899494231784739e-05,-0.0019056597644050613,0.0031827540702951845
2.2222222222222223,3.6455696202531644,0.0034568629905570485,0.0029556475693250776,-2.5933061819939715e-05,-0.001923753167964638,0.0032358156877511693
2.323232323232323,3.6455696202531644,0.0034230008322626714,0.003065148290086274,2.597484279890608e-05,-0.0019464447367046837,0.003259154440539941
2.4242424242424243,3.6455696202531644,0.0033664201079340447,0.003098953365802028,-9.292278208512716e-05,-0.0019396120421208219,0.003244968615044507
2.525252525252525,3.6455696202531644,0.003195637904405664,0.0032906248941652412,2.4941017458251184e-05,-0.0019458788395712715,0.003244462102144894
2.6262626262626263,3.6455696202531644,0.003080729844989893,0.0028835988880223902,4.24630007862092e-05,-0.001789298619903685,0.0029879523237181143
2.727272727272727,3.6455696202531644,0.0034037541053108743,0.0029936070597926506,-1.763133923415317e-05,-0.0019192083495310575,0.003218486524870618
2.8282828282828283,3.6455696202531644,0.0033539160965636635,0.0030236537830087193,3.4397443673397876e-05,-0.001913270963871715,0.0032021405093182616
2.929292929292929,3.6455696202531644,0.0034536330134294258,0.0028669520882995208,6.319936033336391e-05,-0.0018961755305186838,0.0032027452857544855
3.0303030303030303,3.6455696202531644,0.0032561258740875457,0.00301324555865113,-0.0001427401148978003,-0.0018808114298216026,0.0031514475875909676
3.131313131313131,3.6455696202531644,0.0031486476072499665,0.0031838386477129896,1.156931643922896e-05,-0.0018997458764888867,0.003166453204544314
3.2323232323232323,3.6455696202531644,0.0032416110506617627,0.0031508749169746305,2.4896256418837112e-05,-0.0019177457902909178,0.003197499564788936
3.3333333333333335,3.6455696202531644,0.0031448466948728188,0.002929521879272991,-3.755146634901425e-05,-0.0018223105722437426,0.0030435985795891772
3.4343434343434343,3.6455696202531644,0.003061850474426334,0.002935755008876734,5.9899348793461416e-05,-0.00179928164499092,0.0030025833425766095
3.5353535353535355,3.6455696202531644,0.003133954998858977,0.0029005621978267244,-9.458795470263297e-05,-0.0018103551590057103,0.003028455752108425
3.6363636363636362,3.6455696202531644,0.003194432927185621,0.002888321694184275,1.426722444838171e-05,-0.0018248263864109686,0.003053009117617697
3.7373737373737375,3.6455696202531644,0.0032794221958144616,0.0029237840946863066,8.565447767347679e-06,-0.0018609618871502304,0.0031168928463365516
3.8383838383838382,3.6455696202531644,0.0032149583304105236,0.0027964767714812257,3.7952229428136874e-05,-0.0018034305305675248,0.003028201483156741
3.9393939393939394,3.6455696202531644,0.003056763154576596,0.0031068931354378353,3.610194710370636e-05,-0.001849096887004329,0.0030827681600062817
4.040404040404041,3.6455696202531644,0.0031460590145081816,0.0028193714554105615,9.944832476118052e-06,-0.001789629140975623,0.0029961526067424442
4.141414141414141,3.6455696202531644,0.003217170838487101,0.0028480146293580824,7.028604095932184e-05,-0.001819555640353555,0.003051826715682787
4.242424242424242,3.6455696202531644,0.003125032870627397,0.0028676763876760583,3.791639449172578e-06,-0.0017978127774910366,0.003004639489641966
4.343434343434343,3.6455696202531644,0.003303633891644723,0.002864607671719191,5.667143976986921e-05,-0.001850472469009174,0.003109018167942393
4.444444444444445,3.6455696202531644,0.0030393156292989236,0.0029069274451790396,4.4534984473948384e-05,-0.0017838729223433889,0.0029763310876297832
4.545454545454545,3.6455696202531644,0.0030695092508749968,0.003051646847575176,-4.071223801953336e-05,-0.0018363468295350517,0.0030614293644408734
4.646464646464646,3.6455696202531644,0.003097846630726087,0.0029219287941545163,5.904908044250955e-06,-0.0018059326274641808,0.0030137582781693288
4.747474747474747,3.6455696202531644,0.003161683843176334,0.0028982926968150217,7.220978514382397e-05,-0.0018179929619974065,0.003041135124835642
4.848484848484849,3.6455696202531644,0.003260192415388421,0.002746642019172082,5.978958757916089e-05,-0.0018020503303681507,0.0030379334871742303
4.94949494949495,3.6455696202531644,0.003010984334427826,0.002980547051634989,-7.937820627904015e-06,-0.0017974594158188444,0.0029959132056304252
5.05050505050505,3.6455696202531644,0.0031763566668176063,0.0029153335370859473,2.3227051038948644e-05,-0.0018275070611710662,0.0030544869746775335
5.151515151515151,3.6455696202531644,0.0031143448001014966,0.0028071884296982643,-8.171343249606231e-05,-0.001776459968939928,0.0029760593038388916
5.252525252525253,3.6455696202531644,0.0032373254992655006,0.002791158534506448,1.4552765297835837e-05,-0.0018085452101315844,0.0030390111887957896
5.353535353535354,3.6455696202531644,0.0032405421498145686,0.002753516777773345,2.9508290660459632e-05,-0.001798217678276374,0.003026994071560286
5.454545454545454,3.6455696202531644,0.00322778213886057,0.0028291516264921795,-1.730018598113134e-05,-0.0018170801296058248,0.003048227232805294
5.555555555555555,3.6455696202531644,0.003202538302422105,0.0029664744040984615,5.379345418600916e-05,-0.0018507038119561698,0.0030926776866514326
5.656565656565657,3.6455696202531644,0.003298273162182647,0.002796035086670523,-0.00013963973906705698,-0.001828292474655951,0.003087527868952876
5.757575757575758,3.6455696202531644,0.0031194563241653595,0.0029568921526529866,1.1565505352229534e-05,-0.0018229045430455037,0.003041500339975313
5.858585858585858,3.6455696202531644,0.0033096379569133435,0.003068948547623993,-3.46462187927731e-05,-0.001913575951361201,0.0031966609257480546
5.959595959595959,3.6455696202531644,0.0033494444463664143,0.0028870882144861458,1.666318418558305e-05,-0.0018709597982557679,0.003144001885568881
6.0606060606060606,3.6455696202531644,0.0030895513634702104,0.002859251240753486,-1.924512007565606e-05,-0.0017846407812671088,0.0029812669856685665
6.161616161616162,3.6455696202531644,0.0032640020370344972,0.0028519225953543607,-5.057835935107666e-05,-0.0018347773897166575,0.003079961872858282
6.262626262626262,3.6455696202531644,0.003271605623663648,0.002730877334844595,3.8182735106206485e-05,-0.0018007448875524729,0.003038274920464395
6.363636363636363,3.6455696202531644,0.0032389250776232183,0.0030877876124642606,-2.6272919983798267e-05,-0.0018980138070262434,0.003166390068316429
6.4646464646464645,3.6455696202531644,0.003067299224882247,0.002971517751395254,6.952246675980552e-06,-0.00181164509288325,0.003020571665669161
6.565656565656566,3.6455696202531644,0.0032070129065763973,0.0028683418163480915,1.3809851282238214e-05,-0.0018226064168773467,0.003051897683218567
6.666666666666667,3.6455696202531644,0.0033269479198645034,0.0031320961079123683,5.219853254154032e-05,-0.0019377132083330615,0.003235191172103167
6.767676767676767,3.6455696202531644,0.0034749699539744425,0.0028873913810527753,4.2365976594593685e-05,-0.0019087084005081653,0.003222457370051351
6.8686868686868685,3.6455696202531644,0.0032210133509012677,0.0029063746291565357,1.5385436721456806e-06,-0.001838216394017341,0.0030757886971970257
6.96969696969697,3.6455696202531644,0.003464341628576198,0.0030587091186154865,6.456024206215737e-05,-0.001956915224157505,0.003282294188068407
7.070707070707071,3.6455696202531644,0.0032494323703691442,0.0030282404282542933,3.503969118542582e-05,-0.0018833018395870314,0.0031452617836933176
7.171717171717171,3.6455696202531644,0.0032479462858046467,0.0029711760381728103,-6.191158444479876e-05,-0.001865736697193237,0.003120628315018424
7.2727272727272725,3.6455696202531644,0.0031553070597609505,0.003014437722015781,-2.0268383657340963e-06,-0.0018509234345330194,0.0030872857205033934
7.373737373737374,3.6455696202531644,0.003384060247368737,0.0032436678290420047,7.972225627403679e-05,-0.0019883184229232223,0.003318967354688774
7.474747474747475,3.6455696202531644,0.0034778265837882307,0.0030459740890996802,1.7494103822557653e-05,-0.001957140201866373,0.0032834104782642386
7.575757575757575,3.6455696202531644,0.003377225914346027,0.003141786009344942,1.253516991650015e-05,-0.001955703577107291,0.00326594924461648
7.6767676767676765,3.6455696202531644,0.003443012592950826,0.0029951116919792772,-4.638366488097242e-06,-0.001931437285479031,0.003242358251828608
7.777777777777778,3.6455696202531644,0.0032568108211592163,0.0031739495692519456,6.191197699241209e-05,-0.0019292281171233486,0.00321796808074697
7.878787878787879,3.6455696202531644,0.0033246852530956607,0.0029105933157211614,-3.08306830923311e-05,-0.0018705835706450465,0.003138651047854051
7.979797979797979,3.6455696202531644,0.0034762916505282244,0.00301797815908409,-6.465219001611282e-06,-0.0019482809428836942,0.0032713221989755905
8.080808080808081,3.6455696202531644,0.0033632936339929626,0.003165439137141339,7.88879767996317e-05,-0.0019586198313402904,0.0032717147857529803
8.181818181818182,3.6455696202531644,0.0034247986839467865,0.0030347616446657283,-1.2071238715297936e-05,-0.0019378680985837546,0.003247462659241346
8.282828282828282,3.6455696202531644,0.0034221436466959475,0.0030632438157239244,5.2205343182363596e-05,-0.0019456162387259616,0.003258810464648472
8.383838383838384,3.6455696202531644,0.003417060573571697,0.003067280066749609,-1.3697855824878907e-05,-0.0019453021920963918,0.0032563769869147162
8.484848484848484,3.6455696202531644,0.0034658820502332438,0.003130627984102791,8.311479470396614e-07,-0.0019789530103008104,0.003311009619034273
8.585858585858587,3.6455696202531644,0.003456063575307214,0.00323937937627955,5.006269401381136e-05,-0.002008632885476029,0.00335409778197732
8.686868686868687,3.6455696202531644,0.003402483617379266,0.003006511270389054,-2.938853148481206e-05,-0.001922698466330496,0.0032231956968037665
8.787878787878787,3.6455696202531644,0.0036079177493777677,0.0032684614040698,-8.297384004115837e-06,-0.00206291374603427,0.003450764706990813
8.88888888888889,3.6455696202531644,0.0034939745331750384,0.0032445712045215025,8.056917288604932e-05,-0.0020215637213089623,0.0033790716705736318
8.98989898989899,3.6455696202531644,0.0036948048237492484,0.003268808424033775,7.98898143900983e-06,-0.002089083974334907,0.0035013245403812563
9.09090909090909,3.6455696202531644,0.003922421664266924,0.003387644972943929,1.9422268107262806e-06,-0.0021930199911632557,0.0036842596894135363
9.191919191919192,3.6455696202531644,0.0035133064950007616,0.0032109338497868594,-9.681781762456691e-06,-0.0020172721034362865,0.0033723441664133148
9.292929292929292,3.6455696202531644,0.003750854446057534,0.003364891405872709,-5.226101867883357e-05,-0.0021347237555790727,0.0035746858604396555
9.393939393939394,3.6455696202531644,0.003878901025641209,0.0033904365002946518,4.873747227461859e-05,-0.002180801257780758,0.0036601763939047407
9.494949494949495,3.6455696202531644,0.003806161227106076,0.003372027573430703,-3.733175881502965e-05,-0.0021534566401610338,0.0036093120697200352
9.595959595959595,3.6455696202531644,0.0037590848945458465,0.0032584557651209544,-1.6619459644500617e-05,-0.00210526219790004,0.0035355720881856388
9.696969696969697,3.6455696202531644,0.0037255296599482852,0.0034874573404162484,5.3356202978682936e-05,-0.00216389610010936,0.0036135640082944937
9.797979797979798,3.6455696202531644,0.003928256368892658,0.003652412979133582,8.383060423655886e-05,-0.002274200804407872,0.003800629794310606
9.8989898989899,3.6455696202531644,0.0039050876678138956,0.003601332527373673,2.3007197173121877e-05,-0.0022519260585562705,0.0037626286581395624
10.0,3.6455696202531644,0.0038104067222634193,0.0035688845052164447,-1.396152332846927e-05,-0.0022137873682439592,0.0036956486931777944
0.0,3.7468354430379747,0.003934852645371067,0.0035383217090177574,6.6991593028312e-05,-0.002241952306316647,0.003754127720389524
0.10101010101010101,3.7468354430379747,0.003914308936731826,0.0034182568649952783,-3.433024400681105e-05,-0.002199769740518131,0.003691844626948804
0.20202020202020202,3.7468354430379747,0.003929762147218191,0.003295822105634237,4.0513986571942627e-05,-0.002167675275855728,0.003654942007793516
0.30303030303030304,3.7468354430379747,0.003796956921627115,0.003720631617909984,-9.882686725130426e-07,-0.0022552765618611297,0.0037593758067610674
0.40404040404040403,3.7468354430379747,0.003932384481530207,0.0033920019356848937,2.38848434395398e-05,-0.00219731592516453,0.0036922053743393465
0.5050505050505051,3.7468354430379747,0.003668884579987567,0.0036051132879229824,-4.842922376507492e-05,-0.002182199360373165,0.0036383852871849564
0.6060606060606061,3.7468354430379747,0.003768765513045438,0.0033474597909905904,-2.4633634540465497e-06,-0.0021348675912108085,0.0035767733689047593
0.7070707070707071,3.7468354430379747,0.0037861549167484414,0.0033714426797442,-4.387142937823918e-05,-0.0021472792789477926,0.0035975776051278135
0.8080808080808081,3.7468354430379747,0.003702351490598269,0.003261347353503104,4.3717254526324464e-05,-0.0020891096532304116,0.0035035514095794204
0.9090909090909091,3.7468354430379747,0.003699337753449259,0.0032242239692336816,5.3230264135534344e-05,-0.0020770685168048824,0.0034873667639027653
1.0101010101010102,3.7468354430379747,0.0035816487758610874,0.003454710215598933,6.911913365632884e-05,-0.002110907697438006,0.0035219319097121032
1.1111111111111112,3.7468354430379747,0.0035653977646124156,0.0030542968288615607,-3.429708817545981e-05,-0.001985908378042193,0.003339840733236114
1.2121212121212122,3.7468354430379747,0.0036527433272394187,0.003362503828405159,9.381334214961027e-05,-0.0021045741466933733,0.0035203700399536616
1.3131313131313131,3.7468354430379747,0.0035807425306675538,0.003302176810206965,-9.356317489268378e-05,-0.002064875802262356,0.0034537090224562813
1.4141414141414141,3.7468354430379747,0.003416057665839525,0.003122353061000534,7.491865401904382e-06,-0.0019615232180520176,0.003279110990578637
1.5151515151515151,3.7468354430379747,0.0034504063227711714,0.003153381135358552,4.1220756064871085e-05,-0.0019811362374389167,0.0033126677499709604
1.6161616161616161,3.7468354430379747,0.00330307129983223,0.0030705801225389857,-9.081451983951571e-06,-0.0019120954267113645,0.003193218539721869
1.7171717171717171,3.7468354430379747,0.003352901003371851,0.0031644106592845357,9.558649520733651e-06,-0.001955193498796916,0.0032627838401818525
1.8181818181818181,3.7468354430379747,0.0034840063246357753,0.003133168300898275,-3.7714594556498282e-06,-0.0019851523876602147,0.0033225153373757704
1.9191919191919191,3.7468354430379747,0.0034703547609459327,0.0031109074837659596,7.088714892827291e-05,-0.0019743786734135677,0.0033076018360545098
2.0202020202020203,3.7468354430379747,0.003397763652833039,0.0029841511542079147,-3.8282137813537414e-05,-0.001914574442112286,0.0032116837004246006
2.121212121212121,3.7468354430379747,0.0033780283382481005,0.003008703975354024,4.446237262508337e-05,-0.0019160196940806373,0.003210267665306287
2.2222222222222223,3.7468354430379747,0.003276705120817773,0.00293705933952971,3.773992709867355e-05,-0.0018641293381042446,0.0031214595209647813
2.323232323232323,3.7468354430379747,0.0034872608616592126,0.003014231605317266,-6.22406126444719e-05,-0.0019504477400929434,0.0032782297454787414
2.4242424242424243,3.7468354430379747,0.0033236108111998766,0.0029220309251302874,-1.6282842143064628e-05,-0.001873692520899049,0.0031422532315464064
2.525252525252525,3.7468354430379747,0.003362796194131494,0.002957362314595654,2.9517356512008255e-05,-0.0018960475526181445,0.0031799366644434954
2.6262626262626263,3.7468354430379747,0.003371917330198883,0.0030905165983880815,-1.0130633944777071e-05,-0.0019387301785760893,0.003240441441913138
2.727272727272727,3.7468354430379747,0.003445253552213999,0.0029934780600880152,2.2441176743576505e-05,-0.0019316194836906042,0.003243285808330726
2.8282828282828283,3.7468354430379747,0.003260100454728207,0.0030726962842328584,2.4780621077961013e-05,-0.0018998390216883197,0.003170845488845411
2.929292929292929,3.7468354430379747,0.0033973153335813693,0.0031078336283443296,-9.909358320337375e-06,-0.0019515446885777098,0.0032622668627210623
3.0303030303030303,3.7468354430379747,0.0034261207041193847,0.003015395750576284,3.556521331699118e-05,-0.0019324549364087005,0.003240925709241242
3.131313131313131,3.7468354430379747,0.003237400406810229,0.0028911468786649956,3.819618631568847e-05,-0.0018385641856425673,0.003079621475577541
3.2323232323232323,3.7468354430379747,0.0032502351186161167,0.002880978073118452,-1.1016866669997498e-05,-0.0018393639575203706,0.003082299626726111
3.3333333333333335,3.7468354430379747,0.0034641414383543637,0.00308855844738711,9.956822301281379e-05,-0.001965809965722442,0.003296969423361218
3.4343434343434343,3.7468354430379747,0.003240149259083234,0.002814986810036651,3.359298802873476e-05,-0.0018165408207359653,0.0030504304616697487
3.5353535353535355,3.7468354430379747,0.0031926279443563643,0.002967903862957806,-4.5307905181877903e-05,-0.0018481595421942511,0.003087405405938557
3.6363636363636362,3.7468354430379747,0.0032360369272538565,0.002967844495134461,-7.00897936786679e-05,-0.0018611644267164953,0.003112992017140755
3.7373737373737375,3.7468354430379747,0.003171876655816703,0.003134650063258893,-7.553504195974579e-05,-0.0018919580157226786,0.003156140967493417
3.8383838383838382,3.7468354430379747,0.003332212582522492,0.0029876173649523966,-4.886077987194238e-05,-0.0018959489842424663,0.0031751038040760703
3.9393939393939394,3.7468354430379747,0.0029287038989211063,0.0029677821243578994,-2.2117661577044935e-06,-0.0017689458069837017,0.0029484397335179232
4.040404040404041,3.7468354430379747,0.003298487125871307,0.003006547892591627,-9.475910607187161e-05,-0.0018915105055388802,0.0031668953088960076
4.141414141414141,3.7468354430379747,0.0032716565031239474,0.0029468281276860786,-2.0847803591594928e-05,-0.0018655453892430075,0.003122150985100834
4.242424242424242,3.7468354430379747,0.0031454729219089436,0.002820168117885374,-6.648282739356996e-05,-0.0017896923119382954,0.002998307116453365
4.343434343434343,3.7468354430379747,0.0031583855390726516,0.0029063328681936964,8.149907821054865e-05,-0.0018194155221799041,0.003043480992347288
4.444444444444445,3.7468354430379747,0.0031248673937427497,0.0028641462328762774,1.2810033558854225e-05,-0.001796704087985708,0.0030030892408699924
4.545454545454545,3.7468354430379747,0.003305135456673827,0.0028359361182397915,1.4942600519168104e-05,-0.0018423214724740853,0.0030974135791614977
4.646464646464646,3.7468354430379747,0.0031494595420984736,0.0028557605178805693,4.8691131838862214e-05,-0.0018015660179937127,0.0030145437148551744
4.747474747474747,3.7468354430379747,0.0031958910014548924,0.0029313379122233,2.880542350448599e-05,-0.0018381686741034576,0.0030725744987208717
4.848484848484849,3.7468354430379747,0.0032608138589978967,0.0029778319258374954,0.00016289914084792088,-0.0018715937354506175,0.003141630592272025
4.94949494949495,3.7468354430379747,0.0032037351098792833,0.0029821260121787626,2.3815445262008946e-05,-0.0018557583366174137,0.003099153743489361
5.05050505050505,3.7468354430379747,0.0032362358196466367,0.0026755338727745717,3.2603511385922816e-06,-0.0017735309077263623,0.0029955094923310994
5.151515151515151,3.7468354430379747,0.003181695016804974,0.002810187105472277,0.00010180087756424146,-0.0017975646366831753,0.0030183218340614493
5.252525252525253,3.7468354430379747,0.003236418606427665,0.00313609503994967,-5.99245713882946e-05,-0.0019117540939132005,0.0031891306056004826
5.353535353535354,3.7468354430379747,0.0032946107519387577,0.002992597665369682,-3.803931188492085e-05,-0.001886162525192532,0.0031551540876411715
5.454545454545454,3.7468354430379747,0.0032964391837001276,0.0029129618221911896,-0.0001047104912172493,-0.001862820301767395,0.003127674733567462
5.555555555555555,3.7468354430379747,0.0032847026003708286,0.002866553771550812,4.4506717570239946e-05,-0.001845376911576492,0.0030978327285839592
5.656565656565657,3.7468354430379747,0.0032767728028751703,0.002918910541761413,9.697389851638966e-05,-0.001858705003390975,0.003117833203713643
5.757575757575758,3.7468354430379747,0.0030885624215537654,0.0027303029621213986,8.744069055094267e-06,-0.001745659615102549,0.0029259682747372327
5.858585858585858,3.7468354430379747,0.0031136631248125093,0.002957229554060808,-3.955004639234098e-05,-0.0018212678036619951,0.003039240150868621
5.959595959595959,3.7468354430379747,0.003169916069707098,0.0028774205157345166,8.871476667314987e-05,-0.001814200975632484,0.003038148467521472
6.0606060606060606,3.7468354430379747,0.003254519735029782,0.002607637611720436,-6.142370495576067e-06,-0.0017586472040250652,0.0029841544425101745
6.161616161616162,3.7468354430379747,0.0033627962426812413,0.002866105914940678,-1.5761969089448452e-05,-0.0018686706472865757,0.003144133712577878
6.262626262626262,3.7468354430379747,0.0031586403423286935,0.002968342115335818,3.505861674246384e-05,-0.0018380947372993535,0.0030685217760924107
6.363636363636363,3.7468354430379747,0.0032558029533923663,0.002860281983742723,-6.011513651006654e-05,-0.0018348254811405267,0.0030789272249518987
6.4646464646464645,3.7468354430379747,0.003330155556756484,0.003026989776571897,6.776566630741946e-05,-0.001907143599998514,0.0031915564966895327
6.565656565656566,3.7468354430379747,0.0032505141461852028,0.0028912975952422432,-5.2328053989707735e-05,-0.0018425435224282338,0.00308795319594397
6.666666666666667,3.7468354430379747,0.0033666784296685678,0.0028395210209660572,-4.198771197609948e-05,-0.0018618598351903873,0.0031373456948984445
6.767676767676767,3.7468354430379747,0.0032041989935969995,0.0028948872261563736,-5.274928274895019e-07,-0.001829725865926012,0.003061285569960822
6.8686868686868685,3.7468354430379747,0.003183096477063238,0.002750909576888118,-6.530602033185899e-05,-0.0017802018161854067,0.0029926561326804367
6.96969696969697,3.7468354430379747,0.003240650052078957,0.002828074080834622,1.0109439053651174e-05,-0.0018206172398740736,0.0030553762373334665
7.070707070707071,3.7468354430379747,0.003101783191746849,0.0029060250330664576,-6.206735455126425e-06,-0.001802342467443992,0.0030087034466271495
7.171717171717171,3.7468354430379747,0.0032858804456865776,0.0028970737763035423,-4.149716963992499e-05,-0.001854886266597036,0.0031105907385395918
7.2727272727272725,3.7468354430379747,0.003414075388570391,0.002899778824555079,-3.215916958971772e-05,-0.001894156263937641,0.0031886779563849235
7.373737373737374,3.7468354430379747,0.003331573969578787,0.0028577746585154253,3.6933517281411e-06,-0.0018568045884282637,0.0031217646248455342
7.474747474747475,3.7468354430379747,0.0032856431647497546,0.002951069817767415,4.173066949726114e-06,-0.001871013894755151,0.0031317972385550563
7.575757575757575,3.7468354430379747,0.003254974034664639,0.0028983958514284197,3.7319624053953166e-05,-0.0018460109658279176,0.0030928190219212384
7.6767676767676765,3.7468354430379747,0.003212960627495362,0.0029878005177852566,-4.277615426472615e-05,-0.0018602283435841854,0.0031073898853507254
7.777777777777778,3.7468354430379747,0.0034092924369215614,0.0030691285284770125,-5.555417286785483e-05,-0.0019435262896195721,0.003254001684550001
7.878787878787879,3.7468354430379747,0.0034675213468607375,0.0030930181705711417,-3.4913474810196046e-05,-0.0019681618552295638,0.0032968190750941343
7.979797979797979,3.7468354430379747,0.003375983484559733,0.003185810775358763,6.490605131944672e-05,-0.0019685382779755485,0.003286951263460124
8.080808080808081,3.7468354430379747,0.0034982435054982633,0.0031865233630188512,1.8000345432412543e-05,-0.002005430060555134,0.003353412611703729
8.181818181818182,3.7468354430379747,0.003474013911853349,0.0029514181511712733,-7.734686988661115e-05,-0.0019276296189073864,0.0032472021281084646
8.282828282828282,3.7468354430379747,0.0034731102960865816,0.0030886320069959667,0.00010138863389302368,-0.0019685226909247643,0.003302396424469719
8.383838383838384,3.7468354430379747,0.003320260933683663,0.003249033691065763,1.9734994768928256e-05,-0.0019707883874248277,0.003285404292749102
8.484848484848484,3.7468354430379747,0.003309611712094229,0.0030848844497384943,6.460851045716322e-06,-0.001918348848549817,0.0032031854887824545
8.585858585858587,3.7468354430379747,0.0035277221358471127,0.003254684549110592,-3.909021177193197e-05,-0.0020347220054873112,0.0034001112315389095
8.686868686868687,3.7468354430379747,0.0034607871229819604,0.0031532976064072493,-2.502673896171839e-05,-0.001984225418816763,0.0033180296211722657
8.787878787878787,3.7468354430379747,0.003436909054473058,0.0032654293621862877,-9.126452715679211e-07,-0.0020107015249978036,0.0033544584548435203
8.88888888888889,3.7468354430379747,0.0035114796860843235,0.0032153554410844602,1.584585791250059e-05,-0.002018050538150635,0.003373291887314893
8.98989898989899,3.7468354430379747,0.003617686420561017,0.003386569723356994,0.00011008677732038086,-0.002101276843175403,0.003513021423763387
9.09090909090909,3.7468354430379747,0.0036716609033728607,0.003367343729880747,8.738094223113405e-05,-0.002111701389976082,0.003532599545730978
9.191919191919192,3.7468354430379747,0.0037779385997584345,0.0032805304727419413,-8.941797535242575e-05,-0.0021175407217501126,0.003558798149435565
9.292929292929292,3.7468354430379747,0.003746301909417428,0.0033952403193765164,1.3678644148274657e-05,-0.0021424626686381834,0.0035837690839855374
9.393939393939394,3.7468354430379747,0.0037461364323450866,0.003462576086221954,2.309965079665501e-05,-0.002162613755570112,0.003612933666407007
9.494949494949495,3.7468354430379747,0.003986619368448351,0.0034206757490825497,2.3495403266840503e-06,-0.0022221885352592704,0.003735939096906448
9.595959595959595,3.7468354430379747,0.003937955213686067,0.003480238370795792,-3.780902791729062e-05,-0.0022254580753445575,0.0037307929603754733
9.696969696969697,3.7468354430379747,0.0038720873977493037,0.003397854852732065,3.751749851298308e-05,-0.0021809826751444106,0.0036586760104555154
9.797979797979798,3.7468354430379747,0.003849245930498499,0.0034275239225483364,-9.931930112185537e-06,-0.0021830309559140505,0.0036567099819718014
9.8989898989899,3.7468354430379747,0.004015482702572954,0.003456451537046614,-5.493238445224058e-05,-0.00224158027188587,0.003768406812421788
10.0,3.7468354430379747,0.0037518283351354897,0.0034532917216877662,-9.396789491750918e-06,-0.0021615360170469766,0.00361186194911213
0.0,3.848101265822785,0.0040838060288083755,0.003529890786424678,-9.062978944432537e-05,-0.0022841090445699158,0.0038401631015603224
0.10101010101010101,3.848101265822785,0.0038775503810392457,0.0035128587412843145,-7.466546736237161e-05,-0.0022171227366970677,0.0037109313573495946
0.20202020202020202,3.848101265822785,0.003937774723999382,0.0034508165946105424,-4.226743807672402e-05,-0.0022165773955829774,0.00371900876473256
0.30303030303030304,3.848101265822785,0.003912720050880315,0.0034892439203143694,-3.3163007304371925e-05,-0.0022205891913584055,0.0037195518598005573
0.40404040404040403,3.848101265822785,0.003823252638738772,0.0035802757143661825,0.00011358535955070649,-0.002221058505931486,0.003712955865594581
0.5050505050505051,3.848101265822785,0.003807608877411396,0.003289239352897833,-1.8154010181224952e-05,-0.0021290544690927686,0.0035768467437431676
0.6060606060606061,3.848101265822785,0.0037233306435737862,0.0034660093377228197,-3.590331915947102e-05,-0.0021568019943889816,0.0036021077409596047
0.7070707070707071,3.848101265822785,0.0036302565322511838,0.0033653803650519334,3.025353160461694e-05,-0.002098691069190935,0.0035057237863547488
0.8080808080808081,3.848101265822785,0.0036844401932549,0.003243092143351688,4.811750527298951e-05,-0.0020782597009819763,0.0034857872894783182
0.9090909090909091,3.848101265822785,0.0035199974192854752,0.0033408979881063283,3.0288011008660318e-05,-0.0020582686222175408,0.0034343530676550407
1.0101010101010102,3.848101265822785,0.003624039731286813,0.0032803843024086098,1.5944909357482576e-05,-0.0020713272101086267,0.003465126955829915
1.1111111111111112,3.848101265822785,0.003651283540411675,0.0031377103612384933,0.00010634955208024333,-0.0020366981704950504,0.003428462962993524
1.2121212121212122,3.848101265822785,0.00357845995023655,0.0030978509957474407,-3.384162488005659e-05,-0.002002893283795197,0.003364514296884665
1.3131313131313131,3.848101265822785,0.0033942402039846015,0.0032039989528312753,-7.873247497696e-05,-0.001979471747044763,0.003306044494666225
1.4141414141414141,3.848101265822785,0.0035563257605027952,0.0030857658901803876,-8.025104732266715e-06,-0.0019926274952049546,0.003345983939681284
1.5151515151515151,3.848101265822785,0.0035333526512597666,0.003341577278393596,-5.410958422787384e-05,-0.002062478978896009,0.0034427506838217757
1.6161616161616161,3.848101265822785,0.0035719378639876833,0.003265890338136117,-2.2050353093995087e-06,-0.00205134846063714,0.0034291743952505455
1.7171717171717171,3.848101265822785,0.0035081939760763644,0.0030673393902031216,2.2464217628389492e-05,-0.0019726600098838457,0.0033100888598946673
1.8181818181818181,3.848101265822785,0.0034903450526612397,0.0030474417532181538,-6.719264101564679e-06,-0.001961336041763818,0.003291340460178201
1.9191919191919191,3.848101265822785,0.0033245474347070323,0.00323355723975763,-3.042013880219226e-05,-0.0019674314023393987,0.0032804221979077243
2.0202020202020203,3.848101265822785,0.003434881968973126,0.0029922190195791213,9.715484182332338e-05,-0.001928130296565674,0.0032407077674801396
2.121212121212121,3.848101265822785,0.003521079896376952,0.0030897212284149577,-3.506198025383942e-05,-0.001983240337437573,0.003326997690198314
2.2222222222222223,3.848101265822785,0.0035096909527905103,0.0028563538429501826,2.934133421510574e-05,-0.0019098134387222079,0.003233318939007679
2.323232323232323,3.848101265822785,0.0034927578971295616,0.0029682100422724882,-5.897373360047143e-07,-0.001938290381820615,0.0032622677022114592
2.4242424242424243,3.848101265822785,0.003105024929428339,0.003111006867533113,3.065353397745799e-05,-0.0018648095390884356,0.003108473673739653
2.525252525252525,3.848101265822785,0.0033404364916698667,0.002919159137911754,8.270743320684225e-06,-0.0018778786888744862,0.0031510229344843934
2.6262626262626263,3.848101265822785,0.003288727246642166,0.0031289182838377897,8.752792464214501e-05,-0.0019252936591439866,0.0032153819570843027
2.727272727272727,3.848101265822785,0.0031712742261779305,0.003039580587356294,-3.3526163388202765e-05,-0.0018632564440602673,0.003108063512940891
2.8282828282828283,3.848101265822785,0.003432914732309608,0.003007432698848008,0.00010142296632172181,-0.0019321042293472847,0.0032459443669594955
2.929292929292929,3.848101265822785,0.0032429712047088765,0.0028537772511048566,1.1820205869851345e-05,-0.00182902453674412,0.003067019487272399
3.0303030303030303,3.848101265822785,0.003269767220679498,0.0029204769912066185,2.0191857767912912e-05,-0.0018570732635658348,0.003110065390367486
3.131313131313131,3.848101265822785,0.003147615105534389,0.0029612083256299396,-7.156184775172989e-05,-0.0018326470293492983,0.003061185201542413
3.2323232323232323,3.848101265822785,0.003283731080891505,0.002830952972276294,1.8473428172648267e-05,-0.0018344052159503395,0.0030825509049961152
3.3333333333333335,3.848101265822785,0.003408465458752349,0.0028636494763450916,-7.209250384941824e-05,-0.0018816344805292322,0.0031738095040686858
3.4343434343434343,3.848101265822785,0.0032495485478209294,0.002971435173317222,-4.268487583450147e-05,-0.0018662951163414452,0.0031206787558718486
3.5353535353535355,3.848101265822785,0.003226204597651585,0.0029007442792768068,-1.7554016594936737e-05,-0.0018380846630785175,0.0030765635666676586
3.6363636363636362,3.848101265822785,0.0031336739005129967,0.00285692098571727,-5.080624403966233e-05,-0.0017971784658690798,0.003006159464818568
3.7373737373737375,3.848101265822785,0.003140979816016692,0.002849731405997632,3.989729016530135e-05,-0.0017972133666042972,0.0030067507121365527
3.8383838383838382,3.848101265822785,0.0033846887379007685,0.0028734841519111255,2.5970661325955705e-06,-0.001877451866943568,0.0031602531244354875
3.9393939393939394,3.848101265822785,0.0032225703620870575,0.002901390179984574,-1.3171768822780902e-05,-0.0018371881626214894,0.0030746725352020607
4.040404040404041,3.848101265822785,0.0032671718797769593,0.002957585375626074,5.283650890860614e-05,-0.0018674271766209098,0.0031252453767437846
4.141414141414141,3.848101265822785,0.003399549347981689,0.002816711701651003,-5.7714730456459245e-05,-0.0018648783148898075,0.003150435385961017
4.242424242424242,3.848101265822785,0.003190655431024097,0.0028546809496709396,-6.068310601082618e-05,-0.0018136009142085108,0.0030384583995991285
4.343434343434343,3.848101265822785,0.0031500626984952637,0.002801698320051797,-1.1777329071409474e-05,-0.0017855283055641183,0.0029912036418539745
4.444444444444445,3.848101265822785,0.0033634653970706367,0.002943937865629357,-2.5981951960816136e-06,-0.001892220978809998,0.003174564024187002
4.545454545454545,3.848101265822785,0.00310401242305824,0.002865105599012462,-2.3013903141702373e-05,-0.0017907354066212106,0.0029919874268615324
4.646464646464646,3.848101265822785,0.0031450493373089516,0.002853653550332675,-1.5104161311443793e-05,-0.001799610866292488,0.0030100626437197958
4.747474747474747,3.848101265822785,0.003087551292234526,0.002868566825051164,-3.545141550293319e-05,-0.0017868354351857068,0.002984723071408615
4.848484848484849,3.848101265822785,0.0031203579051275613,0.0028916813478011964,-5.476468575905497e-05,-0.0018036117758786273,0.003014029069702362
4.94949494949495,3.848101265822785,0.0031371951053005675,0.002782442926449199,-3.4923923606740314e-05,-0.00177589140952493,0.0029763357470814138
5.05050505050505,3.848101265822785,0.0034091143284807764,0.0028674738475588015,-9.699713790865462e-05,-0.0018829764528118735,0.0031776006553872397
5.151515151515151,3.848101265822785,0.0032172888773393574,0.0027539309924414397,-3.5461699536908134e-05,-0.0017913659609342391,0.0030130822552398386
5.252525252525253,3.848101265822785,0.0032574691945452773,0.002834364826230145,-2.6113974508176224e-05,-0.0018275502062326265,0.0030682110802597276
5.353535353535354,3.848101265822785,0.0031800721930189445,0.0026397282071064826,-4.498083843906482e-06,-0.0017459401200376281,0.0029472968275919627
5.454545454545454,3.848101265822785,0.00320658129781903,0.0028962073800064565,1.6358155179027053e-05,-0.001830836603347646,0.0030633411752390666
5.555555555555555,3.848101265822785,0.0030556578680777575,0.0027337929092360997,6.335772059926537e-05,-0.001736835233194157,0.002910184782245144
5.656565656565657,3.848101265822785,0.003156406793659783,0.0028109318630830777,-1.0393328499342617e-06,-0.0017902015970228582,0.0029986331215147806
5.757575757575758,3.848101265822785,0.0033122471432833604,0.0027208039481065875,1.4172871564355212e-05,-0.0018099153274169842,0.0030598010995056824
5.858585858585858,3.848101265822785,0.0031494367316086307,0.0029178163606004928,4.580778861417542e-05,-0.001820175927662737,0.0030412860896211194
5.959595959595959,3.848101265822785,0.0031336036255692856,0.0028421357505621597,-3.2528368434051386e-05,-0.0017927218128394335,0.0029990422969244333
6.0606060606060606,3.848101265822785,0.0032425858373043713,0.0031051389699542627,5.171738612479441e-05,-0.00190431744217759,0.0031773566611670587
6.161616161616162,3.848101265822785,0.00332807423632109,0.002949020332624219,2.6759911559143753e-05,-0.0018831283706835927,0.0031560083542192196
6.262626262626262,3.848101265822785,0.003295345275538954,0.002900800677555145,5.9977434039414583e-05,-0.0018588437859282294,0.003118588963881198
6.363636363636363,3.848101265822785,0.003397299585090577,0.0029833435365322937,-5.283936891377346e-05,-0.001914192936486861,0.0032117047444781438
6.4646464646464645,3.848101265822785,0.003348724778450043,0.00296602054350818,-4.959108680506789e-05,-0.0018944235965874668,0.003175882058035479
6.565656565656566,3.848101265822785,0.0033795549129219927,0.002878149764064667,-3.7089673938944775e-05,-0.0018773114030959978,0.003159493508508816
6.666666666666667,3.848101265822785,0.0032741224529776796,0.003044536298530666,-2.18532590875124e-06,-0.0018955976254525035,0.003165581902776575
6.767676767676767,3.848101265822785,0.0034193982920028847,0.0028461777428994955,-6.187751996327245e-05,-0.0018796728104707137,0.003173686120767453
6.8686868686868685,3.848101265822785,0.0032815838080734907,0.0031828809356620044,5.3526642713509647e-05,-0.0019393394231206483,0.003234691345856209
6.96969696969697,3.848101265822785,0.0033341120343997658,0.0029220968207667353,1.091743883394446e-05,-0.0018768626565499502,0.003148446010888041
7.070707070707071,3.848101265822785,0.0033315031747949593,0.0030471993971225076,6.193940162733568e-05,-0.00191361077157524,0.0032006394005210277
7.171717171717171,3.848101265822785,0.0032656797082721216,0.0030208966806569686,2.278375678260569e-05,-0.0018859729166787271,0.0031506756450221753
7.2727272727272725,3.848101265822785,0.003325209177623451,0.002966618045455808,4.447913471534393e-05,-0.0018875481669237775,0.0031621429967029235
7.373737373737374,3.848101265822785,0.0032853935374555234,0.0029385909274657223,4.8904158344951786e-05,-0.0018671953394763735,0.0031275988461961263
7.474747474747475,3.848101265822785,0.0033894912588352745,0.0029471559390250165,6.452199425742846e-05,-0.0019009941593580873,0.003193353893969516
7.575757575757575,3.848101265822785,0.003467226604564914,0.0028116006704172218,-6.003633767868839e-05,-0.0018836481824946406,0.0031920393319844575
7.6767676767676765,3.848101265822785,0.0031735893524808185,0.0030502830387339483,-5.078267960879931e-05,-0.00186716171736443,0.0031150099297487777
7.777777777777778,3.848101265822785,0.003452016474234779,0.00290843508569845,8.471620100623544e-07,-0.0019081354679799688,0.0032148792681976394
7.878787878787879,3.848101265822785,0.003460305585189637,0.0029337934384641574,2.428511421863054e-05,-0.0019182297070961382,0.0032296758601874495
7.979797979797979,3.848101265822785,0.003497932201393336,0.003123577718482697,-2.2240503844253585e-05,-0.00198645297596281,0.0033268135330890404
8.080808080808081,3.848101265822785,0.0033770699205968747,0.0031551940541479358,-8.954652618943027e-06,-0.0019596791924234433,0.003271816069315656
8.181818181818182,3.848101265822785,0.003530645720913161,0.0029510170517096706,4.3989984569220886e-05,-0.0019444988317868493,0.0032803613331994887
8.282828282828282,3.848101265822785,0.003352401122826749,0.0030508748276634775,-6.206088249428632e-05,-0.001920982785147068,0.0032140673552285273
8.383838383838384,3.848101265822785,0.0036075592418465235,0.0032494618966572167,7.351513761026856e-05,-0.002057106341551122,0.0034448618885695656
8.484848484848484,3.848101265822785,0.0036082968532299238,0.002981344319049755,5.586695471269808e-05,-0.0019768923516839034,0.0033406598382391
8.585858585858587,3.848101265822785,0.003426299326999774,0.003262979063977582,2.0861252734144016e-05,-0.002006783517293207,0.003347823480237764
8.686868686868687,3.848101265822785,0.003627333895211084,0.0033428241623221894,-1.2614365729968725e-05,-0.002091047417259982,0.0034938463824986197
8.787878787878787,3.848101265822785,0.003596745390272715,0.002993876000761739,8.562993688106641e-05,-0.001977186417310336,0.0033397093681738236
8.88888888888889,3.848101265822785,0.0035895347321050187,0.003130020947234356,-6.56867066451341e-05,-0.0020158667038018122,0.003385175926165402
8.98989898989899,3.848101265822785,0.0035089678670472075,0.0034862120387744843,-2.649091982720599e-05,-0.0020985539717465074,0.0034979464198287907
9.09090909090909,3.848101265822785,0.0037003304195657154,0.003255563209096862,3.7622813928042085e-05,-0.0020867680885987734,0.003499817691727947
9.191919191919192,3.848101265822785,0.0037445351848581355,0.003468002583457803,-5.912454813544859e-05,-0.0021637613304947814,0.0036156624719614738
9.292929292929292,3.848101265822785,0.003662138134821718,0.003433923318163206,-6.801328100893575e-05,-0.0021288184358954775,0.0035554832241514356
9.393939393939394,3.848101265822785,0.0037847238611502447,0.0032247869410566006,-7.446587330321407e-06,-0.0021028532406620537,0.0035381667276168857
9.494949494949495,3.848101265822785,0.003956807906634019,0.0033722048002045634,-0.00010931839616969748,-0.0021987038120515746,0.003704156981488355
9.595959595959595,3.848101265822785,0.003840930496232782,0.003436158177143133,3.0276614560201055e-05,-0.0021831266020127743,0.003655767413681784
9.696969696969697,3.848101265822785,0.004022196505942972,0.003446157543821873,2.7224402873775724e-05,-0.0022405062149294533,0.003767647438642104
9.797979797979798,3.848101265822785,0.003782130936167481,0.00352045270866967,-4.994130974971302e-05,-0.002190775093451145,0.0036593402406416256
9.8989898989899,3.848101265822785,0.003868643185396901,0.0035112937007387543,4.200333736367122e-05,-0.0022139810658406965,0.003703637933508694
10.0,3.848101265822785,0.003997381385497528,0.0037935517948486036,-1.2919770788804678e-05,-0.0023372799541038396,0.003899528252635742
0.0,3.9493670886075947,0.003972234614413495,0.0036446278406175635,1.4723905964138463e-05,-0.0022850587365093175,0.003819069709184908
0.10101010101010101,3.9493670886075947,0.004073018851816605,0.003578643182488995,4.362919094357546e-05,-0.00229549861029168,0.0038504543845542362
0.20202020202020202,3.9493670886075947,0.003898037161430633,0.003637166027683239,-2.959206660207878e-06,-0.0022605609567341615,0.003774372577970692
0.30303030303030304,3.9493670886075947,0.0039646398635375295,0.0032459522244533304,5.545834007774122e-05,-0.002163177626397258,0.0036598866634406793
0.40404040404040403,3.9493670886075947,0.0036730927742002397,0.0033702897320538492,-6.865221911549267e-05,-0.0021130147518762265,0.0035334425035183194
0.5050505050505051,3.9493670886075947,0.0037675837308710565,0.0033075315365977322,-4.599430768552361e-05,-0.0021225345802406365,0.003560814016078721
0.6060606060606061,3.9493670886075947,0.003759901328637083,0.0034828368449911786,-2.787747239778036e-05,-0.0021728214520884783,0.0036296307070290716
0.7070707070707071,3.9493670886075947,0.0038268961418245697,0.0033087079227709813,-4.2034733599523784e-05,-0.002140681219378665,0.0035966514108165854
0.8080808080808081,3.9493670886075947,0.00370446459887987,0.003305587884721081,-2.671729397737625e-05,-0.0021030157450802854,0.0035223113678273777
0.9090909090909091,3.9493670886075947,0.00376370863770588,0.003189257755551537,-6.521967868021234e-05,-0.002085889917977225,0.0035137147860788503
1.0101010101010102,3.9493670886075947,0.0036459672765830663,0.003253965478632611,-1.1658188035624336e-05,-0.002069979826564703,0.003466687872287707
1.1111111111111112,3.9493670886075947,0.0035272824565619615,0.003061089035768585,7.3611659192379795e-06,-0.001976511447699164,0.003318858918321597
1.2121212121212122,3.9493670886075947,0.0036376616509208697,0.003104658428243181,3.295093559741551e-05,-0.0020226960237492153,0.0034030936853815114
1.3131313131313131,3.9493670886075947,0.003628400043084831,0.0029955198009482837,5.357945695287477e-05,-0.0019871759532099345,0.00335828733885758
1.4141414141414141,3.9493670886075947,0.0035350918796561116,0.003386807666321839,1.2747901054127035e-05,-0.0020765698637933852,0.003463401797949441
1.5151515151515151,3.9493670886075947,0.0034492173422164254,0.003052230983437118,1.5891828079216296e-05,-0.0019504344976960632,0.003268969846936119
1.6161616161616161,3.9493670886075947,0.0035165828744916985,0.003349467681905952,-3.330680884974141e-05,-0.0020598151669192952,0.00343655877397639
1.7171717171717171,3.9493670886075947,0.0035248805123239135,0.0030133952034257544,1.7778326443000152e-05,-0.0019614827147249,0.0032991549609525444
1.8181818181818181,3.9493670886075947,0.0035996041669273866,0.0030107642283979654,1.2465695643550654e-05,-0.0019831105185976056,0.0033443621388970723
1.9191919191919191,3.9493670886075947,0.0035491392984257422,0.003043526674979113,-4.015948774540767e-05,-0.0019777997920214564,0.0033260160261688308
2.0202020202020203,3.9493670886075947,0.0034427789624859187,0.0032169566085024173,0.00011310694542704569,-0.001997920671296501,0.0033413538893467018
2.121212121212121,3.9493670886075947,0.003577381453084647,0.0031395978272428034,3.124967506542832e-05,-0.002015093784098235,0.0033802548967427847
2.2222222222222223,3.9493670886075947,0.003456390423544994,0.003076467369315171,-2.6429679679953877e-05,-0.0019598573378580494,0.0032832772445666072
2.323232323232323,3.9493670886075947,0.0033853526864488464,0.003039177626097763,7.258840435531566e-05,-0.0019273590937639827,0.0032286734958578453
2.4242424242424243,3.9493670886075947,0.0034413066305577313,0.0031195149215207966,4.1153125091809094e-05,-0.0019682464656235583,0.0032929983338399484
2.525252525252525,3.9493670886075947,0.0033922901577725303,0.0030595694261006247,-8.231143870398538e-06,-0.0019355578751619465,0.0032388043459979842
2.6262626262626263,3.9493670886075947,0.003240228633849566,0.00301090619892944,1.39712462416219e-05,-0.0018753404498337016,0.0031319640556571934
2.727272727272727,3.9493670886075947,0.003248012467556115,0.002977006164804874,-9.483622840830485e-05,-0.0018675055897082965,0.003125664615096233
2.8282828282828283,3.9493670886075947,0.0032539148568026988,0.003004998726328357,-9.489439819458905e-05,-0.0018776740749393164,0.0031411755889649796
2.929292929292929,3.9493670886075947,0.0034568422567320995,0.002842991019703738,-3.7338956873873174e-05,-0.001889949982930751,0.003195116183603391
3.0303030303030303,3.9493670886075947,0.003300760122535882,0.0029448697677546105,-9.65805077571638e-05,-0.0018736889670871476,0.0031424433206548304
3.131313131313131,3.9493670886075947,0.003284015152037275,0.002741345682268608,-3.7192323512033317e-05,-0.001807608250291765,0.0030497968322079666
3.2323232323232323,3.9493670886075947,0.003469776969438587,0.002887007685270549,2.301206526296133e-05,-0.0019070353964127408,0.003218459488786007
3.3333333333333335,3.9493670886075947,0.0031756136883658447,0.002792378374548973,-2.1317188113883892e-05,-0.0017903976188744452,0.0030026234466875882
3.4343434343434343,3.9493670886075947,0.0031803142273189315,0.0029825671694035973,0.00010663319757523104,-0.0018488644190167583,0.0030917174221099407
3.5353535353535355,3.9493670886075947,0.0033660504139130885,0.0028002631648136487,-4.176789693065096e-05,-0.0018498940736180211,0.0031226872830740033
3.6363636363636362,3.9493670886075947,0.003053838009926231,0.0031478998815504615,5.540271177784951e-05,-0.0018605213674430076,0.0031034226793705613
3.7373737373737375,3.9493670886075947,0.0032435531838674956,0.002896473169181488,1.8472309495178724e-05,-0.0018420079059146951,0.003084858665341751
3.8383838383838382,3.9493670886075947,0.0031464170538002983,0.002941466533911103,-2.051451448487754e-05,-0.0018263650763134201,0.0030493192218915438
3.9393939393939394,3.9493670886075947,0.0031468309320075447,0.0028830656504959876,5.318692190639004e-05,-0.0018089689747510596,0.003024992369859092
4.040404040404041,3.9493670886075947,0.0031805418886582002,0.0027818311155880632,-3.09895516318284e-05,-0.0017887119012738788,0.003001596529814395
4.141414141414141,3.9493670886075947,0.003355491241211572,0.0028176629809416984,-7.317167950849179e-06,-0.0018519462666459808,0.003121548223818004
4.242424242424242,3.9493670886075947,0.0032067857280961482,0.003001621210060299,1.1144999724145961e-05,-0.001862522081446934,0.0031093441704143168
4.343434343434343,3.9493670886075947,0.003101308481962386,0.0030222186849387907,6.140809607116264e-05,-0.001837058150070353,0.003064376037748691
4.444444444444445,3.9493670886075947,0.003188949071855813,0.0026023626112797937,-0.00012012395662766249,-0.001737393504940682,0.0029472317188289966
4.545454545454545,3.9493670886075947,0.003254820631217907,0.0028607523487650163,3.630415870283183e-06,-0.0018346718939948768,0.0030767783664994467
4.646464646464646,3.9493670886075947,0.0033464788382731258,0.002989557065543789,4.93311081086704e-05,-0.0019008107711450744,0.0031842084231692705
4.747474747474747,3.9493670886075947,0.003171182393729679,0.002812760242557597,4.960093567910572e-05,-0.0017951827908861825,0.0030092562130687754
4.848484848484849,3.9493670886075947,0.0032398726427675796,0.002653168359804086,-5.406884641606102e-05,-0.0017679123007714995,0.00299147452298892
4.94949494949495,3.9493670886075947,0.00318617449250726,0.002733817888587365,-4.900231160226527e-05,-0.0017759977143283875,0.0029870137262011627
5.05050505050505,3.9493670886075947,0.003188064787436958,0.002864958779345815,-4.3447916030902166e-05,-0.0018159070700348317,0.003040351107779765
5.151515151515151,3.9493670886075947,0.003231376959003927,0.002987798755473738,-3.1186686764107784e-05,-0.0018657527143432994,0.003117202628336407
5.252525252525253,3.9493670886075947,0.003281970715996274,0.0029760318515009666,-6.0801974577441036e-05,-0.0018774007702491722,0.0031419641334115463
5.353535353535354,3.9493670886075947,0.0032428774331118167,0.0030023005074453603,1.2600217254309823e-05,-0.001873553382167153,0.0031296079812977223
5.454545454545454,3.9493670886075947,0.00324511054695353,0.002843672359594585,-3.5196252023557554e-05,-0.0018266348719644344,0.0030647838607216937
5.555555555555555,3.9493670886075947,0.0031639534513370465,0.002833894207985987,5.408634530833004e-05,-0.00179935429779691,0.0030139715430722363
5.656565656565657,3.9493670886075947,0.0032042999428593013,0.002886401389964897,-3.707591203778079e-05,-0.0018272103998472594,0.0030584439129443235
5.757575757575758,3.9493670886075947,0.0032034575728832827,0.0028269494408478804,2.200139390911499e-05,-0.001809122104119349,0.0030330221153056108
5.858585858585858,3.9493670886075947,0.0032460068776784764,0.0029769474928406487,9.79324491795779e-06,-0.0018668863111557374,0.003120236002573495
5.959595959595959,3.9493670886075947,0.0030212354462255905,0.002716334088710999,-6.294940821435703e-05,-0.0017212708604809768,0.00288297373460155
6.0606060606060606,3.9493670886075947,0.0031516947305173415,0.0028870886559981238,6.855788251347705e-05,-0.0018116350159546395,0.0030304024531540934
6.161616161616162,3.9493670886075947,0.0032287446991710426,0.003055237168551445,-6.503350215727508e-05,-0.0018851945603167463,0.0031475980914120938
6.262626262626262,3.9493670886075947,0.003198271066209573,0.0028769448919372703,2.873839791062137e-05,-0.001822564787444053,0.003050733977877828
6.363636363636363,3.9493670886075947,0.0033091065241002355,0.0027172710311334884,-1.3502150356369337e-05,-0.001807913266570117,0.003056559417351531
6.4646464646464645,3.9493670886075947,0.0032040104328965547,0.0029456035265469287,-6.163201149111433e-05,-0.0018448841878330449,0.003084787524936482
6.565656565656566,3.9493670886075947,0.0032894022794858497,0.0029104058324996357,-2.1919059658290353e-06,-0.0018599424335956456,0.0031172340784478597
6.666666666666667,3.9493670886075947,0.0033738629317379212,0.0026808768566556605,-8.61563202893242e-05,-0.0018164219365180744,0.0030898882643325336
6.767676767676767,3.9493670886075947,0.003200391635027088,0.0029864434839173815,-8.532769508984619e-05,-0.0018560505356833407,0.003102483682861465
6.8686868686868685,3.9493670886075947,0.0032787897341259847,0.0030084311603806395,-3.78177638876135e-05,-0.0018861662683519872,0.0031529981783494196
6.96969696969697,3.9493670886075947,0.003326370165795779,0.0030357205323175603,-2.650204427731111e-05,-0.0019086272094340016,0.0031913186138159987
7.070707070707071,3.9493670886075947,0.003404038182623152,0.0028771969503085673,5.306923939659202e-05,-0.0018843705398795157,0.003174917163384645
7.171717171717171,3.9493670886075947,0.003458928253515255,0.0029471983202000954,2.0456723649483803e-05,-0.001921837972114605,0.0032337703220437536
7.2727272727272725,3.9493670886075947,0.003195942920677623,0.002961236101977812,6.0524455837553385e-05,-0.0018471537067966306,0.0030870728006605983
7.373737373737374,3.9493670886075947,0.0032410066901402733,0.0030279920692844677,-4.719372049148735e-05,-0.0018806996278274224,0.0031409870303301915
7.474747474747475,3.9493670886075947,0.0032995039726469266,0.0027936718048503324,-1.7726935563042238e-05,-0.0018279527332491774,0.003078074094801253
7.575757575757575,3.9493670886075947,0.0033868973970101763,0.0030854337801456974,-3.338088333333803e-06,-0.0019416993531467621,0.0032466846750827077
7.6767676767676765,3.9493670886075947,0.0033030400519406477,0.0030167175912775126,-4.164350141678632e-05,-0.0018959272929654479,0.0031704135573288354
7.777777777777778,3.9493670886075947,0.0033587656280427616,0.00311187380770195,-2.8996134126065795e-06,-0.0019411918307234133,0.0032423811587074225
7.878787878787879,3.9493670886075947,0.0034433552698809587,0.002984688215863169,-2.9997329557397198e-05,-0.0019284130457232383,0.0032388913045712296
7.979797979797979,3.9493670886075947,0.003379104968091824,0.0030018417092880097,-7.361906161195414e-06,-0.00191428400321395,0.003207183872607029
8.080808080808081,3.9493670886075947,0.0033189357888628855,0.0032495272523485174,5.10053022610581e-06,-0.0019705389123634205,0.003284793431233021
8.181818181818182,3.9493670886075947,0.003491869772069216,0.003070913981558903,-6.619216567938187e-05,-0.0019688351260884356,0.003303570748566829
8.282828282828282,3.9493670886075947,0.003405067770172743,0.003372195919709508,-5.13793772921385e-05,-0.002033179106964675,0.0033899197218660703
8.383838383838384,3.9493670886075947,0.003604347390151518,0.0031918641749867334,-5.9565286266001406e-05,-0.0020388634695414753,0.0034183875996744565
8.484848484848484,3.9493670886075947,0.0036379681143317317,0.003154798169590081,1.3294662024466422e-05,-0.0020378298851765437,0.0034221394752022467
8.585858585858587,3.9493670886075947,0.003596953771827089,0.0033133728672806472,2.1975952253101945e-05,-0.002073097991732321,0.003464089489215071
8.686868686868687,3.9493670886075947,0.003441473938589152,0.0031689081033296576,3.764396379354883e-05,-0.001983114612575643,0.0033142507433768457
8.787878787878787,3.9493670886075947,0.0037402137899791967,0.003279029156269257,-4.616601278794918e-06,-0.0021057728838745357,0.003532283294614745
8.88888888888889,3.9493670886075947,0.0036253347823028484,0.003094877189053386,-4.174752482421233e-05,-0.0020160635914068703,0.003392134983480723
8.98989898989899,3.9493670886075947,0.0034724949031672563,0.003255409407811604,7.799326186566409e-05,-0.002018371293293658,0.00337190858940922
9.09090909090909,3.9493670886075947,0.0037400006793416123,0.00328820714726308,-1.1832236466899296e-05,-0.0021084623479814078,0.00353587816046697
9.191919191919192,3.9493670886075947,0.0035618204121958376,0.003481455086666239,-8.232404480011404e-05,-0.0021129826496586227,0.003525210365699481
9.292929292929292,3.9493670886075947,0.003480950539861953,0.0033242604500446538,-1.4528229150159945e-05,-0.002041563296971982,0.0034054032361525628
9.393939393939394,3.9493670886075947,0.0036399385401360155,0.0033251583062922376,-4.303244279805158e-06,-0.0020895290539284755,0.003493209701761297
9.494949494949495,3.9493670886075947,0.003764186289789322,0.00346508051118484,3.648102273436589e-05,-0.0021687800402922486,0.0036244538092065647
9.595959595959595,3.9493670886075947,0.0038769463048926736,0.003185440347525295,1.4637404536264368e-05,-0.0021187159957253908,0.003581704124394347
9.696969696969697,3.9493670886075947,0.0038188383357866413,0.0033804814183463934,5.346636282050704e-05,-0.0021597959262399102,0.0036208071996066135
9.797979797979798,3.9493670886075947,0.003860975584931628,0.003598047641547792,-2.171824819267642e-05,-0.0022377069679438257,0.00373664558765781
9.8989898989899,3.9493670886075947,0.003954490021873357,0.003439544247674999,3.0152594411886213e-05,-0.002218210280864507,0.003724183144588453
10.0,3.9493670886075947,0.004152560708262989,0.0035335974113305697,1.3112967190069844e-05,-0.0023058474358780673,0.0038803491056586866
0.0,4.050632911392405,0.004108935548204121,0.003697398435426022,2.713274453703119e-06,-0.0023419001950890426,0.0039194077037181
0.10101010101010101,4.050632911392405,0.004103285815243429,0.003440051732335093,-7.872047707088256e-06,-0.0022630012642735568,0.003815177693519758
0.20202020202020202,4.050632911392405,0.004001025275644908,0.0035106573304515,-3.6199735192024904e-05,-0.0022535047818289223,0.003780293731632722
0.30303030303030304,4.050632911392405,0.003708749741206282,0.0034848368734702773,-3.2261808116079554e-06,-0.0021580759844029677,0.0036020211062255934
0.40404040404040403,4.050632911392405,0.003854441629139322,0.0034705405107058945,5.072097788635561e-05,-0.002197494641953565,0.003678599426630592
0.5050505050505051,4.050632911392405,0.00382561751034869,0.003339805046488942,-5.120135091357133e-06,-0.0021496267670512896,0.0036073409964114227
0.6060606060606061,4.050632911392405,0.0035601801897389776,0.00340876182286183,5.696863378105646e-05,-0.0020906826037802423,0.0034883334288487384
0.7070707070707071,4.050632911392405,0.00368250240258766,0.0034367152852310123,1.938749975430532e-05,-0.0021357653063456016,0.0035661255204173055
0.8080808080808081,4.050632911392405,0.0035956823529861414,0.003404858680145402,1.6810066677005083e-05,-0.002100162309939463,0.003504290467377382
0.9090909090909091,4.050632911392405,0.003709908033050604,0.003246072459098102,4.251241673064676e-05,-0.0020867941476446117,0.003501884585229083
1.0101010101010102,4.050632911392405,0.0035901789629747445,0.003403275433610241,7.569157830420036e-05,-0.0020980363189754955,0.0035029256973740804
1.1111111111111112,4.050632911392405,0.003585004642959537,0.0033241712180450225,-6.20572244935137e-05,-0.0020727527583013676,0.003463633442437582
1.2121212121212122,4.050632911392405,0.0036756066852507594,0.003268515294338977,6.324824208266295e-05,-0.0020832365938769208,0.0034916330115936913
1.3131313131313131,4.050632911392405,0.0035240307111733663,0.0032586269710884403,0.00011030550364633026,-0.002034797304678542,0.0034044739064984166
1.4141414141414141,4.050632911392405,0.003605617792480589,0.003029784593738166,-2.5343726909783405e-05,-0.0019906207158656266,0.0033552579669558743
1.5151515151515151,4.050632911392405,0.0035150561573457206,0.0032997754337712078,-6.797300191415176e-05,-0.0020444494773350784,0.003414542829317866
1.6161616161616161,4.050632911392405,0.0032955768612677543,0.0032803980486942825,-7.722548642654785e-05,-0.0019727924729886106,0.003290733296491431
1.7171717171717171,4.050632911392405,0.003642279104292547,0.0030869348418572215,1.4118809802575387e-05,-0.0020187641838449303,0.003398894458938043
1.8181818181818181,4.050632911392405,0.0034773763507277445,0.0031224844585177733,-4.463282354421665e-05,-0.0019799582427736553,0.003315113592855242
1.9191919191919191,4.050632911392405,0.0032468409825881736,0.0027914561475355813,7.999593175212098e-05,-0.0018114891390371265,0.0030479480993289196
2.0202020202020203,4.050632911392405,0.00331719317472134,0.003230063287785426,-1.4896021049414938e-05,-0.00196417693875203,0.003274599392855035
2.121212121212121,4.050632911392405,0.0035221433719754966,0.0030102714546148624,6.594801255070982e-05,-0.0019597244479771076,0.0032981309756556654
2.2222222222222223,4.050632911392405,0.0034960974431026905,0.003057314688834897,1.2539433656911866e-05,-0.0019660236395812763,0.0032987379532221288
2.323232323232323,4.050632911392405,0.003498882189037474,0.0028152591509765425,-5.992116712248259e-05,-0.0018942424020042049,0.003213778492343896
2.4242424242424243,4.050632911392405,0.003358908118562695,0.0029835227096830777,1.9439514348408528e-05,-0.0019027292484737317,0.003188012945523384
2.525252525252525,4.050632911392405,0.0034346427090502945,0.0028943691739334557,1.046252537054752e-07,-0.0018987035648951249,0.0031989091118907152
2.6262626262626263,4.050632911392405,0.0032749859265237898,0.002737198701200747,1.3029839836947211e-05,-0.0018036553883173608,0.0030420407055841365
2.727272727272727,4.050632911392405,0.0033315591388347345,0.002965874232517208,2.521825643303851e-05,-0.0018892300114055826,0.003164904222256684
2.8282828282828283,4.050632911392405,0.0033150385992497585,0.002642843977009059,6.631089173458887e-07,-0.0017873647728776452,0.003035288573577379
2.929292929292929,4.050632911392405,0.0034889702961819575,0.002914610178028819,-3.2426835698938766e-05,-0.001921074142263233,0.0032406839371400264
3.0303030303030303,4.050632911392405,0.0032651217113724746,0.00297564577119568,9.936695081783884e-06,-0.0018722302447704464,0.0031304852893047413
3.131313131313131,4.050632911392405,0.0030933252567040812,0.0029180725210392953,-2.2928574089990442e-05,-0.001803419333323013,0.0030097903764402588
3.2323232323232323,4.050632911392405,0.0032106611329219405,0.002997123389808264,8.088752300672396e-05,-0.0018623353568190614,0.0031125510951785546
3.3333333333333335,4.050632911392405,0.0034546541136265684,0.002881401272077734,6.766650683268135e-05,-0.0019008166157112906,0.0032088315391084017
3.4343434343434343,4.050632911392405,0.0032874832685242435,0.0029054258777332594,3.0170230827243777e-05,-0.0018578727438772506,0.0031145204348868825
3.5353535353535355,4.050632911392405,0.0031390304698531947,0.0029497834592387413,1.383778106738635e-05,-0.0018266441787275806,0.003048909483995955
3.6363636363636362,4.050632911392405,0.003273292915574365,0.002731758382271898,-2.2394047729665667e-06,-0.0018015153893538788,0.003038934032734476
3.7373737373737375,4.050632911392405,0.003393837809010937,0.0028116208126807494,-7.104485739516552e-05,-0.001861637586507506,0.0031458391193417107
3.8383838383838382,4.050632911392405,0.0032326844338086856,0.002927126570720741,5.7959816320199566e-05,-0.001847943301358828,0.0030928821719514673
3.9393939393939394,4.050632911392405,0.003089239182998143,0.0031173939500943023,5.803965042690497e-05,-0.0018619899399277334,0.003105040101745539
4.040404040404041,4.050632911392405,0.0033794627298098677,0.0029203950349017626,-2.3754700589036003e-05,-0.001889957329413489,0.0031751853776875393
4.141414141414141,4.050632911392405,0.003430500249652357,0.0029788996114716976,-2.1518160581376358e-05,-0.0019228199583372163,0.0032286913898594526
4.242424242424242,4.050632911392405,0.0032638464270070906,0.0030038932770286015,2.539012706288978e-07,-0.0018803219112107075,0.0031419456031130974
4.343434343434343,4.050632911392405,0.0031386415076978215,0.0031053905223637685,5.379984063891412e-05,-0.001873209609018477,0.003123539096551594
4.444444444444445,4.050632911392405,0.0030151834766959595,0.002984825696123618,-5.730692258792191e-05,-0.001800002751845873,0.0030017613104209705
4.545454545454545,4.050632911392405,0.0031020848722605257,0.002963743259523908,9.460653873996583e-06,-0.00181974843953533,0.0030353237132739164
4.646464646464646,4.050632911392405,0.0032063838468847144,0.0029854975569169845,4.886451894609842e-07,-0.0018575644211405095,0.00310184503333588
4.747474747474747,4.050632911392405,0.0032148587670411117,0.0028979550574715677,-7.281035155538412e-05,-0.0018338441473538037,0.0030712942265474002
4.848484848484849,4.050632911392405,0.003280431873185504,0.0030862805873813274,-6.37044224258599e-05,-0.0019100137381700493,0.0031897026022073964
4.94949494949495,4.050632911392405,0.0032022468281825353,0.0028833214882276886,0.00012685746039378028,-0.001825670494923067,0.0030631844391981453
5.05050505050505,4.050632911392405,0.0032505902623382703,0.002820443776154131,-8.034608487193102e-05,-0.0018213102115477203,0.003061453830107275
5.151515151515151,4.050632911392405,0.0032411966697661857,0.0030275508879651462,6.396282724327283e-05,-0.0018806242673193993,0.003141783904966814
5.252525252525253,4.050632911392405,0.003349135447759446,0.002807177051877575,-6.754900062436586e-05,-0.001846893749891106,0.0031159306279028333
5.353535353535354,4.050632911392405,0.0031940630001599914,0.0028840406075956197,9.12551379207853e-06,-0.0018234310823266832,0.0030509295476259944
5.454545454545454,4.050632911392405,0.0031255618078466713,0.0028712123454402183,5.573273644214677e-06,-0.001799032245986067,0.003006482742722732
5.555555555555555,4.050632911392405,0.0031057783916943514,0.003048970028003605,-1.965144121829576e-06,-0.001846424525909387,0.003077769322976755
5.656565656565657,4.050632911392405,0.0032552589138205986,0.0028776627221384636,-8.979654655537186e-06,-0.0018398764907877187,0.003083886835436173
5.757575757575758,4.050632911392405,0.003447701121869775,0.0028997366148833742,-2.114098721804831e-05,-0.0019042313210259447,0.003209210355398783
5.858585858585858,4.050632911392405,0.0031710466448382694,0.0030210554618549817,4.9672195638153865e-06,-0.0018576306320079753,0.0030987867240210125
5.959595959595959,4.050632911392405,0.0031746416585676646,0.003052143700611418,1.2495907185974682e-05,-0.0018680356077537246,0.003115274744334524
6.0606060606060606,4.050632911392405,0.0030749487632819607,0.0029082356492629567,4.662107266380135e-06,-0.0017949553237634752,0.0029950849873003676
6.161616161616162,4.050632911392405,0.003159420376056786,0.0027855400086496535,0.00013945532201583161,-0.0017834881154119317,0.0029998036187886073
6.262626262626262,4.050632911392405,0.003188044674705575,0.0028417814748329592,5.5997582619448284e-05,-0.0018089478448615603,0.003031341565855266
6.363636363636363,4.050632911392405,0.0032060222308115762,0.0028665367772260615,6.070731524137889e-05,-0.0018217677024112914,0.0030522921126250905
6.4646464646464645,4.050632911392405,0.003204984532579532,0.0029010720866411164,3.17306460617952e-05,-0.0018318169857661944,0.0030648449295319615
6.565656565656566,4.050632911392405,0.003185820163704486,0.0029775535467631065,-1.9385040496608825e-05,-0.0018490121131402777,0.003087143088829069
6.666666666666667,4.050632911392405,0.0033180146640445023,0.0030812715623247094,2.3381412765984414e-06,-0.0019197858679107635,0.0032062077170112507
6.767676767676767,4.050632911392405,0.0032377013085067245,0.0028718369025490333,3.350359112898356e-05,-0.001832861463316727,0.0030717054436588307
6.8686868686868685,4.050632911392405,0.0034384644247158003,0.002987982731408103,-7.2213078616278795e-06,-0.001927934146837171,0.003236844531558316
6.96969696969697,4.050632911392405,0.0033228838692179793,0.0030645341032418077,4.5986673548385845e-05,-0.001916225391737936,0.0032025271056374633
7.070707070707071,4.050632911392405,0.0033561398991551676,0.003004665401355145,-3.228141230489777e-05,-0.0019082415901530937,0.003195424545884952
7.171717171717171,4.050632911392405,0.003314032417637219,0.0032242607057644313,-8.486731904951157e-05,-0.001961487937020495,0.0032733730077089762
7.2727272727272725,4.050632911392405,0.003109999130155709,0.0028450091702733444,-4.259489666075737e-06,-0.001786502490128716,0.002986343944261983
7.373737373737374,4.050632911392405,0.0033675304190147084,0.002982755263568512,-8.11778481681535e-05,-0.0019050857047749662,0.00319567528574032
7.474747474747475,4.050632911392405,0.0033066748627819144,0.0030530292617577965,-3.560198338288743e-06,-0.001907911237361913,0.003187436153266076
7.575757575757575,4.050632911392405,0.003283429446675528,0.003137177922168937,1.5152191546026473e-05,-0.0019261822106533396,0.0032129084400673914
7.6767676767676765,4.050632911392405,0.0033677255799505743,0.0031526203700285,6.200611911573499e-05,-0.001956103784993722,0.003267256462504471
7.777777777777778,4.050632911392405,0.003482540157060288,0.0029641309129704745,-2.6972401377032673e-05,-0.0019340013210092286,0.0032547865691730624
7.878787878787879,4.050632911392405,0.0032800090963078705,0.0030239587132542575,-1.126425753068284e-05,-0.0018911903428686383,0.0031598345740700513
7.979797979797979,4.050632911392405,0.003372195016575336,0.0031953339508476795,4.617336807871277e-05,-0.0019702586902269046,0.0032883073155762135
8.080808080808081,4.050632911392405,0.0034235724070516434,0.003022788924926273,2.4679603134903317e-05,-0.001933908399593375,0.003242096760384569
8.181818181818182,4.050632911392405,0.003424250400168147,0.0030880481708390885,1.6051465472272515e-05,-0.0019536895713021707,0.003269259101443554
8.282828282828282,4.050632911392405,0.0034070828820567402,0.00298795639122489,-4.86654615018266e-05,-0.0019185117819844888,0.003219159373131584
8.383838383838384,4.050632911392405,0.0035056099337047474,0.00291635759794432,2.518425922961087e-05,-0.0019265902594947201,0.0032515739606422726
8.484848484848484,4.050632911392405,0.0034407981785978432,0.0030734402177528364,-4.792388258033772e-06,-0.001954271518905204,0.0032726301770327126
8.585858585858587,4.050632911392405,0.003249414728011022,0.00312379425477197,-8.998957688694472e-06,-0.0019119626948348976,0.0031884990992232546
8.686868686868687,4.050632911392405,0.003542315897385589,0.003356034076393187,-2.6672089051920106e-05,-0.002069504992133633,0.0034532546935913625
8.787878787878787,4.050632911392405,0.003589871985526203,0.003068857872235398,3.885918240579316e-05,-0.00199761895732848,0.003360475073188217
8.88888888888889,4.050632911392405,0.0037441084836974735,0.003152360175803009,0.000119431291896197,-0.002068940597850145,0.003492239401622124
8.98989898989899,4.050632911392405,0.003815433168134326,0.0032792112708413274,-0.00010709588581183688,-0.002128393331692696,0.003582395002997001
9.09090909090909,4.050632911392405,0.003818688125772876,0.0032116967245352512,5.210510898921479e-05,-0.002109115455092438,0.003555425647358014
9.191919191919192,4.050632911392405,0.0038025189271425294,0.0032908105545972404,-1.1942704878938582e-05,-0.002127998844521931,0.0035743031156616856
9.292929292929292,4.050632911392405,0.0037343394298642754,0.003310714226211598,-6.660117666498941e-05,-0.002113516096822762,0.0035434582175219477
9.393939393939394,4.050632911392405,0.003717482424569867,0.0034744684574116182,2.256010950261688e-05,-0.0021575852645944454,0.00360234064033461
9.494949494949495,4.050632911392405,0.0038218563489878254,0.0033418519562315335,-8.701714934064573e-06,-0.0021491124915658075,0.0036059269949479827
9.595959595959595,4.050632911392405,0.003984439201786516,0.003483684650836537,2.5291431170323043e-05,-0.0022404371557869156,0.003759415350719326
9.696969696969697,4.050632911392405,0.0038675291822369384,0.0035226118331066485,-3.478382171267642e-05,-0.002217042304603076,0.0037076140282832843
9.797979797979798,4.050632911392405,0.004057113766102694,0.0034208514167386804,2.3746477668220837e-05,-0.002243389554852412,0.0037795905647921117
9.8989898989899,4.050632911392405,0.003873326090357636,0.003443388500206869,4.267318073273364e-06,-0.0021950143771693516,0.0036772635856739963
10.0,4.050632911392405,0.003875159668421481,0.003524578885938574,1.6203817026406525e-05,-0.0022199215663080162,0.0037124116855575275
0.0,4.151898734177215,0.003855490669406452,0.0037173853803039274,-0.0001020048713040937,-0.0022718628149131135,0.0037924441591850938
0.10101010101010101,4.151898734177215,0.003729290010035859,0.0034786399128432766,-7.374033845307371e-06,-0.002162378976863741,0.0036105187543934106
0.20202020202020202,4.151898734177215,0.003690812177659616,0.0033995429710967627,1.2098967928450766e-05,-0.0021271065446269136,0.0035542019500821335
0.30303030303030304,4.151898734177215,0.0037774251139373813,0.0035869835175530826,4.597149697918938e-05,-0.0022093225894471388,0.0036867559940578364
0.40404040404040403,4.151898734177215,0.0038336409223204103,0.003417257157144593,4.189926430834436e-05,-0.002175269423839501,0.0036440607794975856
0.5050505050505051,4.151898734177215,0.0037851153944781298,0.003384443968952657,-3.7488566212016215e-05,-0.002150867809029236,0.003602119478536751
0.6060606060606061,4.151898734177215,0.003752266318886101,0.0032317681827268257,7.5275720993516706e-06,-0.0020952103504838777,0.0035210145136400704
0.7070707070707071,4.151898734177215,0.0038930347369223275,0.0033437948120194727,-1.6988105305056227e-05,-0.00217104886468254,0.003649662948630371
0.8080808080808081,4.151898734177215,0.003555672953987989,0.0032698006475359257,-0.00012579564301010615,-0.002047642080457174,0.0034286350541247617
0.9090909090909091,4.151898734177215,0.0035400713417330556,0.0032708306757745944,9.469139344083998e-05,-0.002043270605252295,0.0034173621194061457
1.0101010101010102,4.151898734177215,0.003653554446454262,0.0032597103784944813,-3.7442703135831194e-05,-0.002073979447484623,0.0034740248078306926
1.1111111111111112,4.151898734177215,0.003478029255497944,0.0032896615910205543,-3.947307883527239e-05,-0.0020303072539555496,0.0033884651397256948
1.2121212121212122,4.151898734177215,0.003602141537482418,0.003106348849085636,-1.2551134197045929e-06,-0.0020125471159704164,0.0033816154918912458
1.3131313131313131,4.151898734177215,0.0036492442664171564,0.0030778671635150728,-3.212391733950515e-05,-0.0020181334289796687,0.0034002142184232304
1.4141414141414141,4.151898734177215,0.0036227973663871295,0.003246041181192639,1.373498458578729e-05,-0.0020606515642739302,0.003449965306332207
1.5151515151515151,4.151898734177215,0.0034650104087202522,0.0032946741344510744,-5.578094646997907e-05,-0.002027905362951398,0.0033844392678128417
1.6161616161616161,4.151898734177215,0.0034682899237578895,0.003231067385605783,1.3635035953719273e-05,-0.0020098071928091018,0.0033560558296463106
1.7171717171717171,4.151898734177215,0.00357966602612887,0.0030842681282284993,-7.74760777057887e-05,-0.0019991802463072104,0.0033621535567528392
1.8181818181818181,4.151898734177215,0.003508275872208866,0.0031406517109692626,2.3566589679479373e-05,-0.0019946782749534382,0.0033399230974648863
1.9191919191919191,4.151898734177215,0.00325761096327193,0.0030969719333212714,1.2722778408549978e-05,-0.0019063748689779605,0.0031804119588738234
2.0202020202020203,4.151898734177215,0.0034255028214682116,0.0029540549734562546,1.9034037089470866e-05,-0.0019138673384773396,0.0032159716422016965
2.121212121212121,4.151898734177215,0.003481881607023508,0.003047753756707236,0.0001228619922060207,-0.001958890609119223,0.003293276475794653
2.2222222222222223,4.151898734177215,0.003424751396868147,0.003089247786562024,3.267742061574628e-05,-0.001954199755029051,0.003270423793070688
2.323232323232323,4.151898734177215,0.0033189626876432257,0.003130147175752654,-2.2114597811574473e-05,-0.001934732959018764,0.003228925540639561
2.4242424242424243,4.151898734177215,0.003338464769614061,0.0030001637609713846,2.7040281163852944e-05,-0.0019015885591756338,0.0031831717078946117
2.525252525252525,4.151898734177215,0.00317162644901232,0.0031480994633499996,-1.4841525401285633e-05,-0.0018959177737086956,0.003160033204535265
2.6262626262626263,4.151898734177215,0.003292130438308058,0.0029122946829093304,-6.697757884636024e-05,-0.0018613275363652164,0.0031217602662940353
2.727272727272727,4.151898734177215,0.003323705234381713,0.0029521296606787157,-6.280537800978177e-05,-0.0018827504685181285,0.003156249476715192
2.8282828282828283,4.151898734177215,0.0032932874436627678,0.0029078838559137674,3.563850923837731e-05,-0.0018603513898729606,0.003119109428311627
2.929292929292929,4.151898734177215,0.0032830099139803093,0.003008382887090226,9.916080742115972e-06,-0.0018874178403211605,0.003154721197385952
3.0303030303030303,4.151898734177215,0.0033382245674957373,0.0029857720682932654,-7.3977084580632e-05,-0.001897198990736701,0.0031792795194261164
3.131313131313131,4.151898734177215,0.0034271051629465345,0.002787384001632239,3.206938189682818e-05,-0.001864346749373632,0.003156736701580837
3.2323232323232323,4.151898734177215,0.0033157876987955233,0.0029278881321179112,-2.8488118999372394e-05,-0.0018731027492740302,0.0031402477998602302
3.3333333333333335,4.151898734177215,0.0032611354346643176,0.003089467297977139,4.154966032619714e-05,-0.0019051808197924369,0.0031795943690419363
3.4343434343434343,4.151898734177215,0.0032485793199509695,0.00291036335481498,-1.0467849220161702e-05,-0.0018476828024297847,0.0030934228573975832
3.5353535353535355,4.151898734177215,0.003113694378980687,0.003119402874307299,1.3801968985761022e-05,-0.0018699291759863958,0.003116644231456228
3.6363636363636362,4.151898734177215,0.003241290269431051,0.0029398112936114794,8.707821239488347e-05,-0.001854330468912759,0.003105224493982566
3.7373737373737375,4.151898734177215,0.0032795987594482754,0.002934376706561667,-1.9146245735871616e-05,-0.0018641926398029827,0.0031215150501911954
3.8383838383838382,4.151898734177215,0.0031162759530887164,0.002948043636304081,5.205224531115922e-05,-0.001819295876817839,0.003036996528415393
3.9393939393939394,4.151898734177215,0.0031599072833888666,0.0029337794984796747,-3.903777113369761e-05,-0.0018281060345605622,0.00305387897974626
4.040404040404041,4.151898734177215,0.0033017606237658852,0.0028072044629303817,2.684449494658279e-05,-0.00183268952600888,0.0030847147089334793
4.141414141414141,4.151898734177215,0.0032169561316714784,0.002937755435726294,-7.600786845888211e-05,-0.0018464134702193317,0.003089646416522476
4.242424242424242,4.151898734177215,0.0032135465042929783,0.0028297710887577126,1.1192130349825156e-05,-0.0018129952779152073,0.0030399441361875796
4.343434343434343,4.151898734177215,0.0030538900329587573,0.002906393508325686,5.701760619076743e-06,-0.0017880850623853328,0.002982894386654203
4.444444444444445,4.151898734177215,0.0032524567752423767,0.002806288546320985,1.0447890626472513e-05,-0.0018176235964690085,0.0030539688537248124
4.545454545454545,4.151898734177215,0.0031491859242961735,0.002853122640162355,-3.980874043682891e-06,-0.0018006925693375584,0.00301209473107613
4.646464646464646,4.151898734177215,0.0032008060550359346,0.002882087673979064,8.638885557246414e-05,-0.0018248681187044995,0.00305760922740979
4.747474747474747,4.151898734177215,0.0030785101285494072,0.0028443109172057042,8.906437713702454e-06,-0.0017768463137265334,0.002968387982028911
4.848484848484849,4.151898734177215,0.0034832604636106193,0.002759090952180824,-4.968596476892623e-05,-0.0018727054247374328,0.0031847229072254884
4.94949494949495,4.151898734177215,0.0031625775433991457,0.002802690613283915,1.1251972877647501e-05,-0.0017895804470049181,0.002998937281407527
5.05050505050505,4.151898734177215,0.0030289173587651746,0.0028486780351782244,2.339118576067386e-05,-0.0017632786181830196,0.0029432189872256103
5.151515151515151,4.151898734177215,0.0032925198387172006,0.0029071114472108478,-1.7113606529219695e-05,-0.0018598893857784144,0.003117874334884652
5.252525252525253,4.151898734177215,0.0031456557659266314,0.0029244163290324176,-6.566873556725067e-05,-0.0018210216284877145,0.003043204088509525
5.353535353535354,4.151898734177215,0.003170239649343271,0.002834288743896535,-4.40224545084474e-05,-0.0018013585179719417,0.003017292079657098
5.454545454545454,4.151898734177215,0.0033613724442082206,0.0030182976407283637,-5.782569204750778e-06,-0.0019139010254809752,0.003203657777145613
5.555555555555555,4.151898734177215,0.003274778973267239,0.002949515992616328,5.581829707446185e-06,-0.00186728848976507,0.003124884386819129
5.656565656565657,4.151898734177215,0.0032874182559831863,0.0029305030199454894,3.940132931616874e-05,-0.0018653763827786024,0.00312503360093202
5.757575757575758,4.151898734177215,0.0031723519635269834,0.002729240794784938,-5.242529346426735e-06,-0.0017704778274935762,0.0029756583060693864
5.858585858585858,4.151898734177215,0.0032216994564575113,0.002811158289861331,-8.788217297668082e-06,-0.0018098573238956527,0.0030373480015010207
5.959595959595959,4.151898734177215,0.0031582360907474673,0.002897032247447104,5.579192988744332e-05,-0.0018165805014583713,0.003037610486224866
6.0606060606060606,4.151898734177215,0.0034569632182512382,0.0029547870075914825,5.566459081016223e-06,-0.001923525067752816,0.003235253298578504
6.161616161616162,4.151898734177215,0.0031607607294637714,0.002880988252448074,4.1896068051758286e-05,-0.0018125246945735534,0.0030314440471224963
6.262626262626262,4.151898734177215,0.003239830269338188,0.003026679871678952,7.383735953403723e-05,-0.001879953042305142,0.0031412924128252145
6.363636363636363,4.151898734177215,0.0033311812672955753,0.003085764152446749,-7.654880233982251e-05,-0.0019250836259226973,0.0032182368554229384
6.4646464646464645,4.151898734177215,0.003375810894531809,0.0028802910534088204,2.414492029605736e-05,-0.0018768305843821886,0.0031576267610334916
6.565656565656566,4.151898734177215,0.003094015602498632,0.0031021074167875157,3.703182117202725e-06,-0.0018588369057858443,0.0030980760749696194
6.666666666666667,4.151898734177215,0.003104298109960879,0.0029072723436209358,-8.043379663055816e-05,-0.0018034711360745445,0.0030138460446690156
6.767676767676767,4.151898734177215,0.0035044404785310366,0.002940466973703759,0.00010060510668132368,-0.0019334722356704388,0.003263912033901857
6.8686868686868685,4.151898734177215,0.003345002775876083,0.0030285197848913784,5.71217852946845e-05,-0.0019120567682302384,0.0032000558223108672
6.96969696969697,4.151898734177215,0.003232951972420846,0.002966594846825726,3.734774086415858e-05,-0.0018598640457739716,0.003109017423723613
7.070707070707071,4.151898734177215,0.0032334465073253636,0.002949170899150472,3.967184039534975e-06,-0.0018547852219427505,0.003101104026054997
7.171717171717171,4.151898734177215,0.003233256608540367,0.0028159068668465416,-3.79189223522686e-05,-0.0018147490426160724,0.003046808793996557
7.2727272727272725,4.151898734177215,0.003348617584184151,0.0030531891408957026,-2.3589404442729226e-05,-0.001920542017523956,0.0032113720105514366
7.373737373737374,4.151898734177215,0.0032629115417232794,0.002955691338633839,2.277574650508953e-05,-0.0018655808641071356,0.0031209133021717845
7.474747474747475,4.151898734177215,0.00348663888665324,0.003316313786254349,2.1152824596631906e-05,-0.0020408858018722766,0.0034048702726080173
7.575757575757575,4.151898734177215,0.003303886334662086,0.0030854795912926085,-1.2751938147802406e-05,-0.0019168097777864082,0.003200353605287898
7.6767676767676765,4.151898734177215,0.003321313724024151,0.003088040011567164,-3.0736254674818776e-05,-0.0019228061206773943,0.003211479479575028
7.777777777777778,4.151898734177215,0.0034541215116791874,0.003012497878402848,1.0029187884918354e-05,-0.0019399858170246107,0.003255897251599976
7.878787878787879,4.151898734177215,0.003255749717868382,0.002970304702393487,7.855150866012472e-05,-0.0018678163260785604,0.003125789271879749
7.979797979797979,4.151898734177215,0.0034565214785064217,0.003193442126075858,2.8490688946403443e-05,-0.001994989081374684,0.0033331437417089623
8.080808080808081,4.151898734177215,0.003315155488286762,0.002936045031874115,1.8825902120014832e-05,-0.0018753601560482628,0.0031429657623346543
8.181818181818182,4.151898734177215,0.003663285432464547,0.0031706315866505347,-1.3349595449378066e-05,-0.0020501751057345244,0.003443569507063881
8.282828282828282,4.151898734177215,0.003378054246867933,0.0031537784077770477,3.8318569724118564e-05,-0.001959549796393494,0.0032723598723900568
8.383838383838384,4.151898734177215,0.003490234322179277,0.003232010201979348,8.071685469679463e-05,-0.0020166733572475875,0.003371453435053101
8.484848484848484,4.151898734177215,0.0034640053043892543,0.0029999423455619374,0.00010178743486482605,-0.0019391842949853574,0.0032616334363832398
8.585858585858587,4.151898734177215,0.003606851245262004,0.0032349513311336433,1.3572620602595365e-05,-0.002052540772918694,0.0034361097816106093
8.686868686868687,4.151898734177215,0.003398153843292282,0.002999675279297904,-2.193538083697168e-05,-0.0019193487367770558,0.0032176989802862907
8.787878787878787,4.151898734177215,0.0034378215510210385,0.00314770949316112,-2.7032061184970554e-05,-0.0019756593132546473,0.0033026687292331105
8.88888888888889,4.151898734177215,0.003569703161190951,0.0032589465837034046,-4.707687189304307e-06,-0.0020485949234683065,0.0034249245333884777
8.98989898989899,4.151898734177215,0.0038833397894068415,0.003377731253390367,2.481304696451784e-05,-0.0021783213128391626,0.003657097924284441
9.09090909090909,4.151898734177215,0.0036067976644577793,0.00321361297405537,6.682777592694817e-05,-0.0020461231915539445,0.0034291170620098393
9.191919191919192,4.151898734177215,0.0037273695547629902,0.003305501749964976,4.9050694207096985e-05,-0.0021098613914183897,0.0035363847277363543
9.292929292929292,4.151898734177215,0.0037509667975655155,0.0033472960022951537,5.493417696630725e-05,-0.002129478839958201,0.0035675761475522857
9.393939393939394,4.151898734177215,0.0037914380020566394,0.003307134409482761,-1.2515345379576409e-05,-0.00212957172346182,0.0035740474184615904
9.494949494949495,4.151898734177215,0.0038667629810610056,0.0033939574151642124,2.4347636981346252e-05,-0.0021782161188675653,0.003653621821929192
9.595959595959595,4.151898734177215,0.003782130495575026,0.003688869218676106,-5.583505720848983e-05,-0.0022412999142753394,0.0037376242578344016
9.696969696969697,4.151898734177215,0.0036543061455847565,0.0034167984619608983,-1.5406452492351786e-05,-0.002121331382263696,0.0035416309228777382
9.797979797979798,4.151898734177215,0.0039509267918019985,0.003520862521880063,-8.133162304613965e-05,-0.0022415367941046186,0.0037570560074256195
9.8989898989899,4.151898734177215,0.003910516351630611,0.0034893806651905748,-0.00012396831054452734,-0.0022199691050463558,0.003724075702874816
10.0,4.151898734177215,0.003957414513913194,0.003582232369486559,-0.000162846954333688,-0.002261894065019926,0.003794298012059623
0.0,4.253164556962025,0.004151008891354011,0.003614770158269001,-9.02070180552284e-06,-0.0023297337148869036,0.003910593198636183
0.10101010101010101,4.253164556962025,0.0038404411680442964,0.0035947549137421075,3.1579706973625086e-05,-0.002230558824535921,0.00372408355558725
0.20202020202020202,4.253164556962025,0.003861574367681156,0.0036659766081843627,-4.585974616774038e-05,-0.0022582652927596557,0.0037684226322374343
0.30303030303030304,4.253164556962025,0.0036446225817742713,0.0033379576679905907,1.8367758457145138e-05,-0.0020947740749294587,0.003501521296060223
0.40404040404040403,4.253164556962025,0.0036544086184168534,0.0035311564706456827,2.0579213306970378e-05,-0.002155669526718761,0.0035945445112416157
0.5050505050505051,4.253164556962025,0.003937941726630537,0.003680084219945773,-4.602532562985306e-05,-0.0022854077839728933,0.003816386077533396
0.6060606060606061,4.253164556962025,0.003591502553513314,0.0034817866622908144,1.587176372980043e-05,-0.0021219867647412384,0.0035380275583783245
0.7070707070707071,4.253164556962025,0.0036582250466296626,0.0034012094798227394,-0.00010615570333018625,-0.002117830357935721,0.0035415044556729633
0.8080808080808081,4.253164556962025,0.0037113073151500225,0.0033567090638407498,4.497237525317295e-05,-0.002120404913697232,0.0035481807122667653
0.9090909090909091,4.253164556962025,0.0036071844501079026,0.003427935112030816,2.4901905299862525e-05,-0.0021105358686416154,0.003521247630025502
1.0101010101010102,4.253164556962025,0.0035315708014276564,0.0032632612692324184,6.055353898119436e-05,-0.002038449621198022,0.0034069676274022967
1.1111111111111112,4.253164556962025,0.0034759326258367025,0.0032549796662628997,-5.413612588638204e-05,-0.0020192736876298804,0.0033721954850098263
1.2121212121212122,4.253164556962025,0.003596158467027016,0.0031240609657632304,3.9957041641338364e-05,-0.0020160658298370737,0.0033855995096537523
1.3131313131313131,4.253164556962025,0.0037359891457439502,0.003204643968472028,4.94940947071746e-05,-0.0020821899342647935,0.0035017412491256538
1.4141414141414141,4.253164556962025,0.0035714523087882586,0.0030167044487454243,9.440729102904024e-05,-0.001976447027260105,0.003332941563607752
1.5151515151515151,4.253164556962025,0.0034379650769047376,0.0030710580777366906,6.0119589169545844e-05,-0.0019527069463924284,0.0032716439692376652
1.6161616161616161,4.253164556962025,0.003528500532857861,0.0031258156001405116,-1.518289401964366e-05,-0.001996294839899512,0.003345487815933757
1.7171717171717171,4.253164556962025,0.003417996139053222,0.003067329385144384,-3.563619148363097e-05,-0.0019455976572592816,0.0032574371801088247
1.8181818181818181,4.253164556962025,0.0033590353214720385,0.003101452128864405,-2.7166320337155087e-05,-0.001938146235100933,0.0032382789220056552
1.9191919191919191,4.253164556962025,0.003619556672528992,0.0031247583217469174,-1.974046790348047e-05,-0.002023294498282773,0.0033994461754343684
2.0202020202020203,4.253164556962025,0.003591998739009834,0.0031142434567239417,-1.4176857570028485e-05,-0.0020118726587201327,0.0033786405001340085
2.121212121212121,4.253164556962025,0.0034728984408832803,0.002971809230711635,3.210460496912608e-05,-0.0019334123014784744,0.003251918534876311
2.2222222222222223,4.253164556962025,0.0033762401900850336,0.003031410816015875,1.1228456212103295e-05,-0.0019222953018302724,0.003217771987198427
2.323232323232323,4.253164556962025,0.0033789792580567715,0.002904926495525967,1.6356146485911682e-05,-0.0018851717260748215,0.0031687876178135514
2.4242424242424243,4.253164556962025,0.003322396589974898,0.003044650948577869,-6.256703579932997e-05,-0.00191011426156583,0.003194436487463813
2.525252525252525,4.253164556962025,0.003380622379411165,0.0027017300357089413,-2.5369245471673987e-05,-0.0018247057245360317,0.003097798352383492
2.6262626262626263,4.253164556962025,0.0033266930646897205,0.002932496297043546,1.1686967183727707e-05,-0.0018777568085199799,0.0031482242519921613
2.727272727272727,4.253164556962025,0.0033841844232730023,0.0029442428202216295,6.719071457324534e-05,-0.0018985281730483894,0.0031891931708501785
2.8282828282828283,4.253164556962025,0.0033546453515340105,0.002878621408489256,-2.4147840837297258e-05,-0.0018699800280069798,0.0031440582176254237
2.929292929292929,4.253164556962025,0.0033832850792885954,0.0028751287351375943,-4.607152977645098e-05,-0.0018775241443278567,0.0031610078738107646
3.0303030303030303,4.253164556962025,0.002970868253119645,0.0029859458998977126,-9.163938283097474e-06,-0.001787044245905207,0.002978477991905567
3.131313131313131,4.253164556962025,0.003268887732984102,0.0028400193036033678,-6.689994883808147e-05,-0.0018326721109762408,0.003079132865299939
3.2323232323232323,4.253164556962025,0.0032534800328630205,0.0029263648454190636,6.09179245443899e-06,-0.0018539534634846252,0.003102899493877561
3.3333333333333335,4.253164556962025,0.003108327455391142,0.0029148165539072653,-7.843565008313772e-05,-0.001806943202789522,0.0030192891952483688
3.4343434343434343,4.253164556962025,0.0031729087786315,0.0028483784644974678,-2.1631032837492308e-05,-0.0018063861729386902,0.0030239657181267304
3.5353535353535355,4.253164556962025,0.0032811671109343214,0.0029264253451610736,-0.00014021756853715644,-0.0018622777368286186,0.003128404579831463
3.6363636363636362,4.253164556962025,0.003047817211004334,0.0027842894490384563,8.287662336634098e-06,-0.001749631998012837,0.002925005682142335
3.7373737373737375,4.253164556962025,0.0032488934816427024,0.003124267129232187,3.1638790134848098e-06,-0.001911948183262467,0.003188412280301811
3.8383838383838382,4.253164556962025,0.003269671690888985,0.0027910501620081298,4.541058071698341e-05,-0.0018182165558691342,0.0030595886378728277
3.9393939393939394,4.253164556962025,0.0030409994886085178,0.0029505276006083613,-2.293695421842282e-06,-0.0017974581267650635,0.002996790594988199
4.040404040404041,4.253164556962025,0.0031718647478568666,0.0030623609460816107,-5.938625934494093e-05,-0.001870267708181543,0.0031202509508195093
4.141414141414141,4.253164556962025,0.0031117677268341537,0.002826698887122575,6.020295577834506e-05,-0.0017815399841870187,0.002981303037507912
4.242424242424242,4.253164556962025,0.0031487968926716277,0.002858512662714228,3.297855817945634e-05,-0.0018021928666157568,0.003014697908593464
4.343434343434343,4.253164556962025,0.0031896532556245794,0.0030126249836601856,-1.3035916205577655e-06,-0.0018606834717854294,0.0031049272445961913
4.444444444444445,4.253164556962025,0.003352837657139591,0.002936789568506939,-6.864925438552797e-05,-0.001886888167693959,0.0031676194261341982
4.545454545454545,4.253164556962025,0.0032712522380194745,0.0029175845011635455,-6.702823221524249e-06,-0.001856651021754906,0.0031095611395585056
4.646464646464646,4.253164556962025,0.003360875154862577,0.002836917137526587,-0.00010768082232713919,-0.001859337687716749,0.0031374897300770204
4.747474747474747,4.253164556962025,0.0031690371555471767,0.0030033507384176583,-5.880071225490722e-05,-0.0018517163681894505,0.0030912060172838497
4.848484848484849,4.253164556962025,0.003105058489396493,0.0027871111086975623,2.9628963098139022e-05,-0.0017676508794282164,0.0029593693875906673
4.94949494949495,4.253164556962025,0.003129773952134634,0.0030165397269178696,-4.9588827624332504e-05,-0.001843894103715751,0.0030759204489262683
5.05050505050505,4.253164556962025,0.003110680158286054,0.0028802992005620373,-2.0098374031151825e-05,-0.0017972938076544274,0.0030023285617522674
5.151515151515151,4.253164556962025,0.003307230914079852,0.0027835250169951004,7.454223058540364e-05,-0.0018272267793224858,0.003081671216301981
5.252525252525253,4.253164556962025,0.0031613495433904164,0.0028181768009312336,2.295835414996873e-06,-0.001793857903296495,0.0030045008381701503
5.353535353535354,4.253164556962025,0.0031026431595666273,0.0029676054472174214,-4.0327872978413796e-05,-0.0018210745820352145,0.0030381795432257107
5.454545454545454,4.253164556962025,0.0033349258525271178,0.0028178887095509537,-1.0013571038255393e-05,-0.0018458443686234212,0.0031088708768711383
5.555555555555555,4.253164556962025,0.00318988299018721,0.0029713615141566596,-6.326599191559922e-05,-0.0018483733513031608,0.003088374158742915
5.656565656565657,4.253164556962025,0.003160112470860152,0.00297385128320745,-7.646777800905393e-05,-0.0018401891262202806,0.0030740754251960133
5.757575757575758,4.253164556962025,0.003123007961064504,0.002890142788415237,2.3571477399410173e-05,-0.001803945224843922,0.003013607799483419
5.858585858585858,4.253164556962025,0.0032520557573871532,0.0031793373227510077,-4.5467169001899515e-05,-0.001929417924041448,0.0032172771105758585
5.959595959595959,4.253164556962025,0.0033496154206178567,0.002787895085259936,3.1396520333610355e-05,-0.001841253151763338,0.0031075494088225225
6.0606060606060606,4.253164556962025,0.0032941493294357705,0.00301030268620056,6.116261176159716e-05,-0.0018913356046908992,0.0031635704650370394
6.161616161616162,4.253164556962025,0.003200873244195719,0.0028419198098342856,-2.8622497725566926e-05,-0.0018128379162090013,0.0030377508771484815
6.262626262626262,4.253164556962025,0.0030998708128873523,0.0030041133404237557,-6.432536929947905e-06,-0.0018311952459933323,0.0030531388584065107
6.363636363636363,4.253164556962025,0.003182319553494796,0.0030213345259015346,-5.715811704998704e-05,-0.0018610962238188992,0.0031065365392296106
6.4646464646464645,4.253164556962025,0.0034117947306969475,0.00301185152132538,-4.207216295619788e-05,-0.0019270938756066982,0.0032312666125699665
6.565656565656566,4.253164556962025,0.003239673697986636,0.0028868329598854404,-3.3038573051295704e-05,-0.001837951997361623,0.0030789881518143852
6.666666666666667,4.253164556962025,0.0032398073194816026,0.0028784661729821226,-2.239074206179766e-05,-0.0018354820477391174,0.003075345059704922
6.767676767676767,4.253164556962025,0.003114625245401845,0.0027990234440374434,6.6077805724102756e-06,-0.0017740946068317864,0.002969451896661634
6.8686868686868685,4.253164556962025,0.0032056182320812977,0.0029898642228426606,-0.0001028897536337813,-0.0018586447364771874,0.003108483868528679
6.96969696969697,4.253164556962025,0.003304554466255632,0.0030032793746967547,-5.674995901346573e-06,-0.0018923501522857158,0.003164705921345115
7.070707070707071,4.253164556962025,0.0033282141374553612,0.0029205142882283586,2.0407227285085707e-05,-0.0018746185277051157,0.0031444499478538563
7.171717171717171,4.253164556962025,0.0033217529359715835,0.0029808533989781447,1.5673366333185053e-05,-0.0018907819004849184,0.0031652184738680373
7.2727272727272725,4.253164556962025,0.0033704334663423926,0.003010502751207959,3.0385590887149775e-05,-0.0019142808652651052,0.003206090952434915
7.373737373737374,4.253164556962025,0.0032292459365478774,0.002834822704803784,7.180522797711322e-05,-0.0018192205924054984,0.0030537480836433243
7.474747474747475,4.253164556962025,0.0032932147425017272,0.003119717704175685,-2.1521285361280916e-06,-0.0019238797340032235,0.003209986830676198
7.575757575757575,4.253164556962025,0.0034310593508035513,0.0029969782248417337,1.5472342102346265e-05,-0.0019284112726935855,0.0032360399822197092
7.6767676767676765,4.253164556962025,0.0034725883084924056,0.0031013902784938043,-7.995057162482734e-05,-0.001972193576095863,0.0033055734571105578
7.777777777777778,4.253164556962025,0.0031709275160640084,0.002939449199558964,-4.373381680965921e-05,-0.0018331130146868918,0.003062694973412154
7.878787878787879,4.253164556962025,0.0033305937454083784,0.0031296183720414756,-3.6526018540205568e-06,-0.001938063635234956,0.003234798061801906
7.979797979797979,4.253164556962025,0.0035092369087053217,0.002887141260653568,-2.5066759045663075e-05,-0.0019189134508076668,0.0032435398402183386
8.080808080808081,4.253164556962025,0.0032524641636149576,0.003081780372221987,-3.803381684316301e-05,-0.0019002733607510832,0.003171254151136303
8.181818181818182,4.253164556962025,0.00332764815852209,0.003250748815133516,5.286660153487773e-05,-0.001973519092096682,0.003291146677099647
8.282828282828282,4.253164556962025,0.003326669564213004,0.0031090884421842786,4.122780928327101e-06,-0.0019307274019191847,0.0032233992042084844
8.383838383838384,4.253164556962025,0.0035716795030296764,0.002935854699860311,6.096559103967938e-06,-0.0019522602608669961,0.0033000479905280927
8.484848484848484,4.253164556962025,0.0035140985293091267,0.003237084858748091,-6.705064180300872e-05,-0.0020253550164171653,0.0033860979136392075
8.585858585858587,4.253164556962025,0.003663886693608191,0.003107943780510066,-2.24499898429162e-05,-0.002031549142235477,0.0034201956655502967
8.686868686868687,4.253164556962025,0.0035084286249977194,0.003250169776151339,7.373687952240739e-05,-0.0020275795203447177,0.003389099835349256
8.787878787878787,4.253164556962025,0.0036683984608848496,0.0030730034869241732,6.458289762685445e-06,-0.002022420584342707,0.0034099298475575744
8.88888888888889,4.253164556962025,0.003642962658346841,0.003311508026778219,-1.69296300176895e-05,-0.002086341205537518,0.003489186451635221
8.98989898989899,4.253164556962025,0.003627750820386966,0.0033120952058841224,-4.012220345149555e-05,-0.0020819538078813266,0.003481368113391981
9.09090909090909,4.253164556962025,0.003721666544213009,0.0033776794875383974,4.145217974569472e-05,-0.002129803809525422,0.0035628750596425444
9.191919191919192,4.253164556962025,0.0035206513768390032,0.003318925232513182,8.234149805765808e-05,-0.0020518729828056556,0.003427216435197075
9.292929292929292,4.253164556962025,0.0038850804794499146,0.0034241115378973305,-2.1439575945133598e-05,-0.0021927576052041733,0.0036765228445734396
9.393939393939394,4.253164556962025,0.003791038076750583,0.003342955875065468,9.622278304207443e-05,-0.0021401981855448155,0.0035919113494999174
9.494949494949495,4.253164556962025,0.003797142170663362,0.0034560740978287485,-1.5401199098926233e-05,-0.002175964880547633,0.003638714570134767
9.595959595959595,4.253164556962025,0.0036883078827874226,0.0034491387335176746,-2.8047278225460033e-05,-0.002141233984891529,0.0035750590779832785
9.696969696969697,4.253164556962025,0.003852051487111277,0.003561867205725155,3.770068684399573e-05,-0.00222417560785093,0.003716041820167741
9.797979797979798,4.253164556962025,0.0037959298088107983,0.003417519944007078,-1.3524372614325462e-05,-0.0021640349258453626,0.00362165826375246
9.8989898989899,4.253164556962025,0.0038739215926691085,0.0035795935644171565,3.1611175921243663e-05,-0.0022360545471258792,0.003735865574364133
10.0,4.253164556962025,0.00404336387249237,0.0036103566298287234,-6.998720865996426e-06,-0.002296116150696328,0.0038452084185832147
0.0,4.3544303797468356,0.003928990793864088,0.003528502762043674,8.942775857775765e-05,-0.0022372480667723284,0.003748044490642782
0.10101010101010101,4.3544303797468356,0.0038358651224339865,0.003558236025211307,9.363808395522895e-05,-0.002218230344293588,0.003708408776607737
0.20202020202020202,4.3544303797468356,0.0037389441165147485,0.003318171227704895,-4.710926657248592e-05,-0.002117134603265893,0.003548262174975817
0.30303030303030304,4.3544303797468356,0.0036603169884559706,0.003517959403151256,-2.4017164561938414e-05,-0.002153482917482168,0.0035914958892817274
0.40404040404040403,4.3544303797468356,0.0037926873582209914,0.0036130841618891275,-7.738929299456742e-06,-0.0022217314560330353,0.0037061753339795067
0.5050505050505051,4.3544303797468356,0.0038532892505796727,0.003435511469539522,-5.585034352117515e-05,-0.0021866402160357584,0.0036635932460857257
0.6060606060606061,4.3544303797468356,0.003785153002516839,0.00343029923851226,2.561194520960459e-05,-0.0021646356723087293,0.003621062906278539
0.7070707070707071,4.3544303797468356,0.003755642151263207,0.003264492099662028,-5.604441223009061e-05,-0.0021060402752775703,0.0035370772445015857
0.8080808080808081,4.3544303797468356,0.003710257426025748,0.003107390323861066,1.7479617596519722e-05,-0.002045294324966044,0.003448707493921814
0.9090909090909091,4.3544303797468356,0.003518300368151407,0.003345376005191946,-1.1187126476081281e-05,-0.002059102912003006,0.0034351587912894244
1.0101010101010102,4.3544303797468356,0.003724545210460251,0.003209369253701324,-8.604803560430073e-05,-0.0020801743392484724,0.003498722615782539
1.1111111111111112,4.3544303797468356,0.0035438042046161563,0.003079173436000078,2.0633037301089294e-05,-0.00198689329218487,0.0033360375727903646
1.2121212121212122,4.3544303797468356,0.0033671522374986306,0.003067821218877531,2.3292904611185184e-05,-0.0019304920369128484,0.0032281647755828197
1.3131313131313131,4.3544303797468356,0.0036886119991411496,0.0031418295383791065,-3.6064912271536456e-05,-0.0020491324612560767,0.0034484580942226524
1.4141414141414141,4.3544303797468356,0.003629323969909273,0.003189033452380606,-5.2468700487121636e-05,-0.0020455072266869637,0.003431639576497733
1.5151515151515151,4.3544303797468356,0.0035858816760986523,0.003141607500173247,-6.227227629747526e-05,-0.0020182467528815696,0.0033873951379998976
1.6161616161616161,4.3544303797468356,0.0033813425579269393,0.003055974734618708,-2.985969277242381e-06,-0.001931195187763694,0.003230973289056663
1.7171717171717171,4.3544303797468356,0.003513605406916067,0.0031043072092095288,-2.0856744806506073e-05,-0.0019853737848376787,0.003328083625912173
1.8181818181818181,4.3544303797468356,0.003372042831545065,0.0030849057749608674,-5.488909548987336e-05,-0.0019370845819517797,0.003239432131118615
1.9191919191919191,4.3544303797468356,0.0034686412781291965,0.0030592138550644176,-2.9190356387001013e-05,-0.001958356539958084,0.003283519834229215
2.0202020202020203,4.3544303797468356,0.003561924631040007,0.003162970002779601,-1.2039474520846534e-05,-0.0020174683901458823,0.0033802160289531724
2.121212121212121,4.3544303797468356,0.0033669782415347133,0.0029813936055627438,3.807478363902213e-05,-0.0019045115541292369,0.0031923834322220125
2.2222222222222223,4.3544303797468356,0.003447622255101356,0.0029470900319951998,1.5368524490600635e-05,-0.0019184136861289665,0.003226715708440497
2.323232323232323,4.3544303797468356,0.0032812545609732257,0.0030277512595026064,5.517027090375895e-05,-0.0018927017461427497,0.0031635767463373864
2.4242424242424243,4.3544303797468356,0.0031721723246623235,0.0030452482392042705,3.8836363972939074e-05,-0.001865226169159978,0.0031113801919887157
2.525252525252525,4.3544303797468356,0.0032566313241303565,0.002994045446362087,-3.552884005106662e-05,-0.001875203031147733,0.003134204911157227
2.6262626262626263,4.3544303797468356,0.003320429171796501,0.0031340582390149583,-1.7162967492320368e-05,-0.0019363462232434379,0.0032314139675813326
2.727272727272727,4.3544303797468356,0.0031611991593872013,0.0032543926871583698,4.892556563347745e-05,-0.0019246775539636714,0.0032099298424571516
2.8282828282828283,4.3544303797468356,0.003427449120944051,0.002901978131490501,-3.8547133167740705e-05,-0.0018988281757303658,0.0031979618198095527
2.929292929292929,4.3544303797468356,0.003375395965146596,0.0028101128944915776,-3.79123135857027e-05,-0.0018556526578914522,0.003131948388177354
3.0303030303030303,4.3544303797468356,0.0031909783912921724,0.0028963410450828534,1.723526870992448e-05,-0.0018261958309125075,0.0030544826105112716
3.131313131313131,4.3544303797468356,0.0031732620627318514,0.0028218719207088773,-4.8088141148307585e-05,-0.0017985401950322186,0.003014125337762511
3.2323232323232323,4.3544303797468356,0.0031872634660806724,0.0029847067519858817,-6.634105292268735e-06,-0.0018515910654199662,0.0030909881986272403
3.3333333333333335,4.3544303797468356,0.0030949603552032382,0.0030088427042349064,-6.434293342614303e-06,-0.0018311409178314434,0.003052833001467702
3.4343434343434343,4.3544303797468356,0.003341644277455399,0.002868146122839981,-2.497892510903525e-05,-0.0018629371200886138,0.0031321552357469647
3.5353535353535355,4.3544303797468356,0.003259232647591583,0.002987023682654414,-3.8394829508501776e-05,-0.0018738768990737991,0.003132718518320411
3.6363636363636362,4.3544303797468356,0.0034729774044778964,0.00281129294801533,-1.1192940773952739e-05,-0.0018852811057479678,0.0031940192628597225
3.7373737373737375,4.3544303797468356,0.0032870213021859696,0.002874007555639222,6.650983228094105e-05,-0.0018483086573475574,0.0031033490113482644
3.8383838383838382,4.3544303797468356,0.003333695143575108,0.002885147876158838,3.43963433487963e-05,-0.0018656529059201837,0.0031341581708108903
3.9393939393939394,4.3544303797468356,0.0033026128503803047,0.0029231945542951714,-6.235573964944055e-05,-0.0018677422214026427,0.0031320604811182675
4.040404040404041,4.3544303797468356,0.003210028725985462,0.002976199809370672,3.4242704162839333e-06,-0.0018558685606068403,0.0030997416055989595
4.141414141414141,4.3544303797468356,0.0032594101931556207,0.0030907860456489073,1.8589091012810252e-05,-0.0019050588716413583,0.0031786176725249007
4.242424242424242,4.3544303797468356,0.003296849794256133,0.002838237605864378,-2.0633051090949793e-05,-0.001840526220036153,0.003093355035342279
4.343434343434343,4.3544303797468356,0.0031149901576748734,0.0028369128960544004,-1.0092977525822636e-05,-0.0017855709161187822,0.0029857307844825412
4.444444444444445,4.3544303797468356,0.003318028590391911,0.0029041571661868547,-2.295154550341816e-05,-0.0018666557269736296,0.0031319237513860463
4.545454545454545,4.3544303797468356,0.003038937692119245,0.002731167691068202,-1.8210767083115028e-05,-0.0017310316149562338,0.002897510260472889
4.646464646464646,4.3544303797468356,0.0032100410723345505,0.003036448204696249,-8.930805605420389e-05,-0.0018739467831092398,0.0031306845451777635
4.747474747474747,4.3544303797468356,0.0032012503879223376,0.0028216005704045544,4.804410400037131e-05,-0.0018068552874980675,0.00303046343193551
4.848484848484849,4.3544303797468356,0.003186827907000321,0.002873128407004268,2.2406790714487734e-05,-0.0018179868942013765,0.0030423805411132782
4.94949494949495,4.3544303797468356,0.0032522143976283996,0.002879762560271381,-0.00010499714320588604,-0.0018395930873699342,0.003088267933917104
5.05050505050505,4.3544303797468356,0.003197338698503859,0.002891822268800121,-4.6547621268399085e-05,-0.0018267482901911938,0.003057118836614961
5.151515151515151,4.3544303797468356,0.0032502411365362056,0.002984475907089911,-5.124807295655763e-05,-0.001870415113087835,0.0031271035506284022
5.252525252525253,4.3544303797468356,0.003274400926630984,0.0027593043369492456,1.2000631654006756e-05,-0.0018101115790740687,0.00304972543353423
5.353535353535354,4.3544303797468356,0.0031598352858463975,0.0028024738238590814,2.7688575050786564e-05,-0.0017886927329116436,0.0029975594843755058
5.454545454545454,4.3544303797468356,0.0031359435075917074,0.0027348604559480245,3.8935965394698704e-05,-0.0017612411890619193,0.0029566507290376665
5.555555555555555,4.3544303797468356,0.0032667035357229223,0.0028060396745771127,2.4478257474171353e-05,-0.0018218229630900104,0.003062761576511063
5.656565656565657,4.3544303797468356,0.003443122716487031,0.0030159176484296267,-6.225084042085893e-05,-0.0019377121094749973,0.003252430512391531
5.757575757575758,4.3544303797468356,0.0031710263798422674,0.0028531233152042776,1.5172285297687965e-05,-0.0018072449085139634,0.003024744989364472
5.858585858585858,4.3544303797468356,0.0030778038984359364,0.002975970386779417,-3.881327178467638e-05,-0.001816132285564606,0.0030289177493546746
5.959595959595959,4.3544303797468356,0.003238104814110996,0.002894677782993183,-3.3343364931963116e-05,-0.0018398347791312535,0.0030813223671124906
6.0606060606060606,4.3544303797468356,0.003224165385550324,0.0026816517236362782,-1.0349658972908283e-05,-0.0017717451327559806,0.0029901055304345707
6.161616161616162,4.3544303797468356,0.00331453741877347,0.0028393844034632913,3.96046235498144e-05,-0.0018461765466710283,0.0031051122070126207
6.262626262626262,4.3544303797468356,0.0031993569997806723,0.0027261900540643843,-5.333477045302809e-05,-0.001777664116153517,0.0029924030450358204
6.363636363636363,4.3544303797468356,0.003232858408423751,0.002968789738363088,1.4657487845725922e-05,-0.0018604944440360515,0.0031093493944661004
6.4646464646464645,4.3544303797468356,0.003127852604945928,0.0029212919298815324,-4.483706231932709e-05,-0.001814743360448238,0.003030852845593598
6.565656565656566,4.3544303797468356,0.003140646044437778,0.003025164902667817,-2.7246798854263704e-05,-0.0018497432841316785,0.003084888206010646
6.666666666666667,4.3544303797468356,0.0032294397150987027,0.003061791281862604,6.124992275182997e-05,-0.001887369299088392,0.0031507508662647213
6.767676767676767,4.3544303797468356,0.003321062714288992,0.0029710131247742168,2.922760473734277e-06,-0.0018876227517189625,0.003160614062972052
6.8686868686868685,4.3544303797468356,0.0031252435259681104,0.0028373669369750882,5.8908937882131345e-05,-0.0017887831388829596,0.0029934505791736105
6.96969696969697,4.3544303797468356,0.0032324529299033117,0.002846908779577851,2.4674464323006674e-05,-0.001823808512844349,0.003058262481399029
7.070707070707071,4.3544303797468356,0.003264322363136148,0.002971823669446158,1.1201297469950182e-05,-0.0018708438097746918,0.0031284057212062188
7.171717171717171,4.3544303797468356,0.0033402285628588045,0.002979693881892493,2.3854868284457614e-05,-0.001895976733425389,0.003175618212769762
7.2727272727272725,4.3544303797468356,0.0032838637735039256,0.002964446966289298,5.287764567930533e-06,-0.0018744932219379668,0.0031363913944475424
7.373737373737374,4.3544303797468356,0.0032608986991525496,0.0029306155465248754,-1.8860743641903328e-05,-0.0018574542737032273,0.003109114756203292
7.474747474747475,4.3544303797468356,0.0032721529804891087,0.0030858216857247434,-5.178961261348183e-05,-0.0019073923998641556,0.003184343962189806
7.575757575757575,4.3544303797468356,0.0032993585726421156,0.0029421502715825105,-4.163101255395305e-05,-0.0018724526532673876,0.0031368783710102274
7.6767676767676765,4.3544303797468356,0.003503405700926501,0.0029593282429901118,4.235413455567852e-05,-0.0019388201831749838,0.0032663633196233343
7.777777777777778,4.3544303797468356,0.0032315103044786996,0.0028549275399674602,4.064306657330718e-05,-0.001825931353333848,0.003061453563105808
7.878787878787879,4.3544303797468356,0.003270752053513512,0.0030860500639717627,-6.391044685213535e-05,-0.0019070406352455823,0.0031843481349520105
7.979797979797979,4.3544303797468356,0.003392471331489033,0.00328199628885236,-5.673478855469927e-05,-0.002002340286102418,0.003340050832506542
8.080808080808081,4.3544303797468356,0.003423413887096828,0.003050977462336766,-4.4810455938090884e-05,-0.0019423174048300781,0.0032541498790245238
8.181818181818182,4.3544303797468356,0.0034058218097376,0.002973310113509351,1.7287419927670547e-05,-0.001913739576974085,0.0032116237892600417
8.282828282828282,4.3544303797468356,0.003492787222114357,0.0030597484717262394,6.348011975183029e-05,-0.001965760708152179,0.003299494218979352
8.383838383838384,4.3544303797468356,0.0036180721700132803,0.002993566686759723,-2.985136462000484e-05,-0.0019834916570319007,0.003350167268804202
8.484848484848484,4.3544303797468356,0.0035844537869298802,0.0031932331655616297,-8.131155886110393e-05,-0.002033306085747453,0.0034086485586291384
8.585858585858587,4.3544303797468356,0.0035199769144730023,0.0030929391318872852,8.057026948178469e-05,-0.001983874813908086,0.003330001548774751
8.686868686868687,4.3544303797468356,0.003511343306434359,0.0032578305272093068,-8.651611333524377e-06,-0.0020307521500930997,0.0033917332878014342
8.787878787878787,4.3544303797468356,0.00351915048257718,0.003174485344387758,-5.852191514984127e-05,-0.002008090748089481,0.0033616305764878314
8.88888888888889,4.3544303797468356,0.003465129039380202,0.003313549805691857,9.29641628689416e-06,-0.0020336036535216176,0.0033919188064115515
8.98989898989899,4.3544303797468356,0.003565330615540979,0.0033101389459347943,-2.3752688266380292e-05,-0.002062640868442732,0.0034450769344779365
9.09090909090909,4.3544303797468356,0.0035964758185784667,0.0033719001852591367,-3.250188686019086e-06,-0.0020905128011512813,0.0034896165097622112
9.191919191919192,4.3544303797468356,0.0036357576315575006,0.003257628317787324,-3.442619301949649e-05,-0.0020680157848034474,0.0034627278673616322
9.292929292929292,4.3544303797468356,0.003716366358761153,0.003238329325855979,5.53338265515861e-07,-0.0020864087053851397,0.003501904979947248
9.393939393939394,4.3544303797468356,0.00381276129745776,0.0032635981043977794,-7.5164264126824e-05,-0.0021229078205566615,0.0035723731265534645
9.494949494949495,4.3544303797468356,0.00379281321919094,0.0033502626557639307,-1.3747540432912421e-06,-0.0021429227624864614,0.0035920435909908978
9.595959595959595,4.3544303797468356,0.003652011462305639,0.0034636013120874,0.00010342326803440382,-0.0021346838323179117,0.0035660481200368065
9.696969696969697,4.3544303797468356,0.003834867189111352,0.0036033984984359703,6.261026609630605e-05,-0.0022314797062641966,0.0037261095746059514
9.797979797979798,4.3544303797468356,0.003805715292072233,0.0035105475810880827,-3.350615901551576e-05,-0.0021948788619480944,0.003667510951391645
9.8989898989899,4.3544303797468356,0.0039087612535858825,0.003556737841803805,-9.495862190653584e-05,-0.002239649728616906,0.003748787933088673
10.0,4.3544303797468356,0.003870118009394495,0.0035834629480304674,-3.996521487754644e-05,-0.0022360742872274885,0.003735691003091241
0.0,4.455696202531645,0.003926684944176014,0.003515937759584941,-4.476011079992613e-05,-0.0022327868111282866,0.0037390778966782828
0.10101010101010101,4.455696202531645,0.003737994456583263,0.0035420657987337957,-0.00011401197401316181,-0.0021840180765951176,0.0036493296028369273
0.20202020202020202,4.455696202531645,0.003918897301908054,0.0036322257823340125,-5.490535030101813e-05,-0.00226533692527262,0.0037849100611401
0.30303030303030304,4.455696202531645,0.0038370668294553205,0.0035301462020322135,-3.0023226045297975e-05,-0.0022101639094462603,0.0036935499656549635
0.40404040404040403,4.455696202531645,0.0036780382776593896,0.003345102322948478,-5.701387730360098e-05,-0.0021069421801823605,0.0035247712667698995
0.5050505050505051,4.455696202531645,0.0037010794511863243,0.0032639598194259645,-2.909478753174493e-05,-0.0020895117811836864,0.003503396596109285
0.6060606060606061,4.455696202531645,0.0036738185556119953,0.0034809145686526314,3.1285022133818286e-05,-0.002146419937279388,0.0035816751302750398
0.7070707070707071,4.455696202531645,0.003655400959879372,0.0033529827433968875,-4.83356176168097e-05,-0.0021025151109828775,0.003514962604655076
0.8080808080808081,4.455696202531645,0.003586865233180629,0.003264772717084735,-2.290682030258069e-05,-0.002055491385079609,0.0034373852721686585
0.9090909090909091,4.455696202531645,0.0036042531440346657,0.0034331659476201687,2.559727727522015e-05,-0.0021112257274964502,0.003522106706403347
1.0101010101010102,4.455696202531645,0.0035644071109146623,0.0031542280511874473,-8.302252110555753e-05,-0.002015590548630633,0.0033811060280875406
1.1111111111111112,4.455696202531645,0.003631316849595186,0.0033000775004880943,-7.634012282723791e-05,-0.002079418305024984,0.0034800617784673175
1.2121212121212122,4.455696202531645,0.0035381815609260648,0.003304808636989817,9.759391113692856e-05,-0.0020528970593747644,0.0034316249238350825
1.3131313131313131,4.455696202531645,0.0033400251626411626,0.0031735198576709877,8.40328189496388e-06,-0.001954063506093645,0.0032599957117741014
1.4141414141414141,4.455696202531645,0.003547768754954366,0.0031426426372557557,-2.822057227762149e-05,-0.0020071234176630365,0.003363909292740209
1.5151515151515151,4.455696202531645,0.003367844564778529,0.003390954896125441,-8.26644655123477e-05,-0.002027639838271191,0.003382490701438143
1.6161616161616161,4.455696202531645,0.003514693752170973,0.0031430143145198424,-5.511973596647321e-05,-0.0019973124200072445,0.0033457425086934776
1.7171717171717171,4.455696202531645,0.0032577913152511753,0.002872252688053139,3.4712024515840396e-05,-0.0018390132009912944,0.0030837403699640587
1.8181818181818181,4.455696202531645,0.003504243108320921,0.0030669840556480105,-6.1744760893327305e-06,-0.001971368149190679,0.0033073807751669644
1.9191919191919191,4.455696202531645,0.0034532364701432817,0.0031064455391507065,3.693053658827699e-05,-0.0019679046027881964,0.0032941837489317326
2.0202020202020203,4.455696202531645,0.00341573146638955,0.00305186085672651,-2.5056481520818136e-06,-0.0019402776969348178,0.0032491164667887555
2.121212121212121,4.455696202531645,0.003510618715675741,0.0031058463108230056,-4.089719969132327e-05,-0.0019849395079496236,0.0033275066685651803
2.2222222222222223,4.455696202531645,0.0032167382347379958,0.003062956899676469,4.2885946757779196e-05,-0.0018839085403243394,0.0031435484540316993
2.323232323232323,4.455696202531645,0.0033721544078758113,0.0030330377216347512,-5.95498630827902e-05,-0.0019215576388531687,0.0032176870897790678
2.4242424242424243,4.455696202531645,0.0032173047908213787,0.002922944864433205,-8.210740258480932e-06,-0.001842074896576375,0.003080723053225934
2.525252525252525,4.455696202531645,0.003218019071720994,0.0028779889384979826,-1.3692816441459267e-05,-0.0018288024030656928,0.003062287749943582
2.6262626262626263,4.455696202531645,0.0031541272329614635,0.002948586273513773,3.6914543106712244e-05,-0.0018308140519425707,0.003057213011962882
2.727272727272727,4.455696202531645,0.003288880713500557,0.0029155623677295244,-5.7565114379967346e-05,-0.0018613329243690243,0.0031206160697374494
2.8282828282828283,4.455696202531645,0.003355078848988569,0.003041533820859909,-8.486699845102585e-05,-0.0019189838009545433,0.003213176543203459
2.929292929292929,4.455696202531645,0.0031644378535603947,0.003067706770574506,-8.535643484448408e-05,-0.00186964338724047,0.0031207020834666645
3.0303030303030303,4.455696202531645,0.0033308813983662536,0.0028160557982816405,1.6094275976674601e-06,-0.001844081158994368,0.0031056401988208177
3.131313131313131,4.455696202531645,0.0031873410553393765,0.0030024271547220713,-8.071510115481264e-05,-0.001856930463018434,0.003102176215049082
3.2323232323232323,4.455696202531645,0.003334025189865799,0.002842201110773605,-2.7065419814431603e-05,-0.001852867890191821,0.0031177008569790382
3.3333333333333335,4.455696202531645,0.0032648181216296175,0.0028433275819181726,-1.1986937232841678e-05,-0.001832443711064337,0.0030758791832961657
3.4343434343434343,4.455696202531645,0.0033752252203805688,0.0028931353301124233,-1.0641857568600017e-05,-0.0018805081651478974,0.0031619193129910506
3.5353535353535355,4.455696202531645,0.0034945107325175125,0.0029247886816878,-6.808450045233701e-05,-0.0019257898242615937,0.0032494915219632298
3.6363636363636362,4.455696202531645,0.0034611040573257097,0.002821533793916439,-0.00010043038880606311,-0.0018847913553726445,0.0031945157649995097
3.7373737373737375,4.455696202531645,0.0032520093316791014,0.0029220803171127554,2.5373796680700264e-05,-0.001852226894637557,0.00310055109657835
3.8383838383838382,4.455696202531645,0.0032937987830878447,0.002856582626258267,-5.4740490825193404e-05,-0.0018451144228038333,0.0030998638534554274
3.9393939393939394,4.455696202531645,0.0032358125583039966,0.003004368088376852,-2.864206452533431e-07,-0.0018720541940042547,0.0031265218340686195
4.040404040404041,4.455696202531645,0.0031612400974415844,0.0028015344666176873,2.43009234406173e-06,-0.0017888323692177815,0.0029976205475558903
4.141414141414141,4.455696202531645,0.003111706416326193,0.0029567176642874772,-3.855943665084689e-06,-0.0018205272241841007,0.0030371867649835924
4.242424242424242,4.455696202531645,0.003322061654456199,0.0027580411351161294,-6.381642086767871e-05,-0.0018240308368716984,0.0030810257138387965
4.343434343434343,4.455696202531645,0.0031567063470677704,0.0028599213305097486,1.1185842458308393e-05,-0.0018049883032732555,0.0030193357765247765
4.444444444444445,4.455696202531645,0.0031427893509517585,0.003021134434187424,2.0687608849610028e-05,-0.0018491771355417547,0.003083970326999042
4.545454545454545,4.455696202531645,0.0032999886976553343,0.002927024943811168,-5.678928964132372e-05,-0.0018681040924399506,0.0031317608887441463
4.646464646464646,4.455696202531645,0.003230659078225505,0.0030117424159562733,3.0857171030984454e-06,-0.0018727204482545336,0.0031269579542032816
4.747474747474747,4.455696202531645,0.0031413789889749464,0.002896712148887013,-5.008659312965649e-05,-0.0018114273413585877,0.003027715069932234
4.848484848484849,4.455696202531645,0.003069743759748388,0.0028170373179622963,-1.1467544112574358e-05,-0.001766034323313205,0.0029515822514741487
4.94949494949495,4.455696202531645,0.0031438536219131623,0.0029282429232119584,2.6545115876449404e-05,-0.0018216289635375363,0.0030421323151543895
5.05050505050505,4.455696202531645,0.003252974111109818,0.0028236315525361744,-8.936509279118192e-05,-0.0018229816990937978,0.0030648807043250946
5.151515151515151,4.455696202531645,0.003236607208436318,0.0029959997856683963,-8.020723668321072e-05,-0.0018697820982314143,0.0031263502742188195
5.252525252525253,4.455696202531645,0.00323706291392416,0.002974356023835377,-3.844229501480529e-05,-0.0018634256813278608,0.0031147433149141777
5.353535353535354,4.455696202531645,0.003192989231283551,0.002970626970341991,-1.4779786521956656e-05,-0.0018490848604876624,0.003087924906441607
5.454545454545454,4.455696202531645,0.0033612760801494633,0.003058745085314402,5.7875056343170774e-05,-0.0019260063496391595,0.0032222445996258724
5.555555555555555,4.455696202531645,0.0029819342617248895,0.002993663829122833,5.718078801888778e-05,-0.0017926794272543165,0.0029894573504993553
5.656565656565657,4.455696202531645,0.00315622684280733,0.0028478111491021707,-9.174339350166629e-05,-0.0018012113975728501,0.003018063747325344
5.757575757575758,4.455696202531645,0.003352723189340808,0.002779117243091325,7.634318585862076e-06,-0.0018395521297296397,0.003105931334856384
5.858585858585858,4.455696202531645,0.003211210254354927,0.0029169875685146826,-4.211467390591174e-05,-0.0018384593468608827,0.0030755403294344627
5.959595959595959,4.455696202531645,0.0032605612210570923,0.0028043878071767293,9.692789286602144e-05,-0.0018194847084701464,0.0030627042569701998
6.0606060606060606,4.455696202531645,0.003156595641641466,0.0028922457366518874,-8.593191868725336e-05,-0.001814652413488006,0.0030367225825035913
6.161616161616162,4.455696202531645,0.003344108236788674,0.0028205736779220946,-4.457742015349316e-05,-0.0018494045744132305,0.0031164649111290904
6.262626262626262,4.455696202531645,0.003212885992835825,0.002904472640581572,1.6957584776035186e-05,-0.001835207590025219,0.0030704594018472918
6.363636363636363,4.455696202531645,0.003245382557728739,0.0026789394617011252,6.540101683118517e-05,-0.001777296605828959,0.0030046419191412906
6.4646464646464645,4.455696202531645,0.003326790339591836,0.0029152127032794958,3.9353863667617086e-05,-0.0018726009128613994,0.0031420286105627343
6.565656565656566,4.455696202531645,0.003446776118076937,0.002970013665654872,3.6374490796634976e-05,-0.0019250369351195428,0.0032354665691246135
6.666666666666667,4.455696202531645,0.003269944305610412,0.003059730835373732,-1.423394232882633e-05,-0.0018989025422952433,0.0031701651282295272
6.767676767676767,4.455696202531645,0.003380398116377212,0.00297438500604306,5.939600449815864e-05,-0.0019064349367260815,0.003198442710698885
6.8686868686868685,4.455696202531645,0.0032302092741524546,0.0029872534817597463,2.4066129345814163e-05,-0.0018652388267736601,0.003116122422791951
6.96969696969697,4.455696202531645,0.0033455281543287255,0.002941731683784626,9.552287879789479e-05,-0.0018861779514340053,0.0031673445694031612
7.070707070707071,4.455696202531645,0.0033100543521580937,0.0028720026276722087,-9.716397978181446e-06,-0.0018546170939490905,0.0031142667412458335
7.171717171717171,4.455696202531645,0.0033813890746811777,0.0029627450149174745,1.5837427565912354e-05,-0.0019032402268795957,0.0031928371310825147
7.2727272727272725,4.455696202531645,0.00326323358725537,0.0029831567779270663,-0.00015392828356870355,-0.0018739171095547309,0.0031439246432366755
7.373737373737374,4.455696202531645,0.0032543402069339566,0.0028969931611763397,1.3988051736189401e-05,-0.0018454000104330887,0.0030912918386193635
7.474747474747475,4.455696202531645,0.003253498282570315,0.0029381228324035476,-3.7097296607743216e-05,-0.0018574863344921586,0.0031084992990220005
7.575757575757575,4.455696202531645,0.003332561226508038,0.002887027098978585,-1.7050894050800882e-05,-0.0018658764976459867,0.0031337784586168878
7.6767676767676765,4.455696202531645,0.0033729882434097714,0.0031446188635811966,-3.1490444754353665e-05,-0.00195528213209729,0.003265254963221056
7.777777777777778,4.455696202531645,0.0033428561227284493,0.0031761129070831825,9.830085016831498e-05,-0.0019556907089434894,0.0032671212021158683
7.878787878787879,4.455696202531645,0.0033296896629502813,0.002973690155383726,6.100395922140282e-06,-0.0018910139455002022,0.003166751121429825
7.979797979797979,4.455696202531645,0.0034424447337650784,0.0029884032187411157,6.112026472738251e-05,-0.001929254385751858,0.003241106860374748
8.080808080808081,4.455696202531645,0.003340597734298878,0.0031452470390108604,-5.6106212432008417e-08,-0.0019457534319929214,0.0032473322952730243
8.181818181818182,4.455696202531645,0.003399717335419464,0.0032016254396928217,-1.2060934508490279e-06,-0.0019804028325336857,0.0033051272701638077
8.282828282828282,4.455696202531645,0.0033552101003493044,0.003136870337026105,-5.992539401857017e-05,-0.0019476241312126226,0.003253199109963758
8.383838383838384,4.455696202531645,0.003328956484894928,0.0031095901175540955,3.8507207281816774e-05,-0.001931563980734707,0.003225563548491199
8.484848484848484,4.455696202531645,0.0034544521815353443,0.003017924015404725,3.9620613991985166e-06,-0.0019417128590820208,0.003258201671526751
8.585858585858587,4.455696202531645,0.0035326097077047727,0.0031167054040896354,4.514757346392969e-05,-0.0019947945335383223,0.003345025420901553
8.686868686868687,4.455696202531645,0.003546669820809614,0.0030069716953720848,-3.0663547075145875e-06,-0.0019660924548545095,0.0033099906401981337
8.787878787878787,4.455696202531645,0.0035642248129357837,0.0032426885460780748,-6.794299064159745e-05,-0.0020420740077041572,0.0034168560545318406
8.88888888888889,4.455696202531645,0.0035316678406234155,0.003193696662865227,-7.755287700784072e-05,-0.0020176093510465925,0.0033780680366356274
8.98989898989899,4.455696202531645,0.0035815003468816606,0.003219934656804754,1.97895704800936e-05,-0.0020404305011059243,0.0034152747649087703
9.09090909090909,4.455696202531645,0.0035116868098795458,0.002987891880053988,9.770085849273895e-05,-0.00194987360698006,0.003285656404174576
9.191919191919192,4.455696202531645,0.0036063348134911214,0.003171186399927153,2.7552621471243533e-05,-0.0020332563640254823,0.003409984090403344
9.292929292929292,4.455696202531645,0.003915023612494785,0.003415377769148278,1.7240953418434958e-05,-0.002199120414492919,0.003690775302291246
9.393939393939394,4.455696202531645,0.003792054155862847,0.0033124612983306536,3.4427314948863575e-06,-0.0021313546362580504,0.003576461589150082
9.494949494949495,4.455696202531645,0.003805286716088556,0.0034311629567532744,-2.7219274543472783e-05,-0.002170934901852549,0.003633008405452367
9.595959595959595,4.455696202531645,0.0037290940661601087,0.0033896079077833734,5.117196262034999e-05,-0.0021356105921830444,0.003572572364071721
9.696969696969697,4.455696202531645,0.00370151411454774,0.003490224754454992,-6.808578746370241e-05,-0.0021575216607008195,0.003602452832253482
9.797979797979798,4.455696202531645,0.004058769125831896,0.003370440723932924,-4.670675867765462e-05,-0.002228762954929446,0.003763001634802298
9.8989898989899,4.455696202531645,0.003938495587893829,0.003618284928396482,0.00011144368936283363,-0.0022670341548870934,0.003793467171386146
10.0,4.455696202531645,0.003942061306766278,0.0036529481244205937,8.561620413612357e-06,-0.0022785028293560616,0.0038057787367556254
0.0,4.556962025316456,0.014458494431616583,0.012960451282933569,6.617904815316471e-05,-0.008225683714365046,0.013771197659611618
0.10101010101010101,4.556962025316456,0.014226929044887128,0.012803543750372962,-8.18190932040031e-06,-0.008109141838578027,0.013571342416549061
0.20202020202020202,4.556962025316456,0.014084551427479275,0.012633593067923814,-3.828491142554768e-05,-0.008015443348620926,0.013418202884272956
0.30303030303030304,4.556962025316456,0.013931958600331274,0.01264308979482305,-0.00012742756551220838,-0.007972514518546296,0.013336150109867348
0.40404040404040403,4.556962025316456,0.013664909763450923,0.012298245169772501,4.251116020641092e-05,-0.007788946479967027,0.013035628262633828
0.5050505050505051,4.556962025316456,0.01375454762870953,0.012341278218660406,-2.9139180388784344e-05,-0.00782874775421098,0.013105288121922456
0.6060606060606061,4.556962025316456,0.01371356878729251,0.012170359447248287,-7.820215341356476e-05,-0.007765178470362239,0.013011491199839851
0.7070707070707071,4.556962025316456,0.013510774228969267,0.012125959290814559,-3.8418559646113825e-05,-0.007691020055935147,0.012874518968022846
0.8080808080808081,4.556962025316456,0.01337824493287568,0.011814692963504887,-9.873520213205833e-05,-0.007557881368914169,0.012670193248480257
0.9090909090909091,4.556962025316456,0.013033707148961475,0.012092803624416362,2.0750777341511306e-05,-0.007537953232013351,0.01258970421722945
1.0101010101010102,4.556962025316456,0.013009206166139972,0.011717773268185952,0.00015319693642002087,-0.007418093830297777,0.012416808570958086
1.1111111111111112,4.556962025316456,0.013032836010063444,0.011693624085431372,7.939422623618465e-05,-0.0074179380286484445,0.012418272181640684
1.2121212121212122,4.556962025316456,0.012781840359393917,0.011520547184690129,-5.044601526804924e-05,-0.0072907162632252125,0.01220050367163167
1.3131313131313131,4.556962025316456,0.012908355733351837,0.011588455277463217,-1.481118120608729e-06,-0.007349043303244516,0.01230162781570477
1.4141414141414141,4.556962025316456,0.012706205678799324,0.011343386372170323,-7.09577540021374e-05,-0.0072148776152908935,0.012083202464991028
1.5151515151515151,4.556962025316456,0.012591840601530907,0.011417620695168142,2.472982429144464e-05,-0.007202838389009715,0.012047800086464947
1.6161616161616161,4.556962025316456,0.012762541963315468,0.011262359775965429,-1.1491567910867127e-05,-0.007207470521784268,0.012082519687977192
1.7171717171717171,4.556962025316456,0.012473952449047351,0.011207621920091877,5.686490425833658e-05,-0.007104472310741769,0.011891872718739486
1.8181818181818181,4.556962025316456,0.01233705579497732,0.011042475774879506,5.001757973820894e-06,-0.007013859470957047,0.01174340888458538
1.9191919191919191,4.556962025316456,0.012529161783870561,0.01103417404531626,4.743381873981805e-05,-0.007069000748756046,0.01185287686618997
2.0202020202020203,4.556962025316456,0.012379809598726988,0.011075574114093975,-6.734235857178607e-05,-0.00703661511384629,0.011782535122299558
2.121212121212121,4.556962025316456,0.01223535291997434,0.01112054599465529,-4.4985149129150866e-05,-0.007006769674388889,0.011718048915202579
2.2222222222222223,4.556962025316456,0.012071525663221163,0.011033884661666405,-3.3612151241346015e-05,-0.00693162309746627,0.011587748272920376
2.323232323232323,4.556962025316456,0.01210176899614453,0.010881958054954578,3.2706550332447794e-05,-0.0068951181153297314,0.011540454518533713
2.4242424242424243,4.556962025316456,0.012083564572621549,0.010972066865729333,5.975908714842374e-05,-0.006916689431505265,0.011568397428558495
2.525252525252525,4.556962025316456,0.012070970446525213,0.010882580656622442,-6.630701259599204e-05,-0.006886065330944296,0.01152340095807309
2.6262626262626263,4.556962025316456,0.011890691251734462,0.010824151450189605,-1.9794829052983325e-05,-0.006814452810577219,0.011394969311510648
2.727272727272727,4.556962025316456,0.012130808387580547,0.010622815094041877,9.527716187543701e-05,-0.006826087044486727,0.01145271196828957
2.8282828282828283,4.556962025316456,0.011877547691600864,0.010709355309695696,-8.061596058096301e-05,-0.006776070900388968,0.011339534764603528
2.929292929292929,4.556962025316456,0.011905083121611003,0.010637018951840297,6.204247624055391e-05,-0.006762630622035391,0.011324933965946147
3.0303030303030303,4.556962025316456,0.011863437735706486,0.010742749177395186,-2.3661102638504286e-05,-0.006781856073930501,0.011344759070355082
3.131313131313131,4.556962025316456,0.01184575983234549,0.010486422436062735,7.462619720424907e-05,-0.006699654680522468,0.01122871974193758
3.2323232323232323,4.556962025316456,0.012040189772980459,0.010699763405835177,-6.511808640155684e-06,-0.006821985953644691,0.011429087977128397
3.3333333333333335,4.556962025316456,0.011886303055531337,0.010574093329241696,-6.492914792304376e-05,-0.0067381189154319095,0.011288109655622516
3.4343434343434343,4.556962025316456,0.011661207084428252,0.010630258250528546,8.38671711615246e-05,-0.006687439600487039,0.011182378969865063
3.5353535353535355,4.556962025316456,0.011975599275510885,0.01048882162511492,3.8674356159551087e-05,-0.0067393262701877414,0.011305968315623352
3.6363636363636362,4.556962025316456,0.011772021289776695,0.010527589204801343,2.195078850522942e-05,-0.0066898831483734105,0.011201832929231216
3.7373737373737375,4.556962025316456,0.011628714185096225,0.010521017518809484,-4.003973654457031e-05,-0.006644919511171713,0.011116551043765155
3.8383838383838382,4.556962025316456,0.011729870316783781,0.010769264553641463,2.827345490794222e-05,-0.0067497404611275725,0.01128039175819219
3.9393939393939394,4.556962025316456,0.011673449460423743,0.010537433641484784,-3.194303083124936e-06,-0.006663264930572558,0.01114893544729889
4.040404040404041,4.556962025316456,0.011762749770130377,0.010393969141722435,-2.4024259789852485e-05,-0.006647015673555844,0.011141676266900685
4.141414141414141,4.556962025316456,0.011474477078835517,0.010651769259848629,-1.1061998038399588e-05,-0.0066378739016052435,0.01108605869910501
4.242424242424242,4.556962025316456,0.011587209497334827,0.010523391865713156,-3.1103590693550426e-05,-0.006633180408914394,0.011093753036009896
4.343434343434343,4.556962025316456,0.011676520794896724,0.010592777260167628,-9.548032610111839e-05,-0.0066807894165193055,0.011175358315559315
4.444444444444445,4.556962025316456,0.011628620375072599,0.010503110080032067,4.163119820252495e-05,-0.006639519136531399,0.011108944719122733
4.545454545454545,4.556962025316456,0.011716982399538282,0.010385590386097052,3.894233807886158e-05,-0.006630771835690601,0.011111477578308538
4.646464646464646,4.556962025316456,0.011791658873021195,0.010624871877393544,3.789144083883349e-05,-0.0067249592251244225,0.01125391327160527
4.747474747474747,4.556962025316456,0.011462678663841572,0.010394793628848709,-2.768465641516465e-05,-0.006557241687807084,0.01096790120820773
4.848484848484849,4.556962025316456,0.011601875767436471,0.010648301443441817,6.9887905743332e-05,-0.006675053163263487,0.011156353679877483
4.94949494949495,4.556962025316456,0.011619887634214286,0.01044038198858839,7.7777403747582e-05,-0.006618080886840803,0.011078151791130877
5.05050505050505,4.556962025316456,0.01162992005916568,0.010485178189374743,2.4906537760101543e-05,-0.006634529474562127,0.011101985367665455
5.151515151515151,4.556962025316456,0.011732424802898413,0.010439725152006458,-0.00010156307824707394,-0.006651644986471462,0.011143846188495612
5.252525252525253,4.556962025316456,0.011717802366522655,0.010460264810949652,9.901258226961014e-06,-0.006653420153241692,0.011142396984698554
5.353535353535354,4.556962025316456,0.011601643111904215,0.010399080674255596,-9.040782573734126e-05,-0.006600217135847943,0.0110506606054082
5.454545454545454,4.556962025316456,0.011687611135897717,0.010434504633246975,-8.314052436376712e-06,-0.0066366347307434065,0.011114176344943561
5.555555555555555,4.556962025316456,0.011715699511454807,0.010545617630387314,5.742543412568386e-05,-0.006678395142552636,0.01117713165218044
5.656565656565657,4.556962025316456,0.0116133672425706,0.010508282278625826,4.33255126732556e-05,-0.006636494856358928,0.011102404481370707
5.757575757575758,4.556962025316456,0.011633283689289765,0.010560072436199702,6.158582076036642e-05,-0.00665800683764684,0.011136044147877458
5.858585858585858,4.556962025316456,0.01157566699673027,0.010351877993355631,7.167980369331486e-05,-0.00657826349702577,0.011015578330229347
5.959595959595959,4.556962025316456,0.011630167782820982,0.010519453962014626,3.912069102858759e-05,-0.006644886523450682,0.011116712240542207
6.0606060606060606,4.556962025316456,0.011588258595530518,0.010521631963768464,-2.5047089137735285e-05,-0.0066329671677896945,0.011093555177883933
6.161616161616162,4.556962025316456,0.011753765964169948,0.010508524667255482,-8.680793170582211e-06,-0.006678687189427629,0.01118327284490901
6.262626262626262,4.556962025316456,0.01175742506399503,0.010630090633122438,-2.5009899067613697e-05,-0.006716254709135241,0.011236336299995542
6.363636363636363,4.556962025316456,0.011660339794583639,0.010419009437030221,4.412991217681408e-05,-0.0066238047694841574,0.011092156407244529
6.4646464646464645,4.556962025316456,0.011752701578630058,0.010803413788960268,-0.00010323738303153912,-0.006766834610277098,0.011309395185927886
6.565656565656566,4.556962025316456,0.011643669344976994,0.010835033170720574,2.0158611684968867e-05,-0.0067436107547092705,0.011261201319260715
6.666666666666667,4.556962025316456,0.011748495552050472,0.010517836607218549,-5.1217626011610044e-05,-0.006679899647780706,0.011184415396936863
6.767676767676767,4.556962025316456,0.011678894962391974,0.010547383548220688,6.347333573358155e-05,-0.0066678835531837986,0.011156800135396256
6.8686868686868685,4.556962025316456,0.011702453221686266,0.0107831417444219,-2.8086905062040265e-05,-0.0067456784898324495,0.011271056386242045
6.96969696969697,4.556962025316456,0.011926918519546243,0.010743511049410615,1.5392970830478364e-05,-0.006801128870687058,0.01138148254715487
7.070707070707071,4.556962025316456,0.011874209457884675,0.010702174495667002,-2.9126407922535786e-05,-0.006772915186065503,0.011333846329113398
7.171717171717171,4.556962025316456,0.01190458077052848,0.01074866001363864,1.025605809429889e-05,-0.006795972235250135,0.011370785358263634
7.2727272727272725,4.556962025316456,0.012011396646746568,0.010773757459854155,-5.930743287338521e-05,-0.006835546231980217,0.011443346411686872
7.373737373737374,4.556962025316456,0.012239669976360558,0.010807803820367253,-2.0747280669468837e-05,-0.006914242139018343,0.011590318544724669
7.474747474747475,4.556962025316456,0.012005667012056086,0.010855389817798902,-5.2394725764586084e-05,-0.006858317048956496,0.011474213205446804
7.575757575757575,4.556962025316456,0.011938204883934319,0.010920398684323233,2.2606221908551064e-05,-0.006857581070477265,0.011463307528434856
7.6767676767676765,4.556962025316456,0.012177610045394333,0.011030371281263298,-5.353887353637124e-06,-0.006962394397997289,0.01164645022714627
7.777777777777778,4.556962025316456,0.012100879361167823,0.0108535238809879,-3.938341788305886e-05,-0.006886320972646717,0.01152812786111153
7.878787878787879,4.556962025316456,0.012314932597148985,0.010896584028818858,-2.6477435275471263e-05,-0.006963454987790352,0.011670668947369503
7.979797979797979,4.556962025316456,0.012358648412900984,0.01108060425825913,-5.484594218682708e-05,-0.007031775801348034,0.011772158396982918
8.080808080808081,4.556962025316456,0.012353528175169546,0.011296540846389376,6.271736486467144e-05,-0.0070950207064676765,0.011860908828778396
8.181818181818182,4.556962025316456,0.012641427205543766,0.011265014330727895,-5.735822162093343e-06,-0.007171932460881498,0.012012513048160676
8.282828282828282,4.556962025316456,0.012650127287092746,0.011324302554862789,4.885920234712968e-05,-0.00719232895258666,0.012042376909984111
8.383838383838384,4.556962025316456,0.012619257946627585,0.011389529639046977,-8.724982731809276e-06,-0.007202636275702368,0.012051550626053481
8.484848484848484,4.556962025316456,0.012763920374215938,0.01150456802504965,3.593922461901073e-05,-0.007280546519779676,0.012183317833596632
8.585858585858587,4.556962025316456,0.012682716549040927,0.01142384329858452,4.748391608493406e-05,-0.007231967954287634,0.012102763836586384
8.686868686868687,4.556962025316456,0.012840989848747606,0.011340769975264035,-6.740376413505809e-05,-0.007254527947203492,0.012161044428847422
8.787878787878787,4.556962025316456,0.012878501733950633,0.011778696124218625,-9.579862567811023e-05,-0.007397159357450777,0.012366449084869537
8.88888888888889,4.556962025316456,0.01295812592015557,0.01158857427028176,4.490255523084898e-05,-0.007364010057131199,0.01233077147097686
8.98989898989899,4.556962025316456,0.013054882404859528,0.011826761308991766,6.456850054903661e-05,-0.007464493114155387,0.012486703600996341
9.09090909090909,4.556962025316456,0.013266860264335975,0.011739454530155971,-1.31604587676192e-05,-0.007501894438347583,0.012572954732318734
9.191919191919192,4.556962025316456,0.013343854377452195,0.012049899710608054,0.00014996258933474448,-0.007618126226418075,0.012748878068901
9.292929292929292,4.556962025316456,0.013408024969011842,0.012117416369217222,0.00013662598339309002,-0.0076576324014687195,0.012813754007871995
9.393939393939394,4.556962025316456,0.013564971525116558,0.012152955386351765,1.3858482840180944e-05,-0.007715378073440497,0.012916998858506015
9.494949494949495,4.556962025316456,0.013743148562325416,0.012208325362749699,-3.895209704554333e-05,-0.007785442177522535,0.013043813215813198
9.595959595959595,4.556962025316456,0.013670435270682053,0.012568772606880852,9.127253495392608e-05,-0.00787176236326887,0.013155198402381118
9.696969696969697,4.556962025316456,0.014033281206564998,0.012467265684337672,5.213259322943788e-05,-0.007950164067270801,0.013319804925859687
9.797979797979798,4.556962025316456,0.014076397184858853,0.012644562975392643,5.811027759869413e-05,-0.008016288048075448,0.013418277470937654
9.8989898989899,4.556962025316456,0.014372761725238211,0.012577178717408162,-4.91384320986472e-05,-0.008084982132793912,0.013564665678725002
10.0,4.556962025316456,0.014291691681023002,0.012808954901605968,-2.555012092261926e-05,-0.008130193974788692,0.013611102122640705
0.0,4.658227848101266,0.014277317327058184,0.01298470800920472,6.261558532857712e-05,-0.00817860760087887,0.013677331524452765
0.10101010101010101,4.658227848101266,0.01422411414199427,0.012895842192525401,3.633386516554376e-06,-0.0081359869003559,0.013608683892275016
0.20202020202020202,4.658227848101266,0.01393983567082441,0.012560530099266632,8.210492228303852e-06,-0.007950109731027312,0.013303924669754367
0.30303030303030304,4.658227848101266,0.01379589137649382,0.012434385154178355,-1.7059538794912583e-05,-0.007869082959201653,0.013168067405565911
0.40404040404040403,4.658227848101266,0.013821441260574838,0.012355331126765111,2.5747360193067216e-05,-0.007853031716201985,0.013149903084345002
0.5050505050505051,4.658227848101266,0.01375788393401594,0.012195291397434332,5.0264494806493764e-05,-0.007785952599435081,0.013047247931311016
0.6060606060606061,4.658227848101266,0.013769244588792116,0.0121951372219402,-7.064901343604775e-05,-0.007789314543219694,0.013054141682027714
0.7070707070707071,4.658227848101266,0.013395360388152157,0.012100273726435845,1.4791345958986732e-05,-0.0076486902343764,0.012797086901869441
0.8080808080808081,4.658227848101266,0.013388435129289765,0.012014550590584759,-6.772768649604524e-05,-0.007620895715962357,0.01275763892865216
0.9090909090909091,4.658227848101266,0.01322443086016379,0.011974532415226495,-2.58353507867915e-05,-0.007559688982617085,0.012645972660363474
1.0101010101010102,4.658227848101266,0.013127729123129341,0.01179361415496457,-6.0075590598313835e-05,-0.007476402983428173,0.012514554006720227
1.1111111111111112,4.658227848101266,0.012925523681859338,0.011814085376671356,5.733723556021733e-05,-0.007421882717559208,0.012407594371902149
1.2121212121212122,4.658227848101266,0.01294593855930676,0.011647584707369749,3.703514546739325e-05,-0.007378056980002951,0.012348228760302782
1.3131313131313131,4.658227848101266,0.012844864162378242,0.011413855318712581,1.4639360720912031e-05,-0.007277615844327247,0.01219253256633739
1.4141414141414141,4.658227848101266,0.012520516672522686,0.011301097998690637,-3.759499631732826e-05,-0.0071464844013639965,0.011957709143634223
1.5151515151515151,4.658227848101266,0.012717070538241797,0.011321807493899117,5.1861464893344466e-05,-0.007211663409642274,0.01208035812043007
1.6161616161616161,4.658227848101266,0.01263490153078315,0.01128170488759278,7.008618104778716e-05,-0.007174981925512779,0.01201620188443724
1.7171717171717171,4.658227848101266,0.012420715247170037,0.011237238414584164,-3.1381408127158666e-05,-0.007097386098526261,0.011873420328772415
1.8181818181818181,4.658227848101266,0.01239224203943019,0.01120732271591777,-6.869392502011145e-05,-0.007079869426604388,0.011844916465678187
1.9191919191919191,4.658227848101266,0.0125220490613242,0.011085859327630301,-3.626985450985689e-05,-0.00708237251668635,0.011869467631100033
2.0202020202020203,4.658227848101266,0.012228302886610103,0.01122630290466141,2.1988594484178567e-06,-0.007036381737381454,0.011759364382644343
2.121212121212121,4.658227848101266,0.012104466470100632,0.011073587067037826,-1.891684907256203e-05,-0.006953416061141537,0.011623409536013733
2.2222222222222223,4.658227848101266,0.012091476853265112,0.011127083551762493,-1.4295763736878593e-05,-0.006965568121508281,0.01163931014953415
2.323232323232323,4.658227848101266,0.01212809566947245,0.011163295619946664,9.919646636990122e-05,-0.006987417386825735,0.011676894973309544
2.4242424242424243,4.658227848101266,0.012173962719964314,0.010792857001225484,-4.316412673534501e-05,-0.006890045916356939,0.011545773304836209
2.525252525252525,4.658227848101266,0.012034095210173632,0.010836932971730799,2.2547629982160395e-05,-0.006861308454571329,0.011482482561714831
2.6262626262626263,4.658227848101266,0.011992834178826869,0.0108233789155387,-1.5946428934381323e-05,-0.006844863928309671,0.01145300733725803
2.727272727272727,4.658227848101266,0.011986001058649097,0.010794817068460843,-0.0001006750725717075,-0.006834245438132982,0.011438357159998448
2.8282828282828283,4.658227848101266,0.011806372861721292,0.010692070154112703,4.60807484862012e-05,-0.006749532904750198,0.011290819621863747
2.929292929292929,4.658227848101266,0.011961432840893956,0.010835819566839535,-6.972059151461973e-05,-0.006839175722320047,0.011440870427994833
3.0303030303030303,4.658227848101266,0.011874861425636735,0.010574681886076605,-5.156061815362242e-05,-0.006734862993514001,0.011281459318034814
3.131313131313131,4.658227848101266,0.011924504115733798,0.010617700345747626,-1.946340651282914e-05,-0.0067626613384444275,0.01132782786055319
3.2323232323232323,4.658227848101266,0.011791641709745814,0.010636016088024091,-2.518962371097764e-05,-0.006728297339330972,0.011258484136777925
3.3333333333333335,4.658227848101266,0.01174786669058439,0.010433698579660703,-1.7230413269208273e-05,-0.006654469581073527,0.01114906401850786
3.4343434343434343,4.658227848101266,0.011833715179857304,0.01055886349414918,-0.00012564938581038833,-0.006717773602201945,0.011252697158360333
3.5353535353535355,4.658227848101266,0.011559124459371057,0.01041138877416904,3.187387945926078e-05,-0.006591153970062029,0.011030271241958654
3.6363636363636362,4.658227848101266,0.01187091686770665,0.010444743283153469,-6.589052656554602e-05,-0.006694698045258035,0.011226561138505538
3.7373737373737375,4.658227848101266,0.01174969633108632,0.010569758907928299,-2.4102029793179114e-05,-0.006695836571704385,0.011206491534242167
3.8383838383838382,4.658227848101266,0.011671081229863354,0.010503420836890784,-6.608241524384102e-05,-0.006652350620026241,0.011133858685510693
3.9393939393939394,4.658227848101266,0.011610730073245564,0.010566074822715108,1.0382390010705112e-05,-0.006653041468788201,0.011125262723854612
4.040404040404041,4.658227848101266,0.011617644994077568,0.01046963508631618,-3.200102525721121e-06,-0.006626184024118124,0.011088302896324887
4.141414141414141,4.658227848101266,0.011663473619231996,0.010532391887726044,2.8572972832666227e-05,-0.006658759652087412,0.011141188000279943
4.242424242424242,4.658227848101266,0.011731170655897396,0.010465601583665687,2.476063679104144e-05,-0.006659031671868924,0.011152455448850917
4.343434343434343,4.658227848101266,0.011660544143377336,0.010473115669238408,-3.335132921437691e-05,-0.006640097943784723,0.01111465478071759
4.444444444444445,4.658227848101266,0.011634314762785779,0.010618859158645673,-2.9922356382327867e-05,-0.006675952176429436,0.011161406094197465
4.545454545454545,4.658227848101266,0.011629719602279298,0.010578379509070519,-8.598487262082064e-05,-0.0066624297334049445,0.01114231051997449
4.646464646464646,4.658227848101266,0.011516560345234721,0.010498798897301266,8.677745795338549e-05,-0.0066046077727607965,0.011043934099757204
4.747474747474747,4.658227848101266,0.011453937220189224,0.010368239905401718,-2.397022646549801e-05,-0.006546653137677282,0.010951604053057212
4.848484848484849,4.658227848101266,0.011653545010203043,0.010316671871101472,-3.621717964432184e-05,-0.006591065064391354,0.011046128953064603
4.94949494949495,4.658227848101266,0.011680230666675905,0.010401917295828973,8.880663094287225e-05,-0.006624644388751463,0.01109750144483669
5.05050505050505,4.658227848101266,0.011669360093051093,0.01053178930296081,-9.098704623871235e-05,-0.006660344818803571,0.011145319422547281
5.151515151515151,4.658227848101266,0.01161767384813574,0.010407513777946815,6.53838987860303e-07,-0.006607556287824766,0.011062350081251318
5.252525252525253,4.658227848101266,0.011731761387581308,0.010391646946249448,-3.152001375436697e-05,-0.006637022500149226,0.011122554097286016
5.353535353535354,4.658227848101266,0.011668431172493495,0.010499299345005597,-2.2683663608090424e-05,-0.006650319155249727,0.01113008376619121
5.454545454545454,4.658227848101266,0.011580629819491275,0.010585847268584107,3.1958827708193456e-05,-0.006649943126422615,0.011116808668261778
5.555555555555555,4.658227848101266,0.011784294059047167,0.010433991069397384,5.128525766200376e-05,-0.006665485538533365,0.011170874078068748
5.656565656565657,4.658227848101266,0.011708801411770196,0.010449782063836666,3.357625190594904e-05,-0.006647575042682059,0.011132966127420346
5.757575757575758,4.658227848101266,0.011673122762646754,0.010410252506350508,5.3554293778702736e-05,-0.006625012580699179,0.011096107469205797
5.858585858585858,4.658227848101266,0.01180106499650688,0.010451324017685514,7.486459784918741e-05,-0.006675716704257718,0.011188179872803404
5.959595959595959,4.658227848101266,0.011692033128494544,0.010376902592834542,2.5021562233166707e-05,-0.006620680716398725,0.011093175174319455
6.0606060606060606,4.658227848101266,0.01157910584217082,0.010415422686014026,-1.5128665985214339e-05,-0.006598358558455453,0.01104337479169434
6.161616161616162,4.658227848101266,0.011635915612271338,0.010540975241792401,-2.2726573989611364e-05,-0.006653067256219122,0.011128986579690817
6.262626262626262,4.658227848101266,0.011918475262263233,0.010716181597256179,5.9605218844540345e-05,-0.006790397057855823,0.011365593415043266
6.363636363636363,4.658227848101266,0.011792743183018425,0.01064518231923182,3.957623091335727e-05,-0.006731377650675074,0.01126310330225928
6.4646464646464645,4.658227848101266,0.01185373710248377,0.010622673468161897,1.2127962869897562e-05,-0.0067429231711936995,0.011288681834090307
6.565656565656566,4.658227848101266,0.011663573970641444,0.010605865477037854,1.4104112723817284e-05,-0.006680831834303789,0.01117236056299347
6.666666666666667,4.658227848101266,0.011860597319615872,0.010490435610356124,0.00012063646455533786,-0.006705309878991599,0.011240277356945227
6.767676767676767,4.658227848101266,0.012002119009126863,0.01064978606523683,-3.7289765629687098e-06,-0.006795571522309108,0.01138634471126016
6.8686868686868685,4.658227848101266,0.011718555067419745,0.010775207547039652,-7.03017848414475e-05,-0.006748128784337819,0.011277171390465074
6.96969696969697,4.658227848101266,0.011769543642225905,0.01056872177971286,-4.05406201996978e-05,-0.006701479626581629,0.011217661788448683
7.070707070707071,4.658227848101266,0.011916013392409221,0.010719704077032134,-6.293120447347105e-06,-0.006790715240832406,0.011365184210241889
7.171717171717171,4.658227848101266,0.011774370363789645,0.01070940502718423,-2.196336982951156e-05,-0.006745132617292163,0.01127972071918945
7.2727272727272725,4.658227848101266,0.01192532902386569,0.010707605882952729,-4.365709055308868e-05,-0.006789880472045526,0.011365750775231383
7.373737373737374,4.658227848101266,0.012234910758036564,0.010742213711098894,-3.632540308274715e-06,-0.006893137340740637,0.011561064404242172
7.474747474747475,4.658227848101266,0.012142095667520373,0.01099344575838267,-0.0001252060766553612,-0.0069406624277709135,0.01161248881216403
7.575757575757575,4.658227848101266,0.01222954802139211,0.010935821038262307,4.036324643957643e-05,-0.006949610717896325,0.011636956888407149
7.6767676767676765,4.658227848101266,0.012134022954859606,0.01109201938891528,9.122237025021122e-05,-0.006967812703132466,0.011649100989981532
7.777777777777778,4.658227848101266,0.01231849120746545,0.010971482729982905,-3.0148261854610142e-05,-0.006986992181234506,0.011703387207712213
7.878787878787879,4.658227848101266,0.012439733217867883,0.010824428331385008,-0.00013082233015611244,-0.0069792484647758675,0.01171808661859342
7.979797979797979,4.658227848101266,0.01245041229902504,0.011145511983284312,4.2979571008385055e-05,-0.007078777284692805,0.011852194988279868
8.080808080808081,4.658227848101266,0.01217758154176105,0.011091461201631087,-3.4314572165881233e-05,-0.006980712823017641,0.011672633081827527
8.181818181818182,4.658227848101266,0.012547857612957887,0.011266607407377786,-8.64854902181228e-06,-0.007144339506100701,0.011958829876303645
8.282828282828282,4.658227848101266,0.01247021050182326,0.011257661247464244,-2.3399980681861212e-07,-0.007118361524786251,0.0119103182733549
8.383838383838384,4.658227848101266,0.012634518770244605,0.011273245429304125,-6.790865750063334e-05,-0.007172329259864618,0.012012448994445849
8.484848484848484,4.658227848101266,0.012569848360695404,0.011370373479641864,6.883770266373951e-07,-0.007182066552101181,0.012015099327739158
8.585858585858587,4.658227848101266,0.01251503252635245,0.011577282285571438,7.365814247947806e-05,-0.007227694443577165,0.012074175601283758
8.686868686868687,4.658227848101266,0.01290234436882686,0.011570664656581244,-1.78983860649415e-05,-0.00734190270762243,0.01229077019100523
8.787878787878787,4.658227848101266,0.01277483724416949,0.011804998292710055,-1.382591048097114e-05,-0.007373950661063862,0.012318607588369695
8.88888888888889,4.658227848101266,0.012899055798969739,0.011832276642615151,-1.6333214459571297e-06,-0.007419399732475466,0.012400129935351027
8.98989898989899,4.658227848101266,0.013128672391892672,0.011786799282789197,1.2694133906105868e-05,-0.0074746415024045595,0.01251183972071161
9.09090909090909,4.658227848101266,0.013178048206841476,0.01196177304909229,1.7773089533218866e-05,-0.0075419463767801296,0.012614003915796434
9.191919191919192,4.658227848101266,0.01325715801943857,0.011959343312823853,4.208379645145585e-05,-0.007564950399678726,0.012658457262135008
9.292929292929292,4.658227848101266,0.013346072419447805,0.012056462982102108,-2.1111866512092444e-05,-0.007620760620464974,0.012750327749322382
9.393939393939394,4.658227848101266,0.013490703593937054,0.012140589908923924,-6.298845192366386e-05,-0.007689388050858293,0.01286933601684729
9.494949494949495,4.658227848101266,0.013438161806485906,0.012393991497968387,1.3851245814650297e-05,-0.007749645991336287,0.012947715257223233
9.595959595959595,4.658227848101266,0.013862200192638912,0.012272747399732368,6.612099970876638e-05,-0.007840484277711383,0.013140272352940963
9.696969696969697,4.658227848101266,0.013869900509921314,0.012585893013829674,8.645463705928106e-05,-0.007936738057125296,0.013275397635971511
9.797979797979798,4.658227848101266,0.014223432213882349,0.012855839712169526,-7.324935714554822e-05,-0.008123781577815563,0.01359193033951719
9.8989898989899,4.658227848101266,0.014290772142837457,0.012858759443277894,0.0001438768696201764,-0.008144859475834605,0.013633574853132938
10.0,4.658227848101266,0.014277774194195467,0.012930657972375133,-0.00011795201444302662,-0.008162529649971181,0.013655675554880856
0.0,4.7594936708860756,0.014449434968206795,0.013003897638121953,3.896226406528007e-06,-0.008235999781898625,0.01378363511449975
0.10101010101010101,4.7594936708860756,0.014197101647545746,0.012837549356015446,-3.7377419615807445e-05,-0.008110395301068357,0.013568661200009139
0.20202020202020202,4.7594936708860756,0.014073234732773072,0.012463084632068808,7.429860864811127e-05,-0.007960895809452565,0.013341853683730013
0.30303030303030304,4.7594936708860756,0.01393050919829046,0.012600551337523252,3.5936906133335835e-05,-0.007959318160744112,0.013315583299502227
0.40404040404040403,4.7594936708860756,0.013842562909475725,0.012511832948728773,-5.004332287611655e-05,-0.007906318757461348,0.013227780990648138
0.5050505050505051,4.7594936708860756,0.013503586982708987,0.012174130260031338,4.632838937758487e-05,-0.0077033151728220966,0.0128906291949471
0.6060606060606061,4.7594936708860756,0.013391841165855485,0.012142772137485349,0.00010402799170876227,-0.0076603839910022505,0.012814316785735776
0.7070707070707071,4.7594936708860756,0.013608922802683079,0.01215679956818335,1.080583402092435e-05,-0.007729716711259929,0.01294410904764862
0.8080808080808081,4.7594936708860756,0.013265088341500735,0.011933454978235504,7.560190958016869e-07,-0.007559562995920872,0.012651939915857623
0.9090909090909091,4.7594936708860756,0.01314634735952442,0.011942544206649312,-6.400025813788657e-05,-0.007526667469852119,0.012588179559693493
1.0101010101010102,4.7594936708860756,0.013023816254393012,0.011833010529141031,9.374690513490461e-06,-0.0074570480350602125,0.01247113614702326
1.1111111111111112,4.7594936708860756,0.012834378982270567,0.011704417040852478,-2.019789430657606e-05,-0.007361638806936913,0.012308410211018445
1.2121212121212122,4.7594936708860756,0.013078557001095531,0.011707833950971953,1.3881897277690784e-05,-0.0074359172856202456,0.012449941103816689
1.3131313131313131,4.7594936708860756,0.01283812194139394,0.011490226329526142,-4.4413474034883574e-05,-0.007298504481276024,0.012220297336938734
1.4141414141414141,4.7594936708860756,0.0124534106732999,0.011499751894161742,-1.2925170183181865e-05,-0.007185948770238492,0.012005044740697746
1.5151515151515151,4.7594936708860756,0.012768987539062155,0.011382158778687437,1.0280536417693377e-05,-0.007245343895324877,0.012135166034775807
1.6161616161616161,4.7594936708860756,0.012713301165558974,0.011325849833178426,-2.9144671728136995e-05,-0.00721174529962122,0.012079590610632804
1.7171717171717171,4.7594936708860756,0.012512102501270531,0.011354908200930134,-0.00010481380491760895,-0.0071601032106601995,0.011976887398335155
1.8181818181818181,4.7594936708860756,0.012347454113755006,0.011166658448309419,5.1506267402782735e-05,-0.007054233768619328,0.011801781216611146
1.9191919191919191,4.7594936708860756,0.012303938156159955,0.011018046313327744,-1.031311185523855e-05,-0.00699659534084631,0.011714059815161503
2.0202020202020203,4.7594936708860756,0.012275833120357346,0.010947352744208659,0.00010422389856148728,-0.006966955759369801,0.011669846758655306
2.121212121212121,4.7594936708860756,0.012305559108719485,0.011061859765081752,3.4096599252000725e-06,-0.007010225662140371,0.011733251558126873
2.2222222222222223,4.7594936708860756,0.012194080612112553,0.011034936079918402,-2.670550446996862e-05,-0.006968705007609286,0.01165790099917034
2.323232323232323,4.7594936708860756,0.01212717222569037,0.010905707758283164,-7.510801056892365e-05,-0.00690986399519206,0.011565651529967552
2.4242424242424243,4.7594936708860756,0.012376021324593239,0.010940251521938739,3.195744077235342e-05,-0.006994881853959593,0.011724388465596156
2.525252525252525,4.7594936708860756,0.012037217133980496,0.010920769293474379,-1.4421409472105509e-05,-0.006887395928236463,0.011519668005953216
2.6262626262626263,4.7594936708860756,0.012106918488584596,0.010949704744956578,-1.1693336710949254e-05,-0.0069169869700623525,0.011571807839403018
2.727272727272727,4.7594936708860756,0.012079100058251854,0.01080601861903859,7.508479316537613e-05,-0.006865535603187132,0.01149628764689119
2.8282828282828283,4.7594936708860756,0.011938405056507638,0.010816397240013112,3.402840942893281e-05,-0.006826440688956225,0.01141897135654466
2.929292929292929,4.7594936708860756,0.011984257292133347,0.010811468978198546,4.920093290248734e-05,-0.006838717881099567,0.011443343941582234
3.0303030303030303,4.7594936708860756,0.011974046450644928,0.010661628106279252,8.62638382346543e-05,-0.006790702367077254,0.011375745973081402
3.131313131313131,4.7594936708860756,0.01182726556517347,0.010372632240172038,4.67792284368653e-05,-0.0066599693416036524,0.0111714994120413
3.2323232323232323,4.7594936708860756,0.01189034405126218,0.01046904314965197,-2.5088626936190002e-05,-0.0067078161602742445,0.011247333439860046
3.3333333333333335,4.7594936708860756,0.011782655896919663,0.010517890840739631,-8.699736937410962e-06,-0.0066901640212977875,0.011203952259867969
3.4343434343434343,4.7594936708860756,0.011549430147943154,0.010473546553563178,-9.374993917412738e-05,-0.0066068930104519,0.01105203089859733
3.5353535353535355,4.7594936708860756,0.011689067002591452,0.010652355530395606,4.663997539575431e-05,-0.0067024267598961166,0.011207024318199596
3.6363636363636362,4.7594936708860756,0.01162832637396251,0.010664733126114611,-2.772686291381722e-05,-0.006687917850023137,0.01117782696975353
3.7373737373737375,4.7594936708860756,0.011697292330242604,0.010572351332278697,6.807017404885072e-05,-0.00668089309875639,0.01117798179665627
3.8383838383838382,4.7594936708860756,0.011595204555356778,0.010378220331664285,-5.622620662605249e-05,-0.006592027466106319,0.011037577742687077
3.9393939393939394,4.7594936708860756,0.011577096755696813,0.010626394227400433,-9.125413146524549e-05,-0.006661047294929174,0.011133355800549558
4.040404040404041,4.7594936708860756,0.011599207239437291,0.010442021360316458,-9.704994578216153e-05,-0.006612368579926125,0.011067362151466226
4.141414141414141,4.7594936708860756,0.011472277144701004,0.010581052131342633,3.797266271117358e-05,-0.006615998782813091,0.011053839619203261
4.242424242424242,4.7594936708860756,0.011495592968042471,0.01040553730157465,1.5828993044298266e-05,-0.006570339080885136,0.010991214421516222
4.343434343434343,4.7594936708860756,0.01152855477348463,0.010515924641804454,5.2042872049020995e-05,-0.006613343824586726,0.011057439052152148
4.444444444444445,4.7594936708860756,0.011598245425156152,0.010561943033907496,7.961743945629775e-05,-0.0066480565377190935,0.011117236478994314
4.545454545454545,4.7594936708860756,0.011668917166109436,0.010413378019037038,-6.018160840223274e-05,-0.0066246885555439426,0.011095047974268921
4.646464646464646,4.7594936708860756,0.011768958440250764,0.010449346217513585,-4.025776913904575e-05,-0.006665491397329305,0.011167997127687417
4.747474747474747,4.7594936708860756,0.011694763158669793,0.010498936798200314,5.9109586432334496e-05,-0.0066581099870610325,0.011145539995299193
4.848484848484849,4.7594936708860756,0.01163275673345644,0.010566766056387091,3.916809817662268e-05,-0.0066598568369530585,0.011138292397698984
4.94949494949495,4.7594936708860756,0.011700083274121056,0.010351402852794848,-1.0427996220719921e-05,-0.006615445838074771,0.011087449683757675
5.05050505050505,4.7594936708860756,0.011447687302150771,0.010590481357485155,4.349025280795058e-05,-0.006611450597890777,0.011044319589616429
5.151515151515151,4.7594936708860756,0.011516907504095187,0.010372379918517995,0.00012177744006773282,-0.006566786226783954,0.010991459081840847
5.252525252525253,4.7594936708860756,0.011740702731077374,0.010467688848715694,3.150806392207375e-05,-0.006662517473937921,0.011158923141286817
5.353535353535354,4.7594936708860756,0.011549493019839784,0.010455011254405962,5.613658875225733e-05,-0.006601351282273724,0.011043433514526422
5.454545454545454,4.7594936708860756,0.01161787014413582,0.010801145723370683,-6.666523975855021e-06,-0.0067257047602519516,0.011231806645820987
5.555555555555555,4.7594936708860756,0.011514715978047837,0.01035838876730253,-3.880988273328223e-05,-0.00656193142360511,0.010982509544042883
5.656565656565657,4.7594936708860756,0.011668807667528258,0.010476617176499031,-6.360576021269245e-05,-0.006643627453208186,0.011121289767108281
5.757575757575758,4.7594936708860756,0.011742418570336295,0.010414235214557591,-5.3781452284519826e-05,-0.006646996135468165,0.011138269943742085
5.858585858585858,4.7594936708860756,0.011723826140290156,0.010374019606684295,-4.793485699048677e-05,-0.006629353724092336,0.011110898846377691
5.959595959595959,4.7594936708860756,0.011677403488625974,0.0104930627323352,3.9442719341974224e-05,-0.006651139866288351,0.011132791993398644
6.0606060606060606,4.7594936708860756,0.011772195846756107,0.010423724722350812,-6.77631374473905e-05,-0.006658776170732075,0.011159851199094557
6.161616161616162,4.7594936708860756,0.011672280970071634,0.01052658641248091,-1.9621001608645892e-05,-0.006659660214765763,0.011143744668315983
6.262626262626262,4.7594936708860756,0.011612031093599531,0.01045396323881921,2.9196112069235764e-05,-0.006619798299725622,0.011078602103860871
6.363636363636363,4.7594936708860756,0.011662285025762503,0.010597749056983805,-1.703986559552559e-05,-0.006678010224823892,0.011168172546747884
6.4646464646464645,4.7594936708860756,0.011782115303163131,0.010548095297504927,4.076186399979502e-05,-0.006699063180200418,0.011216357028331023
6.565656565656566,4.7594936708860756,0.011626609275815346,0.010786929731815298,2.8235820253089324e-05,-0.006724061702289193,0.011230443927055616
6.666666666666667,4.7594936708860756,0.011577818362208208,0.010534343341642808,3.9922195339665126e-05,-0.006633648511155305,0.011093166150304612
6.767676767676767,4.7594936708860756,0.011852452974881234,0.01061409013360646,-3.0375512479485392e-05,-0.006739962932546309,0.01128447228370236
6.8686868686868685,4.7594936708860756,0.011621739172318887,0.01074272566089477,-4.345016103539174e-05,-0.006709339449964097,0.011208366702309671
6.96969696969697,4.7594936708860756,0.011779894786352331,0.010701463997718999,1.834041448726642e-05,-0.006744407635221398,0.011279456637238791
7.070707070707071,4.7594936708860756,0.011901482990976202,0.010736754695449494,7.751192550586197e-05,-0.006791471305927709,0.011364766591723889
7.171717171717171,4.7594936708860756,0.011912672918456818,0.010686078196192763,-3.159840926661912e-05,-0.006779625334394875,0.011349329686082259
7.2727272727272725,4.7594936708860756,0.01199658752446283,0.010813731093253974,-6.214363303522154e-05,-0.006843095585315041,0.011451576588245789
7.373737373737374,4.7594936708860756,0.01202050127136774,0.010761043578509643,-1.4513389176611703e-05,-0.006834463454963215,0.011442901887729985
7.474747474747475,4.7594936708860756,0.012077448547718144,0.011055552941422688,-3.6278850448603115e-05,-0.00693990044674225,0.011600478046690234
7.575757575757575,4.7594936708860756,0.012035610894306428,0.010874635511331226,-6.326452601760999e-06,-0.006873073921691296,0.011499168037022141
7.6767676767676765,4.7594936708860756,0.012136732486369825,0.010991432432107701,1.620919639437342e-05,-0.006938449475543258,0.01160657466692635
7.777777777777778,4.7594936708860756,0.012274438930017227,0.010882710697026383,3.336291660871267e-07,-0.006947144888113083,0.011641137214727978
7.878787878787879,4.7594936708860756,0.012222999086035365,0.011068911428492909,-6.458081080796086e-05,-0.006987573154358482,0.011689299578612094
7.979797979797979,4.7594936708860756,0.012254256090196813,0.011088561613031971,3.1919657220890425e-05,-0.007002845310968634,0.011715117322744299
8.080808080808081,4.7594936708860756,0.012254347957502227,0.011004765076141844,-2.1273656131019594e-05,-0.006977733910093221,0.011679855971557832
8.181818181818182,4.7594936708860756,0.012275066487138097,0.011302315880872955,8.913834218091668e-05,-0.007073214710403316,0.011819761400742477
8.282828282828282,4.7594936708860756,0.012459401390224396,0.011329546184601046,-5.044104156867058e-05,-0.007136684272447632,0.01193497252467418
8.383838383838384,4.7594936708860756,0.012812369861509952,0.011129904837309584,-4.271781122480306e-05,-0.007182682409645861,0.012059710622185933
8.484848484848484,4.7594936708860756,0.012744627378771049,0.01130612116454726,-2.3454079907805046e-05,-0.007215224562995493,0.012089799491775919
8.585858585858587,4.7594936708860756,0.01271048285765718,0.01160636533635686,9.825276523895592e-06,-0.007295054458204211,0.012195977728599256
8.686868686868687,4.7594936708860756,0.012892904423261091,0.011456524050322485,-6.999089540610695e-05,-0.007304828542075072,0.012238699046699462
8.787878787878787,4.7594936708860756,0.01295042770081304,0.011744437945756678,-3.104829259644186e-05,-0.007408459693970915,0.012391642255243147
8.88888888888889,4.7594936708860756,0.012942856079490032,0.011627430109357375,-4.67443911021839e-05,-0.007371085856654222,0.012338113918948046
8.98989898989899,4.7594936708860756,0.013114453687045051,0.011766395050216275,-3.496263222420417e-05,-0.007464254621178397,0.01249522997766837
9.09090909090909,4.7594936708860756,0.013288175504420236,0.011797668360415013,-1.777925431185997e-05,-0.007525753159450574,0.012609204874539976
9.191919191919192,4.7594936708860756,0.013378770886183963,0.012063410010801896,-3.29808926477572e-05,-0.007632654269095757,0.012772119483114068
9.292929292929292,4.7594936708860756,0.01337027667645017,0.012101865514936933,4.009292383978282e-06,-0.007641642657416131,0.01278335657540012
9.393939393939394,4.7594936708860756,0.013606232804991044,0.012051805051772153,1.6106021360733763e-05,-0.007697411357028959,0.012899484063578992
9.494949494949495,4.7594936708860756,0.013411457730373572,0.012247906580083326,3.944948565913582e-05,-0.00769780929313707,0.012869374555488308
9.595959595959595,4.7594936708860756,0.013772760694578026,0.012336642075147517,8.967367849517184e-05,-0.007832820830917664,0.013114731406726894
9.696969696969697,4.7594936708860756,0.013962013836858899,0.012612896719214318,-4.189528634895567e-05,-0.007972473166821965,0.013338921289171734
9.797979797979798,4.7594936708860756,0.013971693613291496,0.012697002694084351,-6.506695807031094e-05,-0.008000608892212753,0.01338043981024129
9.8989898989899,4.7594936708860756,0.014403358109813436,0.012702993123101552,7.132298519019184e-05,-0.008131905369874496,0.013633497754106029
10.0,4.7594936708860756,0.01441585995760095,0.013076779643738058,-1.378208056590678e-05,-0.008247791880401702,0.013795170530469856
0.0,4.860759493670886,0.014504937104935044,0.013008742457333208,-5.0732970603354946e-05,-0.008254103868680475,0.013818006769586829
0.10101010101010101,4.860759493670886,0.014144593393499215,0.012767046978722933,-1.6463108939016487e-05,-0.008073492111666645,0.013508631891367437
0.20202020202020202,4.860759493670886,0.013920623761674845,0.012774324340705816,-2.325705248275058e-06,-0.008008484430714198,0.013384340908158288
0.30303030303030304,4.860759493670886,0.013948156867228884,0.012445971304918115,4.628745242421111e-05,-0.0079182384516441,0.013261272532242067
0.40404040404040403,4.860759493670886,0.01379831744422061,0.012321765879911949,-6.627491696660961e-05,-0.007836024997239767,0.013122995797466008
0.5050505050505051,4.860759493670886,0.01373100866018176,0.012351779528402907,-3.472939088327919e-05,-0.007824836456575399,0.01309611709870055
0.6060606060606061,4.860759493670886,0.013521162176164222,0.012153502924974465,4.315820913704759e-05,-0.007702399530341606,0.012892073680268765
0.7070707070707071,4.860759493670886,0.013353415448220352,0.012136304090061271,-7.755057564928785e-06,-0.007646915861484486,0.012788379529926274
0.8080808080808081,4.860759493670886,0.013370589170903628,0.011941221555283928,-2.8001828223568356e-05,-0.007593543217856267,0.01271639145757059
0.9090909090909091,4.860759493670886,0.013212834304474728,0.012013057072746363,5.117792831710266e-05,-0.007567767413166327,0.012655981018443818
1.0101010101010102,4.860759493670886,0.013101741344959712,0.011875495011574979,-6.111909792131293e-05,-0.0074931709069604065,0.012534135418430199
1.1111111111111112,4.860759493670886,0.012917685988487209,0.011640520048147963,1.573538486928759e-05,-0.007367461810990551,0.01232884740642202
1.2121212121212122,4.860759493670886,0.012739328832254065,0.011576746408076053,-5.859166346025135e-05,-0.007294822572099034,0.01220007689083088
1.3131313131313131,4.860759493670886,0.012826489035619032,0.011521083937288727,-6.4917483040169685e-06,-0.007304271891872327,0.01222617134262461
1.4141414141414141,4.860759493670886,0.012889456591790863,0.011575635789105245,-2.1582096582302036e-05,-0.007339527714268832,0.012285405060001116
1.5151515151515151,4.860759493670886,0.01255235367233101,0.011397402300213164,4.571108725761584e-05,-0.007184926791763252,0.012016838427829774
1.6161616161616161,4.860759493670886,0.012480198978364122,0.011296270749300723,5.609165380793238e-05,-0.007132940918299454,0.01193276294649321
1.7171717171717171,4.860759493670886,0.012664314981993458,0.01115978214101051,-8.964928608289129e-05,-0.007147229136901191,0.011984103062693686
1.8181818181818181,4.860759493670886,0.01240588662985126,0.011255610250809758,3.935799701254051e-05,-0.007098449064198304,0.011872809592733511
1.9191919191919191,4.860759493670886,0.01235403293513684,0.011103501829160574,1.5438616728196615e-05,-0.007037260429289223,0.011778691370117292
2.0202020202020203,4.860759493670886,0.012201372161518061,0.011083548784653459,-4.442762320423273e-05,-0.006985476283851456,0.01168289151429875
2.121212121212121,4.860759493670886,0.012349690316391444,0.011049402066519587,5.424641253881793e-05,-0.00701972771487331,0.011753989588875233
2.2222222222222223,4.860759493670886,0.01211354208115948,0.01105847103310612,3.0014613229381978e-05,-0.00695160393427968,0.011622096702414608
2.323232323232323,4.860759493670886,0.012047319264235927,0.011017834245754267,3.499584284043908e-05,-0.006919546052997058,0.011567146592369279
2.4242424242424243,4.860759493670886,0.012064913955078466,0.011000037187828297,0.00010435532878089407,-0.006919485342872029,0.011570701569359389
2.525252525252525,4.860759493670886,0.011957702658962212,0.010893147503087107,3.546394630703366e-05,-0.006855255048614795,0.011462725226423932
2.6262626262626263,4.860759493670886,0.012151245537495513,0.01084204996687997,-5.47551676742815e-05,-0.006897988651312644,0.01155280912612314
2.727272727272727,4.860759493670886,0.012043797467942709,0.010784419707986945,-2.6169694724294287e-05,-0.006848465152778896,0.01146618740791034
2.8282828282828283,4.860759493670886,0.01192885543176736,0.010796718187163367,-1.8351467072454584e-06,-0.0068176720856792175,0.01140500921683604
2.929292929292929,4.860759493670886,0.011952410630400725,0.010597700632235085,1.653021081937698e-05,-0.006765033378790743,0.011335966152793078
3.0303030303030303,4.860759493670886,0.012026393610364526,0.0106168754389598,-9.516785640182179e-07,-0.006792980714797297,0.011387250200717404
3.131313131313131,4.860759493670886,0.011851125433917089,0.010687500077708417,-5.103608260259982e-06,-0.0067615876534876515,0.011314283278492928
3.2323232323232323,4.860759493670886,0.012126341845657009,0.010616335306002502,1.840823713196436e-05,-0.006822803145497853,0.011446328992654645
3.3333333333333335,4.860759493670886,0.011758442704340422,0.010631313971313056,-5.56656781207775e-05,-0.006716927002696043,0.011237767188704178
3.4343434343434343,4.860759493670886,0.011652523103149355,0.010787490559285944,-1.304169096415086e-05,-0.0067320040987305894,0.011245011094976182
3.5353535353535355,4.860759493670886,0.011713744057808156,0.01055134604868897,-8.060999280313253e-07,-0.006679527031949137,0.011177966638020686
3.6363636363636362,4.860759493670886,0.011628873244131619,0.01062903262561347,4.743685572051355e-05,-0.006677371760923527,0.011162889641095592
3.7373737373737375,4.860759493670886,0.011637555699794702,0.010523738764065338,4.91592689773856e-06,-0.0066483883391580114,0.011122556212590179
3.8383838383838382,4.860759493670886,0.011743338906222827,0.010533088493525713,8.641885065052473e-06,-0.006682928219924562,0.011187428570349598
3.9393939393939394,4.860759493670886,0.011566589892193379,0.010589037692556954,-7.841567286212337e-05,-0.0066466882754251,0.011110945580779758
4.040404040404041,4.860759493670886,0.011736383283491898,0.01042338572849702,-3.0291894919919787e-05,-0.0066479307035966755,0.011138202969843766
4.141414141414141,4.860759493670886,0.011703043683330668,0.01056481828386151,1.4003416510243092e-05,-0.006680358590157654,0.011177507558910458
4.242424242424242,4.860759493670886,0.011532250555596956,0.01052462356905057,6.694353658149503e-05,-0.006617062237394258,0.011063514471311497
4.343434343434343,4.860759493670886,0.011649887973217745,0.010322407112846474,0.0001270535906245304,-0.006591688525819266,0.011048326559164118
4.444444444444445,4.860759493670886,0.01171890635679325,0.010532719436914908,5.856319211393007e-06,-0.006675487738112448,0.011173141682709322
4.545454545454545,4.860759493670886,0.011781537806380445,0.010308223799916943,-3.280290466534314e-05,-0.006626928481889216,0.01111848059172912
4.646464646464646,4.860759493670886,0.011794469449711678,0.01040842344230464,7.851153866528418e-05,-0.006660867867604895,0.011166980255632439
4.747474747474747,4.860759493670886,0.01159768387211639,0.010282022194127157,2.58552753393596e-05,-0.006563911819873064,0.010999118787897938
4.848484848484849,4.860759493670886,0.011743464596907775,0.010459624949512613,-7.04555933911108e-05,-0.006660926863926117,0.01115774939240341
4.94949494949495,4.860759493670886,0.01143700482386656,0.010627944887016844,-2.8934959818538577e-05,-0.006619484913265021,0.01105481553974167
5.05050505050505,4.860759493670886,0.011557597967205591,0.010457759907899386,-2.8361628922606348e-05,-0.006604607362531493,0.011048920379645511
5.151515151515151,4.860759493670886,0.01159408315414146,0.010321343805058648,-4.630025348699595e-05,-0.006574628087760033,0.011013301726977948
5.252525252525253,4.860759493670886,0.011642389192014232,0.01041107312240618,-4.988136061643617e-05,-0.006616038694326124,0.01107850932712779
5.353535353535354,4.860759493670886,0.011582761248261979,0.010453277204645858,-4.154911896049078e-07,-0.006610811535872351,0.01106135384326867
5.454545454545454,4.860759493670886,0.011655234491614663,0.010367780383389157,-1.0118009390762431e-05,-0.006606904462501146,0.011067825293574704
5.555555555555555,4.860759493670886,0.011531064774750138,0.010361677064205967,2.5618707655526802e-05,-0.006567822551686832,0.010993207265148757
5.656565656565657,4.860759493670886,0.011452462396548093,0.010528457765429822,-3.347953825196743e-05,-0.006594276048593375,0.011019705706097713
5.757575757575758,4.860759493670886,0.011552352184321914,0.010530862890291613,3.230772942823177e-05,-0.0066249645223840576,0.011077129982961105
5.858585858585858,4.860759493670886,0.011516678943674129,0.010487267415932632,-6.56028037559062e-05,-0.006601183907882028,0.011038618169987588
5.959595959595959,4.860759493670886,0.011726413590462628,0.010442626440588064,-2.8928427163639948e-05,-0.006650712009315207,0.011140250294356667
6.0606060606060606,4.860759493670886,0.011826290950507266,0.010338573729444247,-6.0724470211115436e-05,-0.0066494594039854535,0.011157568993798488
6.161616161616162,4.860759493670886,0.011828519236711686,0.0105698213515434,-3.573386953252808e-05,-0.006719502176476526,0.011252265828701322
6.262626262626262,4.860759493670886,0.011671983315177848,0.010373485922025132,-8.220527059038873e-06,-0.0066136407711608934,0.011079957256836753
6.363636363636363,4.860759493670886,0.011770117267772903,0.01054734589203277,1.1525717759887201e-05,-0.006695238947941701,0.01120888336886541
6.4646464646464645,4.860759493670886,0.011551116917703342,0.010774978406791822,-7.191440538577568e-06,-0.006697828597348549,0.011183272396805517
6.565656565656566,4.860759493670886,0.011692369885224034,0.010572035307189323,-3.8364748897612795e-05,-0.006679321557724007,0.011174601217937032
6.666666666666667,4.860759493670886,0.011816306424901635,0.010639057263486665,-4.777619729569625e-05,-0.00673660910651649,0.011274179525826714
6.767676767676767,4.860759493670886,0.011791396273334387,0.010718677085473059,5.116217525833935e-05,-0.006753022007642234,0.011293659646069518
6.8686868686868685,4.860759493670886,0.011741317198935617,0.010604513756375276,6.659120082906094e-05,-0.0067037492865932675,0.011216799230849188
6.96969696969697,4.860759493670886,0.011805637354975666,0.010555164386072832,-1.2961012379872928e-05,-0.00670824052231455,0.011232748086448509
7.070707070707071,4.860759493670886,0.011917210693064237,0.010718839172122727,-1.1137756342604968e-05,-0.006790814959556088,0.01136552380008548
7.171717171717171,4.860759493670886,0.01200658139219512,0.010645321340875568,-4.643546421922933e-05,-0.006795570819921206,0.011387423536938657
7.2727272727272725,4.860759493670886,0.011858248961223639,0.010695184276259097,-4.6230587721627865e-05,-0.0067660299712448205,0.011321894236265404
7.373737373737374,4.860759493670886,0.012055664503228425,0.010961414546631751,5.731389142633994e-06,-0.006905123714958052,0.01154749400385107
7.474747474747475,4.860759493670886,0.012157755585760011,0.010627788432375147,3.384023198444404e-05,-0.006835663205440547,0.011469711816446106
7.575757575757575,4.860759493670886,0.012207851273583224,0.010853511081139135,3.032679263951932e-05,-0.006918408706416707,0.011590299632652252
7.6767676767676765,4.860759493670886,0.012081808929795651,0.010837311618232598,-2.8656310057072307e-05,-0.006875736164408474,0.011510237416966978
7.777777777777778,4.860759493670886,0.012141284818541107,0.010950882576181204,3.818469110178139e-05,-0.006927650218416693,0.011592204970683286
7.878787878787879,4.860759493670886,0.012533119607308216,0.010945374916963591,-6.370965303716168e-05,-0.007043548357281542,0.011820017044933726
7.979797979797979,4.860759493670886,0.012305049552114523,0.011017292763030921,3.076388197152142e-06,-0.006996702694543633,0.011714379169190835
8.080808080808081,4.860759493670886,0.01255534885581427,0.011176403158769336,7.666137289769878e-05,-0.007119525604375082,0.011926557036515443
8.181818181818182,4.860759493670886,0.012386501626619889,0.011056020584057023,-5.34000057664244e-05,-0.0070327566632030734,0.0117781217277982
8.282828282828282,4.860759493670886,0.012558749651964362,0.011345154143894342,-1.4918531825199075e-05,-0.00717117113875761,0.011998101199819007
8.383838383838384,4.860759493670886,0.012423796046923261,0.011388095030428782,-1.0061733880564406e-05,-0.007143567323205612,0.011939696408705762
8.484848484848484,4.860759493670886,0.01265411954611771,0.011290992581457748,2.874790989955465e-05,-0.007183533638272637,0.012030717533416217
8.585858585858587,4.860759493670886,0.012898156309247464,0.01155681897846762,3.980696261544809e-05,-0.007336492586314525,0.012282735739228234
8.686868686868687,4.860759493670886,0.012852362782147127,0.01131878546955225,-1.3892428383278195e-05,-0.007251344475509814,0.012158354143566715
8.787878787878787,4.860759493670886,0.01292312736814155,0.01169485183126199,2.419878809848708e-05,-0.007385393759821062,0.012354937365501908
8.88888888888889,4.860759493670886,0.013034704532031174,0.011801063806543739,2.1900754336720682e-05,-0.007450730501572474,0.012463815156309382
8.98989898989899,4.860759493670886,0.013211679845324363,0.011922703368463714,-6.61246576374428e-05,-0.007540314964136423,0.012617191350053151
9.09090909090909,4.860759493670886,0.013231435860261757,0.011952473270843068,2.0489565467216508e-05,-0.007555172739331447,0.012640624518854468
9.191919191919192,4.860759493670886,0.013228474613956811,0.011969817719438426,0.00012473599040128147,-0.007559487700018571,0.012648056143744162
9.292929292929292,4.860759493670886,0.013367669358459193,0.012034863337799531,2.6736294527951354e-05,-0.007620759808877616,0.012753689280007908
9.393939393939394,4.860759493670886,0.013600436320669663,0.012155599859955285,2.926799649953177e-05,-0.007726810854187484,0.01293876284966727
9.494949494949495,4.860759493670886,0.01380320847157905,0.012412437628565585,1.1222106647911605e-05,-0.00786469383004339,0.013163057607272419
9.595959595959595,4.860759493670886,0.013725576527227362,0.01248688209290561,-9.070100774112148e-06,-0.007863737586039891,0.013150067165396712
9.696969696969697,4.860759493670886,0.013937508147334642,0.012630951697160792,1.9903391481306098e-05,-0.00797053795334863,0.013332376771612673
9.797979797979798,4.860759493670886,0.01415356729974411,0.012769634053815192,-4.9004131563248353e-05,-0.00807696040606779,0.013515115627241066
9.8989898989899,4.860759493670886,0.01424009411196264,0.012769068265312485,3.7229132722288868e-06,-0.008102748713182537,0.013564538047493096
10.0,4.860759493670886,0.014225463192279771,0.01304679505860029,-3.401816274953238e-05,-0.008181677475264017,0.013674407963743003
0.0,4.962025316455696,0.014318438989601877,0.012804655915837026,3.617338862708242e-05,-0.008136928471631671,0.0136249091464974
0.10101010101010101,4.962025316455696,0.01420344952417281,0.012800149988585842,-8.828002191747637e-05,-0.008101079853827594,0.013557245809459531
0.20202020202020202,4.962025316455696,0.014123537909785154,0.012633883375174152,-1.5254119863372584e-05,-0.008027226385487791,0.013440792368535499
0.30303030303030304,4.962025316455696,0.01395766477479839,0.012523819430378726,-6.358570527105043e-05,-0.007944445261553135,0.013299297545614625
0.40404040404040403,4.962025316455696,0.013752261190076614,0.01267107725193673,3.072866460242573e-05,-0.007927001532604002,0.013244914321687723
0.5050505050505051,4.962025316455696,0.01363638797010068,0.012206719265793373,-3.093783241907401e-05,-0.007752932170768215,0.012980846806081683
0.6060606060606061,4.962025316455696,0.013314434865044075,0.012244844699070431,1.0777899494417839e-05,-0.007667783869234351,0.012813179105548064
0.7070707070707071,4.962025316455696,0.013319524876759595,0.012038339479528967,-3.252880921269165e-05,-0.007607359306886568,0.012727512426425936
0.8080808080808081,4.962025316455696,0.01328745379842804,0.012031866106447846,-5.583509589850946e-06,-0.007595795971462765,0.012706276361597376
0.9090909090909091,4.962025316455696,0.013088966982260579,0.011912837039985013,0.00012033980646466152,-0.007500541206673677,0.01254406063958524
1.0101010101010102,4.962025316455696,0.013039518228259023,0.011598613608753241,2.2396045414403118e-05,-0.00739143955110368,0.012382166387386933
1.1111111111111112,4.962025316455696,0.012968617533957127,0.01167577241438085,7.63776747343372e-05,-0.007393316984501392,0.01237366461507819
1.2121212121212122,4.962025316455696,0.012838983340826894,0.011715150879996758,5.426467853304036e-05,-0.007366240266247095,0.012315943339816742
1.3131313131313131,4.962025316455696,0.012778798522742165,0.01133791187165761,-7.994365709750141e-05,-0.007235013118319932,0.012123539861885356
1.4141414141414141,4.962025316455696,0.012765468225258078,0.011277426646428713,2.36100884610855e-07,-0.007212868461506037,0.012090322552571555
1.5151515151515151,4.962025316455696,0.0125566233373573,0.011421069687269768,4.328535632908535e-06,-0.007193307907388119,0.01202911503285445
1.6161616161616161,4.962025316455696,0.01260122727549263,0.011349782469591207,6.212373218299704e-05,-0.007185302923525151,0.012024927467691416
1.7171717171717171,4.962025316455696,0.012708571094657119,0.011507099980600488,-6.591340480471165e-07,-0.007264701322577282,0.012152461986695305
1.8181818181818181,4.962025316455696,0.012471398575961674,0.01106862043192406,2.4460362471524773e-05,-0.007062005702365721,0.01183261418884028
1.9191919191919191,4.962025316455696,0.012377246982749442,0.011253320845039513,-2.881569538113493e-05,-0.0070891703483366856,0.01185541363559725
2.0202020202020203,4.962025316455696,0.012370168896510563,0.011128777168774638,2.193869421127681e-05,-0.00704968381958556,0.011798616466771652
2.121212121212121,4.962025316455696,0.012250564780020125,0.011084919533392596,-7.078475364959219e-05,-0.007000645294023816,0.011711971871131243
2.2222222222222223,4.962025316455696,0.012217840213013269,0.01088327946075039,-7.37062823764347e-05,-0.006930335902129097,0.011608941368388557
2.323232323232323,4.962025316455696,0.012237168253768698,0.010851447229001146,8.072505573424382e-05,-0.006926584644830953,0.011607357920755776
2.4242424242424243,4.962025316455696,0.012243029831790105,0.011089082577558841,-7.62487316116085e-05,-0.006999633722804683,0.01170952623623184
2.525252525252525,4.962025316455696,0.012210237942916721,0.010749140945507071,-3.08935872586761e-05,-0.006887813666527138,0.011549339215021385
2.6262626262626263,4.962025316455696,0.011915519035017415,0.010748305102743697,8.321748501590963e-06,-0.006799147241328334,0.011376916549052542
2.727272727272727,4.962025316455696,0.011876930039462346,0.010667566385741194,-1.951126859458403e-05,-0.006763348927561062,0.01132084988728835
2.8282828282828283,4.962025316455696,0.012041290263208024,0.010724124949100945,-0.00011267898810595973,-0.006829624563692691,0.011441386081188066
2.929292929292929,4.962025316455696,0.011929145947829753,0.01077564256958318,-1.3699502295599281e-05,-0.00681143655522388,0.01139628649898381
3.0303030303030303,4.962025316455696,0.011874906091011229,0.010756737867034957,1.1490144279517394e-05,-0.006789493187413855,0.011357198081570185
3.131313131313131,4.962025316455696,0.011872946276467022,0.010905204512101807,0.00010953301836031458,-0.006833445236570648,0.011421445787416785
3.2323232323232323,4.962025316455696,0.01201747650313943,0.01062080945609841,-5.827344636188726e-05,-0.0067914857877713515,0.011384032427348699
3.3333333333333335,4.962025316455696,0.011714545208432115,0.01054477415158325,7.092442110642141e-05,-0.006677795808004609,0.011176345049138269
3.4343434343434343,4.962025316455696,0.011589314919822515,0.010600624879409307,0.00012062882331075391,-0.006656981939769546,0.011129921024402299
3.5353535353535355,4.962025316455696,0.011727765058728934,0.010623894025150281,8.22084932965852e-06,-0.0067054977251637645,0.011216651333694101
3.6363636363636362,4.962025316455696,0.011687363893333757,0.010715695588922469,7.884517060724677e-06,-0.006720917844676867,0.011233101063755888
3.7373737373737375,4.962025316455696,0.011716503726105021,0.010488435652618736,-5.3753938792720015e-06,-0.006661481813617127,0.011153296969175283
3.8383838383838382,4.962025316455696,0.011751040230260773,0.01059467085652037,-9.639260241617209e-05,-0.006703713326034343,0.011218888901815039
3.9393939393939394,4.962025316455696,0.011442289630603746,0.010650100768446906,-7.975055941361738e-06,-0.006627717119715195,0.011067488043163279
4.040404040404041,4.962025316455696,0.011595906189649107,0.010334003442371308,-0.00012122978203931601,-0.006578972889606124,0.011021280461225719
4.141414141414141,4.962025316455696,0.011689095445897598,0.010422714599004675,-1.556646978454576e-05,-0.006633543013470682,0.011110200409868307
4.242424242424242,4.962025316455696,0.011551345949366892,0.010533094455073727,3.227783009996275e-05,-0.006625332121332185,0.011077516853902453
4.343434343434343,4.962025316455696,0.0116593824465935,0.01064468075495483,-6.578917882533572e-06,-0.006691218960464498,0.011186605978285276
4.444444444444445,4.962025316455696,0.011743940146594418,0.010520851498413399,-9.863167090914523e-06,-0.006679437493502345,0.011182686974787392
4.545454545454545,4.962025316455696,0.011646276805174362,0.010473462045837828,3.977808644220666e-06,-0.006635921655303657,0.011106411662770184
4.646464646464646,4.962025316455696,0.011768793262010616,0.01045955699007293,0.00010085767405619525,-0.006668505075625063,0.011173226045121961
4.747474747474747,4.962025316455696,0.011532208937365902,0.010506179800896142,-2.1310753901091075e-05,-0.006611516621478613,0.01105502414429964
4.848484848484849,4.962025316455696,0.01163585774180561,0.010356096454808878,6.099064466289732e-06,-0.006597586258984347,0.011051695148529527
4.94949494949495,4.962025316455696,0.011555745266138872,0.010502356800007627,-2.2744348907204077e-05,-0.00661743061984395,0.011066785398289312
5.05050505050505,4.962025316455696,0.011709888197255519,0.010541767710160346,-2.718230366387959e-05,-0.00667549677222476,0.011171823637736358
5.151515151515151,4.962025316455696,0.011486404035008233,0.010384188634609685,-5.392868194821157e-05,-0.006561177800885375,0.01097727607059024
5.252525252525253,4.962025316455696,0.011756034945178394,0.010300732380505986,7.793076019933314e-06,-0.006617030197705314,0.011100173763369772
5.353535353535354,4.962025316455696,0.011587060337111989,0.010459567493554641,5.2759724856640965e-05,-0.00661398834919999,0.011066852783239088
5.454545454545454,4.962025316455696,0.01149658475682861,0.010343405176855022,0.0001325430318459993,-0.00655199698010509,0.010967969748293184
5.555555555555555,4.962025316455696,0.011568095129796422,0.010353918946153349,0.00013232823040935948,-0.006576604222784931,0.011013713062447167
5.656565656565657,4.962025316455696,0.011508758087147155,0.010546816207365669,8.214816550196172e-05,-0.006616672288353847,0.011060123573610643
5.757575757575758,4.962025316455696,0.011660685255559574,0.010509793156256577,1.4157898050594318e-05,-0.0066511435235448455,0.011129984009809343
5.858585858585858,4.962025316455696,0.011714737021222124,0.010409354876587259,4.601474743943597e-05,-0.006637227569342814,0.011119947371920114
5.959595959595959,4.962025316455696,0.01171298612853791,0.010694049576580688,-7.882099931416773e-05,-0.0067221107115355795,0.011239044634447333
6.0606060606060606,4.962025316455696,0.011691557843384373,0.01043729962980458,-3.483154040075136e-05,-0.0066386572419566865,0.011117782860154583
6.161616161616162,4.962025316455696,0.011642896965596214,0.010349663997816056,-1.9114502547972753e-05,-0.00659776828902368,0.011053217592931453
6.262626262626262,4.962025316455696,0.01179248513151296,0.010483246127016873,-6.745153752672198e-06,-0.0066827193775589495,0.011195435111911846
6.363636363636363,4.962025316455696,0.011805781844064427,0.01043872656162271,3.315498420055425e-05,-0.006673352521706141,0.0111852343033368
6.4646464646464645,4.962025316455696,0.011852548623007272,0.010499652192829105,-7.120688045092534e-05,-0.006705660244750913,0.01123802376534377
6.565656565656566,4.962025316455696,0.011691400090110347,0.010561404565089734,-3.494056561517854e-05,-0.0066758413965600245,0.011169519179442108
6.666666666666667,4.962025316455696,0.01198137310200184,0.010531325292306283,0.00010381403395540504,-0.006753809518292436,0.011327608233736337
6.767676767676767,4.962025316455696,0.011749131089881473,0.010542428114733068,-5.3450206658339263e-05,-0.0066874677613843626,0.011195046796224581
6.8686868686868685,4.962025316455696,0.01184651362792759,0.010764893918569432,-5.8535714544142864e-05,-0.006783422263949106,0.011344895019119006
6.96969696969697,4.962025316455696,0.011988707419444368,0.010827250290824141,0.00010969414717047548,-0.0068447873130805525,0.01145381233359346
7.070707070707071,4.962025316455696,0.012120500842458526,0.010739169055614678,7.70615165266068e-06,-0.006857900969421961,0.011492274067631146
7.171717171717171,4.962025316455696,0.012027465738081583,0.010698162190866925,-1.9877640432945353e-05,-0.006817688378684552,0.011421033775166622
7.2727272727272725,4.962025316455696,0.011954412660918082,0.01077787207595087,2.5680838322954232e-05,-0.006819685421060686,0.011411807773834453
7.373737373737374,4.962025316455696,0.01218661200997735,0.010824974110536944,-6.073002301004147e-05,-0.006903475836154288,0.01156654147441837
7.474747474747475,4.962025316455696,0.011995026114736886,0.010812658450525462,-3.7791112365052306e-05,-0.0068423053695787035,0.011449908221539486
7.575757575757575,4.962025316455696,0.012174820405443576,0.01096803552528885,-6.18577825552049e-05,-0.006942856779219728,0.01161902197362905
7.6767676767676765,4.962025316455696,0.012240895359189295,0.01105006354477753,-5.731777970954006e-05,-0.006987287671190047,0.011691475867393379
7.777777777777778,4.962025316455696,0.012044626627810659,0.011102517747544779,7.721698757743995e-05,-0.0069441433126066305,0.011603065863365842
7.878787878787879,4.962025316455696,0.012163938123654423,0.011040322322911316,1.696642987520875e-05,-0.006961278133969722,0.011642902286285905
7.979797979797979,4.962025316455696,0.012420967537771062,0.011173523196778813,1.3365869613681723e-06,-0.007078347220364962,0.011846606756915217
8.080808080808081,4.962025316455696,0.012250009080461638,0.011307867213003168,-7.583713350726503e-05,-0.007067362888039441,0.011807894018444492
8.181818181818182,4.962025316455696,0.012492094638338344,0.01119586247819594,8.654635457941374e-06,-0.007106387134960285,0.011897067544423589
8.282828282828282,4.962025316455696,0.012550495663149608,0.011353363388057796,4.089404961396503e-07,-0.007171157715362222,0.011996810582389987
8.383838383838384,4.962025316455696,0.012452110990272844,0.011283146979678674,8.595625236891093e-05,-0.007120577390985455,0.011911659867564595
8.484848484848484,4.962025316455696,0.012516563841255775,0.011354342531390556,8.582007629205143e-05,-0.007161271911793899,0.011978739783434013
8.585858585858587,4.962025316455696,0.01281553351014519,0.011421121807468087,2.0702230418268422e-05,-0.007270996595283984,0.012178400510356563
8.686868686868687,4.962025316455696,0.012694593633415964,0.011426559132638216,7.553203932495166e-05,-0.007236345829816253,0.012111174657278154
8.787878787878787,4.962025316455696,0.01289690495074279,0.011539388154999695,-3.5038341203533085e-05,-0.007330887931722745,0.012274727171369055
8.88888888888889,4.962025316455696,0.012967919020959406,0.011640517431567582,3.5690317415123284e-05,-0.007382530935758095,0.012357957104247702
8.98989898989899,4.962025316455696,0.012945950100162511,0.011681253628274902,-1.9712014334145613e-05,-0.007388161118531224,0.012362263119490765
9.09090909090909,4.962025316455696,0.013167656434743371,0.011944715335729307,-2.791659188221901e-06,-0.0075337115311418035,0.012600774423162835
9.191919191919192,4.962025316455696,0.01318849621110682,0.011878310114584288,-1.7382084014454963e-05,-0.007520041897707333,0.012584694750314832
9.292929292929292,4.962025316455696,0.01351224136316452,0.01205613494665791,4.7344155040948964e-05,-0.007670512892946728,0.012846492735737862
9.393939393939394,4.962025316455696,0.013486499646703135,0.012211182708757224,-1.9820489590322337e-05,-0.0077093047066381076,0.012896267798674012
9.494949494949495,4.962025316455696,0.013540941487027006,0.012229172337634252,-7.977004684467502e-06,-0.007731034147398378,0.012935046820857839
9.595959595959595,4.962025316455696,0.013663839524272163,0.012187480309465627,-4.792506855774572e-06,-0.0077553959501213375,0.012988744380781202
9.696969696969697,4.962025316455696,0.014035385418037817,0.012725428277919823,6.606973914097017e-06,-0.008028244108787292,0.013428417969197302
9.797979797979798,4.962025316455696,0.014000140267044794,0.012574964837438264,-2.4538059122126446e-05,-0.007972531531344916,0.013344819329293387
9.8989898989899,4.962025316455696,0.014002640317370973,0.012697715996488787,3.8034882984445824e-06,-0.008010106894157928,0.013397925990009043
10.0,4.962025316455696,0.0143277303888042,0.012831582306885624,5.266370300470702e-05,-0.008147793808706947,0.013641635944221594
0.0,5.063291139240507,0.015898517740796387,0.014237940502659203,6.42634860750269e-05,-0.009040937473036676,0.015137108568834328
0.10101010101010101,5.063291139240507,0.01585823743965429,0.014232629298723471,1.238212564593294e-05,-0.009027260021513328,0.015111170589623565
0.20202020202020202,5.063291139240507,0.015564167114329093,0.014135898947332158,2.607166565840481e-05,-0.008910019818498375,0.014901526186255348
0.30303030303030304,5.063291139240507,0.015428428299536242,0.013970316146458012,4.535418716329426e-05,-0.008819623333798276,0.01475372098981525
0.40404040404040403,5.063291139240507,0.015206805291620272,0.013754605283554872,-4.231594943093501e-05,-0.008688423172552542,0.014535400276300072
0.5050505050505051,5.063291139240507,0.014974129967538085,0.01354685653090493,4.826488814591435e-05,-0.008556295949532904,0.014314205821720057
0.6060606060606061,5.063291139240507,0.014810117286564686,0.013522080875611978,2.440021580736695e-05,-0.008499659448652998,0.01421001152827685
0.7070707070707071,5.063291139240507,0.01506023952825747,0.013212584339272238,-4.514229546461948e-05,-0.008481847160258913,0.014226898049632846
0.8080808080808081,5.063291139240507,0.014712442795192831,0.013154557850011758,3.978828559955044e-06,-0.008360100193561376,0.013998668967441326
0.9090909090909091,5.063291139240507,0.01467339713417935,0.013184176869463445,-1.4421757095141363e-06,-0.008357272201092837,0.013988368251134633
1.0101010101010102,5.063291139240507,0.014372185196985549,0.012986027717744477,7.222306548607878e-05,-0.008207463874419008,0.013732249502664585
1.1111111111111112,5.063291139240507,0.014435696281245643,0.012933920798639566,-8.625032503427141e-05,-0.008210885123965563,0.013747283343654089
1.2121212121212122,5.063291139240507,0.014153302623657917,0.01283627877355565,3.309495320726617e-05,-0.00809687441916407,0.013543026829084077
1.3131313131313131,5.063291139240507,0.014113655117098662,0.012681190112003173,4.740150128827266e-05,-0.00803845356873055,0.013454985708389693
1.4141414141414141,5.063291139240507,0.014055202249754855,0.012696807647493355,-4.066521812194066e-05,-0.008025602969174463,0.01342782172532467
1.5151515151515151,5.063291139240507,0.013888527928457588,0.012431552287588252,4.8029324057164434e-05,-0.007896024064813751,0.013220652767781364
1.6161616161616161,5.063291139240507,0.013884063560536527,0.012466264944859628,6.441681500308642e-05,-0.007905098551618845,0.013232725204949287
1.7171717171717171,5.063291139240507,0.013802548136656692,0.012434450031979547,-6.349047117702413e-05,-0.007871099450590871,0.013172352890165906
1.8181818181818181,5.063291139240507,0.013728061522986057,0.012469155630728701,-1.9585081327576512e-05,-0.007859165146114427,0.013143946531012812
1.9191919191919191,5.063291139240507,0.013811395299529919,0.012331024782908576,-9.563669177248066e-06,-0.007842726024731548,0.013133941867651027
2.0202020202020203,5.063291139240507,0.013700052872954912,0.012067255230038838,-9.058172487404123e-06,-0.007730192430898124,0.012961030397971933
2.121212121212121,5.063291139240507,0.013473157570829033,0.012144918102274182,-3.352674668758422e-05,-0.007685422701930965,0.012860714890347704
2.2222222222222223,5.063291139240507,0.013587220800565214,0.012073708831898686,7.725380327909226e-06,-0.00769827888973917,0.012897249524784044
2.323232323232323,5.063291139240507,0.01334873627753377,0.012165199513834619,-1.2354126002473848e-05,-0.007654180737410516,0.012798095843447791
2.4242424242424243,5.063291139240507,0.01322031489216495,0.01172880802355364,6.222934768871376e-05,-0.0074847368747155765,0.012541720200809216
2.525252525252525,5.063291139240507,0.013453878526961857,0.012162584968620101,4.139971920537056e-05,-0.007684939048674587,0.012857158379896112
2.6262626262626263,5.063291139240507,0.013271144257256456,0.01192479367439261,7.04150545950666e-06,-0.007558781379494719,0.012651816696872384
2.727272727272727,5.063291139240507,0.013283270036962131,0.011892233423123372,-2.7310631728107127e-05,-0.007552651038025651,0.012645353627905802
2.8282828282828283,5.063291139240507,0.01306071179635959,0.01200813279267829,-3.426752920342663e-05,-0.007520653376711364,0.012567665135865517
2.929292929292929,5.063291139240507,0.013216143644136367,0.011783264284440808,6.225521912477433e-05,-0.007499822378573152,0.012561611511918279
3.0303030303030303,5.063291139240507,0.01300421874838038,0.011840034275072716,2.697984621975888e-05,-0.007453275907035929,0.012463061619263692
3.131313131313131,5.063291139240507,0.013182372112962963,0.011858414349462353,-2.305097800901685e-06,-0.007512235938727595,0.012572784525484937
3.2323232323232323,5.063291139240507,0.013071811431798985,0.01181695234280416,4.9502393646201107e-05,-0.007466629132380944,0.012492037284520658
3.3333333333333335,5.063291139240507,0.01291341431247925,0.01173518890944303,-5.424964128736801e-06,-0.007394580966576684,0.012366473216479979
3.4343434343434343,5.063291139240507,0.01297282561927831,0.011807339616934675,-6.345273793040851e-05,-0.007434049570863896,0.012431612697055897
3.5353535353535355,5.063291139240507,0.012877957138568999,0.01167684950534647,2.9184284613196343e-05,-0.00736644199317464,0.012321492691933193
3.6363636363636362,5.063291139240507,0.012878739406464904,0.011747232278908264,-9.232618828045624e-06,-0.00738779150561195,0.012351927273536512
3.7373737373737375,5.063291139240507,0.01291598587283046,0.011597546907090795,-3.165426949096128e-05,-0.007354059833976377,0.012309956916910189
3.8383838383838382,5.063291139240507,0.012976674708127085,0.011739618494244672,-1.9106516294748388e-05,-0.007414887960711527,0.01240454004187683
3.9393939393939394,5.063291139240507,0.012865222854203209,0.011521087438225561,4.452436678041982e-05,-0.00731589308772863,0.012248836870892272
4.040404040404041,5.063291139240507,0.012966773504606488,0.011671106452443967,-3.1117493590508886e-05,-0.007391363987115136,0.012370054645080345
4.141414141414141,5.063291139240507,0.012860181130276866,0.01137867884691075,7.498533621152618e-06,-0.007271657993156285,0.012187160813502075
4.242424242424242,5.063291139240507,0.012802981803001424,0.011274360590504032,-3.91390031464179e-05,-0.007223202718051636,0.012111428977486446
4.343434343434343,5.063291139240507,0.01281247517338002,0.011262627627610608,-2.37083865744885e-05,-0.007222530840297188,0.01211221905943309
4.444444444444445,5.063291139240507,0.012798902829873962,0.011556130702904913,2.3723804053325002e-05,-0.007306510059833662,0.012225054804458365
4.545454545454545,5.063291139240507,0.012849566512413367,0.01155894401495836,-9.275571589445578e-05,-0.0073225531582115175,0.01225638352993656
4.646464646464646,5.063291139240507,0.012942461744762799,0.011448134947749296,8.841341987080838e-05,-0.0073171790077536285,0.01226472633142867
4.747474747474747,5.063291139240507,0.012904988749727142,0.011402039938396795,4.5311005975148084e-05,-0.007292108606437181,0.01222326517425753
4.848484848484849,5.063291139240507,0.012860796555909021,0.011617995270335982,8.38381671761279e-06,-0.0073436375478735,0.012286636621137395
4.94949494949495,5.063291139240507,0.012734633948471272,0.011510097192683953,-1.909210985035235e-05,-0.0072734193423465675,0.012168708158732656
5.05050505050505,5.063291139240507,0.012941558796668733,0.011575649424081208,5.011910751557051e-05,-0.007355162466224982,0.01231585124221255
5.151515151515151,5.063291139240507,0.012781009609535758,0.011585624076526793,9.980801048554133e-06,-0.007309990105818766,0.012227232641781771
5.252525252525253,5.063291139240507,0.012656830488757183,0.011692641499848371,-4.392548426532767e-05,-0.007304841596581666,0.012203574483741441
5.353535353535354,5.063291139240507,0.012669030550237256,0.0115950319999921,3.819762425688535e-06,-0.007279218765068807,0.012167634580992402
5.454545454545454,5.063291139240507,0.01285387748058387,0.011629573671981827,-3.1427821033128104e-05,-0.007345035345769709,0.012287676675052954
5.555555555555555,5.063291139240507,0.012894023513781864,0.011595556579704432,3.7122006991444216e-05,-0.007346874028045888,0.012296484444880927
5.656565656565657,5.063291139240507,0.012900501102926664,0.011567829782833512,-2.226583973165642e-05,-0.007340499265728053,0.012288543486604395
5.757575757575758,5.063291139240507,0.012982989645233811,0.011750966879053713,1.0384993486664439e-05,-0.007420186957286257,0.012412932165805753
5.858585858585858,5.063291139240507,0.012966899847437537,0.011441989175586502,-7.924955106394153e-05,-0.007322666706907211,0.012276453955701185
5.959595959595959,5.063291139240507,0.013016403412515806,0.011565430868812327,-4.333914362292521e-05,-0.007374550284398439,0.012355212260204826
6.0606060606060606,5.063291139240507,0.01299692085478802,0.011763952830144765,4.870493522070717e-05,-0.0074282621054798355,0.012426684615567753
6.161616161616162,5.063291139240507,0.012827200468684337,0.011729369764910156,1.0926890646347e-05,-0.007366971070078347,0.01231505451838498
6.262626262626262,5.063291139240507,0.01291778918833739,0.011738054315882516,3.4711417591717e-05,-0.007396753051265971,0.01237033144869789
6.363636363636363,5.063291139240507,0.012947183535433126,0.011707838479387118,7.745975224335805e-05,-0.007396506604446073,0.012374874132831806
6.4646464646464645,5.063291139240507,0.01293128849434081,0.01159737309248598,-5.499489870565607e-05,-0.007358598476048036,0.012318984570629112
6.565656565656566,5.063291139240507,0.012940891343214973,0.011719182793022512,-9.890553660226186e-06,-0.007398022240871245,0.012375360051592333
6.666666666666667,5.063291139240507,0.013146407802617208,0.011755352488192223,-7.13526806801563e-05,-0.007470528087242829,0.012509634933769914
6.767676767676767,5.063291139240507,0.012945013984040429,0.011651961274069974,-6.57267283592258e-05,-0.00737909257743312,0.0123498885401269
6.8686868686868685,5.063291139240507,0.013232755495699952,0.011657438269291295,-1.7752645617271252e-05,-0.007467058129497374,0.01251968850079132
6.96969696969697,5.063291139240507,0.013112283115508355,0.011922876107406704,-3.8184521348168235e-05,-0.007510547766874517,0.012560063306981378
7.070707070707071,5.063291139240507,0.013111887839222429,0.011686261789925023,5.353284408636161e-05,-0.007439444888744235,0.012460736767057994
7.171717171717171,5.063291139240507,0.013289382560335536,0.011859314207646465,5.561550879353979e-07,-0.007544609030394601,0.012635191325418252
7.2727272727272725,5.063291139240507,0.013120179692439539,0.011936237987733423,2.927371303462083e-05,-0.0075169253040518885,0.01257019793248111
7.373737373737374,5.063291139240507,0.013421356014731543,0.011879464002002252,7.3488390059479414e-06,-0.007590246005020139,0.012720696074912032
7.474747474747475,5.063291139240507,0.013284515325652358,0.011986446558173651,-5.258108510232075e-05,-0.007581288565147802,0.012685716764881918
7.575757575757575,5.063291139240507,0.013393442637846992,0.01207582136844923,-4.126010419553735e-05,-0.007640779201888866,0.012785853659469743
7.6767676767676765,5.063291139240507,0.013472789662495082,0.012134424542986678,4.722063182155985e-05,-0.007682164261644527,0.012856222621765816
7.777777777777778,5.063291139240507,0.013556600677626538,0.012094289785087859,-1.6601265576303224e-05,-0.007695267138814319,0.012887848425878826
7.878787878787879,5.063291139240507,0.013498345321114403,0.012145237735721709,2.3533107390346944e-05,-0.007693074917050832,0.012875293182016431
7.979797979797979,5.063291139240507,0.013521778953359867,0.01235578222118782,-2.8156261959051743e-05,-0.007763268352364306,0.012978215697677932
8.080808080808081,5.063291139240507,0.013548006045757326,0.012121202857134658,-3.259305611291652e-05,-0.007700762670867594,0.012894071655272258
8.181818181818182,5.063291139240507,0.013773866547554709,0.012217287873894561,-2.0333071093207022e-05,-0.00779734632643478,0.013065353811386661
8.282828282828282,5.063291139240507,0.013848737521366346,0.012233033370898363,-5.3123468317226124e-05,-0.007824531267679413,0.01311606017271133
8.383838383838384,5.063291139240507,0.013866158259766085,0.012471467400974354,4.660471201448596e-05,-0.007901287698222131,0.01322433436141748
8.484848484848484,5.063291139240507,0.013998317664592775,0.012625414314704146,-9.315012766443752e-05,-0.007987119593789076,0.013365831611662353
8.585858585858587,5.063291139240507,0.014130774981490166,0.012528143380772206,-3.4277817243760333e-06,-0.007997675508678711,0.013401523732255971
8.686868686868687,5.063291139240507,0.014306625747633164,0.012895916201885684,5.325790952176036e-06,-0.008160762584855654,0.013656032853205512
8.787878787878787,5.063291139240507,0.014329545391760042,0.012641976590762691,-3.561920681989315e-05,-0.00809145659475682,0.013564861666846624
8.88888888888889,5.063291139240507,0.014399013207764684,0.012996619376614187,3.36876032111197e-05,-0.008218689775313662,0.013751676518942605
8.98989898989899,5.063291139240507,0.014379257385836494,0.012829234561607575,-2.2538700408079703e-05,-0.00816254758423322,0.013670367974539068
9.09090909090909,5.063291139240507,0.014477056632065383,0.013138348523347542,6.360783774271148e-05,-0.008284621546623877,0.0138567273515693
9.191919191919192,5.063291139240507,0.014572916048010746,0.013213594819023827,1.6782667125765505e-05,-0.00833595326011037,0.013943070220270214
9.292929292929292,5.063291139240507,0.014791964883683614,0.01340516127128646,-9.164723657667699e-05,-0.008459137846491022,0.01415051577477864
9.393939393939394,5.063291139240507,0.014810484122624585,0.013500120922742184,-2.7927253455284093e-05,-0.00849318151361003,0.014200799910210966
9.494949494949495,5.063291139240507,0.015002013931059419,0.01364010605201063,-6.748547330236652e-05,-0.008592635994921015,0.014370021466641136
9.595959595959595,5.063291139240507,0.015485932048267866,0.013669462271849385,1.0939898489592898e-05,-0.008746618296035175,0.014662342424421809
9.696969696969697,5.063291139240507,0.015378725919835167,0.01378920808121258,0.00013301217770466113,-0.008750380200314324,0.014650600513634147
9.797979797979798,5.063291139240507,0.01566877772682566,0.013831116534785233,-2.375866989466403e-05,-0.008849968278483267,0.014835611978522824
9.8989898989899,5.063291139240507,0.015710434855231416,0.014048706255845336,2.0699604492713768e-05,-0.008927742333323024,0.014949043842053453
10.0,5.063291139240507,0.015892823048808777,0.014211445510458966,-4.627126044932572e-06,-0.009031280567780322,0.015122403361333338
0.0,5.1645569620253164,0.01601543373304671,0.014094190857000794,-1.1740144638849557e-05,-0.009032887377014251,0.015146490265832367
0.10101010101010101,5.1645569620253164,0.01565535040389444,0.014254574026887994,-8.696484466300043e-06,-0.00897297732923473,0.015004091195207049
0.20202020202020202,5.1645569620253164,0.015476735528135185,0.014151049296947793,-7.447630275104427e-06,-0.008888335447524893,0.014858319481005055
0.30303030303030304,5.1645569620253164,0.015365831280894676,0.013890714613413728,-0.00010419977234502456,-0.00877696376829252,0.014685057680551472
0.40404040404040403,5.1645569620253164,0.015034557035984846,0.013773269934620552,6.0482096517960394e-05,-0.008642348091181619,0.014445650965191341
0.5050505050505051,5.1645569620253164,0.015110064523748856,0.013594568468753121,-3.7158988581710835e-05,-0.008611389897750593,0.01441234461839524
0.6060606060606061,5.1645569620253164,0.01494434736656181,0.013396111093075978,-6.401104045109033e-05,-0.008502137537891336,0.014233954662510897
0.7070707070707071,5.1645569620253164,0.014768755637853136,0.013349994467511157,-6.089012987126157e-05,-0.008435625031609287,0.014113355807162978
0.8080808080808081,5.1645569620253164,0.014831225494720603,0.013197798025435714,-6.141306878525239e-05,-0.008408707056046894,0.014086125036413764
0.9090909090909091,5.1645569620253164,0.014680583614317117,0.01297291107611097,6.346532895266206e-05,-0.008296048407128425,0.01390604669975002
1.0101010101010102,5.1645569620253164,0.014421624672459426,0.01319017437846099,1.7989197038007784e-06,-0.008283539715276124,0.013847029420976193
1.1111111111111112,5.1645569620253164,0.014271320878686915,0.012804857787431036,3.732214973734523e-05,-0.008122853599835386,0.013597680946285662
1.2121212121212122,5.1645569620253164,0.014316826148243823,0.012811463293587493,-7.333560787280609e-06,-0.008138486832549394,0.013626656645942902
1.3131313131313131,5.1645569620253164,0.014155715800496753,0.012753374440628323,4.213314395568113e-06,-0.008072727072337521,0.013509247152395504
1.4141414141414141,5.1645569620253164,0.014028927775666469,0.012646541236459226,6.787238814784374e-05,-0.008002640703637709,0.013391871644593755
1.5151515151515151,5.1645569620253164,0.01383815504597152,0.01257642204496853,-1.702433095780191e-06,-0.007924373127282015,0.013252413253536278
1.6161616161616161,5.1645569620253164,0.01388186021378609,0.012464692608723632,2.965060915453461e-05,-0.007903965846752917,0.01323042410124567
1.7171717171717171,5.1645569620253164,0.013808353342366545,0.012646323567350902,2.703129602611574e-05,-0.007936403072915234,0.01326564772526378
1.8181818181818181,5.1645569620253164,0.01379593314776556,0.012246041492661645,-5.013450042231446e-05,-0.007812592392128162,0.013090274034735932
1.9191919191919191,5.1645569620253164,0.013767172918957836,0.012351995091532883,-2.6176146203466307e-05,-0.007835750403147214,0.013117043728461722
2.0202020202020203,5.1645569620253164,0.01352915858482675,0.012343502790047043,1.3724396747814541e-05,-0.007761798412462138,0.012977039395782495
2.121212121212121,5.1645569620253164,0.013413291576115892,0.012216657074072683,-1.9871242329542734e-05,-0.007688984595056573,0.012856854286731691
2.2222222222222223,5.1645569620253164,0.013441975294283981,0.01214642303213129,-6.862800482198634e-05,-0.0076765194979245815,0.012843850800477915
2.323232323232323,5.1645569620253164,0.013274731739557392,0.011918357217141238,-3.467557184451504e-05,-0.007557926687009589,0.012651338026654557
2.4242424242424243,5.1645569620253164,0.01337164786150444,0.012170804681496714,6.631874129840806e-05,-0.007662735762900345,0.012814013159874507
2.525252525252525,5.1645569620253164,0.013237096953433005,0.011959773223880055,2.3541142506996973e-05,-0.007559061053193918,0.012646971818258431
2.6262626262626263,5.1645569620253164,0.01316218588452782,0.011796253562965485,-1.4503097696238416e-05,-0.007487531834247991,0.012535185848777526
2.727272727272727,5.1645569620253164,0.013176160383975883,0.011759207843482906,8.128410096783578e-05,-0.007480610468237636,0.012528718384234593
2.8282828282828283,5.1645569620253164,0.013140537407710531,0.011775975957388926,3.952092659099265e-05,-0.007474954009529838,0.012514366393988497
2.929292929292929,5.1645569620253164,0.013156366345249675,0.011982408068785337,5.0726465546019e-05,-0.0075416323242105026,0.012610743348788566
3.0303030303030303,5.1645569620253164,0.013017427579279664,0.011875792953436404,1.335135196131564e-06,-0.00746796615981482,0.012485816340334353
3.131313131313131,5.1645569620253164,0.012965013376993469,0.01184553212781191,-4.851370716515158e-06,-0.007443163651441613,0.012443102160207074
3.2323232323232323,5.1645569620253164,0.013082167142699233,0.011704373387992089,8.289871642717273e-05,-0.0074359621592073955,0.012451405590708998
3.3333333333333335,5.1645569620253164,0.013024002998002757,0.011764542297601191,-2.85471055441059e-05,-0.007436563588681184,0.012442271505703812
3.4343434343434343,5.1645569620253164,0.012939189385050736,0.011562460651195499,1.0651708136919895e-05,-0.00735049501087387,0.01230872010024994
3.5353535353535355,5.1645569620253164,0.013269079843214269,0.011629055550556747,1.1257070552530507e-05,-0.007469440618131305,0.012529841437421727
3.6363636363636362,5.1645569620253164,0.012995646715680589,0.011507021251048416,3.793078437988603e-05,-0.007350800390018701,0.012319151956836008
3.7373737373737375,5.1645569620253164,0.012805582789041488,0.011604871610826462,-6.343451741999302e-05,-0.007323136319960385,0.01224993564538716
3.8383838383838382,5.1645569620253164,0.013035950315860233,0.011500677696212836,6.35709985807312e-05,-0.00736098840362192,0.012340642158282246
3.9393939393939394,5.1645569620253164,0.013008182618746653,0.011379682538356212,-6.159337252542264e-05,-0.007316359547130859,0.012275682561256988
4.040404040404041,5.1645569620253164,0.012805038640402257,0.011589623749649447,-4.015127865800805e-05,-0.007318398717015511,0.012242861171890423
4.141414141414141,5.1645569620253164,0.012783752552264964,0.011559016608480145,5.958691711894364e-05,-0.007302830748223532,0.012217947372795681
4.242424242424242,5.1645569620253164,0.01280213373874962,0.011529667126933868,-2.0284298898418526e-05,-0.007299540259705047,0.012215758108230687
4.343434343434343,5.1645569620253164,0.012741907103378039,0.011657815437115606,-4.1141900763960536e-05,-0.007319916762148093,0.012236140487788974
4.444444444444445,5.1645569620253164,0.012844323002256602,0.011517351836596692,3.7738593617507137e-06,-0.0073085024516559875,0.01223492878280938
4.545454545454545,5.1645569620253164,0.012923653977571191,0.011569613906292246,-8.130004400735895e-05,-0.00734798036515903,0.01230345237667512
4.646464646464646,5.1645569620253164,0.012952498040641407,0.011429380699557576,3.4984294268885893e-06,-0.007314563622059694,0.012262094204029746
4.747474747474747,5.1645569620253164,0.012722437331683113,0.011697325255801267,-7.066811410784074e-05,-0.0073259287762453135,0.012242725359592905
4.848484848484849,5.1645569620253164,0.01280931490402153,0.011452320588034486,-5.238621400037812e-05,-0.007278490647616805,0.012187946804684364
4.94949494949495,5.1645569620253164,0.012758218704654833,0.011459672134723271,7.417470377520718e-05,-0.007265367251813431,0.01216173228749752
5.05050505050505,5.1645569620253164,0.012623497146858216,0.011626857911571833,-7.241222107696312e-05,-0.0072751065175290135,0.012156505584593339
5.151515151515151,5.1645569620253164,0.01283970355851824,0.011399523637737581,-2.110181809175277e-05,-0.007271768158876746,0.012183675893640314
5.252525252525253,5.1645569620253164,0.012851934066044084,0.011572317300697644,-3.2744037767557314e-05,-0.007327275410022518,0.01226243428207022
5.353535353535354,5.1645569620253164,0.012836688690258322,0.01145966044551444,-0.00010988999324933582,-0.007288904740731829,0.012208051763234265
5.454545454545454,5.1645569620253164,0.012846579798777036,0.011508327111271671,4.438484746444509e-05,-0.007306472073014611,0.012232721401431876
5.555555555555555,5.1645569620253164,0.012907635239467015,0.01149233458360774,5.04753448795812e-05,-0.007319990946922426,0.012261712037187898
5.656565656565657,5.1645569620253164,0.012726427483165053,0.011447512308648633,-1.0820684485815058e-05,-0.007252181937544106,0.012137623760188928
5.757575757575758,5.1645569620253164,0.012814743910855287,0.011451378353797975,-2.229305240012081e-06,-0.007279836679395978,0.012190375776890899
5.858585858585858,5.1645569620253164,0.012864308276178437,0.01145657314700157,-5.155588913407229e-05,-0.007296264426954002,0.012221725777264346
5.959595959595959,5.1645569620253164,0.012848666160130483,0.011492832695438578,1.2242546478941398e-06,-0.007302449656670719,0.012227258867722546
6.0606060606060606,5.1645569620253164,0.012871798205271205,0.011585075394637136,7.259854905281733e-05,-0.007337062079972503,0.01227974836517433
6.161616161616162,5.1645569620253164,0.012989951686226284,0.011641801246465577,-2.752257759620145e-05,-0.007389525879807558,0.01237118498032005
6.262626262626262,5.1645569620253164,0.013110953029778109,0.011537568699038261,5.933052969345809e-05,-0.00739455651864491,0.012399783057715469
6.363636363636363,5.1645569620253164,0.012992302591300506,0.011628916149467658,-8.0405778518436e-05,-0.007386365622230448,0.012367886451620425
6.4646464646464645,5.1645569620253164,0.012965317531043904,0.011596999949322865,-0.00010538322656882044,-0.00736869524411003,0.012339546046279178
6.565656565656566,5.1645569620253164,0.0126826275535577,0.011696144570712236,9.777704653414497e-05,-0.00731363163728098,0.0122204613305243
6.666666666666667,5.1645569620253164,0.013072673861757705,0.01155090429504517,2.3952044709007452e-05,-0.007387073447040863,0.012382193197209106
6.767676767676767,5.1645569620253164,0.012919663201661742,0.01160573054593234,1.2884798141683357e-05,-0.007357618124278225,0.012315398773102936
6.8686868686868685,5.1645569620253164,0.013099226319282682,0.011707520816686714,3.7746758661148403e-05,-0.0074420241407908184,0.0124619654739859
6.96969696969697,5.1645569620253164,0.013198474641249259,0.01179178567988584,-9.547725809203305e-05,-0.007497078096340529,0.01255546517758221
7.070707070707071,5.1645569620253164,0.013337081911816148,0.011897723409653881,-4.74162962049171e-05,-0.007570441596441008,0.012679093401811918
7.171717171717171,5.1645569620253164,0.013078052653768317,0.01184090068672364,8.869403515048617e-06,-0.007475686002147586,0.01250546694999958
7.2727272727272725,5.1645569620253164,0.01313608846076533,0.011816473324376294,-7.107274947984522e-05,-0.0074857685355424865,0.012529117167567062
7.373737373737374,5.1645569620253164,0.013440251488064967,0.011984075754718646,5.3218739869812475e-05,-0.007627298172835083,0.012774894773134036
7.474747474747475,5.1645569620253164,0.013408502709200729,0.011949472375015242,-8.36256133293708e-05,-0.007607392525264791,0.012742616762643327
7.575757575757575,5.1645569620253164,0.01352187197854887,0.012068997517557706,-1.6181683742678186e-06,-0.007677260848831972,0.012857149427328221
7.6767676767676765,5.1645569620253164,0.013459864201437757,0.012012563865382323,4.63217470661284e-05,-0.007641728420046024,0.012797991784441973
7.777777777777778,5.1645569620253164,0.013454291764076724,0.01209467133100293,5.289537358351797e-05,-0.007664688928523896,0.012828959363939034
7.878787878787879,5.1645569620253164,0.013626359906823938,0.012204866912149637,-5.519708776593334e-05,-0.007749368045692072,0.012974501595407799
7.979797979797979,5.1645569620253164,0.013604038554296276,0.012227281148669455,7.960537379283614e-06,-0.00774939591088972,0.01297058422836588
8.080808080808081,5.1645569620253164,0.013733376120273613,0.012158206812183204,0.00012725822484764158,-0.007767474879737044,0.013019330605538402
8.181818181818182,5.1645569620253164,0.01363852582445493,0.012469411711978143,4.85757311189723e-05,-0.007832381260929921,0.013093444934872116
8.282828282828282,5.1645569620253164,0.013688846405256567,0.012428560694820867,-7.213359868245625e-05,-0.00783522213002323,0.013104830721146944
8.383838383838384,5.1645569620253164,0.013765419352912426,0.01239678970907524,-7.263298872369176e-05,-0.007848662718596298,0.013135295304272097
8.484848484848484,5.1645569620253164,0.013932940354896277,0.012469427848181665,3.09370501297522e-05,-0.007920710460923382,0.013261995876523262
8.585858585858587,5.1645569620253164,0.013865540246469956,0.01269277092525307,3.0519138513271854e-05,-0.007967493351516907,0.013318044459963124
8.686868686868687,5.1645569620253164,0.014117034840703903,0.012666098387688124,-7.06390840285892e-05,-0.008034939968517608,0.013450945634640115
8.787878787878787,5.1645569620253164,0.014071456550737093,0.012672063498905655,-3.630641416633279e-05,-0.008023056014892824,0.013426713906003784
8.88888888888889,5.1645569620253164,0.014461569387745609,0.012820819604023712,-7.920180336415239e-05,-0.008184716697530795,0.013715686309518381
8.98989898989899,5.1645569620253164,0.014199281541046237,0.013073803073601335,-2.520638719405528e-05,-0.008181925384394271,0.013671401483418196
9.09090909090909,5.1645569620253164,0.01451822156546537,0.013117017089668809,-4.585293974416293e-05,-0.008290571596540253,0.01387102886757321
9.191919191919192,5.1645569620253164,0.014745087020723361,0.013310535578637568,6.366218735424277e-05,-0.008416686779808278,0.01408314957180147
9.292929292929292,5.1645569620253164,0.014729690913949168,0.01337766679444404,-1.4796094840500242e-06,-0.008432207312517962,0.014102371177196342
9.393939393939394,5.1645569620253164,0.014884139378022724,0.013544909592744953,4.062103687795754e-06,-0.008528714691230302,0.01426176385167582
9.494949494949495,5.1645569620253164,0.01515595094875977,0.01348153597114819,3.403528209506925e-05,-0.008591246075972387,0.0143921033421524
9.595959595959595,5.1645569620253164,0.015132005138814974,0.013604070673925064,-9.110886582731052e-05,-0.008620822743822011,0.01442970386223957
9.696969696969697,5.1645569620253164,0.015264548188350246,0.013886965236757488,1.4871594009018047e-05,-0.00874545402753232,0.014624522157249223
9.797979797979798,5.1645569620253164,0.0155152986601439,0.014023012805022397,5.0669956883349045e-05,-0.00886149343954989,0.014825850774641302
9.8989898989899,5.1645569620253164,0.015657455651589682,0.014125667202157941,-3.3138796965220983e-05,-0.008934936856124287,0.014950641396284919
10.0,5.1645569620253164,0.015731634125853284,0.01422134148409938,-3.2180357647936034e-05,-0.008985892682985799,0.015033596761808593
0.0,5.265822784810126,0.015982274806882996,0.014460397834049394,-8.208446410845266e-05,-0.009132801792279715,0.01527895202881461
0.10101010101010101,5.265822784810126,0.015749568758281433,0.014071279279477144,8.171453796389321e-05,-0.008946254411327573,0.014981764512263407
0.20202020202020202,5.265822784810126,0.01553642741570356,0.01385045883257265,8.855207340980965e-05,-0.008816065874482863,0.01476660633994403
0.30303030303030304,5.265822784810126,0.015511609758662444,0.013911413882827876,-5.048715254707332e-05,-0.008826907092447095,0.014776897409145805
0.40404040404040403,5.265822784810126,0.015398120743615918,0.013904526835548298,-5.6569748645471957e-05,-0.008790794273749266,0.014708637131570775
0.5050505050505051,5.265822784810126,0.014975509339090233,0.01361299826777662,-1.9063912069963307e-05,-0.008576552282060055,0.014342911469077343
0.6060606060606061,5.265822784810126,0.014922219100182092,0.01345187413344051,-1.2021091625472762e-05,-0.00851222797008678,0.014244092142654275
0.7070707070707071,5.265822784810126,0.014853167496625979,0.013391335388417979,-2.000132354359724e-06,-0.008473350865513188,0.014178882630230186
0.8080808080808081,5.265822784810126,0.014685929636088776,0.013161454431147246,-8.050296681640918e-05,-0.008354215220170807,0.01398683883219856
0.9090909090909091,5.265822784810126,0.01442495536928884,0.013062175542295914,2.279828424127373e-05,-0.008246139273475426,0.013794202672339809
1.0101010101010102,5.265822784810126,0.014390225623566183,0.012932860842463745,8.506632564994217e-06,-0.008196925939808978,0.013719727208469853
1.1111111111111112,5.265822784810126,0.014236151755202854,0.012990808650304832,-4.019556521703819e-05,-0.008168088121652305,0.013656311722710783
1.2121212121212122,5.265822784810126,0.014238351870740329,0.0129149951502699,1.8153243921218436e-05,-0.008146004106303069,0.013624995669315148
1.3131313131313131,5.265822784810126,0.014076321944348687,0.012748298260147013,-1.3643983880760502e-05,-0.00804738606134871,0.013461551022564175
1.4141414141414141,5.265822784810126,0.013947594066278827,0.012554735787592248,-3.587170858935782e-05,-0.007950698956161323,0.013306099086421127
1.5151515151515151,5.265822784810126,0.0139102340867711,0.012477634502981902,1.674010360557506e-06,-0.0079163605769259,0.013252138195780146
1.6161616161616161,5.265822784810126,0.013882967480612409,0.012350510500218377,7.030193611562238e-06,-0.007870043394249236,0.013183713752623684
1.7171717171717171,5.265822784810126,0.013940770057311504,0.012468811697263394,-3.0651227919564164e-05,-0.007922874526372468,0.013266284961001682
1.8181818181818181,5.265822784810126,0.013941313749290996,0.012328342729573446,2.2778436524466315e-05,-0.007880896943659333,0.013208956282906463
1.9191919191919191,5.265822784810126,0.01378255355225111,0.012232358779290646,-3.110531822875268e-05,-0.007804473699462527,0.01307666419246524
2.0202020202020203,5.265822784810126,0.013650261492009473,0.012226366524640564,1.718422573810579e-05,-0.007762988404995011,0.012996978992421122
2.121212121212121,5.265822784810126,0.01353521905152002,0.012232126339475758,3.918927519828061e-06,-0.007730203617298733,0.012933004529529621
2.2222222222222223,5.265822784810126,0.013500799449552656,0.01224727149433079,5.269334347674686e-05,-0.007724421283165034,0.012920047149644854
2.323232323232323,5.265822784810126,0.013651182244017688,0.011968200516607488,2.9020295284536812e-05,-0.007685814828187552,0.012892441212298286
2.4242424242424243,5.265822784810126,0.013100105877941382,0.012112265097288338,2.094109898573566e-05,-0.007563711292568916,0.012635232494614913
2.525252525252525,5.265822784810126,0.0131887945242472,0.012011862401798197,-5.663475392701385e-07,-0.007560197077813618,0.012641485484465339
2.6262626262626263,5.265822784810126,0.01330360576807482,0.012001393533590142,-2.048962765431656e-05,-0.007591499790499489,0.01270270933370403
2.727272727272727,5.265822784810126,0.013406303326873032,0.011992996678104403,6.667211634213576e-05,-0.0076197900014932304,0.012759017299995894
2.8282828282828283,5.265822784810126,0.013312880912377645,0.011946894934058821,1.647983608234857e-05,-0.00757793275393094,0.01268520090411533
2.929292929292929,5.265822784810126,0.013008050398098384,0.011712117633465987,2.4642369302262435e-05,-0.0074160504094693104,0.01241100640214663
3.0303030303030303,5.265822784810126,0.013192734362957734,0.011950547035100593,-1.3326553418408225e-05,-0.007542984419417497,0.012617604950016513
3.131313131313131,5.265822784810126,0.013102148672061218,0.011773715749746297,-9.659874056886505e-05,-0.007462759326542254,0.012492145618543412
3.2323232323232323,5.265822784810126,0.013118651081093441,0.011832141778872197,2.6912799465859666e-05,-0.007485237857989692,0.012525135473122822
3.3333333333333335,5.265822784810126,0.012965139138257073,0.011727140687795911,-9.013069395557704e-05,-0.007407683947815895,0.01239358791877932
3.4343434343434343,5.265822784810126,0.013035643865684633,0.011679356226183234,4.738961265632065e-05,-0.00741450002756036,0.012413467760147383
3.5353535353535355,5.265822784810126,0.012929278491286942,0.011788995743272393,4.8738280916908035e-05,-0.0074154822703678,0.012398813657074815
3.6363636363636362,5.265822784810126,0.012996127075050861,0.011700271505658718,-1.0261586348693905e-05,-0.007408919574212873,0.012399103711854547
3.7373737373737375,5.265822784810126,0.0128910142411682,0.011616846084789469,-2.873572167924266e-05,-0.007352358097787301,0.01230361369810963
3.8383838383838382,5.265822784810126,0.013098918991889624,0.011643634795754396,-4.260738668111949e-05,-0.007422766136293206,0.01243552681716599
3.9393939393939394,5.265822784810126,0.0127291070464809,0.0116192798033812,-3.556261809293855e-05,-0.00730451605495863,0.012212230223394745
4.040404040404041,5.265822784810126,0.012912851510844772,0.0117891352045102,-0.00011012100266022469,-0.0074105960146064916,0.012390741324873007
4.141414141414141,5.265822784810126,0.01285681539025801,0.011522747987902376,-1.7028528818321384e-06,-0.007313869013448115,0.012244410488140274
4.242424242424242,5.265822784810126,0.012761145857950974,0.011597362949726986,-1.3128860640746372e-05,-0.007307552642303388,0.01222090618274611
4.343434343434343,5.265822784810126,0.01304861407813177,0.011488356521495812,-1.1747505252549642e-05,-0.007361091179888275,0.012342688049840107
4.444444444444445,5.265822784810126,0.013042020109049448,0.011545892523029622,1.161144949490629e-05,-0.007376373789623721,0.012362061506609795
4.545454545454545,5.265822784810126,0.01296719761567422,0.01160588564235785,-8.727596456172023e-05,-0.0073719249774096204,0.012343898662903686
4.646464646464646,5.265822784810126,0.012754075547537568,0.011526622316908375,4.727939383894682e-05,-0.007284209359333782,0.012187073450767798
4.747474747474747,5.265822784810126,0.012922433660609425,0.011466147044336142,-1.275691935083304e-06,-0.00731657421148367,0.012259335223173115
4.848484848484849,5.265822784810126,0.012888494845836046,0.011609565190071378,3.244897949506872e-05,-0.007349418010772227,0.012299131716826096
4.94949494949495,5.265822784810126,0.012851702114974033,0.011493627561636414,-2.5670185255081684e-05,-0.007303598902983134,0.012229432571066526
5.05050505050505,5.265822784810126,0.012710157363353269,0.011422457631423568,-4.435474266582527e-05,-0.007239784498433051,0.012117974525506798
5.151515151515151,5.265822784810126,0.012841040729421264,0.01130593218110212,2.9984089991957753e-05,-0.007244091873157015,0.012146571162829755
5.252525252525253,5.265822784810126,0.012775675294184736,0.01142353892699643,2.121921648448706e-05,-0.00725976426635435,0.012156193794222916
5.353535353535354,5.265822784810126,0.012862294894333173,0.011752813314940635,-2.959522623163537e-05,-0.0073845324627821425,0.012345109464969127
5.454545454545454,5.265822784810126,0.012913995333492048,0.011584435235818324,-5.02220222106731e-05,-0.007349529170793111,0.01230352142211203
5.555555555555555,5.265822784810126,0.01277003848222562,0.0115631257620981,-9.218761233202523e-05,-0.007299949273297115,0.012212440171334115
5.656565656565657,5.265822784810126,0.012890580266574263,0.011754072492786505,0.00013083863504470596,-0.0073933958278082305,0.012363649181877419
5.757575757575758,5.265822784810126,0.012728339164887213,0.011580284429961606,1.3954145574006871e-05,-0.007292587078454645,0.012194933443005547
5.858585858585858,5.265822784810126,0.012867102389668613,0.011430527011098354,-7.866438232129094e-05,-0.00728928882023009,0.01221311076233764
5.959595959595959,5.265822784810126,0.01288049382367212,0.011698416327245966,-7.528727623607377e-05,-0.007373673045275426,0.012332708177009745
6.0606060606060606,5.265822784810126,0.012871844333641908,0.011636870726539305,-4.8220864145390846e-05,-0.007352614518054364,0.012301224495479511
6.161616161616162,5.265822784810126,0.012682218444804948,0.011595043549518982,-5.671701585523954e-05,-0.007283178598297179,0.012175486638513833
6.262626262626262,5.265822784810126,0.013004031678151602,0.011536687317195392,-0.00010781724791959493,-0.007362215698604098,0.012337399259334018
6.363636363636363,5.265822784810126,0.012910330041655623,0.011645761987995308,-7.748453188612692e-06,-0.007366827608895278,0.012326797772718818
6.4646464646464645,5.265822784810126,0.012904287984156009,0.011543880462155392,-4.356506898914739e-06,-0.00733445053389342,0.012280729762587322
6.565656565656566,5.265822784810126,0.012927639779191744,0.0117545304630706,-5.33359989643952e-05,-0.007404651072678703,0.01238317629907769
6.666666666666667,5.265822784810126,0.013122561398909655,0.011637236952816238,-1.2462077268402517e-05,-0.007427939505517767,0.012446566235201725
6.767676767676767,5.265822784810126,0.01328765117336121,0.011875854883435366,-4.938927542473865e-05,-0.007549051817038972,0.012641309415656938
6.8686868686868685,5.265822784810126,0.013189230460369449,0.011949962269788866,8.26184926384733e-05,-0.0075417578190474935,0.012616143208727752
6.96969696969697,5.265822784810126,0.01304115425858178,0.01181679862063779,-4.834312762467645e-05,-0.00745738586376587,0.012474403855754577
7.070707070707071,5.265822784810126,0.013081579202952854,0.01179835449960063,-4.2571788034468236e-05,-0.007463980110766045,0.012489724238819033
7.171717171717171,5.265822784810126,0.013182814370252524,0.011863490301854969,2.5092418973154294e-06,-0.007513891401632247,0.012575167009586111
7.2727272727272725,5.265822784810126,0.013289535955089768,0.011814343789282396,8.66336744282571e-05,-0.007531163923311649,0.012617680241635313
7.373737373737374,5.265822784810126,0.01317851160000426,0.012131316142564602,8.489431230858308e-05,-0.007592948322770658,0.012688220126045095
7.474747474747475,5.265822784810126,0.013389191372822958,0.011988442734403236,2.94129932674864e-05,-0.007613290232167859,0.01274677395083193
7.575757575757575,5.265822784810126,0.013411064414532086,0.01199549451489017,-9.131372863212114e-05,-0.007621967678826677,0.012763275533938799
7.6767676767676765,5.265822784810126,0.013309235865688688,0.012034676037362165,2.173530704842462e-05,-0.007603173570915256,0.012719994574492003
7.777777777777778,5.265822784810126,0.013400558613042528,0.012129396853050646,3.01926320384448e-05,-0.007658986639827952,0.012812465823381254
7.878787878787879,5.265822784810126,0.013352155960455395,0.012157511461426771,-4.385594316558804e-05,-0.00765290022656465,0.012796950208323327
7.979797979797979,5.265822784810126,0.013522853379109245,0.012168012446488404,-3.951428932434534e-05,-0.0077072597476792945,0.012899090135312893
8.080808080808081,5.265822784810126,0.013584714118579028,0.012130499554140335,-6.704295224068267e-06,-0.0077145641018158085,0.012919142518011626
8.181818181818182,5.265822784810126,0.013752365853476365,0.012306283063174954,2.7083254111748297e-05,-0.007817594674995395,0.013089456173790703
8.282828282828282,5.265822784810126,0.013816876689120591,0.01242997305138784,-9.595020388053659e-06,-0.00787405492215253,0.013178284516344412
8.383838383838384,5.265822784810126,0.013835822472573981,0.012447595213469848,-1.9141756255464542e-06,-0.007885025305813148,0.013196586812473717
8.484848484848484,5.265822784810126,0.014056813718933204,0.012569290933342322,-2.982115896162318e-05,-0.007987831395682658,0.01337533450689315
8.585858585858587,5.265822784810126,0.013950268461450723,0.012715060880059454,-3.564106977071271e-05,-0.007999598802453052,0.013375651812424281
8.686868686868687,5.265822784810126,0.013980759229168856,0.012670125107282281,-0.0001403624093450816,-0.00799526530093534,0.01337590502163071
8.787878787878787,5.265822784810126,0.01437914663649884,0.012864655329102814,-7.425799985261387e-05,-0.008173140589680496,0.013685502989550295
8.88888888888889,5.265822784810126,0.014295062517273617,0.013122204577171432,-7.382175950114295e-05,-0.008225180128333514,0.013746806156315287
8.98989898989899,5.265822784810126,0.014500608968752406,0.012984327451986374,-3.0462234204900347e-05,-0.008245480926221634,0.013805163837662929
9.09090909090909,5.265822784810126,0.014642809837653738,0.013006334782988575,1.2572842272296497e-05,-0.008294743386192693,0.013897043273509399
9.191919191919192,5.265822784810126,0.014672738542430017,0.013151105646428199,9.241367298505718e-05,-0.008347153256657464,0.013975110812618792
9.292929292929292,5.265822784810126,0.014749365202040341,0.013263258818587668,1.3840837301110754e-05,-0.008403787206188403,0.014065338068237182
9.393939393939394,5.265822784810126,0.01495965894395712,0.013382593231237203,-6.179907783228927e-07,-0.008502675652558297,0.014236789242416713
9.494949494949495,5.265822784810126,0.01492802975431323,0.013536444325546343,-3.5063462546628494e-05,-0.008539342223957871,0.014283299408894777
9.595959595959595,5.265822784810126,0.015232960178954431,0.013644347599038964,-1.6075976270656508e-05,-0.00866319233339802,0.014504077664025311
9.696969696969697,5.265822784810126,0.015419577351305822,0.013868361888295945,-1.499776486996978e-05,-0.00878638177188053,0.01470548275589806
9.797979797979798,5.265822784810126,0.015586874507205499,0.013907651589163926,-2.990345518304312e-05,-0.008848357828910828,0.014818882962916165
9.8989898989899,5.265822784810126,0.015653677043732533,0.014045446627763795,-1.691574046897017e-05,-0.008909737101448899,0.014914762785363717
10.0,5.265822784810126,0.01593923927632002,0.014505760845290523,-2.7402987132880533e-05,-0.009133500036483161,0.015273110560115054
0.0,5.367088607594937,0.01596829883952406,0.014322866869593973,2.1295597040369202e-05,-0.00908734971273541,0.015212515416177005
0.10101010101010101,5.367088607594937,0.015700942788992128,0.014255581987978392,4.952790689501228e-05,-0.008986957433091155,0.015030718682179726
0.20202020202020202,5.367088607594937,0.015361078531724241,0.014086466760700404,3.73941314971812e-05,-0.008834263587727393,0.014765234582480764
0.30303030303030304,5.367088607594937,0.015434246099601328,0.013799419839190988,2.5872953550317637e-05,-0.008770099781637694,0.01468530922250867
0.40404040404040403,5.367088607594937,0.015122215683026272,0.013678522674743133,1.5944002876053394e-05,-0.008640221507330821,0.014454569597483
0.5050505050505051,5.367088607594937,0.015112356019269827,0.013532807471729094,-1.815905250781379e-05,-0.008593549047299677,0.014387792301830285
0.6060606060606061,5.367088607594937,0.014916190796676757,0.0133842880886574,-3.987393929517047e-05,-0.008490143665600247,0.01421246250682983
0.7070707070707071,5.367088607594937,0.01480941551208319,0.013263668034562873,-3.2521582004870807e-05,-0.008421925063993817,0.014100343235621114
0.8080808080808081,5.367088607594937,0.014721177721112925,0.013076053577552944,9.747702335731676e-05,-0.008339169389599761,0.01397246747585848
0.9090909090909091,5.367088607594937,0.01467435740245977,0.013118837652515628,-5.365302189931579e-05,-0.008337958516492619,0.013962048203992265
1.0101010101010102,5.367088607594937,0.014247147093657857,0.01302289887693389,-5.496419256234867e-05,-0.008181013791177524,0.013676512814641485
1.1111111111111112,5.367088607594937,0.014406091058498834,0.012774548560010604,5.464765920967676e-05,-0.00815419188555283,0.013663901339334693
1.2121212121212122,5.367088607594937,0.014198698454693064,0.01266769243858248,3.798996099618518e-05,-0.008059917267982664,0.01349863156712577
1.3131313131313131,5.367088607594937,0.014203369572372102,0.012723460887089325,-1.858717378737316e-05,-0.008078049137838427,0.013524318222550616
1.4141414141414141,5.367088607594937,0.014104603573615834,0.01268804023644796,-5.765292726564671e-05,-0.008037793143019138,0.01345274696593452
1.5151515151515151,5.367088607594937,0.01397643033808275,0.012695501047100363,6.8014001508562035e-06,-0.008001579415554934,0.013382029166665404
1.6161616161616161,5.367088607594937,0.01402869185181266,0.01244531501465863,6.367888922585076e-05,-0.007942202059941388,0.013308295779348245
1.7171717171717171,5.367088607594937,0.013816792696488066,0.012417346805090062,1.8957110802730958e-05,-0.007870241850473438,0.013172981195060914
1.8181818181818181,5.367088607594937,0.013837267901906584,0.01236262953734751,-1.2439841254578371e-05,-0.007859969231776228,0.013162068205091543
1.9191919191919191,5.367088607594937,0.01365762265471556,0.012335465859197358,-7.578704526059054e-06,-0.0077979265541738745,0.01304689269049401
2.0202020202020203,5.367088607594937,0.013583431519320595,0.012301970865395705,-6.212000537014803e-05,-0.0077656207154148905,0.012990638817838745
2.121212121212121,5.367088607594937,0.013676296150177776,0.012207371590110276,7.485355604714318e-05,-0.007765100322086415,0.013004852079487214
2.2222222222222223,5.367088607594937,0.013654855795674981,0.01201632837589135,6.252054780536348e-05,-0.007701355251469899,0.012914245224880556
2.323232323232323,5.367088607594937,0.013419640141402147,0.012022870398880588,-5.068014584656604e-05,-0.00763275316208482,0.012778938350460354
2.4242424242424243,5.367088607594937,0.013221732893383348,0.011820706242730294,-9.408028098282766e-05,-0.007512731740834092,0.012580924033081932
2.525252525252525,5.367088607594937,0.013367323792258072,0.012034239369051486,-3.103840363212553e-06,-0.007620468948392867,0.012753145385375395
2.6262626262626263,5.367088607594937,0.013387312825248056,0.012033709904529392,5.743038383755526e-05,-0.007626306818933234,0.012764841344652982
2.727272727272727,5.367088607594937,0.013223727288671093,0.01185819176949102,-1.9307767310142494e-05,-0.007524575717448634,0.012596638429370402
2.8282828282828283,5.367088607594937,0.01330120223946495,0.01183351587586217,3.0066172927222726e-05,-0.007540415434598135,0.012631579594608545
2.929292929292929,5.367088607594937,0.013238900271866888,0.011884034975394534,2.3299519541205808e-05,-0.007536880574178426,0.012616213474773008
3.0303030303030303,5.367088607594937,0.013092237142170988,0.011798609321128528,-7.806427338600206e-05,-0.007467253938989855,0.01249647735210834
3.131313131313131,5.367088607594937,0.013110344985609318,0.01184529126843904,3.0460146929312893e-05,-0.007486690876214506,0.012525933073158295
3.2323232323232323,5.367088607594937,0.013058968267499,0.011770040178853651,-3.226287699347594e-05,-0.007448702533905794,0.012464711769641233
3.3333333333333335,5.367088607594937,0.012915944689262653,0.011695676787489577,-9.600434996399879e-05,-0.007383486443025668,0.012352223230999439
3.4343434343434343,5.367088607594937,0.012904249512126058,0.011630435439688782,5.906465268123309e-06,-0.007360405485544451,0.012316848127607674
3.5353535353535355,5.367088607594937,0.013046235799839604,0.011617272538556964,2.261851531872352e-05,-0.00739905250151897,0.012393754382059398
3.6363636363636362,5.367088607594937,0.012908886921316028,0.01156751964837968,2.791190846067039e-05,-0.007342921970908712,0.012293307385965792
3.7373737373737375,5.367088607594937,0.012996391411253406,0.011501184007776508,-2.030850660173238e-05,-0.007349272625708975,0.012317092657914242
3.8383838383838382,5.367088607594937,0.012739611906843909,0.01145014193809347,2.9539614904408068e-05,-0.007256926153481213,0.012146428081392642
3.9393939393939394,5.367088607594937,0.012986260523889202,0.011585468733046238,7.889444931670958e-05,-0.007371518777080631,0.012346368125987616
4.040404040404041,5.367088607594937,0.012866203927427818,0.011654213862787812,-4.076196965309622e-05,-0.007356125337064689,0.012305258904378256
4.141414141414141,5.367088607594937,0.0128221483567709,0.011455936678918982,-4.844534437091173e-05,-0.007283425510706963,0.012196855941829645
4.242424242424242,5.367088607594937,0.012775991295365436,0.01158047785978434,5.0920303209583066e-05,-0.007306940746544931,0.012222484008550335
4.343434343434343,5.367088607594937,0.012816715206946879,0.011508758182846468,-2.140421481937823e-05,-0.007297642016938004,0.012215424757792599
4.444444444444445,5.367088607594937,0.01287675186753133,0.011486300992956775,1.760508753047956e-05,-0.0073089158581464315,0.012240936696756875
4.545454545454545,5.367088607594937,0.012907009336589665,0.011512999817989,-4.1888325721795375e-06,-0.007326002746373599,0.012269544055091997
4.646464646464646,5.367088607594937,0.012814929633604154,0.011513521663196665,4.8732295664561634e-05,-0.007298535389040246,0.012216618073927198
4.747474747474747,5.367088607594937,0.01270565023663742,0.01166273956900885,3.577937902468386e-05,-0.00731051694169388,0.012217781832941753
4.848484848484849,5.367088607594937,0.012881314680885192,0.01141832801488384,-7.651435617400504e-06,-0.007289892808730709,0.012215710454475608
4.94949494949495,5.367088607594937,0.012612000464349874,0.011640734582416056,9.61154834975428e-05,-0.0072758205140297785,0.012156645175817113
5.05050505050505,5.367088607594937,0.012899558524038363,0.011564821090659606,-2.8169566031203236e-05,-0.0073393138844093896,0.012286781151644659
5.151515151515151,5.367088607594937,0.012883204246588625,0.011602351246040971,2.9491469724268474e-06,-0.007345666647788879,0.01229292769623345
5.252525252525253,5.367088607594937,0.012819378332036497,0.01142229295932926,-8.776182434337443e-06,-0.0072725013874097265,0.012181082606556998
5.353535353535354,5.367088607594937,0.01301663362921693,0.011584541717909005,8.175514449157747e-05,-0.00738035260413778,0.012363764566578696
5.454545454545454,5.367088607594937,0.012787061241346601,0.011406313944909,-5.547028341910219e-05,-0.00725801255587668,0.012156024387324361
5.555555555555555,5.367088607594937,0.012841032498370349,0.011556220061901526,-2.9670574076638347e-05,-0.007319175768081563,0.012249374735022191
5.656565656565657,5.367088607594937,0.012975469310205209,0.011464953365805112,-3.076998820398445e-05,-0.007332126802803096,0.012290144398490493
5.757575757575758,5.367088607594937,0.012708286953787987,0.011496086402776521,-2.3022173549874485e-05,-0.007261312006969352,0.012147698756938356
5.858585858585858,5.367088607594937,0.012823501261148784,0.01159825382203671,1.870528107719838e-05,-0.007326526524955648,0.012256936952749766
5.959595959595959,5.367088607594937,0.012846680328391017,0.011546477351199612,8.252807351530268e-06,-0.007317947303877188,0.012248454415078394
6.0606060606060606,5.367088607594937,0.01298664947905304,0.01135592643238568,-0.00010282491269412627,-0.007302772773431616,0.012254240597860396
6.161616161616162,5.367088607594937,0.012673059353556641,0.011641064435817128,-5.429729844325514e-05,-0.00729423713681213,0.012190232099258107
6.262626262626262,5.367088607594937,0.013009983047754376,0.011676832385573915,6.178784652129262e-05,-0.007406044629998487,0.012397747186073418
6.363636363636363,5.367088607594937,0.012961100502390632,0.01177322502837682,-6.088356534585319e-06,-0.007420297659230236,0.012409879619725252
6.4646464646464645,5.367088607594937,0.01292978281809453,0.011838256046574881,-2.1451901540237512e-05,-0.0074304116594008235,0.012420100276261491
6.565656565656566,5.367088607594937,0.012923192814744279,0.01176438371083497,5.459738795650656e-05,-0.007406272957673775,0.012384877076716396
6.666666666666667,5.367088607594937,0.013070870898052018,0.011811165187012198,-7.569785818052411e-05,-0.007464610825519264,0.012489446116246649
6.767676767676767,5.367088607594937,0.01303061299406212,0.011717134034309976,-6.418030517965035e-06,-0.007424324108511629,0.012426052854857242
6.8686868686868685,5.367088607594937,0.01303500682299072,0.011883255058039175,-5.2167280910003514e-05,-0.007475478564308968,0.012499320268100233
6.96969696969697,5.367088607594937,0.013070481204172117,0.011854118947510157,7.305969149010288e-05,-0.007477380045504682,0.012507381388222145
7.070707070707071,5.367088607594937,0.01303954329118694,0.011864099237287606,-5.1837604196130896e-05,-0.007471092758542363,0.012493685034889563
7.171717171717171,5.367088607594937,0.01319018886295937,0.011802935459518415,8.309754064509485e-05,-0.007497937296743335,0.012555004398944284
7.2727272727272725,5.367088607594937,0.013350972026152043,0.011731129136343965,-7.493463793846353e-05,-0.0075246303487488024,0.012619933182154975
7.373737373737374,5.367088607594937,0.01320288323026831,0.011690773799136965,-3.585538830235479e-05,-0.007468097108821583,0.012515680289133822
7.474747474747475,5.367088607594937,0.013369112655987102,0.01209456216775698,-4.2057760848730225e-05,-0.007639102447123224,0.01277980241077197
7.575757575757575,5.367088607594937,0.013518568168870333,0.012259089292809644,7.43328513981468e-05,-0.007733297238503992,0.012935540091188679
7.6767676767676765,5.367088607594937,0.013370887653304532,0.012054139666631686,-8.508429436814312e-05,-0.007627508195980865,0.012764407174311912
7.777777777777778,5.367088607594937,0.013516447280423794,0.011894750041692577,7.265980840141723e-05,-0.007623359196634911,0.012783602861859238
7.878787878787879,5.367088607594937,0.013327517830339431,0.012151989634895284,3.98801342579563e-06,-0.007643852239570415,0.012780366692086903
7.979797979797979,5.367088607594937,0.013754925035190005,0.012132013085377598,-1.4736468721261946e-05,-0.007766081436170281,0.013019578533988269
8.080808080808081,5.367088607594937,0.013669640158832565,0.012354839773826629,4.583339674021778e-05,-0.007807343979797758,0.013062205636163608
8.181818181818182,5.367088607594937,0.013582279191612886,0.012311688433839606,-7.001896064117e-05,-0.007768190287635747,0.012994225581651543
8.282828282828282,5.367088607594937,0.013702826805744323,0.01239740000720266,7.041096654126906e-05,-0.007830068043884095,0.01309955867116179
8.383838383838384,5.367088607594937,0.013913768919225212,0.012488829172088805,2.795392761014608e-05,-0.007920779427394204,0.01325893965297746
8.484848484848484,5.367088607594937,0.013941098639521284,0.012610563484734315,2.7139760484515742e-05,-0.007965498637276679,0.013325826163452221
8.585858585858587,5.367088607594937,0.01376263768211222,0.012664333718199696,3.01199242489555e-05,-0.007928091420093574,0.013247778292060737
8.686868686868687,5.367088607594937,0.014125615743963434,0.012697601719620142,-9.988020408676183e-05,-0.008046965239075074,0.013469617477139798
8.787878787878787,5.367088607594937,0.014128552105052863,0.012852841530499964,-5.7600505876645116e-05,-0.008094418090665847,0.013536226659838184
8.88888888888889,5.367088607594937,0.014497614027712368,0.013016929392499807,-3.056538458777695e-05,-0.008254363026063652,0.013817005749278901
8.98989898989899,5.367088607594937,0.01439899356055052,0.013018304285726333,3.882339492346671e-05,-0.008225189353883056,0.01376086131828438
9.09090909090909,5.367088607594937,0.014495423917108733,0.013011101023801836,8.001030649803627e-06,-0.00825195748227317,0.013813212206775236
9.191919191919192,5.367088607594937,0.014863474923760034,0.013151066579228926,5.7932403789916956e-05,-0.008404362450896688,0.014085913500718162
9.292929292929292,5.367088607594937,0.014929669525713047,0.013199695224894963,-7.377897766392006e-05,-0.008438809425182403,0.01414483045645796
9.393939393939394,5.367088607594937,0.014903284331079309,0.013509675705409072,-8.887345080819583e-05,-0.008523888010946515,0.014258484447188068
9.494949494949495,5.367088607594937,0.015001256100764917,0.01355873840984875,-9.541343029415502e-05,-0.0085679983531841,0.01433549007694075
9.595959595959595,5.367088607594937,0.01516274209548122,0.013753699834417673,7.442184559036647e-05,-0.008674932578969669,0.014510197082559018
9.696969696969697,5.367088607594937,0.015406427334107535,0.013993748457541443,-3.609229285859548e-05,-0.008820052737494692,0.014751041939876622
9.797979797979798,5.367088607594937,0.015525387690912853,0.013940764241793965,4.2214768669339265e-05,-0.008839845579812045,0.014797031705617343
9.8989898989899,5.367088607594937,0.015860678107216877,0.014199720947001067,-1.8691893509058382e-05,-0.009018119716265384,0.015098908238724075
10.0,5.367088607594937,0.01586402271737564,0.014238449687366391,-2.043104763921634e-06,-0.00903074172142261,0.015116930558129689
0.0,5.468354430379747,0.01594287195803247,0.014345454876019112,-5.590271124706134e-05,-0.009086498050215474,0.015207526654304691
0.10101010101010101,5.468354430379747,0.015726523855912673,0.014108325055814304,-2.420569106886771e-05,-0.008950454673518092,0.014983165074853654
0.20202020202020202,5.468354430379747,0.015593399321680298,0.01383072756852042,1.9180238753544834e-05,-0.008827238067060214,0.014791084248268447
0.30303030303030304,5.468354430379747,0.01524097910094045,0.013823881970471193,-3.725457415772942e-05,-0.008719458321423493,0.014584300606915991
0.40404040404040403,5.468354430379747,0.01518603204841915,0.013742938001073821,1.417786654011439e-05,-0.00867869101484789,0.014518395930299147
0.5050505050505051,5.468354430379747,0.01509455735323468,0.01367093348918963,-5.442867530017826e-05,-0.008629647252727293,0.014435798626095923
0.6060606060606061,5.468354430379747,0.014958589265618093,0.013341607990877347,-4.204306640988834e-06,-0.008490059176948632,0.014219223451014042
0.7070707070707071,5.468354430379747,0.014710676028309147,0.013322331272339921,-6.127622229386118e-05,-0.00840990219019472,0.014068378185735813
0.8080808080808081,5.468354430379747,0.014805271875372911,0.01322005393910997,-1.2655909919826223e-05,-0.008407597744344865,0.014079768790617096
0.9090909090909091,5.468354430379747,0.014574581807163613,0.013055012245026358,-9.523514852726334e-05,-0.008288878215656992,0.013878315633151539
1.0101010101010102,5.468354430379747,0.014508822021824963,0.012972480970397514,8.720435387458429e-05,-0.008244390897666742,0.01380574428291767
1.1111111111111112,5.468354430379747,0.01426468070491802,0.01289802176399428,-4.1117113867904024e-05,-0.00814881074067369,0.013633011065073891
1.2121212121212122,5.468354430379747,0.014312004977519456,0.012912315487340077,5.16772209657614e-06,-0.00816729613945786,0.013666028476155254
1.3131313131313131,5.468354430379747,0.014220829523562618,0.012594230859661184,-1.1711835594442126e-05,-0.00804451811496714,0.013481344322815808
1.4141414141414141,5.468354430379747,0.014137474696700092,0.012655403762213285,5.039265359421326e-05,-0.008037863537674014,0.013458068322693003
1.5151515151515151,5.468354430379747,0.014115421032824,0.012633155099836235,3.522942168314762e-05,-0.00802457283979807,0.013435889953393806
1.6161616161616161,5.468354430379747,0.013810383333943764,0.012405884189435645,4.5974582124620396e-05,-0.007864880257013823,0.013164686668741765
1.7171717171717171,5.468354430379747,0.013741882958792404,0.012441566849223536,3.792303465258557e-06,-0.007855034942404781,0.013140069276663745
1.8181818181818181,5.468354430379747,0.013820172470434565,0.012475155184107726,3.884191918853864e-05,-0.007888598296362686,0.013199333082560702
1.9191919191919191,5.468354430379747,0.013554603164992615,0.01237927686753539,7.17898016184867e-05,-0.0077801640097584016,0.013007422444180048
2.0202020202020203,5.468354430379747,0.013495364667016455,0.01211270675927298,-1.6163037572480914e-05,-0.007682421427886831,0.012859934737090241
2.121212121212121,5.468354430379747,0.013625540322089947,0.012312283410722935,8.536103709173747e-06,-0.007781347119843864,0.01301869334381363
2.2222222222222223,5.468354430379747,0.01337963361707964,0.012014569570244422,8.14400370194639e-05,-0.007618260956197219,0.012752797191504132
2.323232323232323,5.468354430379747,0.013569574213808899,0.01213509530745623,-2.5158645449944023e-05,-0.007711400856379538,0.012912308274327437
2.4242424242424243,5.468354430379747,0.013312612732693501,0.012053769005819387,1.844629260663475e-05,-0.007609914521553867,0.012729998706584401
2.525252525252525,5.468354430379747,0.013535477386139447,0.012166427329428488,1.068454678773287e-05,-0.007710571414670381,0.012905543092949973
2.6262626262626263,5.468354430379747,0.01330630743569996,0.011939215933941174,3.687114153626212e-05,-0.00757365701089234,0.01267832383935844
2.727272727272727,5.468354430379747,0.013418010678782412,0.01186423877444944,1.2846057807716514e-06,-0.007584674835969555,0.012712540841724657
2.8282828282828283,5.468354430379747,0.013292721854516167,0.011750713216964038,1.4414627944416879e-05,-0.007513030521444062,0.012592750945209372
2.929292929292929,5.468354430379747,0.013189025452236137,0.011804439314896427,7.023173569903592e-05,-0.007498039430139769,0.01255471731403607
3.0303030303030303,5.468354430379747,0.013222533845505674,0.01184824825364847,-2.4593376444416214e-05,-0.007521234629746243,0.012591836201853227
3.131313131313131,5.468354430379747,0.013124135365856342,0.011817481831932113,-2.8927670788808853e-05,-0.007482485159336536,0.012522143791458136
3.2323232323232323,5.468354430379747,0.012999685872241108,0.011591288002540442,2.3179055486129393e-05,-0.007377292162434464,0.012355901393784263
3.3333333333333335,5.468354430379747,0.013017016607909822,0.011709571723675939,8.485407595146381e-05,-0.007417976499475728,0.012415905217362407
3.4343434343434343,5.468354430379747,0.013013795089098099,0.012013416629266548,-4.3139894179766386e-05,-0.007508163515509394,0.012543782625171042
3.5353535353535355,5.468354430379747,0.013123530068487745,0.011740298183313362,8.066553806134563e-05,-0.007459148475540332,0.012490276516433902
3.6363636363636362,5.468354430379747,0.012830006616101607,0.011540757788756122,-2.330614318294528e-05,-0.007311229321457318,0.012236494222297048
3.7373737373737375,5.468354430379747,0.012915869852300508,0.01167895108848893,-4.228147651579031e-05,-0.007378446282236831,0.012344194727415176
3.8383838383838382,5.468354430379747,0.012948827241554202,0.01160802788309383,0.00011283496170849977,-0.007367056537394409,0.01233475925094305
3.9393939393939394,5.468354430379747,0.01276604247501158,0.01162800731997253,2.4519077882732988e-05,-0.007318214938495233,0.012236852655652934
4.040404040404041,5.468354430379747,0.012859369077067797,0.01163733666460776,2.0367408535520124e-05,-0.007349011722502666,0.012294039814291256
4.141414141414141,5.468354430379747,0.012903353088150554,0.01149820747062407,-1.0836766694039048e-06,-0.007320468167632387,0.0122613159409499
4.242424242424242,5.468354430379747,0.01268396226706338,0.01157509483820265,-5.2746870376307795e-06,-0.007277717131579809,0.012167486864887127
4.343434343434343,5.468354430379747,0.012842804291911751,0.011513151523657773,2.0388536354837746e-05,-0.007306786744670857,0.012232349543846102
4.444444444444445,5.468354430379747,0.012952626761883074,0.011550630543925263,0.00011719674537493307,-0.007350977191742501,0.012313318193176763
4.545454545454545,5.468354430379747,0.012829654594524611,0.011659635568425543,5.63850680333679e-05,-0.007346787048885046,0.012286886480718314
4.646464646464646,5.468354430379747,0.012634807981352629,0.011526374366740916,-2.946242110331401e-05,-0.007248354704428063,0.012118777002062936
4.747474747474747,5.468354430379747,0.012852854221830374,0.011408800821534917,-2.6466075804688644e-05,-0.007278496513009587,0.01219520583620864
4.848484848484849,5.468354430379747,0.012836611978162115,0.011441531766937296,-1.950765117763506e-05,-0.007283443123529823,0.012199093989682355
4.94949494949495,5.468354430379747,0.01266705308296203,0.011532360114748274,-1.496352082185058e-05,-0.00725982395931309,0.012139572381197387
5.05050505050505,5.468354430379747,0.012752614805988,0.011619464461197868,4.10888566600426e-05,-0.00731162378015576,0.01222569626286561
5.151515151515151,5.468354430379747,0.012785789350793159,0.011294459349592622,-3.59182825684698e-05,-0.0072240746101157344,0.012109356449313744
5.252525252525253,5.468354430379747,0.012685296664620602,0.011540361251625924,8.267482382949674e-05,-0.007267697374873958,0.012154188108351054
5.353535353535354,5.468354430379747,0.01291342627971479,0.011465549700209647,2.9993197628024628e-05,-0.007313692793977331,0.012253920849069275
5.454545454545454,5.468354430379747,0.012955734356419344,0.01155642133490741,-1.0985292301711248e-05,-0.007353646707398026,0.012315858227830942
5.555555555555555,5.468354430379747,0.012877270147306743,0.011646500093180969,7.762502425738606e-05,-0.0073571310721463135,0.012308858591674132
5.656565656565657,5.468354430379747,0.012722303957099008,0.011587853426636397,-4.964861397352685e-05,-0.0072930472151206205,0.012195022200252648
5.757575757575758,5.468354430379747,0.012867524400644427,0.011675403392073501,-6.932186717486597e-05,-0.007362878337815378,0.012315401215460034
5.858585858585858,5.468354430379747,0.01296039258571169,0.011518245285892318,1.6553672461128992e-05,-0.007343591361481203,0.012302909887919997
5.959595959595959,5.468354430379747,0.012893549631927431,0.011648803068706068,-2.2354410978863117e-05,-0.007362705810190049,0.012318494781613227
6.0606060606060606,5.468354430379747,0.012840635765142881,0.011630578429574007,9.352258024000894e-06,-0.007341364258415066,0.012280412147059307
6.161616161616162,5.468354430379747,0.012885052355232553,0.011735399818307764,-1.0579550205051512e-05,-0.007386135652062094,0.012350436340663731
6.262626262626262,5.468354430379747,0.01302554625743846,0.011535495069500168,1.6418105511148413e-05,-0.007368312398081588,0.012348165282157094
6.363636363636363,5.468354430379747,0.01291955137417391,0.011881517266207056,-3.2839761759542714e-05,-0.007440320592114289,0.012433206460244123
6.4646464646464645,5.468354430379747,0.013031319321882137,0.01173016274504158,-1.4676413549911145e-05,-0.007428444620077115,0.012431940759876628
6.565656565656566,5.468354430379747,0.013003623325245931,0.011711674762984603,1.0774461166617249e-05,-0.0074145894264691595,0.012408210446321826
6.666666666666667,5.468354430379747,0.013217525641392572,0.011952758534060552,1.8746045810115233e-05,-0.007551085252635937,0.012632758308770448
6.767676767676767,5.468354430379747,0.013174882056542702,0.011797915188485759,4.0652333327806705e-05,-0.0074918391735085375,0.012543410091109005
6.8686868686868685,5.468354430379747,0.013002865436869317,0.011708132314478455,3.269094396580893e-05,-0.007413299325404332,0.012406401934239144
6.96969696969697,5.468354430379747,0.013201065845970916,0.011848954835396469,-1.1199680403946222e-05,-0.007515006204410216,0.01257964281970853
7.070707070707071,5.468354430379747,0.013128664218902459,0.011922592815693694,3.0010308032601358e-05,-0.007515377110378845,0.012569209512986247
7.171717171717171,5.468354430379747,0.013262670531136283,0.011817011517821522,2.0941824560960003e-05,-0.0075239046146873415,0.012602236947714304
7.2727272727272725,5.468354430379747,0.013249544928853356,0.012116227760930954,-1.922843866070993e-05,-0.007609731806935292,0.012720849857157445
7.373737373737374,5.468354430379747,0.013243286719272874,0.012021032770962673,-1.7658055190433613e-05,-0.007579295847070663,0.01267646732266262
7.474747474747475,5.468354430379747,0.013261895346843116,0.011912192765818038,-2.6262727065079383e-05,-0.007552226433798347,0.01264128237408788
7.575757575757575,5.468354430379747,0.013400177352543058,0.011976121852537188,1.5148543338590775e-05,-0.007612889761524073,0.01274797157675909
7.6767676767676765,5.468354430379747,0.013249756093512893,0.012265672348282658,8.752775524946303e-05,-0.007654628532538665,0.01278704700386818
7.777777777777778,5.468354430379747,0.013620954735266758,0.012187918205801203,2.0067035733088834e-05,-0.007742661882320388,0.012964022676272356
7.878787878787879,5.468354430379747,0.013700591156421752,0.01222378903266043,5.511785560569128e-06,-0.007777314056724655,0.013025136144045437
7.979797979797979,5.468354430379747,0.01365766219696298,0.012176528757013467,8.625702674315572e-05,-0.007750257286192934,0.012981486570721392
8.080808080808081,5.468354430379747,0.013672597046425096,0.012321920153930651,-3.0584311260901165e-05,-0.007798355160106724,0.013049895914187303
8.181818181818182,5.468354430379747,0.01368297711060727,0.01228920257310241,2.6738226254391596e-05,-0.007791653905112904,0.013042148203996257
8.282828282828282,5.468354430379747,0.013893184193541885,0.012284472507651278,-4.0359273071974955e-05,-0.00785329701035795,0.01316295100539352
8.383838383838384,5.468354430379747,0.013752634029313789,0.012343581943038586,-7.646326514933168e-06,-0.007828864791705713,0.013105051249583867
8.484848484848484,5.468354430379747,0.013888299768817882,0.01258949151329202,2.6213206448689888e-05,-0.00794333738463297,0.013286669874531667
8.585858585858587,5.468354430379747,0.0140322115911459,0.012611429783533945,-1.553029534766993e-05,-0.007993092412403953,0.013378549835632017
8.686868686868687,5.468354430379747,0.014215216180719324,0.012641661066708046,-3.3973910190486e-05,-0.008057063174228211,0.013497536194550087
8.787878787878787,5.468354430379747,0.014378954134335837,0.01287736477956935,4.3920348722361554e-05,-0.008176895674171557,0.01369027374152844
8.88888888888889,5.468354430379747,0.014288084041370067,0.012934594186491009,3.830461916416591e-05,-0.008166803468358323,0.013661877810038001
8.98989898989899,5.468354430379747,0.014592456552819743,0.012905488805541085,-4.9496957165582445e-05,-0.00824938360750825,0.013826640760301259
9.09090909090909,5.468354430379747,0.014635326280588019,0.01302062854691646,-2.1216381743876237e-05,-0.008296786448251343,0.013898551951125989
9.191919191919192,5.468354430379747,0.014690369269725894,0.013167729130531608,-2.1375879902875504e-05,-0.00835742952007725,0.013991376170679084
9.292929292929292,5.468354430379747,0.014813453591012821,0.01339023435852068,3.3303195046849416e-05,-0.00846110638486005,0.014155723066479787
9.393939393939394,5.468354430379747,0.01490301924556866,0.013444865719601877,-5.781621241419898e-05,-0.008504365489551162,0.014230436831729946
9.494949494949495,5.468354430379747,0.015079243169395233,0.01329681258429429,6.574145989476133e-05,-0.008512816726106856,0.014272207080399262
9.595959595959595,5.468354430379747,0.015145518171274977,0.013655367120958294,7.081181624341395e-05,-0.008640265587669982,0.01445867227509579
9.696969696969697,5.468354430379747,0.015266147091953463,0.013855101456010144,2.5033612809048984e-05,-0.008736374564389082,0.014611876903170753
9.797979797979798,5.468354430379747,0.015526219275854887,0.014176429599919268,1.2343824063208752e-05,-0.008910794662732245,0.014897273032213184
9.8989898989899,5.468354430379747,0.015580239324013286,0.014267984064433728,4.670116829123848e-05,-0.008954467016534105,0.014967536980369843
10.0,5.468354430379747,0.015998106722479227,0.014294079484469027,1.4943095945915198e-05,-0.009087655862084477,0.015217837816469407
0.0,5.5696202531645564,0.005417332583632627,0.004881159308085218,-7.891105464639954e-06,-0.0030895475675153535,0.00517015782695648
0.10101010101010101,5.5696202531645564,0.005594065214935182,0.004943661348521464,9.997851512103837e-06,-0.0031613179690369937,0.005298913949549848
0.20202020202020202,5.5696202531645564,0.005298037918764557,0.004590682711783799,9.531118238753717e-06,-0.002966616189164507,0.004982191786305993
0.30303030303030304,5.5696202531645564,0.0052582338230499825,0.004841128462380777,-3.7359013216705636e-05,-0.0030298086856292276,0.005062998063610644
0.40404040404040403,5.5696202531645564,0.005047134035418595,0.00475620215514605,-0.00011990054269491262,-0.0029410008571693932,0.004912530870736938
0.5050505050505051,5.5696202531645564,0.005187570072568672,0.004501963721622526,-9.181855312179611e-05,-0.00290686013825736,0.0048836052541773615
0.6060606060606061,5.5696202531645564,0.005095821532445551,0.004850129130910279,-3.069705264002973e-05,-0.002983785199006749,0.004977809171084057
0.7070707070707071,5.5696202531645564,0.005017910801441901,0.004460968737536849,-1.6749953826961392e-05,-0.0028436638616936246,0.004764007699236771
0.8080808080808081,5.5696202531645564,0.0050414437498256335,0.004583187694299875,-6.572106416298608e-05,-0.0028873894332376525,0.00482999372079882
0.9090909090909091,5.5696202531645564,0.005142969072923971,0.004487233330835904,5.7534656474464485e-05,-0.0028890607211279626,0.004849497120013721
1.0101010101010102,5.5696202531645564,0.0050382524254379574,0.004441023327450664,-6.454996578789832e-06,-0.0028437827258665864,0.004767788181891061
1.1111111111111112,5.5696202531645564,0.004904736996982822,0.004548021047784808,-1.496340476116288e-05,-0.0028358274134302887,0.004736535133933359
1.2121212121212122,5.5696202531645564,0.004903054117166383,0.004505747245583317,-2.356836630869734e-05,-0.0028226404088249096,0.004717143387395265
1.3131313131313131,5.5696202531645564,0.004900854817044004,0.004339870923176187,-3.5371968262964064e-06,-0.0027722177220660576,0.004645838759972249
1.4141414141414141,5.5696202531645564,0.004729092420668655,0.0041580421167454525,-4.9585476958051336e-05,-0.0026661403612242324,0.0044718273744978375
1.5151515151515151,5.5696202531645564,0.004757313837863255,0.004322838410363496,0.0001235329379092315,-0.0027240456744680253,0.004560663224336524
1.6161616161616161,5.5696202531645564,0.004794681261925714,0.004260946215331612,1.9070469695806965e-06,-0.0027166882431771977,0.00455134738150924
1.7171717171717171,5.5696202531645564,0.004822670149263959,0.0042607184897487565,-6.389550597335376e-05,-0.0027250165917038147,0.004569034629942194
1.8181818181818181,5.5696202531645564,0.004734793358853437,0.0043150664477254125,-7.616374900540695e-06,-0.0027149579419736545,0.0045395255993469765
1.9191919191919191,5.5696202531645564,0.004624089207367069,0.004144464226772934,-1.3255008428115303e-06,-0.002630566030242001,0.0044039093648946745
2.0202020202020203,5.5696202531645564,0.004702256931352099,0.004391351723453009,1.6032385204788482e-05,-0.0027280825964415326,0.004554854250142011
2.121212121212121,5.5696202531645564,0.0048390121871792775,0.004296221355038518,4.939177128726681e-05,-0.002740570062665338,0.004592538298644879
2.2222222222222223,5.5696202531645564,0.00489599009499988,0.004268561257323923,-2.2289689491970388e-05,-0.0027493654056971405,0.0046145412635362265
2.323232323232323,5.5696202531645564,0.004826300366857919,0.00420741265001651,-4.9471977216821414e-05,-0.0027101139050623286,0.00454935178370982
2.4242424242424243,5.5696202531645564,0.004531636854135689,0.004093401202614324,8.028850597430538e-05,-0.0025875114170250037,0.004331419740381846
2.525252525252525,5.5696202531645564,0.004648294301565445,0.004227980984126271,-5.890571804615085e-06,-0.0026628825857075147,0.004453051459052151
2.6262626262626263,5.5696202531645564,0.004699644631117442,0.003980227082677273,5.476780718181832e-05,-0.0026039615141384147,0.004385454706965592
2.727272727272727,5.5696202531645564,0.004599952327658544,0.004346073821969237,-7.633459848965019e-07,-0.0026838078448883345,0.004478413607214677
2.8282828282828283,5.5696202531645564,0.004352324979813674,0.004134583053338106,6.159502695306202e-05,-0.0025460724099455345,0.004248981347657232
2.929292929292929,5.5696202531645564,0.00449992524311001,0.003975532045752592,-1.7257831671390073e-06,-0.002542637186658781,0.004261994153901695
3.0303030303030303,5.5696202531645564,0.004610483104638033,0.0038639990082046365,-3.092017617196682e-05,-0.0025423446338528007,0.004286608078863414
3.131313131313131,5.5696202531645564,0.004661555019970729,0.003932115386753415,2.16150469249033e-05,-0.002578101122017243,0.0043431850098163485
3.2323232323232323,5.5696202531645564,0.00462361683184964,0.003911558939473829,-2.3320335860312645e-05,-0.002560552731397041,0.004312100150461688
3.3333333333333335,5.5696202531645564,0.004411803890655401,0.003951214842160466,-2.073423671424474e-06,-0.00250890561984476,0.004200492849929582
3.4343434343434343,5.5696202531645564,0.004663680651525908,0.003938495410809652,2.3915247963840735e-05,-0.0025806528187006677,0.004346894787560974
3.5353535353535355,5.5696202531645564,0.004256958462317014,0.0038460171454289187,5.146700424256665e-05,-0.0024308926823237795,0.004068065210508897
3.6363636363636362,5.5696202531645564,0.004528038679558706,0.003874359227278539,-8.038520987107057e-05,-0.0025207193720511735,0.004241453832337887
3.7373737373737375,5.5696202531645564,0.004627313969716726,0.003935842075574506,-3.491211133969857e-06,-0.0025689468135873693,0.004323256523149992
3.8383838383838382,5.5696202531645564,0.00428928913612986,0.003894974428645614,-3.810762218019429e-05,-0.002455279069432642,0.004106885944780585
3.9393939393939394,5.5696202531645564,0.0044488898257135584,0.003995732934685509,-1.6447885663427956e-05,-0.0025333868281197203,0.004240605896107953
4.040404040404041,5.5696202531645564,0.004386538570244611,0.00408192229771209,2.74961770808078e-05,-0.00254053826038701,0.004242707719418034
4.141414141414141,5.5696202531645564,0.004577263628102659,0.0039816653430160215,1.1843336610925077e-05,-0.002567678691335604,0.004310486059011038
4.242424242424242,5.5696202531645564,0.004449524630509327,0.003914582814411037,1.1959383022184313e-05,-0.002509232233476109,0.004207686356898262
4.343434343434343,5.5696202531645564,0.004409049737728874,0.003955586394710676,5.2139345585651645e-05,-0.002509390839731865,0.004201685577681718
4.444444444444445,5.5696202531645564,0.004167846272348813,0.003847198522902587,-7.6104554363066445e-06,-0.00240451343857542,0.004017153315344858
4.545454545454545,5.5696202531645564,0.0046295109708578,0.003852845189293795,-3.839974320522202e-05,-0.0025447068480454783,0.004294697012588831
4.646464646464646,5.5696202531645564,0.004608347847653998,0.003994984731080778,-4.077004005260859e-05,-0.002580999773620433,0.004334914092361783
4.747474747474747,5.5696202531645564,0.0042575948692745455,0.0037341864639695173,-0.00012838054391123562,-0.002397534399973219,0.004027661130336049
4.848484848484849,5.5696202531645564,0.004422160441116394,0.0037759148671800895,-1.7268861421059834e-05,-0.002459422592488945,0.004137176493361585
4.94949494949495,5.5696202531645564,0.004386700701737815,0.0038960733532142806,-4.834918124373969e-06,-0.0024848322164856282,0.004163135001052228
5.05050505050505,5.5696202531645564,0.004449790545102695,0.004005838729010667,-7.780160026071183e-05,-0.002536688782234009,0.0042473987078656345
5.151515151515151,5.5696202531645564,0.004447862247618976,0.003900439439531426,8.639722295511935e-05,-0.0025044905061451204,0.004203651092019112
5.252525252525253,5.5696202531645564,0.004282663747096791,0.004002812764681325,-3.403290610813962e-05,-0.0024856429535334346,0.004150240041512104
5.353535353535354,5.5696202531645564,0.004409500441601316,0.004174648677313812,6.14504623228602e-05,-0.002575244735674538,0.00429820881476152
5.454545454545454,5.5696202531645564,0.0044684060254019,0.004099005467574341,4.363851791185524e-05,-0.002570223447892872,0.004296299624365654
5.555555555555555,5.5696202531645564,0.004451548192442279,0.0038366195554228916,5.5936247770904374e-05,-0.002486450324359551,0.004179284707590769
5.656565656565657,5.5696202531645564,0.004420535729178267,0.003998900815770195,-9.233431822624512e-05,-0.0025258309634845384,0.004228550202223431
5.757575757575758,5.5696202531645564,0.004391642670558156,0.004042881149157818,-3.947318984165582e-05,-0.0025303571459147924,0.004228616601631669
5.858585858585858,5.5696202531645564,0.004542942049769666,0.003848018268286566,3.209231160492803e-05,-0.0025172880954168696,0.004238789073632245
5.959595959595959,5.5696202531645564,0.004591966426099818,0.003995116521220853,1.7957103315932914e-05,-0.002576124884196201,0.004324654681640533
6.0606060606060606,5.5696202531645564,0.00448900524294681,0.004073075483338404,-4.561923604796937e-05,-0.002568624217885564,0.0042968940071457335
6.161616161616162,5.5696202531645564,0.004616530448413945,0.003967997904289093,-7.566672007893465e-05,-0.002575358505810911,0.004330837559036922
6.262626262626262,5.5696202531645564,0.00445770497647665,0.0042853757075448275,-4.0566743288250824e-05,-0.0026229242052064434,0.0043746514119994
6.363636363636363,5.5696202531645564,0.004479184547089885,0.0038750720922017846,0.00012641437875188452,-0.0025062769917875006,0.004215454504305094
6.4646464646464645,5.5696202531645564,0.004506138629673355,0.004177726494494573,-2.51959639921419e-06,-0.0026051595372503784,0.0043512398597046545
6.565656565656566,5.5696202531645564,0.004424720383833734,0.003920311922487601,-4.236123087830295e-05,-0.0025035096918964005,0.004195961795815049
6.666666666666667,5.5696202531645564,0.004485094648501792,0.003985409670644686,1.256748601932601e-05,-0.0025411512957439434,0.004257358158307375
6.767676767676767,5.5696202531645564,0.004536837296662905,0.004022805084157653,1.5613245898668904e-05,-0.0025678927142461674,0.004302995767932746
6.8686868686868685,5.5696202531645564,0.004440874469143195,0.004021990317416593,8.613314990753752e-05,-0.002538859435967936,0.0042495734852880445
6.96969696969697,5.5696202531645564,0.004526000884622441,0.004042790834884431,-6.007360969127334e-05,-0.0025706375158520613,0.004306041495729257
7.070707070707071,5.5696202531645564,0.0044363777166820636,0.0040537559932155775,3.0184163546716234e-05,-0.0025470401129692923,0.004258300763405923
7.171717171717171,5.5696202531645564,0.004578253782612536,0.004031631438061021,-2.4613778474122235e-05,-0.002582965566202067,0.00433110209799282
7.2727272727272725,5.5696202531645564,0.004547535967575377,0.004042592156291815,-9.351414668389294e-05,-0.0025770384371601573,0.004320305101774497
7.373737373737374,5.5696202531645564,0.004550167472328798,0.003888581887508152,-2.5464572928520963e-05,-0.002531624807951085,0.004258325919594728
7.474747474747475,5.5696202531645564,0.004287006445782776,0.00414022119653404,-1.8480338252016666e-05,-0.0025281682926950448,0.004215652432851959
7.575757575757575,5.5696202531645564,0.0045334696178957155,0.004264258693338167,5.5537686257051e-05,-0.002639318493370165,0.004406088407508609
7.6767676767676765,5.5696202531645564,0.004730662407075826,0.004078233648997031,3.2807813870623374e-05,-0.0026426688168218575,0.004440905195216745
7.777777777777778,5.5696202531645564,0.00468540037963289,0.004178090089695283,-0.0001369071500521691,-0.0026590471407984518,0.004459777945804197
7.878787878787879,5.5696202531645564,0.0046658012319023365,0.004034939683790627,-8.002831359039582e-05,-0.0026102222747078894,0.004386733002257626
7.979797979797979,5.5696202531645564,0.004586249436387782,0.004225561391471944,1.831904944486151e-05,-0.002643543248357918,0.0044170783532243435
8.080808080808081,5.5696202531645564,0.0048611659922851574,0.004379306645080393,0.00011025609059653483,-0.002772141791209665,0.004642972558596778
8.181818181818182,5.5696202531645564,0.004851203676344253,0.0042785598270354604,-9.713122730949244e-06,-0.002738929051013914,0.004591771899254579
8.282828282828282,5.5696202531645564,0.004635546446561647,0.004483359412077163,3.7322392872925726e-05,-0.002735671757591643,0.004561815490329204
8.383838383838384,5.5696202531645564,0.004903704311359751,0.0042759074364713415,-5.283344906329609e-05,-0.002753883524349328,0.004622800965576948
8.484848484848484,5.5696202531645564,0.0048433112810621496,0.00434045303078822,-4.319086078671242e-06,-0.0027551292935551106,0.004612492548754871
8.585858585858587,5.5696202531645564,0.004760916961214551,0.004314140114934176,4.7832185148275094e-05,-0.002722517122844618,0.004554748747233663
8.686868686868687,5.5696202531645564,0.0048644167312802454,0.004355027736030197,2.499304012860504e-05,-0.0027658333401931324,0.0046309848724630145
8.787878787878787,5.5696202531645564,0.004981558878988785,0.004325618298957802,1.610028363943111e-05,-0.0027921531533839764,0.004688214793097773
8.88888888888889,5.5696202531645564,0.004960013820938605,0.004413570429099605,5.609745515688357e-06,-0.0028120752750114626,0.004710633196953328
8.98989898989899,5.5696202531645564,0.004741003465493633,0.00457860428213253,2.1670986541370796e-05,-0.0027958823242878487,0.004662076914685524
9.09090909090909,5.5696202531645564,0.0050126217104147774,0.004487645660717141,2.0340708579374143e-05,-0.0028500802113395752,0.004771971411648657
9.191919191919192,5.5696202531645564,0.005126192410859191,0.004372421171900624,1.9299830225289256e-05,-0.0028495840748279447,0.0047940755896729815
9.292929292929292,5.5696202531645564,0.005028713720911675,0.004589903850715816,0.000116219925764246,-0.0028855852714882472,0.004828497466849827
9.393939393939394,5.5696202531645564,0.005103907780171933,0.004499498418555181,-6.2686051838962204e-06,-0.0028810218596181337,0.004830160820094701
9.494949494949495,5.5696202531645564,0.005286003184916519,0.004779164569894182,-5.5972577129364446e-05,-0.00301955032644321,0.005052619450102104
9.595959595959595,5.5696202531645564,0.005043637333356137,0.004622931568594818,7.789467063148715e-05,-0.0028999706705852865,0.004848874748697603
9.696969696969697,5.5696202531645564,0.005268073862378229,0.004753539303872568,2.0103113542701978e-05,-0.0030064839498752387,0.005030701181538973
9.797979797979798,5.5696202531645564,0.0054860301669431375,0.00482509886864616,9.066068356149022e-05,-0.0030933387106767893,0.0051896171546248065
9.8989898989899,5.5696202531645564,0.005279947553375193,0.004902593391344837,4.4162139489322865e-05,-0.003054762283416009,0.005102321337305111
10.0,5.5696202531645564,0.005508088797330446,0.004796585172394417,-8.460911426028043e-05,-0.003091402190917459,0.005191120357731253
0.0,5.670886075949367,0.005641495302843288,0.004912206239862133,-2.5539332282267996e-05,-0.003166110462811626,0.005314697332740963
0.10101010101010101,5.670886075949367,0.005418998688257422,0.004796315070643982,-6.790455285217561e-05,-0.003064594127670421,0.00513739165811089
0.20202020202020202,5.670886075949367,0.00529219740487466,0.004802920840578065,-1.1240952548051442e-05,-0.0030285354736358174,0.005065350515190246
0.30303030303030304,5.670886075949367,0.005532335831379272,0.004813048333782463,-7.969535354753556e-05,-0.00310361524954852,0.005211892967768554
0.40404040404040403,5.670886075949367,0.0052373748760041125,0.00472186355345837,-2.4665032422964e-05,-0.0029877715288387442,0.004999774650716621
0.5050505050505051,5.670886075949367,0.005174544312331713,0.0048139073357001405,-0.00011685195106617739,-0.0029965354944095557,0.005008073380887799
0.6060606060606061,5.670886075949367,0.005186610956492133,0.004557420239898783,-6.160467845532671e-05,-0.0029232093589172748,0.004903553009468546
0.7070707070707071,5.670886075949367,0.004979182173226087,0.004489413988805712,7.056981967082055e-05,-0.0028405788486095397,0.00475483157158156
0.8080808080808081,5.670886075949367,0.00495831417475566,0.004318205359733894,7.383383693028051e-07,-0.002782955860346866,0.0046712696106276765
0.9090909090909091,5.670886075949367,0.005009038297648948,0.004471794615913141,-6.45940683574101e-05,-0.0028442498740686266,0.004764508205984667
1.0101010101010102,5.670886075949367,0.004908181126967189,0.004262088214698351,7.831087109807865e-05,-0.0027510808024996617,0.004621139985515714
1.1111111111111112,5.670886075949367,0.004957869767038939,0.004384236762638836,-2.4517614551278518e-05,-0.0028026319589033325,0.0046975880046077586
1.2121212121212122,5.670886075949367,0.0048732397091537,0.004270464014044707,4.061584389943905e-05,-0.002743111116959522,0.004602095423684269
1.3131313131313131,5.670886075949367,0.004773641890216732,0.004507114794515824,-0.00012473425645162444,-0.002784227005419767,0.004651135838056839
1.4141414141414141,5.670886075949367,0.005065516103277845,0.004584647530947757,4.901197387019559e-05,-0.0028950490902676807,0.0048437637226098895
1.5151515151515151,5.670886075949367,0.004962264824995689,0.004302924376924363,-6.46655097328005e-05,-0.0027795567605760157,0.00466899614383415
1.6161616161616161,5.670886075949367,0.004767245150914018,0.0045078962184823814,-4.440300625979358e-06,-0.00278254241081892,0.0046430127509997365
1.7171717171717171,5.670886075949367,0.00465455264339593,0.00414479103195035,-2.4290400175907497e-05,-0.0026398031026038838,0.004421965063771303
1.8181818181818181,5.670886075949367,0.004904966554082876,0.004272192928500308,6.614800562113514e-05,-0.0027531478447749553,0.0046226066849840534
1.9191919191919191,5.670886075949367,0.004727019166797151,0.004145859531500228,0.00010773358753352887,-0.0026618636094892134,0.004468794419929968
2.0202020202020203,5.670886075949367,0.004689479985059004,0.0042775567182636864,3.237350860835337e-05,-0.0026901110109968066,0.004498037519314218
2.121212121212121,5.670886075949367,0.004450593814528289,0.0042877743759283955,-2.735979152485139e-06,-0.0026215104571370054,0.004371461396596288
2.2222222222222223,5.670886075949367,0.0044869695483187476,0.0041449787581196405,-2.491763594987708e-05,-0.0025895844919315166,0.004326339541972623
2.323232323232323,5.670886075949367,0.004696533488037965,0.004309130189635843,1.116317617851763e-05,-0.0027016991033021426,0.004515354848188584
2.4242424242424243,5.670886075949367,0.004646583823187419,0.004052133351101182,-8.812155581219403e-05,-0.0026096151522865805,0.004382378905136435
2.525252525252525,5.670886075949367,0.004433913300096789,0.004041470601102422,-0.00014226881933013496,-0.0025426151703597634,0.004258434310052575
2.6262626262626263,5.670886075949367,0.004647315705317046,0.004172360530580219,3.419689756898391e-05,-0.0026459028707691797,0.0044293755003871295
2.727272727272727,5.670886075949367,0.004638480173147412,0.004139693280623654,6.208782812688342e-05,-0.00263345203613132,0.004411602686602957
2.8282828282828283,5.670886075949367,0.004598758030871181,0.004023786173745483,1.1224190837063216e-05,-0.002586763261384999,0.004339975756255659
2.929292929292929,5.670886075949367,0.004775282957997754,0.0038529602531579012,-3.6080279418242945e-05,-0.0025884729633466963,0.004387887870752788
3.0303030303030303,5.670886075949367,0.004311548032719955,0.003944764984351037,-0.0001290323754525961,-0.0024768939051212973,0.004146386568343199
3.131313131313131,5.670886075949367,0.0043803810064504895,0.003958088877560108,-3.225024738685389e-05,-0.0025015409652031795,0.0041856168265381796
3.2323232323232323,5.670886075949367,0.004324220030932942,0.004084819418516018,3.065343190128699e-05,-0.0025227118348346883,0.0042099631238501824
3.3333333333333335,5.670886075949367,0.004430739651347468,0.003953999532825378,6.179352505584537e-05,-0.0025154217552518536,0.004214009844711294
3.4343434343434343,5.670886075949367,0.0046934214086028336,0.004029498118150321,-1.9828236053374303e-05,-0.002616875858025946,0.004399330215622806
3.5353535353535355,5.670886075949367,0.004533367618739409,0.003932671673072477,-2.6528754691015238e-05,-0.0025398117875435654,0.004265113522692868
3.6363636363636362,5.670886075949367,0.004380656259980976,0.004184387695325827,-5.919880041736706e-05,-0.002569513186592041,0.004287120128372986
3.7373737373737375,5.670886075949367,0.004308012638356275,0.004185126973654837,-7.190170721384995e-06,-0.0025479418836033335,0.004247921359663443
3.8383838383838382,5.670886075949367,0.004636762198385311,0.003741501569601171,-2.135334383591971e-05,-0.0025134791303959444,0.004260435720962812
3.9393939393939394,5.670886075949367,0.004487147903058369,0.004075609420237387,-5.432700297336706e-05,-0.0025688271969887266,0.0042972177576080465
4.040404040404041,5.670886075949367,0.00434978961109428,0.003873119743271527,1.96938235071089e-05,-0.0024668728063097422,0.0041322673830174374
4.141414141414141,5.670886075949367,0.0044017454054149936,0.0039402792036805296,-5.003600672384063e-06,-0.002502607382728657,0.004190123153829171
4.242424242424242,5.670886075949367,0.004569709044066151,0.0038779625771775063,0.00011329499343129695,-0.0025343014863730973,0.004270618351309426
4.343434343434343,5.670886075949367,0.00429478045839735,0.004095916298936396,3.042465996174428e-05,-0.002517209027200124,0.004199212451594074
4.444444444444445,5.670886075949367,0.004471966529124472,0.0042091770018406385,5.73965187016833e-06,-0.002604343059289533,0.004346545275716413
4.545454545454545,5.670886075949367,0.004350401084628972,0.003981335051174883,-2.045563633332485e-05,-0.002499520840741156,0.0041782615237830065
4.646464646464646,5.670886075949367,0.00432381832456805,0.0037867464973509054,4.477464372460633e-05,-0.0024331694465756864,0.004082605093502441
4.747474747474747,5.670886075949367,0.004391721553951969,0.0040015019461915316,-3.88896886262243e-05,-0.0025179670500430503,0.004210735198417865
4.848484848484849,5.670886075949367,0.004450465757975684,0.004081090093253426,6.053636667819118e-05,-0.0025594667553687327,0.004279040085346124
4.94949494949495,5.670886075949367,0.004300459907822042,0.003965917673854152,1.712648735362151e-05,-0.0024799132745028586,0.00414343678727552
5.05050505050505,5.670886075949367,0.004371886331122057,0.003923816554439686,1.4275146008501269e-05,-0.0024887108656685233,0.004166036224559527
5.151515151515151,5.670886075949367,0.004443228069772782,0.004048287108116481,3.973593755732785e-05,-0.0025474545533667793,0.004260067852825482
5.252525252525253,5.670886075949367,0.004358635283868197,0.004006182024134996,1.4540186207830037e-05,-0.0025094451924009575,0.004193607501344725
5.353535353535354,5.670886075949367,0.0044857319076262985,0.003654037322625189,-6.644109089854569e-05,-0.0024419307690754463,0.004134729851895612
5.454545454545454,5.670886075949367,0.0044997418260082755,0.0042145298440168216,-5.518866421453611e-05,-0.002614281501007529,0.00436517805555827
5.555555555555555,5.670886075949367,0.004406820774507888,0.0038867910892696625,4.2851701912727506e-05,-0.002488083559133265,0.004171849877088713
5.656565656565657,5.670886075949367,0.004400304749021634,0.0037666004959337855,5.077069586366739e-05,-0.0024500715734866257,0.004121104720943371
5.757575757575758,5.670886075949367,0.00454554929896754,0.0037214587372825835,2.7590278262188334e-05,-0.002480102410875037,0.004194935408157491
5.858585858585858,5.670886075949367,0.0043023097245859405,0.0040270675281801616,-5.73858500997028e-05,-0.0024988131758298306,0.004172688517264505
5.959595959595959,5.670886075949367,0.004545306214879994,0.004085056368068729,2.3470612317791134e-05,-0.0025891087748846167,0.004333741412259781
6.0606060606060606,5.670886075949367,0.004329841544710714,0.004086119988931647,7.4951835981047405e-06,-0.0025247884600927083,0.004213290972011309
6.161616161616162,5.670886075949367,0.004521540248527546,0.004047225724806279,3.3870944451347945e-05,-0.002570629792000148,0.0043044291142536745
6.262626262626262,5.670886075949367,0.004429672235710899,0.0038197483828153384,-7.570459633756511e-05,-0.002474826185557871,0.004160460794528603
6.363636363636363,5.670886075949367,0.004363869852145957,0.0039151263917165885,1.6140915506454183e-05,-0.0024836988731587635,0.004157794404355666
6.4646464646464645,5.670886075949367,0.004553598019234023,0.0038783015680912422,-0.00011458402312136634,-0.002529569876197579,0.004260943572783211
6.565656565656566,5.670886075949367,0.004347182629816802,0.004072522744164692,-3.639544576798934e-05,-0.0025259116121944484,0.004217038305632401
6.666666666666667,5.670886075949367,0.004400842189302538,0.0041519908353912,8.441112029501654e-05,-0.0025658499074081216,0.004284338822504468
6.767676767676767,5.670886075949367,0.004525953937024237,0.004114329030593858,8.022257632717636e-05,-0.002592084890285429,0.004337050348229878
6.8686868686868685,5.670886075949367,0.004685209885066218,0.004066498051955748,-7.606465119994612e-06,-0.00262551238110659,0.004408556994980487
6.96969696969697,5.670886075949367,0.004364994929416324,0.00418991647134996,-3.533036056687928e-05,-0.002566473420229885,0.004280579554421663
7.070707070707071,5.670886075949367,0.004681372295324033,0.004166750916322807,-8.004216848479647e-05,-0.002654436963494052,0.004448614133763682
7.171717171717171,5.670886075949367,0.004340262196616414,0.003998537750393249,5.7520928188882576e-06,-0.0025016399841028985,0.004179901565424403
7.2727272727272725,5.670886075949367,0.004578511031456604,0.004023538531893929,-4.1904701378752546e-05,-0.00258061486900516,0.004328403636565198
7.373737373737374,5.670886075949367,0.0044960972430354955,0.004075468482757826,0.0001011158670303982,-0.002571469717737996,0.004304800160178655
7.474747474747475,5.670886075949367,0.004633787752818058,0.004025676720129784,1.905605387141787e-05,-0.0025978393418843526,0.004361767979866284
7.575757575757575,5.670886075949367,0.0045234302810892284,0.004123954186131904,3.997812393354748e-05,-0.0025942153401663395,0.004338063524776445
7.6767676767676765,5.670886075949367,0.004599055564186329,0.004144198052513057,-3.6020293347752866e-06,-0.0026229760850098155,0.004389342934001844
7.777777777777778,5.670886075949367,0.004841716263025098,0.004147390873988283,-2.2843708686859293e-05,-0.0026967321411040138,0.004534770456666112
7.878787878787879,5.670886075949367,0.004606158858410225,0.004322650227906508,-7.587080258010241e-05,-0.0026786427258950196,0.004473081702663509
7.979797979797979,5.670886075949367,0.004622235630487213,0.00402414384347655,0.0001737014077171882,-0.002593913842189129,0.0043644898187922805
8.080808080808081,5.670886075949367,0.00464001683498793,0.00419594297978155,7.792652405647478e-06,-0.002650787944430844,0.004434707411995544
8.181818181818182,5.670886075949367,0.004743535316847667,0.004190154498758083,-6.800509885568634e-05,-0.0026801069446817254,0.004494023838181959
8.282828282828282,5.670886075949367,0.0047018929875094284,0.004092278551555721,9.241074290851524e-05,-0.002638251461719545,0.0044315578323240856
8.383838383838384,5.670886075949367,0.004913528350973187,0.004283642504781275,-3.329739756357261e-05,-0.002759151256726338,0.004631185725271986
8.484848484848484,5.670886075949367,0.004746489124034963,0.004398372819141841,3.347527052262095e-05,-0.002743458582953041,0.004582725771028622
8.585858585858587,5.670886075949367,0.004782839530167046,0.004387778952006884,1.1962126548731438e-05,-0.0027511855446521794,0.004598102299767199
8.686868686868687,5.670886075949367,0.0047716947074566,0.00426054210054265,7.514011019810683e-05,-0.002709671042399775,0.004539627879913955
8.787878787878787,5.670886075949367,0.005145692279739159,0.0043817175532775985,7.441813152840644e-05,-0.002858222949905027,0.004811158045987541
8.88888888888889,5.670886075949367,0.005198107687871681,0.004405567876225195,1.6725008082219145e-05,-0.0028811026692290628,0.004850729303679747
8.98989898989899,5.670886075949367,0.005117571826999591,0.0044414987912973535,9.665555320250895e-05,-0.002867721185489083,0.004818172965086907
9.09090909090909,5.670886075949367,0.005239614083198312,0.004379213344396714,-2.5549075631222146e-05,-0.0028856482282785074,0.0048669945150737704
9.191919191919192,5.670886075949367,0.004892771905864352,0.004408759783601573,-0.00010243459002333469,-0.0027904595068397775,0.00467298644114312
9.292929292929292,5.670886075949367,0.005314794424932005,0.004649090163215576,-2.6497987011872248e-05,-0.0029891653764442744,0.005015398994544584
9.393939393939394,5.670886075949367,0.005014052071310691,0.0047442969699073925,3.152757149144311e-05,-0.002927504712365425,0.004885069275547968
9.494949494949495,5.670886075949367,0.005241194921710913,0.004623571832051904,-4.837806064976139e-06,-0.002959430026128845,0.0049613072571952814
9.595959595959595,5.670886075949367,0.005316014357728925,0.004724058542058414,2.2677842753361146e-05,-0.0030120218699362018,0.005046297412727125
9.696969696969697,5.670886075949367,0.00527480548343769,0.00471355925696437,-2.3450114452954364e-05,-0.0029965094221206176,0.005017943330237823
9.797979797979798,5.670886075949367,0.005438669816073264,0.004689023288975936,-3.798130358809068e-05,-0.0030383079315147595,0.005105717097771267
9.8989898989899,5.670886075949367,0.0053050145166432154,0.004805313968048982,5.840024818095931e-05,-0.0030330985454076593,0.005074661837281026
10.0,5.670886075949367,0.005310619593543953,0.005076313867112974,-6.799367176690036e-05,-0.003116080038197078,0.005198763360387585
0.0,5.772151898734177,0.005527528870732932,0.00478558483472749,5.920283285134118e-05,-0.0030939341116381263,0.00519744689401583
0.10101010101010101,5.772151898734177,0.005402336033621178,0.004796596700793913,-0.00013194742740743468,-0.003059679820324527,0.00513146935151909
0.20202020202020202,5.772151898734177,0.005268395623608444,0.004773738125528058,1.3719285678889492e-05,-0.0030126401247409502,0.005039364220374486
0.30303030303030304,5.772151898734177,0.005430483458499722,0.004862708004461023,-4.6808159538930396e-05,-0.0030879574388882236,0.005170667013001988
0.40404040404040403,5.772151898734177,0.0052875298376875695,0.004654258838927712,7.511932297985537e-05,-0.002982536602984584,0.005002748582437113
0.5050505050505051,5.772151898734177,0.005362789166478367,0.004591691960721263,3.026119250428413e-06,-0.002986344338159889,0.0050218417214883794
0.6060606060606061,5.772151898734177,0.005314002176972858,0.004715329841757227,2.3659151405665748e-06,-0.0030087996056190254,0.005041398456962005
0.7070707070707071,5.772151898734177,0.005127743365872389,0.00463314480612518,-2.8537953216051645e-05,-0.0029282664515992707,0.004899453900421945
0.8080808080808081,5.772151898734177,0.005037657259424468,0.004523513823856743,-7.122333209072313e-06,-0.0028683513249843635,0.004801292316458899
0.9090909090909091,5.772151898734177,0.004887640661667513,0.004444609945706458,-6.11346302674074e-05,-0.0027996751822121912,0.004683070022989779
1.0101010101010102,5.772151898734177,0.005011355334813574,0.004448216144775114,-1.0716394047803797e-05,-0.0028378714438766065,0.004754898734798037
1.1111111111111112,5.772151898734177,0.005030377192305133,0.00465892940316671,-5.992211288176871e-05,-0.002906791978641553,0.004856430546105035
1.2121212121212122,5.772151898734177,0.004900488065557043,0.004305283246680117,0.0001102464084215985,-0.002761731393671148,0.0046355928161695235
1.3131313131313131,5.772151898734177,0.004789186901361378,0.0044107355148491805,3.675716881201138e-05,-0.0027599767248631672,0.004612061954637574
1.4141414141414141,5.772151898734177,0.004926856169941167,0.0045723179056481045,-3.0409933221484965e-05,-0.0028497522226767816,0.004759792469986311
1.5151515151515151,5.772151898734177,0.004816779598481633,0.0042916983835663705,3.284817442200709e-05,-0.002732543394614401,0.004577238524126153
1.6161616161616161,5.772151898734177,0.004804615688312148,0.004319973462580232,1.929885690260717e-05,-0.002737376745267714,0.004581681754116142
1.7171717171717171,5.772151898734177,0.004696043536728704,0.004148313460903413,4.920903677954293e-05,-0.002653307099289635,0.004448363006799922
1.8181818181818181,5.772151898734177,0.004664337846824164,0.0042611838732748274,-3.200570557579507e-05,-0.0026776565160296973,0.004476740715559635
1.9191919191919191,5.772151898734177,0.004752489402504378,0.004228387947291589,1.9153395655911094e-05,-0.0026942632049387905,0.004513441237263663
2.0202020202020203,5.772151898734177,0.00451122121353151,0.004291409457934057,9.976105649130997e-06,-0.0026407892014396702,0.004405464011716868
2.121212121212121,5.772151898734177,0.0047961847503615205,0.004098853117981755,6.813596744722584e-05,-0.0026685113605029826,0.004489883712762859
2.2222222222222223,5.772151898734177,0.004490580277725618,0.004315147406121862,-4.019450356032565e-05,-0.002641718305154244,0.00440603442158572
2.323232323232323,5.772151898734177,0.004625895724857071,0.004255143083576315,-9.901601214550692e-06,-0.002664311642530016,0.004452145532786108
2.4242424242424243,5.772151898734177,0.004721681954607832,0.004181601854858433,3.3478408193238274e-06,-0.00267098514283988,0.0044761494789271146
2.525252525252525,5.772151898734177,0.004577285762460188,0.0041155221356119496,2.2420435303269276e-05,-0.0026078423694216413,0.0043649346560130685
2.6262626262626263,5.772151898734177,0.0044989760138204205,0.004048131943820576,1.0623662262727425e-05,-0.0025641323872922987,0.004291392254045608
2.727272727272727,5.772151898734177,0.004700228159207244,0.0039878071979033035,5.4968462690931385e-05,-0.0026064106071331636,0.00438864579418885
2.8282828282828283,5.772151898734177,0.004466883609930372,0.0042177847450749935,-7.971921097094057e-05,-0.0026054005065016092,0.0043498815214044135
2.929292929292929,5.772151898734177,0.004489543005362052,0.004180296425160295,-5.0641412598593283e-05,-0.002600951829156704,0.0043440704047350365
3.0303030303030303,5.772151898734177,0.004466432466780226,0.0038623550770085827,4.473464257955729e-05,-0.0024986362631366425,0.004197840060287917
3.131313131313131,5.772151898734177,0.004556137810869884,0.004058982340120962,-0.00010266283841836833,-0.0025845360452972535,0.004332674168541891
3.2323232323232323,5.772151898734177,0.004571235451382157,0.004118136536163399,-1.616852512610065e-05,-0.002606811596263667,0.004362459698189649
3.3333333333333335,5.772151898734177,0.004283030796180455,0.004107110385355377,-0.00011984319816985929,-0.0025170423544607495,0.004202965076131048
3.4343434343434343,5.772151898734177,0.004526820615307671,0.003933921431275275,2.551591224864399e-05,-0.0025382226139748837,0.004261647482119738
3.5353535353535355,5.772151898734177,0.004366928663913288,0.0039505249210915125,5.664157838861626e-05,-0.0024952360755014402,0.004175485288880964
3.6363636363636362,5.772151898734177,0.0045033900518924135,0.004174447194010198,2.7141969533012145e-05,-0.002603351173770783,0.004348514393323061
3.7373737373737375,5.772151898734177,0.004598204267628944,0.003859386120844987,0.00010811170017332855,-0.0025372771165421792,0.004281023522997475
3.8383838383838382,5.772151898734177,0.004420076403843781,0.003997680077735085,4.916045390862156e-05,-0.0025253269444736595,0.004225602949723134
3.9393939393939394,5.772151898734177,0.004476925732113001,0.004035017928107134,-5.365499839996623e-05,-0.0025535830980660404,0.004274154264375738
4.040404040404041,5.772151898734177,0.004377127420584222,0.004196353035191733,-6.168346443392732e-05,-0.0025720441367327864,0.004290928322001815
4.141414141414141,5.772151898734177,0.004413449482932456,0.004222725928176826,-0.00016098734796209406,-0.0025908526233327845,0.004330232536161045
4.242424242424242,5.772151898734177,0.0044996408683281915,0.003770300585551905,7.600162390284728e-05,-0.0024809824361640286,0.004185004729892055
4.343434343434343,5.772151898734177,0.00433904311592835,0.004020988799009105,2.5483279587908214e-05,-0.0025080095744812367,0.004189313847003122
4.444444444444445,5.772151898734177,0.00446517329720775,0.0038450410295143515,3.051444145692145e-05,-0.00249306429801663,0.004190003813184723
4.545454545454545,5.772151898734177,0.004169265670921779,0.0037870124779359887,-5.556716504276212e-05,-0.00238688344465733,0.003993049179843825
4.646464646464646,5.772151898734177,0.0046062375691026825,0.003963721819479914,1.4113959309588467e-05,-0.002570987816574779,0.004321026320032765
4.747474747474747,5.772151898734177,0.004349776449627702,0.0038768597627003095,7.888138866529268e-05,-0.0024679908636984034,0.004135914688132569
4.848484848484849,5.772151898734177,0.004247538656938283,0.003911519153632433,-5.949441853619319e-05,-0.0024477173431712144,0.004091192573873915
4.94949494949495,5.772151898734177,0.004484028443502627,0.003915806820088467,-2.5231328119254155e-05,-0.002519950579077328,0.004228873943925223
5.05050505050505,5.772151898734177,0.004300491637432215,0.004006656070130982,-8.459113290781344e-06,-0.002492144312268959,0.0041613873809187175
5.151515151515151,5.772151898734177,0.004345321268664797,0.004128605944430329,-5.469110621853117e-05,-0.002542178163928538,0.004242176104704435
5.252525252525253,5.772151898734177,0.004420979095746582,0.004057044762518994,6.0640550177694244e-05,-0.0025434071574796727,0.004252010126220773
5.353535353535354,5.772151898734177,0.0046131729906023055,0.004057455528953363,-3.0236451353895973e-05,-0.0026011885558667007,0.004362259607461553
5.454545454545454,5.772151898734177,0.004371980046137362,0.00403301749808825,3.731427192075095e-05,-0.002521499263267684,0.004213234470215434
5.555555555555555,5.772151898734177,0.004469412572939318,0.003950393525174133,-7.994998985697315e-05,-0.002525941829434035,0.004236094340787138
5.656565656565657,5.772151898734177,0.004480087914147927,0.004085327623312678,4.702527812655606e-05,-0.0025696246612381814,0.004297103295024076
5.757575757575758,5.772151898734177,0.004488496880297476,0.004231547801785992,2.049860691234146e-05,-0.002616013404625041,0.004365841558594403
5.858585858585858,5.772151898734177,0.0044661760173526814,0.004104853591747181,-5.1470794637703044e-05,-0.0025713088827299586,0.0042978483325441606
5.959595959595959,5.772151898734177,0.004388672089635662,0.004050677137445591,1.5365711278075666e-05,-0.002531804768124376,0.004229898651290355
6.0606060606060606,5.772151898734177,0.004452582316735913,0.003972883208171685,3.065083951725665e-05,-0.002527639657472279,0.004233499636920847
6.161616161616162,5.772151898734177,0.004530259066858011,0.004011211386179483,1.557547299354465e-05,-0.0025624411359112483,0.004294410906308148
6.262626262626262,5.772151898734177,0.004532244383335044,0.00392655673269883,-1.4467386025687773e-05,-0.002537640334810162,0.0042618775373688455
6.363636363636363,5.772151898734177,0.0043854469090199985,0.004119891807979769,-4.1736264613578175e-06,-0.00255160161509993,0.004258889358032642
6.4646464646464645,5.772151898734177,0.004455451512125336,0.0040674533950448505,2.4896419533734803e-05,-0.002556871472151056,0.004274896889215775
6.565656565656566,5.772151898734177,0.004403246955060326,0.004012684803983085,-8.51013046696324e-05,-0.0025247795277130235,0.004224110277298507
6.666666666666667,5.772151898734177,0.004267816645476384,0.004004923989341317,5.858253238847727e-05,-0.00248182219044531,0.0041438737376434925
6.767676767676767,5.772151898734177,0.004332269674956504,0.00416094738839375,1.2777746571899951e-05,-0.002547965119005076,0.004249257267820244
6.8686868686868685,5.772151898734177,0.004517318251470858,0.00402915544884824,4.7905369363276614e-05,-0.0025639421100957295,0.0042948998989733485
6.96969696969697,5.772151898734177,0.004538766610852867,0.004410141079244922,7.830174589461194e-06,-0.0026846723070293363,0.004475860759888674
7.070707070707071,5.772151898734177,0.004312728583707914,0.004062723145383507,6.480256922902795e-05,-0.0025126355187274265,0.0041948209824633756
7.171717171717171,5.772151898734177,0.004546275195342518,0.003969999190376228,6.937003644738055e-05,-0.002554882315715624,0.004288967181561007
7.2727272727272725,5.772151898734177,0.004369268839427055,0.004106732626036767,-1.1972706815481745e-05,-0.0025428004396391463,0.004244145873467082
7.373737373737374,5.772151898734177,0.004561023605331646,0.004135773916218067,-5.505278708246233e-05,-0.0026090392564649136,0.004365007695797723
7.474747474747475,5.772151898734177,0.004448769332773347,0.004073648835913574,-3.251508384537496e-05,-0.002556725450606076,0.0042739456118318685
7.575757575757575,5.772151898734177,0.004554635615861414,0.004002873496109947,-4.095455846112419e-05,-0.002567252733591408,0.004305938162066303
7.6767676767676765,5.772151898734177,0.004672686235974379,0.003932485087171083,2.474540158338384e-05,-0.0025815513969436386,0.004350287770410955
7.777777777777778,5.772151898734177,0.004717024673561196,0.004213179948470182,0.00012227603332133014,-0.0026790613866094133,0.0044913681170734125
7.878787878787879,5.772151898734177,0.004517074629566577,0.004270169093779975,3.524313468087315e-05,-0.002636173117003966,0.0043992455099370505
7.979797979797979,5.772151898734177,0.00473981519446157,0.004058037371718858,6.396020086099207e-05,-0.0026393557698541283,0.0044397568532108
8.080808080808081,5.772151898734177,0.0046454577455154866,0.0041260278320112065,2.1267294322507943e-05,-0.0026314456732580076,0.0044089060183786395
8.181818181818182,5.772151898734177,0.004790973219326241,0.004353194066983442,-9.013408212450208e-05,-0.002743250185892905,0.0045904312692768645
8.282828282828282,5.772151898734177,0.004745388352804419,0.0042448035285238776,3.922787254560204e-06,-0.002697057564398489,0.00451595754577917
8.383838383838384,5.772151898734177,0.004759528323589245,0.004309309186180437,-1.291365859208391e-05,-0.0027206512529309042,0.004551206069401049
8.484848484848484,5.772151898734177,0.004752329103318758,0.004445938000617929,-1.2127155301423113e-05,-0.002759480131181006,0.00460682941548618
8.585858585858587,5.772151898734177,0.004678943787447647,0.004375011539397964,-6.670183478949129e-05,-0.002716186598053683,0.004536094716600972
8.686868686868687,5.772151898734177,0.0050151136654462344,0.00437662023856491,-8.752376573021019e-05,-0.002817520171203343,0.0047307402223932035
8.787878787878787,5.772151898734177,0.00472126488534538,0.004235158583325163,6.585845191539132e-05,-0.002686927040601162,0.004499401832160806
8.88888888888889,5.772151898734177,0.005069688976094553,0.004411175326567553,6.851789642378375e-05,-0.0028442592907986317,0.004776087442428604
8.98989898989899,5.772151898734177,0.0049827224492096,0.0043694022185797946,2.816027882894956e-05,-0.0028056374003368185,0.004706384943176104
9.09090909090909,5.772151898734177,0.005012336017445659,0.004571159316476955,-2.503297481900755e-05,-0.0028750486001767835,0.004807151268102785
9.191919191919192,5.772151898734177,0.0050025964105612965,0.004545281490839422,1.0931545988205733e-05,-0.0028643633704202153,0.004790376217266999
9.292929292929292,5.772151898734177,0.005045138282675502,0.00455709577606244,-4.0665512777496914e-05,-0.002880670217621383,0.0048201996740468095
9.393939393939394,5.772151898734177,0.0051554192412413625,0.004731231939201716,-7.576834357626559e-05,-0.0029659953541329234,0.0049586935342903335
9.494949494949495,5.772151898734177,0.005310015001569421,0.004275889951378227,9.526925289220733e-06,-0.0028757714858842942,0.00487593341763684
9.595959595959595,5.772151898734177,0.0051465442880252255,0.004680142727020117,8.227333981537361e-05,-0.0029480061045136026,0.004931977183881665
9.696969696969697,5.772151898734177,0.005404550161637777,0.004700389537185287,3.468150336361737e-05,-0.003031481909646919,0.0050894932594523845
9.797979797979798,5.772151898734177,0.0051639926341249314,0.004774110886306422,5.381618340687521e-05,-0.0029814310561294063,0.004981382315527837
9.8989898989899,5.772151898734177,0.005348589224306071,0.00481723055918608,-7.2707626001255605e-06,-0.003049745935047645,0.005103713166198218
10.0,5.772151898734177,0.005474867663213466,0.005067560425432833,-6.716603332830251e-05,-0.003162728426593889,0.005284283841603341
0.0,5.8734177215189876,0.005574058058919989,0.005038753096274529,1.7494577131052254e-05,-0.0031838433465583554,0.005326703660512468
0.10101010101010101,5.8734177215189876,0.005564703756664747,0.004886942702072458,-3.917031758379259e-05,-0.0031354939376211617,0.005259120782154453
0.20202020202020202,5.8734177215189876,0.005463148576311724,0.004754466824664168,-4.637802896835018e-05,-0.003065284620292768,0.005146167627868004
0.30303030303030304,5.8734177215189876,0.005240040711148555,0.004792829812979034,-5.021419152921826e-05,-0.003009861157238276,0.005032115392571105
0.40404040404040403,5.8734177215189876,0.005237827294370899,0.004477447275108914,4.013996965063257e-06,-0.002914582370843944,0.004902073199869606
0.5050505050505051,5.8734177215189876,0.005269103511422664,0.004706295548104339,-4.787161895353022e-05,-0.002992619717858101,0.005012143880375706
0.6060606060606061,5.8734177215189876,0.0051685224318857885,0.0046386024570734975,1.2760175459504967e-05,-0.0029421374666877853,0.004925040557997796
0.7070707070707071,5.8734177215189876,0.0051326838458894,0.004709135477082788,-1.3610204731967599e-05,-0.0029525457968916564,0.004934617768892011
0.8080808080808081,5.8734177215189876,0.00488910144859955,0.004503686526072458,-3.3215608523917176e-05,-0.0028178363924016023,0.004708591595277142
0.9090909090909091,5.8734177215189876,0.005033427066686824,0.004340679264673009,0.0001264602243764795,-0.0028122318994079497,0.004730366643385522
1.0101010101010102,5.8734177215189876,0.005136886508739351,0.004492009818300184,1.5076809315011972e-05,-0.0028886688981118605,0.0048468022973049
1.1111111111111112,5.8734177215189876,0.00490760853816026,0.004497907228093912,4.4851377443631445e-05,-0.0028216547298762513,0.004716763510935468
1.2121212121212122,5.8734177215189876,0.004671485756336929,0.004511855483686421,4.220972228010105e-05,-0.002755002372007005,0.004594332969278908
1.3131313131313131,5.8734177215189876,0.004837716167613746,0.004220841721719858,4.565003239648413e-05,-0.0027175673668000814,0.004561361649384215
1.4141414141414141,5.8734177215189876,0.004890157408286817,0.004432998523371661,-1.6913969592628764e-06,-0.002796946779497543,0.0046783611872661494
1.5151515151515151,5.8734177215189876,0.004923015707977528,0.004189889009974874,-2.548623576620064e-05,-0.0027338714153857207,0.004600686123911691
1.6161616161616161,5.8734177215189876,0.0046454164316482045,0.0041751286236665856,-7.38568381296365e-05,-0.002646163516594437,0.004430885490799462
1.7171717171717171,5.8734177215189876,0.004606301476391582,0.004208820756096488,-2.0945322185943106e-05,-0.0026445366697464205,0.004421131563892383
1.8181818181818181,5.8734177215189876,0.004622985985330971,0.004300395742141057,-7.104079069698529e-05,-0.002677014518241608,0.0044721218782726585
1.9191919191919191,5.8734177215189876,0.004811904604888838,0.004164934139637393,5.296286513161117e-05,-0.0026930516233578694,0.004524185202192371
2.0202020202020203,5.8734177215189876,0.0047764551472153785,0.0043803531586539615,-1.8254498474023233e-06,-0.0027470424917608017,0.004591238087206718
2.121212121212121,5.8734177215189876,0.004523303453920882,0.004210674300196341,1.0220001502810052e-05,-0.002620193326235167,0.004375409459520866
2.2222222222222223,5.8734177215189876,0.004546540050129468,0.00408955436876404,9.394175096666318e-05,-0.002590828325668052,0.004339197367655074
2.323232323232323,5.8734177215189876,0.0045551877897652025,0.004354461625596217,-2.393591869045245e-05,-0.0026728948246084257,0.004458407810587731
2.4242424242424243,5.8734177215189876,0.00461917949758526,0.0040676919281651,1.6916929425208734e-06,-0.002606061427725108,0.004369616262530758
2.525252525252525,5.8734177215189876,0.0045959961099088275,0.003983231067477095,-1.4270617614702647e-05,-0.002573768153215777,0.0043223843466078295
2.6262626262626263,5.8734177215189876,0.004556957509441913,0.004036089733586891,5.974265569989806e-05,-0.0025779141729086416,0.004321377120190342
2.727272727272727,5.8734177215189876,0.004453540633792813,0.004149652350087246,2.5167514237051627e-05,-0.002580957895164018,0.0043098600508043785
2.8282828282828283,5.8734177215189876,0.004392810648767535,0.004200828152410732,-1.2661864714290555e-05,-0.00257809164035348,0.004300090800077812
2.929292929292929,5.8734177215189876,0.004335162947238684,0.00411971301883972,-2.2013481325509605e-05,-0.0025364627898235214,0.004231725379116431
3.0303030303030303,5.8734177215189876,0.004547510471817319,0.004208926002499378,4.634311157573654e-05,-0.002626930942295009,0.004388760367837939
3.131313131313131,5.8734177215189876,0.0044015740927032055,0.004110557389504209,-5.5240344063537196e-05,-0.0025536394446622245,0.004264594719382961
3.2323232323232323,5.8734177215189876,0.004285012249026913,0.0040571024758612505,-9.922883588384992e-06,-0.002502634417466449,0.004175760057783902
3.3333333333333335,5.8734177215189876,0.0044470139977387906,0.0038835182556163895,-1.5377709441573574e-05,-0.002499159676006554,0.004193840354190094
3.4343434343434343,5.8734177215189876,0.004424115305045839,0.00401831505593747,2.1821116441415974e-05,-0.0025327291082949924,0.004235987661102632
3.5353535353535355,5.8734177215189876,0.004466185636848931,0.0040257437262740964,-3.4820855971601354e-05,-0.002547578808936908,0.0042634898100667095
3.6363636363636362,5.8734177215189876,0.004581032155726967,0.004107260283131174,4.291577524216966e-05,-0.0026064877316574423,0.004364112339012481
3.7373737373737375,5.8734177215189876,0.004448080581428076,0.003914833042595657,0.00010107075780664017,-0.00250887408720712,0.004210521543493679
3.8383838383838382,5.8734177215189876,0.004416682487578107,0.0039947855105315995,-1.2445190342055892e-05,-0.0025234403994329117,0.00422163012514415
3.9393939393939394,5.8734177215189876,0.004692081967601754,0.003983999433712873,-4.7357667852745716e-05,-0.002602824420394388,0.0043819357620544395
4.040404040404041,5.8734177215189876,0.004312394622014418,0.003960887116806103,3.712358681692259e-05,-0.002481984521646156,0.004148325000434883
4.141414141414141,5.8734177215189876,0.0043325084610918215,0.0039718099752776535,7.6910078319245e-06,-0.0024912955309108423,0.004163914165327184
4.242424242424242,5.8734177215189876,0.004499336986739546,0.003910477215014011,4.670971235290047e-05,-0.002522944260526067,0.004236490999843586
4.343434343434343,5.8734177215189876,0.0043285256253479095,0.0038772990213298527,-1.9830629169558136e-05,-0.0024617473940033285,0.004121622663550861
4.444444444444445,5.8734177215189876,0.004398626589236976,0.004060074662320322,-8.466754632984925e-06,-0.0025376103754671895,0.004239526486412195
4.545454545454545,5.8734177215189876,0.004336151616807813,0.003895792906705256,-7.490851196926686e-05,-0.0024695833570539207,0.004135637600203618
4.646464646464646,5.8734177215189876,0.004588770392758226,0.003926480803342003,-0.00014755690335038383,-0.0025545753588300684,0.004303680457182838
4.747474747474747,5.8734177215189876,0.0043533992771934964,0.0040416782397816745,4.9345124340967375e-05,-0.0025185232550925516,0.004207079029061375
4.848484848484849,5.8734177215189876,0.004418255097802812,0.004034323101120767,-3.1806688803751436e-05,-0.0025357734596770736,0.0042397060490256535
4.94949494949495,5.8734177215189876,0.004295385949738121,0.003972030382188962,7.43133138590754e-06,-0.0024802248995781247,0.004143202625109102
5.05050505050505,5.8734177215189876,0.004312900251485431,0.003915253480396117,-2.0673303940512667e-06,-0.002468446119564464,0.004128466240185603
5.151515151515151,5.8734177215189876,0.00453287901308362,0.004100931562849723,-0.00010454257110678707,-0.002590143172780003,0.004336864381395634
5.252525252525253,5.8734177215189876,0.004670342809417043,0.003841968589565525,4.9022137279269786e-05,-0.00255369341969477,0.004317027187107858
5.353535353535354,5.8734177215189876,0.004366878091428799,0.00391088630755455,-9.405080425637894e-05,-0.0024833293196950047,0.004160868767797595
5.454545454545454,5.8734177215189876,0.004412954738065,0.003970849601891378,7.972261142818584e-06,-0.002515141301986913,0.00420937372860671
5.555555555555555,5.8734177215189876,0.004319917036616761,0.00392564359235845,1.3845861635174426e-06,-0.0024736681886925634,0.004136896413302916
5.656565656565657,5.8734177215189876,0.0044519907812811815,0.0038803489366446868,-6.312422899383351e-05,-0.0024997019153777606,0.004196904346955502
5.757575757575758,5.8734177215189876,0.004357829189636318,0.004062042455649013,-1.5835415154186468e-06,-0.0025259614935855992,0.004217722667220231
5.858585858585858,5.8734177215189876,0.004492960136618077,0.004074834564376477,-8.743551872313016e-05,-0.002570338410298366,0.00430184067173838
5.959595959595959,5.8734177215189876,0.004309024913253945,0.00408039118045124,3.0144187975379147e-05,-0.002516824828111556,0.004199703162411297
6.0606060606060606,5.8734177215189876,0.004522027318989475,0.0039056738036203575,-1.5799493266647457e-05,-0.00252831033678295,0.004247611583808378
6.161616161616162,5.8734177215189876,0.00446071975585268,0.0038873547390727236,-3.16275537112705e-05,-0.002504422348477621,0.004203825452075478
6.262626262626262,5.8734177215189876,0.004614105015050908,0.004028976288114103,-3.4049730436112183e-06,-0.002592924390949503,0.0043511527329110665
6.363636363636363,5.8734177215189876,0.004425349482082069,0.004148081721894649,3.729279769244586e-05,-0.002572029361193015,0.004293921397596738
6.4646464646464645,5.8734177215189876,0.004415760002823037,0.003980144447673847,8.932218901757698e-06,-0.0025187713351490656,0.004214897735768667
6.565656565656566,5.8734177215189876,0.004573543260016326,0.004019303110057201,-4.5280073605997484e-05,-0.0025778539110220583,0.0043238628155838595
6.666666666666667,5.8734177215189876,0.004665739015758027,0.003989570406062643,-5.239012351106585e-05,-0.002596592826546201,0.004368035309328665
6.767676767676767,5.8734177215189876,0.004422134202789676,0.0040748442681765576,6.119330858634725e-05,-0.00254909354128987,0.0042604403963763925
6.8686868686868685,5.8734177215189876,0.0044322837381957705,0.003909409827857688,1.442565989448836e-05,-0.0025025080698160376,0.00419543025577339
6.96969696969697,5.8734177215189876,0.004527365631616093,0.004010269756751874,4.867031635111976e-05,-0.0025612906165103904,0.004293070231560463
7.070707070707071,5.8734177215189876,0.004560169928602717,0.003986980183801528,3.697762695347357e-05,-0.0025641450337212735,0.004302784640013632
7.171717171717171,5.8734177215189876,0.004615768589912773,0.003957440515445349,2.9472710320366814e-05,-0.002571962731607437,0.004324653905601433
7.2727272727272725,5.8734177215189876,0.004493330076707817,0.003940821866364436,1.3042812456229319e-05,-0.0025302455829216757,0.004244194751239663
7.373737373737374,5.8734177215189876,0.004443347463330132,0.004139624049615252,-2.9428453606815138e-05,-0.0025748914538836153,0.004299841163773614
7.474747474747475,5.8734177215189876,0.004619785117306906,0.004108275123967929,1.472631835553896e-05,-0.0026184180723824503,0.004386529532802872
7.575757575757575,5.8734177215189876,0.004564258736003971,0.00427709319039192,-5.447953700977092e-06,-0.002652405577918767,0.004427675806801427
7.6767676767676765,5.8734177215189876,0.004494269481637698,0.004136962759238159,7.504690085119556e-05,-0.002589369672262757,0.00432864755799889
7.777777777777778,5.8734177215189876,0.004572614209133649,0.00402837767945542,1.567232236419702e-05,-0.0025802975665767205,0.0043263318506716235
7.878787878787879,5.8734177215189876,0.004469114865843465,0.004104244583517394,-8.454175610625736e-06,-0.002572007834808258,0.004298335168810778
7.979797979797979,5.8734177215189876,0.0045923255024247775,0.004165013489330003,-4.6421771258533894e-05,-0.002627201697526434,0.0043950151494697755
8.080808080808081,5.8734177215189876,0.004709476224284516,0.004282356502304458,-1.5949991856660666e-05,-0.0026975498179766925,0.004511191704543053
8.181818181818182,5.8734177215189876,0.004666559559147517,0.00423659507313847,-3.5652120575717004e-06,-0.002670946389685796,0.004467127805226941
8.282828282828282,5.8734177215189876,0.004935527907283569,0.004184070942177107,-2.0394483479540604e-05,-0.0027358796548382024,0.0046061409310230155
8.383838383838384,5.8734177215189876,0.004801661629233571,0.0043689743052009525,0.00012604421910646506,-0.002751190780330357,0.004605780719517572
8.484848484848484,5.8734177215189876,0.004823912799165669,0.004376930914293136,-4.066504574702552e-05,-0.0027602531140376416,0.004617216347731995
8.585858585858587,5.8734177215189876,0.004884536921246679,0.0043406238679915415,-3.2316361798814094e-05,-0.0027675482367714656,0.004636907589727265
8.686868686868687,5.8734177215189876,0.004894101496645034,0.004137269855485358,5.776599847741631e-05,-0.002709411405639117,0.004564101604539058
8.787878787878787,5.8734177215189876,0.004810020856559721,0.004433449312415058,5.138786387392684e-05,-0.0027730410506924337,0.004634081562158445
8.88888888888889,5.8734177215189876,0.004871244759015246,0.0045359878581679456,-0.00013540203896933507,-0.0028221697851549573,0.004718400725573687
8.98989898989899,5.8734177215189876,0.005009086778497942,0.004479897572660264,9.33245154449491e-05,-0.0028466953053474615,0.004769314972966428
9.09090909090909,5.8734177215189876,0.004952640373099162,0.004690687941139496,-9.367859107933708e-05,-0.0028929984942715975,0.004829724276476481
9.191919191919192,5.8734177215189876,0.004992500396648913,0.004371811966681197,1.1458323511314987e-05,-0.0028092937089990327,0.004712952469987279
9.292929292929292,5.8734177215189876,0.0050789703517499785,0.004614264415735979,-6.344009443357038e-06,-0.0029079704302457875,0.004863310036281059
9.393939393939394,5.8734177215189876,0.0049728012042544205,0.004436317080963309,4.210838146236638e-05,-0.0028227354855653187,0.004728007771205581
9.494949494949495,5.8734177215189876,0.0051603380411987835,0.0045407463576314505,-5.7748772913301344e-05,-0.0029103253196490703,0.00488115609065979
9.595959595959595,5.8734177215189876,0.005385975391654169,0.004630987051281618,-1.1067538297445028e-05,-0.0030050887328807356,0.005051015458557051
9.696969696969697,5.8734177215189876,0.005341446593507758,0.0046407377058638065,5.200263927938765e-05,-0.0029946552898114692,0.005028653734256171
9.797979797979798,5.8734177215189876,0.0053710249980648455,0.004915963374298822,-8.426419461806169e-05,-0.0030860965117091004,0.005160634129430088
9.8989898989899,5.8734177215189876,0.005401305243061224,0.004870812737324209,-5.1651580229926384e-06,-0.00308163539411563,0.005156573349744381
10.0,5.8734177215189876,0.005389573476321942,0.004777656675133257,-5.430246124222964e-06,-0.0030501690454365596,0.0051111703483220534
0.0,5.974683544303797,0.005425412167801461,0.004812128137834907,-0.00011822608402482554,-0.0030712620916909105,0.005150323103871528
0.10101010101010101,5.974683544303797,0.005285732677373796,0.004890028782272162,4.479902830629206e-05,-0.0030527284378937874,0.005099998760702254
0.20202020202020202,5.974683544303797,0.00518593496081351,0.004832439975893807,2.2153282547925648e-05,-0.0030055124810121946,0.00501868014772478
0.30303030303030304,5.974683544303797,0.0053045857708475036,0.004757687016269081,-8.43858948949603e-05,-0.003018681836134975,0.005055494044520078
0.40404040404040403,5.974683544303797,0.00523359951200614,0.004755952030420074,3.774100242389156e-05,-0.0029968654627278643,0.005012301715977252
0.5050505050505051,5.974683544303797,0.005219149431962286,0.004791732935571121,-3.4386373060348725e-05,-0.003003264710260022,0.00501946235747864
0.6060606060606061,5.974683544303797,0.0050576926573817635,0.004672707591188851,8.652330335011065e-06,-0.0029191200745711846,0.004876633773793161
0.7070707070707071,5.974683544303797,0.00496544353513085,0.0046417360309237085,-4.352525937845516e-05,-0.002882153869816367,0.004812353692261819
0.8080808080808081,5.974683544303797,0.005079879388218745,0.004496340983466309,1.4025757154610079e-05,-0.002872866111505516,0.0048147665695987794
0.9090909090909091,5.974683544303797,0.0050097222521681434,0.004592055374560776,3.614483919870377e-05,-0.0028805332880186755,0.004814902591120387
1.0101010101010102,5.974683544303797,0.004821542696250777,0.004642306387618755,-6.279023750673109e-05,-0.0028391547251608597,0.004735718736695838
1.1111111111111112,5.974683544303797,0.004835635465144144,0.004547146103408348,3.065765280688131e-05,-0.002814834470565748,0.004698338722324628
1.2121212121212122,5.974683544303797,0.00489978717679023,0.004330640763631857,2.402441860255928e-05,-0.002769128382126626,0.004641645962221486
1.3131313131313131,5.974683544303797,0.005075168787630048,0.004481350167485381,-5.14281343474104e-05,-0.002866955686534628,0.0048066790624193305
1.4141414141414141,5.974683544303797,0.004743277455299212,0.004429467665589383,6.975046040065212e-06,-0.0027518235362665785,0.004594433224575852
1.5151515151515151,5.974683544303797,0.00489883460711441,0.004376669592740788,-4.866816929287044e-05,-0.0027826512599565595,0.004660508828354117
1.6161616161616161,5.974683544303797,0.004661824890719569,0.004158327558260672,-1.9645189802022222e-05,-0.0026460457346940717,0.004431710987768158
1.7171717171717171,5.974683544303797,0.004848098338244433,0.004238009103430505,1.8013998458057303e-05,-0.0027258322325024813,0.0045737804143469105
1.8181818181818181,5.974683544303797,0.004841873374091176,0.004325713237577304,2.7862913310311573e-05,-0.002750275983500544,0.004605790492556052
1.9191919191919191,5.974683544303797,0.004734530645699451,0.004402807230231598,-3.138786668855843e-05,-0.0027412013627793144,0.0045780150477618626
2.0202020202020203,5.974683544303797,0.004727380872402579,0.0042655724403410375,1.6311511012954466e-05,-0.002697885993823085,0.004514316203857848
2.121212121212121,5.974683544303797,0.004929305073569327,0.004189289322049254,6.0714788219936934e-05,-0.002735578318685574,0.004605319454592785
2.2222222222222223,5.974683544303797,0.00473270162854047,0.004124805302851797,4.12180384396355e-05,-0.00265725207941768,0.0044605052961613325
2.323232323232323,5.974683544303797,0.004595636856668958,0.004126427230859489,-2.002016398892386e-05,-0.002616619226258534,0.004380059493015019
2.4242424242424243,5.974683544303797,0.0045911900916978995,0.004212761965504986,5.0321642623947465e-05,-0.0026411856171608653,0.004415019325501448
2.525252525252525,5.974683544303797,0.00447422560049785,0.004332490160997453,3.528194424754517e-05,-0.002642014728448591,0.004405492228323628
2.6262626262626263,5.974683544303797,0.004493021747490798,0.004108331097907382,-4.005377244259026e-05,-0.002580405853619454,0.004314118771977444
2.727272727272727,5.974683544303797,0.004615779654148738,0.004112320852354788,-0.00012613661423956546,-0.002618430151951058,0.004391214982563492
2.8282828282828283,5.974683544303797,0.00451722512824612,0.004122128189186968,5.17047308944838e-05,-0.0025918059952299267,0.004334132296883839
2.929292929292929,5.974683544303797,0.004708901525186013,0.004148575970332578,4.7706376911995704e-06,-0.002657243248655577,0.004455251813132775
3.0303030303030303,5.974683544303797,0.004577322782156784,0.003947929008558526,-2.079555542076951e-05,-0.002557575537214593,0.004297485227529306
3.131313131313131,5.974683544303797,0.004432909827675248,0.004093673012819063,7.855726484985619e-06,-0.002557974852148293,0.00427342369578353
3.2323232323232323,5.974683544303797,0.0043352420149673785,0.0041648219476348655,-4.255580736914734e-06,-0.0025500191887806727,0.004252600195350696
3.3333333333333335,5.974683544303797,0.004460574090729118,0.0038864427564781236,-7.423708237239458e-05,-0.002504105054162172,0.004204988238605965
3.4343434343434343,5.974683544303797,0.004577570641586678,0.003889803798939497,-1.4907476522713294e-07,-0.002540212332157852,0.004275380096327401
3.5353535353535355,5.974683544303797,0.0047876994341448246,0.004042606940791871,-3.0307596560855195e-05,-0.002649091912481009,0.00446236545318489
3.6363636363636362,5.974683544303797,0.004484770918039413,0.004021566405194144,4.3344543153272064e-06,-0.002551901196970067,0.004272050894146962
3.7373737373737375,5.974683544303797,0.004354293537689802,0.003977734099466686,6.0371445775236814e-05,-0.0024996082911469463,0.004180066151254791
3.8383838383838382,5.974683544303797,0.004442266535606737,0.0039476212553039135,-1.3327508972828959e-05,-0.0025169663372731953,0.004216822573751302
3.9393939393939394,5.974683544303797,0.004288712413184013,0.0038437685883418666,2.2644293058559254e-05,-0.002439744300457764,0.004084645805638242
4.040404040404041,5.974683544303797,0.004278655854024748,0.0041282631086915645,-4.620663487705669e-05,-0.0025220756888148935,0.004206238254560291
4.141414141414141,5.974683544303797,0.004265597501961097,0.004033986955794938,1.3162516174053065e-06,-0.0024898753373268105,0.004154637568336483
4.242424242424242,5.974683544303797,0.004292149364628963,0.003992252173721145,-4.28973014237091e-05,-0.002485320461505032,0.004151000059190377
4.343434343434343,5.974683544303797,0.004398978591069121,0.0038177927061741686,-1.1340029614400096e-05,-0.002465031389172987,0.004139148608254615
4.444444444444445,5.974683544303797,0.004453499643107373,0.004090521218447051,-4.1727584192268584e-05,-0.002563206258466327,0.004284169895918408
4.545454545454545,5.974683544303797,0.004389477782330002,0.003977190496361962,-4.156194505039015e-05,-0.0025100004836075894,0.004199160905689954
4.646464646464646,5.974683544303797,0.004337965903530742,0.003885077441472407,-3.07462658127716e-05,-0.0024669130035009446,0.0041305299213700904
4.747474747474747,5.974683544303797,0.004340931342936153,0.00411401864815883,2.0551567078332338e-05,-0.002536484997328495,0.00423218961850668
4.848484848484849,5.974683544303797,0.004349098892371196,0.004086588589827047,5.958827393910596e-05,-0.002530706244659473,0.004225226840739858
4.94949494949495,5.974683544303797,0.004335850271390433,0.004209319281673555,-5.288701554302047e-06,-0.0025635508659191965,0.0042739995498671255
5.05050505050505,5.974683544303797,0.0045308792329509335,0.003834499738825266,3.783279581173874e-05,-0.0025096136915328596,0.004226451655532652
5.151515151515151,5.974683544303797,0.004396057357486366,0.0038496690262093984,3.528609378865019e-05,-0.002473717915108729,0.004150378462303819
5.252525252525253,5.974683544303797,0.004235651465204182,0.0040046340876771416,-1.0251912061783873e-05,-0.002472085665864397,0.004125035584682698
5.353535353535354,5.974683544303797,0.004406211013540679,0.004059912650115673,-3.4177542661791915e-05,-0.0025398370990969052,0.004244085143199986
5.454545454545454,5.974683544303797,0.004221976895549098,0.004072044171768346,5.609514417829628e-05,-0.0024882063201952334,0.004150180264533432
5.555555555555555,5.974683544303797,0.004227184480849609,0.0037942206723910834,2.0043645534710384e-05,-0.0024064215459722077,0.004028341302057738
5.656565656565657,5.974683544303797,0.004504362044586547,0.003835854342223122,-2.44664668666572e-05,-0.0025020649160429004,0.004210317693451928
5.757575757575758,5.974683544303797,0.0045353083518917935,0.004010385901928461,-2.363120108651667e-05,-0.002563708276146076,0.004297156682597824
5.858585858585858,5.974683544303797,0.004203325005248692,0.003944309582128726,4.995488323135373e-05,-0.0024442903762132255,0.0040809056048251935
5.959595959595959,5.974683544303797,0.004313703059776166,0.003949252723966013,-2.657085198336318e-05,-0.0024788867351226537,0.0041437719093838955
6.0606060606060606,5.974683544303797,0.0043806212880500356,0.004027162499383419,-1.9393213005725026e-05,-0.002522335136230036,0.004215155415954852
6.161616161616162,5.974683544303797,0.004373740346845976,0.0039811262934079505,1.091763137618158e-05,-0.0025064599920761777,0.004191290502261727
6.262626262626262,5.974683544303797,0.004500753637707991,0.003718691711193422,-5.325830209276665e-05,-0.002465833604670424,0.004166178758022445
6.363636363636363,5.974683544303797,0.004583789526398519,0.0037916515415480872,-4.550730868009191e-05,-0.002512632320383982,0.004244270014545933
6.4646464646464645,5.974683544303797,0.0045076139678451406,0.0041595684218382395,-1.0947341370261716e-05,-0.002600154716905014,0.004344102203382201
6.565656565656566,5.974683544303797,0.004339409173479538,0.0039361374981406235,7.738941688102755e-06,-0.002482664001486048,0.004152507541870843
6.666666666666667,5.974683544303797,0.00436606958737795,0.003921559105686927,-9.918702327900712e-06,-0.002486288607919463,0.004161692523090282
6.767676767676767,5.974683544303797,0.004499322483205486,0.004152936849337448,2.873405377182261e-06,-0.00259567779976288,0.004336520484706844
6.8686868686868685,5.974683544303797,0.004550475219383436,0.003959692878218494,-6.148428426175051e-05,-0.002553050429280579,0.004287055988084153
6.96969696969697,5.974683544303797,0.004307515027865039,0.004178785551293119,2.9064195162651036e-05,-0.0025458901737474473,0.004244913075774372
7.070707070707071,5.974683544303797,0.004491849204588995,0.004040688688993912,5.3653169401161484e-05,-0.002559761368074872,0.004285130811567069
7.171717171717171,5.974683544303797,0.004543105694362658,0.004140567372715941,0.00010089251068681084,-0.0026051019201235796,0.00435931304283258
7.2727272727272725,5.974683544303797,0.004599596152680403,0.004110569584989361,8.263854261735092e-05,-0.0026130497213009292,0.004377966927527844
7.373737373737374,5.974683544303797,0.004585938518130286,0.004160787403198989,5.854355484002208e-05,-0.0026240177763987827,0.004390005778133872
7.474747474747475,5.974683544303797,0.004797753632112027,0.004205449016950428,-1.3194677208987346e-06,-0.002700960794718736,0.004530732642284556
7.575757575757575,5.974683544303797,0.004617231820256629,0.003941729929836493,1.2170459397453018e-06,-0.0025676885250279368,0.0043192809710023055
7.6767676767676765,5.974683544303797,0.004560582746286009,0.0042137811902134845,-9.036086950401658e-06,-0.0026323091809498478,0.0043974781482809654
7.777777777777778,5.974683544303797,0.004729713438992128,0.003981458266136784,-1.6486462917619013e-05,-0.0026133515115386737,0.0044036187258000474
7.878787878787879,5.974683544303797,0.004509848156026987,0.004212953675752662,7.696696974445064e-05,-0.0026168405495338946,0.004371006685162189
7.979797979797979,5.974683544303797,0.004834393463551202,0.004192134846958022,1.4616297983036797e-05,-0.002707958493152767,0.004547479119418522
8.080808080808081,5.974683544303797,0.0048045429141015976,0.004172650278068504,2.9370418246887382e-05,-0.00269315795765103,0.0045221182530308665
8.181818181818182,5.974683544303797,0.004678721075094978,0.004054895026090344,-8.762276870311974e-06,-0.0026200848303555963,0.004400126371795619
8.282828282828282,5.974683544303797,0.004676718190494031,0.0041871358865484464,-9.175244328286365e-05,-0.0026591562231127433,0.0044549972987167185
8.383838383838384,5.974683544303797,0.004633794644938148,0.004183102831171152,3.325860033533337e-05,-0.00264506924283279,0.004426068347053835
8.484848484848484,5.974683544303797,0.004840361389010372,0.00420896982239208,-1.756022263126021e-05,-0.0027147993634207353,0.004557687506890939
8.585858585858587,5.974683544303797,0.004762320127934558,0.004356723454633356,-1.0891396580522405e-05,-0.002735713074770374,0.00457307077670972
8.686868686868687,5.974683544303797,0.004889577415008184,0.00423443637776633,-7.769391227312381e-07,-0.0027372041378323536,0.004597153039392624
8.787878787878787,5.974683544303797,0.004944645838901163,0.0045388625509820875,-2.9166789342062e-05,-0.002845052516964975,0.004755026814605138
8.88888888888889,5.974683544303797,0.004827423604115773,0.00440988370486207,4.8296255450483906e-05,-0.002771192192693353,0.004633542256265402
8.98989898989899,5.974683544303797,0.004962704937472264,0.004412883080575872,1.3177580412522257e-06,-0.002812676405414441,0.004711915315054108
9.09090909090909,5.974683544303797,0.005024877308372871,0.004568671062229132,4.041654767538487e-06,-0.0028780645111806014,0.004813022407381384
9.191919191919192,5.974683544303797,0.0049026026260519315,0.004443754023445828,-6.270507154998961e-05,-0.0028039069948493276,0.0046913002422550405
9.292929292929292,5.974683544303797,0.005147462522618416,0.004583217810124132,5.8612664934235264e-05,-0.002919204099822764,0.004890871122781816
9.393939393939394,5.974683544303797,0.005140151774330906,0.004632789273978205,-2.2127079106164358e-05,-0.002931882314492733,0.004906335245006574
9.494949494949495,5.974683544303797,0.005299363711047636,0.004540044027792979,2.9986738810951613e-05,-0.0029518223216521843,0.004963729299864786
9.595959595959595,5.974683544303797,0.005433685251493254,0.004636080864397655,-4.500341456006803e-05,-0.0030209298347672726,0.005082642314572999
9.696969696969697,5.974683544303797,0.005154348221119795,0.004806063903057884,0.00011963865482988015,-0.0029881236372533036,0.00499363285782113
9.797979797979798,5.974683544303797,0.00554143688379025,0.004906151295222061,8.404152210359768e-05,-0.003134276453703693,0.005254703079732834
9.8989898989899,5.974683544303797,0.005297631095255205,0.0048251244984571446,-1.6605443863383976e-05,-0.0030368266781137052,0.005077973935322988
10.0,5.974683544303797,0.005633460684578782,0.004722106797119242,-7.533870812365192e-05,-0.0031066702445094073,0.005239217180167886
0.0,6.075949367088607,0.005342536301117423,0.004934197717076353,-3.818646751508526e-05,-0.0030830202054581324,0.005150946072178551
0.10101010101010101,6.075949367088607,0.005492592781883954,0.00477752309391581,7.542759543313502e-05,-0.0030810347627399292,0.005173913556103852
0.20202020202020202,6.075949367088607,0.005360601233892095,0.004800360998590525,-7.84987432588416e-05,-0.0030482886697447862,0.0051054065823891315
0.30303030303030304,6.075949367088607,0.005120513527880307,0.0048885592799104444,-4.879982850064732e-05,-0.0030027218423372254,0.005009279485870457
0.40404040404040403,6.075949367088607,0.005240656505541828,0.004617459933007004,8.051902042537797e-05,-0.0029574349315646497,0.00496047833812041
0.5050505050505051,6.075949367088607,0.005226319423378834,0.004572983062522347,-3.94823465892125e-05,-0.0029397907457703537,0.004932686404986307
0.6060606060606061,6.075949367088607,0.005140839461852656,0.004635431180863417,4.6975750029338316e-05,-0.002932881192814822,0.004908366859867941
0.7070707070707071,6.075949367088607,0.00527419610671519,0.004472123238982738,3.9895020705013316e-05,-0.0029238958037093783,0.00492290063874714
0.8080808080808081,6.075949367088607,0.005171234969380789,0.004556334971654097,7.230134661791612e-05,-0.002918270982310466,0.004894452287948353
0.9090909090909091,6.075949367088607,0.004971454574396145,0.004525924163049389,-6.92462658200542e-05,-0.00284921362123366,0.004765848179200299
1.0101010101010102,6.075949367088607,0.005058005419833914,0.0045357487666383015,-4.399505474414342e-06,-0.0028781262559416645,0.00481815856146452
1.1111111111111112,6.075949367088607,0.004797693803375053,0.0043793604116553735,-3.0065887289111123e-05,-0.0027531162645091276,0.004603101672688552
1.2121212121212122,6.075949367088607,0.004858692063362366,0.004572956725457122,-1.863186049964864e-05,-0.0028294946366458464,0.00472242254251808
1.3131313131313131,6.075949367088607,0.0049928218043177605,0.004418956544443569,2.115907547363927e-05,-0.002823533504628399,0.004732201078076215
1.4141414141414141,6.075949367088607,0.004741161063311468,0.004525402075555638,-2.54841640722285e-05,-0.0027799689416601317,0.004637257851910555
1.5151515151515151,6.075949367088607,0.004654224604257225,0.004335860419504485,2.2915134217427757e-05,-0.002697025507128513,0.004503665097378436
1.6161616161616161,6.075949367088607,0.004730855554674611,0.004243453491792482,4.940690171268942e-05,-0.002692292713940128,0.00450777654940461
1.7171717171717171,6.075949367088607,0.004731623719590117,0.004242733793818881,9.480772811748685e-05,-0.0026923072540226993,0.00451009963639308
1.8181818181818181,6.075949367088607,0.004784928400638696,0.004229354160386637,-1.0928500764912682e-05,-0.0027042847683075998,0.004532789193334718
1.9191919191919191,6.075949367088607,0.0046786091867746,0.004277655714319221,1.4175923824404808e-05,-0.0026868794703281463,0.004491641780061677
2.0202020202020203,6.075949367088607,0.004755517146952277,0.00436974647466272,-4.4425436481857726e-05,-0.0027375790864844992,0.004575493870382886
2.121212121212121,6.075949367088607,0.004512899185017468,0.004105771948638607,-1.2437351873641872e-05,-0.0025856013400968225,0.004323789024761168
2.2222222222222223,6.075949367088607,0.004662623286147608,0.004181087292120004,-1.7273153894924103e-05,-0.0026531131734802834,0.004441577081255616
2.323232323232323,6.075949367088607,0.00439633226878588,0.0042023139260527085,-0.00012259323861168827,-0.002579593858451576,0.004307841540777776
2.4242424242424243,6.075949367088607,0.004676878711982309,0.004139627922135724,-6.930825230634555e-06,-0.0026449519902354097,0.004432755376148117
2.525252525252525,6.075949367088607,0.004586612681775526,0.004147881893993734,-5.078934312608171e-05,-0.0026203483727307783,0.0043846266743899544
2.6262626262626263,6.075949367088607,0.004558325612309748,0.004187900429880537,2.9315164685908326e-05,-0.0026238678126570855,0.004385157550618548
2.727272727272727,6.075949367088607,0.004471096910916941,0.0040023698500961,6.88970369932784e-05,-0.002542040028303912,0.00425780799658426
2.8282828282828283,6.075949367088607,0.0046041839859074,0.004107680482654116,9.503797888060715e-06,-0.0026135593405684546,0.004377134152927705
2.929292929292929,6.075949367088607,0.004498905948853791,0.003975319298688551,-0.00015406293746159983,-0.002542267574262703,0.004269653005548853
3.0303030303030303,6.075949367088607,0.004560455202632461,0.004027535332164298,1.667072440764381e-05,-0.0025763971604390278,0.004318822963129116
3.131313131313131,6.075949367088607,0.004437966802669574,0.003984833629793874,-5.0637705858250826e-05,-0.0025268401297390344,0.004230553340558498
3.2323232323232323,6.075949367088607,0.004451337784615493,0.003916974376197325,5.62473114972873e-05,-0.0025104936482438452,0.004210797023669765
3.3333333333333335,6.075949367088607,0.004633810847635872,0.004023317347384781,-7.627709851518812e-05,-0.002597138458506196,0.004362734058926316
3.4343434343434343,6.075949367088607,0.004455396265140781,0.0039029032770844514,-2.2082842362828704e-05,-0.0025074898626675697,0.004206624792105858
3.5353535353535355,6.075949367088607,0.0044302505735392544,0.004080792689914888,2.8525526119886286e-05,-0.002553312979036243,0.004266555529269331
3.6363636363636362,6.075949367088607,0.004434308991400635,0.003923981149532858,3.913385925687292e-05,-0.002507487042280048,0.004202995809713184
3.7373737373737375,6.075949367088607,0.004483080583344761,0.00390937722377111,-3.463480422083534e-05,-0.002517737342134761,0.004225965851569893
3.8383838383838382,6.075949367088607,0.004536233795553122,0.0040665070865385415,-8.384459372574502e-05,-0.002580822264627499,0.004323003562879074
3.9393939393939394,6.075949367088607,0.004262599191105813,0.0038495122998114454,5.9190146217215406e-05,-0.0024336334472751775,0.004073092095118282
4.040404040404041,6.075949367088607,0.0044665216443819005,0.0038872273813362716,-4.733593853990575e-05,-0.002506124707715451,0.0042076940420855665
4.141414141414141,6.075949367088607,0.00456571051897777,0.00397292437926859,3.9467414245375585e-05,-0.0025615904694739075,0.004300615196378629
4.242424242424242,6.075949367088607,0.00458584661126895,0.003919263601484734,-1.8010561868003894e-05,-0.0025515330638261045,0.004291671906785035
4.343434343434343,6.075949367088607,0.004608421038282787,0.00419733655160971,-4.9770516972917626e-05,-0.002641727276967749,0.004418089614013509
4.444444444444445,6.075949367088607,0.004266530265345021,0.0039948518496175645,4.078379890902853e-05,-0.0024784146344887757,0.004137989298958543
4.545454545454545,6.075949367088607,0.004475706968764155,0.003976473995885175,1.4112990549317293e-05,-0.0025356542893947985,0.00424821885796966
4.646464646464646,6.075949367088607,0.004391980067306642,0.004045485829906021,3.9579959659876516e-05,-0.002531239769163799,0.004229946938637715
4.747474747474747,6.075949367088607,0.004374587905675161,0.003948554489068424,-7.905424216234655e-05,-0.002496942718423075,0.00418013778534336
4.848484848484849,6.075949367088607,0.0044684497521906,0.003922974863684476,3.4106047142780804e-05,-0.0025174273847625222,0.004222635264716422
4.94949494949495,6.075949367088607,0.004420098983128782,0.003982603524494973,-4.941865659886375e-05,-0.0025208107522871263,0.004219268974124623
5.05050505050505,6.075949367088607,0.004435411834744718,0.003851183522986879,5.350792120978357e-05,-0.002485978607319479,0.004175104428488688
5.151515151515151,6.075949367088607,0.00439296490678904,0.003869406397015517,-6.680200501988632e-05,-0.002478711391141367,0.004157603582470855
5.252525252525253,6.075949367088607,0.004360556943760194,0.003773276800411747,-3.7784193972252116e-05,-0.0024401501232515824,0.004099118107041862
5.353535353535354,6.075949367088607,0.004573807769731886,0.004119459622732069,-6.970648774878899e-05,-0.0026079802177391863,0.004366076688691313
5.454545454545454,6.075949367088607,0.004492763478628936,0.004026646797329672,-4.1206877100839236e-05,-0.0025558230827875824,0.004279384354451885
5.555555555555555,6.075949367088607,0.004134001201415674,0.003867024622041755,-5.326920939127226e-05,-0.0024003077470372285,0.00400825070989407
5.656565656565657,6.075949367088607,0.0044261751244365054,0.004213668995705188,-0.00010024981630496097,-0.0025919532360425077,0.004327325481536553
5.757575757575758,6.075949367088607,0.004420943865618096,0.003956410337006611,2.217229495954337e-05,-0.002513206260787412,0.004208127165432736
5.858585858585858,6.075949367088607,0.004275111335888406,0.0038141234806756885,-4.084610961757729e-05,-0.0024267704449692285,0.0040648883804332275
5.959595959595959,6.075949367088607,0.00449724487531828,0.0038817388403365126,3.413411821488779e-05,-0.0025136951146964375,0.004223680054195063
6.0606060606060606,6.075949367088607,0.004551881376814592,0.003999417415307273,2.850924484175908e-05,-0.0025653896376365594,0.0043026187851974325
6.161616161616162,6.075949367088607,0.00446166865364403,0.004013955905989099,7.613473594957092e-05,-0.0025426873678899386,0.004257555336261403
6.262626262626262,6.075949367088607,0.0043403637379870845,0.003945877812752839,1.6132577329199808e-05,-0.002485872465221977,0.004157276139296256
6.363636363636363,6.075949367088607,0.004293852555121053,0.004036848997656742,-4.4055484219351835e-05,-0.0024992104658333385,0.004171990875930217
6.4646464646464645,6.075949367088607,0.004510562543198448,0.004004097168724035,7.463087099790044e-07,-0.002554397913576745,0.004279864431853556
6.565656565656566,6.075949367088607,0.004397331872979445,0.004138224375947902,-5.26007918155751e-05,-0.002560666874678204,0.004274644215699478
6.666666666666667,6.075949367088607,0.00472586579992828,0.003978652140581679,-8.451484668294825e-05,-0.0026113553821529877,0.004402537065332904
6.767676767676767,6.075949367088607,0.004510548246835706,0.003850853054342938,-4.2346082182874544e-05,-0.002508420390353593,0.004220193812150723
6.8686868686868685,6.075949367088607,0.004474361647504453,0.004015314795350571,1.3651592809338263e-05,-0.0025469029328565075,0.004263479052769565
6.96969696969697,6.075949367088607,0.004411401916748271,0.004085430761014588,2.1033830494062907e-05,-0.0025490498033288577,0.00425794099892521
7.070707070707071,6.075949367088607,0.0046635560817083485,0.0041017665947991585,-1.7692627253725763e-05,-0.002629596802952252,0.004409689905617273
7.171717171717171,6.075949367088607,0.0044534750585914175,0.0042795323315183344,-3.606252222742137e-05,-0.0026199022170329254,0.004369547812952996
7.2727272727272725,6.075949367088607,0.00472373518991512,0.004099627963020759,1.655095756885372e-05,-0.002647008945880764,0.004444759668163433
7.373737373737374,6.075949367088607,0.004274074187868469,0.004116359584413188,-5.0114555806237726e-05,-0.0025171301316844973,0.004198337117238135
7.474747474747475,6.075949367088607,0.004475325356370123,0.004178816767160874,8.827094036516625e-06,-0.0025962426370592993,0.004334710570954183
7.575757575757575,6.075949367088607,0.00442745209915501,0.0040470458479033135,2.7154937501344152e-05,-0.002542349384117497,0.0042502967805271635
7.6767676767676765,6.075949367088607,0.004617549872374224,0.004124803915825385,3.2442660363567314e-05,-0.0026227061364598827,0.004392316467584939
7.777777777777778,6.075949367088607,0.004583334220742362,0.004137918394814974,6.853371505357315e-05,-0.002616375784667201,0.004379263505417148
7.878787878787879,6.075949367088607,0.004511964431968892,0.004410760423226615,2.7283555695582746e-05,-0.002676817456558652,0.004462473481843252
7.979797979797979,6.075949367088607,0.004642445409007053,0.0042602596468651124,-6.970072115015461e-06,-0.0026708115167616495,0.004463657081504675
8.080808080808081,6.075949367088607,0.004715539171797786,0.004103959741463329,5.2136018909807284e-05,-0.002645849673978334,0.004442360500157879
8.181818181818182,6.075949367088607,0.004718064727359916,0.004104919699646093,-2.84314077450518e-06,-0.002646895328101803,0.004443337475243544
8.282828282828282,6.075949367088607,0.004670697775518529,0.004244783953747774,-2.769897933182876e-05,-0.002674644518779891,0.004473232304974773
8.383838383838384,6.075949367088607,0.004591561643342483,0.0043708498375532884,-8.062364705238596e-05,-0.0026887234442687312,0.004487453696867101
8.484848484848484,6.075949367088607,0.004811102602050623,0.004240985921645976,-6.438590428201407e-05,-0.0027156265571089797,0.004554260430210076
8.585858585858587,6.075949367088607,0.004860784433873548,0.004371858379333991,2.7503624465014482e-05,-0.0027697928439622617,0.004635944261124162
8.686868686868687,6.075949367088607,0.004822134870657021,0.00446605061659818,-6.1578229365462e-07,-0.00278645564617656,0.00465432009491929
8.787878787878787,6.075949367088607,0.004792812323513619,0.004534654386150283,-8.700484351352797e-05,-0.0027982400128991705,0.004671520359992483
8.88888888888889,6.075949367088607,0.005001800061324765,0.004496663769545984,1.7724308972172786e-05,-0.002849539149261225,0.00476943584136841
8.98989898989899,6.075949367088607,0.005034097572410303,0.004550345066347903,-4.20446562910898e-05,-0.0028753327916274615,0.0048110498644911934
9.09090909090909,6.075949367088607,0.005126415389586134,0.00470264276802479,8.664345062669299e-06,-0.0029487174472832773,0.004928235861354374
9.191919191919192,6.075949367088607,0.005089417643572644,0.004508401947955455,-6.07349618163996e-06,-0.0028793458774584294,0.0048252285250403315
9.292929292929292,6.075949367088607,0.0051172577825059845,0.004794636246475456,-1.1950354957294054e-05,-0.0029735682086944317,0.004963859661092698
9.393939393939394,6.075949367088607,0.005044111024629824,0.004688608922168417,-4.198651712607405e-05,-0.0029198159840394724,0.004876631450315174
9.494949494949495,6.075949367088607,0.00529863863086172,0.0045549609758862505,-5.600322875069526e-05,-0.002956079882024391,0.004969663743987093
9.595959595959595,6.075949367088607,0.0050491301494223996,0.004503312583581723,-3.2194061363162365e-05,-0.0028657328199012365,0.0047998789074285165
9.696969696969697,6.075949367088607,0.005288896504332884,0.004644837638849138,-3.139022585182248e-05,-0.0029801202429546063,0.004998383079791735
9.797979797979798,6.075949367088607,0.0055615732355066725,0.004837489205471395,-3.211058461008047e-05,-0.00311971873229342,0.005237503359778042
9.8989898989899,6.075949367088607,0.0055666492799196195,0.004809802381714699,-4.6467695121335256e-05,-0.0031129354984902953,0.005230083931651564
10.0,6.075949367088607,0.005358875296402429,0.004879691910889927,-3.190327614613473e-07,-0.0030715701621877073,0.005136076075918242
0.0,6.177215189873418,0.005276793872394353,0.004785864114095367,2.9925854503743482e-05,-0.0030187973959469156,0.005049526426236157
0.10101010101010101,6.177215189873418,0.005489760561615711,0.00476236864680402,-9.824889558189688e-05,-0.0030756387625259195,0.0051674288685266394
0.20202020202020202,6.177215189873418,0.005634580336376004,0.004888027567486526,0.00010636071368228371,-0.003156782371158759,0.005304079831262438
0.30303030303030304,6.177215189873418,0.0053292321126888025,0.004653896713205271,4.487284477716534e-05,-0.002994938647768222,0.005026312209915056
0.40404040404040403,6.177215189873418,0.005430330870616517,0.004744297894331713,5.2875870504120194e-05,-0.003052388629484469,0.005122707890616576
0.5050505050505051,6.177215189873418,0.005174366836546017,0.004827894627285881,-3.156380653143194e-05,-0.0030006784391495693,0.005010422104294669
0.6060606060606061,6.177215189873418,0.005043666634861687,0.004543644260137052,1.4237921260147554e-05,-0.002876193268499622,0.004813237734203948
0.7070707070707071,6.177215189873418,0.0051613975222960075,0.004647447285797252,-9.237365519586496e-05,-0.002942653442427978,0.004927176313877463
0.8080808080808081,6.177215189873418,0.0051283517175683,0.004376699859566395,-4.16556394059724e-05,-0.002851515473140408,0.004797441227843123
0.9090909090909091,6.177215189873418,0.004961373590995329,0.004474938979805151,-2.081513998971186e-05,-0.002830893771240144,0.0047370626464976135
1.0101010101010102,6.177215189873418,0.004876012681105746,0.0044036837046133965,1.7921347114297873e-05,-0.0027839089157157427,0.0046579475923796245
1.1111111111111112,6.177215189873418,0.00512406629103082,0.0042119699258703945,6.307437700085522e-05,-0.0028008108650703642,0.004735638080177693
1.2121212121212122,6.177215189873418,0.0047602077591836845,0.004340665478589754,9.705881510752997e-05,-0.0027302619713320316,0.004568013403787242
1.3131313131313131,6.177215189873418,0.004891763418483962,0.004251769246655355,-5.428579382766109e-05,-0.002743059799541795,0.004606200456648935
1.4141414141414141,6.177215189873418,0.004836318204618065,0.004222375275345383,2.3581578651627892e-05,-0.002717608043989034,0.004560629847273414
1.5151515151515151,6.177215189873418,0.0049152518143743005,0.004275054484709368,1.973510620581806e-05,-0.0027570918897251,0.004628605660096536
1.6161616161616161,6.177215189873418,0.004737385754145237,0.00411004680684693,2.5121921029795636e-05,-0.0026542297682976505,0.00445716554316449
1.7171717171717171,6.177215189873418,0.004806652681884829,0.004286935278263191,-5.622245403084361e-05,-0.002728076388044406,0.004570054488183857
1.8181818181818181,6.177215189873418,0.004744692334022927,0.004309021178990328,2.2191772979060877e-05,-0.0027161140539039763,0.004542715766453933
1.9191919191919191,6.177215189873418,0.0046285532018839545,0.004337783485275201,2.5156429073993483e-05,-0.002689901006147746,0.004490446214544593
2.0202020202020203,6.177215189873418,0.0046349336710017255,0.0042865797779862115,7.617931055492877e-05,-0.0026764540346963807,0.004472893162514876
2.121212121212121,6.177215189873418,0.004550731689493949,0.004266703502428322,1.4046364162806288e-06,-0.0026452305575766816,0.00441557479477288
2.2222222222222223,6.177215189873418,0.0046451363046514735,0.004304794959421824,2.2775131160930368e-05,-0.002684979379221989,0.004484835303683057
2.323232323232323,6.177215189873418,0.004640993491488435,0.004015379092788748,1.8944821250289904e-06,-0.0025969117752831553,0.004361966572377562
2.4242424242424243,6.177215189873418,0.004648403747211959,0.004241347024921285,7.047481008290786e-05,-0.0026669252316399734,0.004460503186368225
2.525252525252525,6.177215189873418,0.004738220706695219,0.004194798873724498,-1.927784444913047e-05,-0.0026799058741259147,0.0044913589344776576
2.6262626262626263,6.177215189873418,0.00462571812718674,0.004068857827015889,2.6935592774510665e-05,-0.002608372786260789,0.004374203856675379
2.727272727272727,6.177215189873418,0.004425669839466763,0.004254113636185684,8.474052653605017e-05,-0.0026039350426957345,0.004344913901877493
2.8282828282828283,6.177215189873418,0.004746227792011591,0.004089978515789524,2.4384526299678134e-05,-0.0026508618923403345,0.004454707243835573
2.929292929292929,6.177215189873418,0.0045731216210846345,0.0040102786935028185,2.8050688926613532e-05,-0.002575020094376236,0.004319565358274999
3.0303030303030303,6.177215189873418,0.004458024380585761,0.004005578376430774,2.8650520323044872e-05,-0.0025390808271049605,0.004250192466712029
3.131313131313131,6.177215189873418,0.0046708396047133996,0.004129833502726016,-1.943672062350509e-05,-0.0026402019322318243,0.0044253373708812655
3.2323232323232323,6.177215189873418,0.004465996424714281,0.003997310370934126,1.2330405409891352e-05,-0.002538992038694522,0.004251128856993852
3.3333333333333335,6.177215189873418,0.004347150448691147,0.004001388529792082,-9.116280914301263e-05,-0.0025045616935449686,0.004187973402559591
3.4343434343434343,6.177215189873418,0.004336499544096561,0.0039639844740475575,6.330549064467591e-05,-0.0024901452054432354,0.004164205458111305
3.5353535353535355,6.177215189873418,0.004449563170515982,0.0040247408596472195,-4.472615672392033e-05,-0.00254229120904896,0.0042537999462897704
3.6363636363636362,6.177215189873418,0.004401897298633791,0.00390162101794858,-3.466182693201449e-05,-0.0024910554949747112,0.004174735405143145
3.7373737373737375,6.177215189873418,0.0044368928599154075,0.004036855267566047,-2.155040951905727e-06,-0.0025421244382444366,0.004251016151589275
3.8383838383838382,6.177215189873418,0.004424485596931113,0.004014098412811752,3.9249118805757377e-05,-0.0025315752029228594,0.004234779773851309
3.9393939393939394,6.177215189873418,0.004405793719209481,0.004048891087091136,-1.8578192880892238e-05,-0.002536405441890185,0.004238749091162926
4.040404040404041,6.177215189873418,0.004471895092062303,0.0039882098262543466,2.8849584636578188e-05,-0.002538031475494995,0.004251035671469046
4.141414141414141,6.177215189873418,0.004440616534912182,0.004035643055448367,3.1293275838923825e-05,-0.0025428778771081646,0.004252961862917978
4.242424242424242,6.177215189873418,0.004460223361588702,0.003964249525377064,-3.228690751757312e-05,-0.00252734186608973,0.004234448691819436
4.343434343434343,6.177215189873418,0.004453012212358191,0.0040434707124871365,-1.9235737412343002e-05,-0.0025489448774535985,0.004263151269180572
4.444444444444445,6.177215189873418,0.004383253832770311,0.0038057110132731207,-7.39287166241876e-05,-0.0024566894538130294,0.004126905554907145
4.545454545454545,6.177215189873418,0.004403138852841386,0.003908523104633925,-2.8141626802566028e-05,-0.0024934985872425938,0.004178132421440707
4.646464646464646,6.177215189873418,0.004147617424891944,0.0038834663427016695,6.630762371750268e-05,-0.002409325130278084,0.004023692156351217
4.747474747474747,6.177215189873418,0.0043142254637155274,0.004167458165655773,-2.051220582975113e-05,-0.00254450508881139,0.004242894887784177
4.848484848484849,6.177215189873418,0.004405978453327322,0.0039024537385452768,-9.927363618165778e-05,-0.0024925296575617796,0.004180577710084537
4.94949494949495,6.177215189873418,0.004307506232518339,0.00409704983402452,-7.313411649571643e-05,-0.0025213668199628573,0.004208135618971026
5.05050505050505,6.177215189873418,0.0045690023294198984,0.004022184165181875,6.935834972664109e-05,-0.002577355948380532,0.0043232870211036036
5.151515151515151,6.177215189873418,0.003937670299368193,0.0036922322159325875,-5.000057669416917e-05,-0.002288970754590234,0.003821849442463419
5.252525252525253,6.177215189873418,0.004338019937212653,0.003730915862548552,4.892692555742319e-06,-0.0024206807399283613,0.004068591226529602
5.353535353535354,6.177215189873418,0.004418791088516445,0.00391994216264506,-3.0078297134701527e-05,-0.002501619975348452,0.004192012626235097
5.454545454545454,6.177215189873418,0.0044126274349847085,0.004036719475711665,-9.985688950272246e-06,-0.0025348040732089115,0.004237233182355986
5.555555555555555,6.177215189873418,0.004220748862494713,0.004025069986850711,-5.21699126519747e-06,-0.0024737456548036265,0.004126400543067605
5.656565656565657,6.177215189873418,0.004365496812223892,0.004045728954817054,6.137016637928928e-05,-0.002523367730112284,0.004216060629304395
5.757575757575758,6.177215189873418,0.004640673669525418,0.0040473065257669106,0.0001227149247853763,-0.0026063940585876987,0.00437943949064401
5.858585858585858,6.177215189873418,0.004369299030855259,0.0038159205005609325,4.690988123831277e-05,-0.002455565859424858,0.004121374425308344
5.959595959595959,6.177215189873418,0.0045094114194806235,0.004005498003613946,5.185477096754143e-05,-0.0025544728269283707,0.004280704839242046
6.0606060606060606,6.177215189873418,0.00435967687623412,0.004190593230971523,-2.5810347565082304e-05,-0.0025650810321616925,0.004277875665326117
6.161616161616162,6.177215189873418,0.004523925458616419,0.004168826962242837,4.414856286246547e-05,-0.0026078257262577764,0.004357912878430702
6.262626262626262,6.177215189873418,0.004425262454678879,0.00404733711358431,-5.375215603478279e-07,-0.002541779870478957,0.004248924263905249
6.363636363636363,6.177215189873418,0.004521637611815893,0.004092057236642882,-3.23428151644761e-05,-0.0025841084545376327,0.004323248475708971
6.4646464646464645,6.177215189873418,0.004376860158876533,0.0039057036070221044,-7.173178161908084e-05,-0.0024847691297695913,0.004163189084319077
6.565656565656566,6.177215189873418,0.004353570010049466,0.003914144785909274,1.001816332190061e-05,-0.0024803144387876216,0.004151373143108891
6.666666666666667,6.177215189873418,0.004553135208173608,0.004031781554955589,3.770173274439372e-05,-0.0025754750289387588,0.004316632998439038
6.767676767676767,6.177215189873418,0.004465815077550944,0.004004848864995251,-2.9179116660269264e-05,-0.002541199182763858,0.0042544046065546865
6.8686868686868685,6.177215189873418,0.004551805916573042,0.004134096820654267,2.9737582470013104e-06,-0.0026057708211681928,0.004357994238920872
6.96969696969697,6.177215189873418,0.004438970790496395,0.004333024173729836,-5.88951908406009e-05,-0.0026315984892678695,0.004388142928143778
7.070707070707071,6.177215189873418,0.004478968724762436,0.0041849911438680346,-3.977226791053019e-05,-0.002599187960589141,0.004340001470592546
7.171717171717171,6.177215189873418,0.004540489397517824,0.004101168796151108,5.844589681680019e-06,-0.0025924974581006794,0.004337559049145717
7.2727272727272725,6.177215189873418,0.0046378173152232,0.004037679093781253,-8.028607073649801e-05,-0.002602648922701336,0.004370986325619406
7.373737373737374,6.177215189873418,0.004564570256645852,0.00402052438306583,-1.1523959178268585e-05,-0.0025755283919135044,0.00431837357491528
7.474747474747475,6.177215189873418,0.004559006036349286,0.004116306809879337,8.61868868437557e-05,-0.0026025938538685868,0.004357124595098713
7.575757575757575,6.177215189873418,0.004499183981817138,0.004171779919642872,8.881701427999761e-05,-0.0026012891704380032,0.004347466411155887
7.6767676767676765,6.177215189873418,0.004708848894129518,0.004264011525498487,-9.93030564798934e-05,-0.0026918581258884014,0.004506223422335869
7.777777777777778,6.177215189873418,0.004527658206355036,0.0042031399043921894,-6.174981085029002e-06,-0.0026192394332241677,0.004374449382500919
7.878787878787879,6.177215189873418,0.004618570784996458,0.004150637745282068,-4.469885154880934e-05,-0.0026307625590835577,0.004403972016385779
7.979797979797979,6.177215189873418,0.004685879586642978,0.004369110707998765,6.0970625664562654e-05,-0.002716497088392523,0.004537027821432657
8.080808080808081,6.177215189873418,0.004775517293941694,0.0043215902775690235,-7.667477916488835e-05,-0.002729132271453215,0.004567440849024113
8.181818181818182,6.177215189873418,0.0046528412798848475,0.0041073697913066734,-3.6524074757405e-05,-0.0026280633213574566,0.004405959700871769
8.282828282828282,6.177215189873418,0.004975123698793444,0.004219609822359598,-2.2243619461818907e-05,-0.002758420056345912,0.0046438525364386
8.383838383838384,6.177215189873418,0.004627448312533445,0.00416476540586254,-5.439418341589507e-06,-0.0026376641155187956,0.004414340367868953
8.484848484848484,6.177215189873418,0.004677425531194889,0.004245495082404713,3.151006744930922e-05,-0.0026768761840798806,0.0044774467787620014
8.585858585858587,6.177215189873418,0.004885182691792551,0.004277178604994268,1.7753745178757107e-05,-0.0027487083890360454,0.004611443748631272
8.686868686868687,6.177215189873418,0.005013425633449823,0.004123826268231436,-5.977012650339293e-05,-0.002741175570504378,0.0046342853554468206
8.787878787878787,6.177215189873418,0.004782424261603466,0.004427711586836195,-1.5615129743362188e-05,-0.002763040754531898,0.004615381662954805
8.88888888888889,6.177215189873418,0.004660388588362024,0.004309257224061442,2.890681877690169e-05,-0.0026908937437270393,0.004495399118970811
8.98989898989899,6.177215189873418,0.004904784754757315,0.004578435111389235,-2.161109459386211e-05,-0.0028449659598439652,0.004750173043473536
9.09090909090909,6.177215189873418,0.005120489139081042,0.004585906249580407,1.5002328613991148e-05,-0.002911918616598435,0.004875298679994767
9.191919191919192,6.177215189873418,0.005116720766178811,0.004399925340162149,-6.489066880305519e-06,-0.002854993831902288,0.004798657245977189
9.292929292929292,6.177215189873418,0.00515404958484027,0.004527310873618294,1.2829958937152792e-05,-0.002904408137537569,0.004871065588174561
9.393939393939394,6.177215189873418,0.004895392859351621,0.004638044703968317,4.553230039401616e-05,-0.002860031268995981,0.004772577769861567
9.494949494949495,6.177215189873418,0.005276150654925876,0.0044562104868873,-3.080988192029707e-05,-0.002919708342543953,0.004918006456330954
9.595959595959595,6.177215189873418,0.0053063724400855385,0.004742983769785649,5.372125741663059e-05,-0.0030148068629613565,0.005049168552750159
9.696969696969697,6.177215189873418,0.005341682498975771,0.004649959637443781,-1.0501998929909983e-05,-0.0029974926409258654,0.005031641820458581
9.797979797979798,6.177215189873418,0.005252855903855036,0.004989612790956327,-1.2225125873747417e-06,-0.0030727406084434085,0.005126306509274024
9.8989898989899,6.177215189873418,0.0055680536852069995,0.0048648322377333065,1.6975121329594496e-05,-0.003129865776882092,0.0052519550586085754
10.0,6.177215189873418,0.005494528866712344,0.0050607006658799,-6.234024537970341e-06,-0.003166568859777673,0.005290981892946792
0.0,6.2784810126582276,0.005549616561010616,0.004925150954951028,-7.098271207201617e-05,-0.003142430254788493,0.005266666140402687
0.10101010101010101,6.2784810126582276,0.005334968332080014,0.004747957281114379,-3.4801366746717916e-05,-0.003024877683958318,0.005067387602715233
0.20202020202020202,6.2784810126582276,0.005497540585648156,0.004784734207532918,6.481920870920644e-05,-0.003084682437954322,0.005179282577692215
0.30303030303030304,6.2784810126582276,0.005394449878677254,0.004793933588805005,3.7364698850960815e-05,-0.003056515040244678,0.005121078269571612
0.40404040404040403,6.2784810126582276,0.005375324308055082,0.0045430876988312874,3.104570836153262e-05,-0.002975523602065911,0.005011594459142636
0.5050505050505051,6.2784810126582276,0.005204210003039039,0.004520399772346268,3.0680587850065986e-05,-0.002917382932615592,0.004898523250939248
0.6060606060606061,6.2784810126582276,0.005071343750799103,0.004698445120022161,-7.974599506365101e-05,-0.002930936661246379,0.0048975056873798856
0.7070707070707071,6.2784810126582276,0.004943633837904074,0.004557189985026446,-5.2542501826101553e-05,-0.002850247146879156,0.004763055700981843
0.8080808080808081,6.2784810126582276,0.005243386546378585,0.004624604683805171,2.8120714942788824e-05,-0.002960397369055127,0.0049632502756419535
0.9090909090909091,6.2784810126582276,0.005142875308542748,0.004514779240117288,-6.496396722886862e-06,-0.002897296364598011,0.004859380408879639
1.0101010101010102,6.2784810126582276,0.004960053247598297,0.004559536441432746,2.7526230249078e-05,-0.0028558769067093125,0.004772654431859435
1.1111111111111112,6.2784810126582276,0.004755675095735204,0.004426598253164856,-5.9282817409553373e-05,-0.002754682004670018,0.004601119211348166
1.2121212121212122,6.2784810126582276,0.0047187799313946135,0.004363443768613052,-3.3616076698723596e-06,-0.0027246671100023,0.00455153035548472
1.3131313131313131,6.2784810126582276,0.004846665704319008,0.004397164287622945,-0.00010050114361791212,-0.0027731489975825856,0.004641544819593552
1.4141414141414141,6.2784810126582276,0.004717897315902801,0.004119973845579249,3.385868906715872e-05,-0.0026513613484446153,0.004449557872023677
1.5151515151515151,6.2784810126582276,0.004846728967029555,0.00427391405117162,-8.14871972709221e-05,-0.0027361929054603522,0.004589394344812251
1.6161616161616161,6.2784810126582276,0.004976532443346183,0.004499465747172141,-5.29478040047186e-05,-0.002842799457155497,0.004756862443982612
1.7171717171717171,6.2784810126582276,0.004716026500787434,0.004312357598832678,3.211931249583537e-05,-0.0027085152298860333,0.0045280499390000055
1.8181818181818181,6.2784810126582276,0.004826834087575382,0.004111476427692832,-3.444756807734995e-05,-0.0026814931545804644,0.004512284461095332
1.9191919191919191,6.2784810126582276,0.004552865311351074,0.0042542407245320015,-0.00010301435148999037,-0.002642131810764923,0.00441474773170001
2.0202020202020203,6.2784810126582276,0.004650418728257505,0.004251999420980933,-4.003321029153455e-05,-0.0026707254447715313,0.004465100632467232
2.121212121212121,6.2784810126582276,0.004689019008842741,0.004123542582989795,4.8709662093417795e-05,-0.002643768477549761,0.004434213688710867
2.2222222222222223,6.2784810126582276,0.004725605440968094,0.004148082956637967,-3.477279735477662e-05,-0.002662106519281818,0.004465351391737258
2.323232323232323,6.2784810126582276,0.00466433165176386,0.0042133274106592854,-6.92984948482682e-05,-0.0026632977187269436,0.004457596669780857
2.4242424242424243,6.2784810126582276,0.004736337189204392,0.004139027278289295,6.182557446649607e-06,-0.002662609340248106,0.004467742453076293
2.525252525252525,6.2784810126582276,0.004694750708599362,0.004140071583536491,-1.2223537928256416e-05,-0.002650446687640756,0.004443503254964374
2.6262626262626263,6.2784810126582276,0.004434814770797193,0.004161846546922861,-1.1080035297206849e-05,-0.002578998395316016,0.004304869160947457
2.727272727272727,6.2784810126582276,0.0045246705424958926,0.0043192442530243635,-1.345640026592151e-05,-0.0026531744386560766,0.004425596052740738
2.8282828282828283,6.2784810126582276,0.004529243063105966,0.003992701299031569,-3.145461043211912e-05,-0.0025565833086412604,0.00428657904439441
2.929292929292929,6.2784810126582276,0.004548207871920055,0.004062687552914054,2.3507938699207873e-05,-0.0025832686274502325,0.00432612243920912
3.0303030303030303,6.2784810126582276,0.00445280513315148,0.00406506466967958,1.1070219479558613e-05,-0.0025553609408493177,0.004272195120079763
3.131313131313131,6.2784810126582276,0.004351202290947426,0.004156786897513265,3.8028540615277455e-05,-0.0025523967565382077,0.004257834722760866
3.2323232323232323,6.2784810126582276,0.004690444112629906,0.003972722763416107,-2.9088237651115553e-05,-0.002598950062813804,0.004376242270327605
3.3333333333333335,6.2784810126582276,0.004437148995869031,0.004104444048758707,5.224829366123705e-05,-0.002562477913388321,0.004281461435532677
3.4343434343434343,6.2784810126582276,0.004447369042481045,0.004154693861593359,-1.6075552875507015e-05,-0.002580618871222321,0.004308583397445701
3.5353535353535355,6.2784810126582276,0.004507534352284913,0.0038893062957411732,1.0654963412165359e-05,-0.002519052194407826,0.0042324612519484585
3.6363636363636362,6.2784810126582276,0.004543434786484514,0.004097563282951411,-2.8933395211517916e-05,-0.002592299420830777,0.004338009264780493
3.7373737373737375,6.2784810126582276,0.004321365359688286,0.0041645325612075694,-5.541376157543951e-06,-0.0025457693762687564,0.00424513314237902
3.8383838383838382,6.2784810126582276,0.0044264786426658695,0.0039704251104199055,-1.8088598023658487e-05,-0.0025190711259257324,0.004217104263589814
3.9393939393939394,6.2784810126582276,0.004517075440115035,0.003985982092159309,5.512651848182594e-05,-0.002550917259682303,0.004277400934749251
4.040404040404041,6.2784810126582276,0.004339252630286495,0.004059516545132225,-5.756472389415338e-05,-0.002519630752625616,0.004207548124003458
4.141414141414141,6.2784810126582276,0.004591353792121385,0.004032283370444449,7.770440388543462e-05,-0.00258709114876975,0.004341003709206169
4.242424242424242,6.2784810126582276,0.004314104731260256,0.0038519047604939397,8.06872052375083e-05,-0.002449802847526259,0.004104958055797198
4.343434343434343,6.2784810126582276,0.004280627762891158,0.0038525842825193864,2.165695248508507e-05,-0.002439963613623163,0.004083639005898073
4.444444444444445,6.2784810126582276,0.0045852659838896,0.0038171899078690294,8.515164321964107e-05,-0.0025207367675275883,0.004256116105580616
4.545454545454545,6.2784810126582276,0.004550183348147921,0.0039044652718333373,-3.9446922629850525e-05,-0.0025363945859943776,0.004264698450830047
4.646464646464646,6.2784810126582276,0.004325246720264255,0.003901536675992849,7.105977647713851e-06,-0.0024680350188771316,0.004129744592368908
4.747474747474747,6.2784810126582276,0.004402173972984858,0.004130307175351611,1.1990718848459924e-05,-0.002559744344500941,0.004272782891212277
4.848484848484849,6.2784810126582276,0.004253342374458502,0.004080058100958803,1.4014581552608275e-05,-0.002500020142625191,0.004169472469748584
4.94949494949495,6.2784810126582276,0.0044006544018112,0.0036850757303180386,-3.942264960993786e-05,-0.0024257190396387717,0.004090655204809423
5.05050505050505,6.2784810126582276,0.00453721095735163,0.004062929573575163,8.822478086555661e-05,-0.0025800421592780376,0.004322344531275412
5.151515151515151,6.2784810126582276,0.0044373203417529825,0.0039068464687883565,2.948261048504675e-05,-0.0025032500431624014,0.004197611167190396
5.252525252525253,6.2784810126582276,0.004514571863309633,0.004012307948044671,-5.881885534742959e-05,-0.002558063943406291,0.00428678207785123
5.353535353535354,6.2784810126582276,0.004495241006451805,0.00394585534050216,4.41788857650421e-05,-0.002532328904086189,0.004247970181621501
5.454545454545454,6.2784810126582276,0.00428024127293298,0.003751577719077391,-6.735023109504268e-05,-0.002409545697603111,0.004043606200642157
5.555555555555555,6.2784810126582276,0.004322039164378877,0.003836015567825801,-2.852240661195624e-05,-0.002447416419661403,0.004100983911057612
5.656565656565657,6.2784810126582276,0.004332862513773364,0.004076172173871981,1.6502610195507287e-05,-0.002522710406293604,0.004210486973128461
5.757575757575758,6.2784810126582276,0.004523182123934861,0.003906575548134573,6.782169319568134e-05,-0.00252892730162083,0.0042501947838478275
5.858585858585858,6.2784810126582276,0.004509682655035056,0.0038731198658301636,5.66462155918096e-05,-0.0025148407562595658,0.004228638084020543
5.959595959595959,6.2784810126582276,0.004383024773558405,0.003967594825923943,4.7281865968403095e-05,-0.002505185879844704,0.004191581465199826
6.0606060606060606,6.2784810126582276,0.004429407711668687,0.003924302151141477,1.614645504905731e-05,-0.0025061129588430492,0.0041997914189268425
6.161616161616162,6.2784810126582276,0.004600212180806705,0.004063828908654894,-8.836591139744482e-05,-0.0025992123268384795,0.0043595421621822
6.262626262626262,6.2784810126582276,0.004456036385768355,0.003950890511691825,5.247593320091046e-05,-0.0025220780692380537,0.004227143882230434
6.363636363636363,6.2784810126582276,0.00443153529366589,0.0040186401942885605,7.6016739285743145e-06,-0.002535052646386335,0.004240212444319679
6.4646464646464645,6.2784810126582276,0.004574753089756157,0.004020000817359521,3.501670988900496e-05,-0.002578426172134703,0.004324573938977265
6.565656565656566,6.2784810126582276,0.004402088476412177,0.004048320012688554,-1.7080318937986992e-05,-0.0025351225467302196,0.004236400620160412
6.666666666666667,6.2784810126582276,0.00444668878177026,0.0038354305776956113,4.177873104799585e-05,-0.0024846358078397615,0.004175384904682467
6.767676767676767,6.2784810126582276,0.004682684940271973,0.003980556860465295,1.9116145980400126e-05,-0.00259897254022118,0.004374216934030771
6.8686868686868685,6.2784810126582276,0.004480094364488617,0.004268272274267445,9.847502217175508e-05,-0.0026245099916268185,0.004381349466765855
6.96969696969697,6.2784810126582276,0.004512393265769665,0.003996436312784852,-7.943867696097552e-05,-0.0025526488735663545,0.004280027499025329
7.070707070707071,6.2784810126582276,0.004571324713077193,0.004101910823546002,2.540162555325812e-05,-0.0026019706609869586,0.0043558525509872
7.171717171717171,6.2784810126582276,0.004489681798997757,0.0042233775366547375,5.7239788164157305e-06,-0.0026139178006957483,0.004362641116176907
7.2727272727272725,6.2784810126582276,0.004606453768688804,0.004021193655414085,-7.11492344974986e-05,-0.002588294227230867,0.004345245529254797
7.373737373737374,6.2784810126582276,0.004543675352032287,0.004296150370517722,5.273616501489054e-05,-0.0026519477167650024,0.004426050663166992
7.474747474747475,6.2784810126582276,0.004542162396433707,0.004134683043024511,-5.973489340993248e-05,-0.0026030536318374657,0.004353980481711521
7.575757575757575,6.2784810126582276,0.0044901788741611446,0.004332818946815657,-2.252029073621501e-05,-0.00264689934629304,0.004413775678234623
7.6767676767676765,6.2784810126582276,0.004525714264849078,0.004116635752540743,-5.420633506610401e-05,-0.002592705005216946,0.004336689677389616
7.777777777777778,6.2784810126582276,0.0045827281069286685,0.004000840613618549,-1.4370632532196684e-05,-0.002575070616164165,0.004321339761171334
7.878787878787879,6.2784810126582276,0.004591009833195202,0.004109014244679304,2.6559877648376237e-05,-0.0026100072233623517,0.004370235786626703
7.979797979797979,6.2784810126582276,0.004597812411229065,0.004138713546511368,2.03609687559461e-05,-0.00262095778732213,0.004386461442370484
8.080808080808081,6.2784810126582276,0.00466529512683023,0.004104545596961318,1.3062348528888516e-05,-0.0026309522171374645,0.004411787447447077
8.181818181818182,6.2784810126582276,0.004626454485830651,0.004141877316532995,2.78522311066047e-05,-0.0026304995407090935,0.004404469226157866
8.282828282828282,6.2784810126582276,0.004804215691738848,0.004343392801740596,5.5158787911462816e-05,-0.002744282548043833,0.004592176070786666
8.383838383838384,6.2784810126582276,0.004863517551146747,0.004276045932584929,1.905777943448692e-05,-0.002741869045119503,0.004598134071786404
8.484848484848484,6.2784810126582276,0.004891136568628531,0.004244105838432772,-1.7873091865076056e-05,-0.002740572722118391,0.004601967880759761
8.585858585858587,6.2784810126582276,0.004929930167632156,0.004329879963305945,3.9051379689304854e-05,-0.0027779430392814303,0.004659467902218754
8.686868686868687,6.2784810126582276,0.0049985219980685685,0.004581783194610957,-4.357684129857769e-05,-0.002874091557803858,0.004804322235471276
8.787878787878787,6.2784810126582276,0.0049380186259223085,0.0045964507620455,2.7165631472551612e-05,-0.0028603408163903423,0.004776635007654315
8.88888888888889,6.2784810126582276,0.005055027761266742,0.00442259240064823,5.716715495242989e-05,-0.0028432860485744916,0.004771384086218679
8.98989898989899,6.2784810126582276,0.004931433949472469,0.004596793683160005,4.6997554466002125e-06,-0.0028584682897897424,0.0047729272777612365
9.09090909090909,6.2784810126582276,0.005112455312291734,0.004433979946226996,-7.159011639421986e-05,-0.002863930577555619,0.004810844893294308
9.191919191919192,6.2784810126582276,0.005106839538756064,0.004459329118960025,4.2204078353747614e-05,-0.0028698505973148267,0.004816398193408101
9.292929292929292,6.2784810126582276,0.005008975296006524,0.004563251466522132,-2.2957044209593714e-06,-0.002871668028758596,0.004801655902729963
9.393939393939394,6.2784810126582276,0.005282072914046144,0.004515372384876736,-0.00010570777030639928,-0.0029392335896768636,0.004946905929015373
9.494949494949495,6.2784810126582276,0.0052623754600633,0.0045489666233968495,8.796855565446165e-07,-0.0029434026250380447,0.004944423608205955
9.595959595959595,6.2784810126582276,0.005273477864968293,0.004653930625900322,-2.3774185352465926e-05,-0.0029782225472605845,0.0049927882548619715
9.696969696969697,6.2784810126582276,0.00522526946033608,0.004879466104101478,4.631116962535422e-05,-0.003031420669331268,0.005061871131408409
9.797979797979798,6.2784810126582276,0.0055193089634098845,0.0047815810738894085,1.0893140596640152e-05,-0.0030902670111897877,0.00518995392088421
9.8989898989899,6.2784810126582276,0.005155893492635874,0.0048847737050663415,2.167980417470621e-05,-0.0030122001593106645,0.005025961494071487
10.0,6.2784810126582276,0.005491936498072804,0.004821368544598201,-8.668255449452893e-05,-0.003093991512801301,0.0051914210825868504
0.0,6.379746835443038,0.005543126483845952,0.004903435973229988,6.054879470185127e-05,-0.0031339687371227816,0.005253624294146447
0.10101010101010101,6.379746835443038,0.005439379047701082,0.004698953966984166,1.2663277863660417e-05,-0.0030414999044055748,0.005109608804018069
0.20202020202020202,6.379746835443038,0.005387081956994813,0.004859376053566767,0.00011014074726660574,-0.0030739374031684735,0.005147108269073066
0.30303030303030304,6.379746835443038,0.005259065241239736,0.004750493286936045,-6.385735723895387e-05,-0.0030028675584527344,0.005025339077414873
0.40404040404040403,6.379746835443038,0.00527998131239455,0.004771191666932281,-7.000952991869242e-05,-0.0030153518937980493,0.005046322794414065
0.5050505050505051,6.379746835443038,0.005080684782038577,0.004935448706998004,7.298655758373157e-05,-0.0030048400467109744,0.00501124074141661
0.6060606060606061,6.379746835443038,0.005071517295528622,0.004632872774549067,1.3431109496496022e-06,-0.0029113170210233064,0.00486704313025226
0.7070707070707071,6.379746835443038,0.0050933680072594925,0.00464197733376651,-1.185339631730566e-05,-0.0029206036023078003,0.004883387542614171
0.8080808080808081,6.379746835443038,0.004954174116654305,0.004692062722033729,1.6881587700882978e-06,-0.0028938710516064102,0.004828457996508624
0.9090909090909091,6.379746835443038,0.0050060404563283855,0.004548768335932932,-2.8498098673345852e-05,-0.002866442637678395,0.00479404344297387
1.0101010101010102,6.379746835443038,0.005188279187300754,0.004566796372340349,-7.288801777471089e-05,-0.002926522667892331,0.004908766998946936
1.1111111111111112,6.379746835443038,0.004771941442422776,0.004534481982352532,-2.1349795778381316e-05,-0.0027919270274325923,0.0046579004849850135
1.2121212121212122,6.379746835443038,0.0050306069602922615,0.004409967124214995,-5.2219958586206685e-05,-0.0028321722253521766,0.004751650859236846
1.3131313131313131,6.379746835443038,0.004916702833260619,0.0044445240841698205,-4.889091963107669e-05,-0.002808368075229132,0.004699205027905559
1.4141414141414141,6.379746835443038,0.0047868998648416166,0.004381503790452522,-3.097115329058192e-05,-0.0027505210965882414,0.004597939050972592
1.5151515151515151,6.379746835443038,0.004801044694677064,0.004400111697103642,-2.602430815228742e-05,-0.002760346917534212,0.004613882527953389
1.6161616161616161,6.379746835443038,0.004953024248775224,0.004392631289024249,4.483354260237623e-05,-0.002803696661339842,0.004698604016027651
1.7171717171717171,6.379746835443038,0.004865180980291983,0.004274881326904687,7.372521753359569e-05,-0.002742018692159001,0.004600307731940585
1.8181818181818181,6.379746835443038,0.004728120513698313,0.004318398919206305,6.475064190945682e-06,-0.0027139558298713853,0.00453716961117764
1.9191919191919191,6.379746835443038,0.004526668143760855,0.004280472690888045,-2.8130705365267012e-05,-0.00264214225039467,0.004408998251400142
2.0202020202020203,6.379746835443038,0.004688613551680532,0.004190759163813671,-4.638325392584455e-05,-0.0026638118146482606,0.004461296158913762
2.121212121212121,6.379746835443038,0.004648684189634875,0.0041914401465674486,1.6129866440414628e-05,-0.0026520373008606974,0.004437852428128247
2.2222222222222223,6.379746835443038,0.004557970581332788,0.004107122750356283,1.902690628632779e-05,-0.0025995279995067212,0.004350229247549059
2.323232323232323,6.379746835443038,0.004604415997771801,0.004152990160621832,8.898279603798199e-05,-0.00262722184751809,0.004398821823463052
2.4242424242424243,6.379746835443038,0.00444649029161492,0.004024491581839703,-2.0194928326612854e-05,-0.002541294562036387,0.0042513726211399665
2.525252525252525,6.379746835443038,0.004575028859482108,0.004261864108235531,-7.57833169063949e-06,-0.0026510678903152915,0.004426781646425031
2.6262626262626263,6.379746835443038,0.004761422069332089,0.004136829902696287,5.391731765174361e-05,-0.002669475591608513,0.004482859556334785
2.727272727272727,6.379746835443038,0.004611998434200179,0.004087036161337917,5.27255030499069e-05,-0.0026097103786614285,0.004374166172032595
2.8282828282828283,6.379746835443038,0.0044595293981428245,0.004138300059624136,5.352655788812374e-06,-0.002579348837330088,0.0043079165515278
2.929292929292929,6.379746835443038,0.00433948667262988,0.00397631298746492,8.055604255090844e-06,-0.00249473989802844,0.004169801796151127
3.0303030303030303,6.379746835443038,0.004584267657823723,0.003948357323350353,3.3456093825953205e-05,-0.0025597874943522224,0.004302100261860336
3.131313131313131,6.379746835443038,0.004570902868627691,0.00392858683839352,-3.965682819848732e-05,-0.0025498469121063632,0.004286546013287389
3.2323232323232323,6.379746835443038,0.004268375405346334,0.004116385317883895,-2.092130206605582e-05,-0.0025154282169690687,0.004194602715289211
3.3333333333333335,6.379746835443038,0.004606559502300393,0.004089844585518654,-3.792334170961398e-05,-0.002608921226345714,0.0043716611583146285
3.4343434343434343,6.379746835443038,0.004572927159725549,0.003863931980655046,5.097135832772468e-06,-0.002531057742114178,0.004262890053003466
3.5353535353535355,6.379746835443038,0.00460164614942773,0.003988305391386004,2.555251208798863e-06,-0.0025769854622441197,0.004327698767291306
3.6363636363636362,6.379746835443038,0.00423751209758204,0.0040595711122059985,-3.500582766958905e-05,-0.0024891249629364113,0.00415184548329494
3.7373737373737375,6.379746835443038,0.004462487311943924,0.003982667046981038,4.7325696050271e-06,-0.0025335463076774888,0.0042429819517839475
3.8383838383838382,6.379746835443038,0.004466884407065287,0.004104132537300567,-5.490179099345559e-05,-0.002571305083309756,0.0042980596987917535
3.9393939393939394,6.379746835443038,0.004324012047341605,0.004007906821700895,-2.8313849679788884e-05,-0.00249957566071275,0.00417523231899564
4.040404040404041,6.379746835443038,0.0045628888582877085,0.003976190060185502,1.2594511154094652e-06,-0.0025617236755419628,0.00429966668038357
4.141414141414141,6.379746835443038,0.0043785995645634086,0.0037921898881758402,4.0533415072393915e-05,-0.0024512368358217745,0.004117436845281511
4.242424242424242,6.379746835443038,0.00454485397052816,0.003956491660418743,3.5315537529372186e-05,-0.002550403689284071,0.004281540447285992
4.343434343434343,6.379746835443038,0.0045182120318997205,0.003933670454982177,-8.990352336509053e-05,-0.0025355647460645688,0.004259001522060604
4.444444444444445,6.379746835443038,0.004307566671934705,0.003813317496902833,-0.0001105610775897598,-0.0024362652506512614,0.0040874286369082
4.545454545454545,6.379746835443038,0.004343856570513744,0.0038710718398471517,-9.37622871235648e-05,-0.002464478523108269,0.004131014445322381
4.646464646464646,6.379746835443038,0.004302198337579112,0.003976521687660572,7.908185426561807e-05,-0.0024836160075719055,0.00415121814571639
4.747474747474747,6.379746835443038,0.004479596411950057,0.00400644498263706,-3.4484456608756312e-06,-0.0025458124183761347,0.004262764891392633
4.848484848484849,6.379746835443038,0.004456334201256622,0.004031449682266714,1.2837145624209342e-05,-0.002546335165057001,0.004259871867924071
4.94949494949495,6.379746835443038,0.004396923028812846,0.003954627255799705,-6.211979214090524e-05,-0.0025054650853837653,0.004194686377781877
5.05050505050505,6.379746835443038,0.004301583014913374,0.0039966908374783495,6.658989348562165e-05,-0.002489482155717517,0.004159129632983459
5.151515151515151,6.379746835443038,0.00427288220364361,0.003926819379346727,2.8154648020457077e-05,-0.002459910474897101,0.004111079441449566
5.252525252525253,6.379746835443038,0.004467784526383494,0.003948385180312663,-2.5153516679264255e-05,-0.0025248509120088473,0.004232281653163648
5.353535353535354,6.379746835443038,0.004461545935236855,0.0038002976385036525,3.775778302577479e-05,-0.002478553072122152,0.0041709385924784135
5.454545454545454,6.379746835443038,0.004420574669254219,0.003898615259444088,7.736625899945284e-05,-0.002495756978609492,0.004186229580499683
5.555555555555555,6.379746835443038,0.004505732073301245,0.003991252646443253,-7.882384873118176e-05,-0.0025490954159233495,0.0042739728286191
5.656565656565657,6.379746835443038,0.004477859625887833,0.003952734565737679,-7.534781097306746e-05,-0.0025291782574876536,0.004241765991944986
5.757575757575758,6.379746835443038,0.0043832891126549004,0.0039014419669486217,-0.0001098196263662148,-0.0024854193238810565,0.0041676739100140435
5.858585858585858,6.379746835443038,0.004477551731304797,0.004114753617492032,1.8321645956910927e-06,-0.002577691604639049,0.004307627505456053
5.959595959595959,6.379746835443038,0.00453211325562608,0.003976972233682258,1.9680153071105932e-05,-0.0025527256467925015,0.004281755721318973
6.0606060606060606,6.379746835443038,0.004531659216937754,0.003961817376782028,1.3032960774163088e-05,-0.0025480429781159345,0.004275375483897305
6.161616161616162,6.379746835443038,0.004498761112303525,0.004020841995572847,9.672978220288013e-05,-0.0025558809323629112,0.004283139531095352
6.262626262626262,6.379746835443038,0.004328705566300857,0.0037804766384281004,5.0446409474415656e-05,-0.0024327546614186873,0.004083229083222881
6.363636363636363,6.379746835443038,0.004452561472671874,0.003958696424354617,2.0376616373299435e-06,-0.0025233773691079467,0.004227322358565706
6.4646464646464645,6.379746835443038,0.004501296949550248,0.003999050607979365,2.1192797055280826e-05,-0.002550104267258884,0.004272530057747633
6.565656565656566,6.379746835443038,0.004378071141925665,0.003923197327948433,-4.7942470291686944e-05,-0.0024903805409622294,0.0041701130240781375
6.666666666666667,6.379746835443038,0.0044724347287854686,0.004050189891295366,-9.789379010218654e-05,-0.00255678738602425,0.00428033295588252
6.767676767676767,6.379746835443038,0.004435609473074095,0.00414398399365992,4.3263636305828864e-05,-0.0025738780400202045,0.004297878000300627
6.8686868686868685,6.379746835443038,0.004546092032547262,0.004098919580241839,-7.95608799031953e-06,-0.0025935034838367303,0.0043398408664257
6.96969696969697,6.379746835443038,0.004634949128186224,0.00405730287993063,-3.469600727180162e-05,-0.002607675602435056,0.004375234744903124
7.070707070707071,6.379746835443038,0.004443877695685834,0.003917236259882023,1.5018347263511157e-05,-0.002508334186670357,0.0042054425092005005
7.171717171717171,6.379746835443038,0.004322266700825481,0.0042742339156064905,6.20257576800032e-06,-0.002578950184929591,0.004298465015474618
7.2727272727272725,6.379746835443038,0.004363066994004268,0.004080106152460457,1.5114524178717604e-05,-0.002532951943939417,0.004228773896793797
7.373737373737374,6.379746835443038,0.0045206572549843895,0.004287167771068162,-4.9296607898269215e-05,-0.0026423475078157653,0.004409379082519991
7.474747474747475,6.379746835443038,0.00476877622372891,0.004203990202552304,-1.4981929460131869e-05,-0.0026918299278843646,0.004513041673535516
7.575757575757575,6.379746835443038,0.004688900425426939,0.004176810586604256,-6.699753211763809e-05,-0.002659713303609358,0.004456495366026025
7.6767676767676765,6.379746835443038,0.004604887210339167,0.0039547570296727,-2.569889880355066e-05,-0.0025678932720035598,0.00431692721944108
7.777777777777778,6.379746835443038,0.004685779237039096,0.004296366232919044,2.55958188642993e-05,-0.0026946436409874415,0.004503935125480354
7.878787878787879,6.379746835443038,0.004769937393898581,0.003920152544951901,0.00012859214785082462,-0.0026070269816551445,0.004412553039332078
7.979797979797979,6.379746835443038,0.004668436894438414,0.004186633926280679,-1.864708182852599e-05,-0.0026565212462157277,0.004447270345511282
8.080808080808081,6.379746835443038,0.004762236440608916,0.0040479355530325745,-4.320966483280549e-05,-0.002643051598092447,0.004448938433299046
8.181818181818182,6.379746835443038,0.0046409824171550415,0.0040952589475723436,-3.106399746755715e-05,-0.0026208724094182157,0.004393942852433276
8.282828282828282,6.379746835443038,0.004596253979709101,0.0041462345335351375,-1.2507542186929558e-05,-0.0026227465539732714,0.004388636894678981
8.383838383838384,6.379746835443038,0.004618043187527238,0.004244032521036524,1.3280158248000327e-05,-0.0026586227125691285,0.004442920046306806
8.484848484848484,6.379746835443038,0.004860757522613651,0.004075095508051808,1.7432749265432798e-05,-0.002680755909199638,0.004519538433236092
8.585858585858587,6.379746835443038,0.004692260342906376,0.004367828091633948,-5.732622877394901e-05,-0.0027180265303620972,0.004539834987550587
8.686868686868687,6.379746835443038,0.005003175379427133,0.00455398493296584,2.813000728886354e-05,-0.002867148093717892,0.0047946356737524
8.787878787878787,6.379746835443038,0.004939640955864603,0.004437851270864996,-1.8107120849435573e-05,-0.0028132476680188794,0.004708945570406275
8.88888888888889,6.379746835443038,0.004890153771775332,0.004237143755089538,5.133569399951113e-05,-0.002738189258059461,0.004599414382052634
8.98989898989899,6.379746835443038,0.004974179196130519,0.004494842233756785,-3.643502898529211e-05,-0.0028407064289661913,0.004753093433391667
9.09090909090909,6.379746835443038,0.004970642473253245,0.004528615491290406,4.339481544633542e-06,-0.002849777389363095,0.004765036500607745
9.191919191919192,6.379746835443038,0.004976933646479108,0.004621406018858322,-2.948312525564457e-06,-0.002879501899601229,0.004809039101623001
9.292929292929292,6.379746835443038,0.004983013468419329,0.004508154953618213,5.027916106089627e-08,-0.002847350526611262,0.0047633693398962855
9.393939393939394,6.379746835443038,0.005077038430024073,0.004576571833478188,7.619157187841236e-06,-0.0028960830790506786,0.004846243085655266
9.494949494949495,6.379746835443038,0.005024282370815334,0.00466877706854089,-5.284076132989153e-05,-0.002907917831806867,0.004857161184977898
9.595959595959595,6.379746835443038,0.005259711051305195,0.004689236320424369,-2.023195690180108e-05,-0.002984684211518869,0.004999069664600759
9.696969696969697,6.379746835443038,0.005172279772797742,0.004930947897795789,-1.094532497509623e-06,-0.0030309683011780593,0.005055935792747454
9.797979797979798,6.379746835443038,0.005383415404062722,0.004892624956311727,-8.786135703385112e-05,-0.0030828121081123345,0.005157816076004782
9.8989898989899,6.379746835443038,0.005533741299608904,0.004980394440657708,-3.322908665527151e-05,-0.003154240722079984,0.005279177934822914
10.0,6.379746835443038,0.005623661964190512,0.005064842455165009,-5.49574283077877e-05,-0.003206551325806656,0.005366963952755307
0.0,6.481012658227848,0.005378192793087363,0.004887678990046913,-4.0521627406057026e-05,-0.0030797615349402825,0.0051509620185971996
0.10101010101010101,6.481012658227848,0.0054076540493680865,0.005028913427957394,-7.947287951104032e-05,-0.003130970243197644,0.005230393516424479
0.20202020202020202,6.481012658227848,0.005318774587569033,0.004745064736031885,-5.0976051459352914e-05,-0.0030191517970802753,0.005057160112315437
0.30303030303030304,6.481012658227848,0.005206425076552337,0.004619303061100171,-4.063705183484533e-05,-0.0029477184412957523,0.004939607440321649
0.40404040404040403,6.481012658227848,0.005134133922067202,0.004844720126634424,-3.0606931106901235e-05,-0.0029936562146104873,0.00499599966400696
0.5050505050505051,6.481012658227848,0.005243724727586453,0.0047089768822439525,-5.067387811447074e-05,-0.002985810482949122,0.004998623540828365
0.6060606060606061,6.481012658227848,0.005212668924130082,0.004417613297351701,-8.92284436711629e-06,-0.0028890846664445346,0.004864145130961431
0.7070707070707071,6.481012658227848,0.005082389222290608,0.004768672340600665,-6.390470965561418e-07,-0.0029553184688673817,0.0049330181851990965
0.8080808080808081,6.481012658227848,0.005049637524975688,0.004572177485453978,0.00010926000855081597,-0.0028865445031288997,0.004832351429598538
0.9090909090909091,6.481012658227848,0.005006563718169115,0.004469642665151723,-4.2111237784025106e-05,-0.0028428619149962514,0.004761423640755539
1.0101010101010102,6.481012658227848,0.005160174409422662,0.004563839441646327,-1.0932840014759303e-05,-0.002917204155320697,0.004889394795909035
1.1111111111111112,6.481012658227848,0.004922686522132212,0.004415484776217816,4.952590068136222e-05,-0.0028014513895050085,0.004690486057131064
1.2121212121212122,6.481012658227848,0.00510505180587072,0.004507677586266424,1.2331654106977425e-05,-0.0028838188176411434,0.00483417415588012
1.3131313131313131,6.481012658227848,0.005029181676292634,0.004424444349381921,-1.5232342476884204e-05,-0.0028360878077023665,0.004755810946307597
1.4141414141414141,6.481012658227848,0.004822853286035054,0.004291372328179499,2.054042587347264e-05,-0.0027342676842643664,0.004580436318781066
1.5151515151515151,6.481012658227848,0.00505256231915316,0.004226221603644269,-2.117121634543393e-05,-0.002783635176839228,0.004694404293014871
1.6161616161616161,6.481012658227848,0.00460174016847345,0.004300402570989956,2.9089248386237182e-05,-0.0026706428218390217,0.004458999680679864
1.7171717171717171,6.481012658227848,0.00496524290846504,0.004301144891296108,3.826981485738684e-06,-0.002779916339928344,0.004668757788058642
1.8181818181818181,6.481012658227848,0.004802414242838716,0.004190108207224074,-2.7246906721936936e-05,-0.002697756735018837,0.004527668406192767
1.9191919191919191,6.481012658227848,0.0046358510677155145,0.004261452752160632,6.0809821675917546e-05,-0.002669191145962844,0.004461695629808267
2.0202020202020203,6.481012658227848,0.004463367839156549,0.004251594622197446,-9.620652204318892e-05,-0.002614488738406199,0.0043645212431513225
2.121212121212121,6.481012658227848,0.004645609867625135,0.004220365536813854,-3.419272976409561e-05,-0.002659792621331697,0.0044486528243953575
2.2222222222222223,6.481012658227848,0.0046426109817908606,0.004331794288788558,-2.636550073917537e-05,-0.0026923215811738253,0.004495500881050438
2.323232323232323,6.481012658227848,0.004698086459274159,0.004205773340848378,2.5675434553896716e-05,-0.002671157940036761,0.004472520170307644
2.4242424242424243,6.481012658227848,0.004706801101927856,0.004144059057610497,8.126340818668821e-05,-0.0026552580478615057,0.004454408105662079
2.525252525252525,6.481012658227848,0.004630444567044606,0.004085418856192386,3.149443934594458e-05,-0.002614759026971097,0.004383758007848602
2.6262626262626263,6.481012658227848,0.004366219102833048,0.003975589497603714,5.1882059613968846e-06,-0.0025025425801310287,0.004184610740604757
2.727272727272727,6.481012658227848,0.004353731993498765,0.004202251443615359,9.30869180154119e-06,-0.0025667950311342364,0.004280033045084664
2.8282828282828283,6.481012658227848,0.004664761577872782,0.004098363476599956,7.0306277528330035e-06,-0.0026289375163418218,0.004408950393926638
2.929292929292929,6.481012658227848,0.004510829312842267,0.0039850699441772545,-1.4044990943020772e-05,-0.0025487697771058564,0.00427235122818481
3.0303030303030303,6.481012658227848,0.004461348088006199,0.004111492682637452,2.6250982115128597e-05,-0.0025718522311930954,0.004297355717809247
3.131313131313131,6.481012658227848,0.004561177632863027,0.00401540369338708,2.683168065591862e-05,-0.002572974397875032,0.004314510229848145
3.2323232323232323,6.481012658227848,0.004248346687370036,0.0041373750731985475,7.676458910447055e-06,-0.002515716528170575,0.004193983210486952
3.3333333333333335,6.481012658227848,0.0043749942440435,0.0039500444029610254,-4.4685562320932754e-05,-0.002497511594101358,0.004179472968275613
3.4343434343434343,6.481012658227848,0.004533570785335624,0.00421488808367894,7.578964779835844e-06,-0.0026245376607043685,0.004382947006990012
3.5353535353535355,6.481012658227848,0.0044256311792921265,0.004072702028976147,-5.7134164780444524e-05,-0.0025494999624804822,0.00426129428776063
3.6363636363636362,6.481012658227848,0.0045249359346323246,0.003952865883412768,1.00159719694152e-05,-0.002543340545413528,0.004267789824162198
3.7373737373737375,6.481012658227848,0.004460666137931963,0.003834028022116199,-6.745529442599737e-05,-0.0024884082480144485,0.004184333274079326
3.8383838383838382,6.481012658227848,0.0044968231805614526,0.003988302692910151,5.6990481487506674e-06,-0.002545537762041481,0.00426537015092296
3.9393939393939394,6.481012658227848,0.004460503672619525,0.004004789177793683,1.2410053412948884e-05,-0.0025395878551239624,0.00425106040473282
4.040404040404041,6.481012658227848,0.004478779374113339,0.003927562781771831,-3.9666771081666057e-05,-0.0025219026467655507,0.004230750201488101
4.141414141414141,6.481012658227848,0.004471495629675175,0.004079089367628489,-1.575850387991727e-05,-0.002565175499191099,0.00428886441219961
4.242424242424242,6.481012658227848,0.004370186270906888,0.003927193457051647,-1.814735343481192e-05,-0.00248921391838756,0.004166509035348407
4.343434343434343,6.481012658227848,0.004500220324561738,0.0037644716069806274,-6.152935473849207e-06,-0.0024794075794627095,0.004181194971325409
4.444444444444445,6.481012658227848,0.004333778243835511,0.003862484911981371,-5.424021826260315e-05,-0.0024588789467450646,0.004119477695918438
4.545454545454545,6.481012658227848,0.004529544984217161,0.004078537166529228,1.8218371492457226e-05,-0.0025824246452239167,0.004321842355337695
4.646464646464646,6.481012658227848,0.004531974528944044,0.00401712678443591,-1.2842869029598295e-05,-0.0025647303940139862,0.004297799353678843
4.747474747474747,6.481012658227848,0.004617732831571099,0.004088052101026179,5.232943448816406e-06,-0.0026117354797791834,0.004377005395414062
4.848484848484849,6.481012658227848,0.004616472631086278,0.003869978812610534,-2.12457089771243e-05,-0.002545935433109043,0.004292348824684758
4.94949494949495,6.481012658227848,0.004304277663157253,0.004092235525982023,-2.934273817548029e-05,-0.0025189539567417826,0.0042025781163057205
5.05050505050505,6.481012658227848,0.004533638195288337,0.004042023270467265,-1.3561993743889218e-05,-0.002572698439726681,0.004308979937591312
5.151515151515151,6.481012658227848,0.004424778473654624,0.0040834938580561414,-8.732926623215e-06,-0.0025524816995132296,0.004264417861947175
5.252525252525253,6.481012658227848,0.004331339995098254,0.003956252394361436,9.188864916030525e-05,-0.002486277716837907,0.004159554724506091
5.353535353535354,6.481012658227848,0.004382669785502295,0.0039417545333862835,-0.00013475545490367681,-0.002497327295666574,0.004186202557541403
5.454545454545454,6.481012658227848,0.004374769807408866,0.0040389214543643205,-7.308020942798784e-05,-0.002524107378531956,0.004218787491723396
5.555555555555555,6.481012658227848,0.004481906405687098,0.004044398108683077,-1.1507752717266008e-05,-0.0025578913543110524,0.004280002872139296
5.656565656565657,6.481012658227848,0.004521101190493084,0.004040353261394729,-6.698515346090228e-05,-0.0025684363355663433,0.004302490620999565
5.757575757575758,6.481012658227848,0.004473567086853388,0.003768598219459301,-4.148840769113999e-05,-0.002472649591893807,0.0041666799644393794
5.858585858585858,6.481012658227848,0.0044720615804086815,0.004043660328123689,-6.79097902802772e-05,-0.0025547165725597113,0.004275612336196045
5.959595959595959,6.481012658227848,0.004216830418712525,0.004052723068616302,-1.4285556566485265e-07,-0.002480866046198648,0.0041372185339836635
6.0606060606060606,6.481012658227848,0.004457151667899983,0.004053986360377799,-9.951692338579603e-06,-0.002553341408483334,0.004269902977999893
6.161616161616162,6.481012658227848,0.0044669666294600745,0.003950400133323055,3.8798606265814065e-05,-0.0025252100288349387,0.004232925998531571
6.262626262626262,6.481012658227848,0.004531323590414569,0.0038633985951641242,-3.3159434034004184e-05,-0.0025184166556736077,0.004237420398888736
6.363636363636363,6.481012658227848,0.004522378056143305,0.004023491821260256,8.546771716446363e-05,-0.002563760963221068,0.004297272715214516
6.4646464646464645,6.481012658227848,0.00444259251521957,0.0038264683593031957,3.79675759648059e-05,-0.002480718262356829,0.004169337270927177
6.565656565656566,6.481012658227848,0.004389146445965907,0.003866360633352114,2.8272194464379664e-05,-0.002476652123795406,0.004152797369184979
6.666666666666667,6.481012658227848,0.004390766107046563,0.004048678665975817,-9.875974211398921e-06,-0.0025318334319067138,0.004230143908524545
6.767676767676767,6.481012658227848,0.004572076124164187,0.004004921685629292,3.0145515900678768e-05,-0.0025730993429380435,0.00431685038327131
6.8686868686868685,6.481012658227848,0.00455007011557704,0.004111612559898204,3.8774593824985405e-05,-0.0025985048026425732,0.004347974341131139
6.96969696969697,6.481012658227848,0.0045558980267595105,0.003955335655675025,-5.7483741323763564e-05,-0.002553370104730361,0.0042884372692128464
7.070707070707071,6.481012658227848,0.004562434156609057,0.004086977295887537,-2.0083907711346247e-05,-0.0025948234357489786,0.00434440262044128
7.171717171717171,6.481012658227848,0.004570776185375947,0.004109593157414016,3.097736346667982e-05,-0.002604110802836989,0.004358852958280895
7.2727272727272725,6.481012658227848,0.004493991675316047,0.0041890831805948565,3.264045927533613e-05,-0.002604922456773271,0.004349927623501109
7.373737373737374,6.481012658227848,0.004695960571920253,0.0041617427873590716,4.341127408653307e-05,-0.0026573110077837974,0.004453585330652889
7.474747474747475,6.481012658227848,0.004622129819835499,0.00391293572899024,-0.0001256110933374222,-0.0025605196646477217,0.004316988257438702
7.575757575757575,6.481012658227848,0.00465745744326916,0.00412821341375851,8.583236132464912e-06,-0.002635701257108301,0.004416706753896317
7.6767676767676765,6.481012658227848,0.004706630744624241,0.0040825446918654395,5.084405982768053e-05,-0.002636752630946904,0.004428574163265612
7.777777777777778,6.481012658227848,0.004470436028620884,0.0040928254051955945,3.7051167508357474e-05,-0.0025689784301449435,0.004294580573258125
7.878787878787879,6.481012658227848,0.004822857156487796,0.004080797355106472,-6.397687233867548e-05,-0.00267109635347828,0.004499337128695795
7.979797979797979,6.481012658227848,0.004703569519681045,0.004122222624376544,7.1742389541116e-06,-0.0026477376432172766,0.004441540195827458
8.080808080808081,6.481012658227848,0.00473803089257478,0.004272690892412946,1.083195604866859e-05,-0.002703216535496318,0.004523387530628077
8.181818181818182,6.481012658227848,0.00462107874989993,0.00435893845137279,4.020995080746174e-06,-0.002694005160381816,0.0044957495360703455
8.282828282828282,6.481012658227848,0.004642535581693993,0.004174000449865817,-4.824816086737896e-05,-0.0026449608094679428,0.0044276917723964585
8.383838383838384,6.481012658227848,0.0047696773691736005,0.004269330287170297,-3.930595400616382e-05,-0.002711702296903169,0.004540738940830426
8.484848484848484,6.481012658227848,0.004693047598596159,0.004167273852274991,-1.7993561399488626e-05,-0.002658096435261345,0.004453607962336584
8.585858585858587,6.481012658227848,0.004655147765852857,0.004247304646241455,-1.4564889790177584e-05,-0.0026707357236282936,0.004465288697621412
8.686868686868687,6.481012658227848,0.005065143937925214,0.004362200364231297,-5.680648199270677e-06,-0.0028282032906469536,0.0047528306521472845
8.787878787878787,6.481012658227848,0.005018603444539374,0.004604540373692606,1.1737125070662146e-05,-0.0028869431454695937,0.004824958412969811
8.88888888888889,6.481012658227848,0.004860451324153476,0.004457239510162194,5.001223040023671e-05,-0.0027953072502947007,0.004672716460020657
8.98989898989899,6.481012658227848,0.005053842186753114,0.004463937742871333,-2.9317442848005595e-05,-0.0028553339788873343,0.004786502133525016
9.09090909090909,6.481012658227848,0.005022436832772704,0.004476720747125558,5.9403800204587346e-05,-0.0028497472739694787,0.004774142818451436
9.191919191919192,6.481012658227848,0.005170496021470828,0.004440067337608643,-1.3630083388603512e-05,-0.0028831690077238408,0.00484679625153526
9.292929292929292,6.481012658227848,0.004920903620036823,0.004681096332940657,-6.555975753166447e-05,-0.002880599985893244,0.004806831146491004
9.393939393939394,6.481012658227848,0.005073578307879302,0.004442022214108577,-6.026035952606177e-05,-0.0028546801565963635,0.00479027186921461
9.494949494949495,6.481012658227848,0.005081031976347504,0.004635431117897653,6.329939839292332e-05,-0.0029149389282735476,0.004874767102206647
9.595959595959595,6.481012658227848,0.005231151020039124,0.004614133461724955,5.6287898055515544e-05,-0.0029535853445292236,0.00495251901708309
9.696969696969697,6.481012658227848,0.005263621280987213,0.004660045776329861,1.2101324039199078e-05,-0.0029771001171951224,0.004989334508190177
9.797979797979798,6.481012658227848,0.005364487983326645,0.004726451019521567,-4.8024836033145226e-05,-0.003027281700854463,0.005076317564910123
9.8989898989899,6.481012658227848,0.005337342170070517,0.004964509563920056,6.676305638965355e-05,-0.0030905555201971723,0.005162331093462847
10.0,6.481012658227848,0.005552773926507117,0.004762533163296657,9.140183830017415e-05,-0.0030945921269411323,0.005205267843757182
0.0,6.582278481012658,0.005356415043741655,0.005019401776939965,5.390833558210363e-05,-0.0031127450462044856,0.00519695059208002
0.10101010101010101,6.582278481012658,0.005337940200525078,0.004758345326777925,7.881113931797858e-05,-0.003028885658190901,0.005074872078437474
0.20202020202020202,6.582278481012658,0.005142665409242301,0.004823433094960893,1.9318607042426194e-05,-0.0029898295512609577,0.004990824724177915
0.30303030303030304,6.582278481012658,0.005342920369072627,0.004506783115814753,-1.0100722389656286e-05,-0.002954911045466214,0.004977832348376474
0.40404040404040403,6.582278481012658,0.00512801166527724,0.004698619661597766,1.4185323296092561e-05,-0.0029479893980625016,0.004927429106378828
0.5050505050505051,6.582278481012658,0.005373489567660694,0.004578525727698905,-2.4266292872504864e-05,-0.0029856045886078797,0.005023583810270539
0.6060606060606061,6.582278481012658,0.005090757089772842,0.0045072718193656,2.492492328858577e-05,-0.002879408672741533,0.0048257377452731315
0.7070707070707071,6.582278481012658,0.0051338472996420035,0.004518462870006366,-3.0059063531533778e-05,-0.002895693050894511,0.0048557704890011015
0.8080808080808081,6.582278481012658,0.005034012597902213,0.004582806986546843,-2.991449128432141e-05,-0.002885045875334717,0.004824539277290223
0.9090909090909091,6.582278481012658,0.004944342809087468,0.00450128336369126,-3.3262579918932124e-05,-0.002833687851833618,0.004738724395948273
1.0101010101010102,6.582278481012658,0.004837469422354971,0.004391353408771357,-2.5162766542946485e-05,-0.0027686468493378987,0.004630762013936985
1.1111111111111112,6.582278481012658,0.005004613678336968,0.004564368545348516,1.6789855636132514e-05,-0.002870694667105645,0.004799746110983274
1.2121212121212122,6.582278481012658,0.004572883286825679,0.00450897738979274,2.6601746609651722e-05,-0.0027245582029855253,0.004541501323230209
1.3131313131313131,6.582278481012658,0.004921263814938298,0.004318932774947894,2.3927983267208123e-05,-0.002772058976965857,0.004649637395688803
1.4141414141414141,6.582278481012658,0.004847584640914682,0.00428303075787762,4.2758636672155195e-05,-0.002739184619637691,0.004592010464745821
1.5151515151515151,6.582278481012658,0.004854380937163741,0.00426635184045504,-7.009475154165874e-05,-0.0027362198332856343,0.004590317536586713
1.6161616161616161,6.582278481012658,0.004665933716292888,0.004315355891547065,3.762869946289511e-05,-0.002694386882351986,0.004501368360892711
1.7171717171717171,6.582278481012658,0.0047138088858398935,0.004087770191243497,-1.4669407082598551e-05,-0.002640473723125017,0.004434133226730953
1.8181818181818181,6.582278481012658,0.004820532770435023,0.004287623530956038,3.536317278731567e-05,-0.002732446890417318,0.004577813196030692
1.9191919191919191,6.582278481012658,0.004702410233629726,0.004085263415627511,-2.990580822464828e-05,-0.002636302094777171,0.004426526602177706
2.0202020202020203,6.582278481012658,0.004625832461546665,0.004146137339604522,-2.7166568167757305e-05,-0.0026315909403453563,0.004405866336246079
2.121212121212121,6.582278481012658,0.004683781600777686,0.0043339837054760105,0.00013310024499894893,-0.0027053295918761087,0.004524924168535055
2.2222222222222223,6.582278481012658,0.0044253999241738165,0.0042405509693392695,1.4975083433532083e-05,-0.0025997852680539253,0.004336009205899378
2.323232323232323,6.582278481012658,0.004700222101821335,0.003896621900742256,-4.111063217047122e-05,-0.002579053200769077,0.004354977831828368
2.4242424242424243,6.582278481012658,0.004529867116964712,0.004014681010063929,5.643493233063908e-05,-0.0025633644381085918,0.00429661994154665
2.525252525252525,6.582278481012658,0.0044163248821400755,0.004086066737907643,-1.0551312532809292e-05,-0.0025507174860143157,0.00426084529607997
2.6262626262626263,6.582278481012658,0.004556596728885467,0.0041934756660150264,7.743422560572233e-05,-0.002625021718470148,0.0043883735696281035
2.727272727272727,6.582278481012658,0.004483191154971632,0.003867821802628844,-6.459502915776287e-05,-0.0025053038872801425,0.004210864695965725
2.8282828282828283,6.582278481012658,0.004451882184756194,0.004030377465782631,-1.0904789796165044e-05,-0.0025446778951616475,0.004256851959981577
2.929292929292929,6.582278481012658,0.004415094444423418,0.003923299662156389,3.6181958402959484e-05,-0.0025015182319739417,0.004191363507547591
3.0303030303030303,6.582278481012658,0.004596035042056647,0.004090597610608657,-1.5875786907143175e-05,-0.002605989795799591,0.004365404114197113
3.131313131313131,6.582278481012658,0.004591087794850171,0.004152243521948288,0.00012244853725264983,-0.0026229993950395375,0.00439327665684136
3.2323232323232323,6.582278481012658,0.004394751693035025,0.004037339047831401,-0.00011988600395196501,-0.002529627222259928,0.00423248914666011
3.3333333333333335,6.582278481012658,0.004584859112082251,0.004155435362239692,2.1191933008817677e-05,-0.0026220883422965824,0.004386095956113621
3.4343434343434343,6.582278481012658,0.004437467880655761,0.00404980892665781,6.966888847460366e-05,-0.002546183042194071,0.004258607490896016
3.5353535353535355,6.582278481012658,0.0044535377260253,0.0041204260129355545,-2.101904986843725e-05,-0.002572189121688256,0.004296831566477118
3.6363636363636362,6.582278481012658,0.004330711598384744,0.003947374880801868,7.822676899488905e-06,-0.002483425943755983,0.0041523574992201814
3.7373737373737375,6.582278481012658,0.004477142226534806,0.003903270108617858,-2.873052811540672e-05,-0.002514123700545799,0.0042198697802567275
3.8383838383838382,6.582278481012658,0.004248959692686296,0.0038430286165848774,5.155445246218638e-05,-0.0024275964927813524,0.004062219505757906
3.9393939393939394,6.582278481012658,0.004488336538040128,0.00387264691723066,-1.8201713359372252e-05,-0.0025082950365812365,0.004214476275151516
4.040404040404041,6.582278481012658,0.0042712631136610415,0.003852997058307014,-1.9761850836365114e-06,-0.0024372780515904166,0.00407824992137254
4.141414141414141,6.582278481012658,0.0045331787239188005,0.003924275572534775,-6.251089163769064e-05,-0.002537236288936073,0.0042628544913818405
4.242424242424242,6.582278481012658,0.0044143164731378385,0.003976813440713015,-0.00012073461168664613,-0.002517338974155256,0.004217825568310492
4.343434343434343,6.582278481012658,0.0042972933578358085,0.0037956908535130367,-2.0290430419610832e-05,-0.002427895263404654,0.004069894012163267
4.444444444444445,6.582278481012658,0.004468443206425948,0.004021577525616411,-8.061803373917156e-05,-0.0025470062196127075,0.00426490064506
4.545454545454545,6.582278481012658,0.004405858170636427,0.0037670261204754063,2.6528975575538357e-05,-0.0024518652873335503,0.00412397872931537
4.646464646464646,6.582278481012658,0.004408729214005606,0.003954972175462607,-8.372266872379129e-05,-0.0025091104168404638,0.004202775901275645
4.747474747474747,6.582278481012658,0.00452589472705908,0.0040102618437330055,-5.7628640669108244e-05,-0.002560846971237626,0.004292535775473597
4.848484848484849,6.582278481012658,0.004663533288577624,0.004124437293173811,3.059266443182154e-05,-0.00263639117452543,0.004419036415213005
4.94949494949495,6.582278481012658,0.004487855844401219,0.004038814573207581,-7.309505755082518e-05,-0.00255800112528264,0.0042829060592514435
5.05050505050505,6.582278481012658,0.004430297609450439,0.0041273409629218934,-3.52466048570807e-05,-0.0025672915717117,0.004287290344793249
5.151515151515151,6.582278481012658,0.004367553091018718,0.004088166355745383,-2.5335174811400775e-05,-0.0025367158340292304,0.004235004860059707
5.252525252525253,6.582278481012658,0.004394365504093937,0.003903305325213633,-4.654158277002361e-05,-0.0024893012487922713,0.004171353345034094
5.353535353535354,6.582278481012658,0.004257206917058792,0.004060218691748155,-7.456182998844967e-05,-0.002495227682642084,0.00416421347431497
5.454545454545454,6.582278481012658,0.004327293526081632,0.003929363456746486,4.481924575914492e-05,-0.0024769970948484354,0.0041434144956126635
5.555555555555555,6.582278481012658,0.004456676478214993,0.004070140536926802,4.7184786510903365e-06,-0.002558045104542539,0.004276537901150989
5.656565656565657,6.582278481012658,0.004343933060783944,0.004007917114068543,5.63599581264302e-05,-0.0025055550524557464,0.00418718995362895
5.757575757575758,6.582278481012658,0.00452742372328119,0.0040283116871595815,-2.3183336890721376e-05,-0.0025667206231322313,0.004299837104257183
5.858585858585858,6.582278481012658,0.004632020896028283,0.003920137963490645,4.988433564528207e-06,-0.0025656476578556787,0.0043203024113190385
5.959595959595959,6.582278481012658,0.004684206000154355,0.004116898823949225,-2.3909360294648538e-06,-0.002640331447231074,0.004427895296308449
6.0606060606060606,6.582278481012658,0.0045746627878333005,0.0038274789537969508,6.511709759411703e-05,-0.0025206425224890755,0.004252108880566507
6.161616161616162,6.582278481012658,0.004413944832011204,0.00399720008129755,5.4580249306945764e-05,-0.002523343473992626,0.004222088800516718
6.262626262626262,6.582278481012658,0.00463167714456631,0.004026074399006711,-7.039779773922546e-05,-0.0025973254630719065,0.004362235552031991
6.363636363636363,6.582278481012658,0.004428921461345536,0.004109953052964541,-4.0569598821224024e-06,-0.002561662354293023,0.0042783699587240955
6.4646464646464645,6.582278481012658,0.004339759316288096,0.003989910407863931,4.854514200518643e-05,-0.002498900917245608,0.004176687086058138
6.565656565656566,6.582278481012658,0.004641647386033334,0.0039036229319046574,-7.746225260976894e-05,-0.0025635810953813978,0.0043222589550563845
6.666666666666667,6.582278481012658,0.00451642254516096,0.004000609768229878,-2.674106211052953e-05,-0.0025551096940172515,0.004282131738477734
6.767676767676767,6.582278481012658,0.004648177706003072,0.004061266257487053,-2.75873377145695e-05,-0.0026128331890470373,0.0043845450742579384
6.8686868686868685,6.582278481012658,0.004488927450535171,0.0041050469911390625,-4.189340340467989e-05,-0.0025781923325022696,0.0043104393631175925
6.96969696969697,6.582278481012658,0.004467104673055557,0.004160695277541582,-5.976151256624479e-05,-0.0025883399851791412,0.0043232929984304835
7.070707070707071,6.582278481012658,0.004451098076033059,0.004007434464277191,-2.9825494605874842e-05,-0.002537559762093075,0.004246997753066806
7.171717171717171,6.582278481012658,0.004585579601424915,0.004145782342671727,-5.480654313500456e-07,-0.002619408583228992,0.0043822639665402445
7.2727272727272725,6.582278481012658,0.004699466948391067,0.003974232005441958,-5.189268040920419e-05,-0.0026021096861499073,0.004383014513793786
7.373737373737374,6.582278481012658,0.004417961664030222,0.00424737090348983,-5.888239677191039e-05,-0.002599599770256016,0.004336383797828098
7.474747474747475,6.582278481012658,0.0047058396379623104,0.0041575259211606526,2.4259403177671437e-05,-0.0026590096677368887,0.004457248452084989
7.575757575757575,6.582278481012658,0.00446317420167421,0.00424541186709337,0.00014450002457743423,-0.0026125758206302736,0.004365555397239096
7.6767676767676765,6.582278481012658,0.004481737925271231,0.004186990530637347,-5.367458300303933e-05,-0.0026006185367725737,0.004342869231640992
7.777777777777778,6.582278481012658,0.004751173941161,0.004071971787910557,-5.878305218944564e-05,-0.002646943718721467,0.004451778089091769
7.878787878787879,6.582278481012658,0.0046738852532410375,0.004281601563013012,-5.350091014033909e-05,-0.0026866460448762147,0.004491568539095975
7.979797979797979,6.582278481012658,0.004721926796409225,0.004120202986820471,3.7871832031267144e-05,-0.0026526389349689084,0.004452153553071044
8.080808080808081,6.582278481012658,0.0046768922123280625,0.0042419141567276615,7.074269276233172e-05,-0.002675641910716717,0.004476962673460151
8.181818181818182,6.582278481012658,0.004749542907432098,0.004169110877976177,-0.0001644251567209892,-0.0026755961356224826,0.004496596405960429
8.282828282828282,6.582278481012658,0.0046541999783168645,0.004157238045859351,-6.227690643903228e-06,-0.002643431407252864,0.004426703597215519
8.383838383838384,6.582278481012658,0.004676032059298753,0.004198960710547792,-6.939165030867507e-05,-0.002662497830953964,0.004458308824369851
8.484848484848484,6.582278481012658,0.004954032233855137,0.004376668870308566,7.196884262305546e-05,-0.0027992103312491105,0.00469372407123707
8.585858585858587,6.582278481012658,0.0048845501832701825,0.004369273089743995,-7.555546921431808e-06,-0.0027761469819042534,0.004648399231267378
8.686868686868687,6.582278481012658,0.004880171496782603,0.004376457434663535,2.1287838056792255e-05,-0.0027769886794338414,0.004648973026599658
8.787878787878787,6.582278481012658,0.00493152675878273,0.0042586434217213,1.4657290649328556e-05,-0.0027570510541512086,0.004631957521840534
8.88888888888889,6.582278481012658,0.004980729567119383,0.004389365274393252,-2.3156713013336104e-05,-0.0028110284524537907,0.00471312654506982
8.98989898989899,6.582278481012658,0.005028466213044342,0.004365592126302094,0.00011793363945776416,-0.002818217501803931,0.004736386765443054
9.09090909090909,6.582278481012658,0.004859351460409337,0.004526960322518586,-4.057449759485559e-05,-0.0028158935348783763,0.004702500823238562
9.191919191919192,6.582278481012658,0.005019978126992869,0.004478509200105495,-9.57998932723442e-05,-0.002849546198129509,0.004775221427693533
9.292929292929292,6.582278481012658,0.005013936404403325,0.004531287494696027,-4.733643879822789e-05,-0.0028635671697298058,0.004791582151422418
9.393939393939394,6.582278481012658,0.005136647982728962,0.004503809528441793,-1.783966079519263e-05,-0.002892137253351226,0.004851383658151811
9.494949494949495,6.582278481012658,0.005017833424627238,0.004526903552297799,7.253281580960785e-05,-0.002863421093077511,0.0047929159310837995
9.595959595959595,6.582278481012658,0.005121025048553559,0.004709537740996248,-4.882774133260185e-05,-0.0029491688368649418,0.0049289080928743055
9.696969696969697,6.582278481012658,0.005112251858863218,0.004807658169327388,4.297395985232358e-05,-0.002975973008457182,0.004967522220615032
9.797979797979798,6.582278481012658,0.005350133018038795,0.004802480300513168,4.1259579982165964e-05,-0.003045783995565589,0.0050989154711654616
9.8989898989899,6.582278481012658,0.005535419582521897,0.00478551178021905,8.832752190673751e-05,-0.003096279408822284,0.0052034202776584364
10.0,6.582278481012658,0.005388007049782539,0.00472038704072797,-2.1699061729719874e-05,-0.0030325182271531523,0.005087298662106866
0.0,6.6835443037974684,0.005376810936642531,0.005057912481733543,6.724511965298425e-05,-0.003130417025512822,0.005225964130307483
0.10101010101010101,6.6835443037974684,0.005466238953243148,0.005091901382192454,1.855146709508341e-05,-0.0031674421006306804,0.005289112474631948
0.20202020202020202,6.6835443037974684,0.005408507613994751,0.004820561856071488,-8.5417714636429e-05,-0.003068720841019872,0.00514194654527606
0.30303030303030304,6.6835443037974684,0.005231453330487581,0.004774845186402449,6.141350390288032e-05,-0.003001889555067009,0.0050198790429249835
0.40404040404040403,6.6835443037974684,0.005210876576395223,0.004646350773321869,6.55837484369128e-05,-0.0029571682049151274,0.004954104709928069
0.5050505050505051,6.6835443037974684,0.005107262089434455,0.004813237300119172,-4.443351063499848e-05,-0.002976149816866088,0.0049673773741970165
0.6060606060606061,6.6835443037974684,0.005190496547394036,0.004611429045741371,5.829112862941579e-06,-0.002940577677940622,0.004926563472402819
0.7070707070707071,6.6835443037974684,0.005012361201258006,0.004488635948025657,-2.3227135311234263e-05,-0.0028502991447850986,0.004772271085423935
0.8080808080808081,6.6835443037974684,0.005025846364872473,0.004353919337428425,1.3811736315410794e-05,-0.0028139297106902694,0.004725906039835382
0.9090909090909091,6.6835443037974684,0.004977938181179644,0.004468320505897723,-2.7816499127010897e-05,-0.0028338776061232096,0.004743949272482476
1.0101010101010102,6.6835443037974684,0.004846484191378069,0.004370847225471354,1.2037541512783626e-05,-0.0027651994250548263,0.004627084093868359
1.1111111111111112,6.6835443037974684,0.004980116657097708,0.004507792304671208,-3.582484223721931e-05,-0.0028463726885306745,0.0047619609506052265
1.2121212121212122,6.6835443037974684,0.005041769058018638,0.004417455058141616,-2.8296806287173093e-05,-0.002837767234848076,0.0047606678444843155
1.3131313131313131,6.6835443037974684,0.004842164703061982,0.004408308699018983,-2.8455186403763757e-05,-0.002775142020624289,0.004640734522436592
1.4141414141414141,6.6835443037974684,0.00468084716742559,0.004092568103436887,-3.943960210267204e-05,-0.002632024581258743,0.004416721014308958
1.5151515151515151,6.6835443037974684,0.004889554391115952,0.00433209776156162,-4.899477013406377e-05,-0.0027664956458032714,0.004636807844748664
1.6161616161616161,6.6835443037974684,0.004705739286634239,0.004420890732107147,1.7545954323259135e-05,-0.002737989005622416,0.004570078935921055
1.7171717171717171,6.6835443037974684,0.00469307365383868,0.004271253752289256,1.3246437483752002e-05,-0.0026892982218383807,0.004497084265097721
1.8181818181818181,6.6835443037974684,0.004552450306774923,0.004022722470291658,-6.226512307599352e-05,-0.002572551833119974,0.004313407766644591
1.9191919191919191,6.6835443037974684,0.004674511601657567,0.004299233996413613,-6.143001951821783e-05,-0.0026921236794213536,0.004499885933817403
2.0202020202020203,6.6835443037974684,0.004526520848921418,0.00413428744724851,3.706689865060336e-05,-0.002598242488850978,0.004344180847031937
2.121212121212121,6.6835443037974684,0.00477826220721561,0.004273399434085461,2.5523371005471864e-05,-0.002715498492390321,0.004547115982611643
2.2222222222222223,6.6835443037974684,0.004813494893357396,0.004283347989259052,-3.916496532179016e-05,-0.0027290528647849342,0.00457203795874686
2.323232323232323,6.6835443037974684,0.004613809916911071,0.003980352424378496,-6.282889300404306e-05,-0.0025782487023868705,0.0043333243927304275
2.4242424242424243,6.6835443037974684,0.004609333413001571,0.0040434928721166125,3.340391024636331e-06,-0.002595847885535455,0.004354080361342262
2.525252525252525,6.6835443037974684,0.004616069468524546,0.004095275214800515,-3.3881447582828476e-05,-0.002613403404997518,0.004379354449736725
2.6262626262626263,6.6835443037974684,0.004753850972366473,0.00410568968756581,-2.0594232695218342e-05,-0.0026578621979796847,0.00446533563484819
2.727272727272727,6.6835443037974684,0.004558125862446126,0.004098949680460547,4.362780082986039e-06,-0.002597122662872002,0.004346772183474252
2.8282828282828283,6.6835443037974684,0.004685125822728024,0.00410164066550516,-3.034895134716277e-05,-0.002636029946469955,0.004422659912626403
2.929292929292929,6.6835443037974684,0.004388692269066484,0.004065046135508738,-0.00010606627207809807,-0.0025361215213725668,0.004240133668917796
3.0303030303030303,6.6835443037974684,0.004580128972558321,0.00406196979399115,-3.338519211693119e-05,-0.002592629629964841,0.004344672391171408
3.131313131313131,6.6835443037974684,0.004448061323308992,0.0037884467408016344,7.451660052670168e-05,-0.002470952419233188,0.004159686645877821
3.2323232323232323,6.6835443037974684,0.004455470950349418,0.004003761197449508,2.278818442504241e-05,-0.002537769644339678,0.0042478513759647415
3.3333333333333335,6.6835443037974684,0.0045103572688741725,0.003907726517254263,-3.290141612091887e-05,-0.002525425135838531,0.0042416569915796325
3.4343434343434343,6.6835443037974684,0.0046090308218527665,0.004050531476722428,-4.593722143915616e-05,-0.0025978686895725585,0.004357439227866538
3.5353535353535355,6.6835443037974684,0.004628312699243274,0.004258734903865581,6.306609757953038e-05,-0.0026661142809326563,0.0044563748252474935
3.6363636363636362,6.6835443037974684,0.0044923284715331,0.003971746374020287,5.7045029719072825e-06,-0.0025392224536660156,0.004255994908600455
3.7373737373737375,6.6835443037974684,0.004548706638517677,0.004259236120584338,-1.961548643469597e-05,-0.0026423828277306045,0.004411231471980705
3.8383838383838382,6.6835443037974684,0.004457062402421568,0.003935829754138448,-7.987033983913106e-05,-0.002517867646968005,0.004222920802797146
3.9393939393939394,6.6835443037974684,0.004481382428273124,0.004113839973686044,-5.601692707437142e-05,-0.0025785667205877505,0.004310474604389251
4.040404040404041,6.6835443037974684,0.004546528335061813,0.0038369076182531445,1.742404252224216e-05,-0.0025150307859944866,0.004236635641508478
4.141414141414141,6.6835443037974684,0.004313698196097502,0.004117064101929283,-2.408813601538411e-05,-0.0025292286894080356,0.0042190256779959965
4.242424242424242,6.6835443037974684,0.0046611014886855226,0.004095065963927384,7.225553909140747e-05,-0.002626850235783872,0.004407218722142541
4.343434343434343,6.6835443037974684,0.004512945026726366,0.004067930615044633,-5.440186943067086e-06,-0.0025742626925312996,0.004307722582959582
4.444444444444445,6.6835443037974684,0.004577664551498602,0.0039075532516276035,0.00011507644359685166,-0.0025455653409378618,0.004286752257933303
4.545454545454545,6.6835443037974684,0.004260614182278086,0.00395118201701999,0.00010038147898464538,-0.0024635388597894223,0.004118305443667729
4.646464646464646,6.6835443037974684,0.004410510395472646,0.0039709043947705434,-9.580326979834212e-06,-0.002514424437072957,0.004207997611264996
4.747474747474747,6.6835443037974684,0.0042932614792355545,0.00404536087417846,9.481283345651917e-05,-0.002501586706024204,0.004178063563526635
4.848484848484849,6.6835443037974684,0.004316161000861154,0.003990201865691534,-8.611008510200671e-05,-0.0024919088599658066,0.004165434896422049
4.94949494949495,6.6835443037974684,0.0044570302622109065,0.003958541796941455,-4.60730029154386e-05,-0.0025246716177457084,0.00423062637182657
5.05050505050505,6.6835443037974684,0.00447790994123609,0.003800972186699848,5.845598466330271e-05,-0.002483664638380781,0.004181974075855872
5.151515151515151,6.6835443037974684,0.004474618217926943,0.004032184262656822,-1.5252181422144113e-05,-0.0025520407441751293,0.004270706130327033
5.252525252525253,6.6835443037974684,0.004653248809360449,0.004016247907832104,-2.8085464341551215e-05,-0.0026008490151577662,0.004369981387109778
5.353535353535354,6.6835443037974684,0.004447215130235865,0.003902488682548655,-2.9901520539819808e-06,-0.002504911143835356,0.004201423620684119
5.454545454545454,6.6835443037974684,0.004459407881043549,0.003841890186046364,-1.4252269581155876e-05,-0.0024903894201269735,0.0041850320021426714
5.555555555555555,6.6835443037974684,0.004221500090767285,0.003921571155261624,-2.0449128459407974e-05,-0.0024429213738086726,0.004079966281086784
5.656565656565657,6.6835443037974684,0.004438828999782091,0.003986721932827971,4.584463707929105e-05,-0.0025276652797830185,0.00423167613620664
5.757575757575758,6.6835443037974684,0.004467939176786188,0.00388257678183129,-8.72607525705222e-06,-0.0025051547875852434,0.004205947512394795
5.858585858585858,6.6835443037974684,0.004435827368549694,0.0039540474291923965,-2.1143375435971717e-05,-0.0025169624393226266,0.004215794686639376
5.959595959595959,6.6835443037974684,0.004440893092272846,0.00395074126889221,5.2896125796739294e-05,-0.0025174903083495168,0.004218229773342954
6.0606060606060606,6.6835443037974684,0.004132151281900886,0.003694731976647964,-1.5569011419571e-05,-0.002348064977564655,0.003931825823271394
6.161616161616162,6.6835443037974684,0.0044996663540379485,0.0038606888383035352,4.561465359272885e-05,-0.002508106557702445,0.0042173861602425675
6.262626262626262,6.6835443037974684,0.004409615221946406,0.004092674103550278,-6.490311901023962e-05,-0.0025506867976490054,0.004261479431204981
6.363636363636363,6.6835443037974684,0.00430331923785353,0.0039991690980916055,3.5524575677058345e-05,-0.0024907465007835408,0.004160047428719444
6.4646464646464645,6.6835443037974684,0.004325698159954268,0.004140180146837959,6.783539220274214e-05,-0.002539763492037668,0.004237616251803916
6.565656565656566,6.6835443037974684,0.004432279735005918,0.0041964644393991555,5.84456043134164e-05,-0.002588623252321522,0.004320388965481538
6.666666666666667,6.6835443037974684,0.0043429823537456695,0.004048147628160944,-5.6740221514978265e-05,-0.0025173389945719834,0.004204476137176151
6.767676767676767,6.6835443037974684,0.0043620517716645435,0.004029080729918136,1.2772499836366477e-05,-0.002517339750474804,0.004205522305376203
6.8686868686868685,6.6835443037974684,0.0045328578528694916,0.003912788775817493,9.503172769842529e-06,-0.0025336939886060955,0.004256861745497277
6.96969696969697,6.6835443037974684,0.004561952640439096,0.0038669431531404533,4.289271199843647e-05,-0.002528668738073865,0.004257859681760291
7.070707070707071,6.6835443037974684,0.004465519292680465,0.004069886805784997,5.2404674652877416e-05,-0.0025606218295396387,0.004282396743030951
7.171717171717171,6.6835443037974684,0.004463260242482597,0.004038759663050386,8.40227232402658e-06,-0.0025506059716598945,0.004266901448301108
7.2727272727272725,6.6835443037974684,0.004457919137674218,0.00420590889119632,-5.218167861323458e-05,-0.0025991484086611612,0.004338349880364279
7.373737373737374,6.6835443037974684,0.0045207493422014635,0.004119922705133521,-2.5640501796849487e-05,-0.0025922016142004953,0.0043344863776615585
7.474747474747475,6.6835443037974684,0.004521256980426232,0.003955468357705815,6.532539670596653e-05,-0.002543017601439614,0.0042680918348949265
7.575757575757575,6.6835443037974684,0.004413078613539272,0.0041436895209569224,-5.212331068408018e-05,-0.002567030440348858,0.004285691147041996
7.6767676767676765,6.6835443037974684,0.004523587368814876,0.004146483740087487,1.8218519213516817e-05,-0.0026010213326707094,0.004347434227424537
7.777777777777778,6.6835443037974684,0.004683274805014759,0.004144297077345922,-4.019189796939901e-06,-0.002648271564708204,0.0044384037152351745
7.878787878787879,6.6835443037974684,0.004654429983440652,0.004075265259018864,-6.710654297346775e-05,-0.002618908572737855,0.004395108469013654
7.979797979797979,6.6835443037974684,0.004591030098730004,0.00427876438210587,8.538038887019768e-06,-0.0026609383442507623,0.004443159307938984
8.080808080808081,6.6835443037974684,0.004712057362677687,0.004178069862383527,2.1917914039762187e-05,-0.0026670381675183642,0.004469215668566916
8.181818181818182,6.6835443037974684,0.004691986607508116,0.004312949582570753,-7.230282448401088e-05,-0.002701480857023661,0.0045161547628306715
8.282828282828282,6.6835443037974684,0.00466579646725475,0.004285421423845709,9.444404306898774e-05,-0.0026853653673301375,0.004490695752947332
8.383838383838384,6.6835443037974684,0.0048141717569444645,0.004206172785935497,7.0252877536261e-05,-0.002706103362863988,0.004542434080978327
8.484848484848484,6.6835443037974684,0.0048695688924591096,0.004260162334500252,7.055932990145143e-05,-0.0027389193680878083,0.0045968974527283175
8.585858585858587,6.6835443037974684,0.004953721582709775,0.0046429831000831395,0.0001243017875541289,-0.002879011404837874,0.0048107127121447555
8.686868686868687,6.6835443037974684,0.004871818180226184,0.004437020406603862,1.642750189473528e-05,-0.0027926515760490138,0.004669712558105659
8.787878787878787,6.6835443037974684,0.004820950697935128,0.004419660013135251,-0.00010179942203403621,-0.002772183213321114,0.004636710752855619
8.88888888888889,6.6835443037974684,0.004998742368376951,0.004406988263518596,-1.5043652304295097e-05,-0.002821719189568664,0.0047307769768644824
8.98989898989899,6.6835443037974684,0.004892733953478669,0.004488149106998472,2.229896467417453e-05,-0.002814264918143142,0.0047036687971799655
9.09090909090909,6.6835443037974684,0.004999058509690861,0.004588618645228232,6.0433201054484214e-05,-0.002876303146475728,0.004808137943514466
9.191919191919192,6.6835443037974684,0.0050297088782303104,0.004515054154603991,-2.0995699965516255e-05,-0.0028634289098502905,0.004793286963024888
9.292929292929292,6.6835443037974684,0.005085421823741932,0.0045640626304502465,-9.459744453010744e-05,-0.0028948453362576533,0.004848592078509115
9.393939393939394,6.6835443037974684,0.005033271198920718,0.004757525452259105,4.3827509115069634e-05,-0.002937238995353947,0.004901807228508245
9.494949494949495,6.6835443037974684,0.005141074852515919,0.004661515252852104,2.4046444478257744e-05,-0.002940777031610407,0.004919035570634065
9.595959595959595,6.6835443037974684,0.005217704661172334,0.004527490088479985,7.100943720192173e-05,-0.002923558424895695,0.00491066485467555
9.696969696969697,6.6835443037974684,0.005130371352257178,0.004837219899770428,-4.950314941605497e-06,-0.0029902773756082814,0.004990265092086762
9.797979797979798,6.6835443037974684,0.00522436256864762,0.0046281312014141065,2.8386729057180534e-05,-0.002955748131018518,0.004953478038095136
9.8989898989899,6.6835443037974684,0.0053460456317505,0.004914499051935075,-3.832020062882888e-05,-0.0030781634051056726,0.00514429528241902
10.0,6.6835443037974684,0.0055251479214597395,0.005022735477952787,-3.920849392088373e-05,-0.003164365019823758,0.005292295028381373
0.0,6.784810126582278,0.005350640381134294,0.004986839988180441,-3.81751388364851e-05,-0.0031012441107944205,0.005178755657935839
0.10101010101010101,6.784810126582278,0.00548954721963991,0.004891334752096122,6.948997075216188e-05,-0.00311426459152081,0.005217619937589128
0.20202020202020202,6.784810126582278,0.005263386743611757,0.004905691784290097,2.9790266517926656e-05,-0.003050723558370556,0.005094228221187127
0.30303030303030304,6.784810126582278,0.005205913505431722,0.004740950566058171,1.5289130769566268e-06,-0.002984059221446968,0.004989707018266993
0.40404040404040403,6.784810126582278,0.005293368145992492,0.004571142072541206,-6.38788962941995e-05,-0.0029593530655601095,0.004972986012341466
0.5050505050505051,6.784810126582278,0.005157022246759722,0.00473241369362696,-2.993603564498346e-05,-0.0029668307821160045,0.00495864332463916
0.6060606060606061,6.784810126582278,0.005176179577550252,0.00475993374426638,0.000109278089561732,-0.0029808339965449898,0.004984712382260877
0.7070707070707071,6.784810126582278,0.004925856449524252,0.004480078444159761,2.109985434373785e-06,-0.0028217804681052038,0.004718787416775763
0.8080808080808081,6.784810126582278,0.004828594153001418,0.004521716909328274,1.798615664866619e-05,-0.002805093318698908,0.004682806848257522
0.9090909090909091,6.784810126582278,0.004732501837135372,0.004445681329384294,6.0907273325879885e-05,-0.0027534549499558998,0.004597019703038933
1.0101010101010102,6.784810126582278,0.004915435729839477,0.004464256790776674,0.00013515751907454182,-0.0028139077561848452,0.004711913882543183
1.1111111111111112,6.784810126582278,0.004964993721520198,0.004426797550412185,-7.858306448375265e-05,-0.0028175373815797146,0.0047209324351131935
1.2121212121212122,6.784810126582278,0.004959569309460394,0.004551514374271932,-3.651459937314468e-05,-0.0028533251051196975,0.004769073262201023
1.3131313131313131,6.784810126582278,0.004878009575574207,0.004333566861411996,-9.086408763115883e-05,-0.002763472931095861,0.004632533579222738
1.4141414141414141,6.784810126582278,0.004868631042535707,0.0043516726235101055,2.934073859135405e-05,-0.0027660910998137432,0.004632117989170699
1.5151515151515151,6.784810126582278,0.004852161094848614,0.0042364731077668034,5.4487292984547866e-05,-0.0027265902607846253,0.004576464605523098
1.6161616161616161,6.784810126582278,0.004713596456500181,0.004402031255221013,6.846521518954361e-06,-0.002734688313516358,0.004565809065787976
1.7171717171717171,6.784810126582278,0.004622984788020692,0.004330446260324348,-2.6219815753064102e-05,-0.002686029314503512,0.004484108430136549
1.8181818181818181,6.784810126582278,0.004705253596685874,0.0042115070167240126,-8.447123917024684e-06,-0.002675028184022966,0.004478862387352385
1.9191919191919191,6.784810126582278,0.004786329476068763,0.004315351038723916,4.492431664732241e-05,-0.002730504154437803,0.004569744757352507
2.0202020202020203,6.784810126582278,0.004645604690336787,0.004245428238779546,4.194448826010387e-05,-0.0026673098787348996,0.004459596456096634
2.121212121212121,6.784810126582278,0.004697054162297036,0.004205359070270942,2.897356997371464e-05,-0.0026707239697703936,0.00447180967749784
2.2222222222222223,6.784810126582278,0.004660601073310132,0.004048687723233297,-3.9801407871526694e-05,-0.002612786638963028,0.004387312246992067
2.323232323232323,6.784810126582278,0.004706745261546309,0.004070299763461773,2.8627268898759733e-05,-0.002633113507502425,0.004423277694012963
2.4242424242424243,6.784810126582278,0.004489864459505784,0.004162154611474684,2.1678170379547007e-05,-0.0025956057212941403,0.004335471558981545
2.525252525252525,6.784810126582278,0.004371790231347814,0.004023263052114963,2.45823922681141e-05,-0.002518515985038833,0.004208580067679795
2.6262626262626263,6.784810126582278,0.004542723349533527,0.004188162603931274,-8.412999055528849e-05,-0.00261926578603944,0.004378654010169822
2.727272727272727,6.784810126582278,0.004404053926417965,0.004109236972771568,-4.5793867041842606e-05,-0.0025539872697568594,0.004265033352208371
2.8282828282828283,6.784810126582278,0.0046684466980102144,0.004233158581982001,-0.00011158773402538277,-0.0026704815839976646,0.004470917849314347
2.929292929292929,6.784810126582278,0.004503379088529633,0.004236236213188651,2.2017633329968896e-05,-0.0026218845905154856,0.004376093831366454
3.0303030303030303,6.784810126582278,0.004546521845346291,0.004150934832578419,-2.6900017251411657e-05,-0.0026092370033774124,0.004362450665896592
3.131313131313131,6.784810126582278,0.004454791514856191,0.0038899226515388924,4.5764206558871594e-05,-0.002503414249918525,0.004201684702839281
3.2323232323232323,6.784810126582278,0.00462234904019218,0.004016207600509542,1.565505875655762e-05,-0.002591566992210517,0.004351144221342517
3.3333333333333335,6.784810126582278,0.004288797562268732,0.004195532207832086,2.5939742619918745e-05,-0.0025452989310302456,0.004243171613598719
3.4343434343434343,6.784810126582278,0.0043197205120202335,0.004034110904903854,5.5194658162421705e-05,-0.0025061494250772265,0.004185324816812173
3.5353535353535355,6.784810126582278,0.004533967228691297,0.004053415511570418,9.439161771431654e-05,-0.002576214822078514,0.00431691004991316
3.6363636363636362,6.784810126582278,0.004513466616039926,0.0038966325704796446,2.4688456847304552e-05,-0.0025230297559558712,0.004239060488044549
3.7373737373737375,6.784810126582278,0.004466631690398929,0.0039830935552843645,-8.387971891512395e-06,-0.0025349175737049883,0.0042455897237232325
3.8383838383838382,6.784810126582278,0.004281050609148168,0.004108055711626159,1.192387644233829e-05,-0.0025167318962322984,0.004197278663339935
3.9393939393939394,6.784810126582278,0.004543463308517707,0.0040185287443696115,5.460175534592611e-05,-0.0025685976158661954,0.004306104766022882
4.040404040404041,6.784810126582278,0.004192671427412568,0.004271125125245424,-2.398480930254091e-05,-0.002539138965797397,0.004232647525067012
4.141414141414141,6.784810126582278,0.004410940854494058,0.0037278660461998086,3.1831561788678424e-05,-0.00244164207020816,0.004112545146496013
4.242424242424242,6.784810126582278,0.004362663742760796,0.0040005483828505824,-5.5086052821885416e-05,-0.002508963637683413,0.0041944342091099675
4.343434343434343,6.784810126582278,0.004348958082295898,0.003984430654291574,-0.00010964478070093205,-0.0025000166209762417,0.004182949686154638
4.444444444444445,6.784810126582278,0.004429072878401165,0.00411249072697088,2.4390102268497688e-06,-0.0025624690816116137,0.004279575124521114
4.545454545454545,6.784810126582278,0.004570806805420141,0.004010079740158829,-2.6343655908423165e-05,-0.002574265963673691,0.0043180778794426385
4.646464646464646,6.784810126582278,0.004329372271418832,0.003919888653481162,-1.5635903844802153e-05,-0.0024747782774699983,0.0041399356904735975
4.747474747474747,6.784810126582278,0.004289028583770404,0.00391217778953029,-6.22417995391783e-06,-0.0024603619119902085,0.004113584216526365
4.848484848484849,6.784810126582278,0.004539325389347995,0.0038767433721794845,5.1693219413988736e-05,-0.0025248206284582434,0.004247920798884572
4.94949494949495,6.784810126582278,0.004535271994322103,0.0040381984237742715,-3.719013156571771e-05,-0.0025720411254289122,0.004308777050516063
5.05050505050505,6.784810126582278,0.004465361758922141,0.0039656860108855515,4.597766550522719e-05,-0.0025293143309423082,0.004238424276928007
5.151515151515151,6.784810126582278,0.00433536161004231,0.0039838921520305975,3.6472302089513214e-05,-0.002495776128621872,0.004171226985053256
5.252525252525253,6.784810126582278,0.004270459067856895,0.003989462232062988,-3.8850140571993135e-05,-0.002477976389975965,0.004137671130814963
5.353535353535354,6.784810126582278,0.004185623368643141,0.00405543166806571,-1.6675610914687717e-06,-0.0024723165110126554,0.004122070812221752
5.454545454545454,6.784810126582278,0.004295798718816069,0.003820156382643656,-3.1716686453484387e-05,-0.0024347865304379175,0.004079200457295028
5.555555555555555,6.784810126582278,0.0045074410243235415,0.004010418295809488,7.683129830611311e-05,-0.002555357796039909,0.004282693625405296
5.656565656565657,6.784810126582278,0.004384006542638417,0.004054742578514858,-7.915907330240529e-06,-0.002531624736345982,0.00422902125033212
5.757575757575758,6.784810126582278,0.004324177878561551,0.003891690617735734,2.0636844199755474e-05,-0.0024647605488891857,0.004125128525053564
5.858585858585858,6.784810126582278,0.004411957103264807,0.003961488004380808,-2.583019278695611e-05,-0.0025120335322936843,0.004205096805788641
5.959595959595959,6.784810126582278,0.004412094584423808,0.003872889904682737,-1.8105908549948897e-06,-0.0024854953467319638,0.004168729794061105
6.0606060606060606,6.784810126582278,0.00429351613768795,0.004219917588077544,-4.30252801768387e-06,-0.002554030117729648,0.0042572005526955075
6.161616161616162,6.784810126582278,0.004548484656295036,0.003946920198556034,3.123811170389256e-06,-0.002548621456455321,0.00427953444128641
6.262626262626262,6.784810126582278,0.004372989967962273,0.0038260922092976713,3.6271011058746765e-05,-0.0024597246531779834,0.004127288064203825
6.363636363636363,6.784810126582278,0.004637806139745847,0.003942946206366399,-7.573090599939933e-05,-0.002574225703833674,0.00433435761814369
6.4646464646464645,6.784810126582278,0.0043441957897689485,0.004087253329801256,-1.090070477236027e-05,-0.0025294347358710612,0.004221635300552332
6.565656565656566,6.784810126582278,0.004393169915012822,0.003953141524954534,-3.938318671657879e-05,-0.0025038934319902067,0.004191073908613795
6.666666666666667,6.784810126582278,0.004419438319060823,0.00402377909016309,1.5938718743600412e-05,-0.0025329652227671744,0.004235581642723933
6.767676767676767,6.784810126582278,0.0044369393818673225,0.003808373453102693,-1.1874262970261008e-05,-0.002473593850491004,0.0041584901438017595
6.8686868686868685,6.784810126582278,0.004572056807544807,0.004135639274694867,-1.4159359753127493e-05,-0.002612308824671902,0.004370290542378506
6.96969696969697,6.784810126582278,0.0044705758456827956,0.004132338895551086,1.6430723110443126e-05,-0.0025808744223701644,0.004311513492156369
7.070707070707071,6.784810126582278,0.0046395073872228815,0.004024939466553516,-4.0514041605277456e-05,-0.002599334056132919,0.00436535843660259
7.171717171717171,6.784810126582278,0.004509029715713645,0.004014891710124344,2.8273055906267576e-05,-0.002557176427751397,0.00428367091312599
7.2727272727272725,6.784810126582278,0.004607980290845626,0.004317176689865798,-7.144128350843569e-05,-0.002677547094213427,0.00447139166304078
7.373737373737374,6.784810126582278,0.004563818160834041,0.0040508234586916205,-3.3052282253521365e-05,-0.0025843924858576987,0.004330549917922905
7.474747474747475,6.784810126582278,0.0046592083740023705,0.004149486623792484,1.0284638036217882e-05,-0.0026426084993384563,0.004426449639311443
7.575757575757575,6.784810126582278,0.004720885501415413,0.004253564908679899,-8.998926603297374e-05,-0.0026923351230285935,0.004508134386541115
7.6767676767676765,6.784810126582278,0.004711434053844011,0.004073260867645417,-0.0001078794007595708,-0.0026354084764468287,0.004430923027194494
7.777777777777778,6.784810126582278,0.004763187995452951,0.00404306756059222,-1.4322001064699811e-05,-0.002641876666813551,0.00444714286584832
7.878787878787879,6.784810126582278,0.00481674410745322,0.0040323396116970596,-1.6323494915165934e-05,-0.002654725115745084,0.004476476052243911
7.979797979797979,6.784810126582278,0.004803259794741733,0.004055998703436674,-7.367437033835944e-05,-0.002657777549453522,0.00447847053991144
8.080808080808081,6.784810126582278,0.004837467929031849,0.0043241255722777025,7.868716810937816e-05,-0.0027484780503928656,0.004604336452032257
8.181818181818182,6.784810126582278,0.004550419258051234,0.004422011170533068,-3.770440102324726e-05,-0.0026917291285752905,0.004488068436668607
8.282828282828282,6.784810126582278,0.004789491181257925,0.004294110369571815,-6.661690102783448e-05,-0.002725080465248922,0.004563476671300825
8.383838383838384,6.784810126582278,0.004711931284390004,0.004339344225327014,7.45821894381049e-05,-0.0027153826529151054,0.004538964687523006
8.484848484848484,6.784810126582278,0.0047495796103512655,0.004286129138795097,2.1010677626612625e-05,-0.0027107126247439086,0.004535793453218769
8.585858585858587,6.784810126582278,0.004680200182324664,0.0043261654012864996,9.558758594653142e-06,-0.0027019096750833488,0.004513638757770728
8.686868686868687,6.784810126582278,0.00503597830278445,0.0043208820156569495,-3.0962664889782675e-05,-0.00280705809553242,0.004719545194132026
8.787878787878787,6.784810126582278,0.005009979536745827,0.004435855432559269,4.713699770681692e-06,-0.0028337504907915284,0.004749024119647041
8.88888888888889,6.784810126582278,0.004889328159432594,0.004529182874533613,2.492967740218945e-05,-0.002825553310189862,0.004719770170289879
8.98989898989899,6.784810126582278,0.005056565491587053,0.004514419123931099,2.2290972421332083e-07,-0.0028712953846554454,0.004808469485154235
9.09090909090909,6.784810126582278,0.005086251597497647,0.004455986872188146,4.2928549263340065e-05,-0.0028626715409057375,0.004802815065364325
9.191919191919192,6.784810126582278,0.004976009660478293,0.004528167944041406,5.497446573114412e-08,-0.0028512532813559097,0.004767889433057973
9.292929292929292,6.784810126582278,0.004990330912432581,0.0047488153087961605,8.976045107914631e-07,-0.0029217438663686223,0.00487406319581517
9.393939393939394,6.784810126582278,0.005120332828188305,0.0045069846288147905,1.3033660425783184e-05,-0.0028881952371009284,0.004842929587929962
9.494949494949495,6.784810126582278,0.005053243857028773,0.004689690110855255,0.00011247487213348986,-0.0029228801903652085,0.004885516437490416
9.595959595959595,6.784810126582278,0.005110772043028973,0.004551169450269346,-2.6524404949501726e-07,-0.0028985824479894956,0.004855218312538647
9.696969696969697,6.784810126582278,0.005221974130839403,0.004838746134387761,4.632839137065867e-05,-0.003018216079568149,0.005041935124163872
9.797979797979798,6.784810126582278,0.005269011612248015,0.004697225672948455,5.195612216025899e-05,-0.002989871185558941,0.005008470234750865
9.8989898989899,6.784810126582278,0.0053486725420550454,0.004834194740955202,2.784483140056178e-05,-0.003054860184903074,0.005111119063925795
10.0,6.784810126582278,0.005528727948090595,0.005073333585531485,-8.990500365860533e-06,-0.003180618460086624,0.005315703875975006
0.0,6.886075949367089,0.0054962625617007346,0.005028400149570516,8.579264125056652e-05,-0.0031573988133813753,0.00527999847120218
0.10101010101010101,6.886075949367089,0.00542294857087213,0.004813576979328669,5.158020832026937e-05,-0.00307095766506024,0.005146172916943686
0.20202020202020202,6.886075949367089,0.0053760794752013095,0.004677213404001745,3.1566478364771916e-05,-0.003015987863760916,0.005063247386365119
0.30303030303030304,6.886075949367089,0.005404071038633169,0.004808024334835256,5.5716530871028296e-05,-0.003063628612040527,0.005132980589235846
0.40404040404040403,6.886075949367089,0.005120356849898464,0.004745429180335845,8.77228193230053e-06,-0.0029597358090702928,0.004943591045529075
0.5050505050505051,6.886075949367089,0.005070786102147349,0.004481740073032886,4.367500085782847e-05,-0.00286575785255407,0.004804023627886036
0.6060606060606061,6.886075949367089,0.005130381901936866,0.004648467757298452,-1.9436200830620842e-05,-0.0029336548977705952,0.004907319980833917
0.7070707070707071,6.886075949367089,0.005162438424604699,0.004675754405095879,-1.7004843701144625e-05,-0.0029514578489101733,0.004937208020111651
0.8080808080808081,6.886075949367089,0.0051915851175309774,0.004612729174378509,-2.5888471758930606e-05,-0.0029412942875728463,0.0049279266405596375
0.9090909090909091,6.886075949367089,0.00499787772384486,0.004296795808115779,-4.828178471400092e-05,-0.0027884020595881913,0.004687576057842656
1.0101010101010102,6.886075949367089,0.0050467444454271706,0.004549714754797911,-1.6769792263675625e-05,-0.0028789377600675244,0.0048175854801154406
1.1111111111111112,6.886075949367089,0.004916600943765334,0.004490638269648791,1.2612707471107851e-06,-0.002822171764024237,0.00471806372644713
1.2121212121212122,6.886075949367089,0.0047067926195229984,0.004303229540738896,5.375022261117031e-05,-0.002703006648078568,0.0045195065505332695
1.3131313131313131,6.886075949367089,0.004855303551985159,0.004292330167955436,-2.710651268441895e-05,-0.0027442901159821786,0.004599968394563455
1.4141414141414141,6.886075949367089,0.0047641007247655204,0.00427469995113483,-2.09347790019923e-05,-0.0027116402027701045,0.004539375402795244
1.5151515151515151,6.886075949367089,0.004794104980603407,0.004143317281648184,-5.987632820170099e-05,-0.002681226678675477,0.004505305557819348
1.6161616161616161,6.886075949367089,0.004731925898155652,0.004296488028399592,2.3953808991876516e-05,-0.0027085241779665733,0.004530120358888171
1.7171717171717171,6.886075949367089,0.004738650038099899,0.004200180652043865,3.4487143727238346e-05,-0.002681649207043129,0.0044940742735074
1.8181818181818181,6.886075949367089,0.0044892997914759885,0.004436767622810922,1.1863555324959247e-05,-0.002677820224286073,0.0044633128754874435
1.9191919191919191,6.886075949367089,0.00471850143945222,0.004200488460875487,-3.296652722433399e-05,-0.002675696970098312,0.004482366414157711
2.0202020202020203,6.886075949367089,0.004882309473243481,0.0040108617794388035,-7.013748755280449e-06,-0.0026679513758046856,0.004510192581550878
2.121212121212121,6.886075949367089,0.004420257411588509,0.004001946220031905,2.2578821556149804e-05,-0.0025266610894861246,0.004226836417748473
2.2222222222222223,6.886075949367089,0.004684252028210675,0.004201132611485117,5.158955443664214e-05,-0.0026656153919087378,0.004463244646367632
2.323232323232323,6.886075949367089,0.004780993469451062,0.004211921995206475,-2.0251261917359173e-05,-0.002697874639397261,0.004523521220967808
2.4242424242424243,6.886075949367089,0.004407899012202676,0.004098704386556579,6.337469379748206e-05,-0.002551981019627777,0.004263135628710835
2.525252525252525,6.886075949367089,0.004821136568898111,0.004034972079695376,-9.259426940105294e-05,-0.0026568325945780457,0.004482959641594309
2.6262626262626263,6.886075949367089,0.004485105175795518,0.00416680103888179,2.7881481824157503e-05,-0.0025955718644031923,0.004334996027756126
2.727272727272727,6.886075949367089,0.004642485012406402,0.004078341311450852,2.2436915097685276e-06,-0.002616247897157176,0.004387700038935097
2.8282828282828283,6.886075949367089,0.004516519784911629,0.004015492198652952,9.476499774175089e-05,-0.0025596035950693737,0.004291156000188938
2.929292929292929,6.886075949367089,0.0047007191973067524,0.004145969678257202,3.303428056738096e-05,-0.0026540066626691864,0.004449725843015371
3.0303030303030303,6.886075949367089,0.004563199938782913,0.003916555021410553,7.976294025447855e-05,-0.0025439264880580395,0.004278932070390715
3.131313131313131,6.886075949367089,0.004532226129479644,0.00390679490455654,1.2701076019068867e-05,-0.0025317063102108556,0.004254189243328748
3.2323232323232323,6.886075949367089,0.0045784416160311705,0.0038497168978042515,-3.630952953874507e-05,-0.0025284475541506265,0.004261537154080236
3.3333333333333335,6.886075949367089,0.004651575616843738,0.004228049745450174,-1.9397891937803723e-05,-0.0026638876086881734,0.0044550640961845845
3.4343434343434343,6.886075949367089,0.004426276505876804,0.0040460481592612466,0.00013756035839867495,-0.002541697399541415,0.00425561629627983
3.5353535353535355,6.886075949367089,0.004496266056833898,0.004245331406918048,-3.4304970469452148e-06,-0.002622479239125584,0.004376201893011207
3.6363636363636362,6.886075949367089,0.0044238170282382755,0.003985308651777287,-1.342627147295753e-06,-0.002522737704004669,0.004221678727791482
3.7373737373737375,6.886075949367089,0.004362351015622236,0.00372004906188072,-6.116327598163048e-05,-0.0024247200232508865,0.0040806781840800055
3.8383838383838382,6.886075949367089,0.004250877371812086,0.004083861498844511,-2.603054011968829e-05,-0.0025004216611969787,0.004170122480687181
3.9393939393939394,6.886075949367089,0.004525441245989943,0.0038656960054111525,-3.8943034982214225e-05,-0.002517341175420328,0.004234831001319112
4.040404040404041,6.886075949367089,0.004496568122741172,0.0040023826096825905,-2.5840329702333916e-05,-0.0025496852197271287,0.004271206919238017
4.141414141414141,6.886075949367089,0.004468770836849035,0.003925029584874378,1.36175521212958e-06,-0.0025181401265170237,0.00422323547234665
4.242424242424242,6.886075949367089,0.004450601587137519,0.004011094642419763,2.1526128485154763e-06,-0.0025385088688671844,0.00424793649168553
4.343434343434343,6.886075949367089,0.0044350462516583936,0.0038966813579146276,4.9684295066864375e-05,-0.002499518282871906,0.004192756181400371
4.444444444444445,6.886075949367089,0.004438434790832797,0.0037736420054157614,-1.1457692889716203e-05,-0.0024636230388745675,0.004146252193090402
4.545454545454545,6.886075949367089,0.004529532096538142,0.004125274941011338,-8.153090284566478e-06,-0.002596442111264844,0.004341565215310434
4.646464646464646,6.886075949367089,0.004355052127338107,0.0038318651378499427,2.129959133413639e-05,-0.002456075179556415,0.004118623321452062
4.747474747474747,6.886075949367089,0.004323717454756524,0.003722200889202643,0.00012957779553115096,-0.0024137755031877497,0.004062750096754118
4.848484848484849,6.886075949367089,0.004336648642449919,0.004144065286243706,8.346386711130038e-05,-0.002544214178608088,0.004246097278471111
4.94949494949495,6.886075949367089,0.004561536970215015,0.003935251564099163,-7.852754545490605e-06,-0.0025490365602942535,0.004282897839536958
5.05050505050505,6.886075949367089,0.004525760563399847,0.0038354724435632837,-1.176346364007202e-05,-0.002508369902088939,0.0042231910627751005
5.151515151515151,6.886075949367089,0.00439262167556333,0.003978319825920349,-8.620662812606675e-05,-0.0025112824504451036,0.004203474119163487
5.252525252525253,6.886075949367089,0.004446173129333452,0.003695561757229625,9.878163912032951e-05,-0.0024425204659689233,0.004125990578200605
5.353535353535354,6.886075949367089,0.0044342866924640375,0.004013926322804054,-8.403119880588772e-06,-0.0025344639045804273,0.004239789470645091
5.454545454545454,6.886075949367089,0.00428547459734564,0.0036883274584654235,1.0653549317536744e-05,-0.002392140616743319,0.00402034312338611
5.555555555555555,6.886075949367089,0.004453133622648648,0.004060137599262559,2.2327631852999475e-05,-0.0025539813665733622,0.00427039537978462
5.656565656565657,6.886075949367089,0.004352530817112123,0.0039628875471718625,-3.854923530878583e-05,-0.002494625509285196,0.004171914450495578
5.757575757575758,6.886075949367089,0.004596809072451512,0.003918186830841777,-1.8493772703638468e-05,-0.0025544987709879862,0.004297989178356244
5.858585858585858,6.886075949367089,0.004488362112753685,0.004066547641849203,-2.3787093304591627e-05,-0.0025664729263808663,0.004293222949099181
5.959595959595959,6.886075949367089,0.004386314911993409,0.0040140382101432745,8.651171885728484e-06,-0.002520105936641005,0.004212558620307637
6.0606060606060606,6.886075949367089,0.00439192396226243,0.0038650801869477744,-7.005928041328527e-05,-0.0024771012447630616,0.0041554094336209
6.161616161616162,6.886075949367089,0.0046685110163363595,0.0039265744462105385,1.0555020781419872e-05,-0.0025785256387640698,0.004345349256168011
6.262626262626262,6.886075949367089,0.0044232519772333485,0.00411055299951816,-3.301279637259741e-05,-0.0025601414930254526,0.004275869720592328
6.363636363636363,6.886075949367089,0.004318216167275662,0.003960388963484583,3.4115668676200166e-05,-0.002483581539228073,0.004151306733444283
6.4646464646464645,6.886075949367089,0.004440358155580318,0.0038264836609417686,-2.428067515935602e-05,-0.002480052544956626,0.004167681427338698
6.565656565656566,6.886075949367089,0.004474664780525367,0.004061154435511617,2.9658617413429694e-05,-0.002560745764811095,0.004283215430847745
6.666666666666667,6.886075949367089,0.004308744991826549,0.003942016900121908,-1.9467859282731775e-07,-0.002475228567584537,0.004137588087647255
6.767676767676767,6.886075949367089,0.004475817537318921,0.0040397233650451185,3.0380668782797873e-05,-0.0025546622707092116,0.004274811313424745
6.8686868686868685,6.886075949367089,0.004510831535067572,0.004092091902238782,-2.7893699121657907e-05,-0.002580877031191906,0.004316991342644435
6.96969696969697,6.886075949367089,0.004534596257872733,0.0041136121571895765,5.851229725940944e-07,-0.0025944625245186924,0.004339446846599958
7.070707070707071,6.886075949367089,0.0045502033454817995,0.004066304622181555,3.9635457987155994e-05,-0.0025849523902990064,0.004329131989048126
7.171717171717171,6.886075949367089,0.0044707134125358495,0.004197665811435791,3.597217027588482e-06,-0.002600513767191492,0.0043406398902588895
7.2727272727272725,6.886075949367089,0.004379784396627753,0.004030450132757382,-2.013198565944529e-05,-0.0025230703588155407,0.004216130088278903
7.373737373737374,6.886075949367089,0.004469317038448884,0.004294474497254918,4.185462650600372e-05,-0.002629137460711141,0.004385110418821474
7.474747474747475,6.886075949367089,0.004599300827251843,0.004069082759628828,1.2822701695413031e-05,-0.0026005150760642012,0.004358504349749725
7.575757575757575,6.886075949367089,0.004456944437789317,0.004133322992699918,-5.8650450597617476e-05,-0.0025770802291467704,0.004305466454135749
7.6767676767676765,6.886075949367089,0.004501126886273678,0.004084042631294783,0.00010189126840979708,-0.0025755508552705382,0.004311368559969632
7.777777777777778,6.886075949367089,0.004553247931679277,0.0042146162710283005,8.882644688457094e-05,-0.002630359260812273,0.004396422936146508
7.878787878787879,6.886075949367089,0.004706662516262551,0.004130589042710165,3.7786287331693906e-05,-0.002651175467691815,0.004447182554704766
7.979797979797979,6.886075949367089,0.00463391008898861,0.0041502279196029765,-2.9863822137292047e-05,-0.0026352414025774757,0.004412301781706457
8.080808080808081,6.886075949367089,0.004871573661333245,0.004144871673122494,-1.0713960615773922e-05,-0.0027049336003367214,0.004551976254212613
8.181818181818182,6.886075949367089,0.004899173626115694,0.004441880039687471,6.767226017572074e-05,-0.0028023160997409494,0.004688752240136692
8.282828282828282,6.886075949367089,0.004747052052890014,0.0041614469316184274,-4.9287029886199544e-05,-0.0026725496953525323,0.004483840562702539
8.383838383838384,6.886075949367089,0.004815002068869288,0.004421093475734733,-5.3991819625967044e-05,-0.0027708286633812062,0.004631574630925434
8.484848484848484,6.886075949367089,0.004832523944409222,0.004229505892464801,-2.0326149372159005e-05,-0.002718608951062207,0.004561146646006001
8.585858585858587,6.886075949367089,0.004835661965914225,0.004330539903849584,-0.00012297430343070724,-0.0027498605609291423,0.004608854894701776
8.686868686868687,6.886075949367089,0.004784346865732504,0.004375016436539136,-3.764121432868202e-05,-0.002747808990681492,0.004593843506149969
8.787878787878787,6.886075949367089,0.005035832695334834,0.004357078750176419,1.3420871155400042e-06,-0.002817873433653376,0.004733099613144502
8.88888888888889,6.886075949367089,0.004856443421966643,0.004493669231906106,-9.749899595120789e-06,-0.0028050337961618246,0.004685631299663337
8.98989898989899,6.886075949367089,0.005167343878325807,0.0043664741732787355,7.58752588924458e-06,-0.002860145415481363,0.0048171193243752184
9.09090909090909,6.886075949367089,0.005061932314873271,0.004579534427228203,3.093860487975618e-05,-0.002892440022630442,0.004839098326969729
9.191919191919192,6.886075949367089,0.0051528105042059815,0.004730019589490204,6.0567018720348755e-05,-0.0029648490281088554,0.004956072222502554
9.292929292929292,6.886075949367089,0.004907432286113363,0.0044150586039754915,-8.412415870219282e-06,-0.002796747267026656,0.0046807312769818615
9.393939393939394,6.886075949367089,0.005293682437759114,0.0045994281645132225,-0.00010633841757686634,-0.002967933180681701,0.004986363872732988
9.494949494949495,6.886075949367089,0.005187713358144822,0.004630341578265151,4.491929348341742e-05,-0.002945416480922992,0.004933315455971458
9.595959595959595,6.886075949367089,0.005202723549042368,0.004877301821211903,1.3940809053031135e-06,-0.003024007611076281,0.005047886505492697
9.696969696969697,6.886075949367089,0.005288555905700442,0.004874024508963744,-3.756250881346274e-05,-0.003048774124399256,0.005094371424081137
9.797979797979798,6.886075949367089,0.005455273630772541,0.004842847443990798,1.1919590177244591e-05,-0.0030894363224290016,0.005176345238022983
9.8989898989899,6.886075949367089,0.00521781523874603,0.005120536216349282,2.097726856119962e-05,-0.0031015054365285933,0.005169989869023494
10.0,6.886075949367089,0.005386031066985818,0.004876665679514473,-6.707983150788453e-05,-0.003078809023950087,0.00515158471370778
0.0,6.987341772151899,0.005559205529289658,0.0047336566967294295,5.5083455799320515e-05,-0.0030878586678057267,0.005196730117917151
0.10101010101010101,6.987341772151899,0.005402651617260872,0.00472017123802706,-3.54896359191432e-05,-0.0030368468565863797,0.00509617491690457
0.20202020202020202,6.987341772151899,0.005339250798879593,0.004805521583506036,-5.8089233459238235e-05,-0.003043431714715689,0.00509439642217237
0.30303030303030304,6.987341772151899,0.005354260775086764,0.004733976483502066,6.260285105782219e-05,-0.0030264711775766493,0.005073800799111719
0.40404040404040403,6.987341772151899,0.005221685199535403,0.004589520744888122,2.3618750470611907e-05,-0.0029433617833270575,0.004936227099757858
0.5050505050505051,6.987341772151899,0.005293953298862204,0.004637276637752598,3.968735672221391e-05,-0.002979368980984441,0.004998547334002535
0.6060606060606061,6.987341772151899,0.005312396722936006,0.004623997895769337,3.2008805145335415e-05,-0.0029809183856116025,0.005004146071450447
0.7070707070707071,6.987341772151899,0.005099690563606428,0.004646583723982406,6.401506467889045e-05,-0.00292388228627665,0.004890167559893207
0.8080808080808081,6.987341772151899,0.005169012570305496,0.0044759925596552395,-4.37736478514226e-05,-0.0028935015389882205,0.004860297000940595
0.9090909090909091,6.987341772151899,0.005061100184489964,0.004501995760952291,-7.737848743994925e-06,-0.0028689287836326763,0.004806020074412676
1.0101010101010102,6.987341772151899,0.004907663856149927,0.004429529426071669,-4.367098483688072e-05,-0.0028011579846664784,0.0046875340491628
1.1111111111111112,6.987341772151899,0.004986685694675809,0.004364778060117982,-7.860048129928127e-05,-0.002805439126438137,0.004708617581172623
1.2121212121212122,6.987341772151899,0.005044440727692343,0.00445556251723195,-9.064131516746942e-05,-0.0028500009734772876,0.00477987929947035
1.3131313131313131,6.987341772151899,0.004911253780405415,0.004485016994264237,1.461746712281975e-05,-0.0028188812324008955,0.004712682407839296
1.4141414141414141,6.987341772151899,0.004824736143341805,0.004273907452989376,3.572443772591827e-05,-0.0027295930788993543,0.004574682143515944
1.5151515151515151,6.987341772151899,0.0047213504566249,0.004326963369193071,3.4517430504441965e-05,-0.0027144941477453915,0.0045374250421023775
1.6161616161616161,6.987341772151899,0.004782842525182496,0.004130506672270241,-4.5273966537621245e-05,-0.002674004759235821,0.004493022838114343
1.7171717171717171,6.987341772151899,0.004940543899232036,0.004360456057290974,-2.959227307377067e-05,-0.0027902999869569033,0.0046778364212489475
1.8181818181818181,6.987341772151899,0.004778154382711559,0.004455641517815681,1.8641572441929338e-05,-0.0027701387701581717,0.004625451342175729
1.9191919191919191,6.987341772151899,0.004672217124117848,0.004164188709871779,5.1786696081916576e-05,-0.0026509217501968878,0.004440960735435043
2.0202020202020203,6.987341772151899,0.004663122417476997,0.004257643009157718,-3.502605943531333e-05,-0.002676229627990414,0.0044745954662636514
2.121212121212121,6.987341772151899,0.0046783585492160005,0.00411331358437018,6.013850362996357e-05,-0.0026375016400758543,0.004424215354636199
2.2222222222222223,6.987341772151899,0.004600118629090811,0.00401735108137289,2.5689973350683372e-05,-0.0025852409131391103,0.004338420160367939
2.323232323232323,6.987341772151899,0.00458551896191738,0.004218501574322405,-1.788622232363602e-05,-0.0026412061608719352,0.004413579100183634
2.4242424242424243,6.987341772151899,0.004425062484134645,0.0040128363569875754,1.139582100987768e-05,-0.002531369652336666,0.004234072695690216
2.525252525252525,6.987341772151899,0.004743237974266528,0.00413466373506538,5.545647750944687e-05,-0.0026633705127995723,0.004471161248076086
2.6262626262626263,6.987341772151899,0.004587578856337558,0.004052732337466544,-3.71991504854274e-05,-0.002592093358141231,0.004345393113504918
2.727272727272727,6.987341772151899,0.004507721724289922,0.003994924384357148,-4.916209880142879e-05,-0.002550793832594121,0.004275303414025732
2.8282828282828283,6.987341772151899,0.004641122069426055,0.0040215598695062605,-2.594159681935051e-05,-0.0025988045816796946,0.004364679424973814
2.929292929292929,6.987341772151899,0.004576297277884626,0.004067734460739093,3.8134699301177316e-06,-0.002593209521587115,0.004344403515614027
3.0303030303030303,6.987341772151899,0.004596857869011094,0.004026774852682333,-1.2768065363043466e-05,-0.0025870898165080277,0.004340045550944669
3.131313131313131,6.987341772151899,0.0044689134389689095,0.0039897849845313554,-7.623659714728973e-05,-0.0025376095270500795,0.00425170599501589
3.2323232323232323,6.987341772151899,0.004485361020977077,0.004075899724047707,8.564197023776624e-05,-0.0025683782235074353,0.004297853411010724
3.3333333333333335,6.987341772151899,0.004443550441134616,0.004085225328452238,-4.2187302682494616e-05,-0.002558632730876056,0.004276288227222291
3.4343434343434343,6.987341772151899,0.004488530568560462,0.00415528728760755,1.4162856810020176e-06,-0.0025931453568504037,0.004331534498705145
3.5353535353535355,6.987341772151899,0.004502339005952359,0.0040708921527386885,-3.531852829689172e-05,-0.002571969347607314,0.004303303976106257
3.6363636363636362,6.987341772151899,0.004448269519900146,0.0038893054763269033,2.252956008273612e-05,-0.0025012724988681145,0.004196980170213579
3.7373737373737375,6.987341772151899,0.004633965191110797,0.004020734659487765,-3.841491479981546e-05,-0.0025964099551795687,0.004360323755951034
3.8383838383838382,6.987341772151899,0.004442412128528628,0.003981659697366294,2.2813754273464823e-05,-0.0025272215477684765,0.0042310787674336445
3.9393939393939394,6.987341772151899,0.004527235883055702,0.004154653341667937,1.6107816223265497e-05,-0.0026045667674170917,0.0043530095135933
4.040404040404041,6.987341772151899,0.004380920351724721,0.003915075386785473,1.7604002020400377e-05,-0.002488798721553058,0.004167682170526643
4.141414141414141,6.987341772151899,0.0044030829707527655,0.0039076284350722905,3.3194287006009705e-05,-0.002493213421747517,0.004177845497082431
4.242424242424242,6.987341772151899,0.004471538011816545,0.004000534564914443,4.248426778413584e-05,-0.0025416217730192966,0.004256266128970558
4.343434343434343,6.987341772151899,0.004440331014985743,0.004043744053399535,-4.2013955030942444e-05,-0.002545222520515583,0.004256540716629682
4.444444444444445,6.987341772151899,0.004631157378726568,0.004073350677974851,4.925387876632361e-05,-0.0026113524170104253,0.00437981211898047
4.545454545454545,6.987341772151899,0.00435566869324335,0.003884499535851278,-5.2221286374949396e-05,-0.002472050468728388,0.0041412286317414615
4.646464646464646,6.987341772151899,0.0042949117833310105,0.0038941116231601108,-2.0047216790160096e-05,-0.0024567070219473366,0.0041093445142762995
4.747474747474747,6.987341772151899,0.00444526322860825,0.003876459602574381,2.8388084271061683e-05,-0.0024965168493547895,0.004190207458287032
4.848484848484849,6.987341772151899,0.004436646403692473,0.004004763026591433,1.3012575122854575e-05,-0.002532422829085172,0.004237304415818817
4.94949494949495,6.987341772151899,0.004367425131008198,0.0038789378284980547,-1.110130983841902e-05,-0.0024739088878518757,0.004144871543938942
5.05050505050505,6.987341772151899,0.004348701131150007,0.003981083284072077,8.927712958449543e-05,-0.002498935324566625,0.004179903764411016
5.151515151515151,6.987341772151899,0.004383244766113143,0.0040033077856341855,3.082163198190741e-05,-0.0025159657655241985,0.004206504478382329
5.252525252525253,6.987341772151899,0.004396813419337932,0.003924397976428567,2.5401648333167042e-05,-0.0024963634187299493,0.004180903941433853
5.353535353535354,6.987341772151899,0.004403364676159999,0.0039578804797748175,-1.49203521600498e-05,-0.002508373546780445,0.004198465805155298
5.454545454545454,6.987341772151899,0.004568136688876551,0.0038959691078131573,-9.725415518013064e-06,-0.0025392317390069124,0.004271933102037593
5.555555555555555,6.987341772151899,0.004382758702768906,0.004058821357441561,-2.4743503299344218e-05,-0.0025324740180631402,0.004230319935167506
5.656565656565657,6.987341772151899,0.004391696774275264,0.003905620635481939,-1.4009501790615411e-05,-0.0024891952229271607,0.004170031217810537
5.757575757575758,6.987341772151899,0.00432744058492164,0.003968999136270902,-3.261635007711162e-05,-0.0024889319163577625,0.004160201881496322
5.858585858585858,6.987341772151899,0.004349557237795997,0.0039077725810406335,5.409023472737713e-05,-0.0024771989456509893,0.0041474126219788006
5.959595959595959,6.987341772151899,0.00455382727121294,0.004086551915942249,5.138304743786653e-05,-0.0025921137561465564,0.004340013648639905
6.0606060606060606,6.987341772151899,0.0043633869901245105,0.004224798439083724,7.087607571347357e-05,-0.0025764556287624705,0.0042975234246949105
6.161616161616162,6.987341772151899,0.004339486145249261,0.0038785196367537612,2.117434802861388e-05,-0.0024654017346009065,0.004128512735691629
6.262626262626262,6.987341772151899,0.004505649379281743,0.0039923362141726145,-3.491309485891059e-05,-0.0025493956780363075,0.004272612124137072
6.363636363636363,6.987341772151899,0.004375608546419321,0.0039942087354381825,-2.303688415964234e-05,-0.002510945184557251,0.0041981128842466615
6.4646464646464645,6.987341772151899,0.004607668234512053,0.0041187818586849514,-1.0406082040400234e-05,-0.0026179350279591012,0.004383755819300023
6.565656565656566,6.987341772151899,0.00454743179890773,0.0040242492461322575,5.145669971796335e-06,-0.002571504313511996,0.004309732985450412
6.666666666666667,6.987341772151899,0.004526025410426888,0.003940715377500479,-6.786336854990682e-05,-0.00254002223637821,0.004265229428629167
6.767676767676767,6.987341772151899,0.0044776995931127125,0.004020854007492836,-7.693609736494176e-05,-0.0025495660801816643,0.004269735557578467
6.8686868686868685,6.987341772151899,0.004515885504826341,0.004160200723604895,4.0976566648078505e-05,-0.0026028258685293704,0.004349544694049108
6.96969696969697,6.987341772151899,0.004682227199151268,0.004077972439866459,-2.320891165532936e-05,-0.002628059891705318,0.004411432108759128
7.070707070707071,6.987341772151899,0.0044440080635580305,0.004078723132176546,2.8707769147955435e-06,-0.002556819358720373,0.00427309446345244
7.171717171717171,6.987341772151899,0.004729847529555722,0.004221573322634185,-3.757793090041491e-05,-0.002685426255656972,0.0044977746856633034
7.2727272727272725,6.987341772151899,0.004638288229844057,0.004093403326126705,4.0078035837425006e-05,-0.0026195074667912286,0.004391822261060531
7.373737373737374,6.987341772151899,0.004560801728353996,0.004186025568501859,-2.5783890371754377e-05,-0.0026240481890567563,0.004385668049996365
7.474747474747475,6.987341772151899,0.0046024405004066685,0.00407977235988685,-3.3720903082196673e-06,-0.0026046638580880556,0.004364644961468975
7.575757575757575,6.987341772151899,0.004608105107322957,0.004169580633133138,-7.875172447010213e-05,-0.002633305722136829,0.004407354651910849
7.6767676767676765,6.987341772151899,0.004639255196471384,0.004273953268037906,6.75242483175795e-08,-0.002673962539352787,0.004467818866160143
7.777777777777778,6.987341772151899,0.0046541950718057955,0.004086412044761258,-3.5839745088032403e-05,-0.002622182134970116,0.004398316703908381
7.878787878787879,6.987341772151899,0.004830125378195337,0.004244862301977205,0.00011738959849006873,-0.002722496304051763,0.004570239704174177
7.979797979797979,6.987341772151899,0.004692595076069319,0.00404855402695794,5.5577180077794154e-05,-0.0026223447309081777,0.004407071593913596
8.080808080808081,6.987341772151899,0.004678496322844246,0.004240313052434938,-2.2350958956642848e-05,-0.0026756428125837553,0.004475689030539405
8.181818181818182,6.987341772151899,0.004671911195901992,0.004199083045691013,4.731006334168897e-05,-0.0026612982724779012,0.00445511215118073
8.282828282828282,6.987341772151899,0.0047767149273117435,0.0041492142186902,0.00012358140266619392,-0.0026777787438005828,0.004501020742410213
8.383838383838384,6.987341772151899,0.004916409223122942,0.004268065706948322,0.00010139558042455648,-0.0027553424790213795,0.004629767824922762
8.484848484848484,6.987341772151899,0.004714284186531999,0.004405013936013893,-5.6864603764919635e-05,-0.0027357894367637673,0.004568570496046103
8.585858585858587,6.987341772151899,0.004861399849011284,0.004226096446552249,8.148960524518386e-05,-0.0027262488886690595,0.004579113091816067
8.686868686868687,6.987341772151899,0.004762000726671843,0.004405806960709997,-3.146812498120497e-05,-0.0027503423062145518,0.004594594723809321
8.787878787878787,6.987341772151899,0.00509010840044358,0.004314044856892771,-1.4894362104781779e-05,-0.002821245977200905,0.004749936432801651
8.88888888888889,6.987341772151899,0.004947335920077402,0.004486885362411747,0.0001136074943590418,-0.002830266384746745,0.004738023198244958
8.98989898989899,6.987341772151899,0.0050510539881409725,0.0044892921358143005,6.849807484584326e-05,-0.0028621038371865817,0.0047963850224973575
9.09090909090909,6.987341772151899,0.00508195532353259,0.004439310827660906,-1.4163088659941994e-05,-0.002856379845358049,0.004793117255060901
9.191919191919192,6.987341772151899,0.00491296527789745,0.004624051863321215,5.2925039194920034e-05,-0.0028611051423655994,0.00477594811405417
9.292929292929292,6.987341772151899,0.004872413857601291,0.00474253609153464,-7.531076991039373e-05,-0.002884484984740779,0.004810559420990411
9.393939393939394,6.987341772151899,0.005028518311202579,0.004652678458011734,-4.6003093656291727e-05,-0.002904359030764294,0.004852183350964197
9.494949494949495,6.987341772151899,0.005054208129164979,0.004658658941734049,6.458888415723507e-05,-0.002913860121269708,0.0048697850287119085
9.595959595959595,6.987341772151899,0.005077492144870124,0.004833797734562818,-8.215820621485213e-05,-0.0029733869638298824,0.0049621776374182795
9.696969696969697,6.987341772151899,0.005354067642480652,0.004667749254666697,-5.600166943585467e-07,-0.0030065450691442045,0.0050460359806418125
9.797979797979798,6.987341772151899,0.005324618488752881,0.004794092657838164,-4.516063475961463e-05,-0.003035613343977313,0.005080776565524502
9.8989898989899,6.987341772151899,0.005290615834349346,0.004900093953051954,6.75728339504007e-05,-0.00305721293622039,0.005107907620665478
10.0,6.987341772151899,0.0052998595268160045,0.004781139635110008,5.538196578387283e-05,-0.0030242997485778037,0.005061387186990254
0.0,7.0886075949367084,0.005490044094549845,0.004773138910383728,9.593954468222101e-06,-0.0030789549014800716,0.005169039781467109
0.10101010101010101,7.0886075949367084,0.0054355475732138035,0.004919879200462947,7.980824082475182e-05,-0.003106628032103025,0.005198774796540775
0.20202020202020202,7.0886075949367084,0.0053872669304363754,0.004777606005580482,7.998402104784265e-05,-0.0030494618808050568,0.005111664857429823
0.30303030303030304,7.0886075949367084,0.005301193158637404,0.004721418241538206,-1.86565707801599e-05,-0.0030067834200526826,0.005036500098134159
0.40404040404040403,7.0886075949367084,0.0053100535997865446,0.004660047458626644,-8.839119421002964e-05,-0.0029910303175239568,0.005019068516771191
0.5050505050505051,7.0886075949367084,0.00522342607144726,0.004690364872031469,1.560663163566384e-05,-0.002974137283043619,0.004978419337535279
0.6060606060606061,7.0886075949367084,0.005070588697260863,0.0044946011400006074,-4.827249231805101e-05,-0.002869556951178441,0.004809264611751499
0.7070707070707071,7.0886075949367084,0.005049362320275236,0.004669762975707884,2.9144653733973714e-06,-0.002915737588794936,0.004870672064394908
0.8080808080808081,7.0886075949367084,0.004981348616343131,0.004512888995047977,-7.151392964113917e-05,-0.002848271283417332,0.004766032993420684
0.9090909090909091,7.0886075949367084,0.005055343818183878,0.004414876405204705,3.302698020639124e-05,-0.0028410660670165747,0.004767828540798249
1.0101010101010102,7.0886075949367084,0.0048652183544446925,0.004509498167316572,-1.2874692774442868e-05,-0.002812414956528379,0.004697523536677156
1.1111111111111112,7.0886075949367084,0.004890310022078629,0.0045231233657547715,-2.6603931247582038e-05,-0.00282403001635002,0.004717671552228319
1.2121212121212122,7.0886075949367084,0.004842120825891402,0.004391522740584528,-1.3481195789752651e-05,-0.002770093069942779,0.0046333430244222176
1.3131313131313131,7.0886075949367084,0.004787535235879339,0.004390984590971751,-4.3736846188336695e-05,-0.002753555948055327,0.004602714916068626
1.4141414141414141,7.0886075949367084,0.004849584678221544,0.004459028585456668,-0.000125251974870683,-0.002792583979103463,0.004671620162321133
1.5151515151515151,7.0886075949367084,0.004965859185601918,0.004382582871963752,3.69966537595844e-05,-0.002804532617269701,0.004701872704212906
1.6161616161616161,7.0886075949367084,0.004839812849020804,0.004257814831961163,1.3873777862641525e-05,-0.00272928830429459,0.004576715642190902
1.7171717171717171,7.0886075949367084,0.0048348928727785356,0.004394162201963157,-3.682917363599461e-05,-0.0027687165224225077,0.004630725234819489
1.8181818181818181,7.0886075949367084,0.0046714967198778976,0.0043513961190851085,-3.5527796366047976e-05,-0.0027068678516889016,0.004520374294764459
1.9191919191919191,7.0886075949367084,0.004628242461543301,0.0043135407668171664,1.395097481418523e-06,-0.0026825349685081403,0.004479191392666284
2.0202020202020203,7.0886075949367084,0.004662481243023897,0.004389696506795167,-0.00010836807147628709,-0.0027156533249457185,0.004536134924642987
2.121212121212121,7.0886075949367084,0.004643520246834458,0.004361966961846043,-8.635848974952147e-06,-0.0027016461626041505,0.004509365575034409
2.2222222222222223,7.0886075949367084,0.004523834213753916,0.004455534805298354,-4.968833555197228e-05,-0.002693810705715681,0.004490898840326426
2.323232323232323,7.0886075949367084,0.004661275416552444,0.004015911285315696,-0.0001365477348348831,-0.002603156010560442,0.004380833169940411
2.4242424242424243,7.0886075949367084,0.004699686003982119,0.003928414336327657,-7.464391446847544e-05,-0.0025884301020929327,0.004367366369050097
2.525252525252525,7.0886075949367084,0.004756082190341092,0.0040767016524410025,-3.924323395607933e-05,-0.0026498351528346283,0.004455929323274794
2.6262626262626263,7.0886075949367084,0.004308031036546386,0.004200381089766999,-4.7734069146985434e-05,-0.0025525236378940155,0.004256030572628956
2.727272727272727,7.0886075949367084,0.004440881065764765,0.00405011757758952,-3.064779997528517e-05,-0.002547299593006286,0.004259296236593462
2.8282828282828283,7.0886075949367084,0.004425949512300937,0.0039340806174834545,0.0001090292554028304,-0.0025080090389353175,0.004205905293226837
2.929292929292929,7.0886075949367084,0.004597249823342089,0.004162824728930278,0.00012483458796414226,-0.00262802236568171,0.004401479459839617
3.0303030303030303,7.0886075949367084,0.004707488046193174,0.004045552730191998,2.0612997051371975e-05,-0.002625912232915551,0.004414048500768301
3.131313131313131,7.0886075949367084,0.004432476696271205,0.003957207240064996,5.327799671877428e-05,-0.0025169051809008605,0.004215996390500048
3.2323232323232323,7.0886075949367084,0.004513379528819058,0.004065114456585451,-4.45962013749247e-05,-0.002573548195621352,0.004307471695690524
3.3333333333333335,7.0886075949367084,0.004506177046452282,0.004049334460352427,7.96776537702928e-05,-0.002566653452041413,0.004298228557516896
3.4343434343434343,7.0886075949367084,0.0044392388838432875,0.003918743175972509,5.151963728203465e-06,-0.002507394617944739,0.004203240713149245
3.5353535353535355,7.0886075949367084,0.004538687164268865,0.004344157645531674,4.096665280349183e-05,-0.0026648534429401616,0.004445182682288879
3.6363636363636362,7.0886075949367084,0.004354504811059363,0.004077306935642308,5.2667828659208705e-05,-0.0025295435240105008,0.004223720283125162
3.7373737373737375,7.0886075949367084,0.004397921847996465,0.0038727212651193687,-3.5353452300316705e-05,-0.00248119293393475,0.004160710361836315
3.8383838383838382,7.0886075949367084,0.004503193422733436,0.00394935556838123,2.8076631127400267e-05,-0.0025357646973344,0.004253682320076321
3.9393939393939394,7.0886075949367084,0.004317606248557525,0.0037553365101212306,2.2201880197259388e-05,-0.0024218828276036265,0.00406591815101457
4.040404040404041,7.0886075949367084,0.004463348124128996,0.003928070295197804,-2.5772866124856982e-05,-0.00251742552579804,0.004221476075918009
4.141414141414141,7.0886075949367084,0.004372274899542822,0.00408179909130741,4.6576393809201004e-05,-0.0025362221972550694,0.004235284168559521
4.242424242424242,7.0886075949367084,0.004544422565707281,0.003945283866693229,-3.568592043692229e-05,-0.002546911929720153,0.004276894278250297
4.343434343434343,7.0886075949367084,0.004183561275728199,0.004046806042013299,-5.6296962483852666e-05,-0.0024691101953224497,0.004118042142287143
4.444444444444445,7.0886075949367084,0.0042824645402259245,0.003959381728879144,-4.407517847026285e-05,-0.0024725538807315204,0.004131116340918353
4.545454545454545,7.0886075949367084,0.0044697234391115215,0.003754915631556947,-6.413035623830475e-05,-0.0024673917212005405,0.004160134940091615
4.646464646464646,7.0886075949367084,0.004143124765826941,0.0037184185803864097,-5.721894077310465e-05,-0.002358463003864005,0.003949185925682788
4.747474747474747,7.0886075949367084,0.004330370979089004,0.003907423338572606,7.503063208378975e-05,-0.002471338295298483,0.0041371930245325695
4.848484848484849,7.0886075949367084,0.004418626470507904,0.0037664692069805353,-0.00011480216604982781,-0.0024555287032465315,0.004136117532986437
4.94949494949495,7.0886075949367084,0.0043019243615189445,0.004013744696602672,9.003870674661328e-05,-0.0024947007174364847,0.004168236379650459
5.05050505050505,7.0886075949367084,0.004421864733266472,0.004083075716435013,-6.335247565698061e-05,-0.0025514821349104455,0.004263991923092954
5.151515151515151,7.0886075949367084,0.00452892816179481,0.004019193011446067,5.6299064757699505e-05,-0.002564436351972263,0.004297903569742557
5.252525252525253,7.0886075949367084,0.004304859411463682,0.004004680215689806,8.150971420007161e-06,-0.0024928618881460466,0.004162918709390731
5.353535353535354,7.0886075949367084,0.004432565022679983,0.00396963902561301,-9.960730841636115e-05,-0.002520661214487898,0.00422371263511475
5.454545454545454,7.0886075949367084,0.004329667530116827,0.003904200248462385,4.288862391730434e-05,-0.0024701603335737636,0.0041340572996494155
5.555555555555555,7.0886075949367084,0.0043507672393231075,0.004139950328806258,3.354295564175062e-05,-0.002547215270438809,0.004249679919990989
5.656565656565657,7.0886075949367084,0.004450369305928843,0.004155304909700107,4.207953651410765e-05,-0.0025817022646886846,0.004311034271147277
5.757575757575758,7.0886075949367084,0.00454450636426487,0.004073370578120712,-0.0001447002749176396,-0.002585363082715675,0.004335463291731144
5.858585858585858,7.0886075949367084,0.004553998956455879,0.004015003677244153,7.813161374594625e-05,-0.0025707007901100095,0.004311977749774291
5.959595959595959,7.0886075949367084,0.00431049815431549,0.003844361573235608,2.8313631753681467e-05,-0.002446457918265329,0.00409765808278382
6.0606060606060606,7.0886075949367084,0.004455805851767083,0.004051841671160146,1.3005654115099935e-05,-0.0025522942568781686,0.00426824487689254
6.161616161616162,7.0886075949367084,0.004340067966898828,0.003911262658758642,5.311939177892041e-05,-0.0024753991876972407,0.004143366358052835
6.262626262626262,7.0886075949367084,0.004475074708424028,0.004065769106366915,-2.1662344519402993e-05,-0.0025622531444372825,0.004285272377058418
6.363636363636363,7.0886075949367084,0.004378083309943693,0.003879758851551321,-7.690594486236418e-05,-0.002477352648448504,0.0041535500855871136
6.4646464646464645,7.0886075949367084,0.004241240128240466,0.00381078280149655,-1.7474964963238013e-05,-0.0024156068789211046,0.004043346951606392
6.565656565656566,7.0886075949367084,0.004471735090880511,0.004067455833853686,2.676717792098953e-05,-0.002561757277420259,0.004284177417656031
6.666666666666667,7.0886075949367084,0.004559168441724629,0.003989795163476186,-4.5636958364777905e-05,-0.0025646890815602444,0.004303554614984679
6.767676767676767,7.0886075949367084,0.004582618838141536,0.004135393196951661,-7.597036438032704e-05,-0.002615403610527959,0.004378156693221814
6.8686868686868685,7.0886075949367084,0.004714774503120579,0.004144775564156442,1.35845196778607e-05,-0.002657865020183106,0.00445725639367839
6.96969696969697,7.0886075949367084,0.004402435610348049,0.003867152254097115,4.272925057668342e-07,-0.002480876359333549,0.004160699173611423
7.070707070707071,7.0886075949367084,0.004568952569145103,0.004161720740737886,1.0548664657120052e-05,-0.0026192019929648963,0.004379597727589242
7.171717171717171,7.0886075949367084,0.004495050542577829,0.004144976807475808,-3.538176327615065e-05,-0.002592008205016091,0.004331072323910386
7.2727272727272725,7.0886075949367084,0.004613760807177437,0.004162293358863788,2.4879418913172712e-05,-0.002632816249812367,0.004405622065094087
7.373737373737374,7.0886075949367084,0.004408427086744858,0.004120025575018356,-3.423955605050817e-05,-0.002558535798528964,0.004271946256281113
7.474747474747475,7.0886075949367084,0.004339222131843651,0.004262862142928142,-3.420693989187635e-07,-0.0025806252824315374,0.0043015505291155
7.575757575757575,7.0886075949367084,0.0047026770504697375,0.0041355130836763995,-2.713304055230636e-05,-0.002651457040243841,0.0044465566499730935
7.6767676767676765,7.0886075949367084,0.004466599748830502,0.004064263172079523,-8.584671780564461e-06,-0.0025592588762730077,0.0042796650189415395
7.777777777777778,7.0886075949367084,0.004550516067601223,0.004222795190594926,-6.33609372782663e-05,-0.0026319933774588446,0.0043971970803382806
7.878787878787879,7.0886075949367084,0.004649924433176884,0.004134889858488255,5.934724895995837e-05,-0.0026354442874995413,0.004416192056793034
7.979797979797979,7.0886075949367084,0.0046210406742361486,0.004289742502557918,-4.18405073219421e-07,-0.00267323495303822,0.004464620206699049
8.080808080808081,7.0886075949367084,0.004618965318871605,0.004318650682469272,8.453178367623477e-05,-0.002681284800402263,0.004478763610064577
8.181818181818182,7.0886075949367084,0.004709978605143196,0.003955238328796936,4.3957037752431165e-05,-0.0025995650801820393,0.004382295911405235
8.282828282828282,7.0886075949367084,0.004782713036571029,0.004201206440933703,-1.0708994877259412e-05,-0.0026951758432514194,0.004520139243747183
8.383838383838384,7.0886075949367084,0.0048209612572261895,0.004210540874404757,-6.97850865878782e-06,-0.0027094506394892835,0.0045466046199318655
8.484848484848484,7.0886075949367084,0.0048235035888685406,0.00416225333669599,7.161062335702243e-05,-0.002695727077669359,0.004530924855640862
8.585858585858587,7.0886075949367084,0.004957400288019454,0.004301528615583808,6.050430706108752e-07,-0.002777678671080978,0.00466417923613083
8.686868686868687,7.0886075949367084,0.0048986317643233196,0.0041699975439834554,-6.904954419216904e-06,-0.002720588792492032,0.004578027226693225
8.787878787878787,7.0886075949367084,0.004902219122689106,0.004356591495428157,2.185676834216534e-05,-0.0027776431854351783,0.004653612446393676
8.88888888888889,7.0886075949367084,0.004980013025174015,0.004381022501298958,1.5548659434892026e-06,-0.002808310657941892,0.0047091767879923205
8.98989898989899,7.0886075949367084,0.0050030134041535385,0.004314570796435842,4.940057329747783e-05,-0.002795275260176814,0.004697566391418585
9.09090909090909,7.0886075949367084,0.0049569599498220625,0.00436098346598884,-4.65720097036136e-05,-0.0027953830247432706,0.004688167574680814
9.191919191919192,7.0886075949367084,0.005073580315807902,0.004519490505435161,5.3994533329084995e-05,-0.0028779212463729185,0.004821385673507536
9.292929292929292,7.0886075949367084,0.005152710693416442,0.004636421890471166,-5.32748093379716e-05,-0.002936739775166282,0.0049158121809318054
9.393939393939394,7.0886075949367084,0.0052159222138512245,0.004647764490084644,-6.87178029151829e-05,-0.0029591060111807603,0.004957756312786006
9.494949494949495,7.0886075949367084,0.005130508089147352,0.004705512999672597,4.561140847016163e-06,-0.0029508063266459844,0.004931770041932551
9.595959595959595,7.0886075949367084,0.005085929926390887,0.004671015416272784,-2.8852267300969083e-05,-0.0029270836027991015,0.0048919432236021205
9.696969696969697,7.0886075949367084,0.005276928301741473,0.004821672673131623,-1.7022478199711926e-05,-0.003029580292461929,0.005064755470134254
9.797979797979798,7.0886075949367084,0.0052292184971423,0.004902767125674889,-1.5344479054705448e-05,-0.0030395956868451567,0.005073944954156051
9.8989898989899,7.0886075949367084,0.00522510391358935,0.004815602086292749,-3.2994430230885554e-05,-0.0030122117999646296,0.005033187752430395
10.0,7.0886075949367084,0.005387783801559699,0.004876172384738617,3.789379790870117e-05,-0.0030791868558894945,0.005151486838737818
0.0,7.189873417721519,0.005548581388158126,0.004941623655678297,4.522638690012185e-05,-0.0031470615131509267,0.005271957417355692
0.10101010101010101,7.189873417721519,0.005387555971761412,0.004815915047117634,-4.259693720064176e-05,-0.003061041305663714,0.00512622948330432
0.20202020202020202,7.189873417721519,0.00526236354370064,0.004878673949294814,5.915573141195887e-05,-0.003042311247898636,0.005082427750485294
0.30303030303030304,7.189873417721519,0.005378487569387722,0.004755350434436317,2.090066981658627e-05,-0.003040151401147212,0.005095704426539086
0.40404040404040403,7.189873417721519,0.005028034344803905,0.0046204674974217414,6.160252653490687e-05,-0.0028945505526676942,0.0048383225001025045
0.5050505050505051,7.189873417721519,0.00496355439141232,0.004614907405266821,-5.01909557271075e-05,-0.0028735385390037424,0.004799526646913433
0.6060606060606061,7.189873417721519,0.005127227223738067,0.0044899586827135025,-3.8719913270527555e-05,-0.002885155771935471,0.004840624678685426
0.7070707070707071,7.189873417721519,0.005038725021755033,0.004609232677052694,9.10763089360102e-06,-0.0028943873096423174,0.00483832290591851
0.8080808080808081,7.189873417721519,0.0052152650640133035,0.004579083147298144,2.471641446059421e-05,-0.002938304463393434,0.004928254508231371
0.9090909090909091,7.189873417721519,0.005237332646452257,0.004517605048930106,4.5346471471886315e-05,-0.0029264813086147087,0.004917761394028694
1.0101010101010102,7.189873417721519,0.004899287080204007,0.00469913864069203,-8.921630740156549e-05,-0.0028795277162688114,0.0048048274970895755
1.1111111111111112,7.189873417721519,0.005034883723894531,0.004511831975260385,5.969731216198013e-05,-0.0028640147097464745,0.0047959174113169165
1.2121212121212122,7.189873417721519,0.00484780999733825,0.004397514398065412,-8.147584508172206e-05,-0.0027735973186210987,0.004641227782505425
1.3131313131313131,7.189873417721519,0.00481680303352511,0.004354400736299241,2.341908727523693e-05,-0.0027513611309473054,0.004603232768524349
1.4141414141414141,7.189873417721519,0.004753738270175445,0.004243326240909469,3.579446479069853e-05,-0.0026991193533254737,0.004520622359255351
1.5151515151515151,7.189873417721519,0.0047796723329094305,0.0043924822311542395,0.0001007839950681384,-0.0027516463692191006,0.004601631689838626
1.6161616161616161,7.189873417721519,0.004761127797282651,0.004267401836404572,4.578391517162964e-05,-0.002708558890106167,0.0045351625473174775
1.7171717171717171,7.189873417721519,0.004739651613501001,0.004187526754169184,4.008003908225414e-06,-0.0026781535103010553,0.004489132208963638
1.8181818181818181,7.189873417721519,0.004668355246174995,0.004199053469537433,0.00011369013529240565,-0.002660222614713728,0.004456646024941624
1.9191919191919191,7.189873417721519,0.004828617322002477,0.004307192156147413,1.9626055063504054e-05,-0.0027407428434449667,0.0045902965485974485
2.0202020202020203,7.189873417721519,0.004658085176082621,0.004312831163607351,-1.7195026067312846e-05,-0.002691274901906992,0.00449551134466828
2.121212121212121,7.189873417721519,0.004693789557961932,0.0041950682894474015,-5.310546445601004e-06,-0.0026666573542228,0.004465375151241476
2.2222222222222223,7.189873417721519,0.004629214459797425,0.004151153071404657,-1.62892044770695e-05,-0.002634110259360625,0.004409752433935316
2.323232323232323,7.189873417721519,0.004522331496367342,0.004162041482460444,3.1093033775353135e-05,-0.0026053118936483354,0.004353715713007383
2.4242424242424243,7.189873417721519,0.004643464499303785,0.0039644522909770075,-2.802609897637521e-05,-0.0025823750370842376,0.004344215399593302
2.525252525252525,7.189873417721519,0.00454254364802188,0.004164764122938047,1.9241481496322862e-05,-0.002612192331287978,0.004366056674570856
2.6262626262626263,7.189873417721519,0.00460318230901813,0.004016862363041536,-4.17209974596656e-05,-0.0025860134016178994,0.004340431173426281
2.727272727272727,7.189873417721519,0.0045829012765166675,0.004030104398247104,-1.603909641825949e-05,-0.0025839017024291318,0.004333119746520791
2.8282828282828283,7.189873417721519,0.00457081460484531,0.004044657909991116,6.211415019651155e-05,-0.002584641754450928,0.004333104754918152
2.929292929292929,7.189873417721519,0.004279579354088895,0.004030399650394913,-3.644148003936799e-05,-0.0024929937013451423,0.0041610683245643255
3.0303030303030303,7.189873417721519,0.004416995747354196,0.003956306764798092,-6.960472874417254e-05,-0.0025119907536456866,0.00420734583184946
3.131313131313131,7.189873417721519,0.004786484871283473,0.003978357061754707,4.4895044961418645e-05,-0.002629452579911454,0.004438633026098543
3.2323232323232323,7.189873417721519,0.004715241511380419,0.003977656772375254,-1.5651509251711347e-05,-0.002607869485126702,0.004393219603840233
3.3333333333333335,7.189873417721519,0.004439560655050512,0.004094045301558298,4.9555991795227755e-05,-0.0025600817869826428,0.004278143369413874
3.4343434343434343,7.189873417721519,0.0043214350399378735,0.003995124717972584,2.0007419223132744e-05,-0.0024949679273731373,0.004168015266510145
3.5353535353535355,7.189873417721519,0.004579108898591243,0.0038858790112587245,3.731099098175988e-05,-0.0025394963729549903,0.004275348777133737
3.6363636363636362,7.189873417721519,0.004394802299872181,0.004006064049123453,-2.15369431073142e-05,-0.00252025990469869,0.004214067921127212
3.7373737373737375,7.189873417721519,0.004409511382428261,0.00391443141221645,2.202892488218801e-05,-0.002497182838393413,0.004184171347519421
3.8383838383838382,7.189873417721519,0.004520195195581953,0.004051203646164067,0.00014694411201576353,-0.0025714196525238064,0.004312419511980322
3.9393939393939394,7.189873417721519,0.004312118707557494,0.004019467433740121,1.0508028660996162e-05,-0.0024994758423892843,0.004173535280732013
4.040404040404041,7.189873417721519,0.004570709992330844,0.003862424363484965,-3.670278019297949e-05,-0.0025299403067447425,0.004261423640880371
4.141414141414141,7.189873417721519,0.004478520043786371,0.0040229897489010005,8.267673113126617e-06,-0.0025504529378062115,0.004269045928449904
4.242424242424242,7.189873417721519,0.004351641218063976,0.003846899183188173,1.2579207141013028e-05,-0.0024595621203756446,0.004122567680272302
4.343434343434343,7.189873417721519,0.004292516923106459,0.004155153173161451,-1.2041084641669974e-05,-0.0025343010288803734,0.0042255613919161125
4.444444444444445,7.189873417721519,0.004592065161004315,0.003926699974809954,-6.386629219198193e-05,-0.0025556295407442807,0.004299605760168695
4.545454545454545,7.189873417721519,0.004216847299131579,0.0040911961845475015,6.495237028311888e-05,-0.002492413045103724,0.004156969354570582
4.646464646464646,7.189873417721519,0.004365001482764817,0.003979509650762514,-4.651712655353094e-05,-0.002503353340058199,0.004186366086235669
4.747474747474747,7.189873417721519,0.00438893809844756,0.003947453962931762,-2.2116465178028628e-05,-0.002500917618413797,0.00418586989116803
4.848484848484849,7.189873417721519,0.004559635636929677,0.0039877524423962305,4.5893426173091184e-05,-0.002564216423797772,0.004303029997047512
4.94949494949495,7.189873417721519,0.004247646488581066,0.003969581293121432,1.0179694002188991e-06,-0.0024651683345107496,0.004115665365718579
5.05050505050505,7.189873417721519,0.0044346837915158295,0.004061593450230802,2.9120201433392148e-05,-0.0025488831725239895,0.0042607068665445795
5.151515151515151,7.189873417721519,0.004320887439608459,0.0040385228848104264,-5.070343988845275e-05,-0.0025078230973256655,0.004187773282521936
5.252525252525253,7.189873417721519,0.0044376355814837246,0.0038498097225377085,6.766122085609607e-05,-0.00248623359120643,0.004176520797211976
5.353535353535354,7.189873417721519,0.004412829844727308,0.003967889540389968,-9.628682288365939e-06,-0.002514215815535183,0.004208072170650808
5.454545454545454,7.189873417721519,0.004588589212300504,0.004086058516628284,2.0976299618951317e-05,-0.002602394318678636,0.004359254654841703
5.555555555555555,7.189873417721519,0.004347174906283758,0.004008517422308122,-1.4612995234005788e-05,-0.0025067076985775642,0.004188204371804336
5.656565656565657,7.189873417721519,0.004402226720443383,0.004025302870013799,4.752741575698283e-05,-0.002528258877137155,0.004227191030343963
5.757575757575758,7.189873417721519,0.004504266621844837,0.0039477555277176914,-1.7033500205512482e-06,-0.002535606644868759,0.004253405313015998
5.858585858585858,7.189873417721519,0.0043411203198198845,0.0041551777232495014,1.0026306366118428e-05,-0.0025488894129208155,0.004251235429441507
5.959595959595959,7.189873417721519,0.0043294331466186215,0.0038187689765610353,-1.578176545065448e-05,-0.002444460636953897,0.004098125190052768
6.0606060606060606,7.189873417721519,0.004457665498515278,0.003960211834765908,-3.6889685987393204e-05,-0.002525363199984356,0.004231411390661783
6.161616161616162,7.189873417721519,0.004571720646229004,0.003977951641170545,2.523941104471612e-05,-0.002564901686219865,0.004305874633871462
6.262626262626262,7.189873417721519,0.004501746376411855,0.004120302026363925,-2.5793525098815875e-05,-0.002586614520832734,0.0043238929712587455
6.363636363636363,7.189873417721519,0.004354060946600434,0.0038971246055287227,3.6939049188157536e-07,-0.0024753556656387466,0.004144527630274437
6.4646464646464645,7.189873417721519,0.004456256017609754,0.004003627127681601,-3.4640067004641094e-05,-0.0025379649435874063,0.004248489166129607
6.565656565656566,7.189873417721519,0.004377621967503137,0.004180646991956026,-5.807368586894257e-05,-0.0025674806878377486,0.004283714382440267
6.666666666666667,7.189873417721519,0.004393575084517586,0.00420766860727945,-5.2894304121099234e-05,-0.002580373107539111,0.0043046094593301104
6.767676767676767,7.189873417721519,0.004583467093768751,0.004190069511202146,4.0359413877571e-05,-0.002632060981491269,0.0044005333801749105
6.8686868686868685,7.189873417721519,0.004591229272212232,0.004144166031267919,-6.15637312814663e-05,-0.002620618591044045,0.00438612040556303
6.96969696969697,7.189873417721519,0.0045633239697330085,0.004151865488994934,6.325689651467892e-06,-0.0026145568376183827,0.004372153408728681
7.070707070707071,7.189873417721519,0.004424706554537317,0.0040663638817907246,1.890488024285768e-05,-0.0025473211308984123,0.004256988204763479
7.171717171717171,7.189873417721519,0.00460264038884744,0.003986201166258104,6.9943475317708e-05,-0.002576652466531663,0.004329171291396937
7.2727272727272725,7.189873417721519,0.00441251970804918,0.004120332638579173,-3.821688431312945e-05,-0.0025598557039885057,0.004274436085117446
7.373737373737374,7.189873417721519,0.004519249992365317,0.004150556004421596,7.050362949419793e-07,-0.0026009417990360737,0.004346646631515898
7.474747474747475,7.189873417721519,0.004533790476915899,0.00402714405646523,-9.814077700860923e-05,-0.002568280360014339,0.0043062527566390665
7.575757575757575,7.189873417721519,0.004472285393898939,0.004121944009470583,4.42779271798895e-05,-0.0025782688210108564,0.004308495175600611
7.6767676767676765,7.189873417721519,0.004612338102463185,0.004005130091948222,-4.203580501156552e-05,-0.002585240458323422,0.004341315091439127
7.777777777777778,7.189873417721519,0.004544999859864302,0.004142395715328602,2.85174564250663e-06,-0.0026062186725578714,0.004357671676506611
7.878787878787879,7.189873417721519,0.004665093353754636,0.004092726173460386,-4.86704337169144e-05,-0.0026273458581645066,0.004407681963683435
7.979797979797979,7.189873417721519,0.004651232665600926,0.004398938306970801,6.97580251919147e-05,-0.0027150512917715184,0.004531968285080824
8.080808080808081,7.189873417721519,0.0044277073561510985,0.004070353623601449,-2.8885763230386615e-05,-0.0025494182939257643,0.004260579718005026
8.181818181818182,7.189873417721519,0.00456395272777779,0.004402269167330138,8.564116078882183e-05,-0.0026898665685323787,0.0044877492324807144
8.282828282828282,7.189873417721519,0.00457665157538928,0.004146606897836316,8.166033950206085e-06,-0.0026169775419676786,0.004377523668528326
8.383838383838384,7.189873417721519,0.00482686247792,0.004504899148443705,5.7709914537994844e-06,-0.0027995284879091115,0.004674215331474495
8.484848484848484,7.189873417721519,0.004750466532938334,0.004260680118282571,-0.00010094542683025834,-0.002703343995366271,0.0045288717114787295
8.585858585858587,7.189873417721519,0.004933432693447856,0.004408487849499703,-7.847036596207436e-05,-0.0028025761628842675,0.004694999251286403
8.686868686868687,7.189873417721519,0.0049131348860222916,0.004260482409130041,-6.126585107305444e-06,-0.0027520851885456995,0.00462151410430715
8.787878787878787,7.189873417721519,0.0050107116588349225,0.0044086340745174086,-2.4075717679140457e-05,-0.002825803720005699,0.0047386317112436795
8.88888888888889,7.189873417721519,0.00479969337594442,0.004398868119473328,5.6743444070735474e-05,-0.002759568448625325,0.004613408557265372
8.98989898989899,7.189873417721519,0.004940840088062327,0.004416384546988981,2.3804445675947662e-05,-0.0028071673905153923,0.0047007875280134165
9.09090909090909,7.189873417721519,0.004917052862154479,0.0046775388353672695,-7.882412857372041e-05,-0.002878377509256524,0.004803718603024682
9.191919191919192,7.189873417721519,0.005026868602310214,0.004515863579507226,6.697498750244916e-05,-0.002862819654545232,0.004793248994192127
9.292929292929292,7.189873417721519,0.005160718734532547,0.004644679728691428,-3.3483231003807125e-05,-0.0029416195389671924,0.0049233672753092724
9.393939393939394,7.189873417721519,0.005235046949651965,0.00455072165337916,-1.866508601490552e-05,-0.0029357305809093377,0.004928751137728949
9.494949494949495,7.189873417721519,0.0050176428578987695,0.00477737822470758,-1.2260308097697138e-05,-0.002938506324781905,0.004901974680484544
9.595959595959595,7.189873417721519,0.005104190349123873,0.004748109883027235,6.535910078643324e-05,-0.0029556900696453324,0.004937090780614605
9.696969696969697,7.189873417721519,0.005344565994797403,0.004620831393578658,8.666663445561629e-05,-0.0029896192165128183,0.00502420774086797
9.797979797979798,7.189873417721519,0.005296138017862274,0.004687584307782449,-3.598483804547317e-05,-0.002995116697693417,0.005019991614349633
9.8989898989899,7.189873417721519,0.005230084352972297,0.004789434882063058,-5.847431267536814e-06,-0.0030058557705106063,0.005024283328976143
10.0,7.189873417721519,0.005486544361053138,0.004885728303710257,7.658992953215338e-06,-0.0031116817994290185,0.005212189654035954
0.0,7.291139240506329,0.00562709856094835,0.004553434284772989,1.0548643998920697e-05,-0.0030541598537164017,0.005174525322271095
0.10101010101010101,7.291139240506329,0.005374765784637192,0.004816350871892939,4.070505498472518e-05,-0.0030573349969590397,0.005118940885802138
0.20202020202020202,7.291139240506329,0.005277953278911481,0.004829764016927233,6.748940031656114e-05,-0.003032315188751614,0.0050700894372321505
0.30303030303030304,7.291139240506329,0.005330225374077051,0.0049449559078519195,1.5717914250266095e-05,-0.0030825543845786913,0.005148485522346844
0.40404040404040403,7.291139240506329,0.005263023098383204,0.004634219651577288,-1.8979840262597405e-05,-0.0029691728249881476,0.004978602167974141
0.5050505050505051,7.291139240506329,0.005129276248146559,0.004755497506950343,-6.346523583549922e-05,-0.0029654321265290703,0.004954195642722415
0.6060606060606061,7.291139240506329,0.005319983459601372,0.004601613042669791,8.110554903378891e-05,-0.002976478950681349,0.005001629300604344
0.7070707070707071,7.291139240506329,0.005068069224675955,0.004302633516675791,4.252818618503168e-07,-0.0028112108224055236,0.004732011926929131
0.8080808080808081,7.291139240506329,0.005041726814437762,0.004678074221003434,1.921523310174087e-05,-0.0029159403106323585,0.004870207708529898
0.9090909090909091,7.291139240506329,0.004979116608194399,0.004655265303579637,2.0406196449007937e-05,-0.0028903145735322106,0.004825477975772529
1.0101010101010102,7.291139240506329,0.00503821732326097,0.004433552520908839,-3.696298498561908e-05,-0.0028415309532509423,0.0047651777956767725
1.1111111111111112,7.291139240506329,0.004857572868456994,0.0043337484204724885,1.7039479987670958e-05,-0.002757396386678845,0.004618090712615608
1.2121212121212122,7.291139240506329,0.004916763391122417,0.004217173222485984,-3.977693127728674e-05,-0.00274018098408252,0.004607495624651108
1.3131313131313131,7.291139240506329,0.004831374264973445,0.004184446258165394,8.141471352488501e-05,-0.0027047461569416516,0.004544780179237756
1.4141414141414141,7.291139240506329,0.004833716704812214,0.00429466541647518,-1.0909564449434685e-05,-0.002738514636386218,0.004588041991137682
1.5151515151515151,7.291139240506329,0.00489647108540613,0.004166389890791667,2.374242509524236e-05,-0.0027188582928593394,0.00457551278981577
1.6161616161616161,7.291139240506329,0.004737362643581461,0.004141608761891169,0.00011045389610080732,-0.002663691421641789,0.004473457891827471
1.7171717171717171,7.291139240506329,0.004773706043598865,0.00435097745055661,-4.025194569747466e-05,-0.0027374050482466424,0.004577537271509349
1.8181818181818181,7.291139240506329,0.00487513754997063,0.0042137541445120595,3.064662496736287e-05,-0.0027266675083448062,0.004580707010073528
1.9191919191919191,7.291139240506329,0.004632434671867575,0.0041797474488996424,1.1376619511102656e-05,-0.002643654636230165,0.004423541681298557
2.0202020202020203,7.291139240506329,0.004634018932346453,0.004280984274862704,-1.038059522096184e-05,-0.0026745009621627473,0.004468010622015945
2.121212121212121,7.291139240506329,0.0046207789961756115,0.004339321558173084,2.0725384161601185e-06,-0.0026880301663046086,0.0044866777340602055
2.2222222222222223,7.291139240506329,0.004655281292767754,0.004166122555979484,-7.572263922125292e-05,-0.002646421154624171,0.004432939253167955
2.323232323232323,7.291139240506329,0.00468251784628152,0.004174828502068398,6.655646140298803e-05,-0.0026572039045049756,0.004451937412407214
2.4242424242424243,7.291139240506329,0.004562762060163847,0.003959912209584185,-3.954287170654757e-05,-0.0025568022809244095,0.0042937461557389055
2.525252525252525,7.291139240506329,0.004550209338431152,0.004079108250692784,-3.320722770607161e-05,-0.002588795276737181,0.004334286659827417
2.6262626262626263,7.291139240506329,0.004528127598953024,0.0038779607221744476,-3.49746717641956e-05,-0.0025218264963382414,0.00424102436026828
2.727272727272727,7.291139240506329,0.00465433334426783,0.0039468360499646145,-1.6727550743844065e-05,-0.002580350818269733,0.0043441089403946425
2.8282828282828283,7.291139240506329,0.004458530216299731,0.0041993111486591525,2.4561647303293056e-05,-0.002597352409487665,0.004334946365587972
2.929292929292929,7.291139240506329,0.004537514768582693,0.0040278520443175125,-2.818992759921862e-06,-0.0025696100438700616,0.004305370839941974
3.0303030303030303,7.291139240506329,0.00452593219104233,0.004230467727953715,6.437635825181337e-05,-0.002626919975698813,0.004387088130932061
3.131313131313131,7.291139240506329,0.004572121701165632,0.004174140366840028,-1.6710951476632504e-06,-0.002623878620401698,0.0043866929770716035
3.2323232323232323,7.291139240506329,0.004634751258817005,0.003988533004145025,3.6710779890323185e-05,-0.002586985278888609,0.004348275455688852
3.3333333333333335,7.291139240506329,0.004526791024531674,0.003910389829923681,-1.885281110470356e-05,-0.0025311542563366068,0.004252356323580172
3.4343434343434343,7.291139240506329,0.00437873674257826,0.003862622875278928,-8.731362904401091e-06,-0.0024724078853571568,0.004144877675012895
3.5353535353535355,7.291139240506329,0.004283803027129441,0.003998424604797008,3.317678575827401e-05,-0.0024846682895779343,0.00414888013409052
3.6363636363636362,7.291139240506329,0.0045677751835103645,0.0039023958073598065,2.924730243431189e-05,-0.002541051297261051,0.0042744078716704815
3.7373737373737375,7.291139240506329,0.004468334105413564,0.003885864121951412,-9.033798786946083e-05,-0.0025062594682094927,0.004210355486524829
3.8383838383838382,7.291139240506329,0.0043717304648321475,0.0039358187637235625,-2.1588508159967956e-05,-0.002492264768566713,0.004171061734815897
3.9393939393939394,7.291139240506329,0.004506401693162792,0.004001836714706499,3.645817516367875e-05,-0.0025524715223607876,0.004276968220598301
4.040404040404041,7.291139240506329,0.004514370996365937,0.003946703379622257,-2.621402131913322e-05,-0.0025383223127964584,0.004259247740630586
4.141414141414141,7.291139240506329,0.004434040955163541,0.003914802844975134,1.5335739411399755e-05,-0.002504653140041603,0.004198655727228944
4.242424242424242,7.291139240506329,0.00428936839526515,0.0038868959932697377,-1.6590652652720966e-05,-0.002452879316560466,0.004103064539200943
4.343434343434343,7.291139240506329,0.00434270406247683,0.003960668303073903,1.318847356057756e-05,-0.00249101170966522,0.0041649109785023486
4.444444444444445,7.291139240506329,0.0043889573322781865,0.003748710373902074,3.4986423026437745e-05,-0.002441300311854078,0.004106886679617935
4.545454545454545,7.291139240506329,0.004506831749021997,0.004026519435492656,-5.8123947089252996e-05,-0.002560005355354396,0.004288085904938944
4.646464646464646,7.291139240506329,0.00430038600484105,0.003950757425043001,-5.293534306273099e-05,-0.0024753430289652153,0.0041376839577986005
4.747474747474747,7.291139240506329,0.004220428140810783,0.0038926586312232453,6.148518271717861e-05,-0.0024339260316102087,0.0040678569498301086
4.848484848484849,7.291139240506329,0.0042717005594977205,0.0039877963554354546,3.351114735888716e-05,-0.002477849074479953,0.004137468128064887
4.94949494949495,7.291139240506329,0.004177731999825082,0.003935111153979257,-6.284294567895918e-05,-0.0024338529461413014,0.004063317902053876
5.05050505050505,7.291139240506329,0.004414640469340487,0.003959720492351279,-1.9979593432661877e-05,-0.0025123082885075295,0.0042058164570908056
5.151515151515151,7.291139240506329,0.004299895568352728,0.003969490475044635,3.885534178369052e-05,-0.0024808158130192087,0.004145128615700857
5.252525252525253,7.291139240506329,0.004270968746096386,0.0039891574308753884,-8.428200347724514e-06,-0.002478037853091532,0.004137293491111892
5.353535353535354,7.291139240506329,0.004432004068553208,0.003919852407157428,0.00010915641741051896,-0.0025055569427131904,0.004203670599762303
5.454545454545454,7.291139240506329,0.0045367151235280925,0.0038019910666253504,-3.9515151648942715e-05,-0.0025016118570460326,0.004218181379800906
5.555555555555555,7.291139240506329,0.00439627745770869,0.004153163841999908,1.5192971948408768e-05,-0.002564832389912579,0.004279983327781533
5.656565656565657,7.291139240506329,0.0043864900180280286,0.003931745935387357,-1.5521881537013714e-05,-0.0024954707860246153,0.004177807949884122
5.757575757575758,7.291139240506329,0.004502519510285246,0.004069574237854749,3.1709995116797196e-05,-0.0025716281244419987,0.004302766038815736
5.858585858585858,7.291139240506329,0.004333944016533827,0.003995910791586563,-5.0176044005409704e-05,-0.0024989564424361174,0.0041761074020125345
5.959595959595959,7.291139240506329,0.00447707428519856,0.003887044190560209,2.5328247604573918e-05,-0.002509235542727631,0.004213388857433724
6.0606060606060606,7.291139240506329,0.004474186924374037,0.0039742346192393795,-4.947687264568296e-05,-0.0025345264630840247,0.004247206700642825
6.161616161616162,7.291139240506329,0.004367746637550155,0.004129784053667666,0.00013448730109495634,-0.002549259207365346,0.00426013346129093
6.262626262626262,7.291139240506329,0.004297348336632329,0.0039984213673190045,1.927043235527288e-05,-0.0024887309111854,0.004156089603663017
6.363636363636363,7.291139240506329,0.0044847276782687216,0.003936147500810679,2.3735474041663605e-05,-0.00252626255372382,0.004237355303950537
6.4646464646464645,7.291139240506329,0.004428574463365018,0.004100969392805057,2.3332866407579713e-05,-0.0025588631568510224,0.004274389626395679
6.565656565656566,7.291139240506329,0.004494938957319234,0.004052288299327029,7.55049962059372e-05,-0.0025641681769938787,0.004292764978578618
6.666666666666667,7.291139240506329,0.004366529760057533,0.004012689868295969,1.8449577048184747e-05,-0.0025137658885060503,0.004200922941149635
6.767676767676767,7.291139240506329,0.004450973507319095,0.00412231102684591,-5.52118821018802e-05,-0.0025719853602495014,0.004297145709801683
6.8686868686868685,7.291139240506329,0.004478653895694971,0.003924989733605797,-3.4300746456223784e-05,-0.0025210930887902302,0.004229508740856394
6.96969696969697,7.291139240506329,0.0045016100746145225,0.004126632945168339,3.061332131696139e-05,-0.0025884729059348585,0.004326651339562717
7.070707070707071,7.291139240506329,0.004569894185310594,0.0041772954063348305,3.061833624937053e-05,-0.002624156877493627,0.004387111149324974
7.171717171717171,7.291139240506329,0.00448600544300976,0.004125420663742203,9.68315467113745e-06,-0.0025834278320255887,0.004317054809212532
7.2727272727272725,7.291139240506329,0.004644096914514476,0.004259945773367049,2.938265495582595e-05,-0.002671212806364457,0.004464724307566428
7.373737373737374,7.291139240506329,0.004589547725037064,0.004086628728700162,-4.148276619914307e-05,-0.0026028529361211677,0.00436048937178249
7.474747474747475,7.291139240506329,0.0044860265660029335,0.004050540693715795,-7.74717727669137e-06,-0.002560970177915618,0.0042849342071861465
7.575757575757575,7.291139240506329,0.004597063606416268,0.00427015517784777,-3.442703713990451e-05,-0.0026601656352792115,0.004443039471483659
7.6767676767676765,7.291139240506329,0.004507878343805122,0.004156036333211977,-2.3653887162859538e-05,-0.00259917440310513,0.004342853612787966
7.777777777777778,7.291139240506329,0.004744733523824035,0.004130326642600841,-3.0180415701962933e-05,-0.0026625180499274623,0.004469622766371008
7.878787878787879,7.291139240506329,0.0046038444189575945,0.004193826867078817,5.196383476924477e-05,-0.0026393013858109233,0.004414061794911312
7.979797979797979,7.291139240506329,0.0046841156980140615,0.004161236717063154,-2.074852288578895e-05,-0.002653605724523165,0.004445942887833142
8.080808080808081,7.291139240506329,0.00471843505019854,0.0042365776184852206,3.009355953084842e-05,-0.0026865038006051276,0.004497212445439995
8.181818181818182,7.291139240506329,0.004823473678838103,0.0041124771824269,6.979176151643754e-05,-0.0026807852583795003,0.0045118238143897135
8.282828282828282,7.291139240506329,0.004816684905799399,0.0043749716276463456,6.086524275309173e-05,-0.0027574969600337234,0.004612925769574845
8.383838383838384,7.291139240506329,0.0047104377776733914,0.004282200556131972,-5.308854478780786e-05,-0.002697791500141609,0.004512524966119814
8.484848484848484,7.291139240506329,0.004892161190351263,0.004426771547510823,8.08383829876427e-06,-0.0027956798213586258,0.004676886093146991
8.585858585858587,7.291139240506329,0.004821850940757077,0.004256980348498205,-5.1915770232309336e-05,-0.0027236493867765846,0.004566583977743735
8.686868686868687,7.291139240506329,0.004971903674458843,0.004367640407567437,-9.908046937886667e-05,-0.002801863224607884,0.00470213486674412
8.787878787878787,7.291139240506329,0.005078654120751678,0.004387352234018741,-7.229158865033407e-05,-0.0028398019064311253,0.00477236011030786
8.88888888888889,7.291139240506329,0.005000547295618402,0.004484182897089392,5.880597003955018e-05,-0.0028454190578123383,0.0047644910827394525
8.98989898989899,7.291139240506329,0.004998431578555989,0.004350498213484398,-3.7225313832056544e-05,-0.002804678937612116,0.004708464980253598
9.09090909090909,7.291139240506329,0.0050488552855904685,0.004843675634829316,-8.495400287412015e-06,-0.0029677592761259354,0.004949478006331411
9.191919191919192,7.291139240506329,0.004895280784165785,0.004418805515778411,5.072382879039469e-05,-0.002794225889983259,0.004676113892129032
9.292929292929292,7.291139240506329,0.005091977303032225,0.004595721890903146,2.148228756097965e-05,-0.0029063097581806118,0.0048630201993854726
9.393939393939394,7.291139240506329,0.005159694352012336,0.0046625187053738635,-2.1764935963387825e-05,-0.0029466639172158597,0.004930088862403217
9.494949494949495,7.291139240506329,0.005014405100058428,0.004694699463458931,-7.390370395079865e-06,-0.002912731369055208,0.004862458275359003
9.595959595959595,7.291139240506329,0.005033295339467532,0.004726491388618632,5.6218685938554535e-05,-0.002927936018425849,0.004888091382591988
9.696969696969697,7.291139240506329,0.005281906444329451,0.004737955466649596,-1.3273245292276467e-05,-0.003005958573293714,0.005032081946419701
9.797979797979798,7.291139240506329,0.005364892924315634,0.00480946740266775,5.908072793499031e-05,-0.0030523080980950153,0.005110894906534149
9.8989898989899,7.291139240506329,0.005269880636833818,0.005015025290718395,1.8573148547460777e-05,-0.0030854717782656635,0.0051472877135218765
10.0,7.291139240506329,0.005561162232269435,0.005079387833549768,-5.439966538197864e-05,-0.003192165019745761,0.0053374417397315495
0.0,7.3924050632911396,0.005460305320502876,0.004838169554056874,1.540399168238592e-05,-0.0030895424623679246,0.005177417089464822
0.10101010101010101,7.3924050632911396,0.0054371843262448405,0.004965388857214974,-4.448801706215073e-05,-0.0031207719550379446,0.00521787916530687
0.20202020202020202,7.3924050632911396,0.005431829523533801,0.004691296248969137,-4.1301790323377925e-05,-0.0030369377317508816,0.005102531578852125
0.30303030303030304,7.3924050632911396,0.005361961229960292,0.004863164428248468,6.84088942873134e-05,-0.003067537697462628,0.005132147376979842
0.40404040404040403,7.3924050632911396,0.005193574554504187,0.004761176176659965,-3.8877193082075584e-05,-0.0029864252193492454,0.004991896043208518
0.5050505050505051,7.3924050632911396,0.005121719458370435,0.004810253202783817,-7.912645962153666e-05,-0.0029795917983462756,0.00497519463404121
0.6060606060606061,7.3924050632911396,0.005075300501333912,0.0046399560538151014,2.5565722656402712e-06,-0.002914576966544704,0.004872239288280678
0.7070707070707071,7.3924050632911396,0.005225238425913155,0.004551693567105886,-1.841255360459823e-05,-0.0029330795979057122,0.004923247289446247
0.8080808080808081,7.3924050632911396,0.005160769709224599,0.004607970119353209,-6.62301037569491e-05,-0.0029306219485733427,0.004909115936649189
0.9090909090909091,7.3924050632911396,0.005096481253884334,0.00441010477612906,-3.1181280268954636e-05,-0.002851975809004018,0.004790620607514322
1.0101010101010102,7.3924050632911396,0.004974215214206394,0.004464387621717944,-4.5637264163714575e-05,-0.0028315808507773012,0.0047405692995428
1.1111111111111112,7.3924050632911396,0.005040317661077347,0.004456255881481916,-5.420735238082076e-06,-0.002848972062767779,0.004775160891237996
1.2121212121212122,7.3924050632911396,0.004935440859282664,0.004631546036259052,5.218484055894713e-05,-0.002870096068662515,0.004791580468406498
1.3131313131313131,7.3924050632911396,0.004936163780812993,0.004223503782641775,7.778269693164902e-05,-0.0027479002690364305,0.004623195985119199
1.4141414141414141,7.3924050632911396,0.004826936145038042,0.0042477708944010685,-2.7168883965182406e-06,-0.0027224121118317327,0.004564994348081732
1.5151515151515151,7.3924050632911396,0.004885123906525974,0.004411112862352592,-4.74931185356564e-06,-0.00278887103066357,0.004666217637032209
1.6161616161616161,7.3924050632911396,0.0047676157968062965,0.004181388009819309,3.7895900169686596e-05,-0.0026847011419876814,0.004503689914300901
1.7171717171717171,7.3924050632911396,0.004846781611505372,0.004062244626070987,-9.929837453305666e-06,-0.0026727078712729074,0.004506063319751221
1.8181818181818181,7.3924050632911396,0.004719282539178066,0.0042193079064630065,-5.302588818570925e-05,-0.0026815771336923216,0.004491159760930247
1.9191919191919191,7.3924050632911396,0.004593536879134272,0.0042137679041387,2.3579611795268684e-05,-0.0026421914349818915,0.00441610583392426
2.0202020202020203,7.3924050632911396,0.004832263562981614,0.004287062300378444,-1.990051883186073e-05,-0.0027357977590080173,0.0045841735847417815
2.121212121212121,7.3924050632911396,0.0046623804450629264,0.004096280755169745,-7.076933007997645e-05,-0.0026275983600698013,0.004408391208085788
2.2222222222222223,7.3924050632911396,0.004709390632272702,0.004111490332389515,-2.4297100079569267e-05,-0.0026462642893986654,0.004440931194226295
2.323232323232323,7.3924050632911396,0.004476529866094401,0.0042034890071890665,5.266386494517146e-05,-0.00260400566198504,0.004347403344655981
2.4242424242424243,7.3924050632911396,0.004716679339203708,0.0042783729795608915,9.260501519491707e-06,-0.00269851569562938,0.004513544413614513
2.525252525252525,7.3924050632911396,0.0045112008521749755,0.004238507047960237,5.657176156720271e-05,-0.0026249123700405634,0.004382318976316696
2.6262626262626263,7.3924050632911396,0.004344503836570875,0.004233820787122134,4.123183164438974e-06,-0.0025734973871079027,0.004290239199900063
2.727272727272727,7.3924050632911396,0.004594262008796546,0.004335236077403525,-1.1360653145253881e-05,-0.002678849425860021,0.00447042414498142
2.8282828282828283,7.3924050632911396,0.00447952525992186,0.004176506605289423,4.9540396485033556e-05,-0.0025968095595633846,0.004336813334042797
2.929292929292929,7.3924050632911396,0.0045212719571410135,0.00425703461456101,2.261811291871317e-05,-0.002633491971510607,0.0043952892207115395
3.0303030303030303,7.3924050632911396,0.004303028239502907,0.004070271729679927,4.721488553020028e-05,-0.00251198999075485,0.004192297404094196
3.131313131313131,7.3924050632911396,0.004383940135486278,0.004009443214984817,2.446846149467452e-05,-0.002518015005141328,0.004209418379231732
3.2323232323232323,7.3924050632911396,0.00456072859473622,0.004033927314395973,9.397293114315142e-05,-0.0025783967727396576,0.004324541591450386
3.3333333333333335,7.3924050632911396,0.004387286394578863,0.003963815014055083,-5.238951651794347e-05,-0.002505330422590184,0.004192607026211371
3.4343434343434343,7.3924050632911396,0.004540626947110196,0.003934501647678201,-0.00010061239109232212,-0.002542538578436519,0.004273506832009582
3.5353535353535355,7.3924050632911396,0.004395970613483503,0.00391483621887643,-7.162373356181092e-05,-0.002493242049707979,0.004178083909890222
3.6363636363636362,7.3924050632911396,0.004479858078757106,0.003972576575847446,2.7816305929305214e-05,-0.0025357303963813656,0.004249262880855027
3.7373737373737375,7.3924050632911396,0.00432167191897133,0.004024147075987751,5.058053754157567e-05,-0.0025037456984877246,0.00418177469749785
3.8383838383838382,7.3924050632911396,0.004348352135611094,0.003992812264802497,-1.790193434769688e-05,-0.002502349320124077,0.004182047796982104
3.9393939393939394,7.3924050632911396,0.004399883809544466,0.004033858919572967,-2.944093124048437e-05,-0.0025301228187352295,0.004229076149183317
4.040404040404041,7.3924050632911396,0.0044261396463745025,0.003949142595685081,1.777086996122341e-05,-0.002512584672617875,0.004208079159161813
4.141414141414141,7.3924050632911396,0.00438988611078396,0.004109089058929203,1.9000637642262865e-05,-0.0025496925509139487,0.004256567049253471
4.242424242424242,7.3924050632911396,0.004333442354934144,0.004014929326464235,7.630274312648636e-05,-0.0025045115044195136,0.004185377124047281
4.343434343434343,7.3924050632911396,0.004461697438792636,0.003967531566638161,9.485450792011085e-06,-0.002528768701629239,0.0042363185975243635
4.444444444444445,7.3924050632911396,0.004370162999484811,0.003917823041541774,1.0967489934626928e-05,-0.0024863958123079754,0.0041625109717252666
4.545454545454545,7.3924050632911396,0.00445121452267102,0.004109755475618424,2.033710103016411e-05,-0.002568290999486833,0.0042908318927159655
4.646464646464646,7.3924050632911396,0.004251925995624914,0.00384773738309401,-6.87239528997441e-05,-0.0024298990136156773,0.004066673331252629
4.747474747474747,7.3924050632911396,0.004432576688420209,0.00392170563450351,-0.00011630215725386664,-0.002506284696877116,0.004205333373636639
4.848484848484849,7.3924050632911396,0.004346735808873729,0.0038221729717035804,6.813781905526204e-05,-0.002450672634173193,0.004111334403950874
4.94949494949495,7.3924050632911396,0.004511553957971244,0.004076863696873738,6.938001749255248e-05,-0.002576525296453494,0.004312352830105024
5.05050505050505,7.3924050632911396,0.004301419528490089,0.0038994653842002952,-3.99175618685587e-05,-0.002460265473807115,0.004115772579190763
5.151515151515151,7.3924050632911396,0.0042212290139518925,0.003932988372621485,-3.4612662029141536e-05,-0.0024462652159720133,0.004085183154581694
5.252525252525253,7.3924050632911396,0.004406205096738937,0.003971647460492466,7.005515946990087e-05,-0.002513355767169421,0.004207547599041197
5.353535353535354,7.3924050632911396,0.004431941340479227,0.004012466539276153,-4.8891876600852247e-05,-0.0025333223639266143,0.0042386491584400585
5.454545454545454,7.3924050632911396,0.004305754308355827,0.004053276873851155,-4.86801867895038e-05,-0.0025077093546620943,0.00418608032641937
5.555555555555555,7.3924050632911396,0.004495336804203476,0.0038663645790364743,2.415770541753529e-05,-0.0025085104149719854,0.004216392751492204
5.656565656565657,7.3924050632911396,0.004369378209639453,0.003899350672331874,1.696521594041847e-05,-0.002480618664591398,0.004154458713347984
5.757575757575758,7.3924050632911396,0.004268333479875455,0.004015893270815302,5.383271454533217e-06,-0.0024852680252072275,0.004147889185768166
5.858585858585858,7.3924050632911396,0.004358706037774881,0.004031373754840969,-3.495091801450927e-05,-0.002517023937784755,0.004205042716693068
5.959595959595959,7.3924050632911396,0.004437427059734393,0.004020573113791909,2.723050188711297e-05,-0.00253740005205789,0.004244642699183015
6.0606060606060606,7.3924050632911396,0.004397079021215294,0.0038810004073587838,2.967968221063404e-05,-0.002483423828572223,0.0041634174975389805
6.161616161616162,7.3924050632911396,0.004410679542187618,0.003910979593862734,3.2476956156745596e-05,-0.002496497740815106,0.004183651751874565
6.262626262626262,7.3924050632911396,0.004492985747209485,0.0039696841473363985,4.6959319005240825e-05,-0.0025388009683637654,0.004256312299662692
6.363636363636363,7.3924050632911396,0.004334753492265137,0.003995006950610393,1.899933181221894e-06,-0.002498928132862659,0.004175261533435545
6.4646464646464645,7.3924050632911396,0.004462650417043642,0.004236662379644563,5.2240811011883554e-05,-0.0026097938390064615,0.004354997248615313
6.565656565656566,7.3924050632911396,0.004420328309530649,0.003948181983323764,6.738497311272903e-05,-0.0025105530878563238,0.0042058060998124685
6.666666666666667,7.3924050632911396,0.0045048673089242335,0.004018284039042822,-2.501572306780961e-05,-0.0025569454043901166,0.004282578317227408
6.767676767676767,7.3924050632911396,0.004572207776456832,0.004219452105331982,1.7281366205588185e-05,-0.002637497964536644,0.00440653426501492
6.8686868686868685,7.3924050632911396,0.004414464526602834,0.0039612447330768345,-1.6301810690530625e-05,-0.0025127127779039004,0.004206302388523573
6.96969696969697,7.3924050632911396,0.004476020588065334,0.00413298066250133,6.629584082971331e-06,-0.002582700375169999,0.004314755471648209
7.070707070707071,7.3924050632911396,0.0044382614204855715,0.004287892035117149,6.917444502572688e-05,-0.002617846036680816,0.004366663721682463
7.171717171717171,7.3924050632911396,0.004425801361855514,0.0038110635047031234,3.9562853668082755e-05,-0.002471059459967591,0.004153264780918781
7.2727272727272725,7.3924050632911396,0.0043429358849368625,0.003981047479944192,5.0114665434715083e-05,-0.0024971950094643163,0.004174677426703785
7.373737373737374,7.3924050632911396,0.004694009727136523,0.004097276814746187,9.364760414943508e-05,-0.002637385962564813,0.00442888891407407
7.474747474747475,7.3924050632911396,0.004656806437655576,0.00413344193218979,1.6538516927975302e-05,-0.00263707451095361,0.004418525769157049
7.575757575757575,7.3924050632911396,0.00474633423642961,0.003986256601273365,-3.314945272110475e-05,-0.0026197772513108925,0.004416007342830076
7.6767676767676765,7.3924050632911396,0.004684045174343852,0.004198714842168156,-4.3171975119108754e-05,-0.002664828004953602,0.004461850175044035
7.777777777777778,7.3924050632911396,0.00475907308308718,0.004224895570305063,-4.394557141921117e-05,-0.002695190596017673,0.0045163841779013066
7.878787878787879,7.3924050632911396,0.0045951584656002045,0.004125538168491903,2.068448597508165e-05,-0.0026162089902276326,0.004379421012809636
7.979797979797979,7.3924050632911396,0.004545076771586431,0.004273352329598836,5.899607931173219e-06,-0.00264552873035558,0.004415501443614205
8.080808080808081,7.3924050632911396,0.004740080182972453,0.004149630654967753,-8.178752058372907e-05,-0.0026669132513820614,0.00447641377387729
8.181818181818182,7.3924050632911396,0.004839238491359265,0.003940044703500995,6.253558724667872e-05,-0.0026337849584580774,0.00445949521291345
8.282828282828282,7.3924050632911396,0.0047096636764668055,0.004422603998257202,5.8155025218051397e-05,-0.0027396803024172024,0.0045740055406303295
8.383838383838384,7.3924050632911396,0.00485143026470047,0.004118159609071868,-5.24254034199402e-06,-0.0026908769621317016,0.00452953998430437
8.484848484848484,7.3924050632911396,0.004711738977086516,0.004467978820011315,3.831761798918556e-05,-0.002753915339129349,0.004595190277754203
8.585858585858587,7.3924050632911396,0.004685172402497179,0.004404525155757202,1.784051757864153e-05,-0.002726909267476314,0.004551447839442235
8.686868686868687,7.3924050632911396,0.004990554140069719,0.0044247892048419005,-4.24867825674152e-06,-0.002824603003473486,0.004733106189479978
8.787878787878787,7.3924050632911396,0.004974318775143933,0.004356314980768258,-8.009190259169964e-05,-0.0027991901267736576,0.004697964689918533
8.88888888888889,7.3924050632911396,0.004738837836153993,0.00454728404169014,-3.904237447225449e-05,-0.0027858365633532394,0.004646515624173374
8.98989898989899,7.3924050632911396,0.004933832566558654,0.004512700589996636,3.835115160674659e-05,-0.002833959946966587,0.004737792071020591
9.09090909090909,7.3924050632911396,0.005016434865639826,0.0043861458493244035,2.227322976908815e-05,-0.0028207742144892686,0.004733029420858616
9.191919191919192,7.3924050632911396,0.005129032076706886,0.004457398067975186,-2.4193617358271567e-05,-0.0028759290434046216,0.0048285594025903504
9.292929292929292,7.3924050632911396,0.005170507832146679,0.00464598374248269,-5.784527237666215e-06,-0.0029449474723888106,0.0049292313022860695
9.393939393939394,7.3924050632911396,0.005193446249986144,0.0046044655471263515,6.835145044364955e-05,-0.0029393735391337484,0.004926860903210909
9.494949494949495,7.3924050632911396,0.005108748704456924,0.00451633391604393,1.4752420529589794e-05,-0.0028875247861502563,0.004839878430885342
9.595959595959595,7.3924050632911396,0.005156875991414929,0.004590480782794664,3.146216551381496e-05,-0.0029242070322628784,0.004898603196194795
9.696969696969697,7.3924050632911396,0.005201056535494187,0.004937903424175687,-6.652387363802167e-05,-0.0030416879879009624,0.005075907870838094
9.797979797979798,7.3924050632911396,0.0052609923645745545,0.0047116218363763675,1.779237040121382e-05,-0.0029917842602852763,0.0050090482318026295
9.8989898989899,7.3924050632911396,0.0051979473317498035,0.004764846119553424,-6.296110932969426e-06,-0.0029888380353909685,0.004995509459141854
10.0,7.3924050632911396,0.005382301994738723,0.004946393176463264,-8.00195105000065e-05,-0.0030986085513605957,0.0051799814405529025
0.0,7.493670886075949,0.005337949669721144,0.0050103090576433034,-3.236474439623275e-06,-0.003104477618209334,0.005181906731544969
0.10101010101010101,7.493670886075949,0.0054695316912570825,0.004824089607707293,4.140111501736101e-05,-0.0030880863896893124,0.005177571692503168
0.20202020202020202,7.493670886075949,0.005391127741908832,0.004898569762936984,-4.81194601277631e-06,-0.003086909251453744,0.005162508902826945
0.30303030303030304,7.493670886075949,0.005240689794308962,0.004725679052287031,-5.2905693079175386e-05,-0.002989910653978798,0.0050039435530368276
0.40404040404040403,7.493670886075949,0.005128673848484288,0.004670166013443723,-8.510269416855375e-05,-0.0029396519585784034,0.004917694087851213
0.5050505050505051,7.493670886075949,0.005030494419253375,0.00475093840814744,-8.779691303079497e-05,-0.002934429848220244,0.004899065789062327
0.6060606060606061,7.493670886075949,0.005159014143853461,0.004660495689836618,5.2652421820312814e-05,-0.0029458529501070235,0.0049295436566482685
0.7070707070707071,7.493670886075949,0.005081846093012274,0.004669311525769329,4.126439042178282e-05,-0.0029253472856344805,0.004889173299568038
0.8080808080808081,7.493670886075949,0.005126584839926429,0.0044200894145532636,-4.142252448055399e-05,-0.0028640022763439074,0.004812924957491471
0.9090909090909091,7.493670886075949,0.005056560298300775,0.004403696141622274,7.529391276900776e-05,-0.0028380769319769146,0.004765584350578975
1.0101010101010102,7.493670886075949,0.004914384525207774,0.004537734764486549,-9.188616512852197e-05,-0.0028356357869082967,0.004739975501030303
1.1111111111111112,7.493670886075949,0.0050256653969548365,0.004505374089403683,-1.0188046335931895e-05,-0.0028593118459075556,0.004786806565449529
1.2121212121212122,7.493670886075949,0.004923978113867676,0.00459397653967279,1.7677072040160987e-05,-0.0028553863960621394,0.00476764914948334
1.3131313131313131,7.493670886075949,0.0050091080764500156,0.004337294472082551,3.28493364239002e-05,-0.0028039207645597698,0.004709622864495032
1.4141414141414141,7.493670886075949,0.004818338226381253,0.0043355903391841255,1.2833271423090726e-05,-0.0027461785696696133,0.004596072265138973
1.5151515151515151,7.493670886075949,0.0047960276499325665,0.004240136714083457,-6.598329493530443e-05,-0.0027108493092048067,0.004545095052738636
1.6161616161616161,7.493670886075949,0.004864473543033748,0.004225514402109671,7.176121380361683e-05,-0.0027269963835430257,0.004580242440522194
1.7171717171717171,7.493670886075949,0.004747162182473522,0.004146393662195287,-2.1309545135719296e-05,-0.0026680667534006424,0.0044772634825214755
1.8181818181818181,7.493670886075949,0.00485302274383992,0.0042859604755388385,5.844201492366216e-05,-0.0027416949658136272,0.004596919587119696
1.9191919191919191,7.493670886075949,0.0047373178619600385,0.0042894009904238745,-6.495200472135946e-05,-0.002708015655715174,0.004531395120887475
2.0202020202020203,7.493670886075949,0.004727800166339029,0.003995107298462787,-4.726754042443733e-05,-0.002616872239440545,0.004408130040049258
2.121212121212121,7.493670886075949,0.004836958233478711,0.004216976990009785,9.920350284654559e-05,-0.0027161805670465485,0.004561934054696807
2.2222222222222223,7.493670886075949,0.004803753000804157,0.00433826209680671,-4.670885045436648e-05,-0.00274260452928326,0.004589462549977593
2.323232323232323,7.493670886075949,0.0048626250206584625,0.004047784978481143,8.058464087180274e-07,-0.0026731229997418817,0.004510745698563455
2.4242424242424243,7.493670886075949,0.004598378652345031,0.004181588979431803,4.283454867883496e-05,-0.00263399028953305,0.004405422513565426
2.525252525252525,7.493670886075949,0.004361685345856936,0.004067462933405264,-4.066037555285234e-05,-0.00252874448377866,0.004222856864476842
2.6262626262626263,7.493670886075949,0.004520900216909418,0.004144583337845557,2.1356657165319697e-05,-0.0025996450664264926,0.0043451387118191446
2.727272727272727,7.493670886075949,0.004429148600149684,0.003964818038359226,5.4277453311849255e-05,-0.002518189991552673,0.0042172513869668336
2.8282828282828283,7.493670886075949,0.004519474115195311,0.0040994326938569225,3.813777614583478e-05,-0.00258567204271567,0.004325283599074143
2.929292929292929,7.493670886075949,0.004515468461412178,0.004217915497257009,2.665942656554473e-05,-0.002620015187600756,0.004374532471283946
3.0303030303030303,7.493670886075949,0.004573179127029437,0.004047503108034852,-7.198916049032842e-05,-0.0025862046705192863,0.004336108776873807
3.131313131313131,7.493670886075949,0.004458654135888322,0.004061927001269559,-4.6608862827486106e-05,-0.0025561743411473643,0.00427488446645193
3.2323232323232323,7.493670886075949,0.00457556517345728,0.003844022034549738,7.612547521986735e-06,-0.002525876162402105,0.004257217702210001
3.3333333333333335,7.493670886075949,0.004380176077440104,0.003932307155863503,-7.348952539284059e-05,-0.0024937449699910822,0.0041762407060898
3.4343434343434343,7.493670886075949,0.004402734789819869,0.00395467870954273,1.0408884650713655e-05,-0.0025072240498087797,0.004196722628763551
3.5353535353535355,7.493670886075949,0.00441367770777178,0.00404305682190357,1.4156508416518571e-05,-0.0025370203589026048,0.004240602649072863
3.6363636363636362,7.493670886075949,0.004321888598557991,0.003936596023405551,-2.4586100447129463e-05,-0.0024775453865890622,0.004142920861923187
3.7373737373737375,7.493670886075949,0.004284207724776544,0.003811210646048828,-5.513588041268259e-06,-0.0024286255112476117,0.004068394711184894
3.8383838383838382,7.493670886075949,0.004440064266138643,0.004129785826035189,3.668449746915935e-05,-0.0025709550276521494,0.004293812343412486
3.9393939393939394,7.493670886075949,0.004414519204733925,0.003932540977058097,-7.700330917964018e-05,-0.0025041180545376067,0.004196471042132122
4.040404040404041,7.493670886075949,0.004485713489386675,0.003914842498974208,6.241022397909071e-05,-0.002520166796508265,0.004230654866842569
4.141414141414141,7.493670886075949,0.00439071487761425,0.003728771512848519,6.793977208721139e-05,-0.0024358459171388304,0.004101705622389222
4.242424242424242,7.493670886075949,0.0045357632486938354,0.003934911715286786,-1.5699357333213932e-05,-0.0025412024891941867,0.00426726960944727
4.343434343434343,7.493670886075949,0.0046825121914047035,0.003841350889700945,9.290602396719173e-07,-0.002557158924331695,0.004323739966444643
4.444444444444445,7.493670886075949,0.004592181718427659,0.003969544307019356,6.658625103065883e-05,-0.0025685178076341043,0.004316230685418363
4.545454545454545,7.493670886075949,0.004436680241838015,0.0040279902645118555,-9.324689450349407e-05,-0.002539401151904961,0.004250178498421698
4.646464646464646,7.493670886075949,0.004415480598391247,0.004058408439376375,-5.33170039525188e-05,-0.0025421667113302866,0.00424921785272168
4.747474747474747,7.493670886075949,0.004578789302863632,0.004007544207624592,6.623478147598725e-05,-0.002575900053146467,0.004323098731961921
4.848484848484849,7.493670886075949,0.0043883453204012655,0.0038266161290081576,1.807579028155528e-05,-0.0024644884348228265,0.004136306670177033
4.94949494949495,7.493670886075949,0.004356171959700816,0.004069516354656068,3.074310543357947e-05,-0.0025277064943070656,0.004220488109827502
5.05050505050505,7.493670886075949,0.004382314953018759,0.00413812771905399,2.2417116557413924e-05,-0.002556132801621825,0.00426564344118063
5.151515151515151,7.493670886075949,0.004398844275399189,0.004126781286591783,-3.1367131943160275e-05,-0.002557687668597292,0.004269664881360902
5.252525252525253,7.493670886075949,0.004356457215915413,0.004048263906554426,7.545285215448876e-05,-0.002521416336740952,0.004212855447587606
5.353535353535354,7.493670886075949,0.00451319977269811,0.004145559442095359,0.00012990591702561168,-0.002597627764438041,0.004346898202890398
5.454545454545454,7.493670886075949,0.004430352576198159,0.003997580436053929,-3.427686767161839e-05,-0.002528379903675626,0.004231017279530779
5.555555555555555,7.493670886075949,0.004523611202010217,0.0040132085803463976,3.2918218226378895e-05,-0.002561045934706984,0.004291614725663685
5.656565656565657,7.493670886075949,0.0043875980451893275,0.00401474983267876,-5.67268572789436e-05,-0.0025207043633604263,0.004214709730974136
5.757575757575758,7.493670886075949,0.004511964690476064,0.0038974957586284187,-6.832110782944425e-05,-0.002522838134731345,0.004239922007978774
5.858585858585858,7.493670886075949,0.004394536738873912,0.0038620381203062076,-1.0433334870367285e-06,-0.0024769724577540357,0.004153965148027602
5.959595959595959,7.493670886075949,0.004538043859335501,0.003849589283049004,-5.7246326061023424e-05,-0.0025162899427153516,0.004237145989467033
6.0606060606060606,7.493670886075949,0.004414328234300015,0.0037916142269130058,-0.00012190901746207535,-0.002461782738363906,0.00414364427720906
6.161616161616162,7.493670886075949,0.0045176534187982755,0.004009172735347462,3.900202934193804e-05,-0.0025580478462437213,0.004286626761769243
6.262626262626262,7.493670886075949,0.004542650511664675,0.003943447284522637,5.6392869944240266e-05,-0.0025458293388561934,0.0042757792037847915
6.363636363636363,7.493670886075949,0.0044255163450669915,0.003972283320045782,-4.5876981813668654e-05,-0.0025193398995338318,0.004217954365264097
6.4646464646464645,7.493670886075949,0.0046368280805558935,0.003968830594205295,-2.4448845903231234e-05,-0.0025816976024283563,0.004341750686779373
6.565656565656566,7.493670886075949,0.00428633657974897,0.0038725386657384037,-1.9403499121856635e-05,-0.002447662573646212,0.004095285379606749
6.666666666666667,7.493670886075949,0.004593103222354358,0.004198360508818812,-3.179400178819503e-05,-0.0026374391193519507,0.004409348882454131
6.767676767676767,7.493670886075949,0.004510325580843692,0.00391823674978418,0.00013337195874894446,-0.002528568699188362,0.0042516416672104965
6.8686868686868685,7.493670886075949,0.004413281628393342,0.003981282184226508,2.677328845707074e-05,-0.0025183691437859553,0.0042141776739693165
6.96969696969697,7.493670886075949,0.004408587632488535,0.004013040299159265,-3.5636902891876664e-05,-0.00252648837949434,0.004225175439079269
7.070707070707071,7.493670886075949,0.00460890043102252,0.004077935238304385,9.681475102200145e-06,-0.0026060507007980714,0.004367722828461264
7.171717171717171,7.493670886075949,0.004449558993370446,0.0039003850443324016,-8.206268026875649e-07,-0.0025049832113108544,0.004201974226266019
7.2727272727272725,7.493670886075949,0.004526607764207944,0.004203545089125378,2.8876644662417086e-05,-0.0026190458559999965,0.004374319479814602
7.373737373737374,7.493670886075949,0.004603474568247223,0.0040935955408532045,-8.335455757149642e-05,-0.0026091210327301283,0.004373280637506362
7.474747474747475,7.493670886075949,0.004657667476170262,0.004178242810354654,-7.83443908702795e-05,-0.0026507730859574746,0.004439496276185623
7.575757575757575,7.493670886075949,0.004634158085285778,0.004240198201023334,4.879839546083915e-07,-0.0026623068858927334,0.004450275708456677
7.6767676767676765,7.493670886075949,0.004469961200395968,0.004259133724557176,5.4754658270483564e-05,-0.0026187284774859434,0.004369394115714908
7.777777777777778,7.493670886075949,0.0047459341089808715,0.003945649534695839,2.7766234436625387e-05,-0.002607475093103013,0.004400972733380705
7.878787878787879,7.493670886075949,0.004669425898340262,0.004065861448151166,9.247666558004842e-05,-0.0026205862039474282,0.004401725183564141
7.979797979797979,7.493670886075949,0.004728992931015841,0.0041106155317470194,-1.0279215789263351e-05,-0.002651882538828858,0.004452165696210528
8.080808080808081,7.493670886075949,0.004827860248281491,0.00417467426156886,7.318534918934944e-06,-0.002700760352955105,0.004536690041544608
8.181818181818182,7.493670886075949,0.004685813733865073,0.004249158275484695,4.255034692130047e-05,-0.0026804916028049307,0.00448406777268535
8.282828282828282,7.493670886075949,0.004812180708987242,0.004259419042664413,-4.579752737531637e-05,-0.0027214799254954964,0.004561680814009203
8.383838383838384,7.493670886075949,0.004734676570312735,0.004272148394143751,6.853748389329842e-05,-0.002702047489336946,0.004522749758774752
8.484848484848484,7.493670886075949,0.004904821997107281,0.004424504422542937,-5.8571872148303256e-05,-0.0027987979258950655,0.004684271937349847
8.585858585858587,7.493670886075949,0.004820227479483309,0.00432196987150308,3.2815828079191186e-05,-0.0027426592052959167,0.004591771904150492
8.686868686868687,7.493670886075949,0.005050258157070384,0.0043429696314296485,-5.3059457107263365e-05,-0.0028179683365500098,0.00473727989288211
8.787878787878787,7.493670886075949,0.004945806296987161,0.004588882715983943,2.805765173571696e-05,-0.0028604067038913313,0.004777602031457607
8.88888888888889,7.493670886075949,0.005017350450021238,0.004350103395180266,-9.213127537930695e-05,-0.002810236153560451,0.004721935659806223
8.98989898989899,7.493670886075949,0.004936534387420171,0.0044678887473323945,-1.600826238751636e-06,-0.0028213269404257697,0.004719695208833005
9.09090909090909,7.493670886075949,0.004940275195830078,0.00461118650942893,-6.238402275648915e-05,-0.002865438511577702,0.0047854472098520845
9.191919191919192,7.493670886075949,0.005067134597783347,0.004423627708020953,-3.3520814043471524e-05,-0.00284722869174129,0.004778345849676445
9.292929292929292,7.493670886075949,0.0050649121185744,0.004672105797893038,-6.660103086661643e-05,-0.002921105374940231,0.004881742432012865
9.393939393939394,7.493670886075949,0.005157639262870582,0.004560155649274429,-3.943280735081646e-05,-0.0029153384736435033,0.00488684860916537
9.494949494949495,7.493670886075949,0.005140673771413307,0.004551324973978475,5.2429204848868997e-05,-0.002907599623617534,0.004873649083439495
9.595959595959595,7.493670886075949,0.005321539531095977,0.004831501794021545,-5.4307269509690735e-06,-0.0030459123975352565,0.005094237259255743
9.696969696969697,7.493670886075949,0.005410160852869677,0.004732159802182389,5.0462633290012606e-05,-0.0030426961965156194,0.005105787947819555
9.797979797979798,7.493670886075949,0.005243252841075239,0.004795093962883363,4.345366081725487e-05,-0.00301150404118758,0.00503471956380178
9.8989898989899,7.493670886075949,0.0055039440668345,0.004799285182227223,-1.1028406145118055e-06,-0.0030909687747185167,0.005187633853327979
10.0,7.493670886075949,0.005464427925701074,0.004830536451293541,2.634747445948183e-05,-0.0030884893130983843,0.0051768735014604255
0.0,7.594936708860759,0.00538394884137097,0.005131901805036248,3.614011832342601e-05,-0.003154755193922165,0.0052628265039080385
0.10101010101010101,7.594936708860759,0.0053684992183821115,0.004743500227860803,-2.668327854673096e-05,-0.003033599833872874,0.005085099506979263
0.20202020202020202,7.594936708860759,0.005493555157581904,0.004822210908799917,7.383774561396464e-05,-0.003094729819914546,0.005192122951875293
0.30303030303030304,7.594936708860759,0.0053077335990947706,0.004801640632739366,3.00120447341418e-05,-0.003032812269550241,0.005073919744758602
0.40404040404040403,7.594936708860759,0.005300204613651254,0.004681789552034551,-8.842442842624226e-05,-0.002994598249705742,0.005021985305723194
0.5050505050505051,7.594936708860759,0.005137759272928825,0.004692304616635809,4.5899248713575955e-05,-0.00294901916686939,0.004930789148750725
0.6060606060606061,7.594936708860759,0.005311511256504478,0.004673510915449565,7.654331602199293e-05,-0.0029955066515862127,0.0050247414767006695
0.7070707070707071,7.594936708860759,0.005080722727538483,0.004619883701340505,-2.643421893607122e-05,-0.0029101819286636963,0.004866910419541816
0.8080808080808081,7.594936708860759,0.00517495694030821,0.004523980345645292,1.7334097750923797e-05,-0.0029096811857860505,0.004882220337832827
0.9090909090909091,7.594936708860759,0.004995850855870788,0.004457750324124869,-7.817584473647584e-05,-0.0028360803539986966,0.004751646277071088
1.0101010101010102,7.594936708860759,0.0050298713088382085,0.004365403306764731,9.396497291276832e-05,-0.0028185823846808814,0.004735548840249287
1.1111111111111112,7.594936708860759,0.005162045599590099,0.004578211209941296,2.679577706562271e-05,-0.002922077042859418,0.004896524447586652
1.2121212121212122,7.594936708860759,0.004903787484412033,0.00454431335177238,9.779960276835873e-06,-0.0028344302508553237,0.004734327358197146
1.3131313131313131,7.594936708860759,0.004692006382166509,0.004386745446900677,-1.7670875327523665e-05,-0.0027236255487201556,0.004547170400578996
1.4141414141414141,7.594936708860759,0.004850713667987246,0.0043933031067505774,6.786308337294005e-05,-0.002773205032421347,0.004640441362985998
1.5151515151515151,7.594936708860759,0.00482071626321945,0.004304019925213089,1.706097418937057e-05,-0.0027374208565297616,0.004584354609639765
1.6161616161616161,7.594936708860759,0.0048851729575438655,0.004372163583736092,-2.405522571668803e-05,-0.002777200962383987,0.004650127942809006
1.7171717171717171,7.594936708860759,0.004744569410130042,0.004476957604710778,-2.6083018000633374e-05,-0.0027664581044522457,0.0046168055137338895
1.8181818181818181,7.594936708860759,0.004618363786930379,0.0043594929397552775,8.41120093929357e-05,-0.0026933570180056967,0.004496883690761185
1.9191919191919191,7.594936708860759,0.004752163831355486,0.004354920878879357,-4.9958265357914344e-05,-0.0027321254130704535,0.004567339152849281
2.0202020202020203,7.594936708860759,0.004571172488310331,0.0041376723266616814,5.300019482748702e-06,-0.0026126534444916036,0.0043705858378537575
2.121212121212121,7.594936708860759,0.004549808336960892,0.004194791723455001,-2.549919596961633e-05,-0.0026233800181247676,0.004383319036762051
2.2222222222222223,7.594936708860759,0.004556389281911031,0.004234157206325602,1.8805034457282815e-05,-0.00263716394647099,0.00440424373886451
2.323232323232323,7.594936708860759,0.00459485117117973,0.00413705102842546,1.8572423025312236e-06,-0.002619570659881557,0.004383916637202829
2.4242424242424243,7.594936708860759,0.004801128369033476,0.004334388227585999,-1.9726273225841095e-05,-0.002740654978985843,0.004585735275729773
2.525252525252525,7.594936708860759,0.0045182032398871875,0.004216310656696041,-5.930071589019407e-05,-0.0026203541689749687,0.0043762812210775505
2.6262626262626263,7.594936708860759,0.004523557655270718,0.004116138128908053,3.438505460117342e-05,-0.002591908735253631,0.004334642523850734
2.727272727272727,7.594936708860759,0.004620433762620424,0.004191713655542518,4.493505514877045e-06,-0.0026436442254488823,0.004421696145405523
2.8282828282828283,7.594936708860759,0.0046094352717275565,0.004157215704483799,6.05408585247807e-05,-0.0026299952928634067,0.004402035304728737
2.929292929292929,7.594936708860759,0.0045972909761210715,0.004078228345936433,-3.4160398526840394e-06,-0.0026026557966172515,0.004360993395474676
3.0303030303030303,7.594936708860759,0.004528880259807214,0.004230815157209242,5.173088919843786e-05,-0.0026279086251049365,0.004388362599929114
3.131313131313131,7.594936708860759,0.004610029368206703,0.004125163274818626,6.729185084588217e-05,-0.0026205577929075984,0.004389282806296469
3.2323232323232323,7.594936708860759,0.004558622808254647,0.003940191485757025,1.4174273528813938e-05,-0.0025496442882035016,0.004283095470170973
3.3333333333333335,7.594936708860759,0.00449934243954629,0.004042214242187281,-0.00010719503683120842,-0.002562467004520071,0.004293104308795223
3.4343434343434343,7.594936708860759,0.004415443837201302,0.004104188180396774,-6.619725153394628e-06,-0.0025558896052794225,0.0042683514328161285
3.5353535353535355,7.594936708860759,0.004374510440974601,0.004095795929525405,-1.7418704293136047e-05,-0.002541091911150002,0.0042421331981068525
3.6363636363636362,7.594936708860759,0.004382513121559063,0.003973534670536561,-3.461470041935384e-05,-0.002506814337628687,0.004193438414768062
3.7373737373737375,7.594936708860759,0.004213273729338332,0.004046881878737812,-8.295814713920016e-05,-0.002478046682422843,0.00413508809046409
3.8383838383838382,7.594936708860759,0.0044425421345973635,0.003871568571779619,6.263931671635353e-06,-0.0024942332119130945,0.00418637492672009
3.9393939393939394,7.594936708860759,0.004268689399114541,0.003992121508105303,-3.732386722421832e-05,-0.002478243272165953,0.004137849172354796
4.040404040404041,7.594936708860759,0.00452034721909717,0.003914194866231006,-6.1665836626209884e-06,-0.002530362625598453,0.004249829953506274
4.141414141414141,7.594936708860759,0.004229995227831716,0.003916201780839669,1.5492178304378505e-05,-0.0024438591026014153,0.004082242177323493
4.242424242424242,7.594936708860759,0.004560203814185915,0.004101951450733059,0.0001074845247470097,-0.002598646579475692,0.004353204411583351
4.343434343434343,7.594936708860759,0.00446921740286892,0.003876978313941742,0.00010348983778781331,-0.0025038587150431986,0.004208317541398602
4.444444444444445,7.594936708860759,0.004303538713021031,0.00409030334528469,-9.353120359468393e-05,-0.002518152617491716,0.004204104229752558
4.545454545454545,7.594936708860759,0.004508164780245245,0.004055321385902279,6.104447714565936e-05,-0.0025690458498442573,0.004300965411261757
4.646464646464646,7.594936708860759,0.004220436250171337,0.0036905373614464733,-0.00012975172203967376,-0.002373292083485343,0.003988355177670239
4.747474747474747,7.594936708860759,0.00444843899528312,0.00395808108212641,-2.4057688514116363e-05,-0.002521956023222859,0.004224863244218546
4.848484848484849,7.594936708860759,0.0043666000672434035,0.003971255078433711,1.767499156927532e-05,-0.0025013565437031343,0.004183075133043538
4.94949494949495,7.594936708860759,0.004517961653051203,0.0037561880079797004,-1.4203358673091888e-05,-0.002482244898309271,0.00418941734304681
5.05050505050505,7.594936708860759,0.004373962124023429,0.004012732447223459,2.101040863533139e-05,-0.0025160083713740666,0.004205157658068165
5.151515151515151,7.594936708860759,0.004419703619510065,0.003982805433691761,-6.935632859230517e-07,-0.002520752715960548,0.004218258059786439
5.252525252525253,7.594936708860759,0.004248674767019158,0.003868219632865755,1.1917160264365892e-05,-0.0024350683199654737,0.004071852074016789
5.353535353535354,7.594936708860759,0.004565096099130885,0.004001980694058525,6.9265112382053614e-06,-0.0025701230379568227,0.004311225967674077
5.454545454545454,7.594936708860759,0.004565365618223414,0.00382928259489856,4.937979570186273e-05,-0.002518394463936592,0.004246317040814187
5.555555555555555,7.594936708860759,0.004225952166021245,0.004124089574360065,-4.610948338983969e-06,-0.002505012522114393,0.004175960373344824
5.656565656565657,7.594936708860759,0.004424065469863538,0.0039802421402410455,-2.4290287070129044e-05,-0.0025212922830313753,0.004219905332633802
5.757575757575758,7.594936708860759,0.004279132546025179,0.0038925639044595475,-8.190242245416081e-05,-0.002451508935145418,0.004101994176752226
5.858585858585858,7.594936708860759,0.0043978784533952086,0.003982338104289544,-2.627819330366567e-05,-0.0025140649673054253,0.004205779874774057
5.959595959595959,7.594936708860759,0.004449393161142266,0.0038882853503427084,5.168902770782882e-05,-0.002501303553445492,0.004198019472141705
6.0606060606060606,7.594936708860759,0.004414800210415168,0.003933490736667263,-9.123970952550574e-05,-0.002504487284124729,0.004197881441299543
6.161616161616162,7.594936708860759,0.004285886540022418,0.004012865540515515,-6.399025570609923e-05,-0.00248962562416138,0.004157584771434369
6.262626262626262,7.594936708860759,0.0044990071438603335,0.004043965865911566,-2.3691070361323853e-06,-0.0025628919029315697,0.004289628273277904
6.363636363636363,7.594936708860759,0.004415440281347042,0.004282422177293462,-1.1925542117855322e-05,-0.0026093587375921514,0.0043505057010680805
6.4646464646464645,7.594936708860759,0.004472296087499298,0.004231460745538942,-5.6156282731305655e-05,-0.0026111270499114716,0.004357959107528251
6.565656565656566,7.594936708860759,0.004265193305532781,0.004071852964722605,9.15310004589847e-06,-0.0025011138810766154,0.004171914648138742
6.666666666666667,7.594936708860759,0.004575688847072868,0.003826648900190995,5.1499546230427164e-05,-0.002520701324179159,0.004251890420281103
6.767676767676767,7.594936708860759,0.004528731261304857,0.004076271085428032,-9.553686983941339e-05,-0.0025815007040198667,0.004323475267118067
6.8686868686868685,7.594936708860759,0.004384075070464761,0.004158346220772686,-0.0001080271805127667,-0.002562726387371234,0.00427977395777193
6.96969696969697,7.594936708860759,0.004581719188422012,0.003976024453572019,5.3470251026069216e-06,-0.002567323092598209,0.004310913988520695
7.070707070707071,7.594936708860759,0.004466986141738067,0.004258864848062507,-9.50597888072561e-06,-0.002617755296940172,0.004366677892816832
7.171717171717171,7.594936708860759,0.004479760708905755,0.0042567746709990155,7.698360574008227e-05,-0.0026209606139714313,0.004374566734839713
7.2727272727272725,7.594936708860759,0.004397047352646362,0.003983031239444224,3.6000633508841103e-05,-0.0025140235776271755,0.004205814361777764
7.373737373737374,7.594936708860759,0.00463578800265531,0.004208803741768345,-3.7367819178558655e-05,-0.0026533775233270967,0.004438200819295601
7.474747474747475,7.594936708860759,0.004613137387212433,0.004341322093731994,3.975668621979066e-05,-0.002686337844283328,0.0044839425282438465
7.575757575757575,7.594936708860759,0.00461950352127548,0.004167506647319918,-1.0885342800780732e-05,-0.0026361030505786193,0.004410948682354239
7.6767676767676765,7.594936708860759,0.004714028739312499,0.0041276112183987485,-1.3902092255774648e-05,-0.002652491987313374,0.00444995991235677
7.777777777777778,7.594936708860759,0.004686195452819644,0.004050465295584577,-1.2737254140214575e-06,-0.002620998224521266,0.004402888795997423
7.878787878787879,7.594936708860759,0.004619407735088917,0.0039187779609705375,-3.074050028097592e-06,-0.002561455708817836,0.004311999959964654
7.979797979797979,7.594936708860759,0.004619002110033674,0.004017169780088758,1.6717179959676976e-06,-0.0025908515670367296,0.004349428264482998
8.080808080808081,7.594936708860759,0.0046999907532605505,0.004136986770002391,7.74745528643166e-05,-0.002651093256978883,0.004447334029456479
8.181818181818182,7.594936708860759,0.004741615560063245,0.0043770388701247125,-1.996233175529546e-05,-0.0027355963290563875,0.00457037714641788
8.282828282828282,7.594936708860759,0.004842440206665043,0.004202919938273621,-1.0188512822700637e-05,-0.002713608043481599,0.0045564993235546955
8.383838383838384,7.594936708860759,0.004944465036046132,0.004258830572706913,2.2271258225259406e-05,-0.0027609886826259135,0.004639959213758341
8.484848484848484,7.594936708860759,0.004708068938812372,0.00431525215297343,-2.640397598937161e-05,-0.0027069963275357404,0.004524699013375187
8.585858585858587,7.594936708860759,0.004825076358698525,0.004352315338870399,4.997984273567304e-05,-0.002753217509270677,0.004607738141766858
8.686868686868687,7.594936708860759,0.004963304723130809,0.00429463848678421,-5.9242942862469475e-05,-0.0027773829629745054,0.00466618079376082
8.787878787878787,7.594936708860759,0.0050650992337771044,0.004512462728354295,0.0001007467284652365,-0.00287326858863942,0.004815799863454706
8.88888888888889,7.594936708860759,0.005025850434425856,0.004378964092043109,2.7793548555267897e-05,-0.0028214443579406894,0.004735905189962663
8.98989898989899,7.594936708860759,0.005006253542626225,0.004526482945332711,2.173708569771792e-05,-0.0028598209463876804,0.004784591791304702
9.09090909090909,7.594936708860759,0.00504221679590809,0.004462503431247522,6.2871319088168765e-06,-0.0028514160681466835,0.004778817418784978
9.191919191919192,7.594936708860759,0.004998567341725508,0.004448331432392296,2.093998636345452e-05,-0.0028340696322353407,0.00474756350438134
9.292929292929292,7.594936708860759,0.005017647874246871,0.004444790573404542,5.348273280940602e-05,-0.0028387315342954236,0.004758060599379802
9.393939393939394,7.594936708860759,0.00508770850136006,0.004566010126796886,1.1967563238196477e-05,-0.0028961155884470835,0.004848002413482494
9.494949494949495,7.594936708860759,0.005250899989406054,0.004691655844008671,2.1756810649142783e-05,-0.0029827667500244175,0.004994956427456811
9.595959595959595,7.594936708860759,0.005290254460754191,0.0045430014066822075,-2.091832354668682e-05,-0.00294997676023092,0.0049591665945512495
9.696969696969697,7.594936708860759,0.005143332925917945,0.004782216120049557,-4.351885092015719e-05,-0.002977664713790251,0.004973189786016945
9.797979797979798,7.594936708860759,0.005548058960210772,0.004863449675241974,-2.6170006120657063e-05,-0.0031234525906358238,0.005239603995435814
9.8989898989899,7.594936708860759,0.005393639378177429,0.004910269487830473,8.194003035752062e-05,-0.0030911726598023704,0.005170881145766605
10.0,7.594936708860759,0.005272864674648454,0.004870548349484122,2.2637923276940863e-05,-0.003043023907239772,0.00508381138422412
0.0,7.69620253164557,0.005465164401643823,0.005075208252016382,-7.113033452325357e-05,-0.0031621117960980616,0.005282432379306841
0.10101010101010101,7.69620253164557,0.0053458563884107866,0.004910905905784684,2.0013973653652416e-05,-0.0030770286882586414,0.005142312836563351
0.20202020202020202,7.69620253164557,0.0053049575394993114,0.0046773048169865385,-3.2577364024906955e-05,-0.0029946787069457547,0.0050209595942834785
0.30303030303030304,7.69620253164557,0.005338197541776012,0.00462987090140454,-5.778780219175378e-05,-0.0029904205329541653,0.005022639782457468
0.40404040404040403,7.69620253164557,0.0051868138290942275,0.0047090287186740765,3.3699621586018216e-05,-0.0029687527643304915,0.00496553530697798
0.5050505050505051,7.69620253164557,0.005308226934122123,0.004672880467319013,-3.960416180092004e-05,-0.002994332220432341,0.005021262844975456
0.6060606060606061,7.69620253164557,0.005258317634683018,0.004594745378123179,3.7114949548746636e-05,-0.002955918903841859,0.004960351937794268
0.7070707070707071,7.69620253164557,0.005091064961574955,0.00462716302435809,-5.038949132916154e-05,-0.0029154683957799137,0.004876475146524123
0.8080808080808081,7.69620253164557,0.004992811817363502,0.004406917314706487,2.8091086499997184e-05,-0.0028199187396209966,0.004727425149346771
0.9090909090909091,7.69620253164557,0.004815316358058952,0.00443730325655937,-6.099031943730593e-05,-0.0027757858843854965,0.004639080977853169
1.0101010101010102,7.69620253164557,0.00492271233375387,0.004529232470811197,2.4824998948058335e-05,-0.0028355834413695204,0.004738436850983718
1.1111111111111112,7.69620253164557,0.004806907851387612,0.004418970424133856,7.723209335476512e-05,-0.0027677634826564403,0.004627091252937942
1.2121212121212122,7.69620253164557,0.004833472063758708,0.00430010080203928,1.934622350028654e-05,-0.0027400718597393966,0.004590209671673248
1.3131313131313131,7.69620253164557,0.004948231459198257,0.004440411236017036,2.3468767336165436e-05,-0.002816592808564588,0.004715052099185074
1.4141414141414141,7.69620253164557,0.00471523873774931,0.0043189283759645725,-2.7761419821280754e-05,-0.002710250134114164,0.004530358967682615
1.5151515151515151,7.69620253164557,0.004644963247165895,0.004363687056000383,4.057079441021672e-05,-0.002702595090949883,0.004511454339905163
1.6161616161616161,7.69620253164557,0.004785983451604348,0.00433579573985582,5.459011793330907e-05,-0.00273653375743805,0.004578499304272512
1.7171717171717171,7.69620253164557,0.004810701345378159,0.004332788303223936,1.7338397892326406e-05,-0.0027430468945806286,0.004590539538610213
1.8181818181818181,7.69620253164557,0.004707421122631417,0.004197254592586428,-5.006370296223801e-05,-0.0026714027145653533,0.004475045691123621
1.9191919191919191,7.69620253164557,0.004584535545773508,0.0041710664841794415,-1.7886212017747117e-05,-0.002626680608985885,0.004392529906004249
2.0202020202020203,7.69620253164557,0.004750162181793089,0.0041272065140085705,3.996135616519714e-05,-0.0026632106087404977,0.004471886044308166
2.121212121212121,7.69620253164557,0.00434104097997221,0.004120297138091918,-7.353832952748403e-05,-0.0025384014354192385,0.004236901016967045
2.2222222222222223,7.69620253164557,0.004750221787650721,0.003952091808332279,1.3179002559310721e-05,-0.0026106940787949,0.004405774067850979
2.323232323232323,7.69620253164557,0.004692997151064064,0.0040502689731037,8.822332576559816e-05,-0.002622979837250329,0.004409574846647976
2.4242424242424243,7.69620253164557,0.004346393719375296,0.004031527017079342,-5.133713628209925e-05,-0.002513376220936391,0.004198767825377481
2.525252525252525,7.69620253164557,0.004634057486377849,0.004198165426437515,1.1359916282501033e-05,-0.0026496668738446093,0.004432260027846773
2.6262626262626263,7.69620253164557,0.004614311772440089,0.004197611037213857,4.485033301011289e-05,-0.0026435768428961838,0.004421397989888695
2.727272727272727,7.69620253164557,0.004512228577631741,0.004312387314725908,9.570229335751384e-05,-0.0026473847677072945,0.004418810993530308
2.8282828282828283,7.69620253164557,0.004544476844239798,0.004074439637827853,4.87368092754075e-05,-0.0025856749446202952,0.004329463868945906
2.929292929292929,7.69620253164557,0.004577219111107667,0.004115492060684324,5.054985244538215e-05,-0.0026078133515375973,0.004365588922884924
3.0303030303030303,7.69620253164557,0.004581486065626792,0.004088941553847402,-9.268978412190343e-05,-0.0026011282858422586,0.004359105761098248
3.131313131313131,7.69620253164557,0.004576714506596215,0.0041465234009974055,-4.6782424312007365e-05,-0.002616971372278086,0.004378251246136448
3.2323232323232323,7.69620253164557,0.004581487806508631,0.003965041488465206,2.8607222908195485e-05,-0.002563958788492151,0.004306767977769527
3.3333333333333335,7.69620253164557,0.004551313320203463,0.004073694497686412,1.369798641615536e-05,-0.0025875023453669622,0.004332359942788441
3.4343434343434343,7.69620253164557,0.004582559178457741,0.004114427218723214,7.866211032034963e-05,-0.0026090959191542866,0.004369475589791235
3.5353535353535355,7.69620253164557,0.004655893857169534,0.003920490578554246,-1.332129939981506e-05,-0.0025729153307171336,0.004335289881315084
3.6363636363636362,7.69620253164557,0.004389545194550275,0.0041949652935788714,1.5733113231015953e-05,-0.002575353146438744,0.0042956482253732305
3.7373737373737375,7.69620253164557,0.0044760375603871754,0.003969770417221354,3.0043477553053285e-05,-0.0025337423932825583,0.00424592224910871
3.8383838383838382,7.69620253164557,0.004285262197641097,0.003944841984409004,-3.7450349380712355e-06,-0.00246903125461503,0.004125604225915574
3.9393939393939394,7.69620253164557,0.0045119459937873405,0.004080356304302192,5.765303511411211e-05,-0.0025776906894268595,0.004313535505575988
4.040404040404041,7.69620253164557,0.0044545333735335965,0.003948082447382275,-2.884964178976695e-06,-0.0025207847462747615,0.004224142816357067
4.141414141414141,7.69620253164557,0.004619628254379397,0.003818242639225824,3.5701591817541653e-06,-0.0025313612680815663,0.004275642492132451
4.242424242424242,7.69620253164557,0.004434985235831574,0.0038807837274829958,2.1089097309645094e-05,-0.002494730688994371,0.0041856531266666564
4.343434343434343,7.69620253164557,0.004316141548069324,0.004072179210481002,-5.816077980625209e-05,-0.002516496227565098,0.00420068655491287
4.444444444444445,7.69620253164557,0.0043422655807490015,0.004085573089935724,3.283157191263232e-05,-0.0025283516012054178,0.0042201621031951984
4.545454545454545,7.69620253164557,0.004354883164553609,0.004006538414137526,4.6408894430779035e-05,-0.00250842647360734,0.004192351620445753
4.646464646464646,7.69620253164557,0.004552426535750276,0.0037084030749654578,3.761183752507255e-05,-0.0024782488832147203,0.004195098582518877
4.747474747474747,7.69620253164557,0.00433468795941793,0.003968788526758443,-6.511860477364697e-05,-0.0024910429458529122,0.0041653407463615
4.848484848484849,7.69620253164557,0.004383749190019491,0.0038067011980437828,-0.00010816358581929267,-0.002457135116418982,0.004129855416658761
4.94949494949495,7.69620253164557,0.004355709433412721,0.003978086649618157,-1.367817354337833e-05,-0.0025001388249092636,0.004179778677251968
5.05050505050505,7.69620253164557,0.004510095402369567,0.003934715084874798,5.4986100686874045e-05,-0.0025334431461733094,0.004252772429544594
5.151515151515151,7.69620253164557,0.004384530736830425,0.003909594651907258,-7.394279277835564e-05,-0.002488237616621305,0.004169377029534383
5.252525252525253,7.69620253164557,0.004424189207270205,0.004037577359794015,-1.663630253459149e-05,-0.002538529970119266,0.004244208430203945
5.353535353535354,7.69620253164557,0.0044798139567653866,0.003745110692548975,5.204248440579421e-06,-0.002467477394794308,0.004161402322435061
5.454545454545454,7.69620253164557,0.004296900253060775,0.003933837623356625,3.375823131372365e-05,-0.0024692213629252196,0.004127776787440554
5.555555555555555,7.69620253164557,0.004415827837414532,0.0038058004280787238,4.7386808952327186e-05,-0.0024664884796479765,0.004145434771297599
5.656565656565657,7.69620253164557,0.004356704068939069,0.003905716660503713,-6.907479823343684e-05,-0.0024787262188328343,0.004151355837887165
5.757575757575758,7.69620253164557,0.004313906304299325,0.004119284472322527,7.382716159427913e-06,-0.0025299572329865556,0.00421998204087768
5.858585858585858,7.69620253164557,0.004445927465251576,0.0040157138494990256,4.2031004460941116e-05,-0.0025384923944251803,0.0042478178006201866
5.959595959595959,7.69620253164557,0.004742788495701387,0.004000349896762736,9.357468514630592e-07,-0.0026229415177392366,0.004418600589463482
6.0606060606060606,7.69620253164557,0.004458056850687951,0.0038088009353489573,3.197403859618862e-05,-0.0024800573358110724,0.004171864255195059
6.161616161616162,7.69620253164557,0.004504063855601173,0.0038122552076272067,-1.9063631208812114e-05,-0.002494895718968514,0.004201229624826191
6.262626262626262,7.69620253164557,0.004147954521770626,0.003972671350498038,3.769138759926325e-05,-0.0024361877616805995,0.004063673978561249
6.363636363636363,7.69620253164557,0.004646827263653865,0.004009096779237658,-3.20042843916782e-05,-0.0025967772128674565,0.004363410731274384
6.4646464646464645,7.69620253164557,0.004609392188743135,0.0041028049324007545,-2.423391801103404e-05,-0.0026136591363431667,0.004378336385429955
6.565656565656566,7.69620253164557,0.004311920069456709,0.003900158759339857,-4.095863425756361e-05,-0.0024636236486389696,0.004122105412787838
6.666666666666667,7.69620253164557,0.004567324083089861,0.004053361982190041,-5.012171493740239e-06,-0.0025862058195839704,0.004333272459180018
6.767676767676767,7.69620253164557,0.004496855116148036,0.003967574914940713,-2.952000843498244e-06,-0.0025393290093266244,0.0042569676096100096
6.8686868686868685,7.69620253164557,0.004380747977381153,0.004104177828153273,4.681894800583453e-05,-0.0025454777416603278,0.00424999244806577
6.96969696969697,7.69620253164557,0.00445174491386404,0.0040388045805117515,1.3296292759889769e-05,-0.002547164848312737,0.0042603729698814565
7.070707070707071,7.69620253164557,0.004377357199236065,0.004205700216367517,-2.622266416313377e-05,-0.002574917224681075,0.00429434292110679
7.171717171717171,7.69620253164557,0.004833031352021951,0.004047749849750117,-1.4540693527880405e-06,-0.0026642343605316203,0.00449216821921751
7.2727272727272725,7.69620253164557,0.004435326908590784,0.004164012803788163,-1.7475868065522243e-05,-0.0025798019137136838,0.004306191542153806
7.373737373737374,7.69620253164557,0.004725131001495091,0.004051515102301184,-2.821149844258878e-06,-0.0026329938311388827,0.004426931428113047
7.474747474747475,7.69620253164557,0.004622860162943744,0.003922527149634334,5.803900005061222e-05,-0.0025636161937734234,0.00431669623719593
7.575757575757575,7.69620253164557,0.004618341526661919,0.003974115652055168,-3.4096931439955533e-05,-0.0025777371536151263,0.004332705635899719
7.6767676767676765,7.69620253164557,0.004765485729160952,0.004245016542867664,-2.899770150387442e-05,-0.0027031506816085843,0.004528021259782945
7.777777777777778,7.69620253164557,0.004776804607956906,0.004073877575859711,1.953025224875669e-05,-0.002655204655144985,0.004467143145381693
7.878787878787879,7.69620253164557,0.004515207719544431,0.004175862800767129,-4.903480886315331e-05,-0.0026073211560934677,0.004356289265547329
7.979797979797979,7.69620253164557,0.004713178926348068,0.004290487078851602,-5.47325311220453e-07,-0.002701099801559901,0.004516691552502452
8.080808080808081,7.69620253164557,0.004836807172309461,0.004210008635671475,-0.00014110026591565076,-0.0027140447423942807,0.00456241210601985
8.181818181818182,7.69620253164557,0.0046926719615027835,0.004203775396229661,2.962273935757241e-07,-0.0026689342073197334,0.004468328440158584
8.282828282828282,7.69620253164557,0.004743625319298465,0.004213202421450742,4.984301506879216e-05,-0.0026870483222247617,0.004502738623408865
8.383838383838384,7.69620253164557,0.004785246623007738,0.004161258936445565,2.2668742280818002e-05,-0.002683951667835991,0.004505946351400326
8.484848484848484,7.69620253164557,0.004829618383359661,0.004261607076978976,9.198143818680483e-06,-0.0027273676381015907,0.004572179627197373
8.585858585858587,7.69620253164557,0.00486686822961864,0.004305250803048586,6.641513548563283e-06,-0.0027516357098001675,0.004611793015393375
8.686868686868687,7.69620253164557,0.0050069399308969005,0.004326261394728669,-1.16903324971861e-05,-0.0027999603976876708,0.004703728753870327
8.787878787878787,7.69620253164557,0.004926486158478601,0.00441956466282208,-7.596674373255277e-05,-0.0028038152463902045,0.004695445280174474
8.88888888888889,7.69620253164557,0.004873135856726401,0.0042369844072272945,7.442619855391759e-05,-0.0027330360791861085,0.0045900661305740866
8.98989898989899,7.69620253164557,0.00491622245564865,0.004485804783789284,0.00010937872731538166,-0.0028206081718313803,0.004719572512414366
9.09090909090909,7.69620253164557,0.005006213521694299,0.0044500469620561145,5.845496396151803e-06,-0.0028368781451251234,0.004752610758852873
9.191919191919192,7.69620253164557,0.004963052191419753,0.0045380875938256455,-5.303252547288419e-05,-0.0028503419355736196,0.004765689649240032
9.292929292929292,7.69620253164557,0.0049280471498276005,0.0046219342431868616,-8.62273671442652e-05,-0.0028649944179043384,0.004784675585865101
9.393939393939394,7.69620253164557,0.00519304002533573,0.004702993047143337,5.270480608309949e-05,-0.0029688099217437197,0.0049670223034811575
9.494949494949495,7.69620253164557,0.005263340734480257,0.004625562209687794,9.867322506940216e-06,-0.0029666708832504153,0.004975235023289763
9.595959595959595,7.69620253164557,0.00506550510986846,0.004644915755641399,6.565820146714535e-05,-0.002913126259652958,0.0048701820190069755
9.696969696969697,7.69620253164557,0.0052760659940894504,0.00458091692526461,4.297756519269692e-05,-0.002957094875806218,0.00496568156977017
9.797979797979798,7.69620253164557,0.005336495371164017,0.0048103332892700055,7.1729556258541565e-06,-0.003044048598130207,0.005093851413444039
9.8989898989899,7.69620253164557,0.005442462642636229,0.004859100826769835,1.2223822665099759e-05,-0.0030904690408218192,0.00517554190401645
10.0,7.69620253164557,0.005477254840707098,0.004838477488374699,-8.732638667044697e-05,-0.0030947196987245393,0.005189652054245273
0.0,7.7974683544303796,0.0054566965320023055,0.004963583441046429,-4.8252537333670415e-05,-0.0031260839919146203,0.0052282802135703845
0.10101010101010101,7.7974683544303796,0.005203396342887875,0.004673896034753676,6.5594309967052e-05,-0.0029631877132924654,0.004961190577985267
0.20202020202020202,7.7974683544303796,0.005259194657516453,0.004842706733170367,-1.829743385189924e-05,-0.003030570417206046,0.005063911922455934
0.30303030303030304,7.7974683544303796,0.005342783667502987,0.004667542539609225,5.450520252612408e-05,-0.0030030978621336636,0.005040092566620782
0.40404040404040403,7.7974683544303796,0.005090866070704659,0.004778531021468126,5.6020065892444464e-05,-0.0029608191276518357,0.004943058706037298
0.5050505050505051,7.7974683544303796,0.005050497363926978,0.004563473774273207,3.5859546841883085e-05,-0.002884191341460056,0.0048258534960662755
0.6060606060606061,7.7974683544303796,0.005078856277736965,0.004504186774687689,9.544949300412042e-06,-0.002874912915727396,0.004817326606389558
0.7070707070707071,7.7974683544303796,0.005086047430795226,0.004678363780251502,3.934745397159171e-05,-0.0029293233633140184,0.0048954295736121445
0.8080808080808081,7.7974683544303796,0.004983857550382423,0.004650869953602189,-5.6051864123251404e-05,-0.0028904182511953836,0.004826963798096228
0.9090909090909091,7.7974683544303796,0.005059342590116861,0.004453532812278619,-9.657623615442753e-05,-0.002853862620718644,0.0047882078723399035
1.0101010101010102,7.7974683544303796,0.005092587031587768,0.004499364037968438,8.168050977040008e-05,-0.0028775853208668615,0.004825487704609574
1.1111111111111112,7.7974683544303796,0.0049076578524759875,0.004272226493104039,-4.3992672930409016e-05,-0.0027539653036740075,0.004623440815531865
1.2121212121212122,7.7974683544303796,0.004896127762669805,0.004406622533959333,-7.107983916981882e-06,-0.0027908250889887415,0.004670669530952243
1.3131313131313131,7.7974683544303796,0.00478743719105743,0.0043110634118549,3.9119042288041866e-05,-0.002729550180873699,0.0045684207541382815
1.4141414141414141,7.7974683544303796,0.004893558325127269,0.004419999437743087,-9.702362623331044e-05,-0.002794067328861107,0.00467782255088716
1.5151515151515151,7.7974683544303796,0.0047002460285424305,0.004178315106367059,-2.905208401855073e-05,-0.002663568340472847,0.004462516436158069
1.6161616161616161,7.7974683544303796,0.00475852560463251,0.004204063481886272,-3.415817949375045e-05,-0.0026887767259556345,0.0045073353892622165
1.7171717171717171,7.7974683544303796,0.0046347426695735145,0.004189523629199873,-1.535967233859176e-05,-0.0026472798896320167,0.004429028299972062
1.8181818181818181,7.7974683544303796,0.004683061296159874,0.004248268443782796,8.459916912899012e-05,-0.002679398921982801,0.004483906489603311
1.9191919191919191,7.7974683544303796,0.004540597810925083,0.0042759700752655816,-3.4693067801283605e-05,-0.002644970365857199,0.0044146459686675585
2.0202020202020203,7.7974683544303796,0.004662736053460858,0.004013332436437468,-6.024421019722034e-05,-0.0026028205469694975,0.004375582589586308
2.121212121212121,7.7974683544303796,0.004855868753804349,0.004268679257063462,-1.558466610042047e-05,-0.002737364403260343,0.004590606318877979
2.2222222222222223,7.7974683544303796,0.0046705845791273305,0.004128500601873284,2.6059079175365516e-05,-0.0026397255543001846,0.004424748977201445
2.323232323232323,7.7974683544303796,0.004545480182389755,0.004261733155518419,-4.420251120981646e-05,-0.0026421640013724523,0.004411122029857302
2.4242424242424243,7.7974683544303796,0.004807461648794484,0.0041469419798289935,-6.914231566817382e-06,-0.0026863210885870433,0.0045136120990497755
2.525252525252525,7.7974683544303796,0.00476397333376234,0.004091452003538186,-9.030056118296755e-06,-0.002656627601190158,0.004465881526257876
2.6262626262626263,7.7974683544303796,0.0046895727144420085,0.004172220364317426,3.781553578027403e-05,-0.0026585379236278303,0.004453972864484109
2.727272727272727,7.7974683544303796,0.004537112803224435,0.004206337835004138,2.427019802011771e-05,-0.002623035191468572,0.004381302141261382
2.8282828282828283,7.7974683544303796,0.004526203298945029,0.004230659799163877,2.1129182555895975e-07,-0.0026270589294326717,0.004385906113209134
2.929292929292929,7.7974683544303796,0.0045592663567502155,0.003978621456052543,-2.746167096856378e-05,-0.0025613663438408276,0.004298721424057191
3.0303030303030303,7.7974683544303796,0.0046587442838860365,0.0040470314785975466,-0.00015215716354267082,-0.0026117327287450746,0.004392918475345193
3.131313131313131,7.7974683544303796,0.004514786075921217,0.004190956472850883,-4.883666945201436e-05,-0.0026117227646316296,0.004362716195341298
3.2323232323232323,7.7974683544303796,0.004568842194473232,0.00406031155091717,-2.275914638036665e-05,-0.0025887461236171207,0.0043371742054251
3.3333333333333335,7.7974683544303796,0.004432961625424776,0.004019636114973877,2.119121349249288e-05,-0.002535779322119596,0.004241589068501105
3.4343434343434343,7.7974683544303796,0.004528476644983621,0.0040796798070675475,-2.6655612859085483e-05,-0.0025824469356153508,0.0043218381381225765
3.5353535353535355,7.7974683544303796,0.004452494775510361,0.004095913552975932,-6.554447921738301e-05,-0.0025645224985458882,0.0042868487377208915
3.6363636363636362,7.7974683544303796,0.004254600927206043,0.004084996806090646,2.0590525822045266e-05,-0.0025018793199890065,0.004172537437338004
3.7373737373737375,7.7974683544303796,0.004391304729519066,0.004006226560003547,-3.076889135252156e-05,-0.0025192593868567843,0.004212325606019921
3.8383838383838382,7.7974683544303796,0.004332576704461562,0.0040142435126542305,5.7427852861239684e-05,-0.0025040460651347377,0.004183688303975414
3.9393939393939394,7.7974683544303796,0.004434854266938669,0.0038971348201879094,-7.780351172622196e-05,-0.0024995967261379733,0.0041941062634213684
4.040404040404041,7.7974683544303796,0.00440788046055467,0.00412233775175789,-8.951149783520742e-05,-0.0025590654636937675,0.004275084044912051
4.141414141414141,7.7974683544303796,0.004713250284324198,0.003912590667991397,4.180625002039218e-05,-0.0025877522856946784,0.004368903545193364
4.242424242424242,7.7974683544303796,0.004373946632064369,0.003912323834783211,-1.690726121029829e-05,-0.002485881140054274,0.004162481091141407
4.343434343434343,7.7974683544303796,0.004355768554038565,0.003978068465872977,-3.245736127636138e-05,-0.002500151105973462,0.004180115228910002
4.444444444444445,7.7974683544303796,0.004525009936215478,0.004048089272561933,6.823414474789088e-05,-0.002571929762633223,0.0043080233513733655
4.545454545454545,7.7974683544303796,0.004331737160923265,0.0038410218833499505,-2.156743939717457e-05,-0.0024518277132819645,0.004108587856550806
4.646464646464646,7.7974683544303796,0.00442693487168149,0.003947181242983092,-7.40729051316632e-05,-0.002512234834399374,0.004209576964432667
4.747474747474747,7.7974683544303796,0.004351912511288321,0.004224619367857675,-4.392549753268107e-05,-0.0025729595637437987,0.004290357301528127
4.848484848484849,7.7974683544303796,0.004531033552454714,0.0038835073655889623,-4.6303918550049594e-05,-0.002524362275413103,0.004245235505361837
4.94949494949495,7.7974683544303796,0.00451830607626546,0.004094308249309054,-1.8373796369654674e-05,-0.0025837842976723538,0.004322050993151256
5.05050505050505,7.7974683544303796,0.0044984618648068265,0.003996203261512754,5.5663901109856585e-05,-0.0025483995378958743,0.004270635443370811
5.151515151515151,7.7974683544303796,0.004498559447614047,0.003840321196800635,-3.94044859946736e-05,-0.0025016641933244045,0.004208782358013229
5.252525252525253,7.7974683544303796,0.004242152660259688,0.003988322478597583,-2.482546580521572e-05,-0.002469142541657181,0.004121328849404789
5.353535353535354,7.7974683544303796,0.004354110717534209,0.0039121406302096914,5.697289083383786e-05,-0.00247987540432317,0.004151983710885266
5.454545454545454,7.7974683544303796,0.004638748498622777,0.003926970103598,-0.00010667571700273915,-0.0025697155806662327,0.004330934573694221
5.555555555555555,7.7974683544303796,0.004356757628504487,0.004194718613236192,-2.465514301855881e-05,-0.0025654428725222036,0.004278253450690768
5.656565656565657,7.7974683544303796,0.004543632285485098,0.0039674986983548495,-8.293292998582184e-06,-0.002553339295151984,0.0042847393648635206
5.757575757575758,7.7974683544303796,0.004366515813932108,0.003966491236919114,-8.23338289663428e-06,-0.0024999021152553665,0.004180905373220809
5.858585858585858,7.7974683544303796,0.004359709516302767,0.00377996726846972,8.529796683992657e-06,-0.002441903035431746,0.004100716841953044
5.959595959595959,7.7974683544303796,0.004483020235326316,0.00397354253920176,-6.400880825698382e-05,-0.0025369688323584223,0.004252685094692908
6.0606060606060606,7.7974683544303796,0.004443451028581173,0.003976074685231607,8.533779544493865e-06,-0.002525857714143834,0.004229202321042433
6.161616161616162,7.7974683544303796,0.004366045981902761,0.004173949155226916,8.072506800978213e-05,-0.002561998541138903,0.004275523913917379
6.262626262626262,7.7974683544303796,0.004613545180208553,0.0038675359639566862,5.77779763454766e-05,-0.002544324343249572,0.004290640574573927
6.363636363636363,7.7974683544303796,0.0044585691394018355,0.004177277938097217,3.432515329131028e-05,-0.002590754123249716,0.004325198479825081
6.4646464646464645,7.7974683544303796,0.004483728595092655,0.004034733979099752,5.0092366433693136e-05,-0.0025555387722577217,0.004277823747701268
6.565656565656566,7.7974683544303796,0.004502002411279001,0.003914703685341493,-2.6973308293368614e-05,-0.002525011828986148,0.004239234353325949
6.666666666666667,7.7974683544303796,0.004527692294442245,0.003913861190433974,1.2367809258534776e-05,-0.002532466045462866,0.00425417520393907
6.767676767676767,7.7974683544303796,0.004595596072210369,0.0039540041718048044,-7.151044848646046e-06,-0.002564880073204552,0.00431077714808396
6.8686868686868685,7.7974683544303796,0.0042714871475097674,0.0040243931669899395,0.00015437804202606467,-0.0024887640943499116,0.004162054404271068
6.96969696969697,7.7974683544303796,0.004620324559157779,0.00414693684346851,-1.6584728116161883e-06,-0.0026301784207878862,0.004402760307365767
7.070707070707071,7.7974683544303796,0.004536999339550028,0.004044790432947404,-7.539545700864556e-05,-0.0025745369317492295,0.004313992878465636
7.171717171717171,7.7974683544303796,0.004494629974446574,0.004068527036810275,-3.9079323216980005e-05,-0.002568947103377054,0.004297984279341345
7.2727272727272725,7.7974683544303796,0.004831700507900431,0.004121155084883676,6.455336143564494e-05,-0.0026858566778352323,0.004519907446437027
7.373737373737374,7.7974683544303796,0.004599295117373298,0.003946861051880724,3.488837479596689e-05,-0.0025638468507762067,0.004310696065691564
7.474747474747475,7.7974683544303796,0.004488678051599687,0.00412793200460387,1.892949654491007e-05,-0.0025849830168610667,0.004319741945475763
7.575757575757575,7.7974683544303796,0.004635855410065166,0.004270290247863137,-7.308231261480423e-05,-0.0026718436973784906,0.004466106705976921
7.6767676767676765,7.7974683544303796,0.004602173933876929,0.0038874707203725256,-6.0283067621024e-05,-0.002546893396274836,0.004290981151919351
7.777777777777778,7.7974683544303796,0.004683968896921072,0.004171685821337308,4.678792035163784e-05,-0.002656696415477514,0.0044507356597390324
7.878787878787879,7.7974683544303796,0.004695362555443529,0.004105592282039833,7.23484447173411e-05,-0.0026402864512450083,0.004431791526770806
7.979797979797979,7.7974683544303796,0.004535022994628394,0.004174800807476868,-9.672010941851104e-05,-0.002612947140631579,0.004369283925623831
8.080808080808081,7.7974683544303796,0.0045851788097763385,0.004225153038204312,8.135747735883553e-05,-0.002643099554394195,0.004418433868736652
8.181818181818182,7.7974683544303796,0.004513069447797215,0.0042724318234385284,-7.80444732842905e-06,-0.002635650381370723,0.004397711987455325
8.282828282828282,7.7974683544303796,0.004897289417034033,0.004270941737103013,-3.419016617472641e-06,-0.0027504693462411136,0.004616100546463692
8.383838383838384,7.7974683544303796,0.004671428874682273,0.004471532763405532,0.00016238137561690814,-0.002742888491426341,0.004583394904850083
8.484848484848484,7.7974683544303796,0.004968242102086135,0.004289212526262553,9.683683454295343e-05,-0.0027772363885046063,0.0046689462987047625
8.585858585858587,7.7974683544303796,0.004707660174071511,0.004293367183037835,-7.636790563403541e-05,-0.002700308207132804,0.004516729851751732
8.686868686868687,7.7974683544303796,0.004836735435969739,0.0044476144496253004,2.0177533842916284e-05,-0.0027853049656785117,0.004654521560231873
8.787878787878787,7.7974683544303796,0.004849221446575393,0.004469916691593846,5.868948849356388e-06,-0.002795741441450772,0.004671144540272289
8.88888888888889,7.7974683544303796,0.005026206034911278,0.004545913619494555,8.849870839406872e-06,-0.0028716358963217494,0.00480412471043762
8.98989898989899,7.7974683544303796,0.00507066579481517,0.004415644544290227,3.238667672029593e-05,-0.002845893101731619,0.004777285555827795
9.09090909090909,7.7974683544303796,0.004966628030366436,0.004519793349061786,-1.913252189119292e-05,-0.002845926413828466,0.004759085178005582
9.191919191919192,7.7974683544303796,0.004956434928223326,0.004508167791245119,7.417776231793636e-05,-0.0028393808158405334,0.004749935868007151
9.292929292929292,7.7974683544303796,0.00510892838220682,0.0046498069159400185,-5.0446240540681114e-05,-0.0029276205894440514,0.004896320814138771
9.393939393939394,7.7974683544303796,0.00492764707393633,0.004822262987031796,6.861977537521225e-05,-0.002924973018290438,0.0048772576233257385
9.494949494949495,7.7974683544303796,0.005162869437766395,0.004511712733264751,-4.602855058632485e-06,-0.0029023746513093434,0.004870056713755558
9.595959595959595,7.7974683544303796,0.0051188689284994435,0.004866425970806637,0.00010237212923677028,-0.002995588469791824,0.0050005763967993664
9.696969696969697,7.7974683544303796,0.005232308276859944,0.004597763070589925,1.638928233913871e-06,-0.0029490214042349606,0.004945661679325242
9.797979797979798,7.7974683544303796,0.005315860034171331,0.004872261910669639,-6.337319385549675e-05,-0.0030564365834522913,0.005109705485369635
9.8989898989899,7.7974683544303796,0.005454317833188575,0.004839094251519937,-5.1722023507071185e-05,-0.003088023625412554,0.005174986341154312
10.0,7.7974683544303796,0.005440935870552948,0.004892530462342019,-5.0300474599318595e-05,-0.0031000398998684902,0.005189246900593519
0.0,7.898734177215189,0.005500652028373515,0.004862766470642148,-6.222775849285652e-05,-0.003109025549704699,0.005212187747653363
0.10101010101010101,7.898734177215189,0.005411251455266261,0.0048720135798654505,-5.877831255950405e-05,-0.0030849795105395133,0.0051638002217816985
0.20202020202020202,7.898734177215189,0.005287290179169101,0.004896310463780358,-5.934983390341018e-05,-0.0030550801928848374,0.0051040813645069705
0.30303030303030304,7.898734177215189,0.005423618183824301,0.004834697862657232,-5.594398075090226e-05,-0.00307749481394446,0.005155363379320078
0.40404040404040403,7.898734177215189,0.005177153767605939,0.004658043727145044,-5.629989430724159e-06,-0.002950559248425295,0.004938114919289796
0.5050505050505051,7.898734177215189,0.005193518522446642,0.0045640982593633085,-1.0094879342918898e-05,-0.002927285034542985,0.004909195905198381
0.6060606060606061,7.898734177215189,0.00520634881926337,0.004682266871976501,-4.2416743894482806e-05,-0.0029665847073719613,0.004965639337321094
0.7070707070707071,7.898734177215189,0.005001130222308916,0.004654789323200505,2.3998725229775132e-05,-0.002896775863652826,0.004837446371544815
0.8080808080808081,7.898734177215189,0.0049035265248375745,0.00460919213144504,6.899155485037605e-06,-0.0028538155968847842,0.004763199702383511
0.9090909090909091,7.898734177215189,0.005070472124990239,0.0046428942215885225,5.498162370622087e-05,-0.0029140099039736285,0.004871709918514893
1.0101010101010102,7.898734177215189,0.005000068687942941,0.004462091763752179,-9.579606451584051e-05,-0.002838648135508536,0.004756859798181704
1.1111111111111112,7.898734177215189,0.004898386890150662,0.004580441870073857,9.70470378726593e-05,-0.0028436486280673553,0.004750381019027649
1.2121212121212122,7.898734177215189,0.004639437169316182,0.004251211534683794,5.194187795599308e-05,-0.0026671946111999933,0.004458928327309174
1.3131313131313131,7.898734177215189,0.004894321351951634,0.004417682429048272,-4.020591987373095e-05,-0.002793601134299972,0.0046747825242932604
1.4141414141414141,7.898734177215189,0.004702934539233818,0.004381313265671005,5.5597952876143736e-05,-0.002725274341471447,0.004551674760462098
1.5151515151515151,7.898734177215189,0.004892520284072487,0.004376380435261102,-1.1305698428056643e-05,-0.002780670215800077,0.004655997621381996
1.6161616161616161,7.898734177215189,0.0045831123427392175,0.004075193710302547,5.966459060943973e-05,-0.0025974918159125293,0.004352669470570324
1.7171717171717171,7.898734177215189,0.004735647531249213,0.004229907228759153,5.007409782518625e-05,-0.0026896664280025096,0.004504957849377532
1.8181818181818181,7.898734177215189,0.004721186106331748,0.004416444662760086,1.3758798975799581e-05,-0.0027412892307275495,0.004576493465775279
1.9191919191919191,7.898734177215189,0.004583297629752693,0.004234284308497977,-4.129070847657376e-05,-0.002645274581475201,0.0044197183508760535
2.0202020202020203,7.898734177215189,0.004623469791853437,0.004179416962914932,-7.8561077318975e-05,-0.0026408660264305105,0.004420306156715151
2.121212121212121,7.898734177215189,0.004746209341640663,0.004221297123085436,-3.541100259436778e-05,-0.0026902519394178294,0.004507155920747776
2.2222222222222223,7.898734177215189,0.004729636282083256,0.004074662994009961,-6.180804142086781e-05,-0.0026412897828279646,0.0044398338531721985
2.323232323232323,7.898734177215189,0.004482717743810369,0.0040679272202384,-2.37635813700209e-05,-0.0025651934892146305,0.004290584439506531
2.4242424242424243,7.898734177215189,0.0047475708205004085,0.003970760295821324,1.8719791516262968e-05,-0.0026154993348965197,0.004410890114101497
2.525252525252525,7.898734177215189,0.004539866357901928,0.004210375331923015,3.799332194027108e-05,-0.0026250725069474827,0.004384910048937636
2.6262626262626263,7.898734177215189,0.004451516646796289,0.004110259119125008,7.251095104108053e-06,-0.002568532729776389,0.004291095585834015
2.727272727272727,7.898734177215189,0.004685321674456339,0.003986980198514376,-5.785837380378626e-05,-0.0026016905618912144,0.004379270296636884
2.8282828282828283,7.898734177215189,0.004477656603975745,0.004073191917527985,4.123872651728882e-05,-0.002565254556451119,0.004290343607341655
2.929292929292929,7.898734177215189,0.004559911729456831,0.004087942289949613,-1.9865047682427997e-05,-0.0025943562058219328,0.004343339154322501
3.0303030303030303,7.898734177215189,0.0045746108790531165,0.0039560168384113895,-0.0001227269527439733,-0.002559188315239352,0.004304077365547811
3.131313131313131,7.898734177215189,0.004654894732580718,0.003961169698564804,-5.6666009108248975e-05,-0.0025848193293436564,0.00435082928845672
3.2323232323232323,7.898734177215189,0.004380724134550407,0.0041451481849087484,-6.248635731394088e-05,-0.0025577616958377468,0.004269187318157665
3.3333333333333335,7.898734177215189,0.004482232589901309,0.004024634901128662,-1.766828027388074e-05,-0.0025520602473089915,0.004271964637663413
3.4343434343434343,7.898734177215189,0.004505382310578124,0.004050774941841503,4.991914908787178e-05,-0.002566847175725888,0.004297026110131569
3.5353535353535355,7.898734177215189,0.0043820215515059414,0.003851116919904836,-5.140341414612063e-05,-0.0024699415414232333,0.004143122494110608
3.6363636363636362,7.898734177215189,0.004548450789299702,0.0041144872196186705,-2.3772627168673297e-05,-0.0025988814026755114,0.004347937722053512
3.7373737373737375,7.898734177215189,0.004636175877840839,0.004047439786734612,-1.6000477284957615e-05,-0.0026050846993726355,0.004371729741997251
3.8383838383838382,7.898734177215189,0.0043521886276682124,0.004060041043305901,4.0364332552743564e-05,-0.0025236689012922337,0.0042142973916915434
3.9393939393939394,7.898734177215189,0.004576808917648154,0.003961142164401065,2.771523333328659e-05,-0.002561385324614766,0.004302411037503609
4.040404040404041,7.898734177215189,0.004333490346624217,0.004068618637886501,-1.3849843538281727e-05,-0.002520632695353215,0.004207380665920813
4.141414141414141,7.898734177215189,0.004368217309019679,0.0038323081955037013,5.754013633433719e-05,-0.0024601576513570145,0.0041276489885787105
4.242424242424242,7.898734177215189,0.004400271150726427,0.004046236492355156,3.714002441742452e-05,-0.002533952292924475,0.0042348573045494844
4.343434343434343,7.898734177215189,0.0044180391892701025,0.003868954581728601,-1.5200543280196267e-05,-0.002486098131299611,0.004170776910764962
4.444444444444445,7.898734177215189,0.004385448267500682,0.003952382736037993,7.350461002360154e-06,-0.0025013493010616022,0.004185770880570188
4.545454545454545,7.898734177215189,0.004517256869829065,0.0038546564295441053,3.374351749903272e-05,-0.002511573989811951,0.004225509253992272
4.646464646464646,7.898734177215189,0.0042680074616795564,0.0037856842815244983,-2.3596631255661796e-05,-0.0024161075229612167,0.0040486583968327465
4.747474747474747,7.898734177215189,0.004522123397396549,0.003978825129122813,2.797047518900136e-05,-0.0025502845579558086,0.004276711150090891
4.848484848484849,7.898734177215189,0.004351136845173104,0.003911915174212276,4.988032759297608e-05,-0.0024789156058156133,0.0041498985610723986
4.94949494949495,7.898734177215189,0.00440985510367321,0.0040082695657574245,3.7587397295760435e-06,-0.0025254374008291903,0.004223411101241453
5.05050505050505,7.898734177215189,0.004326514584643241,0.00403533702015075,-4.987875485433173e-05,-0.002508555481438197,0.00418941434048415
5.151515151515151,7.898734177215189,0.004357631262143409,0.004140324848499773,4.562670030835585e-05,-0.002549386833192955,0.004253877814418925
5.252525252525253,7.898734177215189,0.0044218316551837,0.003917021192388441,1.8236160864445736e-06,-0.0025016558542716423,0.004192284804566964
5.353535353535354,7.898734177215189,0.0044640131706141836,0.003957487615746205,1.1840283405092983e-05,-0.0025264502359081164,0.004233587787432928
5.454545454545454,7.898734177215189,0.004423298037675642,0.003927098064755461,-3.1383040591469965e-05,-0.002505118830729331,0.004197605777396078
5.555555555555555,7.898734177215189,0.004349193377144958,0.004036997921908437,-1.927105324065678e-05,-0.0025158573897160184,0.004201935833429812
5.656565656565657,7.898734177215189,0.004424980348146093,0.003794096445477099,-3.5085707106792384e-05,-0.0024657230380869576,0.004146143959076134
5.757575757575758,7.898734177215189,0.004506385791474379,0.004071982080992506,-3.011327462648445e-06,-0.0025735103617400656,0.004305653955078437
5.858585858585858,7.898734177215189,0.004420587588643062,0.003953716501324963,2.2905535661840623e-05,-0.0025122912269904076,0.004206815030119087
5.959595959595959,7.898734177215189,0.004306983842980289,0.004049247446427438,3.4684350028348995e-07,-0.002506869386822318,0.004184073581929632
6.0606060606060606,7.898734177215189,0.004246331759640768,0.004071538475469415,-1.048358021632354e-05,-0.002495361070533055,0.0041617286729842195
6.161616161616162,7.898734177215189,0.004472480969140199,0.00396951756250101,-2.870204623091773e-05,-0.0025325995594923626,0.004243705381591091
6.262626262626262,7.898734177215189,0.004474024681014987,0.003948688647756178,-7.525393961689806e-05,-0.002526813998631349,0.004237864778615349
6.363636363636363,7.898734177215189,0.004290249355684453,0.004009695694414454,3.311622088251668e-05,-0.002489983515029672,0.004157474567397972
6.4646464646464645,7.898734177215189,0.00447689542554184,0.0039065681387084545,8.706018024564134e-06,-0.0025150390692750884,0.004220757944742584
6.565656565656566,7.898734177215189,0.004548314204738227,0.0037990995234404527,2.1079643183352927e-05,-0.0025042241184536035,0.004223997398249764
6.666666666666667,7.898734177215189,0.004297671886304366,0.004070862317098922,2.455547365608123e-05,-0.0025105602610209863,0.004189090835462329
6.767676767676767,7.898734177215189,0.004470417949710451,0.0038603487325869048,-2.836449997521482e-05,-0.0024992300046892068,0.004199043980545662
6.8686868686868685,7.898734177215189,0.004472895844432757,0.00416261856166168,-2.4731519874326e-05,-0.002590654321828331,0.004326322480218606
6.96969696969697,7.898734177215189,0.004568108705119779,0.0040995474415197715,-4.1461853965139476e-05,-0.002600296843991865,0.004353376306776971
7.070707070707071,7.898734177215189,0.004410378194328021,0.0040857801029838894,6.731556841822025e-05,-0.002548847489193573,0.004258966253820063
7.171717171717171,7.898734177215189,0.004551579170797947,0.003973257012387095,-3.055893460037237e-05,-0.0025574508549555124,0.00429206848992053
7.2727272727272725,7.898734177215189,0.004490098649351787,0.004063852622172476,-9.295905204840347e-06,-0.0025661853814572784,0.004292906251856454
7.373737373737374,7.898734177215189,0.004451715728622802,0.004075730479669586,-4.221707103635212e-05,-0.0025582338624877163,0.004276763406206092
7.474747474747475,7.898734177215189,0.004573810890382784,0.004221310704974709,4.6046061123314126e-05,-0.0026385364786072475,0.004408865383979238
7.575757575757575,7.898734177215189,0.004669004453419537,0.003910037600369806,8.923986317722737e-06,-0.0025737126161368027,0.004339614333761478
7.6767676767676765,7.898734177215189,0.004562276614278479,0.004225717247917069,-4.238134458801967e-05,-0.0026363981586586646,0.0044042651737739545
7.777777777777778,7.898734177215189,0.004528076100630047,0.004039500780652561,-0.00011558709297561962,-0.0025702730643847823,0.004309286938094056
7.878787878787879,7.898734177215189,0.004627437898916282,0.004251462025120371,4.302218860820442e-05,-0.002663669977210996,0.004451998100253402
7.979797979797979,7.898734177215189,0.004547633245883518,0.004233725186837888,-5.231324347154565e-05,-0.002634407529816422,0.004400020194210445
8.080808080808081,7.898734177215189,0.004746079569397453,0.0043042875887691736,-6.288886403102461e-05,-0.0027151101474499877,0.0045426354209503975
8.181818181818182,7.898734177215189,0.00466294627389918,0.004270055753128057,1.6573564814653095e-05,-0.002679900608108171,0.004479534303234437
8.282828282828282,7.898734177215189,0.004915382037720179,0.004416800208871444,4.064478608319162e-05,-0.002799654673977487,0.004686555264461396
8.383838383838384,7.898734177215189,0.004586161334561095,0.00420184837927244,-3.744944309737887e-05,-0.0026364029141500603,0.004407069139538779
8.484848484848484,7.898734177215189,0.004740055484471434,0.004009574477969329,1.6642433638229418e-05,-0.002624888988732229,0.0044204116219361
8.585858585858587,7.898734177215189,0.00480299405982957,0.004286081318514459,-8.01007324128528e-05,-0.0027267226135032083,0.004568639871658147
8.686868686868687,7.898734177215189,0.004727855510079242,0.004313422211636249,2.403351778362715e-05,-0.0027123833165146475,0.004535055099926807
8.787878787878787,7.898734177215189,0.004773770398299755,0.004435584718206995,0.00011005124844712098,-0.0027628065349520254,0.004617917973827753
8.88888888888889,7.898734177215189,0.004853830006709983,0.004366272649081086,-4.2147048265922754e-05,-0.0027660307967373203,0.004629922947479528
8.98989898989899,7.898734177215189,0.004938392167844461,0.004327242967464432,-2.9840661067989346e-05,-0.002779690540592668,0.004663238951541133
9.09090909090909,7.898734177215189,0.005068038994535676,0.004477950276087811,-4.080864037035332e-06,-0.002863796781187046,0.004800279290916116
9.191919191919192,7.898734177215189,0.005034073427355469,0.004433695340444591,4.2008232859486144e-05,-0.002840330630340018,0.004762908336347507
9.292929292929292,7.898734177215189,0.005295630726069245,0.0046130634204801175,1.3554344686719484e-05,-0.0029726082439648087,0.004989542030912201
9.393939393939394,7.898734177215189,0.005043027451014209,0.004725551158831398,-2.17383335735346e-06,-0.0029305735829536824,0.004892023056764071
9.494949494949495,7.898734177215189,0.005078361784206619,0.004711575880258767,8.143747423500803e-05,-0.0029369812993396156,0.004907292021029516
9.595959595959595,7.898734177215189,0.005218961277638625,0.004793362444349787,6.468759526201012e-05,-0.0030036971165965233,0.005020962139728593
9.696969696969697,7.898734177215189,0.005303819774870659,0.0047666468558599595,7.022414320080562e-05,-0.0030211399892191857,0.005058140457689806
9.797979797979798,7.898734177215189,0.005353314026658366,0.0049343326712367325,-8.464106715545481e-05,-0.0030862940093685297,0.005158688787673554
9.8989898989899,7.898734177215189,0.0055597781105885605,0.0048710832232620035,7.980562294513109e-05,-0.003129258400155169,0.005251242647196754
10.0,7.898734177215189,0.005393329268449569,0.004944378514655475,-3.2690617803330616e-05,-0.0031013123349315132,0.005183765442821844
0.0,8.0,0.005380995136858074,0.004884644401431643,1.7179280570712265e-05,-0.003079691861486915,0.00515087344097929
0.10101010101010101,8.0,0.005370357656522317,0.004885211735405887,6.617485089839373e-05,-0.003076670817578461,0.005146245052892435
0.20202020202020202,8.0,0.0053761678941591055,0.005036170918132995,-2.4393336104819085e-05,-0.0031237016436876305,0.005214660434564294
0.30303030303030304,8.0,0.00518423182803218,0.004982912146818863,-1.9226238702710835e-05,-0.003050143192455313,0.005086669864128623
0.40404040404040403,8.0,0.005440392676190029,0.004808335795782507,-5.690184454280443e-05,-0.003074618541591761,0.005154458672629466
0.5050505050505051,8.0,0.005246551717076143,0.004703703809521607,-5.340388406497614e-06,-0.002985076657979325,0.004997298741164522
0.6060606060606061,8.0,0.005025496646196184,0.004706717805833593,8.198802587137987e-05,-0.002919664335608933,0.004876000472316461
0.7070707070707071,8.0,0.0049663168742325875,0.0044045291203272064,4.101158704940661e-05,-0.0028112537983679383,0.004711150456585399
0.8080808080808081,8.0,0.005101034439226477,0.004583150964518736,-3.5492587815517085e-05,-0.0029052556211235634,0.004863208136089695
0.9090909090909091,8.0,0.005135776298489887,0.004716054781134573,-7.402016316259701e-05,-0.002955549323887338,0.004940972118229949
1.0101010101010102,8.0,0.004991560403457408,0.0043606907874207184,-2.6087257019157506e-05,-0.0028056753572634377,0.004708151396629615
1.1111111111111112,8.0,0.004935486073768392,0.004439495644475198,-2.5690881925090638e-05,-0.002812494515473077,0.004707340597200875
1.2121212121212122,8.0,0.004939813575812277,0.004496816097347025,-6.407661388334286e-05,-0.0028309889019477903,0.004735187156689042
1.3131313131313131,8.0,0.004829593608942655,0.004443727439080765,7.103481266587697e-05,-0.0027819963144070257,0.004650314846818749
1.4141414141414141,8.0,0.0048893190010989235,0.004258602912640097,2.6741099662544643e-05,-0.0027443765741217065,0.004606692542636283
1.5151515151515151,8.0,0.004994496964143683,0.004266920417849448,-7.653799675007192e-07,-0.002778425214597939,0.004673381052442513
1.6161616161616161,8.0,0.00465655193845797,0.004270179515657314,-1.0221084791282491e-06,-0.002678019436234585,0.004475890915160429
1.7171717171717171,8.0,0.004713163127060238,0.00429225071547878,-8.900983272026373e-06,-0.0027016241527617053,0.004517464194105522
1.8181818181818181,8.0,0.004626600396736228,0.004246711370198372,2.034518962831532e-05,-0.0026619935300803803,0.004448976732113908
1.9191919191919191,8.0,0.004778056544268137,0.004353792154511027,0.00010906545053011847,-0.0027395546096337492,0.004584577536279506
2.0202020202020203,8.0,0.004687648239954614,0.004523576679583896,7.974149349880585e-07,-0.002763367475861553,0.0046078039937572654
2.121212121212121,8.0,0.0047087938608117,0.0041223997017406375,-6.872583986526868e-05,-0.002649358068765701,0.004446297138109026
2.2222222222222223,8.0,0.00456284092816211,0.004115812587108236,-4.626878483620425e-05,-0.0026035960545811036,0.004357299033134893
2.323232323232323,8.0,0.004716802744567031,0.004297388477117341,-1.7101012125340694e-05,-0.002704257366505312,0.004521804885764677
2.4242424242424243,8.0,0.004451954243660806,0.004201980688897874,9.207287976653945e-06,-0.0025961804797676037,0.004332408898090775
2.525252525252525,8.0,0.004505952370440586,0.004086202987383766,3.936986472710759e-05,-0.002577646607347305,0.0043119688705306955
2.6262626262626263,8.0,0.004517728494181807,0.003976858387953893,-9.756183552013525e-05,-0.0025483760646407097,0.004276384204400536
2.727272727272727,8.0,0.004433949116312733,0.004199807255724508,-2.198347682664963e-06,-0.0025901269116111723,0.004321639570727852
2.8282828282828283,8.0,0.004537206542063338,0.004124155078316529,-0.00012228079952579556,-0.00259840848611396,0.004350587626438856
2.929292929292929,8.0,0.004508933467033673,0.004050354654037606,1.4010319778454572e-05,-0.002567786436321384,0.004298099934605467
3.0303030303030303,8.0,0.004494876878160528,0.004060655577249123,1.9097568418572482e-05,-0.0025666597366228957,0.004294390428672546
3.131313131313131,8.0,0.004466934318496668,0.004126124060302387,-1.650511044625388e-05,-0.0025779175136397166,0.004306749825035408
3.2323232323232323,8.0,0.004429349057731467,0.004109472006213185,5.883920161254601e-05,-0.0025616463191833953,0.0042796020190575485
3.3333333333333335,8.0,0.004615877755085034,0.0039031802726242236,-7.192231197168035e-05,-0.002555717408312777,0.0043058168972770925
3.4343434343434343,8.0,0.004358224599242118,0.004102577807239162,8.957683417247477e-05,-0.002538240721944384,0.0042390308833195585
3.5353535353535355,8.0,0.004355743851075282,0.003936051260016201,-1.9343265289474424e-05,-0.0024875385333274448,0.004161934097274816
3.6363636363636362,8.0,0.004519555181213171,0.004038380180051637,3.887896553938059e-05,-0.0025673806083794425,0.004299737918767608
3.7373737373737375,8.0,0.0043987109715125355,0.004092291458534061,7.091606285170107e-05,-0.0025473007290139787,0.004255559601171853
3.8383838383838382,8.0,0.004444538047866132,0.004104073901026582,-1.748700815181981e-06,-0.002564583584667814,0.00428446468225773
3.9393939393939394,8.0,0.004485754930240997,0.004045059236832071,-8.089496039903214e-05,-0.0025592442501219206,0.004284739092731248
4.040404040404041,8.0,0.00444134508367428,0.004032695981987638,-7.264394783945444e-05,-0.0025422123196985756,0.004253636090609565
4.141414141414141,8.0,0.004509160653326127,0.003948122889599234,5.8652929822098427e-05,-0.002537185062877608,0.004257675922276722
4.242424242424242,8.0,0.0042853786115380045,0.004048191640116685,-5.147581722204559e-05,-0.0025000710754964064,0.004172797719594259
4.343434343434343,8.0,0.004542025523942749,0.004085259723821713,2.6835786802501518e-05,-0.0025881855743293387,0.0043319913910410375
4.444444444444445,8.0,0.004286630723694028,0.003869000873310129,-5.940764570521288e-05,-0.002446689479101247,0.004095116666294943
4.545454545454545,8.0,0.004407878819025741,0.0038639638855661163,-5.1197524173618916e-05,-0.002481552811377557,0.004163603197106108
4.646464646464646,8.0,0.004396291999422069,0.004024108714440102,3.318175938623471e-06,-0.002526120214158651,0.004222524170989705
4.747474747474747,8.0,0.004423911847127997,0.003930201138856747,-5.389985014279171e-05,-0.002506233895795423,0.004199920145048267
4.848484848484849,8.0,0.004335841157370866,0.0038165142589737344,-4.095978779062678e-05,-0.00244570662490338,0.004101528147141921
4.94949494949495,8.0,0.00441264380286134,0.003951787348110514,2.4383718332670375e-05,-0.0025093293452915564,0.004201428604761765
5.05050505050505,8.0,0.004546692095915029,0.003961702572716062,2.029186993906953e-05,-0.002552518400589327,0.004284400751090376
5.151515151515151,8.0,0.004482398869097804,0.003904113475883431,-3.0018988951588962e-05,-0.0025159537034943704,0.004223376758498763
5.252525252525253,8.0,0.0045174623028268,0.003999163935065409,7.174721574789741e-05,-0.0025549878713676624,0.004283707332020866
5.353535353535354,8.0,0.00435557032138665,0.0038767226166326095,3.779605002610092e-05,-0.0024696878814057777,0.004137501507165204
5.454545454545454,8.0,0.00426679736926263,0.0037244680648077367,-5.7641953521114415e-05,-0.00239737963022111,0.004024380623116065
5.555555555555555,8.0,0.004363022244148594,0.00394310697981511,-7.923642293496554e-05,-0.002491838767189111,0.004171214154819883
5.656565656565657,8.0,0.004480294611330606,0.004022579237215227,9.750338837279415e-05,-0.0025508621545637495,0.004273214735545111
5.757575757575758,8.0,0.00470797837085583,0.004009768088682192,-4.979610589109499e-05,-0.0026153239378614067,0.004401458620535064
5.858585858585858,8.0,0.004415704153201072,0.00390748832023431,1.4139999344815043e-05,-0.002496957742030614,0.004184877006061927
5.959595959595959,8.0,0.004356312935490222,0.0038712675777146095,-2.5701322329233152e-05,-0.0024682741539614494,0.004135420619302242
6.0606060606060606,8.0,0.0044368449282182285,0.004097238613308101,8.860574930112231e-05,-0.0025602250624578984,0.004279917960278025
6.161616161616162,8.0,0.004586033917244879,0.004026715784465179,-6.097394762877922e-06,-0.002583824910513017,0.004333543985122049
6.262626262626262,8.0,0.004473007783006707,0.004208645303165029,-7.0546669550573594e-06,-0.002604495925851521,0.004346877042509643
6.363636363636363,8.0,0.004343466291873701,0.0038812094647129357,1.3276143745691292e-05,-0.002467402726975991,0.004131841311560358
6.4646464646464645,8.0,0.004463647259252543,0.003991728064258297,0.00010970587842698612,-0.002536612597053252,0.004251644375955771
6.565656565656566,8.0,0.0046985606722096205,0.004054026886370351,4.695925333132001e-05,-0.0026257762675739914,0.004412497094377374
6.666666666666667,8.0,0.004642367077815505,0.004028325623808342,7.800958155971237e-05,-0.002601207810487154,0.004369927876564217
6.767676767676767,8.0,0.004439064579478254,0.004045380453529301,-4.3112965437891934e-05,-0.0025453335099022666,0.004256555938333987
6.8686868686868685,8.0,0.004614705844040925,0.004427681728019584,-3.2916752272239125e-05,-0.0027127162716181524,0.0045244532601806395
6.96969696969697,8.0,0.004576528250159771,0.0038892731811979177,2.8520894282470306e-05,-0.0025397404294073066,0.004274824960204431
7.070707070707071,8.0,0.004559864958028296,0.004082510966197272,-4.7809725248040926e-05,-0.0025927127772676704,0.004341707364451349
7.171717171717171,8.0,0.00458705232205639,0.004087419333116125,0.0001389219965122383,-0.0026023414965517543,0.004365402321684763
7.2727272727272725,8.0,0.004465688897854128,0.004104598372627951,1.5267663950445888e-06,-0.0025710861811446234,0.0042965396243081185
7.373737373737374,8.0,0.0047097082060313525,0.004034936046568723,-5.842747187264595e-05,-0.0026233932757800224,0.004412361066926705
7.474747474747475,8.0,0.0047134584096059865,0.004240928915024109,-1.9671034981563794e-05,-0.0026863161973890285,0.004495985657357363
7.575757575757575,8.0,0.004483232195011604,0.004075883257040418,-3.5288908446174804e-05,-0.002567734635615607,0.004294508134759624
7.6767676767676765,8.0,0.004476403892395446,0.004027570667698567,6.242582691442463e-05,-0.002551192368028204,0.004271085954294673
7.777777777777778,8.0,0.004530596181787792,0.0041341058819518795,-7.210199476175151e-05,-0.0025994106191219012,0.004347731014527862
7.878787878787879,8.0,0.004584310862559762,0.004061372640232385,-2.7548265662769596e-05,-0.0025937050508376435,0.0043467615320735425
7.979797979797979,8.0,0.004586388396656734,0.004296033413754957,7.126420181935813e-05,-0.002664726543123507,0.00445003590726795
8.080808080808081,8.0,0.004627865870149189,0.004261226026508164,3.6147029166645404e-06,-0.0026667275689972055,0.0044558777436376346
8.181818181818182,8.0,0.004656198959768485,0.004151936886796762,-6.129485351166906e-05,-0.002642440753969574,0.0044269397588815535
8.282828282828282,8.0,0.00477568025310445,0.004398773855166472,-4.2558020227856575e-05,-0.0027523362324812766,0.004599416204917139
8.383838383838384,8.0,0.0048389069413565635,0.004211563578091177,5.944261351834226e-06,-0.002715141155834322,0.0045577439517980895
8.484848484848484,8.0,0.004876554982772507,0.00418090988056828,4.896256921649437e-05,-0.002717239459002236,0.0045694147347753004
8.585858585858587,8.0,0.0048545205203424984,0.00441486746743052,-5.1344723498199456e-05,-0.0027808163963319054,0.004651157744482777
8.686868686868687,8.0,0.004865024015081305,0.004434941585265769,-7.443919299786425e-07,-0.0027899896801041224,0.004664876190918125
8.787878787878787,8.0,0.004763136271591251,0.0045608796545444615,-5.673329384546825e-05,-0.0027972047778407135,0.004666332076905176
8.88888888888889,8.0,0.004868674764848778,0.004563959311626313,-9.313394604906112e-05,-0.0028297902229425273,0.004726447591105206
8.98989898989899,8.0,0.00503049081441853,0.0045174471572732985,1.653175695500493e-05,-0.0028643813915075486,0.004794685612257121
9.09090909090909,8.0,0.005032559457483883,0.004442430584881128,-2.700578823204561e-05,-0.002842497012709503,0.0047652110213748855
9.191919191919192,8.0,0.004968109687939777,0.0046615745602353546,2.7466384281791908e-05,-0.00288890527445254,0.004822389524403041
9.292929292929292,8.0,0.005044566397256415,0.004459437169117432,6.613779401138737e-05,-0.002851201069912154,0.0047803164885830175
9.393939393939394,8.0,0.005019761442666791,0.00449675754543759,-1.4749997410724881e-05,-0.0028549556964313143,0.004779836389187014
9.494949494949495,8.0,0.005251751995534617,0.004711643252447781,-5.65343650929305e-06,-0.0029890185743947193,0.005003618210023801
9.595959595959595,8.0,0.005225031677135602,0.004830749556706246,-4.4943996904267496e-05,-0.0030167343701525545,0.005040073187679159
9.696969696969697,8.0,0.005245888186602429,0.004593248402375553,-3.9486565533039934e-05,-0.0029517409766933946,0.004952401819994101
9.797979797979798,8.0,0.005354865267601863,0.004953511471912043,-6.451432523068281e-05,-0.0030925130218541715,0.005167103414622521
9.8989898989899,8.0,0.005483987129920118,0.004965742248490381,3.638628108942129e-05,-0.0031349188135231494,0.005244484361946799
10.0,8.0,0.00542338502526884,0.004978136286942031,-5.635025535837335e-05,-0.0031204563936632615,0.005215948838434605
